# vtk DataFile Version 3.0
vtk output
ASCII
DATASET UNSTRUCTURED_GRID
POINTS      5151 double 
  0.00000000E+00  1.00000000E+02  0.00000000E+00
  0.00000000E+00  9.80000000E+01  0.00000000E+00
  0.00000000E+00  9.60000000E+01  0.00000000E+00
  0.00000000E+00  9.40000000E+01  0.00000000E+00
  0.00000000E+00  9.20000000E+01  0.00000000E+00
  0.00000000E+00  9.00000000E+01  0.00000000E+00
  0.00000000E+00  8.80000000E+01  0.00000000E+00
  0.00000000E+00  8.60000000E+01  0.00000000E+00
  0.00000000E+00  8.40000000E+01  0.00000000E+00
  0.00000000E+00  8.20000000E+01  0.00000000E+00
  0.00000000E+00  8.00000000E+01  0.00000000E+00
  0.00000000E+00  7.80000000E+01  0.00000000E+00
  0.00000000E+00  7.60000000E+01  0.00000000E+00
  0.00000000E+00  7.40000000E+01  0.00000000E+00
  0.00000000E+00  7.20000000E+01  0.00000000E+00
  0.00000000E+00  7.00000000E+01  0.00000000E+00
  0.00000000E+00  6.80000000E+01  0.00000000E+00
  0.00000000E+00  6.60000000E+01  0.00000000E+00
  0.00000000E+00  6.40000000E+01  0.00000000E+00
  0.00000000E+00  6.20000000E+01  0.00000000E+00
  0.00000000E+00  6.00000000E+01  0.00000000E+00
  0.00000000E+00  5.80000000E+01  0.00000000E+00
  0.00000000E+00  5.60000000E+01  0.00000000E+00
  0.00000000E+00  5.40000000E+01  0.00000000E+00
  0.00000000E+00  5.20000000E+01  0.00000000E+00
  0.00000000E+00  5.00000000E+01  0.00000000E+00
  0.00000000E+00  4.80000000E+01  0.00000000E+00
  0.00000000E+00  4.60000000E+01  0.00000000E+00
  0.00000000E+00  4.40000000E+01  0.00000000E+00
  0.00000000E+00  4.20000000E+01  0.00000000E+00
  0.00000000E+00  4.00000000E+01  0.00000000E+00
  0.00000000E+00  3.80000000E+01  0.00000000E+00
  0.00000000E+00  3.60000000E+01  0.00000000E+00
  0.00000000E+00  3.40000000E+01  0.00000000E+00
  0.00000000E+00  3.20000000E+01  0.00000000E+00
  0.00000000E+00  3.00000000E+01  0.00000000E+00
  0.00000000E+00  2.80000000E+01  0.00000000E+00
  0.00000000E+00  2.60000000E+01  0.00000000E+00
  0.00000000E+00  2.40000000E+01  0.00000000E+00
  0.00000000E+00  2.20000000E+01  0.00000000E+00
  0.00000000E+00  2.00000000E+01  0.00000000E+00
  0.00000000E+00  1.80000000E+01  0.00000000E+00
  0.00000000E+00  1.60000000E+01  0.00000000E+00
  0.00000000E+00  1.40000000E+01  0.00000000E+00
  0.00000000E+00  1.20000000E+01  0.00000000E+00
  0.00000000E+00  1.00000000E+01  0.00000000E+00
  0.00000000E+00  8.00000000E+00  0.00000000E+00
  0.00000000E+00  6.00000000E+00  0.00000000E+00
  0.00000000E+00  4.00000000E+00  0.00000000E+00
  0.00000000E+00  2.00000000E+00  0.00000000E+00
  0.00000000E+00 -3.33066907E-14  0.00000000E+00
  1.00000000E+01  1.00000000E+02  0.00000000E+00
  1.00000000E+01  9.80000000E+01  0.00000000E+00
  1.00000000E+01  9.60000000E+01  0.00000000E+00
  1.00000000E+01  9.40000000E+01  0.00000000E+00
  1.00000000E+01  9.20000000E+01  0.00000000E+00
  1.00000000E+01  9.00000000E+01  0.00000000E+00
  1.00000000E+01  8.80000000E+01  0.00000000E+00
  1.00000000E+01  8.60000000E+01  0.00000000E+00
  1.00000000E+01  8.40000000E+01  0.00000000E+00
  1.00000000E+01  8.20000000E+01  0.00000000E+00
  1.00000000E+01  8.00000000E+01  0.00000000E+00
  1.00000000E+01  7.80000000E+01  0.00000000E+00
  1.00000000E+01  7.60000000E+01  0.00000000E+00
  1.00000000E+01  7.40000000E+01  0.00000000E+00
  1.00000000E+01  7.20000000E+01  0.00000000E+00
  1.00000000E+01  7.00000000E+01  0.00000000E+00
  1.00000000E+01  6.80000000E+01  0.00000000E+00
  1.00000000E+01  6.60000000E+01  0.00000000E+00
  1.00000000E+01  6.40000000E+01  0.00000000E+00
  1.00000000E+01  6.20000000E+01  0.00000000E+00
  1.00000000E+01  6.00000000E+01  0.00000000E+00
  1.00000000E+01  5.80000000E+01  0.00000000E+00
  1.00000000E+01  5.60000000E+01  0.00000000E+00
  1.00000000E+01  5.40000000E+01  0.00000000E+00
  1.00000000E+01  5.20000000E+01  0.00000000E+00
  1.00000000E+01  5.00000000E+01  0.00000000E+00
  1.00000000E+01  4.80000000E+01  0.00000000E+00
  1.00000000E+01  4.60000000E+01  0.00000000E+00
  1.00000000E+01  4.40000000E+01  0.00000000E+00
  1.00000000E+01  4.20000000E+01  0.00000000E+00
  1.00000000E+01  4.00000000E+01  0.00000000E+00
  1.00000000E+01  3.80000000E+01  0.00000000E+00
  1.00000000E+01  3.60000000E+01  0.00000000E+00
  1.00000000E+01  3.40000000E+01  0.00000000E+00
  1.00000000E+01  3.20000000E+01  0.00000000E+00
  1.00000000E+01  3.00000000E+01  0.00000000E+00
  1.00000000E+01  2.80000000E+01  0.00000000E+00
  1.00000000E+01  2.60000000E+01  0.00000000E+00
  1.00000000E+01  2.40000000E+01  0.00000000E+00
  1.00000000E+01  2.20000000E+01  0.00000000E+00
  1.00000000E+01  2.00000000E+01  0.00000000E+00
  1.00000000E+01  1.80000000E+01  0.00000000E+00
  1.00000000E+01  1.60000000E+01  0.00000000E+00
  1.00000000E+01  1.40000000E+01  0.00000000E+00
  1.00000000E+01  1.20000000E+01  0.00000000E+00
  1.00000000E+01  1.00000000E+01  0.00000000E+00
  1.00000000E+01  8.00000000E+00  0.00000000E+00
  1.00000000E+01  6.00000000E+00  0.00000000E+00
  1.00000000E+01  4.00000000E+00  0.00000000E+00
  1.00000000E+01  2.00000000E+00  0.00000000E+00
  1.00000000E+01 -3.33066907E-14  0.00000000E+00
  2.00000000E+01  1.00000000E+02  0.00000000E+00
  2.00000000E+01  9.80000000E+01  0.00000000E+00
  2.00000000E+01  9.60000000E+01  0.00000000E+00
  2.00000000E+01  9.40000000E+01  0.00000000E+00
  2.00000000E+01  9.20000000E+01  0.00000000E+00
  2.00000000E+01  9.00000000E+01  0.00000000E+00
  2.00000000E+01  8.80000000E+01  0.00000000E+00
  2.00000000E+01  8.60000000E+01  0.00000000E+00
  2.00000000E+01  8.40000000E+01  0.00000000E+00
  2.00000000E+01  8.20000000E+01  0.00000000E+00
  2.00000000E+01  8.00000000E+01  0.00000000E+00
  2.00000000E+01  7.80000000E+01  0.00000000E+00
  2.00000000E+01  7.60000000E+01  0.00000000E+00
  2.00000000E+01  7.40000000E+01  0.00000000E+00
  2.00000000E+01  7.20000000E+01  0.00000000E+00
  2.00000000E+01  7.00000000E+01  0.00000000E+00
  2.00000000E+01  6.80000000E+01  0.00000000E+00
  2.00000000E+01  6.60000000E+01  0.00000000E+00
  2.00000000E+01  6.40000000E+01  0.00000000E+00
  2.00000000E+01  6.20000000E+01  0.00000000E+00
  2.00000000E+01  6.00000000E+01  0.00000000E+00
  2.00000000E+01  5.80000000E+01  0.00000000E+00
  2.00000000E+01  5.60000000E+01  0.00000000E+00
  2.00000000E+01  5.40000000E+01  0.00000000E+00
  2.00000000E+01  5.20000000E+01  0.00000000E+00
  2.00000000E+01  5.00000000E+01  0.00000000E+00
  2.00000000E+01  4.80000000E+01  0.00000000E+00
  2.00000000E+01  4.60000000E+01  0.00000000E+00
  2.00000000E+01  4.40000000E+01  0.00000000E+00
  2.00000000E+01  4.20000000E+01  0.00000000E+00
  2.00000000E+01  4.00000000E+01  0.00000000E+00
  2.00000000E+01  3.80000000E+01  0.00000000E+00
  2.00000000E+01  3.60000000E+01  0.00000000E+00
  2.00000000E+01  3.40000000E+01  0.00000000E+00
  2.00000000E+01  3.20000000E+01  0.00000000E+00
  2.00000000E+01  3.00000000E+01  0.00000000E+00
  2.00000000E+01  2.80000000E+01  0.00000000E+00
  2.00000000E+01  2.60000000E+01  0.00000000E+00
  2.00000000E+01  2.40000000E+01  0.00000000E+00
  2.00000000E+01  2.20000000E+01  0.00000000E+00
  2.00000000E+01  2.00000000E+01  0.00000000E+00
  2.00000000E+01  1.80000000E+01  0.00000000E+00
  2.00000000E+01  1.60000000E+01  0.00000000E+00
  2.00000000E+01  1.40000000E+01  0.00000000E+00
  2.00000000E+01  1.20000000E+01  0.00000000E+00
  2.00000000E+01  1.00000000E+01  0.00000000E+00
  2.00000000E+01  8.00000000E+00  0.00000000E+00
  2.00000000E+01  6.00000000E+00  0.00000000E+00
  2.00000000E+01  4.00000000E+00  0.00000000E+00
  2.00000000E+01  2.00000000E+00  0.00000000E+00
  2.00000000E+01 -3.33066907E-14  0.00000000E+00
  3.00000000E+01  1.00000000E+02  0.00000000E+00
  3.00000000E+01  9.80000000E+01  0.00000000E+00
  3.00000000E+01  9.60000000E+01  0.00000000E+00
  3.00000000E+01  9.40000000E+01  0.00000000E+00
  3.00000000E+01  9.20000000E+01  0.00000000E+00
  3.00000000E+01  9.00000000E+01  0.00000000E+00
  3.00000000E+01  8.80000000E+01  0.00000000E+00
  3.00000000E+01  8.60000000E+01  0.00000000E+00
  3.00000000E+01  8.40000000E+01  0.00000000E+00
  3.00000000E+01  8.20000000E+01  0.00000000E+00
  3.00000000E+01  8.00000000E+01  0.00000000E+00
  3.00000000E+01  7.80000000E+01  0.00000000E+00
  3.00000000E+01  7.60000000E+01  0.00000000E+00
  3.00000000E+01  7.40000000E+01  0.00000000E+00
  3.00000000E+01  7.20000000E+01  0.00000000E+00
  3.00000000E+01  7.00000000E+01  0.00000000E+00
  3.00000000E+01  6.80000000E+01  0.00000000E+00
  3.00000000E+01  6.60000000E+01  0.00000000E+00
  3.00000000E+01  6.40000000E+01  0.00000000E+00
  3.00000000E+01  6.20000000E+01  0.00000000E+00
  3.00000000E+01  6.00000000E+01  0.00000000E+00
  3.00000000E+01  5.80000000E+01  0.00000000E+00
  3.00000000E+01  5.60000000E+01  0.00000000E+00
  3.00000000E+01  5.40000000E+01  0.00000000E+00
  3.00000000E+01  5.20000000E+01  0.00000000E+00
  3.00000000E+01  5.00000000E+01  0.00000000E+00
  3.00000000E+01  4.80000000E+01  0.00000000E+00
  3.00000000E+01  4.60000000E+01  0.00000000E+00
  3.00000000E+01  4.40000000E+01  0.00000000E+00
  3.00000000E+01  4.20000000E+01  0.00000000E+00
  3.00000000E+01  4.00000000E+01  0.00000000E+00
  3.00000000E+01  3.80000000E+01  0.00000000E+00
  3.00000000E+01  3.60000000E+01  0.00000000E+00
  3.00000000E+01  3.40000000E+01  0.00000000E+00
  3.00000000E+01  3.20000000E+01  0.00000000E+00
  3.00000000E+01  3.00000000E+01  0.00000000E+00
  3.00000000E+01  2.80000000E+01  0.00000000E+00
  3.00000000E+01  2.60000000E+01  0.00000000E+00
  3.00000000E+01  2.40000000E+01  0.00000000E+00
  3.00000000E+01  2.20000000E+01  0.00000000E+00
  3.00000000E+01  2.00000000E+01  0.00000000E+00
  3.00000000E+01  1.80000000E+01  0.00000000E+00
  3.00000000E+01  1.60000000E+01  0.00000000E+00
  3.00000000E+01  1.40000000E+01  0.00000000E+00
  3.00000000E+01  1.20000000E+01  0.00000000E+00
  3.00000000E+01  1.00000000E+01  0.00000000E+00
  3.00000000E+01  8.00000000E+00  0.00000000E+00
  3.00000000E+01  6.00000000E+00  0.00000000E+00
  3.00000000E+01  4.00000000E+00  0.00000000E+00
  3.00000000E+01  2.00000000E+00  0.00000000E+00
  3.00000000E+01 -3.33066907E-14  0.00000000E+00
  4.00000000E+01  1.00000000E+02  0.00000000E+00
  4.00000000E+01  9.80000000E+01  0.00000000E+00
  4.00000000E+01  9.60000000E+01  0.00000000E+00
  4.00000000E+01  9.40000000E+01  0.00000000E+00
  4.00000000E+01  9.20000000E+01  0.00000000E+00
  4.00000000E+01  9.00000000E+01  0.00000000E+00
  4.00000000E+01  8.80000000E+01  0.00000000E+00
  4.00000000E+01  8.60000000E+01  0.00000000E+00
  4.00000000E+01  8.40000000E+01  0.00000000E+00
  4.00000000E+01  8.20000000E+01  0.00000000E+00
  4.00000000E+01  8.00000000E+01  0.00000000E+00
  4.00000000E+01  7.80000000E+01  0.00000000E+00
  4.00000000E+01  7.60000000E+01  0.00000000E+00
  4.00000000E+01  7.40000000E+01  0.00000000E+00
  4.00000000E+01  7.20000000E+01  0.00000000E+00
  4.00000000E+01  7.00000000E+01  0.00000000E+00
  4.00000000E+01  6.80000000E+01  0.00000000E+00
  4.00000000E+01  6.60000000E+01  0.00000000E+00
  4.00000000E+01  6.40000000E+01  0.00000000E+00
  4.00000000E+01  6.20000000E+01  0.00000000E+00
  4.00000000E+01  6.00000000E+01  0.00000000E+00
  4.00000000E+01  5.80000000E+01  0.00000000E+00
  4.00000000E+01  5.60000000E+01  0.00000000E+00
  4.00000000E+01  5.40000000E+01  0.00000000E+00
  4.00000000E+01  5.20000000E+01  0.00000000E+00
  4.00000000E+01  5.00000000E+01  0.00000000E+00
  4.00000000E+01  4.80000000E+01  0.00000000E+00
  4.00000000E+01  4.60000000E+01  0.00000000E+00
  4.00000000E+01  4.40000000E+01  0.00000000E+00
  4.00000000E+01  4.20000000E+01  0.00000000E+00
  4.00000000E+01  4.00000000E+01  0.00000000E+00
  4.00000000E+01  3.80000000E+01  0.00000000E+00
  4.00000000E+01  3.60000000E+01  0.00000000E+00
  4.00000000E+01  3.40000000E+01  0.00000000E+00
  4.00000000E+01  3.20000000E+01  0.00000000E+00
  4.00000000E+01  3.00000000E+01  0.00000000E+00
  4.00000000E+01  2.80000000E+01  0.00000000E+00
  4.00000000E+01  2.60000000E+01  0.00000000E+00
  4.00000000E+01  2.40000000E+01  0.00000000E+00
  4.00000000E+01  2.20000000E+01  0.00000000E+00
  4.00000000E+01  2.00000000E+01  0.00000000E+00
  4.00000000E+01  1.80000000E+01  0.00000000E+00
  4.00000000E+01  1.60000000E+01  0.00000000E+00
  4.00000000E+01  1.40000000E+01  0.00000000E+00
  4.00000000E+01  1.20000000E+01  0.00000000E+00
  4.00000000E+01  1.00000000E+01  0.00000000E+00
  4.00000000E+01  8.00000000E+00  0.00000000E+00
  4.00000000E+01  6.00000000E+00  0.00000000E+00
  4.00000000E+01  4.00000000E+00  0.00000000E+00
  4.00000000E+01  2.00000000E+00  0.00000000E+00
  4.00000000E+01 -3.33066907E-14  0.00000000E+00
  5.00000000E+01  1.00000000E+02  0.00000000E+00
  5.00000000E+01  9.80000000E+01  0.00000000E+00
  5.00000000E+01  9.60000000E+01  0.00000000E+00
  5.00000000E+01  9.40000000E+01  0.00000000E+00
  5.00000000E+01  9.20000000E+01  0.00000000E+00
  5.00000000E+01  9.00000000E+01  0.00000000E+00
  5.00000000E+01  8.80000000E+01  0.00000000E+00
  5.00000000E+01  8.60000000E+01  0.00000000E+00
  5.00000000E+01  8.40000000E+01  0.00000000E+00
  5.00000000E+01  8.20000000E+01  0.00000000E+00
  5.00000000E+01  8.00000000E+01  0.00000000E+00
  5.00000000E+01  7.80000000E+01  0.00000000E+00
  5.00000000E+01  7.60000000E+01  0.00000000E+00
  5.00000000E+01  7.40000000E+01  0.00000000E+00
  5.00000000E+01  7.20000000E+01  0.00000000E+00
  5.00000000E+01  7.00000000E+01  0.00000000E+00
  5.00000000E+01  6.80000000E+01  0.00000000E+00
  5.00000000E+01  6.60000000E+01  0.00000000E+00
  5.00000000E+01  6.40000000E+01  0.00000000E+00
  5.00000000E+01  6.20000000E+01  0.00000000E+00
  5.00000000E+01  6.00000000E+01  0.00000000E+00
  5.00000000E+01  5.80000000E+01  0.00000000E+00
  5.00000000E+01  5.60000000E+01  0.00000000E+00
  5.00000000E+01  5.40000000E+01  0.00000000E+00
  5.00000000E+01  5.20000000E+01  0.00000000E+00
  5.00000000E+01  5.00000000E+01  0.00000000E+00
  5.00000000E+01  4.80000000E+01  0.00000000E+00
  5.00000000E+01  4.60000000E+01  0.00000000E+00
  5.00000000E+01  4.40000000E+01  0.00000000E+00
  5.00000000E+01  4.20000000E+01  0.00000000E+00
  5.00000000E+01  4.00000000E+01  0.00000000E+00
  5.00000000E+01  3.80000000E+01  0.00000000E+00
  5.00000000E+01  3.60000000E+01  0.00000000E+00
  5.00000000E+01  3.40000000E+01  0.00000000E+00
  5.00000000E+01  3.20000000E+01  0.00000000E+00
  5.00000000E+01  3.00000000E+01  0.00000000E+00
  5.00000000E+01  2.80000000E+01  0.00000000E+00
  5.00000000E+01  2.60000000E+01  0.00000000E+00
  5.00000000E+01  2.40000000E+01  0.00000000E+00
  5.00000000E+01  2.20000000E+01  0.00000000E+00
  5.00000000E+01  2.00000000E+01  0.00000000E+00
  5.00000000E+01  1.80000000E+01  0.00000000E+00
  5.00000000E+01  1.60000000E+01  0.00000000E+00
  5.00000000E+01  1.40000000E+01  0.00000000E+00
  5.00000000E+01  1.20000000E+01  0.00000000E+00
  5.00000000E+01  1.00000000E+01  0.00000000E+00
  5.00000000E+01  8.00000000E+00  0.00000000E+00
  5.00000000E+01  6.00000000E+00  0.00000000E+00
  5.00000000E+01  4.00000000E+00  0.00000000E+00
  5.00000000E+01  2.00000000E+00  0.00000000E+00
  5.00000000E+01 -3.33066907E-14  0.00000000E+00
  6.00000000E+01  1.00000000E+02  0.00000000E+00
  6.00000000E+01  9.80000000E+01  0.00000000E+00
  6.00000000E+01  9.60000000E+01  0.00000000E+00
  6.00000000E+01  9.40000000E+01  0.00000000E+00
  6.00000000E+01  9.20000000E+01  0.00000000E+00
  6.00000000E+01  9.00000000E+01  0.00000000E+00
  6.00000000E+01  8.80000000E+01  0.00000000E+00
  6.00000000E+01  8.60000000E+01  0.00000000E+00
  6.00000000E+01  8.40000000E+01  0.00000000E+00
  6.00000000E+01  8.20000000E+01  0.00000000E+00
  6.00000000E+01  8.00000000E+01  0.00000000E+00
  6.00000000E+01  7.80000000E+01  0.00000000E+00
  6.00000000E+01  7.60000000E+01  0.00000000E+00
  6.00000000E+01  7.40000000E+01  0.00000000E+00
  6.00000000E+01  7.20000000E+01  0.00000000E+00
  6.00000000E+01  7.00000000E+01  0.00000000E+00
  6.00000000E+01  6.80000000E+01  0.00000000E+00
  6.00000000E+01  6.60000000E+01  0.00000000E+00
  6.00000000E+01  6.40000000E+01  0.00000000E+00
  6.00000000E+01  6.20000000E+01  0.00000000E+00
  6.00000000E+01  6.00000000E+01  0.00000000E+00
  6.00000000E+01  5.80000000E+01  0.00000000E+00
  6.00000000E+01  5.60000000E+01  0.00000000E+00
  6.00000000E+01  5.40000000E+01  0.00000000E+00
  6.00000000E+01  5.20000000E+01  0.00000000E+00
  6.00000000E+01  5.00000000E+01  0.00000000E+00
  6.00000000E+01  4.80000000E+01  0.00000000E+00
  6.00000000E+01  4.60000000E+01  0.00000000E+00
  6.00000000E+01  4.40000000E+01  0.00000000E+00
  6.00000000E+01  4.20000000E+01  0.00000000E+00
  6.00000000E+01  4.00000000E+01  0.00000000E+00
  6.00000000E+01  3.80000000E+01  0.00000000E+00
  6.00000000E+01  3.60000000E+01  0.00000000E+00
  6.00000000E+01  3.40000000E+01  0.00000000E+00
  6.00000000E+01  3.20000000E+01  0.00000000E+00
  6.00000000E+01  3.00000000E+01  0.00000000E+00
  6.00000000E+01  2.80000000E+01  0.00000000E+00
  6.00000000E+01  2.60000000E+01  0.00000000E+00
  6.00000000E+01  2.40000000E+01  0.00000000E+00
  6.00000000E+01  2.20000000E+01  0.00000000E+00
  6.00000000E+01  2.00000000E+01  0.00000000E+00
  6.00000000E+01  1.80000000E+01  0.00000000E+00
  6.00000000E+01  1.60000000E+01  0.00000000E+00
  6.00000000E+01  1.40000000E+01  0.00000000E+00
  6.00000000E+01  1.20000000E+01  0.00000000E+00
  6.00000000E+01  1.00000000E+01  0.00000000E+00
  6.00000000E+01  8.00000000E+00  0.00000000E+00
  6.00000000E+01  6.00000000E+00  0.00000000E+00
  6.00000000E+01  4.00000000E+00  0.00000000E+00
  6.00000000E+01  2.00000000E+00  0.00000000E+00
  6.00000000E+01 -3.33066907E-14  0.00000000E+00
  7.00000000E+01  1.00000000E+02  0.00000000E+00
  7.00000000E+01  9.80000000E+01  0.00000000E+00
  7.00000000E+01  9.60000000E+01  0.00000000E+00
  7.00000000E+01  9.40000000E+01  0.00000000E+00
  7.00000000E+01  9.20000000E+01  0.00000000E+00
  7.00000000E+01  9.00000000E+01  0.00000000E+00
  7.00000000E+01  8.80000000E+01  0.00000000E+00
  7.00000000E+01  8.60000000E+01  0.00000000E+00
  7.00000000E+01  8.40000000E+01  0.00000000E+00
  7.00000000E+01  8.20000000E+01  0.00000000E+00
  7.00000000E+01  8.00000000E+01  0.00000000E+00
  7.00000000E+01  7.80000000E+01  0.00000000E+00
  7.00000000E+01  7.60000000E+01  0.00000000E+00
  7.00000000E+01  7.40000000E+01  0.00000000E+00
  7.00000000E+01  7.20000000E+01  0.00000000E+00
  7.00000000E+01  7.00000000E+01  0.00000000E+00
  7.00000000E+01  6.80000000E+01  0.00000000E+00
  7.00000000E+01  6.60000000E+01  0.00000000E+00
  7.00000000E+01  6.40000000E+01  0.00000000E+00
  7.00000000E+01  6.20000000E+01  0.00000000E+00
  7.00000000E+01  6.00000000E+01  0.00000000E+00
  7.00000000E+01  5.80000000E+01  0.00000000E+00
  7.00000000E+01  5.60000000E+01  0.00000000E+00
  7.00000000E+01  5.40000000E+01  0.00000000E+00
  7.00000000E+01  5.20000000E+01  0.00000000E+00
  7.00000000E+01  5.00000000E+01  0.00000000E+00
  7.00000000E+01  4.80000000E+01  0.00000000E+00
  7.00000000E+01  4.60000000E+01  0.00000000E+00
  7.00000000E+01  4.40000000E+01  0.00000000E+00
  7.00000000E+01  4.20000000E+01  0.00000000E+00
  7.00000000E+01  4.00000000E+01  0.00000000E+00
  7.00000000E+01  3.80000000E+01  0.00000000E+00
  7.00000000E+01  3.60000000E+01  0.00000000E+00
  7.00000000E+01  3.40000000E+01  0.00000000E+00
  7.00000000E+01  3.20000000E+01  0.00000000E+00
  7.00000000E+01  3.00000000E+01  0.00000000E+00
  7.00000000E+01  2.80000000E+01  0.00000000E+00
  7.00000000E+01  2.60000000E+01  0.00000000E+00
  7.00000000E+01  2.40000000E+01  0.00000000E+00
  7.00000000E+01  2.20000000E+01  0.00000000E+00
  7.00000000E+01  2.00000000E+01  0.00000000E+00
  7.00000000E+01  1.80000000E+01  0.00000000E+00
  7.00000000E+01  1.60000000E+01  0.00000000E+00
  7.00000000E+01  1.40000000E+01  0.00000000E+00
  7.00000000E+01  1.20000000E+01  0.00000000E+00
  7.00000000E+01  1.00000000E+01  0.00000000E+00
  7.00000000E+01  8.00000000E+00  0.00000000E+00
  7.00000000E+01  6.00000000E+00  0.00000000E+00
  7.00000000E+01  4.00000000E+00  0.00000000E+00
  7.00000000E+01  2.00000000E+00  0.00000000E+00
  7.00000000E+01 -3.33066907E-14  0.00000000E+00
  8.00000000E+01  1.00000000E+02  0.00000000E+00
  8.00000000E+01  9.80000000E+01  0.00000000E+00
  8.00000000E+01  9.60000000E+01  0.00000000E+00
  8.00000000E+01  9.40000000E+01  0.00000000E+00
  8.00000000E+01  9.20000000E+01  0.00000000E+00
  8.00000000E+01  9.00000000E+01  0.00000000E+00
  8.00000000E+01  8.80000000E+01  0.00000000E+00
  8.00000000E+01  8.60000000E+01  0.00000000E+00
  8.00000000E+01  8.40000000E+01  0.00000000E+00
  8.00000000E+01  8.20000000E+01  0.00000000E+00
  8.00000000E+01  8.00000000E+01  0.00000000E+00
  8.00000000E+01  7.80000000E+01  0.00000000E+00
  8.00000000E+01  7.60000000E+01  0.00000000E+00
  8.00000000E+01  7.40000000E+01  0.00000000E+00
  8.00000000E+01  7.20000000E+01  0.00000000E+00
  8.00000000E+01  7.00000000E+01  0.00000000E+00
  8.00000000E+01  6.80000000E+01  0.00000000E+00
  8.00000000E+01  6.60000000E+01  0.00000000E+00
  8.00000000E+01  6.40000000E+01  0.00000000E+00
  8.00000000E+01  6.20000000E+01  0.00000000E+00
  8.00000000E+01  6.00000000E+01  0.00000000E+00
  8.00000000E+01  5.80000000E+01  0.00000000E+00
  8.00000000E+01  5.60000000E+01  0.00000000E+00
  8.00000000E+01  5.40000000E+01  0.00000000E+00
  8.00000000E+01  5.20000000E+01  0.00000000E+00
  8.00000000E+01  5.00000000E+01  0.00000000E+00
  8.00000000E+01  4.80000000E+01  0.00000000E+00
  8.00000000E+01  4.60000000E+01  0.00000000E+00
  8.00000000E+01  4.40000000E+01  0.00000000E+00
  8.00000000E+01  4.20000000E+01  0.00000000E+00
  8.00000000E+01  4.00000000E+01  0.00000000E+00
  8.00000000E+01  3.80000000E+01  0.00000000E+00
  8.00000000E+01  3.60000000E+01  0.00000000E+00
  8.00000000E+01  3.40000000E+01  0.00000000E+00
  8.00000000E+01  3.20000000E+01  0.00000000E+00
  8.00000000E+01  3.00000000E+01  0.00000000E+00
  8.00000000E+01  2.80000000E+01  0.00000000E+00
  8.00000000E+01  2.60000000E+01  0.00000000E+00
  8.00000000E+01  2.40000000E+01  0.00000000E+00
  8.00000000E+01  2.20000000E+01  0.00000000E+00
  8.00000000E+01  2.00000000E+01  0.00000000E+00
  8.00000000E+01  1.80000000E+01  0.00000000E+00
  8.00000000E+01  1.60000000E+01  0.00000000E+00
  8.00000000E+01  1.40000000E+01  0.00000000E+00
  8.00000000E+01  1.20000000E+01  0.00000000E+00
  8.00000000E+01  1.00000000E+01  0.00000000E+00
  8.00000000E+01  8.00000000E+00  0.00000000E+00
  8.00000000E+01  6.00000000E+00  0.00000000E+00
  8.00000000E+01  4.00000000E+00  0.00000000E+00
  8.00000000E+01  2.00000000E+00  0.00000000E+00
  8.00000000E+01 -3.33066907E-14  0.00000000E+00
  9.00000000E+01  1.00000000E+02  0.00000000E+00
  9.00000000E+01  9.80000000E+01  0.00000000E+00
  9.00000000E+01  9.60000000E+01  0.00000000E+00
  9.00000000E+01  9.40000000E+01  0.00000000E+00
  9.00000000E+01  9.20000000E+01  0.00000000E+00
  9.00000000E+01  9.00000000E+01  0.00000000E+00
  9.00000000E+01  8.80000000E+01  0.00000000E+00
  9.00000000E+01  8.60000000E+01  0.00000000E+00
  9.00000000E+01  8.40000000E+01  0.00000000E+00
  9.00000000E+01  8.20000000E+01  0.00000000E+00
  9.00000000E+01  8.00000000E+01  0.00000000E+00
  9.00000000E+01  7.80000000E+01  0.00000000E+00
  9.00000000E+01  7.60000000E+01  0.00000000E+00
  9.00000000E+01  7.40000000E+01  0.00000000E+00
  9.00000000E+01  7.20000000E+01  0.00000000E+00
  9.00000000E+01  7.00000000E+01  0.00000000E+00
  9.00000000E+01  6.80000000E+01  0.00000000E+00
  9.00000000E+01  6.60000000E+01  0.00000000E+00
  9.00000000E+01  6.40000000E+01  0.00000000E+00
  9.00000000E+01  6.20000000E+01  0.00000000E+00
  9.00000000E+01  6.00000000E+01  0.00000000E+00
  9.00000000E+01  5.80000000E+01  0.00000000E+00
  9.00000000E+01  5.60000000E+01  0.00000000E+00
  9.00000000E+01  5.40000000E+01  0.00000000E+00
  9.00000000E+01  5.20000000E+01  0.00000000E+00
  9.00000000E+01  5.00000000E+01  0.00000000E+00
  9.00000000E+01  4.80000000E+01  0.00000000E+00
  9.00000000E+01  4.60000000E+01  0.00000000E+00
  9.00000000E+01  4.40000000E+01  0.00000000E+00
  9.00000000E+01  4.20000000E+01  0.00000000E+00
  9.00000000E+01  4.00000000E+01  0.00000000E+00
  9.00000000E+01  3.80000000E+01  0.00000000E+00
  9.00000000E+01  3.60000000E+01  0.00000000E+00
  9.00000000E+01  3.40000000E+01  0.00000000E+00
  9.00000000E+01  3.20000000E+01  0.00000000E+00
  9.00000000E+01  3.00000000E+01  0.00000000E+00
  9.00000000E+01  2.80000000E+01  0.00000000E+00
  9.00000000E+01  2.60000000E+01  0.00000000E+00
  9.00000000E+01  2.40000000E+01  0.00000000E+00
  9.00000000E+01  2.20000000E+01  0.00000000E+00
  9.00000000E+01  2.00000000E+01  0.00000000E+00
  9.00000000E+01  1.80000000E+01  0.00000000E+00
  9.00000000E+01  1.60000000E+01  0.00000000E+00
  9.00000000E+01  1.40000000E+01  0.00000000E+00
  9.00000000E+01  1.20000000E+01  0.00000000E+00
  9.00000000E+01  1.00000000E+01  0.00000000E+00
  9.00000000E+01  8.00000000E+00  0.00000000E+00
  9.00000000E+01  6.00000000E+00  0.00000000E+00
  9.00000000E+01  4.00000000E+00  0.00000000E+00
  9.00000000E+01  2.00000000E+00  0.00000000E+00
  9.00000000E+01 -3.33066907E-14  0.00000000E+00
  1.00000000E+02  1.00000000E+02  0.00000000E+00
  1.00000000E+02  9.80000000E+01  0.00000000E+00
  1.00000000E+02  9.60000000E+01  0.00000000E+00
  1.00000000E+02  9.40000000E+01  0.00000000E+00
  1.00000000E+02  9.20000000E+01  0.00000000E+00
  1.00000000E+02  9.00000000E+01  0.00000000E+00
  1.00000000E+02  8.80000000E+01  0.00000000E+00
  1.00000000E+02  8.60000000E+01  0.00000000E+00
  1.00000000E+02  8.40000000E+01  0.00000000E+00
  1.00000000E+02  8.20000000E+01  0.00000000E+00
  1.00000000E+02  8.00000000E+01  0.00000000E+00
  1.00000000E+02  7.80000000E+01  0.00000000E+00
  1.00000000E+02  7.60000000E+01  0.00000000E+00
  1.00000000E+02  7.40000000E+01  0.00000000E+00
  1.00000000E+02  7.20000000E+01  0.00000000E+00
  1.00000000E+02  7.00000000E+01  0.00000000E+00
  1.00000000E+02  6.80000000E+01  0.00000000E+00
  1.00000000E+02  6.60000000E+01  0.00000000E+00
  1.00000000E+02  6.40000000E+01  0.00000000E+00
  1.00000000E+02  6.20000000E+01  0.00000000E+00
  1.00000000E+02  6.00000000E+01  0.00000000E+00
  1.00000000E+02  5.80000000E+01  0.00000000E+00
  1.00000000E+02  5.60000000E+01  0.00000000E+00
  1.00000000E+02  5.40000000E+01  0.00000000E+00
  1.00000000E+02  5.20000000E+01  0.00000000E+00
  1.00000000E+02  5.00000000E+01  0.00000000E+00
  1.00000000E+02  4.80000000E+01  0.00000000E+00
  1.00000000E+02  4.60000000E+01  0.00000000E+00
  1.00000000E+02  4.40000000E+01  0.00000000E+00
  1.00000000E+02  4.20000000E+01  0.00000000E+00
  1.00000000E+02  4.00000000E+01  0.00000000E+00
  1.00000000E+02  3.80000000E+01  0.00000000E+00
  1.00000000E+02  3.60000000E+01  0.00000000E+00
  1.00000000E+02  3.40000000E+01  0.00000000E+00
  1.00000000E+02  3.20000000E+01  0.00000000E+00
  1.00000000E+02  3.00000000E+01  0.00000000E+00
  1.00000000E+02  2.80000000E+01  0.00000000E+00
  1.00000000E+02  2.60000000E+01  0.00000000E+00
  1.00000000E+02  2.40000000E+01  0.00000000E+00
  1.00000000E+02  2.20000000E+01  0.00000000E+00
  1.00000000E+02  2.00000000E+01  0.00000000E+00
  1.00000000E+02  1.80000000E+01  0.00000000E+00
  1.00000000E+02  1.60000000E+01  0.00000000E+00
  1.00000000E+02  1.40000000E+01  0.00000000E+00
  1.00000000E+02  1.20000000E+01  0.00000000E+00
  1.00000000E+02  1.00000000E+01  0.00000000E+00
  1.00000000E+02  8.00000000E+00  0.00000000E+00
  1.00000000E+02  6.00000000E+00  0.00000000E+00
  1.00000000E+02  4.00000000E+00  0.00000000E+00
  1.00000000E+02  2.00000000E+00  0.00000000E+00
  1.00000000E+02 -3.33066907E-14  0.00000000E+00
  1.10000000E+02  1.00000000E+02  0.00000000E+00
  1.10000000E+02  9.80000000E+01  0.00000000E+00
  1.10000000E+02  9.60000000E+01  0.00000000E+00
  1.10000000E+02  9.40000000E+01  0.00000000E+00
  1.10000000E+02  9.20000000E+01  0.00000000E+00
  1.10000000E+02  9.00000000E+01  0.00000000E+00
  1.10000000E+02  8.80000000E+01  0.00000000E+00
  1.10000000E+02  8.60000000E+01  0.00000000E+00
  1.10000000E+02  8.40000000E+01  0.00000000E+00
  1.10000000E+02  8.20000000E+01  0.00000000E+00
  1.10000000E+02  8.00000000E+01  0.00000000E+00
  1.10000000E+02  7.80000000E+01  0.00000000E+00
  1.10000000E+02  7.60000000E+01  0.00000000E+00
  1.10000000E+02  7.40000000E+01  0.00000000E+00
  1.10000000E+02  7.20000000E+01  0.00000000E+00
  1.10000000E+02  7.00000000E+01  0.00000000E+00
  1.10000000E+02  6.80000000E+01  0.00000000E+00
  1.10000000E+02  6.60000000E+01  0.00000000E+00
  1.10000000E+02  6.40000000E+01  0.00000000E+00
  1.10000000E+02  6.20000000E+01  0.00000000E+00
  1.10000000E+02  6.00000000E+01  0.00000000E+00
  1.10000000E+02  5.80000000E+01  0.00000000E+00
  1.10000000E+02  5.60000000E+01  0.00000000E+00
  1.10000000E+02  5.40000000E+01  0.00000000E+00
  1.10000000E+02  5.20000000E+01  0.00000000E+00
  1.10000000E+02  5.00000000E+01  0.00000000E+00
  1.10000000E+02  4.80000000E+01  0.00000000E+00
  1.10000000E+02  4.60000000E+01  0.00000000E+00
  1.10000000E+02  4.40000000E+01  0.00000000E+00
  1.10000000E+02  4.20000000E+01  0.00000000E+00
  1.10000000E+02  4.00000000E+01  0.00000000E+00
  1.10000000E+02  3.80000000E+01  0.00000000E+00
  1.10000000E+02  3.60000000E+01  0.00000000E+00
  1.10000000E+02  3.40000000E+01  0.00000000E+00
  1.10000000E+02  3.20000000E+01  0.00000000E+00
  1.10000000E+02  3.00000000E+01  0.00000000E+00
  1.10000000E+02  2.80000000E+01  0.00000000E+00
  1.10000000E+02  2.60000000E+01  0.00000000E+00
  1.10000000E+02  2.40000000E+01  0.00000000E+00
  1.10000000E+02  2.20000000E+01  0.00000000E+00
  1.10000000E+02  2.00000000E+01  0.00000000E+00
  1.10000000E+02  1.80000000E+01  0.00000000E+00
  1.10000000E+02  1.60000000E+01  0.00000000E+00
  1.10000000E+02  1.40000000E+01  0.00000000E+00
  1.10000000E+02  1.20000000E+01  0.00000000E+00
  1.10000000E+02  1.00000000E+01  0.00000000E+00
  1.10000000E+02  8.00000000E+00  0.00000000E+00
  1.10000000E+02  6.00000000E+00  0.00000000E+00
  1.10000000E+02  4.00000000E+00  0.00000000E+00
  1.10000000E+02  2.00000000E+00  0.00000000E+00
  1.10000000E+02 -3.33066907E-14  0.00000000E+00
  1.20000000E+02  1.00000000E+02  0.00000000E+00
  1.20000000E+02  9.80000000E+01  0.00000000E+00
  1.20000000E+02  9.60000000E+01  0.00000000E+00
  1.20000000E+02  9.40000000E+01  0.00000000E+00
  1.20000000E+02  9.20000000E+01  0.00000000E+00
  1.20000000E+02  9.00000000E+01  0.00000000E+00
  1.20000000E+02  8.80000000E+01  0.00000000E+00
  1.20000000E+02  8.60000000E+01  0.00000000E+00
  1.20000000E+02  8.40000000E+01  0.00000000E+00
  1.20000000E+02  8.20000000E+01  0.00000000E+00
  1.20000000E+02  8.00000000E+01  0.00000000E+00
  1.20000000E+02  7.80000000E+01  0.00000000E+00
  1.20000000E+02  7.60000000E+01  0.00000000E+00
  1.20000000E+02  7.40000000E+01  0.00000000E+00
  1.20000000E+02  7.20000000E+01  0.00000000E+00
  1.20000000E+02  7.00000000E+01  0.00000000E+00
  1.20000000E+02  6.80000000E+01  0.00000000E+00
  1.20000000E+02  6.60000000E+01  0.00000000E+00
  1.20000000E+02  6.40000000E+01  0.00000000E+00
  1.20000000E+02  6.20000000E+01  0.00000000E+00
  1.20000000E+02  6.00000000E+01  0.00000000E+00
  1.20000000E+02  5.80000000E+01  0.00000000E+00
  1.20000000E+02  5.60000000E+01  0.00000000E+00
  1.20000000E+02  5.40000000E+01  0.00000000E+00
  1.20000000E+02  5.20000000E+01  0.00000000E+00
  1.20000000E+02  5.00000000E+01  0.00000000E+00
  1.20000000E+02  4.80000000E+01  0.00000000E+00
  1.20000000E+02  4.60000000E+01  0.00000000E+00
  1.20000000E+02  4.40000000E+01  0.00000000E+00
  1.20000000E+02  4.20000000E+01  0.00000000E+00
  1.20000000E+02  4.00000000E+01  0.00000000E+00
  1.20000000E+02  3.80000000E+01  0.00000000E+00
  1.20000000E+02  3.60000000E+01  0.00000000E+00
  1.20000000E+02  3.40000000E+01  0.00000000E+00
  1.20000000E+02  3.20000000E+01  0.00000000E+00
  1.20000000E+02  3.00000000E+01  0.00000000E+00
  1.20000000E+02  2.80000000E+01  0.00000000E+00
  1.20000000E+02  2.60000000E+01  0.00000000E+00
  1.20000000E+02  2.40000000E+01  0.00000000E+00
  1.20000000E+02  2.20000000E+01  0.00000000E+00
  1.20000000E+02  2.00000000E+01  0.00000000E+00
  1.20000000E+02  1.80000000E+01  0.00000000E+00
  1.20000000E+02  1.60000000E+01  0.00000000E+00
  1.20000000E+02  1.40000000E+01  0.00000000E+00
  1.20000000E+02  1.20000000E+01  0.00000000E+00
  1.20000000E+02  1.00000000E+01  0.00000000E+00
  1.20000000E+02  8.00000000E+00  0.00000000E+00
  1.20000000E+02  6.00000000E+00  0.00000000E+00
  1.20000000E+02  4.00000000E+00  0.00000000E+00
  1.20000000E+02  2.00000000E+00  0.00000000E+00
  1.20000000E+02 -3.33066907E-14  0.00000000E+00
  1.30000000E+02  1.00000000E+02  0.00000000E+00
  1.30000000E+02  9.80000000E+01  0.00000000E+00
  1.30000000E+02  9.60000000E+01  0.00000000E+00
  1.30000000E+02  9.40000000E+01  0.00000000E+00
  1.30000000E+02  9.20000000E+01  0.00000000E+00
  1.30000000E+02  9.00000000E+01  0.00000000E+00
  1.30000000E+02  8.80000000E+01  0.00000000E+00
  1.30000000E+02  8.60000000E+01  0.00000000E+00
  1.30000000E+02  8.40000000E+01  0.00000000E+00
  1.30000000E+02  8.20000000E+01  0.00000000E+00
  1.30000000E+02  8.00000000E+01  0.00000000E+00
  1.30000000E+02  7.80000000E+01  0.00000000E+00
  1.30000000E+02  7.60000000E+01  0.00000000E+00
  1.30000000E+02  7.40000000E+01  0.00000000E+00
  1.30000000E+02  7.20000000E+01  0.00000000E+00
  1.30000000E+02  7.00000000E+01  0.00000000E+00
  1.30000000E+02  6.80000000E+01  0.00000000E+00
  1.30000000E+02  6.60000000E+01  0.00000000E+00
  1.30000000E+02  6.40000000E+01  0.00000000E+00
  1.30000000E+02  6.20000000E+01  0.00000000E+00
  1.30000000E+02  6.00000000E+01  0.00000000E+00
  1.30000000E+02  5.80000000E+01  0.00000000E+00
  1.30000000E+02  5.60000000E+01  0.00000000E+00
  1.30000000E+02  5.40000000E+01  0.00000000E+00
  1.30000000E+02  5.20000000E+01  0.00000000E+00
  1.30000000E+02  5.00000000E+01  0.00000000E+00
  1.30000000E+02  4.80000000E+01  0.00000000E+00
  1.30000000E+02  4.60000000E+01  0.00000000E+00
  1.30000000E+02  4.40000000E+01  0.00000000E+00
  1.30000000E+02  4.20000000E+01  0.00000000E+00
  1.30000000E+02  4.00000000E+01  0.00000000E+00
  1.30000000E+02  3.80000000E+01  0.00000000E+00
  1.30000000E+02  3.60000000E+01  0.00000000E+00
  1.30000000E+02  3.40000000E+01  0.00000000E+00
  1.30000000E+02  3.20000000E+01  0.00000000E+00
  1.30000000E+02  3.00000000E+01  0.00000000E+00
  1.30000000E+02  2.80000000E+01  0.00000000E+00
  1.30000000E+02  2.60000000E+01  0.00000000E+00
  1.30000000E+02  2.40000000E+01  0.00000000E+00
  1.30000000E+02  2.20000000E+01  0.00000000E+00
  1.30000000E+02  2.00000000E+01  0.00000000E+00
  1.30000000E+02  1.80000000E+01  0.00000000E+00
  1.30000000E+02  1.60000000E+01  0.00000000E+00
  1.30000000E+02  1.40000000E+01  0.00000000E+00
  1.30000000E+02  1.20000000E+01  0.00000000E+00
  1.30000000E+02  1.00000000E+01  0.00000000E+00
  1.30000000E+02  8.00000000E+00  0.00000000E+00
  1.30000000E+02  6.00000000E+00  0.00000000E+00
  1.30000000E+02  4.00000000E+00  0.00000000E+00
  1.30000000E+02  2.00000000E+00  0.00000000E+00
  1.30000000E+02 -3.33066907E-14  0.00000000E+00
  1.40000000E+02  1.00000000E+02  0.00000000E+00
  1.40000000E+02  9.80000000E+01  0.00000000E+00
  1.40000000E+02  9.60000000E+01  0.00000000E+00
  1.40000000E+02  9.40000000E+01  0.00000000E+00
  1.40000000E+02  9.20000000E+01  0.00000000E+00
  1.40000000E+02  9.00000000E+01  0.00000000E+00
  1.40000000E+02  8.80000000E+01  0.00000000E+00
  1.40000000E+02  8.60000000E+01  0.00000000E+00
  1.40000000E+02  8.40000000E+01  0.00000000E+00
  1.40000000E+02  8.20000000E+01  0.00000000E+00
  1.40000000E+02  8.00000000E+01  0.00000000E+00
  1.40000000E+02  7.80000000E+01  0.00000000E+00
  1.40000000E+02  7.60000000E+01  0.00000000E+00
  1.40000000E+02  7.40000000E+01  0.00000000E+00
  1.40000000E+02  7.20000000E+01  0.00000000E+00
  1.40000000E+02  7.00000000E+01  0.00000000E+00
  1.40000000E+02  6.80000000E+01  0.00000000E+00
  1.40000000E+02  6.60000000E+01  0.00000000E+00
  1.40000000E+02  6.40000000E+01  0.00000000E+00
  1.40000000E+02  6.20000000E+01  0.00000000E+00
  1.40000000E+02  6.00000000E+01  0.00000000E+00
  1.40000000E+02  5.80000000E+01  0.00000000E+00
  1.40000000E+02  5.60000000E+01  0.00000000E+00
  1.40000000E+02  5.40000000E+01  0.00000000E+00
  1.40000000E+02  5.20000000E+01  0.00000000E+00
  1.40000000E+02  5.00000000E+01  0.00000000E+00
  1.40000000E+02  4.80000000E+01  0.00000000E+00
  1.40000000E+02  4.60000000E+01  0.00000000E+00
  1.40000000E+02  4.40000000E+01  0.00000000E+00
  1.40000000E+02  4.20000000E+01  0.00000000E+00
  1.40000000E+02  4.00000000E+01  0.00000000E+00
  1.40000000E+02  3.80000000E+01  0.00000000E+00
  1.40000000E+02  3.60000000E+01  0.00000000E+00
  1.40000000E+02  3.40000000E+01  0.00000000E+00
  1.40000000E+02  3.20000000E+01  0.00000000E+00
  1.40000000E+02  3.00000000E+01  0.00000000E+00
  1.40000000E+02  2.80000000E+01  0.00000000E+00
  1.40000000E+02  2.60000000E+01  0.00000000E+00
  1.40000000E+02  2.40000000E+01  0.00000000E+00
  1.40000000E+02  2.20000000E+01  0.00000000E+00
  1.40000000E+02  2.00000000E+01  0.00000000E+00
  1.40000000E+02  1.80000000E+01  0.00000000E+00
  1.40000000E+02  1.60000000E+01  0.00000000E+00
  1.40000000E+02  1.40000000E+01  0.00000000E+00
  1.40000000E+02  1.20000000E+01  0.00000000E+00
  1.40000000E+02  1.00000000E+01  0.00000000E+00
  1.40000000E+02  8.00000000E+00  0.00000000E+00
  1.40000000E+02  6.00000000E+00  0.00000000E+00
  1.40000000E+02  4.00000000E+00  0.00000000E+00
  1.40000000E+02  2.00000000E+00  0.00000000E+00
  1.40000000E+02 -3.33066907E-14  0.00000000E+00
  1.50000000E+02  1.00000000E+02  0.00000000E+00
  1.50000000E+02  9.80000000E+01  0.00000000E+00
  1.50000000E+02  9.60000000E+01  0.00000000E+00
  1.50000000E+02  9.40000000E+01  0.00000000E+00
  1.50000000E+02  9.20000000E+01  0.00000000E+00
  1.50000000E+02  9.00000000E+01  0.00000000E+00
  1.50000000E+02  8.80000000E+01  0.00000000E+00
  1.50000000E+02  8.60000000E+01  0.00000000E+00
  1.50000000E+02  8.40000000E+01  0.00000000E+00
  1.50000000E+02  8.20000000E+01  0.00000000E+00
  1.50000000E+02  8.00000000E+01  0.00000000E+00
  1.50000000E+02  7.80000000E+01  0.00000000E+00
  1.50000000E+02  7.60000000E+01  0.00000000E+00
  1.50000000E+02  7.40000000E+01  0.00000000E+00
  1.50000000E+02  7.20000000E+01  0.00000000E+00
  1.50000000E+02  7.00000000E+01  0.00000000E+00
  1.50000000E+02  6.80000000E+01  0.00000000E+00
  1.50000000E+02  6.60000000E+01  0.00000000E+00
  1.50000000E+02  6.40000000E+01  0.00000000E+00
  1.50000000E+02  6.20000000E+01  0.00000000E+00
  1.50000000E+02  6.00000000E+01  0.00000000E+00
  1.50000000E+02  5.80000000E+01  0.00000000E+00
  1.50000000E+02  5.60000000E+01  0.00000000E+00
  1.50000000E+02  5.40000000E+01  0.00000000E+00
  1.50000000E+02  5.20000000E+01  0.00000000E+00
  1.50000000E+02  5.00000000E+01  0.00000000E+00
  1.50000000E+02  4.80000000E+01  0.00000000E+00
  1.50000000E+02  4.60000000E+01  0.00000000E+00
  1.50000000E+02  4.40000000E+01  0.00000000E+00
  1.50000000E+02  4.20000000E+01  0.00000000E+00
  1.50000000E+02  4.00000000E+01  0.00000000E+00
  1.50000000E+02  3.80000000E+01  0.00000000E+00
  1.50000000E+02  3.60000000E+01  0.00000000E+00
  1.50000000E+02  3.40000000E+01  0.00000000E+00
  1.50000000E+02  3.20000000E+01  0.00000000E+00
  1.50000000E+02  3.00000000E+01  0.00000000E+00
  1.50000000E+02  2.80000000E+01  0.00000000E+00
  1.50000000E+02  2.60000000E+01  0.00000000E+00
  1.50000000E+02  2.40000000E+01  0.00000000E+00
  1.50000000E+02  2.20000000E+01  0.00000000E+00
  1.50000000E+02  2.00000000E+01  0.00000000E+00
  1.50000000E+02  1.80000000E+01  0.00000000E+00
  1.50000000E+02  1.60000000E+01  0.00000000E+00
  1.50000000E+02  1.40000000E+01  0.00000000E+00
  1.50000000E+02  1.20000000E+01  0.00000000E+00
  1.50000000E+02  1.00000000E+01  0.00000000E+00
  1.50000000E+02  8.00000000E+00  0.00000000E+00
  1.50000000E+02  6.00000000E+00  0.00000000E+00
  1.50000000E+02  4.00000000E+00  0.00000000E+00
  1.50000000E+02  2.00000000E+00  0.00000000E+00
  1.50000000E+02 -3.33066907E-14  0.00000000E+00
  1.60000000E+02  1.00000000E+02  0.00000000E+00
  1.60000000E+02  9.80000000E+01  0.00000000E+00
  1.60000000E+02  9.60000000E+01  0.00000000E+00
  1.60000000E+02  9.40000000E+01  0.00000000E+00
  1.60000000E+02  9.20000000E+01  0.00000000E+00
  1.60000000E+02  9.00000000E+01  0.00000000E+00
  1.60000000E+02  8.80000000E+01  0.00000000E+00
  1.60000000E+02  8.60000000E+01  0.00000000E+00
  1.60000000E+02  8.40000000E+01  0.00000000E+00
  1.60000000E+02  8.20000000E+01  0.00000000E+00
  1.60000000E+02  8.00000000E+01  0.00000000E+00
  1.60000000E+02  7.80000000E+01  0.00000000E+00
  1.60000000E+02  7.60000000E+01  0.00000000E+00
  1.60000000E+02  7.40000000E+01  0.00000000E+00
  1.60000000E+02  7.20000000E+01  0.00000000E+00
  1.60000000E+02  7.00000000E+01  0.00000000E+00
  1.60000000E+02  6.80000000E+01  0.00000000E+00
  1.60000000E+02  6.60000000E+01  0.00000000E+00
  1.60000000E+02  6.40000000E+01  0.00000000E+00
  1.60000000E+02  6.20000000E+01  0.00000000E+00
  1.60000000E+02  6.00000000E+01  0.00000000E+00
  1.60000000E+02  5.80000000E+01  0.00000000E+00
  1.60000000E+02  5.60000000E+01  0.00000000E+00
  1.60000000E+02  5.40000000E+01  0.00000000E+00
  1.60000000E+02  5.20000000E+01  0.00000000E+00
  1.60000000E+02  5.00000000E+01  0.00000000E+00
  1.60000000E+02  4.80000000E+01  0.00000000E+00
  1.60000000E+02  4.60000000E+01  0.00000000E+00
  1.60000000E+02  4.40000000E+01  0.00000000E+00
  1.60000000E+02  4.20000000E+01  0.00000000E+00
  1.60000000E+02  4.00000000E+01  0.00000000E+00
  1.60000000E+02  3.80000000E+01  0.00000000E+00
  1.60000000E+02  3.60000000E+01  0.00000000E+00
  1.60000000E+02  3.40000000E+01  0.00000000E+00
  1.60000000E+02  3.20000000E+01  0.00000000E+00
  1.60000000E+02  3.00000000E+01  0.00000000E+00
  1.60000000E+02  2.80000000E+01  0.00000000E+00
  1.60000000E+02  2.60000000E+01  0.00000000E+00
  1.60000000E+02  2.40000000E+01  0.00000000E+00
  1.60000000E+02  2.20000000E+01  0.00000000E+00
  1.60000000E+02  2.00000000E+01  0.00000000E+00
  1.60000000E+02  1.80000000E+01  0.00000000E+00
  1.60000000E+02  1.60000000E+01  0.00000000E+00
  1.60000000E+02  1.40000000E+01  0.00000000E+00
  1.60000000E+02  1.20000000E+01  0.00000000E+00
  1.60000000E+02  1.00000000E+01  0.00000000E+00
  1.60000000E+02  8.00000000E+00  0.00000000E+00
  1.60000000E+02  6.00000000E+00  0.00000000E+00
  1.60000000E+02  4.00000000E+00  0.00000000E+00
  1.60000000E+02  2.00000000E+00  0.00000000E+00
  1.60000000E+02 -3.33066907E-14  0.00000000E+00
  1.70000000E+02  1.00000000E+02  0.00000000E+00
  1.70000000E+02  9.80000000E+01  0.00000000E+00
  1.70000000E+02  9.60000000E+01  0.00000000E+00
  1.70000000E+02  9.40000000E+01  0.00000000E+00
  1.70000000E+02  9.20000000E+01  0.00000000E+00
  1.70000000E+02  9.00000000E+01  0.00000000E+00
  1.70000000E+02  8.80000000E+01  0.00000000E+00
  1.70000000E+02  8.60000000E+01  0.00000000E+00
  1.70000000E+02  8.40000000E+01  0.00000000E+00
  1.70000000E+02  8.20000000E+01  0.00000000E+00
  1.70000000E+02  8.00000000E+01  0.00000000E+00
  1.70000000E+02  7.80000000E+01  0.00000000E+00
  1.70000000E+02  7.60000000E+01  0.00000000E+00
  1.70000000E+02  7.40000000E+01  0.00000000E+00
  1.70000000E+02  7.20000000E+01  0.00000000E+00
  1.70000000E+02  7.00000000E+01  0.00000000E+00
  1.70000000E+02  6.80000000E+01  0.00000000E+00
  1.70000000E+02  6.60000000E+01  0.00000000E+00
  1.70000000E+02  6.40000000E+01  0.00000000E+00
  1.70000000E+02  6.20000000E+01  0.00000000E+00
  1.70000000E+02  6.00000000E+01  0.00000000E+00
  1.70000000E+02  5.80000000E+01  0.00000000E+00
  1.70000000E+02  5.60000000E+01  0.00000000E+00
  1.70000000E+02  5.40000000E+01  0.00000000E+00
  1.70000000E+02  5.20000000E+01  0.00000000E+00
  1.70000000E+02  5.00000000E+01  0.00000000E+00
  1.70000000E+02  4.80000000E+01  0.00000000E+00
  1.70000000E+02  4.60000000E+01  0.00000000E+00
  1.70000000E+02  4.40000000E+01  0.00000000E+00
  1.70000000E+02  4.20000000E+01  0.00000000E+00
  1.70000000E+02  4.00000000E+01  0.00000000E+00
  1.70000000E+02  3.80000000E+01  0.00000000E+00
  1.70000000E+02  3.60000000E+01  0.00000000E+00
  1.70000000E+02  3.40000000E+01  0.00000000E+00
  1.70000000E+02  3.20000000E+01  0.00000000E+00
  1.70000000E+02  3.00000000E+01  0.00000000E+00
  1.70000000E+02  2.80000000E+01  0.00000000E+00
  1.70000000E+02  2.60000000E+01  0.00000000E+00
  1.70000000E+02  2.40000000E+01  0.00000000E+00
  1.70000000E+02  2.20000000E+01  0.00000000E+00
  1.70000000E+02  2.00000000E+01  0.00000000E+00
  1.70000000E+02  1.80000000E+01  0.00000000E+00
  1.70000000E+02  1.60000000E+01  0.00000000E+00
  1.70000000E+02  1.40000000E+01  0.00000000E+00
  1.70000000E+02  1.20000000E+01  0.00000000E+00
  1.70000000E+02  1.00000000E+01  0.00000000E+00
  1.70000000E+02  8.00000000E+00  0.00000000E+00
  1.70000000E+02  6.00000000E+00  0.00000000E+00
  1.70000000E+02  4.00000000E+00  0.00000000E+00
  1.70000000E+02  2.00000000E+00  0.00000000E+00
  1.70000000E+02 -3.33066907E-14  0.00000000E+00
  1.80000000E+02  1.00000000E+02  0.00000000E+00
  1.80000000E+02  9.80000000E+01  0.00000000E+00
  1.80000000E+02  9.60000000E+01  0.00000000E+00
  1.80000000E+02  9.40000000E+01  0.00000000E+00
  1.80000000E+02  9.20000000E+01  0.00000000E+00
  1.80000000E+02  9.00000000E+01  0.00000000E+00
  1.80000000E+02  8.80000000E+01  0.00000000E+00
  1.80000000E+02  8.60000000E+01  0.00000000E+00
  1.80000000E+02  8.40000000E+01  0.00000000E+00
  1.80000000E+02  8.20000000E+01  0.00000000E+00
  1.80000000E+02  8.00000000E+01  0.00000000E+00
  1.80000000E+02  7.80000000E+01  0.00000000E+00
  1.80000000E+02  7.60000000E+01  0.00000000E+00
  1.80000000E+02  7.40000000E+01  0.00000000E+00
  1.80000000E+02  7.20000000E+01  0.00000000E+00
  1.80000000E+02  7.00000000E+01  0.00000000E+00
  1.80000000E+02  6.80000000E+01  0.00000000E+00
  1.80000000E+02  6.60000000E+01  0.00000000E+00
  1.80000000E+02  6.40000000E+01  0.00000000E+00
  1.80000000E+02  6.20000000E+01  0.00000000E+00
  1.80000000E+02  6.00000000E+01  0.00000000E+00
  1.80000000E+02  5.80000000E+01  0.00000000E+00
  1.80000000E+02  5.60000000E+01  0.00000000E+00
  1.80000000E+02  5.40000000E+01  0.00000000E+00
  1.80000000E+02  5.20000000E+01  0.00000000E+00
  1.80000000E+02  5.00000000E+01  0.00000000E+00
  1.80000000E+02  4.80000000E+01  0.00000000E+00
  1.80000000E+02  4.60000000E+01  0.00000000E+00
  1.80000000E+02  4.40000000E+01  0.00000000E+00
  1.80000000E+02  4.20000000E+01  0.00000000E+00
  1.80000000E+02  4.00000000E+01  0.00000000E+00
  1.80000000E+02  3.80000000E+01  0.00000000E+00
  1.80000000E+02  3.60000000E+01  0.00000000E+00
  1.80000000E+02  3.40000000E+01  0.00000000E+00
  1.80000000E+02  3.20000000E+01  0.00000000E+00
  1.80000000E+02  3.00000000E+01  0.00000000E+00
  1.80000000E+02  2.80000000E+01  0.00000000E+00
  1.80000000E+02  2.60000000E+01  0.00000000E+00
  1.80000000E+02  2.40000000E+01  0.00000000E+00
  1.80000000E+02  2.20000000E+01  0.00000000E+00
  1.80000000E+02  2.00000000E+01  0.00000000E+00
  1.80000000E+02  1.80000000E+01  0.00000000E+00
  1.80000000E+02  1.60000000E+01  0.00000000E+00
  1.80000000E+02  1.40000000E+01  0.00000000E+00
  1.80000000E+02  1.20000000E+01  0.00000000E+00
  1.80000000E+02  1.00000000E+01  0.00000000E+00
  1.80000000E+02  8.00000000E+00  0.00000000E+00
  1.80000000E+02  6.00000000E+00  0.00000000E+00
  1.80000000E+02  4.00000000E+00  0.00000000E+00
  1.80000000E+02  2.00000000E+00  0.00000000E+00
  1.80000000E+02 -3.33066907E-14  0.00000000E+00
  1.90000000E+02  1.00000000E+02  0.00000000E+00
  1.90000000E+02  9.80000000E+01  0.00000000E+00
  1.90000000E+02  9.60000000E+01  0.00000000E+00
  1.90000000E+02  9.40000000E+01  0.00000000E+00
  1.90000000E+02  9.20000000E+01  0.00000000E+00
  1.90000000E+02  9.00000000E+01  0.00000000E+00
  1.90000000E+02  8.80000000E+01  0.00000000E+00
  1.90000000E+02  8.60000000E+01  0.00000000E+00
  1.90000000E+02  8.40000000E+01  0.00000000E+00
  1.90000000E+02  8.20000000E+01  0.00000000E+00
  1.90000000E+02  8.00000000E+01  0.00000000E+00
  1.90000000E+02  7.80000000E+01  0.00000000E+00
  1.90000000E+02  7.60000000E+01  0.00000000E+00
  1.90000000E+02  7.40000000E+01  0.00000000E+00
  1.90000000E+02  7.20000000E+01  0.00000000E+00
  1.90000000E+02  7.00000000E+01  0.00000000E+00
  1.90000000E+02  6.80000000E+01  0.00000000E+00
  1.90000000E+02  6.60000000E+01  0.00000000E+00
  1.90000000E+02  6.40000000E+01  0.00000000E+00
  1.90000000E+02  6.20000000E+01  0.00000000E+00
  1.90000000E+02  6.00000000E+01  0.00000000E+00
  1.90000000E+02  5.80000000E+01  0.00000000E+00
  1.90000000E+02  5.60000000E+01  0.00000000E+00
  1.90000000E+02  5.40000000E+01  0.00000000E+00
  1.90000000E+02  5.20000000E+01  0.00000000E+00
  1.90000000E+02  5.00000000E+01  0.00000000E+00
  1.90000000E+02  4.80000000E+01  0.00000000E+00
  1.90000000E+02  4.60000000E+01  0.00000000E+00
  1.90000000E+02  4.40000000E+01  0.00000000E+00
  1.90000000E+02  4.20000000E+01  0.00000000E+00
  1.90000000E+02  4.00000000E+01  0.00000000E+00
  1.90000000E+02  3.80000000E+01  0.00000000E+00
  1.90000000E+02  3.60000000E+01  0.00000000E+00
  1.90000000E+02  3.40000000E+01  0.00000000E+00
  1.90000000E+02  3.20000000E+01  0.00000000E+00
  1.90000000E+02  3.00000000E+01  0.00000000E+00
  1.90000000E+02  2.80000000E+01  0.00000000E+00
  1.90000000E+02  2.60000000E+01  0.00000000E+00
  1.90000000E+02  2.40000000E+01  0.00000000E+00
  1.90000000E+02  2.20000000E+01  0.00000000E+00
  1.90000000E+02  2.00000000E+01  0.00000000E+00
  1.90000000E+02  1.80000000E+01  0.00000000E+00
  1.90000000E+02  1.60000000E+01  0.00000000E+00
  1.90000000E+02  1.40000000E+01  0.00000000E+00
  1.90000000E+02  1.20000000E+01  0.00000000E+00
  1.90000000E+02  1.00000000E+01  0.00000000E+00
  1.90000000E+02  8.00000000E+00  0.00000000E+00
  1.90000000E+02  6.00000000E+00  0.00000000E+00
  1.90000000E+02  4.00000000E+00  0.00000000E+00
  1.90000000E+02  2.00000000E+00  0.00000000E+00
  1.90000000E+02 -3.33066907E-14  0.00000000E+00
  2.00000000E+02  1.00000000E+02  0.00000000E+00
  2.00000000E+02  9.80000000E+01  0.00000000E+00
  2.00000000E+02  9.60000000E+01  0.00000000E+00
  2.00000000E+02  9.40000000E+01  0.00000000E+00
  2.00000000E+02  9.20000000E+01  0.00000000E+00
  2.00000000E+02  9.00000000E+01  0.00000000E+00
  2.00000000E+02  8.80000000E+01  0.00000000E+00
  2.00000000E+02  8.60000000E+01  0.00000000E+00
  2.00000000E+02  8.40000000E+01  0.00000000E+00
  2.00000000E+02  8.20000000E+01  0.00000000E+00
  2.00000000E+02  8.00000000E+01  0.00000000E+00
  2.00000000E+02  7.80000000E+01  0.00000000E+00
  2.00000000E+02  7.60000000E+01  0.00000000E+00
  2.00000000E+02  7.40000000E+01  0.00000000E+00
  2.00000000E+02  7.20000000E+01  0.00000000E+00
  2.00000000E+02  7.00000000E+01  0.00000000E+00
  2.00000000E+02  6.80000000E+01  0.00000000E+00
  2.00000000E+02  6.60000000E+01  0.00000000E+00
  2.00000000E+02  6.40000000E+01  0.00000000E+00
  2.00000000E+02  6.20000000E+01  0.00000000E+00
  2.00000000E+02  6.00000000E+01  0.00000000E+00
  2.00000000E+02  5.80000000E+01  0.00000000E+00
  2.00000000E+02  5.60000000E+01  0.00000000E+00
  2.00000000E+02  5.40000000E+01  0.00000000E+00
  2.00000000E+02  5.20000000E+01  0.00000000E+00
  2.00000000E+02  5.00000000E+01  0.00000000E+00
  2.00000000E+02  4.80000000E+01  0.00000000E+00
  2.00000000E+02  4.60000000E+01  0.00000000E+00
  2.00000000E+02  4.40000000E+01  0.00000000E+00
  2.00000000E+02  4.20000000E+01  0.00000000E+00
  2.00000000E+02  4.00000000E+01  0.00000000E+00
  2.00000000E+02  3.80000000E+01  0.00000000E+00
  2.00000000E+02  3.60000000E+01  0.00000000E+00
  2.00000000E+02  3.40000000E+01  0.00000000E+00
  2.00000000E+02  3.20000000E+01  0.00000000E+00
  2.00000000E+02  3.00000000E+01  0.00000000E+00
  2.00000000E+02  2.80000000E+01  0.00000000E+00
  2.00000000E+02  2.60000000E+01  0.00000000E+00
  2.00000000E+02  2.40000000E+01  0.00000000E+00
  2.00000000E+02  2.20000000E+01  0.00000000E+00
  2.00000000E+02  2.00000000E+01  0.00000000E+00
  2.00000000E+02  1.80000000E+01  0.00000000E+00
  2.00000000E+02  1.60000000E+01  0.00000000E+00
  2.00000000E+02  1.40000000E+01  0.00000000E+00
  2.00000000E+02  1.20000000E+01  0.00000000E+00
  2.00000000E+02  1.00000000E+01  0.00000000E+00
  2.00000000E+02  8.00000000E+00  0.00000000E+00
  2.00000000E+02  6.00000000E+00  0.00000000E+00
  2.00000000E+02  4.00000000E+00  0.00000000E+00
  2.00000000E+02  2.00000000E+00  0.00000000E+00
  2.00000000E+02 -3.33066907E-14  0.00000000E+00
  2.10000000E+02  1.00000000E+02  0.00000000E+00
  2.10000000E+02  9.80000000E+01  0.00000000E+00
  2.10000000E+02  9.60000000E+01  0.00000000E+00
  2.10000000E+02  9.40000000E+01  0.00000000E+00
  2.10000000E+02  9.20000000E+01  0.00000000E+00
  2.10000000E+02  9.00000000E+01  0.00000000E+00
  2.10000000E+02  8.80000000E+01  0.00000000E+00
  2.10000000E+02  8.60000000E+01  0.00000000E+00
  2.10000000E+02  8.40000000E+01  0.00000000E+00
  2.10000000E+02  8.20000000E+01  0.00000000E+00
  2.10000000E+02  8.00000000E+01  0.00000000E+00
  2.10000000E+02  7.80000000E+01  0.00000000E+00
  2.10000000E+02  7.60000000E+01  0.00000000E+00
  2.10000000E+02  7.40000000E+01  0.00000000E+00
  2.10000000E+02  7.20000000E+01  0.00000000E+00
  2.10000000E+02  7.00000000E+01  0.00000000E+00
  2.10000000E+02  6.80000000E+01  0.00000000E+00
  2.10000000E+02  6.60000000E+01  0.00000000E+00
  2.10000000E+02  6.40000000E+01  0.00000000E+00
  2.10000000E+02  6.20000000E+01  0.00000000E+00
  2.10000000E+02  6.00000000E+01  0.00000000E+00
  2.10000000E+02  5.80000000E+01  0.00000000E+00
  2.10000000E+02  5.60000000E+01  0.00000000E+00
  2.10000000E+02  5.40000000E+01  0.00000000E+00
  2.10000000E+02  5.20000000E+01  0.00000000E+00
  2.10000000E+02  5.00000000E+01  0.00000000E+00
  2.10000000E+02  4.80000000E+01  0.00000000E+00
  2.10000000E+02  4.60000000E+01  0.00000000E+00
  2.10000000E+02  4.40000000E+01  0.00000000E+00
  2.10000000E+02  4.20000000E+01  0.00000000E+00
  2.10000000E+02  4.00000000E+01  0.00000000E+00
  2.10000000E+02  3.80000000E+01  0.00000000E+00
  2.10000000E+02  3.60000000E+01  0.00000000E+00
  2.10000000E+02  3.40000000E+01  0.00000000E+00
  2.10000000E+02  3.20000000E+01  0.00000000E+00
  2.10000000E+02  3.00000000E+01  0.00000000E+00
  2.10000000E+02  2.80000000E+01  0.00000000E+00
  2.10000000E+02  2.60000000E+01  0.00000000E+00
  2.10000000E+02  2.40000000E+01  0.00000000E+00
  2.10000000E+02  2.20000000E+01  0.00000000E+00
  2.10000000E+02  2.00000000E+01  0.00000000E+00
  2.10000000E+02  1.80000000E+01  0.00000000E+00
  2.10000000E+02  1.60000000E+01  0.00000000E+00
  2.10000000E+02  1.40000000E+01  0.00000000E+00
  2.10000000E+02  1.20000000E+01  0.00000000E+00
  2.10000000E+02  1.00000000E+01  0.00000000E+00
  2.10000000E+02  8.00000000E+00  0.00000000E+00
  2.10000000E+02  6.00000000E+00  0.00000000E+00
  2.10000000E+02  4.00000000E+00  0.00000000E+00
  2.10000000E+02  2.00000000E+00  0.00000000E+00
  2.10000000E+02 -3.33066907E-14  0.00000000E+00
  2.20000000E+02  1.00000000E+02  0.00000000E+00
  2.20000000E+02  9.80000000E+01  0.00000000E+00
  2.20000000E+02  9.60000000E+01  0.00000000E+00
  2.20000000E+02  9.40000000E+01  0.00000000E+00
  2.20000000E+02  9.20000000E+01  0.00000000E+00
  2.20000000E+02  9.00000000E+01  0.00000000E+00
  2.20000000E+02  8.80000000E+01  0.00000000E+00
  2.20000000E+02  8.60000000E+01  0.00000000E+00
  2.20000000E+02  8.40000000E+01  0.00000000E+00
  2.20000000E+02  8.20000000E+01  0.00000000E+00
  2.20000000E+02  8.00000000E+01  0.00000000E+00
  2.20000000E+02  7.80000000E+01  0.00000000E+00
  2.20000000E+02  7.60000000E+01  0.00000000E+00
  2.20000000E+02  7.40000000E+01  0.00000000E+00
  2.20000000E+02  7.20000000E+01  0.00000000E+00
  2.20000000E+02  7.00000000E+01  0.00000000E+00
  2.20000000E+02  6.80000000E+01  0.00000000E+00
  2.20000000E+02  6.60000000E+01  0.00000000E+00
  2.20000000E+02  6.40000000E+01  0.00000000E+00
  2.20000000E+02  6.20000000E+01  0.00000000E+00
  2.20000000E+02  6.00000000E+01  0.00000000E+00
  2.20000000E+02  5.80000000E+01  0.00000000E+00
  2.20000000E+02  5.60000000E+01  0.00000000E+00
  2.20000000E+02  5.40000000E+01  0.00000000E+00
  2.20000000E+02  5.20000000E+01  0.00000000E+00
  2.20000000E+02  5.00000000E+01  0.00000000E+00
  2.20000000E+02  4.80000000E+01  0.00000000E+00
  2.20000000E+02  4.60000000E+01  0.00000000E+00
  2.20000000E+02  4.40000000E+01  0.00000000E+00
  2.20000000E+02  4.20000000E+01  0.00000000E+00
  2.20000000E+02  4.00000000E+01  0.00000000E+00
  2.20000000E+02  3.80000000E+01  0.00000000E+00
  2.20000000E+02  3.60000000E+01  0.00000000E+00
  2.20000000E+02  3.40000000E+01  0.00000000E+00
  2.20000000E+02  3.20000000E+01  0.00000000E+00
  2.20000000E+02  3.00000000E+01  0.00000000E+00
  2.20000000E+02  2.80000000E+01  0.00000000E+00
  2.20000000E+02  2.60000000E+01  0.00000000E+00
  2.20000000E+02  2.40000000E+01  0.00000000E+00
  2.20000000E+02  2.20000000E+01  0.00000000E+00
  2.20000000E+02  2.00000000E+01  0.00000000E+00
  2.20000000E+02  1.80000000E+01  0.00000000E+00
  2.20000000E+02  1.60000000E+01  0.00000000E+00
  2.20000000E+02  1.40000000E+01  0.00000000E+00
  2.20000000E+02  1.20000000E+01  0.00000000E+00
  2.20000000E+02  1.00000000E+01  0.00000000E+00
  2.20000000E+02  8.00000000E+00  0.00000000E+00
  2.20000000E+02  6.00000000E+00  0.00000000E+00
  2.20000000E+02  4.00000000E+00  0.00000000E+00
  2.20000000E+02  2.00000000E+00  0.00000000E+00
  2.20000000E+02 -3.33066907E-14  0.00000000E+00
  2.30000000E+02  1.00000000E+02  0.00000000E+00
  2.30000000E+02  9.80000000E+01  0.00000000E+00
  2.30000000E+02  9.60000000E+01  0.00000000E+00
  2.30000000E+02  9.40000000E+01  0.00000000E+00
  2.30000000E+02  9.20000000E+01  0.00000000E+00
  2.30000000E+02  9.00000000E+01  0.00000000E+00
  2.30000000E+02  8.80000000E+01  0.00000000E+00
  2.30000000E+02  8.60000000E+01  0.00000000E+00
  2.30000000E+02  8.40000000E+01  0.00000000E+00
  2.30000000E+02  8.20000000E+01  0.00000000E+00
  2.30000000E+02  8.00000000E+01  0.00000000E+00
  2.30000000E+02  7.80000000E+01  0.00000000E+00
  2.30000000E+02  7.60000000E+01  0.00000000E+00
  2.30000000E+02  7.40000000E+01  0.00000000E+00
  2.30000000E+02  7.20000000E+01  0.00000000E+00
  2.30000000E+02  7.00000000E+01  0.00000000E+00
  2.30000000E+02  6.80000000E+01  0.00000000E+00
  2.30000000E+02  6.60000000E+01  0.00000000E+00
  2.30000000E+02  6.40000000E+01  0.00000000E+00
  2.30000000E+02  6.20000000E+01  0.00000000E+00
  2.30000000E+02  6.00000000E+01  0.00000000E+00
  2.30000000E+02  5.80000000E+01  0.00000000E+00
  2.30000000E+02  5.60000000E+01  0.00000000E+00
  2.30000000E+02  5.40000000E+01  0.00000000E+00
  2.30000000E+02  5.20000000E+01  0.00000000E+00
  2.30000000E+02  5.00000000E+01  0.00000000E+00
  2.30000000E+02  4.80000000E+01  0.00000000E+00
  2.30000000E+02  4.60000000E+01  0.00000000E+00
  2.30000000E+02  4.40000000E+01  0.00000000E+00
  2.30000000E+02  4.20000000E+01  0.00000000E+00
  2.30000000E+02  4.00000000E+01  0.00000000E+00
  2.30000000E+02  3.80000000E+01  0.00000000E+00
  2.30000000E+02  3.60000000E+01  0.00000000E+00
  2.30000000E+02  3.40000000E+01  0.00000000E+00
  2.30000000E+02  3.20000000E+01  0.00000000E+00
  2.30000000E+02  3.00000000E+01  0.00000000E+00
  2.30000000E+02  2.80000000E+01  0.00000000E+00
  2.30000000E+02  2.60000000E+01  0.00000000E+00
  2.30000000E+02  2.40000000E+01  0.00000000E+00
  2.30000000E+02  2.20000000E+01  0.00000000E+00
  2.30000000E+02  2.00000000E+01  0.00000000E+00
  2.30000000E+02  1.80000000E+01  0.00000000E+00
  2.30000000E+02  1.60000000E+01  0.00000000E+00
  2.30000000E+02  1.40000000E+01  0.00000000E+00
  2.30000000E+02  1.20000000E+01  0.00000000E+00
  2.30000000E+02  1.00000000E+01  0.00000000E+00
  2.30000000E+02  8.00000000E+00  0.00000000E+00
  2.30000000E+02  6.00000000E+00  0.00000000E+00
  2.30000000E+02  4.00000000E+00  0.00000000E+00
  2.30000000E+02  2.00000000E+00  0.00000000E+00
  2.30000000E+02 -3.33066907E-14  0.00000000E+00
  2.40000000E+02  1.00000000E+02  0.00000000E+00
  2.40000000E+02  9.80000000E+01  0.00000000E+00
  2.40000000E+02  9.60000000E+01  0.00000000E+00
  2.40000000E+02  9.40000000E+01  0.00000000E+00
  2.40000000E+02  9.20000000E+01  0.00000000E+00
  2.40000000E+02  9.00000000E+01  0.00000000E+00
  2.40000000E+02  8.80000000E+01  0.00000000E+00
  2.40000000E+02  8.60000000E+01  0.00000000E+00
  2.40000000E+02  8.40000000E+01  0.00000000E+00
  2.40000000E+02  8.20000000E+01  0.00000000E+00
  2.40000000E+02  8.00000000E+01  0.00000000E+00
  2.40000000E+02  7.80000000E+01  0.00000000E+00
  2.40000000E+02  7.60000000E+01  0.00000000E+00
  2.40000000E+02  7.40000000E+01  0.00000000E+00
  2.40000000E+02  7.20000000E+01  0.00000000E+00
  2.40000000E+02  7.00000000E+01  0.00000000E+00
  2.40000000E+02  6.80000000E+01  0.00000000E+00
  2.40000000E+02  6.60000000E+01  0.00000000E+00
  2.40000000E+02  6.40000000E+01  0.00000000E+00
  2.40000000E+02  6.20000000E+01  0.00000000E+00
  2.40000000E+02  6.00000000E+01  0.00000000E+00
  2.40000000E+02  5.80000000E+01  0.00000000E+00
  2.40000000E+02  5.60000000E+01  0.00000000E+00
  2.40000000E+02  5.40000000E+01  0.00000000E+00
  2.40000000E+02  5.20000000E+01  0.00000000E+00
  2.40000000E+02  5.00000000E+01  0.00000000E+00
  2.40000000E+02  4.80000000E+01  0.00000000E+00
  2.40000000E+02  4.60000000E+01  0.00000000E+00
  2.40000000E+02  4.40000000E+01  0.00000000E+00
  2.40000000E+02  4.20000000E+01  0.00000000E+00
  2.40000000E+02  4.00000000E+01  0.00000000E+00
  2.40000000E+02  3.80000000E+01  0.00000000E+00
  2.40000000E+02  3.60000000E+01  0.00000000E+00
  2.40000000E+02  3.40000000E+01  0.00000000E+00
  2.40000000E+02  3.20000000E+01  0.00000000E+00
  2.40000000E+02  3.00000000E+01  0.00000000E+00
  2.40000000E+02  2.80000000E+01  0.00000000E+00
  2.40000000E+02  2.60000000E+01  0.00000000E+00
  2.40000000E+02  2.40000000E+01  0.00000000E+00
  2.40000000E+02  2.20000000E+01  0.00000000E+00
  2.40000000E+02  2.00000000E+01  0.00000000E+00
  2.40000000E+02  1.80000000E+01  0.00000000E+00
  2.40000000E+02  1.60000000E+01  0.00000000E+00
  2.40000000E+02  1.40000000E+01  0.00000000E+00
  2.40000000E+02  1.20000000E+01  0.00000000E+00
  2.40000000E+02  1.00000000E+01  0.00000000E+00
  2.40000000E+02  8.00000000E+00  0.00000000E+00
  2.40000000E+02  6.00000000E+00  0.00000000E+00
  2.40000000E+02  4.00000000E+00  0.00000000E+00
  2.40000000E+02  2.00000000E+00  0.00000000E+00
  2.40000000E+02 -3.33066907E-14  0.00000000E+00
  2.50000000E+02  1.00000000E+02  0.00000000E+00
  2.50000000E+02  9.80000000E+01  0.00000000E+00
  2.50000000E+02  9.60000000E+01  0.00000000E+00
  2.50000000E+02  9.40000000E+01  0.00000000E+00
  2.50000000E+02  9.20000000E+01  0.00000000E+00
  2.50000000E+02  9.00000000E+01  0.00000000E+00
  2.50000000E+02  8.80000000E+01  0.00000000E+00
  2.50000000E+02  8.60000000E+01  0.00000000E+00
  2.50000000E+02  8.40000000E+01  0.00000000E+00
  2.50000000E+02  8.20000000E+01  0.00000000E+00
  2.50000000E+02  8.00000000E+01  0.00000000E+00
  2.50000000E+02  7.80000000E+01  0.00000000E+00
  2.50000000E+02  7.60000000E+01  0.00000000E+00
  2.50000000E+02  7.40000000E+01  0.00000000E+00
  2.50000000E+02  7.20000000E+01  0.00000000E+00
  2.50000000E+02  7.00000000E+01  0.00000000E+00
  2.50000000E+02  6.80000000E+01  0.00000000E+00
  2.50000000E+02  6.60000000E+01  0.00000000E+00
  2.50000000E+02  6.40000000E+01  0.00000000E+00
  2.50000000E+02  6.20000000E+01  0.00000000E+00
  2.50000000E+02  6.00000000E+01  0.00000000E+00
  2.50000000E+02  5.80000000E+01  0.00000000E+00
  2.50000000E+02  5.60000000E+01  0.00000000E+00
  2.50000000E+02  5.40000000E+01  0.00000000E+00
  2.50000000E+02  5.20000000E+01  0.00000000E+00
  2.50000000E+02  5.00000000E+01  0.00000000E+00
  2.50000000E+02  4.80000000E+01  0.00000000E+00
  2.50000000E+02  4.60000000E+01  0.00000000E+00
  2.50000000E+02  4.40000000E+01  0.00000000E+00
  2.50000000E+02  4.20000000E+01  0.00000000E+00
  2.50000000E+02  4.00000000E+01  0.00000000E+00
  2.50000000E+02  3.80000000E+01  0.00000000E+00
  2.50000000E+02  3.60000000E+01  0.00000000E+00
  2.50000000E+02  3.40000000E+01  0.00000000E+00
  2.50000000E+02  3.20000000E+01  0.00000000E+00
  2.50000000E+02  3.00000000E+01  0.00000000E+00
  2.50000000E+02  2.80000000E+01  0.00000000E+00
  2.50000000E+02  2.60000000E+01  0.00000000E+00
  2.50000000E+02  2.40000000E+01  0.00000000E+00
  2.50000000E+02  2.20000000E+01  0.00000000E+00
  2.50000000E+02  2.00000000E+01  0.00000000E+00
  2.50000000E+02  1.80000000E+01  0.00000000E+00
  2.50000000E+02  1.60000000E+01  0.00000000E+00
  2.50000000E+02  1.40000000E+01  0.00000000E+00
  2.50000000E+02  1.20000000E+01  0.00000000E+00
  2.50000000E+02  1.00000000E+01  0.00000000E+00
  2.50000000E+02  8.00000000E+00  0.00000000E+00
  2.50000000E+02  6.00000000E+00  0.00000000E+00
  2.50000000E+02  4.00000000E+00  0.00000000E+00
  2.50000000E+02  2.00000000E+00  0.00000000E+00
  2.50000000E+02 -3.33066907E-14  0.00000000E+00
  2.60000000E+02  1.00000000E+02  0.00000000E+00
  2.60000000E+02  9.80000000E+01  0.00000000E+00
  2.60000000E+02  9.60000000E+01  0.00000000E+00
  2.60000000E+02  9.40000000E+01  0.00000000E+00
  2.60000000E+02  9.20000000E+01  0.00000000E+00
  2.60000000E+02  9.00000000E+01  0.00000000E+00
  2.60000000E+02  8.80000000E+01  0.00000000E+00
  2.60000000E+02  8.60000000E+01  0.00000000E+00
  2.60000000E+02  8.40000000E+01  0.00000000E+00
  2.60000000E+02  8.20000000E+01  0.00000000E+00
  2.60000000E+02  8.00000000E+01  0.00000000E+00
  2.60000000E+02  7.80000000E+01  0.00000000E+00
  2.60000000E+02  7.60000000E+01  0.00000000E+00
  2.60000000E+02  7.40000000E+01  0.00000000E+00
  2.60000000E+02  7.20000000E+01  0.00000000E+00
  2.60000000E+02  7.00000000E+01  0.00000000E+00
  2.60000000E+02  6.80000000E+01  0.00000000E+00
  2.60000000E+02  6.60000000E+01  0.00000000E+00
  2.60000000E+02  6.40000000E+01  0.00000000E+00
  2.60000000E+02  6.20000000E+01  0.00000000E+00
  2.60000000E+02  6.00000000E+01  0.00000000E+00
  2.60000000E+02  5.80000000E+01  0.00000000E+00
  2.60000000E+02  5.60000000E+01  0.00000000E+00
  2.60000000E+02  5.40000000E+01  0.00000000E+00
  2.60000000E+02  5.20000000E+01  0.00000000E+00
  2.60000000E+02  5.00000000E+01  0.00000000E+00
  2.60000000E+02  4.80000000E+01  0.00000000E+00
  2.60000000E+02  4.60000000E+01  0.00000000E+00
  2.60000000E+02  4.40000000E+01  0.00000000E+00
  2.60000000E+02  4.20000000E+01  0.00000000E+00
  2.60000000E+02  4.00000000E+01  0.00000000E+00
  2.60000000E+02  3.80000000E+01  0.00000000E+00
  2.60000000E+02  3.60000000E+01  0.00000000E+00
  2.60000000E+02  3.40000000E+01  0.00000000E+00
  2.60000000E+02  3.20000000E+01  0.00000000E+00
  2.60000000E+02  3.00000000E+01  0.00000000E+00
  2.60000000E+02  2.80000000E+01  0.00000000E+00
  2.60000000E+02  2.60000000E+01  0.00000000E+00
  2.60000000E+02  2.40000000E+01  0.00000000E+00
  2.60000000E+02  2.20000000E+01  0.00000000E+00
  2.60000000E+02  2.00000000E+01  0.00000000E+00
  2.60000000E+02  1.80000000E+01  0.00000000E+00
  2.60000000E+02  1.60000000E+01  0.00000000E+00
  2.60000000E+02  1.40000000E+01  0.00000000E+00
  2.60000000E+02  1.20000000E+01  0.00000000E+00
  2.60000000E+02  1.00000000E+01  0.00000000E+00
  2.60000000E+02  8.00000000E+00  0.00000000E+00
  2.60000000E+02  6.00000000E+00  0.00000000E+00
  2.60000000E+02  4.00000000E+00  0.00000000E+00
  2.60000000E+02  2.00000000E+00  0.00000000E+00
  2.60000000E+02 -3.33066907E-14  0.00000000E+00
  2.70000000E+02  1.00000000E+02  0.00000000E+00
  2.70000000E+02  9.80000000E+01  0.00000000E+00
  2.70000000E+02  9.60000000E+01  0.00000000E+00
  2.70000000E+02  9.40000000E+01  0.00000000E+00
  2.70000000E+02  9.20000000E+01  0.00000000E+00
  2.70000000E+02  9.00000000E+01  0.00000000E+00
  2.70000000E+02  8.80000000E+01  0.00000000E+00
  2.70000000E+02  8.60000000E+01  0.00000000E+00
  2.70000000E+02  8.40000000E+01  0.00000000E+00
  2.70000000E+02  8.20000000E+01  0.00000000E+00
  2.70000000E+02  8.00000000E+01  0.00000000E+00
  2.70000000E+02  7.80000000E+01  0.00000000E+00
  2.70000000E+02  7.60000000E+01  0.00000000E+00
  2.70000000E+02  7.40000000E+01  0.00000000E+00
  2.70000000E+02  7.20000000E+01  0.00000000E+00
  2.70000000E+02  7.00000000E+01  0.00000000E+00
  2.70000000E+02  6.80000000E+01  0.00000000E+00
  2.70000000E+02  6.60000000E+01  0.00000000E+00
  2.70000000E+02  6.40000000E+01  0.00000000E+00
  2.70000000E+02  6.20000000E+01  0.00000000E+00
  2.70000000E+02  6.00000000E+01  0.00000000E+00
  2.70000000E+02  5.80000000E+01  0.00000000E+00
  2.70000000E+02  5.60000000E+01  0.00000000E+00
  2.70000000E+02  5.40000000E+01  0.00000000E+00
  2.70000000E+02  5.20000000E+01  0.00000000E+00
  2.70000000E+02  5.00000000E+01  0.00000000E+00
  2.70000000E+02  4.80000000E+01  0.00000000E+00
  2.70000000E+02  4.60000000E+01  0.00000000E+00
  2.70000000E+02  4.40000000E+01  0.00000000E+00
  2.70000000E+02  4.20000000E+01  0.00000000E+00
  2.70000000E+02  4.00000000E+01  0.00000000E+00
  2.70000000E+02  3.80000000E+01  0.00000000E+00
  2.70000000E+02  3.60000000E+01  0.00000000E+00
  2.70000000E+02  3.40000000E+01  0.00000000E+00
  2.70000000E+02  3.20000000E+01  0.00000000E+00
  2.70000000E+02  3.00000000E+01  0.00000000E+00
  2.70000000E+02  2.80000000E+01  0.00000000E+00
  2.70000000E+02  2.60000000E+01  0.00000000E+00
  2.70000000E+02  2.40000000E+01  0.00000000E+00
  2.70000000E+02  2.20000000E+01  0.00000000E+00
  2.70000000E+02  2.00000000E+01  0.00000000E+00
  2.70000000E+02  1.80000000E+01  0.00000000E+00
  2.70000000E+02  1.60000000E+01  0.00000000E+00
  2.70000000E+02  1.40000000E+01  0.00000000E+00
  2.70000000E+02  1.20000000E+01  0.00000000E+00
  2.70000000E+02  1.00000000E+01  0.00000000E+00
  2.70000000E+02  8.00000000E+00  0.00000000E+00
  2.70000000E+02  6.00000000E+00  0.00000000E+00
  2.70000000E+02  4.00000000E+00  0.00000000E+00
  2.70000000E+02  2.00000000E+00  0.00000000E+00
  2.70000000E+02 -3.33066907E-14  0.00000000E+00
  2.80000000E+02  1.00000000E+02  0.00000000E+00
  2.80000000E+02  9.80000000E+01  0.00000000E+00
  2.80000000E+02  9.60000000E+01  0.00000000E+00
  2.80000000E+02  9.40000000E+01  0.00000000E+00
  2.80000000E+02  9.20000000E+01  0.00000000E+00
  2.80000000E+02  9.00000000E+01  0.00000000E+00
  2.80000000E+02  8.80000000E+01  0.00000000E+00
  2.80000000E+02  8.60000000E+01  0.00000000E+00
  2.80000000E+02  8.40000000E+01  0.00000000E+00
  2.80000000E+02  8.20000000E+01  0.00000000E+00
  2.80000000E+02  8.00000000E+01  0.00000000E+00
  2.80000000E+02  7.80000000E+01  0.00000000E+00
  2.80000000E+02  7.60000000E+01  0.00000000E+00
  2.80000000E+02  7.40000000E+01  0.00000000E+00
  2.80000000E+02  7.20000000E+01  0.00000000E+00
  2.80000000E+02  7.00000000E+01  0.00000000E+00
  2.80000000E+02  6.80000000E+01  0.00000000E+00
  2.80000000E+02  6.60000000E+01  0.00000000E+00
  2.80000000E+02  6.40000000E+01  0.00000000E+00
  2.80000000E+02  6.20000000E+01  0.00000000E+00
  2.80000000E+02  6.00000000E+01  0.00000000E+00
  2.80000000E+02  5.80000000E+01  0.00000000E+00
  2.80000000E+02  5.60000000E+01  0.00000000E+00
  2.80000000E+02  5.40000000E+01  0.00000000E+00
  2.80000000E+02  5.20000000E+01  0.00000000E+00
  2.80000000E+02  5.00000000E+01  0.00000000E+00
  2.80000000E+02  4.80000000E+01  0.00000000E+00
  2.80000000E+02  4.60000000E+01  0.00000000E+00
  2.80000000E+02  4.40000000E+01  0.00000000E+00
  2.80000000E+02  4.20000000E+01  0.00000000E+00
  2.80000000E+02  4.00000000E+01  0.00000000E+00
  2.80000000E+02  3.80000000E+01  0.00000000E+00
  2.80000000E+02  3.60000000E+01  0.00000000E+00
  2.80000000E+02  3.40000000E+01  0.00000000E+00
  2.80000000E+02  3.20000000E+01  0.00000000E+00
  2.80000000E+02  3.00000000E+01  0.00000000E+00
  2.80000000E+02  2.80000000E+01  0.00000000E+00
  2.80000000E+02  2.60000000E+01  0.00000000E+00
  2.80000000E+02  2.40000000E+01  0.00000000E+00
  2.80000000E+02  2.20000000E+01  0.00000000E+00
  2.80000000E+02  2.00000000E+01  0.00000000E+00
  2.80000000E+02  1.80000000E+01  0.00000000E+00
  2.80000000E+02  1.60000000E+01  0.00000000E+00
  2.80000000E+02  1.40000000E+01  0.00000000E+00
  2.80000000E+02  1.20000000E+01  0.00000000E+00
  2.80000000E+02  1.00000000E+01  0.00000000E+00
  2.80000000E+02  8.00000000E+00  0.00000000E+00
  2.80000000E+02  6.00000000E+00  0.00000000E+00
  2.80000000E+02  4.00000000E+00  0.00000000E+00
  2.80000000E+02  2.00000000E+00  0.00000000E+00
  2.80000000E+02 -3.33066907E-14  0.00000000E+00
  2.90000000E+02  1.00000000E+02  0.00000000E+00
  2.90000000E+02  9.80000000E+01  0.00000000E+00
  2.90000000E+02  9.60000000E+01  0.00000000E+00
  2.90000000E+02  9.40000000E+01  0.00000000E+00
  2.90000000E+02  9.20000000E+01  0.00000000E+00
  2.90000000E+02  9.00000000E+01  0.00000000E+00
  2.90000000E+02  8.80000000E+01  0.00000000E+00
  2.90000000E+02  8.60000000E+01  0.00000000E+00
  2.90000000E+02  8.40000000E+01  0.00000000E+00
  2.90000000E+02  8.20000000E+01  0.00000000E+00
  2.90000000E+02  8.00000000E+01  0.00000000E+00
  2.90000000E+02  7.80000000E+01  0.00000000E+00
  2.90000000E+02  7.60000000E+01  0.00000000E+00
  2.90000000E+02  7.40000000E+01  0.00000000E+00
  2.90000000E+02  7.20000000E+01  0.00000000E+00
  2.90000000E+02  7.00000000E+01  0.00000000E+00
  2.90000000E+02  6.80000000E+01  0.00000000E+00
  2.90000000E+02  6.60000000E+01  0.00000000E+00
  2.90000000E+02  6.40000000E+01  0.00000000E+00
  2.90000000E+02  6.20000000E+01  0.00000000E+00
  2.90000000E+02  6.00000000E+01  0.00000000E+00
  2.90000000E+02  5.80000000E+01  0.00000000E+00
  2.90000000E+02  5.60000000E+01  0.00000000E+00
  2.90000000E+02  5.40000000E+01  0.00000000E+00
  2.90000000E+02  5.20000000E+01  0.00000000E+00
  2.90000000E+02  5.00000000E+01  0.00000000E+00
  2.90000000E+02  4.80000000E+01  0.00000000E+00
  2.90000000E+02  4.60000000E+01  0.00000000E+00
  2.90000000E+02  4.40000000E+01  0.00000000E+00
  2.90000000E+02  4.20000000E+01  0.00000000E+00
  2.90000000E+02  4.00000000E+01  0.00000000E+00
  2.90000000E+02  3.80000000E+01  0.00000000E+00
  2.90000000E+02  3.60000000E+01  0.00000000E+00
  2.90000000E+02  3.40000000E+01  0.00000000E+00
  2.90000000E+02  3.20000000E+01  0.00000000E+00
  2.90000000E+02  3.00000000E+01  0.00000000E+00
  2.90000000E+02  2.80000000E+01  0.00000000E+00
  2.90000000E+02  2.60000000E+01  0.00000000E+00
  2.90000000E+02  2.40000000E+01  0.00000000E+00
  2.90000000E+02  2.20000000E+01  0.00000000E+00
  2.90000000E+02  2.00000000E+01  0.00000000E+00
  2.90000000E+02  1.80000000E+01  0.00000000E+00
  2.90000000E+02  1.60000000E+01  0.00000000E+00
  2.90000000E+02  1.40000000E+01  0.00000000E+00
  2.90000000E+02  1.20000000E+01  0.00000000E+00
  2.90000000E+02  1.00000000E+01  0.00000000E+00
  2.90000000E+02  8.00000000E+00  0.00000000E+00
  2.90000000E+02  6.00000000E+00  0.00000000E+00
  2.90000000E+02  4.00000000E+00  0.00000000E+00
  2.90000000E+02  2.00000000E+00  0.00000000E+00
  2.90000000E+02 -3.33066907E-14  0.00000000E+00
  3.00000000E+02  1.00000000E+02  0.00000000E+00
  3.00000000E+02  9.80000000E+01  0.00000000E+00
  3.00000000E+02  9.60000000E+01  0.00000000E+00
  3.00000000E+02  9.40000000E+01  0.00000000E+00
  3.00000000E+02  9.20000000E+01  0.00000000E+00
  3.00000000E+02  9.00000000E+01  0.00000000E+00
  3.00000000E+02  8.80000000E+01  0.00000000E+00
  3.00000000E+02  8.60000000E+01  0.00000000E+00
  3.00000000E+02  8.40000000E+01  0.00000000E+00
  3.00000000E+02  8.20000000E+01  0.00000000E+00
  3.00000000E+02  8.00000000E+01  0.00000000E+00
  3.00000000E+02  7.80000000E+01  0.00000000E+00
  3.00000000E+02  7.60000000E+01  0.00000000E+00
  3.00000000E+02  7.40000000E+01  0.00000000E+00
  3.00000000E+02  7.20000000E+01  0.00000000E+00
  3.00000000E+02  7.00000000E+01  0.00000000E+00
  3.00000000E+02  6.80000000E+01  0.00000000E+00
  3.00000000E+02  6.60000000E+01  0.00000000E+00
  3.00000000E+02  6.40000000E+01  0.00000000E+00
  3.00000000E+02  6.20000000E+01  0.00000000E+00
  3.00000000E+02  6.00000000E+01  0.00000000E+00
  3.00000000E+02  5.80000000E+01  0.00000000E+00
  3.00000000E+02  5.60000000E+01  0.00000000E+00
  3.00000000E+02  5.40000000E+01  0.00000000E+00
  3.00000000E+02  5.20000000E+01  0.00000000E+00
  3.00000000E+02  5.00000000E+01  0.00000000E+00
  3.00000000E+02  4.80000000E+01  0.00000000E+00
  3.00000000E+02  4.60000000E+01  0.00000000E+00
  3.00000000E+02  4.40000000E+01  0.00000000E+00
  3.00000000E+02  4.20000000E+01  0.00000000E+00
  3.00000000E+02  4.00000000E+01  0.00000000E+00
  3.00000000E+02  3.80000000E+01  0.00000000E+00
  3.00000000E+02  3.60000000E+01  0.00000000E+00
  3.00000000E+02  3.40000000E+01  0.00000000E+00
  3.00000000E+02  3.20000000E+01  0.00000000E+00
  3.00000000E+02  3.00000000E+01  0.00000000E+00
  3.00000000E+02  2.80000000E+01  0.00000000E+00
  3.00000000E+02  2.60000000E+01  0.00000000E+00
  3.00000000E+02  2.40000000E+01  0.00000000E+00
  3.00000000E+02  2.20000000E+01  0.00000000E+00
  3.00000000E+02  2.00000000E+01  0.00000000E+00
  3.00000000E+02  1.80000000E+01  0.00000000E+00
  3.00000000E+02  1.60000000E+01  0.00000000E+00
  3.00000000E+02  1.40000000E+01  0.00000000E+00
  3.00000000E+02  1.20000000E+01  0.00000000E+00
  3.00000000E+02  1.00000000E+01  0.00000000E+00
  3.00000000E+02  8.00000000E+00  0.00000000E+00
  3.00000000E+02  6.00000000E+00  0.00000000E+00
  3.00000000E+02  4.00000000E+00  0.00000000E+00
  3.00000000E+02  2.00000000E+00  0.00000000E+00
  3.00000000E+02 -3.33066907E-14  0.00000000E+00
  3.10000000E+02  1.00000000E+02  0.00000000E+00
  3.10000000E+02  9.80000000E+01  0.00000000E+00
  3.10000000E+02  9.60000000E+01  0.00000000E+00
  3.10000000E+02  9.40000000E+01  0.00000000E+00
  3.10000000E+02  9.20000000E+01  0.00000000E+00
  3.10000000E+02  9.00000000E+01  0.00000000E+00
  3.10000000E+02  8.80000000E+01  0.00000000E+00
  3.10000000E+02  8.60000000E+01  0.00000000E+00
  3.10000000E+02  8.40000000E+01  0.00000000E+00
  3.10000000E+02  8.20000000E+01  0.00000000E+00
  3.10000000E+02  8.00000000E+01  0.00000000E+00
  3.10000000E+02  7.80000000E+01  0.00000000E+00
  3.10000000E+02  7.60000000E+01  0.00000000E+00
  3.10000000E+02  7.40000000E+01  0.00000000E+00
  3.10000000E+02  7.20000000E+01  0.00000000E+00
  3.10000000E+02  7.00000000E+01  0.00000000E+00
  3.10000000E+02  6.80000000E+01  0.00000000E+00
  3.10000000E+02  6.60000000E+01  0.00000000E+00
  3.10000000E+02  6.40000000E+01  0.00000000E+00
  3.10000000E+02  6.20000000E+01  0.00000000E+00
  3.10000000E+02  6.00000000E+01  0.00000000E+00
  3.10000000E+02  5.80000000E+01  0.00000000E+00
  3.10000000E+02  5.60000000E+01  0.00000000E+00
  3.10000000E+02  5.40000000E+01  0.00000000E+00
  3.10000000E+02  5.20000000E+01  0.00000000E+00
  3.10000000E+02  5.00000000E+01  0.00000000E+00
  3.10000000E+02  4.80000000E+01  0.00000000E+00
  3.10000000E+02  4.60000000E+01  0.00000000E+00
  3.10000000E+02  4.40000000E+01  0.00000000E+00
  3.10000000E+02  4.20000000E+01  0.00000000E+00
  3.10000000E+02  4.00000000E+01  0.00000000E+00
  3.10000000E+02  3.80000000E+01  0.00000000E+00
  3.10000000E+02  3.60000000E+01  0.00000000E+00
  3.10000000E+02  3.40000000E+01  0.00000000E+00
  3.10000000E+02  3.20000000E+01  0.00000000E+00
  3.10000000E+02  3.00000000E+01  0.00000000E+00
  3.10000000E+02  2.80000000E+01  0.00000000E+00
  3.10000000E+02  2.60000000E+01  0.00000000E+00
  3.10000000E+02  2.40000000E+01  0.00000000E+00
  3.10000000E+02  2.20000000E+01  0.00000000E+00
  3.10000000E+02  2.00000000E+01  0.00000000E+00
  3.10000000E+02  1.80000000E+01  0.00000000E+00
  3.10000000E+02  1.60000000E+01  0.00000000E+00
  3.10000000E+02  1.40000000E+01  0.00000000E+00
  3.10000000E+02  1.20000000E+01  0.00000000E+00
  3.10000000E+02  1.00000000E+01  0.00000000E+00
  3.10000000E+02  8.00000000E+00  0.00000000E+00
  3.10000000E+02  6.00000000E+00  0.00000000E+00
  3.10000000E+02  4.00000000E+00  0.00000000E+00
  3.10000000E+02  2.00000000E+00  0.00000000E+00
  3.10000000E+02 -3.33066907E-14  0.00000000E+00
  3.20000000E+02  1.00000000E+02  0.00000000E+00
  3.20000000E+02  9.80000000E+01  0.00000000E+00
  3.20000000E+02  9.60000000E+01  0.00000000E+00
  3.20000000E+02  9.40000000E+01  0.00000000E+00
  3.20000000E+02  9.20000000E+01  0.00000000E+00
  3.20000000E+02  9.00000000E+01  0.00000000E+00
  3.20000000E+02  8.80000000E+01  0.00000000E+00
  3.20000000E+02  8.60000000E+01  0.00000000E+00
  3.20000000E+02  8.40000000E+01  0.00000000E+00
  3.20000000E+02  8.20000000E+01  0.00000000E+00
  3.20000000E+02  8.00000000E+01  0.00000000E+00
  3.20000000E+02  7.80000000E+01  0.00000000E+00
  3.20000000E+02  7.60000000E+01  0.00000000E+00
  3.20000000E+02  7.40000000E+01  0.00000000E+00
  3.20000000E+02  7.20000000E+01  0.00000000E+00
  3.20000000E+02  7.00000000E+01  0.00000000E+00
  3.20000000E+02  6.80000000E+01  0.00000000E+00
  3.20000000E+02  6.60000000E+01  0.00000000E+00
  3.20000000E+02  6.40000000E+01  0.00000000E+00
  3.20000000E+02  6.20000000E+01  0.00000000E+00
  3.20000000E+02  6.00000000E+01  0.00000000E+00
  3.20000000E+02  5.80000000E+01  0.00000000E+00
  3.20000000E+02  5.60000000E+01  0.00000000E+00
  3.20000000E+02  5.40000000E+01  0.00000000E+00
  3.20000000E+02  5.20000000E+01  0.00000000E+00
  3.20000000E+02  5.00000000E+01  0.00000000E+00
  3.20000000E+02  4.80000000E+01  0.00000000E+00
  3.20000000E+02  4.60000000E+01  0.00000000E+00
  3.20000000E+02  4.40000000E+01  0.00000000E+00
  3.20000000E+02  4.20000000E+01  0.00000000E+00
  3.20000000E+02  4.00000000E+01  0.00000000E+00
  3.20000000E+02  3.80000000E+01  0.00000000E+00
  3.20000000E+02  3.60000000E+01  0.00000000E+00
  3.20000000E+02  3.40000000E+01  0.00000000E+00
  3.20000000E+02  3.20000000E+01  0.00000000E+00
  3.20000000E+02  3.00000000E+01  0.00000000E+00
  3.20000000E+02  2.80000000E+01  0.00000000E+00
  3.20000000E+02  2.60000000E+01  0.00000000E+00
  3.20000000E+02  2.40000000E+01  0.00000000E+00
  3.20000000E+02  2.20000000E+01  0.00000000E+00
  3.20000000E+02  2.00000000E+01  0.00000000E+00
  3.20000000E+02  1.80000000E+01  0.00000000E+00
  3.20000000E+02  1.60000000E+01  0.00000000E+00
  3.20000000E+02  1.40000000E+01  0.00000000E+00
  3.20000000E+02  1.20000000E+01  0.00000000E+00
  3.20000000E+02  1.00000000E+01  0.00000000E+00
  3.20000000E+02  8.00000000E+00  0.00000000E+00
  3.20000000E+02  6.00000000E+00  0.00000000E+00
  3.20000000E+02  4.00000000E+00  0.00000000E+00
  3.20000000E+02  2.00000000E+00  0.00000000E+00
  3.20000000E+02 -3.33066907E-14  0.00000000E+00
  3.30000000E+02  1.00000000E+02  0.00000000E+00
  3.30000000E+02  9.80000000E+01  0.00000000E+00
  3.30000000E+02  9.60000000E+01  0.00000000E+00
  3.30000000E+02  9.40000000E+01  0.00000000E+00
  3.30000000E+02  9.20000000E+01  0.00000000E+00
  3.30000000E+02  9.00000000E+01  0.00000000E+00
  3.30000000E+02  8.80000000E+01  0.00000000E+00
  3.30000000E+02  8.60000000E+01  0.00000000E+00
  3.30000000E+02  8.40000000E+01  0.00000000E+00
  3.30000000E+02  8.20000000E+01  0.00000000E+00
  3.30000000E+02  8.00000000E+01  0.00000000E+00
  3.30000000E+02  7.80000000E+01  0.00000000E+00
  3.30000000E+02  7.60000000E+01  0.00000000E+00
  3.30000000E+02  7.40000000E+01  0.00000000E+00
  3.30000000E+02  7.20000000E+01  0.00000000E+00
  3.30000000E+02  7.00000000E+01  0.00000000E+00
  3.30000000E+02  6.80000000E+01  0.00000000E+00
  3.30000000E+02  6.60000000E+01  0.00000000E+00
  3.30000000E+02  6.40000000E+01  0.00000000E+00
  3.30000000E+02  6.20000000E+01  0.00000000E+00
  3.30000000E+02  6.00000000E+01  0.00000000E+00
  3.30000000E+02  5.80000000E+01  0.00000000E+00
  3.30000000E+02  5.60000000E+01  0.00000000E+00
  3.30000000E+02  5.40000000E+01  0.00000000E+00
  3.30000000E+02  5.20000000E+01  0.00000000E+00
  3.30000000E+02  5.00000000E+01  0.00000000E+00
  3.30000000E+02  4.80000000E+01  0.00000000E+00
  3.30000000E+02  4.60000000E+01  0.00000000E+00
  3.30000000E+02  4.40000000E+01  0.00000000E+00
  3.30000000E+02  4.20000000E+01  0.00000000E+00
  3.30000000E+02  4.00000000E+01  0.00000000E+00
  3.30000000E+02  3.80000000E+01  0.00000000E+00
  3.30000000E+02  3.60000000E+01  0.00000000E+00
  3.30000000E+02  3.40000000E+01  0.00000000E+00
  3.30000000E+02  3.20000000E+01  0.00000000E+00
  3.30000000E+02  3.00000000E+01  0.00000000E+00
  3.30000000E+02  2.80000000E+01  0.00000000E+00
  3.30000000E+02  2.60000000E+01  0.00000000E+00
  3.30000000E+02  2.40000000E+01  0.00000000E+00
  3.30000000E+02  2.20000000E+01  0.00000000E+00
  3.30000000E+02  2.00000000E+01  0.00000000E+00
  3.30000000E+02  1.80000000E+01  0.00000000E+00
  3.30000000E+02  1.60000000E+01  0.00000000E+00
  3.30000000E+02  1.40000000E+01  0.00000000E+00
  3.30000000E+02  1.20000000E+01  0.00000000E+00
  3.30000000E+02  1.00000000E+01  0.00000000E+00
  3.30000000E+02  8.00000000E+00  0.00000000E+00
  3.30000000E+02  6.00000000E+00  0.00000000E+00
  3.30000000E+02  4.00000000E+00  0.00000000E+00
  3.30000000E+02  2.00000000E+00  0.00000000E+00
  3.30000000E+02 -3.33066907E-14  0.00000000E+00
  3.40000000E+02  1.00000000E+02  0.00000000E+00
  3.40000000E+02  9.80000000E+01  0.00000000E+00
  3.40000000E+02  9.60000000E+01  0.00000000E+00
  3.40000000E+02  9.40000000E+01  0.00000000E+00
  3.40000000E+02  9.20000000E+01  0.00000000E+00
  3.40000000E+02  9.00000000E+01  0.00000000E+00
  3.40000000E+02  8.80000000E+01  0.00000000E+00
  3.40000000E+02  8.60000000E+01  0.00000000E+00
  3.40000000E+02  8.40000000E+01  0.00000000E+00
  3.40000000E+02  8.20000000E+01  0.00000000E+00
  3.40000000E+02  8.00000000E+01  0.00000000E+00
  3.40000000E+02  7.80000000E+01  0.00000000E+00
  3.40000000E+02  7.60000000E+01  0.00000000E+00
  3.40000000E+02  7.40000000E+01  0.00000000E+00
  3.40000000E+02  7.20000000E+01  0.00000000E+00
  3.40000000E+02  7.00000000E+01  0.00000000E+00
  3.40000000E+02  6.80000000E+01  0.00000000E+00
  3.40000000E+02  6.60000000E+01  0.00000000E+00
  3.40000000E+02  6.40000000E+01  0.00000000E+00
  3.40000000E+02  6.20000000E+01  0.00000000E+00
  3.40000000E+02  6.00000000E+01  0.00000000E+00
  3.40000000E+02  5.80000000E+01  0.00000000E+00
  3.40000000E+02  5.60000000E+01  0.00000000E+00
  3.40000000E+02  5.40000000E+01  0.00000000E+00
  3.40000000E+02  5.20000000E+01  0.00000000E+00
  3.40000000E+02  5.00000000E+01  0.00000000E+00
  3.40000000E+02  4.80000000E+01  0.00000000E+00
  3.40000000E+02  4.60000000E+01  0.00000000E+00
  3.40000000E+02  4.40000000E+01  0.00000000E+00
  3.40000000E+02  4.20000000E+01  0.00000000E+00
  3.40000000E+02  4.00000000E+01  0.00000000E+00
  3.40000000E+02  3.80000000E+01  0.00000000E+00
  3.40000000E+02  3.60000000E+01  0.00000000E+00
  3.40000000E+02  3.40000000E+01  0.00000000E+00
  3.40000000E+02  3.20000000E+01  0.00000000E+00
  3.40000000E+02  3.00000000E+01  0.00000000E+00
  3.40000000E+02  2.80000000E+01  0.00000000E+00
  3.40000000E+02  2.60000000E+01  0.00000000E+00
  3.40000000E+02  2.40000000E+01  0.00000000E+00
  3.40000000E+02  2.20000000E+01  0.00000000E+00
  3.40000000E+02  2.00000000E+01  0.00000000E+00
  3.40000000E+02  1.80000000E+01  0.00000000E+00
  3.40000000E+02  1.60000000E+01  0.00000000E+00
  3.40000000E+02  1.40000000E+01  0.00000000E+00
  3.40000000E+02  1.20000000E+01  0.00000000E+00
  3.40000000E+02  1.00000000E+01  0.00000000E+00
  3.40000000E+02  8.00000000E+00  0.00000000E+00
  3.40000000E+02  6.00000000E+00  0.00000000E+00
  3.40000000E+02  4.00000000E+00  0.00000000E+00
  3.40000000E+02  2.00000000E+00  0.00000000E+00
  3.40000000E+02 -3.33066907E-14  0.00000000E+00
  3.50000000E+02  1.00000000E+02  0.00000000E+00
  3.50000000E+02  9.80000000E+01  0.00000000E+00
  3.50000000E+02  9.60000000E+01  0.00000000E+00
  3.50000000E+02  9.40000000E+01  0.00000000E+00
  3.50000000E+02  9.20000000E+01  0.00000000E+00
  3.50000000E+02  9.00000000E+01  0.00000000E+00
  3.50000000E+02  8.80000000E+01  0.00000000E+00
  3.50000000E+02  8.60000000E+01  0.00000000E+00
  3.50000000E+02  8.40000000E+01  0.00000000E+00
  3.50000000E+02  8.20000000E+01  0.00000000E+00
  3.50000000E+02  8.00000000E+01  0.00000000E+00
  3.50000000E+02  7.80000000E+01  0.00000000E+00
  3.50000000E+02  7.60000000E+01  0.00000000E+00
  3.50000000E+02  7.40000000E+01  0.00000000E+00
  3.50000000E+02  7.20000000E+01  0.00000000E+00
  3.50000000E+02  7.00000000E+01  0.00000000E+00
  3.50000000E+02  6.80000000E+01  0.00000000E+00
  3.50000000E+02  6.60000000E+01  0.00000000E+00
  3.50000000E+02  6.40000000E+01  0.00000000E+00
  3.50000000E+02  6.20000000E+01  0.00000000E+00
  3.50000000E+02  6.00000000E+01  0.00000000E+00
  3.50000000E+02  5.80000000E+01  0.00000000E+00
  3.50000000E+02  5.60000000E+01  0.00000000E+00
  3.50000000E+02  5.40000000E+01  0.00000000E+00
  3.50000000E+02  5.20000000E+01  0.00000000E+00
  3.50000000E+02  5.00000000E+01  0.00000000E+00
  3.50000000E+02  4.80000000E+01  0.00000000E+00
  3.50000000E+02  4.60000000E+01  0.00000000E+00
  3.50000000E+02  4.40000000E+01  0.00000000E+00
  3.50000000E+02  4.20000000E+01  0.00000000E+00
  3.50000000E+02  4.00000000E+01  0.00000000E+00
  3.50000000E+02  3.80000000E+01  0.00000000E+00
  3.50000000E+02  3.60000000E+01  0.00000000E+00
  3.50000000E+02  3.40000000E+01  0.00000000E+00
  3.50000000E+02  3.20000000E+01  0.00000000E+00
  3.50000000E+02  3.00000000E+01  0.00000000E+00
  3.50000000E+02  2.80000000E+01  0.00000000E+00
  3.50000000E+02  2.60000000E+01  0.00000000E+00
  3.50000000E+02  2.40000000E+01  0.00000000E+00
  3.50000000E+02  2.20000000E+01  0.00000000E+00
  3.50000000E+02  2.00000000E+01  0.00000000E+00
  3.50000000E+02  1.80000000E+01  0.00000000E+00
  3.50000000E+02  1.60000000E+01  0.00000000E+00
  3.50000000E+02  1.40000000E+01  0.00000000E+00
  3.50000000E+02  1.20000000E+01  0.00000000E+00
  3.50000000E+02  1.00000000E+01  0.00000000E+00
  3.50000000E+02  8.00000000E+00  0.00000000E+00
  3.50000000E+02  6.00000000E+00  0.00000000E+00
  3.50000000E+02  4.00000000E+00  0.00000000E+00
  3.50000000E+02  2.00000000E+00  0.00000000E+00
  3.50000000E+02 -3.33066907E-14  0.00000000E+00
  3.60000000E+02  1.00000000E+02  0.00000000E+00
  3.60000000E+02  9.80000000E+01  0.00000000E+00
  3.60000000E+02  9.60000000E+01  0.00000000E+00
  3.60000000E+02  9.40000000E+01  0.00000000E+00
  3.60000000E+02  9.20000000E+01  0.00000000E+00
  3.60000000E+02  9.00000000E+01  0.00000000E+00
  3.60000000E+02  8.80000000E+01  0.00000000E+00
  3.60000000E+02  8.60000000E+01  0.00000000E+00
  3.60000000E+02  8.40000000E+01  0.00000000E+00
  3.60000000E+02  8.20000000E+01  0.00000000E+00
  3.60000000E+02  8.00000000E+01  0.00000000E+00
  3.60000000E+02  7.80000000E+01  0.00000000E+00
  3.60000000E+02  7.60000000E+01  0.00000000E+00
  3.60000000E+02  7.40000000E+01  0.00000000E+00
  3.60000000E+02  7.20000000E+01  0.00000000E+00
  3.60000000E+02  7.00000000E+01  0.00000000E+00
  3.60000000E+02  6.80000000E+01  0.00000000E+00
  3.60000000E+02  6.60000000E+01  0.00000000E+00
  3.60000000E+02  6.40000000E+01  0.00000000E+00
  3.60000000E+02  6.20000000E+01  0.00000000E+00
  3.60000000E+02  6.00000000E+01  0.00000000E+00
  3.60000000E+02  5.80000000E+01  0.00000000E+00
  3.60000000E+02  5.60000000E+01  0.00000000E+00
  3.60000000E+02  5.40000000E+01  0.00000000E+00
  3.60000000E+02  5.20000000E+01  0.00000000E+00
  3.60000000E+02  5.00000000E+01  0.00000000E+00
  3.60000000E+02  4.80000000E+01  0.00000000E+00
  3.60000000E+02  4.60000000E+01  0.00000000E+00
  3.60000000E+02  4.40000000E+01  0.00000000E+00
  3.60000000E+02  4.20000000E+01  0.00000000E+00
  3.60000000E+02  4.00000000E+01  0.00000000E+00
  3.60000000E+02  3.80000000E+01  0.00000000E+00
  3.60000000E+02  3.60000000E+01  0.00000000E+00
  3.60000000E+02  3.40000000E+01  0.00000000E+00
  3.60000000E+02  3.20000000E+01  0.00000000E+00
  3.60000000E+02  3.00000000E+01  0.00000000E+00
  3.60000000E+02  2.80000000E+01  0.00000000E+00
  3.60000000E+02  2.60000000E+01  0.00000000E+00
  3.60000000E+02  2.40000000E+01  0.00000000E+00
  3.60000000E+02  2.20000000E+01  0.00000000E+00
  3.60000000E+02  2.00000000E+01  0.00000000E+00
  3.60000000E+02  1.80000000E+01  0.00000000E+00
  3.60000000E+02  1.60000000E+01  0.00000000E+00
  3.60000000E+02  1.40000000E+01  0.00000000E+00
  3.60000000E+02  1.20000000E+01  0.00000000E+00
  3.60000000E+02  1.00000000E+01  0.00000000E+00
  3.60000000E+02  8.00000000E+00  0.00000000E+00
  3.60000000E+02  6.00000000E+00  0.00000000E+00
  3.60000000E+02  4.00000000E+00  0.00000000E+00
  3.60000000E+02  2.00000000E+00  0.00000000E+00
  3.60000000E+02 -3.33066907E-14  0.00000000E+00
  3.70000000E+02  1.00000000E+02  0.00000000E+00
  3.70000000E+02  9.80000000E+01  0.00000000E+00
  3.70000000E+02  9.60000000E+01  0.00000000E+00
  3.70000000E+02  9.40000000E+01  0.00000000E+00
  3.70000000E+02  9.20000000E+01  0.00000000E+00
  3.70000000E+02  9.00000000E+01  0.00000000E+00
  3.70000000E+02  8.80000000E+01  0.00000000E+00
  3.70000000E+02  8.60000000E+01  0.00000000E+00
  3.70000000E+02  8.40000000E+01  0.00000000E+00
  3.70000000E+02  8.20000000E+01  0.00000000E+00
  3.70000000E+02  8.00000000E+01  0.00000000E+00
  3.70000000E+02  7.80000000E+01  0.00000000E+00
  3.70000000E+02  7.60000000E+01  0.00000000E+00
  3.70000000E+02  7.40000000E+01  0.00000000E+00
  3.70000000E+02  7.20000000E+01  0.00000000E+00
  3.70000000E+02  7.00000000E+01  0.00000000E+00
  3.70000000E+02  6.80000000E+01  0.00000000E+00
  3.70000000E+02  6.60000000E+01  0.00000000E+00
  3.70000000E+02  6.40000000E+01  0.00000000E+00
  3.70000000E+02  6.20000000E+01  0.00000000E+00
  3.70000000E+02  6.00000000E+01  0.00000000E+00
  3.70000000E+02  5.80000000E+01  0.00000000E+00
  3.70000000E+02  5.60000000E+01  0.00000000E+00
  3.70000000E+02  5.40000000E+01  0.00000000E+00
  3.70000000E+02  5.20000000E+01  0.00000000E+00
  3.70000000E+02  5.00000000E+01  0.00000000E+00
  3.70000000E+02  4.80000000E+01  0.00000000E+00
  3.70000000E+02  4.60000000E+01  0.00000000E+00
  3.70000000E+02  4.40000000E+01  0.00000000E+00
  3.70000000E+02  4.20000000E+01  0.00000000E+00
  3.70000000E+02  4.00000000E+01  0.00000000E+00
  3.70000000E+02  3.80000000E+01  0.00000000E+00
  3.70000000E+02  3.60000000E+01  0.00000000E+00
  3.70000000E+02  3.40000000E+01  0.00000000E+00
  3.70000000E+02  3.20000000E+01  0.00000000E+00
  3.70000000E+02  3.00000000E+01  0.00000000E+00
  3.70000000E+02  2.80000000E+01  0.00000000E+00
  3.70000000E+02  2.60000000E+01  0.00000000E+00
  3.70000000E+02  2.40000000E+01  0.00000000E+00
  3.70000000E+02  2.20000000E+01  0.00000000E+00
  3.70000000E+02  2.00000000E+01  0.00000000E+00
  3.70000000E+02  1.80000000E+01  0.00000000E+00
  3.70000000E+02  1.60000000E+01  0.00000000E+00
  3.70000000E+02  1.40000000E+01  0.00000000E+00
  3.70000000E+02  1.20000000E+01  0.00000000E+00
  3.70000000E+02  1.00000000E+01  0.00000000E+00
  3.70000000E+02  8.00000000E+00  0.00000000E+00
  3.70000000E+02  6.00000000E+00  0.00000000E+00
  3.70000000E+02  4.00000000E+00  0.00000000E+00
  3.70000000E+02  2.00000000E+00  0.00000000E+00
  3.70000000E+02 -3.33066907E-14  0.00000000E+00
  3.80000000E+02  1.00000000E+02  0.00000000E+00
  3.80000000E+02  9.80000000E+01  0.00000000E+00
  3.80000000E+02  9.60000000E+01  0.00000000E+00
  3.80000000E+02  9.40000000E+01  0.00000000E+00
  3.80000000E+02  9.20000000E+01  0.00000000E+00
  3.80000000E+02  9.00000000E+01  0.00000000E+00
  3.80000000E+02  8.80000000E+01  0.00000000E+00
  3.80000000E+02  8.60000000E+01  0.00000000E+00
  3.80000000E+02  8.40000000E+01  0.00000000E+00
  3.80000000E+02  8.20000000E+01  0.00000000E+00
  3.80000000E+02  8.00000000E+01  0.00000000E+00
  3.80000000E+02  7.80000000E+01  0.00000000E+00
  3.80000000E+02  7.60000000E+01  0.00000000E+00
  3.80000000E+02  7.40000000E+01  0.00000000E+00
  3.80000000E+02  7.20000000E+01  0.00000000E+00
  3.80000000E+02  7.00000000E+01  0.00000000E+00
  3.80000000E+02  6.80000000E+01  0.00000000E+00
  3.80000000E+02  6.60000000E+01  0.00000000E+00
  3.80000000E+02  6.40000000E+01  0.00000000E+00
  3.80000000E+02  6.20000000E+01  0.00000000E+00
  3.80000000E+02  6.00000000E+01  0.00000000E+00
  3.80000000E+02  5.80000000E+01  0.00000000E+00
  3.80000000E+02  5.60000000E+01  0.00000000E+00
  3.80000000E+02  5.40000000E+01  0.00000000E+00
  3.80000000E+02  5.20000000E+01  0.00000000E+00
  3.80000000E+02  5.00000000E+01  0.00000000E+00
  3.80000000E+02  4.80000000E+01  0.00000000E+00
  3.80000000E+02  4.60000000E+01  0.00000000E+00
  3.80000000E+02  4.40000000E+01  0.00000000E+00
  3.80000000E+02  4.20000000E+01  0.00000000E+00
  3.80000000E+02  4.00000000E+01  0.00000000E+00
  3.80000000E+02  3.80000000E+01  0.00000000E+00
  3.80000000E+02  3.60000000E+01  0.00000000E+00
  3.80000000E+02  3.40000000E+01  0.00000000E+00
  3.80000000E+02  3.20000000E+01  0.00000000E+00
  3.80000000E+02  3.00000000E+01  0.00000000E+00
  3.80000000E+02  2.80000000E+01  0.00000000E+00
  3.80000000E+02  2.60000000E+01  0.00000000E+00
  3.80000000E+02  2.40000000E+01  0.00000000E+00
  3.80000000E+02  2.20000000E+01  0.00000000E+00
  3.80000000E+02  2.00000000E+01  0.00000000E+00
  3.80000000E+02  1.80000000E+01  0.00000000E+00
  3.80000000E+02  1.60000000E+01  0.00000000E+00
  3.80000000E+02  1.40000000E+01  0.00000000E+00
  3.80000000E+02  1.20000000E+01  0.00000000E+00
  3.80000000E+02  1.00000000E+01  0.00000000E+00
  3.80000000E+02  8.00000000E+00  0.00000000E+00
  3.80000000E+02  6.00000000E+00  0.00000000E+00
  3.80000000E+02  4.00000000E+00  0.00000000E+00
  3.80000000E+02  2.00000000E+00  0.00000000E+00
  3.80000000E+02 -3.33066907E-14  0.00000000E+00
  3.90000000E+02  1.00000000E+02  0.00000000E+00
  3.90000000E+02  9.80000000E+01  0.00000000E+00
  3.90000000E+02  9.60000000E+01  0.00000000E+00
  3.90000000E+02  9.40000000E+01  0.00000000E+00
  3.90000000E+02  9.20000000E+01  0.00000000E+00
  3.90000000E+02  9.00000000E+01  0.00000000E+00
  3.90000000E+02  8.80000000E+01  0.00000000E+00
  3.90000000E+02  8.60000000E+01  0.00000000E+00
  3.90000000E+02  8.40000000E+01  0.00000000E+00
  3.90000000E+02  8.20000000E+01  0.00000000E+00
  3.90000000E+02  8.00000000E+01  0.00000000E+00
  3.90000000E+02  7.80000000E+01  0.00000000E+00
  3.90000000E+02  7.60000000E+01  0.00000000E+00
  3.90000000E+02  7.40000000E+01  0.00000000E+00
  3.90000000E+02  7.20000000E+01  0.00000000E+00
  3.90000000E+02  7.00000000E+01  0.00000000E+00
  3.90000000E+02  6.80000000E+01  0.00000000E+00
  3.90000000E+02  6.60000000E+01  0.00000000E+00
  3.90000000E+02  6.40000000E+01  0.00000000E+00
  3.90000000E+02  6.20000000E+01  0.00000000E+00
  3.90000000E+02  6.00000000E+01  0.00000000E+00
  3.90000000E+02  5.80000000E+01  0.00000000E+00
  3.90000000E+02  5.60000000E+01  0.00000000E+00
  3.90000000E+02  5.40000000E+01  0.00000000E+00
  3.90000000E+02  5.20000000E+01  0.00000000E+00
  3.90000000E+02  5.00000000E+01  0.00000000E+00
  3.90000000E+02  4.80000000E+01  0.00000000E+00
  3.90000000E+02  4.60000000E+01  0.00000000E+00
  3.90000000E+02  4.40000000E+01  0.00000000E+00
  3.90000000E+02  4.20000000E+01  0.00000000E+00
  3.90000000E+02  4.00000000E+01  0.00000000E+00
  3.90000000E+02  3.80000000E+01  0.00000000E+00
  3.90000000E+02  3.60000000E+01  0.00000000E+00
  3.90000000E+02  3.40000000E+01  0.00000000E+00
  3.90000000E+02  3.20000000E+01  0.00000000E+00
  3.90000000E+02  3.00000000E+01  0.00000000E+00
  3.90000000E+02  2.80000000E+01  0.00000000E+00
  3.90000000E+02  2.60000000E+01  0.00000000E+00
  3.90000000E+02  2.40000000E+01  0.00000000E+00
  3.90000000E+02  2.20000000E+01  0.00000000E+00
  3.90000000E+02  2.00000000E+01  0.00000000E+00
  3.90000000E+02  1.80000000E+01  0.00000000E+00
  3.90000000E+02  1.60000000E+01  0.00000000E+00
  3.90000000E+02  1.40000000E+01  0.00000000E+00
  3.90000000E+02  1.20000000E+01  0.00000000E+00
  3.90000000E+02  1.00000000E+01  0.00000000E+00
  3.90000000E+02  8.00000000E+00  0.00000000E+00
  3.90000000E+02  6.00000000E+00  0.00000000E+00
  3.90000000E+02  4.00000000E+00  0.00000000E+00
  3.90000000E+02  2.00000000E+00  0.00000000E+00
  3.90000000E+02 -3.33066907E-14  0.00000000E+00
  4.00000000E+02  1.00000000E+02  0.00000000E+00
  4.00000000E+02  9.80000000E+01  0.00000000E+00
  4.00000000E+02  9.60000000E+01  0.00000000E+00
  4.00000000E+02  9.40000000E+01  0.00000000E+00
  4.00000000E+02  9.20000000E+01  0.00000000E+00
  4.00000000E+02  9.00000000E+01  0.00000000E+00
  4.00000000E+02  8.80000000E+01  0.00000000E+00
  4.00000000E+02  8.60000000E+01  0.00000000E+00
  4.00000000E+02  8.40000000E+01  0.00000000E+00
  4.00000000E+02  8.20000000E+01  0.00000000E+00
  4.00000000E+02  8.00000000E+01  0.00000000E+00
  4.00000000E+02  7.80000000E+01  0.00000000E+00
  4.00000000E+02  7.60000000E+01  0.00000000E+00
  4.00000000E+02  7.40000000E+01  0.00000000E+00
  4.00000000E+02  7.20000000E+01  0.00000000E+00
  4.00000000E+02  7.00000000E+01  0.00000000E+00
  4.00000000E+02  6.80000000E+01  0.00000000E+00
  4.00000000E+02  6.60000000E+01  0.00000000E+00
  4.00000000E+02  6.40000000E+01  0.00000000E+00
  4.00000000E+02  6.20000000E+01  0.00000000E+00
  4.00000000E+02  6.00000000E+01  0.00000000E+00
  4.00000000E+02  5.80000000E+01  0.00000000E+00
  4.00000000E+02  5.60000000E+01  0.00000000E+00
  4.00000000E+02  5.40000000E+01  0.00000000E+00
  4.00000000E+02  5.20000000E+01  0.00000000E+00
  4.00000000E+02  5.00000000E+01  0.00000000E+00
  4.00000000E+02  4.80000000E+01  0.00000000E+00
  4.00000000E+02  4.60000000E+01  0.00000000E+00
  4.00000000E+02  4.40000000E+01  0.00000000E+00
  4.00000000E+02  4.20000000E+01  0.00000000E+00
  4.00000000E+02  4.00000000E+01  0.00000000E+00
  4.00000000E+02  3.80000000E+01  0.00000000E+00
  4.00000000E+02  3.60000000E+01  0.00000000E+00
  4.00000000E+02  3.40000000E+01  0.00000000E+00
  4.00000000E+02  3.20000000E+01  0.00000000E+00
  4.00000000E+02  3.00000000E+01  0.00000000E+00
  4.00000000E+02  2.80000000E+01  0.00000000E+00
  4.00000000E+02  2.60000000E+01  0.00000000E+00
  4.00000000E+02  2.40000000E+01  0.00000000E+00
  4.00000000E+02  2.20000000E+01  0.00000000E+00
  4.00000000E+02  2.00000000E+01  0.00000000E+00
  4.00000000E+02  1.80000000E+01  0.00000000E+00
  4.00000000E+02  1.60000000E+01  0.00000000E+00
  4.00000000E+02  1.40000000E+01  0.00000000E+00
  4.00000000E+02  1.20000000E+01  0.00000000E+00
  4.00000000E+02  1.00000000E+01  0.00000000E+00
  4.00000000E+02  8.00000000E+00  0.00000000E+00
  4.00000000E+02  6.00000000E+00  0.00000000E+00
  4.00000000E+02  4.00000000E+00  0.00000000E+00
  4.00000000E+02  2.00000000E+00  0.00000000E+00
  4.00000000E+02 -3.33066907E-14  0.00000000E+00
  4.10000000E+02  1.00000000E+02  0.00000000E+00
  4.10000000E+02  9.80000000E+01  0.00000000E+00
  4.10000000E+02  9.60000000E+01  0.00000000E+00
  4.10000000E+02  9.40000000E+01  0.00000000E+00
  4.10000000E+02  9.20000000E+01  0.00000000E+00
  4.10000000E+02  9.00000000E+01  0.00000000E+00
  4.10000000E+02  8.80000000E+01  0.00000000E+00
  4.10000000E+02  8.60000000E+01  0.00000000E+00
  4.10000000E+02  8.40000000E+01  0.00000000E+00
  4.10000000E+02  8.20000000E+01  0.00000000E+00
  4.10000000E+02  8.00000000E+01  0.00000000E+00
  4.10000000E+02  7.80000000E+01  0.00000000E+00
  4.10000000E+02  7.60000000E+01  0.00000000E+00
  4.10000000E+02  7.40000000E+01  0.00000000E+00
  4.10000000E+02  7.20000000E+01  0.00000000E+00
  4.10000000E+02  7.00000000E+01  0.00000000E+00
  4.10000000E+02  6.80000000E+01  0.00000000E+00
  4.10000000E+02  6.60000000E+01  0.00000000E+00
  4.10000000E+02  6.40000000E+01  0.00000000E+00
  4.10000000E+02  6.20000000E+01  0.00000000E+00
  4.10000000E+02  6.00000000E+01  0.00000000E+00
  4.10000000E+02  5.80000000E+01  0.00000000E+00
  4.10000000E+02  5.60000000E+01  0.00000000E+00
  4.10000000E+02  5.40000000E+01  0.00000000E+00
  4.10000000E+02  5.20000000E+01  0.00000000E+00
  4.10000000E+02  5.00000000E+01  0.00000000E+00
  4.10000000E+02  4.80000000E+01  0.00000000E+00
  4.10000000E+02  4.60000000E+01  0.00000000E+00
  4.10000000E+02  4.40000000E+01  0.00000000E+00
  4.10000000E+02  4.20000000E+01  0.00000000E+00
  4.10000000E+02  4.00000000E+01  0.00000000E+00
  4.10000000E+02  3.80000000E+01  0.00000000E+00
  4.10000000E+02  3.60000000E+01  0.00000000E+00
  4.10000000E+02  3.40000000E+01  0.00000000E+00
  4.10000000E+02  3.20000000E+01  0.00000000E+00
  4.10000000E+02  3.00000000E+01  0.00000000E+00
  4.10000000E+02  2.80000000E+01  0.00000000E+00
  4.10000000E+02  2.60000000E+01  0.00000000E+00
  4.10000000E+02  2.40000000E+01  0.00000000E+00
  4.10000000E+02  2.20000000E+01  0.00000000E+00
  4.10000000E+02  2.00000000E+01  0.00000000E+00
  4.10000000E+02  1.80000000E+01  0.00000000E+00
  4.10000000E+02  1.60000000E+01  0.00000000E+00
  4.10000000E+02  1.40000000E+01  0.00000000E+00
  4.10000000E+02  1.20000000E+01  0.00000000E+00
  4.10000000E+02  1.00000000E+01  0.00000000E+00
  4.10000000E+02  8.00000000E+00  0.00000000E+00
  4.10000000E+02  6.00000000E+00  0.00000000E+00
  4.10000000E+02  4.00000000E+00  0.00000000E+00
  4.10000000E+02  2.00000000E+00  0.00000000E+00
  4.10000000E+02 -3.33066907E-14  0.00000000E+00
  4.20000000E+02  1.00000000E+02  0.00000000E+00
  4.20000000E+02  9.80000000E+01  0.00000000E+00
  4.20000000E+02  9.60000000E+01  0.00000000E+00
  4.20000000E+02  9.40000000E+01  0.00000000E+00
  4.20000000E+02  9.20000000E+01  0.00000000E+00
  4.20000000E+02  9.00000000E+01  0.00000000E+00
  4.20000000E+02  8.80000000E+01  0.00000000E+00
  4.20000000E+02  8.60000000E+01  0.00000000E+00
  4.20000000E+02  8.40000000E+01  0.00000000E+00
  4.20000000E+02  8.20000000E+01  0.00000000E+00
  4.20000000E+02  8.00000000E+01  0.00000000E+00
  4.20000000E+02  7.80000000E+01  0.00000000E+00
  4.20000000E+02  7.60000000E+01  0.00000000E+00
  4.20000000E+02  7.40000000E+01  0.00000000E+00
  4.20000000E+02  7.20000000E+01  0.00000000E+00
  4.20000000E+02  7.00000000E+01  0.00000000E+00
  4.20000000E+02  6.80000000E+01  0.00000000E+00
  4.20000000E+02  6.60000000E+01  0.00000000E+00
  4.20000000E+02  6.40000000E+01  0.00000000E+00
  4.20000000E+02  6.20000000E+01  0.00000000E+00
  4.20000000E+02  6.00000000E+01  0.00000000E+00
  4.20000000E+02  5.80000000E+01  0.00000000E+00
  4.20000000E+02  5.60000000E+01  0.00000000E+00
  4.20000000E+02  5.40000000E+01  0.00000000E+00
  4.20000000E+02  5.20000000E+01  0.00000000E+00
  4.20000000E+02  5.00000000E+01  0.00000000E+00
  4.20000000E+02  4.80000000E+01  0.00000000E+00
  4.20000000E+02  4.60000000E+01  0.00000000E+00
  4.20000000E+02  4.40000000E+01  0.00000000E+00
  4.20000000E+02  4.20000000E+01  0.00000000E+00
  4.20000000E+02  4.00000000E+01  0.00000000E+00
  4.20000000E+02  3.80000000E+01  0.00000000E+00
  4.20000000E+02  3.60000000E+01  0.00000000E+00
  4.20000000E+02  3.40000000E+01  0.00000000E+00
  4.20000000E+02  3.20000000E+01  0.00000000E+00
  4.20000000E+02  3.00000000E+01  0.00000000E+00
  4.20000000E+02  2.80000000E+01  0.00000000E+00
  4.20000000E+02  2.60000000E+01  0.00000000E+00
  4.20000000E+02  2.40000000E+01  0.00000000E+00
  4.20000000E+02  2.20000000E+01  0.00000000E+00
  4.20000000E+02  2.00000000E+01  0.00000000E+00
  4.20000000E+02  1.80000000E+01  0.00000000E+00
  4.20000000E+02  1.60000000E+01  0.00000000E+00
  4.20000000E+02  1.40000000E+01  0.00000000E+00
  4.20000000E+02  1.20000000E+01  0.00000000E+00
  4.20000000E+02  1.00000000E+01  0.00000000E+00
  4.20000000E+02  8.00000000E+00  0.00000000E+00
  4.20000000E+02  6.00000000E+00  0.00000000E+00
  4.20000000E+02  4.00000000E+00  0.00000000E+00
  4.20000000E+02  2.00000000E+00  0.00000000E+00
  4.20000000E+02 -3.33066907E-14  0.00000000E+00
  4.30000000E+02  1.00000000E+02  0.00000000E+00
  4.30000000E+02  9.80000000E+01  0.00000000E+00
  4.30000000E+02  9.60000000E+01  0.00000000E+00
  4.30000000E+02  9.40000000E+01  0.00000000E+00
  4.30000000E+02  9.20000000E+01  0.00000000E+00
  4.30000000E+02  9.00000000E+01  0.00000000E+00
  4.30000000E+02  8.80000000E+01  0.00000000E+00
  4.30000000E+02  8.60000000E+01  0.00000000E+00
  4.30000000E+02  8.40000000E+01  0.00000000E+00
  4.30000000E+02  8.20000000E+01  0.00000000E+00
  4.30000000E+02  8.00000000E+01  0.00000000E+00
  4.30000000E+02  7.80000000E+01  0.00000000E+00
  4.30000000E+02  7.60000000E+01  0.00000000E+00
  4.30000000E+02  7.40000000E+01  0.00000000E+00
  4.30000000E+02  7.20000000E+01  0.00000000E+00
  4.30000000E+02  7.00000000E+01  0.00000000E+00
  4.30000000E+02  6.80000000E+01  0.00000000E+00
  4.30000000E+02  6.60000000E+01  0.00000000E+00
  4.30000000E+02  6.40000000E+01  0.00000000E+00
  4.30000000E+02  6.20000000E+01  0.00000000E+00
  4.30000000E+02  6.00000000E+01  0.00000000E+00
  4.30000000E+02  5.80000000E+01  0.00000000E+00
  4.30000000E+02  5.60000000E+01  0.00000000E+00
  4.30000000E+02  5.40000000E+01  0.00000000E+00
  4.30000000E+02  5.20000000E+01  0.00000000E+00
  4.30000000E+02  5.00000000E+01  0.00000000E+00
  4.30000000E+02  4.80000000E+01  0.00000000E+00
  4.30000000E+02  4.60000000E+01  0.00000000E+00
  4.30000000E+02  4.40000000E+01  0.00000000E+00
  4.30000000E+02  4.20000000E+01  0.00000000E+00
  4.30000000E+02  4.00000000E+01  0.00000000E+00
  4.30000000E+02  3.80000000E+01  0.00000000E+00
  4.30000000E+02  3.60000000E+01  0.00000000E+00
  4.30000000E+02  3.40000000E+01  0.00000000E+00
  4.30000000E+02  3.20000000E+01  0.00000000E+00
  4.30000000E+02  3.00000000E+01  0.00000000E+00
  4.30000000E+02  2.80000000E+01  0.00000000E+00
  4.30000000E+02  2.60000000E+01  0.00000000E+00
  4.30000000E+02  2.40000000E+01  0.00000000E+00
  4.30000000E+02  2.20000000E+01  0.00000000E+00
  4.30000000E+02  2.00000000E+01  0.00000000E+00
  4.30000000E+02  1.80000000E+01  0.00000000E+00
  4.30000000E+02  1.60000000E+01  0.00000000E+00
  4.30000000E+02  1.40000000E+01  0.00000000E+00
  4.30000000E+02  1.20000000E+01  0.00000000E+00
  4.30000000E+02  1.00000000E+01  0.00000000E+00
  4.30000000E+02  8.00000000E+00  0.00000000E+00
  4.30000000E+02  6.00000000E+00  0.00000000E+00
  4.30000000E+02  4.00000000E+00  0.00000000E+00
  4.30000000E+02  2.00000000E+00  0.00000000E+00
  4.30000000E+02 -3.33066907E-14  0.00000000E+00
  4.40000000E+02  1.00000000E+02  0.00000000E+00
  4.40000000E+02  9.80000000E+01  0.00000000E+00
  4.40000000E+02  9.60000000E+01  0.00000000E+00
  4.40000000E+02  9.40000000E+01  0.00000000E+00
  4.40000000E+02  9.20000000E+01  0.00000000E+00
  4.40000000E+02  9.00000000E+01  0.00000000E+00
  4.40000000E+02  8.80000000E+01  0.00000000E+00
  4.40000000E+02  8.60000000E+01  0.00000000E+00
  4.40000000E+02  8.40000000E+01  0.00000000E+00
  4.40000000E+02  8.20000000E+01  0.00000000E+00
  4.40000000E+02  8.00000000E+01  0.00000000E+00
  4.40000000E+02  7.80000000E+01  0.00000000E+00
  4.40000000E+02  7.60000000E+01  0.00000000E+00
  4.40000000E+02  7.40000000E+01  0.00000000E+00
  4.40000000E+02  7.20000000E+01  0.00000000E+00
  4.40000000E+02  7.00000000E+01  0.00000000E+00
  4.40000000E+02  6.80000000E+01  0.00000000E+00
  4.40000000E+02  6.60000000E+01  0.00000000E+00
  4.40000000E+02  6.40000000E+01  0.00000000E+00
  4.40000000E+02  6.20000000E+01  0.00000000E+00
  4.40000000E+02  6.00000000E+01  0.00000000E+00
  4.40000000E+02  5.80000000E+01  0.00000000E+00
  4.40000000E+02  5.60000000E+01  0.00000000E+00
  4.40000000E+02  5.40000000E+01  0.00000000E+00
  4.40000000E+02  5.20000000E+01  0.00000000E+00
  4.40000000E+02  5.00000000E+01  0.00000000E+00
  4.40000000E+02  4.80000000E+01  0.00000000E+00
  4.40000000E+02  4.60000000E+01  0.00000000E+00
  4.40000000E+02  4.40000000E+01  0.00000000E+00
  4.40000000E+02  4.20000000E+01  0.00000000E+00
  4.40000000E+02  4.00000000E+01  0.00000000E+00
  4.40000000E+02  3.80000000E+01  0.00000000E+00
  4.40000000E+02  3.60000000E+01  0.00000000E+00
  4.40000000E+02  3.40000000E+01  0.00000000E+00
  4.40000000E+02  3.20000000E+01  0.00000000E+00
  4.40000000E+02  3.00000000E+01  0.00000000E+00
  4.40000000E+02  2.80000000E+01  0.00000000E+00
  4.40000000E+02  2.60000000E+01  0.00000000E+00
  4.40000000E+02  2.40000000E+01  0.00000000E+00
  4.40000000E+02  2.20000000E+01  0.00000000E+00
  4.40000000E+02  2.00000000E+01  0.00000000E+00
  4.40000000E+02  1.80000000E+01  0.00000000E+00
  4.40000000E+02  1.60000000E+01  0.00000000E+00
  4.40000000E+02  1.40000000E+01  0.00000000E+00
  4.40000000E+02  1.20000000E+01  0.00000000E+00
  4.40000000E+02  1.00000000E+01  0.00000000E+00
  4.40000000E+02  8.00000000E+00  0.00000000E+00
  4.40000000E+02  6.00000000E+00  0.00000000E+00
  4.40000000E+02  4.00000000E+00  0.00000000E+00
  4.40000000E+02  2.00000000E+00  0.00000000E+00
  4.40000000E+02 -3.33066907E-14  0.00000000E+00
  4.50000000E+02  1.00000000E+02  0.00000000E+00
  4.50000000E+02  9.80000000E+01  0.00000000E+00
  4.50000000E+02  9.60000000E+01  0.00000000E+00
  4.50000000E+02  9.40000000E+01  0.00000000E+00
  4.50000000E+02  9.20000000E+01  0.00000000E+00
  4.50000000E+02  9.00000000E+01  0.00000000E+00
  4.50000000E+02  8.80000000E+01  0.00000000E+00
  4.50000000E+02  8.60000000E+01  0.00000000E+00
  4.50000000E+02  8.40000000E+01  0.00000000E+00
  4.50000000E+02  8.20000000E+01  0.00000000E+00
  4.50000000E+02  8.00000000E+01  0.00000000E+00
  4.50000000E+02  7.80000000E+01  0.00000000E+00
  4.50000000E+02  7.60000000E+01  0.00000000E+00
  4.50000000E+02  7.40000000E+01  0.00000000E+00
  4.50000000E+02  7.20000000E+01  0.00000000E+00
  4.50000000E+02  7.00000000E+01  0.00000000E+00
  4.50000000E+02  6.80000000E+01  0.00000000E+00
  4.50000000E+02  6.60000000E+01  0.00000000E+00
  4.50000000E+02  6.40000000E+01  0.00000000E+00
  4.50000000E+02  6.20000000E+01  0.00000000E+00
  4.50000000E+02  6.00000000E+01  0.00000000E+00
  4.50000000E+02  5.80000000E+01  0.00000000E+00
  4.50000000E+02  5.60000000E+01  0.00000000E+00
  4.50000000E+02  5.40000000E+01  0.00000000E+00
  4.50000000E+02  5.20000000E+01  0.00000000E+00
  4.50000000E+02  5.00000000E+01  0.00000000E+00
  4.50000000E+02  4.80000000E+01  0.00000000E+00
  4.50000000E+02  4.60000000E+01  0.00000000E+00
  4.50000000E+02  4.40000000E+01  0.00000000E+00
  4.50000000E+02  4.20000000E+01  0.00000000E+00
  4.50000000E+02  4.00000000E+01  0.00000000E+00
  4.50000000E+02  3.80000000E+01  0.00000000E+00
  4.50000000E+02  3.60000000E+01  0.00000000E+00
  4.50000000E+02  3.40000000E+01  0.00000000E+00
  4.50000000E+02  3.20000000E+01  0.00000000E+00
  4.50000000E+02  3.00000000E+01  0.00000000E+00
  4.50000000E+02  2.80000000E+01  0.00000000E+00
  4.50000000E+02  2.60000000E+01  0.00000000E+00
  4.50000000E+02  2.40000000E+01  0.00000000E+00
  4.50000000E+02  2.20000000E+01  0.00000000E+00
  4.50000000E+02  2.00000000E+01  0.00000000E+00
  4.50000000E+02  1.80000000E+01  0.00000000E+00
  4.50000000E+02  1.60000000E+01  0.00000000E+00
  4.50000000E+02  1.40000000E+01  0.00000000E+00
  4.50000000E+02  1.20000000E+01  0.00000000E+00
  4.50000000E+02  1.00000000E+01  0.00000000E+00
  4.50000000E+02  8.00000000E+00  0.00000000E+00
  4.50000000E+02  6.00000000E+00  0.00000000E+00
  4.50000000E+02  4.00000000E+00  0.00000000E+00
  4.50000000E+02  2.00000000E+00  0.00000000E+00
  4.50000000E+02 -3.33066907E-14  0.00000000E+00
  4.60000000E+02  1.00000000E+02  0.00000000E+00
  4.60000000E+02  9.80000000E+01  0.00000000E+00
  4.60000000E+02  9.60000000E+01  0.00000000E+00
  4.60000000E+02  9.40000000E+01  0.00000000E+00
  4.60000000E+02  9.20000000E+01  0.00000000E+00
  4.60000000E+02  9.00000000E+01  0.00000000E+00
  4.60000000E+02  8.80000000E+01  0.00000000E+00
  4.60000000E+02  8.60000000E+01  0.00000000E+00
  4.60000000E+02  8.40000000E+01  0.00000000E+00
  4.60000000E+02  8.20000000E+01  0.00000000E+00
  4.60000000E+02  8.00000000E+01  0.00000000E+00
  4.60000000E+02  7.80000000E+01  0.00000000E+00
  4.60000000E+02  7.60000000E+01  0.00000000E+00
  4.60000000E+02  7.40000000E+01  0.00000000E+00
  4.60000000E+02  7.20000000E+01  0.00000000E+00
  4.60000000E+02  7.00000000E+01  0.00000000E+00
  4.60000000E+02  6.80000000E+01  0.00000000E+00
  4.60000000E+02  6.60000000E+01  0.00000000E+00
  4.60000000E+02  6.40000000E+01  0.00000000E+00
  4.60000000E+02  6.20000000E+01  0.00000000E+00
  4.60000000E+02  6.00000000E+01  0.00000000E+00
  4.60000000E+02  5.80000000E+01  0.00000000E+00
  4.60000000E+02  5.60000000E+01  0.00000000E+00
  4.60000000E+02  5.40000000E+01  0.00000000E+00
  4.60000000E+02  5.20000000E+01  0.00000000E+00
  4.60000000E+02  5.00000000E+01  0.00000000E+00
  4.60000000E+02  4.80000000E+01  0.00000000E+00
  4.60000000E+02  4.60000000E+01  0.00000000E+00
  4.60000000E+02  4.40000000E+01  0.00000000E+00
  4.60000000E+02  4.20000000E+01  0.00000000E+00
  4.60000000E+02  4.00000000E+01  0.00000000E+00
  4.60000000E+02  3.80000000E+01  0.00000000E+00
  4.60000000E+02  3.60000000E+01  0.00000000E+00
  4.60000000E+02  3.40000000E+01  0.00000000E+00
  4.60000000E+02  3.20000000E+01  0.00000000E+00
  4.60000000E+02  3.00000000E+01  0.00000000E+00
  4.60000000E+02  2.80000000E+01  0.00000000E+00
  4.60000000E+02  2.60000000E+01  0.00000000E+00
  4.60000000E+02  2.40000000E+01  0.00000000E+00
  4.60000000E+02  2.20000000E+01  0.00000000E+00
  4.60000000E+02  2.00000000E+01  0.00000000E+00
  4.60000000E+02  1.80000000E+01  0.00000000E+00
  4.60000000E+02  1.60000000E+01  0.00000000E+00
  4.60000000E+02  1.40000000E+01  0.00000000E+00
  4.60000000E+02  1.20000000E+01  0.00000000E+00
  4.60000000E+02  1.00000000E+01  0.00000000E+00
  4.60000000E+02  8.00000000E+00  0.00000000E+00
  4.60000000E+02  6.00000000E+00  0.00000000E+00
  4.60000000E+02  4.00000000E+00  0.00000000E+00
  4.60000000E+02  2.00000000E+00  0.00000000E+00
  4.60000000E+02 -3.33066907E-14  0.00000000E+00
  4.70000000E+02  1.00000000E+02  0.00000000E+00
  4.70000000E+02  9.80000000E+01  0.00000000E+00
  4.70000000E+02  9.60000000E+01  0.00000000E+00
  4.70000000E+02  9.40000000E+01  0.00000000E+00
  4.70000000E+02  9.20000000E+01  0.00000000E+00
  4.70000000E+02  9.00000000E+01  0.00000000E+00
  4.70000000E+02  8.80000000E+01  0.00000000E+00
  4.70000000E+02  8.60000000E+01  0.00000000E+00
  4.70000000E+02  8.40000000E+01  0.00000000E+00
  4.70000000E+02  8.20000000E+01  0.00000000E+00
  4.70000000E+02  8.00000000E+01  0.00000000E+00
  4.70000000E+02  7.80000000E+01  0.00000000E+00
  4.70000000E+02  7.60000000E+01  0.00000000E+00
  4.70000000E+02  7.40000000E+01  0.00000000E+00
  4.70000000E+02  7.20000000E+01  0.00000000E+00
  4.70000000E+02  7.00000000E+01  0.00000000E+00
  4.70000000E+02  6.80000000E+01  0.00000000E+00
  4.70000000E+02  6.60000000E+01  0.00000000E+00
  4.70000000E+02  6.40000000E+01  0.00000000E+00
  4.70000000E+02  6.20000000E+01  0.00000000E+00
  4.70000000E+02  6.00000000E+01  0.00000000E+00
  4.70000000E+02  5.80000000E+01  0.00000000E+00
  4.70000000E+02  5.60000000E+01  0.00000000E+00
  4.70000000E+02  5.40000000E+01  0.00000000E+00
  4.70000000E+02  5.20000000E+01  0.00000000E+00
  4.70000000E+02  5.00000000E+01  0.00000000E+00
  4.70000000E+02  4.80000000E+01  0.00000000E+00
  4.70000000E+02  4.60000000E+01  0.00000000E+00
  4.70000000E+02  4.40000000E+01  0.00000000E+00
  4.70000000E+02  4.20000000E+01  0.00000000E+00
  4.70000000E+02  4.00000000E+01  0.00000000E+00
  4.70000000E+02  3.80000000E+01  0.00000000E+00
  4.70000000E+02  3.60000000E+01  0.00000000E+00
  4.70000000E+02  3.40000000E+01  0.00000000E+00
  4.70000000E+02  3.20000000E+01  0.00000000E+00
  4.70000000E+02  3.00000000E+01  0.00000000E+00
  4.70000000E+02  2.80000000E+01  0.00000000E+00
  4.70000000E+02  2.60000000E+01  0.00000000E+00
  4.70000000E+02  2.40000000E+01  0.00000000E+00
  4.70000000E+02  2.20000000E+01  0.00000000E+00
  4.70000000E+02  2.00000000E+01  0.00000000E+00
  4.70000000E+02  1.80000000E+01  0.00000000E+00
  4.70000000E+02  1.60000000E+01  0.00000000E+00
  4.70000000E+02  1.40000000E+01  0.00000000E+00
  4.70000000E+02  1.20000000E+01  0.00000000E+00
  4.70000000E+02  1.00000000E+01  0.00000000E+00
  4.70000000E+02  8.00000000E+00  0.00000000E+00
  4.70000000E+02  6.00000000E+00  0.00000000E+00
  4.70000000E+02  4.00000000E+00  0.00000000E+00
  4.70000000E+02  2.00000000E+00  0.00000000E+00
  4.70000000E+02 -3.33066907E-14  0.00000000E+00
  4.80000000E+02  1.00000000E+02  0.00000000E+00
  4.80000000E+02  9.80000000E+01  0.00000000E+00
  4.80000000E+02  9.60000000E+01  0.00000000E+00
  4.80000000E+02  9.40000000E+01  0.00000000E+00
  4.80000000E+02  9.20000000E+01  0.00000000E+00
  4.80000000E+02  9.00000000E+01  0.00000000E+00
  4.80000000E+02  8.80000000E+01  0.00000000E+00
  4.80000000E+02  8.60000000E+01  0.00000000E+00
  4.80000000E+02  8.40000000E+01  0.00000000E+00
  4.80000000E+02  8.20000000E+01  0.00000000E+00
  4.80000000E+02  8.00000000E+01  0.00000000E+00
  4.80000000E+02  7.80000000E+01  0.00000000E+00
  4.80000000E+02  7.60000000E+01  0.00000000E+00
  4.80000000E+02  7.40000000E+01  0.00000000E+00
  4.80000000E+02  7.20000000E+01  0.00000000E+00
  4.80000000E+02  7.00000000E+01  0.00000000E+00
  4.80000000E+02  6.80000000E+01  0.00000000E+00
  4.80000000E+02  6.60000000E+01  0.00000000E+00
  4.80000000E+02  6.40000000E+01  0.00000000E+00
  4.80000000E+02  6.20000000E+01  0.00000000E+00
  4.80000000E+02  6.00000000E+01  0.00000000E+00
  4.80000000E+02  5.80000000E+01  0.00000000E+00
  4.80000000E+02  5.60000000E+01  0.00000000E+00
  4.80000000E+02  5.40000000E+01  0.00000000E+00
  4.80000000E+02  5.20000000E+01  0.00000000E+00
  4.80000000E+02  5.00000000E+01  0.00000000E+00
  4.80000000E+02  4.80000000E+01  0.00000000E+00
  4.80000000E+02  4.60000000E+01  0.00000000E+00
  4.80000000E+02  4.40000000E+01  0.00000000E+00
  4.80000000E+02  4.20000000E+01  0.00000000E+00
  4.80000000E+02  4.00000000E+01  0.00000000E+00
  4.80000000E+02  3.80000000E+01  0.00000000E+00
  4.80000000E+02  3.60000000E+01  0.00000000E+00
  4.80000000E+02  3.40000000E+01  0.00000000E+00
  4.80000000E+02  3.20000000E+01  0.00000000E+00
  4.80000000E+02  3.00000000E+01  0.00000000E+00
  4.80000000E+02  2.80000000E+01  0.00000000E+00
  4.80000000E+02  2.60000000E+01  0.00000000E+00
  4.80000000E+02  2.40000000E+01  0.00000000E+00
  4.80000000E+02  2.20000000E+01  0.00000000E+00
  4.80000000E+02  2.00000000E+01  0.00000000E+00
  4.80000000E+02  1.80000000E+01  0.00000000E+00
  4.80000000E+02  1.60000000E+01  0.00000000E+00
  4.80000000E+02  1.40000000E+01  0.00000000E+00
  4.80000000E+02  1.20000000E+01  0.00000000E+00
  4.80000000E+02  1.00000000E+01  0.00000000E+00
  4.80000000E+02  8.00000000E+00  0.00000000E+00
  4.80000000E+02  6.00000000E+00  0.00000000E+00
  4.80000000E+02  4.00000000E+00  0.00000000E+00
  4.80000000E+02  2.00000000E+00  0.00000000E+00
  4.80000000E+02 -3.33066907E-14  0.00000000E+00
  4.90000000E+02  1.00000000E+02  0.00000000E+00
  4.90000000E+02  9.80000000E+01  0.00000000E+00
  4.90000000E+02  9.60000000E+01  0.00000000E+00
  4.90000000E+02  9.40000000E+01  0.00000000E+00
  4.90000000E+02  9.20000000E+01  0.00000000E+00
  4.90000000E+02  9.00000000E+01  0.00000000E+00
  4.90000000E+02  8.80000000E+01  0.00000000E+00
  4.90000000E+02  8.60000000E+01  0.00000000E+00
  4.90000000E+02  8.40000000E+01  0.00000000E+00
  4.90000000E+02  8.20000000E+01  0.00000000E+00
  4.90000000E+02  8.00000000E+01  0.00000000E+00
  4.90000000E+02  7.80000000E+01  0.00000000E+00
  4.90000000E+02  7.60000000E+01  0.00000000E+00
  4.90000000E+02  7.40000000E+01  0.00000000E+00
  4.90000000E+02  7.20000000E+01  0.00000000E+00
  4.90000000E+02  7.00000000E+01  0.00000000E+00
  4.90000000E+02  6.80000000E+01  0.00000000E+00
  4.90000000E+02  6.60000000E+01  0.00000000E+00
  4.90000000E+02  6.40000000E+01  0.00000000E+00
  4.90000000E+02  6.20000000E+01  0.00000000E+00
  4.90000000E+02  6.00000000E+01  0.00000000E+00
  4.90000000E+02  5.80000000E+01  0.00000000E+00
  4.90000000E+02  5.60000000E+01  0.00000000E+00
  4.90000000E+02  5.40000000E+01  0.00000000E+00
  4.90000000E+02  5.20000000E+01  0.00000000E+00
  4.90000000E+02  5.00000000E+01  0.00000000E+00
  4.90000000E+02  4.80000000E+01  0.00000000E+00
  4.90000000E+02  4.60000000E+01  0.00000000E+00
  4.90000000E+02  4.40000000E+01  0.00000000E+00
  4.90000000E+02  4.20000000E+01  0.00000000E+00
  4.90000000E+02  4.00000000E+01  0.00000000E+00
  4.90000000E+02  3.80000000E+01  0.00000000E+00
  4.90000000E+02  3.60000000E+01  0.00000000E+00
  4.90000000E+02  3.40000000E+01  0.00000000E+00
  4.90000000E+02  3.20000000E+01  0.00000000E+00
  4.90000000E+02  3.00000000E+01  0.00000000E+00
  4.90000000E+02  2.80000000E+01  0.00000000E+00
  4.90000000E+02  2.60000000E+01  0.00000000E+00
  4.90000000E+02  2.40000000E+01  0.00000000E+00
  4.90000000E+02  2.20000000E+01  0.00000000E+00
  4.90000000E+02  2.00000000E+01  0.00000000E+00
  4.90000000E+02  1.80000000E+01  0.00000000E+00
  4.90000000E+02  1.60000000E+01  0.00000000E+00
  4.90000000E+02  1.40000000E+01  0.00000000E+00
  4.90000000E+02  1.20000000E+01  0.00000000E+00
  4.90000000E+02  1.00000000E+01  0.00000000E+00
  4.90000000E+02  8.00000000E+00  0.00000000E+00
  4.90000000E+02  6.00000000E+00  0.00000000E+00
  4.90000000E+02  4.00000000E+00  0.00000000E+00
  4.90000000E+02  2.00000000E+00  0.00000000E+00
  4.90000000E+02 -3.33066907E-14  0.00000000E+00
  5.00000000E+02  1.00000000E+02  0.00000000E+00
  5.00000000E+02  9.80000000E+01  0.00000000E+00
  5.00000000E+02  9.60000000E+01  0.00000000E+00
  5.00000000E+02  9.40000000E+01  0.00000000E+00
  5.00000000E+02  9.20000000E+01  0.00000000E+00
  5.00000000E+02  9.00000000E+01  0.00000000E+00
  5.00000000E+02  8.80000000E+01  0.00000000E+00
  5.00000000E+02  8.60000000E+01  0.00000000E+00
  5.00000000E+02  8.40000000E+01  0.00000000E+00
  5.00000000E+02  8.20000000E+01  0.00000000E+00
  5.00000000E+02  8.00000000E+01  0.00000000E+00
  5.00000000E+02  7.80000000E+01  0.00000000E+00
  5.00000000E+02  7.60000000E+01  0.00000000E+00
  5.00000000E+02  7.40000000E+01  0.00000000E+00
  5.00000000E+02  7.20000000E+01  0.00000000E+00
  5.00000000E+02  7.00000000E+01  0.00000000E+00
  5.00000000E+02  6.80000000E+01  0.00000000E+00
  5.00000000E+02  6.60000000E+01  0.00000000E+00
  5.00000000E+02  6.40000000E+01  0.00000000E+00
  5.00000000E+02  6.20000000E+01  0.00000000E+00
  5.00000000E+02  6.00000000E+01  0.00000000E+00
  5.00000000E+02  5.80000000E+01  0.00000000E+00
  5.00000000E+02  5.60000000E+01  0.00000000E+00
  5.00000000E+02  5.40000000E+01  0.00000000E+00
  5.00000000E+02  5.20000000E+01  0.00000000E+00
  5.00000000E+02  5.00000000E+01  0.00000000E+00
  5.00000000E+02  4.80000000E+01  0.00000000E+00
  5.00000000E+02  4.60000000E+01  0.00000000E+00
  5.00000000E+02  4.40000000E+01  0.00000000E+00
  5.00000000E+02  4.20000000E+01  0.00000000E+00
  5.00000000E+02  4.00000000E+01  0.00000000E+00
  5.00000000E+02  3.80000000E+01  0.00000000E+00
  5.00000000E+02  3.60000000E+01  0.00000000E+00
  5.00000000E+02  3.40000000E+01  0.00000000E+00
  5.00000000E+02  3.20000000E+01  0.00000000E+00
  5.00000000E+02  3.00000000E+01  0.00000000E+00
  5.00000000E+02  2.80000000E+01  0.00000000E+00
  5.00000000E+02  2.60000000E+01  0.00000000E+00
  5.00000000E+02  2.40000000E+01  0.00000000E+00
  5.00000000E+02  2.20000000E+01  0.00000000E+00
  5.00000000E+02  2.00000000E+01  0.00000000E+00
  5.00000000E+02  1.80000000E+01  0.00000000E+00
  5.00000000E+02  1.60000000E+01  0.00000000E+00
  5.00000000E+02  1.40000000E+01  0.00000000E+00
  5.00000000E+02  1.20000000E+01  0.00000000E+00
  5.00000000E+02  1.00000000E+01  0.00000000E+00
  5.00000000E+02  8.00000000E+00  0.00000000E+00
  5.00000000E+02  6.00000000E+00  0.00000000E+00
  5.00000000E+02  4.00000000E+00  0.00000000E+00
  5.00000000E+02  2.00000000E+00  0.00000000E+00
  5.00000000E+02 -3.33066907E-14  0.00000000E+00
  5.10000000E+02  1.00000000E+02  0.00000000E+00
  5.10000000E+02  9.80000000E+01  0.00000000E+00
  5.10000000E+02  9.60000000E+01  0.00000000E+00
  5.10000000E+02  9.40000000E+01  0.00000000E+00
  5.10000000E+02  9.20000000E+01  0.00000000E+00
  5.10000000E+02  9.00000000E+01  0.00000000E+00
  5.10000000E+02  8.80000000E+01  0.00000000E+00
  5.10000000E+02  8.60000000E+01  0.00000000E+00
  5.10000000E+02  8.40000000E+01  0.00000000E+00
  5.10000000E+02  8.20000000E+01  0.00000000E+00
  5.10000000E+02  8.00000000E+01  0.00000000E+00
  5.10000000E+02  7.80000000E+01  0.00000000E+00
  5.10000000E+02  7.60000000E+01  0.00000000E+00
  5.10000000E+02  7.40000000E+01  0.00000000E+00
  5.10000000E+02  7.20000000E+01  0.00000000E+00
  5.10000000E+02  7.00000000E+01  0.00000000E+00
  5.10000000E+02  6.80000000E+01  0.00000000E+00
  5.10000000E+02  6.60000000E+01  0.00000000E+00
  5.10000000E+02  6.40000000E+01  0.00000000E+00
  5.10000000E+02  6.20000000E+01  0.00000000E+00
  5.10000000E+02  6.00000000E+01  0.00000000E+00
  5.10000000E+02  5.80000000E+01  0.00000000E+00
  5.10000000E+02  5.60000000E+01  0.00000000E+00
  5.10000000E+02  5.40000000E+01  0.00000000E+00
  5.10000000E+02  5.20000000E+01  0.00000000E+00
  5.10000000E+02  5.00000000E+01  0.00000000E+00
  5.10000000E+02  4.80000000E+01  0.00000000E+00
  5.10000000E+02  4.60000000E+01  0.00000000E+00
  5.10000000E+02  4.40000000E+01  0.00000000E+00
  5.10000000E+02  4.20000000E+01  0.00000000E+00
  5.10000000E+02  4.00000000E+01  0.00000000E+00
  5.10000000E+02  3.80000000E+01  0.00000000E+00
  5.10000000E+02  3.60000000E+01  0.00000000E+00
  5.10000000E+02  3.40000000E+01  0.00000000E+00
  5.10000000E+02  3.20000000E+01  0.00000000E+00
  5.10000000E+02  3.00000000E+01  0.00000000E+00
  5.10000000E+02  2.80000000E+01  0.00000000E+00
  5.10000000E+02  2.60000000E+01  0.00000000E+00
  5.10000000E+02  2.40000000E+01  0.00000000E+00
  5.10000000E+02  2.20000000E+01  0.00000000E+00
  5.10000000E+02  2.00000000E+01  0.00000000E+00
  5.10000000E+02  1.80000000E+01  0.00000000E+00
  5.10000000E+02  1.60000000E+01  0.00000000E+00
  5.10000000E+02  1.40000000E+01  0.00000000E+00
  5.10000000E+02  1.20000000E+01  0.00000000E+00
  5.10000000E+02  1.00000000E+01  0.00000000E+00
  5.10000000E+02  8.00000000E+00  0.00000000E+00
  5.10000000E+02  6.00000000E+00  0.00000000E+00
  5.10000000E+02  4.00000000E+00  0.00000000E+00
  5.10000000E+02  2.00000000E+00  0.00000000E+00
  5.10000000E+02 -3.33066907E-14  0.00000000E+00
  5.20000000E+02  1.00000000E+02  0.00000000E+00
  5.20000000E+02  9.80000000E+01  0.00000000E+00
  5.20000000E+02  9.60000000E+01  0.00000000E+00
  5.20000000E+02  9.40000000E+01  0.00000000E+00
  5.20000000E+02  9.20000000E+01  0.00000000E+00
  5.20000000E+02  9.00000000E+01  0.00000000E+00
  5.20000000E+02  8.80000000E+01  0.00000000E+00
  5.20000000E+02  8.60000000E+01  0.00000000E+00
  5.20000000E+02  8.40000000E+01  0.00000000E+00
  5.20000000E+02  8.20000000E+01  0.00000000E+00
  5.20000000E+02  8.00000000E+01  0.00000000E+00
  5.20000000E+02  7.80000000E+01  0.00000000E+00
  5.20000000E+02  7.60000000E+01  0.00000000E+00
  5.20000000E+02  7.40000000E+01  0.00000000E+00
  5.20000000E+02  7.20000000E+01  0.00000000E+00
  5.20000000E+02  7.00000000E+01  0.00000000E+00
  5.20000000E+02  6.80000000E+01  0.00000000E+00
  5.20000000E+02  6.60000000E+01  0.00000000E+00
  5.20000000E+02  6.40000000E+01  0.00000000E+00
  5.20000000E+02  6.20000000E+01  0.00000000E+00
  5.20000000E+02  6.00000000E+01  0.00000000E+00
  5.20000000E+02  5.80000000E+01  0.00000000E+00
  5.20000000E+02  5.60000000E+01  0.00000000E+00
  5.20000000E+02  5.40000000E+01  0.00000000E+00
  5.20000000E+02  5.20000000E+01  0.00000000E+00
  5.20000000E+02  5.00000000E+01  0.00000000E+00
  5.20000000E+02  4.80000000E+01  0.00000000E+00
  5.20000000E+02  4.60000000E+01  0.00000000E+00
  5.20000000E+02  4.40000000E+01  0.00000000E+00
  5.20000000E+02  4.20000000E+01  0.00000000E+00
  5.20000000E+02  4.00000000E+01  0.00000000E+00
  5.20000000E+02  3.80000000E+01  0.00000000E+00
  5.20000000E+02  3.60000000E+01  0.00000000E+00
  5.20000000E+02  3.40000000E+01  0.00000000E+00
  5.20000000E+02  3.20000000E+01  0.00000000E+00
  5.20000000E+02  3.00000000E+01  0.00000000E+00
  5.20000000E+02  2.80000000E+01  0.00000000E+00
  5.20000000E+02  2.60000000E+01  0.00000000E+00
  5.20000000E+02  2.40000000E+01  0.00000000E+00
  5.20000000E+02  2.20000000E+01  0.00000000E+00
  5.20000000E+02  2.00000000E+01  0.00000000E+00
  5.20000000E+02  1.80000000E+01  0.00000000E+00
  5.20000000E+02  1.60000000E+01  0.00000000E+00
  5.20000000E+02  1.40000000E+01  0.00000000E+00
  5.20000000E+02  1.20000000E+01  0.00000000E+00
  5.20000000E+02  1.00000000E+01  0.00000000E+00
  5.20000000E+02  8.00000000E+00  0.00000000E+00
  5.20000000E+02  6.00000000E+00  0.00000000E+00
  5.20000000E+02  4.00000000E+00  0.00000000E+00
  5.20000000E+02  2.00000000E+00  0.00000000E+00
  5.20000000E+02 -3.33066907E-14  0.00000000E+00
  5.30000000E+02  1.00000000E+02  0.00000000E+00
  5.30000000E+02  9.80000000E+01  0.00000000E+00
  5.30000000E+02  9.60000000E+01  0.00000000E+00
  5.30000000E+02  9.40000000E+01  0.00000000E+00
  5.30000000E+02  9.20000000E+01  0.00000000E+00
  5.30000000E+02  9.00000000E+01  0.00000000E+00
  5.30000000E+02  8.80000000E+01  0.00000000E+00
  5.30000000E+02  8.60000000E+01  0.00000000E+00
  5.30000000E+02  8.40000000E+01  0.00000000E+00
  5.30000000E+02  8.20000000E+01  0.00000000E+00
  5.30000000E+02  8.00000000E+01  0.00000000E+00
  5.30000000E+02  7.80000000E+01  0.00000000E+00
  5.30000000E+02  7.60000000E+01  0.00000000E+00
  5.30000000E+02  7.40000000E+01  0.00000000E+00
  5.30000000E+02  7.20000000E+01  0.00000000E+00
  5.30000000E+02  7.00000000E+01  0.00000000E+00
  5.30000000E+02  6.80000000E+01  0.00000000E+00
  5.30000000E+02  6.60000000E+01  0.00000000E+00
  5.30000000E+02  6.40000000E+01  0.00000000E+00
  5.30000000E+02  6.20000000E+01  0.00000000E+00
  5.30000000E+02  6.00000000E+01  0.00000000E+00
  5.30000000E+02  5.80000000E+01  0.00000000E+00
  5.30000000E+02  5.60000000E+01  0.00000000E+00
  5.30000000E+02  5.40000000E+01  0.00000000E+00
  5.30000000E+02  5.20000000E+01  0.00000000E+00
  5.30000000E+02  5.00000000E+01  0.00000000E+00
  5.30000000E+02  4.80000000E+01  0.00000000E+00
  5.30000000E+02  4.60000000E+01  0.00000000E+00
  5.30000000E+02  4.40000000E+01  0.00000000E+00
  5.30000000E+02  4.20000000E+01  0.00000000E+00
  5.30000000E+02  4.00000000E+01  0.00000000E+00
  5.30000000E+02  3.80000000E+01  0.00000000E+00
  5.30000000E+02  3.60000000E+01  0.00000000E+00
  5.30000000E+02  3.40000000E+01  0.00000000E+00
  5.30000000E+02  3.20000000E+01  0.00000000E+00
  5.30000000E+02  3.00000000E+01  0.00000000E+00
  5.30000000E+02  2.80000000E+01  0.00000000E+00
  5.30000000E+02  2.60000000E+01  0.00000000E+00
  5.30000000E+02  2.40000000E+01  0.00000000E+00
  5.30000000E+02  2.20000000E+01  0.00000000E+00
  5.30000000E+02  2.00000000E+01  0.00000000E+00
  5.30000000E+02  1.80000000E+01  0.00000000E+00
  5.30000000E+02  1.60000000E+01  0.00000000E+00
  5.30000000E+02  1.40000000E+01  0.00000000E+00
  5.30000000E+02  1.20000000E+01  0.00000000E+00
  5.30000000E+02  1.00000000E+01  0.00000000E+00
  5.30000000E+02  8.00000000E+00  0.00000000E+00
  5.30000000E+02  6.00000000E+00  0.00000000E+00
  5.30000000E+02  4.00000000E+00  0.00000000E+00
  5.30000000E+02  2.00000000E+00  0.00000000E+00
  5.30000000E+02 -3.33066907E-14  0.00000000E+00
  5.40000000E+02  1.00000000E+02  0.00000000E+00
  5.40000000E+02  9.80000000E+01  0.00000000E+00
  5.40000000E+02  9.60000000E+01  0.00000000E+00
  5.40000000E+02  9.40000000E+01  0.00000000E+00
  5.40000000E+02  9.20000000E+01  0.00000000E+00
  5.40000000E+02  9.00000000E+01  0.00000000E+00
  5.40000000E+02  8.80000000E+01  0.00000000E+00
  5.40000000E+02  8.60000000E+01  0.00000000E+00
  5.40000000E+02  8.40000000E+01  0.00000000E+00
  5.40000000E+02  8.20000000E+01  0.00000000E+00
  5.40000000E+02  8.00000000E+01  0.00000000E+00
  5.40000000E+02  7.80000000E+01  0.00000000E+00
  5.40000000E+02  7.60000000E+01  0.00000000E+00
  5.40000000E+02  7.40000000E+01  0.00000000E+00
  5.40000000E+02  7.20000000E+01  0.00000000E+00
  5.40000000E+02  7.00000000E+01  0.00000000E+00
  5.40000000E+02  6.80000000E+01  0.00000000E+00
  5.40000000E+02  6.60000000E+01  0.00000000E+00
  5.40000000E+02  6.40000000E+01  0.00000000E+00
  5.40000000E+02  6.20000000E+01  0.00000000E+00
  5.40000000E+02  6.00000000E+01  0.00000000E+00
  5.40000000E+02  5.80000000E+01  0.00000000E+00
  5.40000000E+02  5.60000000E+01  0.00000000E+00
  5.40000000E+02  5.40000000E+01  0.00000000E+00
  5.40000000E+02  5.20000000E+01  0.00000000E+00
  5.40000000E+02  5.00000000E+01  0.00000000E+00
  5.40000000E+02  4.80000000E+01  0.00000000E+00
  5.40000000E+02  4.60000000E+01  0.00000000E+00
  5.40000000E+02  4.40000000E+01  0.00000000E+00
  5.40000000E+02  4.20000000E+01  0.00000000E+00
  5.40000000E+02  4.00000000E+01  0.00000000E+00
  5.40000000E+02  3.80000000E+01  0.00000000E+00
  5.40000000E+02  3.60000000E+01  0.00000000E+00
  5.40000000E+02  3.40000000E+01  0.00000000E+00
  5.40000000E+02  3.20000000E+01  0.00000000E+00
  5.40000000E+02  3.00000000E+01  0.00000000E+00
  5.40000000E+02  2.80000000E+01  0.00000000E+00
  5.40000000E+02  2.60000000E+01  0.00000000E+00
  5.40000000E+02  2.40000000E+01  0.00000000E+00
  5.40000000E+02  2.20000000E+01  0.00000000E+00
  5.40000000E+02  2.00000000E+01  0.00000000E+00
  5.40000000E+02  1.80000000E+01  0.00000000E+00
  5.40000000E+02  1.60000000E+01  0.00000000E+00
  5.40000000E+02  1.40000000E+01  0.00000000E+00
  5.40000000E+02  1.20000000E+01  0.00000000E+00
  5.40000000E+02  1.00000000E+01  0.00000000E+00
  5.40000000E+02  8.00000000E+00  0.00000000E+00
  5.40000000E+02  6.00000000E+00  0.00000000E+00
  5.40000000E+02  4.00000000E+00  0.00000000E+00
  5.40000000E+02  2.00000000E+00  0.00000000E+00
  5.40000000E+02 -3.33066907E-14  0.00000000E+00
  5.50000000E+02  1.00000000E+02  0.00000000E+00
  5.50000000E+02  9.80000000E+01  0.00000000E+00
  5.50000000E+02  9.60000000E+01  0.00000000E+00
  5.50000000E+02  9.40000000E+01  0.00000000E+00
  5.50000000E+02  9.20000000E+01  0.00000000E+00
  5.50000000E+02  9.00000000E+01  0.00000000E+00
  5.50000000E+02  8.80000000E+01  0.00000000E+00
  5.50000000E+02  8.60000000E+01  0.00000000E+00
  5.50000000E+02  8.40000000E+01  0.00000000E+00
  5.50000000E+02  8.20000000E+01  0.00000000E+00
  5.50000000E+02  8.00000000E+01  0.00000000E+00
  5.50000000E+02  7.80000000E+01  0.00000000E+00
  5.50000000E+02  7.60000000E+01  0.00000000E+00
  5.50000000E+02  7.40000000E+01  0.00000000E+00
  5.50000000E+02  7.20000000E+01  0.00000000E+00
  5.50000000E+02  7.00000000E+01  0.00000000E+00
  5.50000000E+02  6.80000000E+01  0.00000000E+00
  5.50000000E+02  6.60000000E+01  0.00000000E+00
  5.50000000E+02  6.40000000E+01  0.00000000E+00
  5.50000000E+02  6.20000000E+01  0.00000000E+00
  5.50000000E+02  6.00000000E+01  0.00000000E+00
  5.50000000E+02  5.80000000E+01  0.00000000E+00
  5.50000000E+02  5.60000000E+01  0.00000000E+00
  5.50000000E+02  5.40000000E+01  0.00000000E+00
  5.50000000E+02  5.20000000E+01  0.00000000E+00
  5.50000000E+02  5.00000000E+01  0.00000000E+00
  5.50000000E+02  4.80000000E+01  0.00000000E+00
  5.50000000E+02  4.60000000E+01  0.00000000E+00
  5.50000000E+02  4.40000000E+01  0.00000000E+00
  5.50000000E+02  4.20000000E+01  0.00000000E+00
  5.50000000E+02  4.00000000E+01  0.00000000E+00
  5.50000000E+02  3.80000000E+01  0.00000000E+00
  5.50000000E+02  3.60000000E+01  0.00000000E+00
  5.50000000E+02  3.40000000E+01  0.00000000E+00
  5.50000000E+02  3.20000000E+01  0.00000000E+00
  5.50000000E+02  3.00000000E+01  0.00000000E+00
  5.50000000E+02  2.80000000E+01  0.00000000E+00
  5.50000000E+02  2.60000000E+01  0.00000000E+00
  5.50000000E+02  2.40000000E+01  0.00000000E+00
  5.50000000E+02  2.20000000E+01  0.00000000E+00
  5.50000000E+02  2.00000000E+01  0.00000000E+00
  5.50000000E+02  1.80000000E+01  0.00000000E+00
  5.50000000E+02  1.60000000E+01  0.00000000E+00
  5.50000000E+02  1.40000000E+01  0.00000000E+00
  5.50000000E+02  1.20000000E+01  0.00000000E+00
  5.50000000E+02  1.00000000E+01  0.00000000E+00
  5.50000000E+02  8.00000000E+00  0.00000000E+00
  5.50000000E+02  6.00000000E+00  0.00000000E+00
  5.50000000E+02  4.00000000E+00  0.00000000E+00
  5.50000000E+02  2.00000000E+00  0.00000000E+00
  5.50000000E+02 -3.33066907E-14  0.00000000E+00
  5.60000000E+02  1.00000000E+02  0.00000000E+00
  5.60000000E+02  9.80000000E+01  0.00000000E+00
  5.60000000E+02  9.60000000E+01  0.00000000E+00
  5.60000000E+02  9.40000000E+01  0.00000000E+00
  5.60000000E+02  9.20000000E+01  0.00000000E+00
  5.60000000E+02  9.00000000E+01  0.00000000E+00
  5.60000000E+02  8.80000000E+01  0.00000000E+00
  5.60000000E+02  8.60000000E+01  0.00000000E+00
  5.60000000E+02  8.40000000E+01  0.00000000E+00
  5.60000000E+02  8.20000000E+01  0.00000000E+00
  5.60000000E+02  8.00000000E+01  0.00000000E+00
  5.60000000E+02  7.80000000E+01  0.00000000E+00
  5.60000000E+02  7.60000000E+01  0.00000000E+00
  5.60000000E+02  7.40000000E+01  0.00000000E+00
  5.60000000E+02  7.20000000E+01  0.00000000E+00
  5.60000000E+02  7.00000000E+01  0.00000000E+00
  5.60000000E+02  6.80000000E+01  0.00000000E+00
  5.60000000E+02  6.60000000E+01  0.00000000E+00
  5.60000000E+02  6.40000000E+01  0.00000000E+00
  5.60000000E+02  6.20000000E+01  0.00000000E+00
  5.60000000E+02  6.00000000E+01  0.00000000E+00
  5.60000000E+02  5.80000000E+01  0.00000000E+00
  5.60000000E+02  5.60000000E+01  0.00000000E+00
  5.60000000E+02  5.40000000E+01  0.00000000E+00
  5.60000000E+02  5.20000000E+01  0.00000000E+00
  5.60000000E+02  5.00000000E+01  0.00000000E+00
  5.60000000E+02  4.80000000E+01  0.00000000E+00
  5.60000000E+02  4.60000000E+01  0.00000000E+00
  5.60000000E+02  4.40000000E+01  0.00000000E+00
  5.60000000E+02  4.20000000E+01  0.00000000E+00
  5.60000000E+02  4.00000000E+01  0.00000000E+00
  5.60000000E+02  3.80000000E+01  0.00000000E+00
  5.60000000E+02  3.60000000E+01  0.00000000E+00
  5.60000000E+02  3.40000000E+01  0.00000000E+00
  5.60000000E+02  3.20000000E+01  0.00000000E+00
  5.60000000E+02  3.00000000E+01  0.00000000E+00
  5.60000000E+02  2.80000000E+01  0.00000000E+00
  5.60000000E+02  2.60000000E+01  0.00000000E+00
  5.60000000E+02  2.40000000E+01  0.00000000E+00
  5.60000000E+02  2.20000000E+01  0.00000000E+00
  5.60000000E+02  2.00000000E+01  0.00000000E+00
  5.60000000E+02  1.80000000E+01  0.00000000E+00
  5.60000000E+02  1.60000000E+01  0.00000000E+00
  5.60000000E+02  1.40000000E+01  0.00000000E+00
  5.60000000E+02  1.20000000E+01  0.00000000E+00
  5.60000000E+02  1.00000000E+01  0.00000000E+00
  5.60000000E+02  8.00000000E+00  0.00000000E+00
  5.60000000E+02  6.00000000E+00  0.00000000E+00
  5.60000000E+02  4.00000000E+00  0.00000000E+00
  5.60000000E+02  2.00000000E+00  0.00000000E+00
  5.60000000E+02 -3.33066907E-14  0.00000000E+00
  5.70000000E+02  1.00000000E+02  0.00000000E+00
  5.70000000E+02  9.80000000E+01  0.00000000E+00
  5.70000000E+02  9.60000000E+01  0.00000000E+00
  5.70000000E+02  9.40000000E+01  0.00000000E+00
  5.70000000E+02  9.20000000E+01  0.00000000E+00
  5.70000000E+02  9.00000000E+01  0.00000000E+00
  5.70000000E+02  8.80000000E+01  0.00000000E+00
  5.70000000E+02  8.60000000E+01  0.00000000E+00
  5.70000000E+02  8.40000000E+01  0.00000000E+00
  5.70000000E+02  8.20000000E+01  0.00000000E+00
  5.70000000E+02  8.00000000E+01  0.00000000E+00
  5.70000000E+02  7.80000000E+01  0.00000000E+00
  5.70000000E+02  7.60000000E+01  0.00000000E+00
  5.70000000E+02  7.40000000E+01  0.00000000E+00
  5.70000000E+02  7.20000000E+01  0.00000000E+00
  5.70000000E+02  7.00000000E+01  0.00000000E+00
  5.70000000E+02  6.80000000E+01  0.00000000E+00
  5.70000000E+02  6.60000000E+01  0.00000000E+00
  5.70000000E+02  6.40000000E+01  0.00000000E+00
  5.70000000E+02  6.20000000E+01  0.00000000E+00
  5.70000000E+02  6.00000000E+01  0.00000000E+00
  5.70000000E+02  5.80000000E+01  0.00000000E+00
  5.70000000E+02  5.60000000E+01  0.00000000E+00
  5.70000000E+02  5.40000000E+01  0.00000000E+00
  5.70000000E+02  5.20000000E+01  0.00000000E+00
  5.70000000E+02  5.00000000E+01  0.00000000E+00
  5.70000000E+02  4.80000000E+01  0.00000000E+00
  5.70000000E+02  4.60000000E+01  0.00000000E+00
  5.70000000E+02  4.40000000E+01  0.00000000E+00
  5.70000000E+02  4.20000000E+01  0.00000000E+00
  5.70000000E+02  4.00000000E+01  0.00000000E+00
  5.70000000E+02  3.80000000E+01  0.00000000E+00
  5.70000000E+02  3.60000000E+01  0.00000000E+00
  5.70000000E+02  3.40000000E+01  0.00000000E+00
  5.70000000E+02  3.20000000E+01  0.00000000E+00
  5.70000000E+02  3.00000000E+01  0.00000000E+00
  5.70000000E+02  2.80000000E+01  0.00000000E+00
  5.70000000E+02  2.60000000E+01  0.00000000E+00
  5.70000000E+02  2.40000000E+01  0.00000000E+00
  5.70000000E+02  2.20000000E+01  0.00000000E+00
  5.70000000E+02  2.00000000E+01  0.00000000E+00
  5.70000000E+02  1.80000000E+01  0.00000000E+00
  5.70000000E+02  1.60000000E+01  0.00000000E+00
  5.70000000E+02  1.40000000E+01  0.00000000E+00
  5.70000000E+02  1.20000000E+01  0.00000000E+00
  5.70000000E+02  1.00000000E+01  0.00000000E+00
  5.70000000E+02  8.00000000E+00  0.00000000E+00
  5.70000000E+02  6.00000000E+00  0.00000000E+00
  5.70000000E+02  4.00000000E+00  0.00000000E+00
  5.70000000E+02  2.00000000E+00  0.00000000E+00
  5.70000000E+02 -3.33066907E-14  0.00000000E+00
  5.80000000E+02  1.00000000E+02  0.00000000E+00
  5.80000000E+02  9.80000000E+01  0.00000000E+00
  5.80000000E+02  9.60000000E+01  0.00000000E+00
  5.80000000E+02  9.40000000E+01  0.00000000E+00
  5.80000000E+02  9.20000000E+01  0.00000000E+00
  5.80000000E+02  9.00000000E+01  0.00000000E+00
  5.80000000E+02  8.80000000E+01  0.00000000E+00
  5.80000000E+02  8.60000000E+01  0.00000000E+00
  5.80000000E+02  8.40000000E+01  0.00000000E+00
  5.80000000E+02  8.20000000E+01  0.00000000E+00
  5.80000000E+02  8.00000000E+01  0.00000000E+00
  5.80000000E+02  7.80000000E+01  0.00000000E+00
  5.80000000E+02  7.60000000E+01  0.00000000E+00
  5.80000000E+02  7.40000000E+01  0.00000000E+00
  5.80000000E+02  7.20000000E+01  0.00000000E+00
  5.80000000E+02  7.00000000E+01  0.00000000E+00
  5.80000000E+02  6.80000000E+01  0.00000000E+00
  5.80000000E+02  6.60000000E+01  0.00000000E+00
  5.80000000E+02  6.40000000E+01  0.00000000E+00
  5.80000000E+02  6.20000000E+01  0.00000000E+00
  5.80000000E+02  6.00000000E+01  0.00000000E+00
  5.80000000E+02  5.80000000E+01  0.00000000E+00
  5.80000000E+02  5.60000000E+01  0.00000000E+00
  5.80000000E+02  5.40000000E+01  0.00000000E+00
  5.80000000E+02  5.20000000E+01  0.00000000E+00
  5.80000000E+02  5.00000000E+01  0.00000000E+00
  5.80000000E+02  4.80000000E+01  0.00000000E+00
  5.80000000E+02  4.60000000E+01  0.00000000E+00
  5.80000000E+02  4.40000000E+01  0.00000000E+00
  5.80000000E+02  4.20000000E+01  0.00000000E+00
  5.80000000E+02  4.00000000E+01  0.00000000E+00
  5.80000000E+02  3.80000000E+01  0.00000000E+00
  5.80000000E+02  3.60000000E+01  0.00000000E+00
  5.80000000E+02  3.40000000E+01  0.00000000E+00
  5.80000000E+02  3.20000000E+01  0.00000000E+00
  5.80000000E+02  3.00000000E+01  0.00000000E+00
  5.80000000E+02  2.80000000E+01  0.00000000E+00
  5.80000000E+02  2.60000000E+01  0.00000000E+00
  5.80000000E+02  2.40000000E+01  0.00000000E+00
  5.80000000E+02  2.20000000E+01  0.00000000E+00
  5.80000000E+02  2.00000000E+01  0.00000000E+00
  5.80000000E+02  1.80000000E+01  0.00000000E+00
  5.80000000E+02  1.60000000E+01  0.00000000E+00
  5.80000000E+02  1.40000000E+01  0.00000000E+00
  5.80000000E+02  1.20000000E+01  0.00000000E+00
  5.80000000E+02  1.00000000E+01  0.00000000E+00
  5.80000000E+02  8.00000000E+00  0.00000000E+00
  5.80000000E+02  6.00000000E+00  0.00000000E+00
  5.80000000E+02  4.00000000E+00  0.00000000E+00
  5.80000000E+02  2.00000000E+00  0.00000000E+00
  5.80000000E+02 -3.33066907E-14  0.00000000E+00
  5.90000000E+02  1.00000000E+02  0.00000000E+00
  5.90000000E+02  9.80000000E+01  0.00000000E+00
  5.90000000E+02  9.60000000E+01  0.00000000E+00
  5.90000000E+02  9.40000000E+01  0.00000000E+00
  5.90000000E+02  9.20000000E+01  0.00000000E+00
  5.90000000E+02  9.00000000E+01  0.00000000E+00
  5.90000000E+02  8.80000000E+01  0.00000000E+00
  5.90000000E+02  8.60000000E+01  0.00000000E+00
  5.90000000E+02  8.40000000E+01  0.00000000E+00
  5.90000000E+02  8.20000000E+01  0.00000000E+00
  5.90000000E+02  8.00000000E+01  0.00000000E+00
  5.90000000E+02  7.80000000E+01  0.00000000E+00
  5.90000000E+02  7.60000000E+01  0.00000000E+00
  5.90000000E+02  7.40000000E+01  0.00000000E+00
  5.90000000E+02  7.20000000E+01  0.00000000E+00
  5.90000000E+02  7.00000000E+01  0.00000000E+00
  5.90000000E+02  6.80000000E+01  0.00000000E+00
  5.90000000E+02  6.60000000E+01  0.00000000E+00
  5.90000000E+02  6.40000000E+01  0.00000000E+00
  5.90000000E+02  6.20000000E+01  0.00000000E+00
  5.90000000E+02  6.00000000E+01  0.00000000E+00
  5.90000000E+02  5.80000000E+01  0.00000000E+00
  5.90000000E+02  5.60000000E+01  0.00000000E+00
  5.90000000E+02  5.40000000E+01  0.00000000E+00
  5.90000000E+02  5.20000000E+01  0.00000000E+00
  5.90000000E+02  5.00000000E+01  0.00000000E+00
  5.90000000E+02  4.80000000E+01  0.00000000E+00
  5.90000000E+02  4.60000000E+01  0.00000000E+00
  5.90000000E+02  4.40000000E+01  0.00000000E+00
  5.90000000E+02  4.20000000E+01  0.00000000E+00
  5.90000000E+02  4.00000000E+01  0.00000000E+00
  5.90000000E+02  3.80000000E+01  0.00000000E+00
  5.90000000E+02  3.60000000E+01  0.00000000E+00
  5.90000000E+02  3.40000000E+01  0.00000000E+00
  5.90000000E+02  3.20000000E+01  0.00000000E+00
  5.90000000E+02  3.00000000E+01  0.00000000E+00
  5.90000000E+02  2.80000000E+01  0.00000000E+00
  5.90000000E+02  2.60000000E+01  0.00000000E+00
  5.90000000E+02  2.40000000E+01  0.00000000E+00
  5.90000000E+02  2.20000000E+01  0.00000000E+00
  5.90000000E+02  2.00000000E+01  0.00000000E+00
  5.90000000E+02  1.80000000E+01  0.00000000E+00
  5.90000000E+02  1.60000000E+01  0.00000000E+00
  5.90000000E+02  1.40000000E+01  0.00000000E+00
  5.90000000E+02  1.20000000E+01  0.00000000E+00
  5.90000000E+02  1.00000000E+01  0.00000000E+00
  5.90000000E+02  8.00000000E+00  0.00000000E+00
  5.90000000E+02  6.00000000E+00  0.00000000E+00
  5.90000000E+02  4.00000000E+00  0.00000000E+00
  5.90000000E+02  2.00000000E+00  0.00000000E+00
  5.90000000E+02 -3.33066907E-14  0.00000000E+00
  6.00000000E+02  1.00000000E+02  0.00000000E+00
  6.00000000E+02  9.80000000E+01  0.00000000E+00
  6.00000000E+02  9.60000000E+01  0.00000000E+00
  6.00000000E+02  9.40000000E+01  0.00000000E+00
  6.00000000E+02  9.20000000E+01  0.00000000E+00
  6.00000000E+02  9.00000000E+01  0.00000000E+00
  6.00000000E+02  8.80000000E+01  0.00000000E+00
  6.00000000E+02  8.60000000E+01  0.00000000E+00
  6.00000000E+02  8.40000000E+01  0.00000000E+00
  6.00000000E+02  8.20000000E+01  0.00000000E+00
  6.00000000E+02  8.00000000E+01  0.00000000E+00
  6.00000000E+02  7.80000000E+01  0.00000000E+00
  6.00000000E+02  7.60000000E+01  0.00000000E+00
  6.00000000E+02  7.40000000E+01  0.00000000E+00
  6.00000000E+02  7.20000000E+01  0.00000000E+00
  6.00000000E+02  7.00000000E+01  0.00000000E+00
  6.00000000E+02  6.80000000E+01  0.00000000E+00
  6.00000000E+02  6.60000000E+01  0.00000000E+00
  6.00000000E+02  6.40000000E+01  0.00000000E+00
  6.00000000E+02  6.20000000E+01  0.00000000E+00
  6.00000000E+02  6.00000000E+01  0.00000000E+00
  6.00000000E+02  5.80000000E+01  0.00000000E+00
  6.00000000E+02  5.60000000E+01  0.00000000E+00
  6.00000000E+02  5.40000000E+01  0.00000000E+00
  6.00000000E+02  5.20000000E+01  0.00000000E+00
  6.00000000E+02  5.00000000E+01  0.00000000E+00
  6.00000000E+02  4.80000000E+01  0.00000000E+00
  6.00000000E+02  4.60000000E+01  0.00000000E+00
  6.00000000E+02  4.40000000E+01  0.00000000E+00
  6.00000000E+02  4.20000000E+01  0.00000000E+00
  6.00000000E+02  4.00000000E+01  0.00000000E+00
  6.00000000E+02  3.80000000E+01  0.00000000E+00
  6.00000000E+02  3.60000000E+01  0.00000000E+00
  6.00000000E+02  3.40000000E+01  0.00000000E+00
  6.00000000E+02  3.20000000E+01  0.00000000E+00
  6.00000000E+02  3.00000000E+01  0.00000000E+00
  6.00000000E+02  2.80000000E+01  0.00000000E+00
  6.00000000E+02  2.60000000E+01  0.00000000E+00
  6.00000000E+02  2.40000000E+01  0.00000000E+00
  6.00000000E+02  2.20000000E+01  0.00000000E+00
  6.00000000E+02  2.00000000E+01  0.00000000E+00
  6.00000000E+02  1.80000000E+01  0.00000000E+00
  6.00000000E+02  1.60000000E+01  0.00000000E+00
  6.00000000E+02  1.40000000E+01  0.00000000E+00
  6.00000000E+02  1.20000000E+01  0.00000000E+00
  6.00000000E+02  1.00000000E+01  0.00000000E+00
  6.00000000E+02  8.00000000E+00  0.00000000E+00
  6.00000000E+02  6.00000000E+00  0.00000000E+00
  6.00000000E+02  4.00000000E+00  0.00000000E+00
  6.00000000E+02  2.00000000E+00  0.00000000E+00
  6.00000000E+02 -3.33066907E-14  0.00000000E+00
  6.10000000E+02  1.00000000E+02  0.00000000E+00
  6.10000000E+02  9.80000000E+01  0.00000000E+00
  6.10000000E+02  9.60000000E+01  0.00000000E+00
  6.10000000E+02  9.40000000E+01  0.00000000E+00
  6.10000000E+02  9.20000000E+01  0.00000000E+00
  6.10000000E+02  9.00000000E+01  0.00000000E+00
  6.10000000E+02  8.80000000E+01  0.00000000E+00
  6.10000000E+02  8.60000000E+01  0.00000000E+00
  6.10000000E+02  8.40000000E+01  0.00000000E+00
  6.10000000E+02  8.20000000E+01  0.00000000E+00
  6.10000000E+02  8.00000000E+01  0.00000000E+00
  6.10000000E+02  7.80000000E+01  0.00000000E+00
  6.10000000E+02  7.60000000E+01  0.00000000E+00
  6.10000000E+02  7.40000000E+01  0.00000000E+00
  6.10000000E+02  7.20000000E+01  0.00000000E+00
  6.10000000E+02  7.00000000E+01  0.00000000E+00
  6.10000000E+02  6.80000000E+01  0.00000000E+00
  6.10000000E+02  6.60000000E+01  0.00000000E+00
  6.10000000E+02  6.40000000E+01  0.00000000E+00
  6.10000000E+02  6.20000000E+01  0.00000000E+00
  6.10000000E+02  6.00000000E+01  0.00000000E+00
  6.10000000E+02  5.80000000E+01  0.00000000E+00
  6.10000000E+02  5.60000000E+01  0.00000000E+00
  6.10000000E+02  5.40000000E+01  0.00000000E+00
  6.10000000E+02  5.20000000E+01  0.00000000E+00
  6.10000000E+02  5.00000000E+01  0.00000000E+00
  6.10000000E+02  4.80000000E+01  0.00000000E+00
  6.10000000E+02  4.60000000E+01  0.00000000E+00
  6.10000000E+02  4.40000000E+01  0.00000000E+00
  6.10000000E+02  4.20000000E+01  0.00000000E+00
  6.10000000E+02  4.00000000E+01  0.00000000E+00
  6.10000000E+02  3.80000000E+01  0.00000000E+00
  6.10000000E+02  3.60000000E+01  0.00000000E+00
  6.10000000E+02  3.40000000E+01  0.00000000E+00
  6.10000000E+02  3.20000000E+01  0.00000000E+00
  6.10000000E+02  3.00000000E+01  0.00000000E+00
  6.10000000E+02  2.80000000E+01  0.00000000E+00
  6.10000000E+02  2.60000000E+01  0.00000000E+00
  6.10000000E+02  2.40000000E+01  0.00000000E+00
  6.10000000E+02  2.20000000E+01  0.00000000E+00
  6.10000000E+02  2.00000000E+01  0.00000000E+00
  6.10000000E+02  1.80000000E+01  0.00000000E+00
  6.10000000E+02  1.60000000E+01  0.00000000E+00
  6.10000000E+02  1.40000000E+01  0.00000000E+00
  6.10000000E+02  1.20000000E+01  0.00000000E+00
  6.10000000E+02  1.00000000E+01  0.00000000E+00
  6.10000000E+02  8.00000000E+00  0.00000000E+00
  6.10000000E+02  6.00000000E+00  0.00000000E+00
  6.10000000E+02  4.00000000E+00  0.00000000E+00
  6.10000000E+02  2.00000000E+00  0.00000000E+00
  6.10000000E+02 -3.33066907E-14  0.00000000E+00
  6.20000000E+02  1.00000000E+02  0.00000000E+00
  6.20000000E+02  9.80000000E+01  0.00000000E+00
  6.20000000E+02  9.60000000E+01  0.00000000E+00
  6.20000000E+02  9.40000000E+01  0.00000000E+00
  6.20000000E+02  9.20000000E+01  0.00000000E+00
  6.20000000E+02  9.00000000E+01  0.00000000E+00
  6.20000000E+02  8.80000000E+01  0.00000000E+00
  6.20000000E+02  8.60000000E+01  0.00000000E+00
  6.20000000E+02  8.40000000E+01  0.00000000E+00
  6.20000000E+02  8.20000000E+01  0.00000000E+00
  6.20000000E+02  8.00000000E+01  0.00000000E+00
  6.20000000E+02  7.80000000E+01  0.00000000E+00
  6.20000000E+02  7.60000000E+01  0.00000000E+00
  6.20000000E+02  7.40000000E+01  0.00000000E+00
  6.20000000E+02  7.20000000E+01  0.00000000E+00
  6.20000000E+02  7.00000000E+01  0.00000000E+00
  6.20000000E+02  6.80000000E+01  0.00000000E+00
  6.20000000E+02  6.60000000E+01  0.00000000E+00
  6.20000000E+02  6.40000000E+01  0.00000000E+00
  6.20000000E+02  6.20000000E+01  0.00000000E+00
  6.20000000E+02  6.00000000E+01  0.00000000E+00
  6.20000000E+02  5.80000000E+01  0.00000000E+00
  6.20000000E+02  5.60000000E+01  0.00000000E+00
  6.20000000E+02  5.40000000E+01  0.00000000E+00
  6.20000000E+02  5.20000000E+01  0.00000000E+00
  6.20000000E+02  5.00000000E+01  0.00000000E+00
  6.20000000E+02  4.80000000E+01  0.00000000E+00
  6.20000000E+02  4.60000000E+01  0.00000000E+00
  6.20000000E+02  4.40000000E+01  0.00000000E+00
  6.20000000E+02  4.20000000E+01  0.00000000E+00
  6.20000000E+02  4.00000000E+01  0.00000000E+00
  6.20000000E+02  3.80000000E+01  0.00000000E+00
  6.20000000E+02  3.60000000E+01  0.00000000E+00
  6.20000000E+02  3.40000000E+01  0.00000000E+00
  6.20000000E+02  3.20000000E+01  0.00000000E+00
  6.20000000E+02  3.00000000E+01  0.00000000E+00
  6.20000000E+02  2.80000000E+01  0.00000000E+00
  6.20000000E+02  2.60000000E+01  0.00000000E+00
  6.20000000E+02  2.40000000E+01  0.00000000E+00
  6.20000000E+02  2.20000000E+01  0.00000000E+00
  6.20000000E+02  2.00000000E+01  0.00000000E+00
  6.20000000E+02  1.80000000E+01  0.00000000E+00
  6.20000000E+02  1.60000000E+01  0.00000000E+00
  6.20000000E+02  1.40000000E+01  0.00000000E+00
  6.20000000E+02  1.20000000E+01  0.00000000E+00
  6.20000000E+02  1.00000000E+01  0.00000000E+00
  6.20000000E+02  8.00000000E+00  0.00000000E+00
  6.20000000E+02  6.00000000E+00  0.00000000E+00
  6.20000000E+02  4.00000000E+00  0.00000000E+00
  6.20000000E+02  2.00000000E+00  0.00000000E+00
  6.20000000E+02 -3.33066907E-14  0.00000000E+00
  6.30000000E+02  1.00000000E+02  0.00000000E+00
  6.30000000E+02  9.80000000E+01  0.00000000E+00
  6.30000000E+02  9.60000000E+01  0.00000000E+00
  6.30000000E+02  9.40000000E+01  0.00000000E+00
  6.30000000E+02  9.20000000E+01  0.00000000E+00
  6.30000000E+02  9.00000000E+01  0.00000000E+00
  6.30000000E+02  8.80000000E+01  0.00000000E+00
  6.30000000E+02  8.60000000E+01  0.00000000E+00
  6.30000000E+02  8.40000000E+01  0.00000000E+00
  6.30000000E+02  8.20000000E+01  0.00000000E+00
  6.30000000E+02  8.00000000E+01  0.00000000E+00
  6.30000000E+02  7.80000000E+01  0.00000000E+00
  6.30000000E+02  7.60000000E+01  0.00000000E+00
  6.30000000E+02  7.40000000E+01  0.00000000E+00
  6.30000000E+02  7.20000000E+01  0.00000000E+00
  6.30000000E+02  7.00000000E+01  0.00000000E+00
  6.30000000E+02  6.80000000E+01  0.00000000E+00
  6.30000000E+02  6.60000000E+01  0.00000000E+00
  6.30000000E+02  6.40000000E+01  0.00000000E+00
  6.30000000E+02  6.20000000E+01  0.00000000E+00
  6.30000000E+02  6.00000000E+01  0.00000000E+00
  6.30000000E+02  5.80000000E+01  0.00000000E+00
  6.30000000E+02  5.60000000E+01  0.00000000E+00
  6.30000000E+02  5.40000000E+01  0.00000000E+00
  6.30000000E+02  5.20000000E+01  0.00000000E+00
  6.30000000E+02  5.00000000E+01  0.00000000E+00
  6.30000000E+02  4.80000000E+01  0.00000000E+00
  6.30000000E+02  4.60000000E+01  0.00000000E+00
  6.30000000E+02  4.40000000E+01  0.00000000E+00
  6.30000000E+02  4.20000000E+01  0.00000000E+00
  6.30000000E+02  4.00000000E+01  0.00000000E+00
  6.30000000E+02  3.80000000E+01  0.00000000E+00
  6.30000000E+02  3.60000000E+01  0.00000000E+00
  6.30000000E+02  3.40000000E+01  0.00000000E+00
  6.30000000E+02  3.20000000E+01  0.00000000E+00
  6.30000000E+02  3.00000000E+01  0.00000000E+00
  6.30000000E+02  2.80000000E+01  0.00000000E+00
  6.30000000E+02  2.60000000E+01  0.00000000E+00
  6.30000000E+02  2.40000000E+01  0.00000000E+00
  6.30000000E+02  2.20000000E+01  0.00000000E+00
  6.30000000E+02  2.00000000E+01  0.00000000E+00
  6.30000000E+02  1.80000000E+01  0.00000000E+00
  6.30000000E+02  1.60000000E+01  0.00000000E+00
  6.30000000E+02  1.40000000E+01  0.00000000E+00
  6.30000000E+02  1.20000000E+01  0.00000000E+00
  6.30000000E+02  1.00000000E+01  0.00000000E+00
  6.30000000E+02  8.00000000E+00  0.00000000E+00
  6.30000000E+02  6.00000000E+00  0.00000000E+00
  6.30000000E+02  4.00000000E+00  0.00000000E+00
  6.30000000E+02  2.00000000E+00  0.00000000E+00
  6.30000000E+02 -3.33066907E-14  0.00000000E+00
  6.40000000E+02  1.00000000E+02  0.00000000E+00
  6.40000000E+02  9.80000000E+01  0.00000000E+00
  6.40000000E+02  9.60000000E+01  0.00000000E+00
  6.40000000E+02  9.40000000E+01  0.00000000E+00
  6.40000000E+02  9.20000000E+01  0.00000000E+00
  6.40000000E+02  9.00000000E+01  0.00000000E+00
  6.40000000E+02  8.80000000E+01  0.00000000E+00
  6.40000000E+02  8.60000000E+01  0.00000000E+00
  6.40000000E+02  8.40000000E+01  0.00000000E+00
  6.40000000E+02  8.20000000E+01  0.00000000E+00
  6.40000000E+02  8.00000000E+01  0.00000000E+00
  6.40000000E+02  7.80000000E+01  0.00000000E+00
  6.40000000E+02  7.60000000E+01  0.00000000E+00
  6.40000000E+02  7.40000000E+01  0.00000000E+00
  6.40000000E+02  7.20000000E+01  0.00000000E+00
  6.40000000E+02  7.00000000E+01  0.00000000E+00
  6.40000000E+02  6.80000000E+01  0.00000000E+00
  6.40000000E+02  6.60000000E+01  0.00000000E+00
  6.40000000E+02  6.40000000E+01  0.00000000E+00
  6.40000000E+02  6.20000000E+01  0.00000000E+00
  6.40000000E+02  6.00000000E+01  0.00000000E+00
  6.40000000E+02  5.80000000E+01  0.00000000E+00
  6.40000000E+02  5.60000000E+01  0.00000000E+00
  6.40000000E+02  5.40000000E+01  0.00000000E+00
  6.40000000E+02  5.20000000E+01  0.00000000E+00
  6.40000000E+02  5.00000000E+01  0.00000000E+00
  6.40000000E+02  4.80000000E+01  0.00000000E+00
  6.40000000E+02  4.60000000E+01  0.00000000E+00
  6.40000000E+02  4.40000000E+01  0.00000000E+00
  6.40000000E+02  4.20000000E+01  0.00000000E+00
  6.40000000E+02  4.00000000E+01  0.00000000E+00
  6.40000000E+02  3.80000000E+01  0.00000000E+00
  6.40000000E+02  3.60000000E+01  0.00000000E+00
  6.40000000E+02  3.40000000E+01  0.00000000E+00
  6.40000000E+02  3.20000000E+01  0.00000000E+00
  6.40000000E+02  3.00000000E+01  0.00000000E+00
  6.40000000E+02  2.80000000E+01  0.00000000E+00
  6.40000000E+02  2.60000000E+01  0.00000000E+00
  6.40000000E+02  2.40000000E+01  0.00000000E+00
  6.40000000E+02  2.20000000E+01  0.00000000E+00
  6.40000000E+02  2.00000000E+01  0.00000000E+00
  6.40000000E+02  1.80000000E+01  0.00000000E+00
  6.40000000E+02  1.60000000E+01  0.00000000E+00
  6.40000000E+02  1.40000000E+01  0.00000000E+00
  6.40000000E+02  1.20000000E+01  0.00000000E+00
  6.40000000E+02  1.00000000E+01  0.00000000E+00
  6.40000000E+02  8.00000000E+00  0.00000000E+00
  6.40000000E+02  6.00000000E+00  0.00000000E+00
  6.40000000E+02  4.00000000E+00  0.00000000E+00
  6.40000000E+02  2.00000000E+00  0.00000000E+00
  6.40000000E+02 -3.33066907E-14  0.00000000E+00
  6.50000000E+02  1.00000000E+02  0.00000000E+00
  6.50000000E+02  9.80000000E+01  0.00000000E+00
  6.50000000E+02  9.60000000E+01  0.00000000E+00
  6.50000000E+02  9.40000000E+01  0.00000000E+00
  6.50000000E+02  9.20000000E+01  0.00000000E+00
  6.50000000E+02  9.00000000E+01  0.00000000E+00
  6.50000000E+02  8.80000000E+01  0.00000000E+00
  6.50000000E+02  8.60000000E+01  0.00000000E+00
  6.50000000E+02  8.40000000E+01  0.00000000E+00
  6.50000000E+02  8.20000000E+01  0.00000000E+00
  6.50000000E+02  8.00000000E+01  0.00000000E+00
  6.50000000E+02  7.80000000E+01  0.00000000E+00
  6.50000000E+02  7.60000000E+01  0.00000000E+00
  6.50000000E+02  7.40000000E+01  0.00000000E+00
  6.50000000E+02  7.20000000E+01  0.00000000E+00
  6.50000000E+02  7.00000000E+01  0.00000000E+00
  6.50000000E+02  6.80000000E+01  0.00000000E+00
  6.50000000E+02  6.60000000E+01  0.00000000E+00
  6.50000000E+02  6.40000000E+01  0.00000000E+00
  6.50000000E+02  6.20000000E+01  0.00000000E+00
  6.50000000E+02  6.00000000E+01  0.00000000E+00
  6.50000000E+02  5.80000000E+01  0.00000000E+00
  6.50000000E+02  5.60000000E+01  0.00000000E+00
  6.50000000E+02  5.40000000E+01  0.00000000E+00
  6.50000000E+02  5.20000000E+01  0.00000000E+00
  6.50000000E+02  5.00000000E+01  0.00000000E+00
  6.50000000E+02  4.80000000E+01  0.00000000E+00
  6.50000000E+02  4.60000000E+01  0.00000000E+00
  6.50000000E+02  4.40000000E+01  0.00000000E+00
  6.50000000E+02  4.20000000E+01  0.00000000E+00
  6.50000000E+02  4.00000000E+01  0.00000000E+00
  6.50000000E+02  3.80000000E+01  0.00000000E+00
  6.50000000E+02  3.60000000E+01  0.00000000E+00
  6.50000000E+02  3.40000000E+01  0.00000000E+00
  6.50000000E+02  3.20000000E+01  0.00000000E+00
  6.50000000E+02  3.00000000E+01  0.00000000E+00
  6.50000000E+02  2.80000000E+01  0.00000000E+00
  6.50000000E+02  2.60000000E+01  0.00000000E+00
  6.50000000E+02  2.40000000E+01  0.00000000E+00
  6.50000000E+02  2.20000000E+01  0.00000000E+00
  6.50000000E+02  2.00000000E+01  0.00000000E+00
  6.50000000E+02  1.80000000E+01  0.00000000E+00
  6.50000000E+02  1.60000000E+01  0.00000000E+00
  6.50000000E+02  1.40000000E+01  0.00000000E+00
  6.50000000E+02  1.20000000E+01  0.00000000E+00
  6.50000000E+02  1.00000000E+01  0.00000000E+00
  6.50000000E+02  8.00000000E+00  0.00000000E+00
  6.50000000E+02  6.00000000E+00  0.00000000E+00
  6.50000000E+02  4.00000000E+00  0.00000000E+00
  6.50000000E+02  2.00000000E+00  0.00000000E+00
  6.50000000E+02 -3.33066907E-14  0.00000000E+00
  6.60000000E+02  1.00000000E+02  0.00000000E+00
  6.60000000E+02  9.80000000E+01  0.00000000E+00
  6.60000000E+02  9.60000000E+01  0.00000000E+00
  6.60000000E+02  9.40000000E+01  0.00000000E+00
  6.60000000E+02  9.20000000E+01  0.00000000E+00
  6.60000000E+02  9.00000000E+01  0.00000000E+00
  6.60000000E+02  8.80000000E+01  0.00000000E+00
  6.60000000E+02  8.60000000E+01  0.00000000E+00
  6.60000000E+02  8.40000000E+01  0.00000000E+00
  6.60000000E+02  8.20000000E+01  0.00000000E+00
  6.60000000E+02  8.00000000E+01  0.00000000E+00
  6.60000000E+02  7.80000000E+01  0.00000000E+00
  6.60000000E+02  7.60000000E+01  0.00000000E+00
  6.60000000E+02  7.40000000E+01  0.00000000E+00
  6.60000000E+02  7.20000000E+01  0.00000000E+00
  6.60000000E+02  7.00000000E+01  0.00000000E+00
  6.60000000E+02  6.80000000E+01  0.00000000E+00
  6.60000000E+02  6.60000000E+01  0.00000000E+00
  6.60000000E+02  6.40000000E+01  0.00000000E+00
  6.60000000E+02  6.20000000E+01  0.00000000E+00
  6.60000000E+02  6.00000000E+01  0.00000000E+00
  6.60000000E+02  5.80000000E+01  0.00000000E+00
  6.60000000E+02  5.60000000E+01  0.00000000E+00
  6.60000000E+02  5.40000000E+01  0.00000000E+00
  6.60000000E+02  5.20000000E+01  0.00000000E+00
  6.60000000E+02  5.00000000E+01  0.00000000E+00
  6.60000000E+02  4.80000000E+01  0.00000000E+00
  6.60000000E+02  4.60000000E+01  0.00000000E+00
  6.60000000E+02  4.40000000E+01  0.00000000E+00
  6.60000000E+02  4.20000000E+01  0.00000000E+00
  6.60000000E+02  4.00000000E+01  0.00000000E+00
  6.60000000E+02  3.80000000E+01  0.00000000E+00
  6.60000000E+02  3.60000000E+01  0.00000000E+00
  6.60000000E+02  3.40000000E+01  0.00000000E+00
  6.60000000E+02  3.20000000E+01  0.00000000E+00
  6.60000000E+02  3.00000000E+01  0.00000000E+00
  6.60000000E+02  2.80000000E+01  0.00000000E+00
  6.60000000E+02  2.60000000E+01  0.00000000E+00
  6.60000000E+02  2.40000000E+01  0.00000000E+00
  6.60000000E+02  2.20000000E+01  0.00000000E+00
  6.60000000E+02  2.00000000E+01  0.00000000E+00
  6.60000000E+02  1.80000000E+01  0.00000000E+00
  6.60000000E+02  1.60000000E+01  0.00000000E+00
  6.60000000E+02  1.40000000E+01  0.00000000E+00
  6.60000000E+02  1.20000000E+01  0.00000000E+00
  6.60000000E+02  1.00000000E+01  0.00000000E+00
  6.60000000E+02  8.00000000E+00  0.00000000E+00
  6.60000000E+02  6.00000000E+00  0.00000000E+00
  6.60000000E+02  4.00000000E+00  0.00000000E+00
  6.60000000E+02  2.00000000E+00  0.00000000E+00
  6.60000000E+02 -3.33066907E-14  0.00000000E+00
  6.70000000E+02  1.00000000E+02  0.00000000E+00
  6.70000000E+02  9.80000000E+01  0.00000000E+00
  6.70000000E+02  9.60000000E+01  0.00000000E+00
  6.70000000E+02  9.40000000E+01  0.00000000E+00
  6.70000000E+02  9.20000000E+01  0.00000000E+00
  6.70000000E+02  9.00000000E+01  0.00000000E+00
  6.70000000E+02  8.80000000E+01  0.00000000E+00
  6.70000000E+02  8.60000000E+01  0.00000000E+00
  6.70000000E+02  8.40000000E+01  0.00000000E+00
  6.70000000E+02  8.20000000E+01  0.00000000E+00
  6.70000000E+02  8.00000000E+01  0.00000000E+00
  6.70000000E+02  7.80000000E+01  0.00000000E+00
  6.70000000E+02  7.60000000E+01  0.00000000E+00
  6.70000000E+02  7.40000000E+01  0.00000000E+00
  6.70000000E+02  7.20000000E+01  0.00000000E+00
  6.70000000E+02  7.00000000E+01  0.00000000E+00
  6.70000000E+02  6.80000000E+01  0.00000000E+00
  6.70000000E+02  6.60000000E+01  0.00000000E+00
  6.70000000E+02  6.40000000E+01  0.00000000E+00
  6.70000000E+02  6.20000000E+01  0.00000000E+00
  6.70000000E+02  6.00000000E+01  0.00000000E+00
  6.70000000E+02  5.80000000E+01  0.00000000E+00
  6.70000000E+02  5.60000000E+01  0.00000000E+00
  6.70000000E+02  5.40000000E+01  0.00000000E+00
  6.70000000E+02  5.20000000E+01  0.00000000E+00
  6.70000000E+02  5.00000000E+01  0.00000000E+00
  6.70000000E+02  4.80000000E+01  0.00000000E+00
  6.70000000E+02  4.60000000E+01  0.00000000E+00
  6.70000000E+02  4.40000000E+01  0.00000000E+00
  6.70000000E+02  4.20000000E+01  0.00000000E+00
  6.70000000E+02  4.00000000E+01  0.00000000E+00
  6.70000000E+02  3.80000000E+01  0.00000000E+00
  6.70000000E+02  3.60000000E+01  0.00000000E+00
  6.70000000E+02  3.40000000E+01  0.00000000E+00
  6.70000000E+02  3.20000000E+01  0.00000000E+00
  6.70000000E+02  3.00000000E+01  0.00000000E+00
  6.70000000E+02  2.80000000E+01  0.00000000E+00
  6.70000000E+02  2.60000000E+01  0.00000000E+00
  6.70000000E+02  2.40000000E+01  0.00000000E+00
  6.70000000E+02  2.20000000E+01  0.00000000E+00
  6.70000000E+02  2.00000000E+01  0.00000000E+00
  6.70000000E+02  1.80000000E+01  0.00000000E+00
  6.70000000E+02  1.60000000E+01  0.00000000E+00
  6.70000000E+02  1.40000000E+01  0.00000000E+00
  6.70000000E+02  1.20000000E+01  0.00000000E+00
  6.70000000E+02  1.00000000E+01  0.00000000E+00
  6.70000000E+02  8.00000000E+00  0.00000000E+00
  6.70000000E+02  6.00000000E+00  0.00000000E+00
  6.70000000E+02  4.00000000E+00  0.00000000E+00
  6.70000000E+02  2.00000000E+00  0.00000000E+00
  6.70000000E+02 -3.33066907E-14  0.00000000E+00
  6.80000000E+02  1.00000000E+02  0.00000000E+00
  6.80000000E+02  9.80000000E+01  0.00000000E+00
  6.80000000E+02  9.60000000E+01  0.00000000E+00
  6.80000000E+02  9.40000000E+01  0.00000000E+00
  6.80000000E+02  9.20000000E+01  0.00000000E+00
  6.80000000E+02  9.00000000E+01  0.00000000E+00
  6.80000000E+02  8.80000000E+01  0.00000000E+00
  6.80000000E+02  8.60000000E+01  0.00000000E+00
  6.80000000E+02  8.40000000E+01  0.00000000E+00
  6.80000000E+02  8.20000000E+01  0.00000000E+00
  6.80000000E+02  8.00000000E+01  0.00000000E+00
  6.80000000E+02  7.80000000E+01  0.00000000E+00
  6.80000000E+02  7.60000000E+01  0.00000000E+00
  6.80000000E+02  7.40000000E+01  0.00000000E+00
  6.80000000E+02  7.20000000E+01  0.00000000E+00
  6.80000000E+02  7.00000000E+01  0.00000000E+00
  6.80000000E+02  6.80000000E+01  0.00000000E+00
  6.80000000E+02  6.60000000E+01  0.00000000E+00
  6.80000000E+02  6.40000000E+01  0.00000000E+00
  6.80000000E+02  6.20000000E+01  0.00000000E+00
  6.80000000E+02  6.00000000E+01  0.00000000E+00
  6.80000000E+02  5.80000000E+01  0.00000000E+00
  6.80000000E+02  5.60000000E+01  0.00000000E+00
  6.80000000E+02  5.40000000E+01  0.00000000E+00
  6.80000000E+02  5.20000000E+01  0.00000000E+00
  6.80000000E+02  5.00000000E+01  0.00000000E+00
  6.80000000E+02  4.80000000E+01  0.00000000E+00
  6.80000000E+02  4.60000000E+01  0.00000000E+00
  6.80000000E+02  4.40000000E+01  0.00000000E+00
  6.80000000E+02  4.20000000E+01  0.00000000E+00
  6.80000000E+02  4.00000000E+01  0.00000000E+00
  6.80000000E+02  3.80000000E+01  0.00000000E+00
  6.80000000E+02  3.60000000E+01  0.00000000E+00
  6.80000000E+02  3.40000000E+01  0.00000000E+00
  6.80000000E+02  3.20000000E+01  0.00000000E+00
  6.80000000E+02  3.00000000E+01  0.00000000E+00
  6.80000000E+02  2.80000000E+01  0.00000000E+00
  6.80000000E+02  2.60000000E+01  0.00000000E+00
  6.80000000E+02  2.40000000E+01  0.00000000E+00
  6.80000000E+02  2.20000000E+01  0.00000000E+00
  6.80000000E+02  2.00000000E+01  0.00000000E+00
  6.80000000E+02  1.80000000E+01  0.00000000E+00
  6.80000000E+02  1.60000000E+01  0.00000000E+00
  6.80000000E+02  1.40000000E+01  0.00000000E+00
  6.80000000E+02  1.20000000E+01  0.00000000E+00
  6.80000000E+02  1.00000000E+01  0.00000000E+00
  6.80000000E+02  8.00000000E+00  0.00000000E+00
  6.80000000E+02  6.00000000E+00  0.00000000E+00
  6.80000000E+02  4.00000000E+00  0.00000000E+00
  6.80000000E+02  2.00000000E+00  0.00000000E+00
  6.80000000E+02 -3.33066907E-14  0.00000000E+00
  6.90000000E+02  1.00000000E+02  0.00000000E+00
  6.90000000E+02  9.80000000E+01  0.00000000E+00
  6.90000000E+02  9.60000000E+01  0.00000000E+00
  6.90000000E+02  9.40000000E+01  0.00000000E+00
  6.90000000E+02  9.20000000E+01  0.00000000E+00
  6.90000000E+02  9.00000000E+01  0.00000000E+00
  6.90000000E+02  8.80000000E+01  0.00000000E+00
  6.90000000E+02  8.60000000E+01  0.00000000E+00
  6.90000000E+02  8.40000000E+01  0.00000000E+00
  6.90000000E+02  8.20000000E+01  0.00000000E+00
  6.90000000E+02  8.00000000E+01  0.00000000E+00
  6.90000000E+02  7.80000000E+01  0.00000000E+00
  6.90000000E+02  7.60000000E+01  0.00000000E+00
  6.90000000E+02  7.40000000E+01  0.00000000E+00
  6.90000000E+02  7.20000000E+01  0.00000000E+00
  6.90000000E+02  7.00000000E+01  0.00000000E+00
  6.90000000E+02  6.80000000E+01  0.00000000E+00
  6.90000000E+02  6.60000000E+01  0.00000000E+00
  6.90000000E+02  6.40000000E+01  0.00000000E+00
  6.90000000E+02  6.20000000E+01  0.00000000E+00
  6.90000000E+02  6.00000000E+01  0.00000000E+00
  6.90000000E+02  5.80000000E+01  0.00000000E+00
  6.90000000E+02  5.60000000E+01  0.00000000E+00
  6.90000000E+02  5.40000000E+01  0.00000000E+00
  6.90000000E+02  5.20000000E+01  0.00000000E+00
  6.90000000E+02  5.00000000E+01  0.00000000E+00
  6.90000000E+02  4.80000000E+01  0.00000000E+00
  6.90000000E+02  4.60000000E+01  0.00000000E+00
  6.90000000E+02  4.40000000E+01  0.00000000E+00
  6.90000000E+02  4.20000000E+01  0.00000000E+00
  6.90000000E+02  4.00000000E+01  0.00000000E+00
  6.90000000E+02  3.80000000E+01  0.00000000E+00
  6.90000000E+02  3.60000000E+01  0.00000000E+00
  6.90000000E+02  3.40000000E+01  0.00000000E+00
  6.90000000E+02  3.20000000E+01  0.00000000E+00
  6.90000000E+02  3.00000000E+01  0.00000000E+00
  6.90000000E+02  2.80000000E+01  0.00000000E+00
  6.90000000E+02  2.60000000E+01  0.00000000E+00
  6.90000000E+02  2.40000000E+01  0.00000000E+00
  6.90000000E+02  2.20000000E+01  0.00000000E+00
  6.90000000E+02  2.00000000E+01  0.00000000E+00
  6.90000000E+02  1.80000000E+01  0.00000000E+00
  6.90000000E+02  1.60000000E+01  0.00000000E+00
  6.90000000E+02  1.40000000E+01  0.00000000E+00
  6.90000000E+02  1.20000000E+01  0.00000000E+00
  6.90000000E+02  1.00000000E+01  0.00000000E+00
  6.90000000E+02  8.00000000E+00  0.00000000E+00
  6.90000000E+02  6.00000000E+00  0.00000000E+00
  6.90000000E+02  4.00000000E+00  0.00000000E+00
  6.90000000E+02  2.00000000E+00  0.00000000E+00
  6.90000000E+02 -3.33066907E-14  0.00000000E+00
  7.00000000E+02  1.00000000E+02  0.00000000E+00
  7.00000000E+02  9.80000000E+01  0.00000000E+00
  7.00000000E+02  9.60000000E+01  0.00000000E+00
  7.00000000E+02  9.40000000E+01  0.00000000E+00
  7.00000000E+02  9.20000000E+01  0.00000000E+00
  7.00000000E+02  9.00000000E+01  0.00000000E+00
  7.00000000E+02  8.80000000E+01  0.00000000E+00
  7.00000000E+02  8.60000000E+01  0.00000000E+00
  7.00000000E+02  8.40000000E+01  0.00000000E+00
  7.00000000E+02  8.20000000E+01  0.00000000E+00
  7.00000000E+02  8.00000000E+01  0.00000000E+00
  7.00000000E+02  7.80000000E+01  0.00000000E+00
  7.00000000E+02  7.60000000E+01  0.00000000E+00
  7.00000000E+02  7.40000000E+01  0.00000000E+00
  7.00000000E+02  7.20000000E+01  0.00000000E+00
  7.00000000E+02  7.00000000E+01  0.00000000E+00
  7.00000000E+02  6.80000000E+01  0.00000000E+00
  7.00000000E+02  6.60000000E+01  0.00000000E+00
  7.00000000E+02  6.40000000E+01  0.00000000E+00
  7.00000000E+02  6.20000000E+01  0.00000000E+00
  7.00000000E+02  6.00000000E+01  0.00000000E+00
  7.00000000E+02  5.80000000E+01  0.00000000E+00
  7.00000000E+02  5.60000000E+01  0.00000000E+00
  7.00000000E+02  5.40000000E+01  0.00000000E+00
  7.00000000E+02  5.20000000E+01  0.00000000E+00
  7.00000000E+02  5.00000000E+01  0.00000000E+00
  7.00000000E+02  4.80000000E+01  0.00000000E+00
  7.00000000E+02  4.60000000E+01  0.00000000E+00
  7.00000000E+02  4.40000000E+01  0.00000000E+00
  7.00000000E+02  4.20000000E+01  0.00000000E+00
  7.00000000E+02  4.00000000E+01  0.00000000E+00
  7.00000000E+02  3.80000000E+01  0.00000000E+00
  7.00000000E+02  3.60000000E+01  0.00000000E+00
  7.00000000E+02  3.40000000E+01  0.00000000E+00
  7.00000000E+02  3.20000000E+01  0.00000000E+00
  7.00000000E+02  3.00000000E+01  0.00000000E+00
  7.00000000E+02  2.80000000E+01  0.00000000E+00
  7.00000000E+02  2.60000000E+01  0.00000000E+00
  7.00000000E+02  2.40000000E+01  0.00000000E+00
  7.00000000E+02  2.20000000E+01  0.00000000E+00
  7.00000000E+02  2.00000000E+01  0.00000000E+00
  7.00000000E+02  1.80000000E+01  0.00000000E+00
  7.00000000E+02  1.60000000E+01  0.00000000E+00
  7.00000000E+02  1.40000000E+01  0.00000000E+00
  7.00000000E+02  1.20000000E+01  0.00000000E+00
  7.00000000E+02  1.00000000E+01  0.00000000E+00
  7.00000000E+02  8.00000000E+00  0.00000000E+00
  7.00000000E+02  6.00000000E+00  0.00000000E+00
  7.00000000E+02  4.00000000E+00  0.00000000E+00
  7.00000000E+02  2.00000000E+00  0.00000000E+00
  7.00000000E+02 -3.33066907E-14  0.00000000E+00
  7.10000000E+02  1.00000000E+02  0.00000000E+00
  7.10000000E+02  9.80000000E+01  0.00000000E+00
  7.10000000E+02  9.60000000E+01  0.00000000E+00
  7.10000000E+02  9.40000000E+01  0.00000000E+00
  7.10000000E+02  9.20000000E+01  0.00000000E+00
  7.10000000E+02  9.00000000E+01  0.00000000E+00
  7.10000000E+02  8.80000000E+01  0.00000000E+00
  7.10000000E+02  8.60000000E+01  0.00000000E+00
  7.10000000E+02  8.40000000E+01  0.00000000E+00
  7.10000000E+02  8.20000000E+01  0.00000000E+00
  7.10000000E+02  8.00000000E+01  0.00000000E+00
  7.10000000E+02  7.80000000E+01  0.00000000E+00
  7.10000000E+02  7.60000000E+01  0.00000000E+00
  7.10000000E+02  7.40000000E+01  0.00000000E+00
  7.10000000E+02  7.20000000E+01  0.00000000E+00
  7.10000000E+02  7.00000000E+01  0.00000000E+00
  7.10000000E+02  6.80000000E+01  0.00000000E+00
  7.10000000E+02  6.60000000E+01  0.00000000E+00
  7.10000000E+02  6.40000000E+01  0.00000000E+00
  7.10000000E+02  6.20000000E+01  0.00000000E+00
  7.10000000E+02  6.00000000E+01  0.00000000E+00
  7.10000000E+02  5.80000000E+01  0.00000000E+00
  7.10000000E+02  5.60000000E+01  0.00000000E+00
  7.10000000E+02  5.40000000E+01  0.00000000E+00
  7.10000000E+02  5.20000000E+01  0.00000000E+00
  7.10000000E+02  5.00000000E+01  0.00000000E+00
  7.10000000E+02  4.80000000E+01  0.00000000E+00
  7.10000000E+02  4.60000000E+01  0.00000000E+00
  7.10000000E+02  4.40000000E+01  0.00000000E+00
  7.10000000E+02  4.20000000E+01  0.00000000E+00
  7.10000000E+02  4.00000000E+01  0.00000000E+00
  7.10000000E+02  3.80000000E+01  0.00000000E+00
  7.10000000E+02  3.60000000E+01  0.00000000E+00
  7.10000000E+02  3.40000000E+01  0.00000000E+00
  7.10000000E+02  3.20000000E+01  0.00000000E+00
  7.10000000E+02  3.00000000E+01  0.00000000E+00
  7.10000000E+02  2.80000000E+01  0.00000000E+00
  7.10000000E+02  2.60000000E+01  0.00000000E+00
  7.10000000E+02  2.40000000E+01  0.00000000E+00
  7.10000000E+02  2.20000000E+01  0.00000000E+00
  7.10000000E+02  2.00000000E+01  0.00000000E+00
  7.10000000E+02  1.80000000E+01  0.00000000E+00
  7.10000000E+02  1.60000000E+01  0.00000000E+00
  7.10000000E+02  1.40000000E+01  0.00000000E+00
  7.10000000E+02  1.20000000E+01  0.00000000E+00
  7.10000000E+02  1.00000000E+01  0.00000000E+00
  7.10000000E+02  8.00000000E+00  0.00000000E+00
  7.10000000E+02  6.00000000E+00  0.00000000E+00
  7.10000000E+02  4.00000000E+00  0.00000000E+00
  7.10000000E+02  2.00000000E+00  0.00000000E+00
  7.10000000E+02 -3.33066907E-14  0.00000000E+00
  7.20000000E+02  1.00000000E+02  0.00000000E+00
  7.20000000E+02  9.80000000E+01  0.00000000E+00
  7.20000000E+02  9.60000000E+01  0.00000000E+00
  7.20000000E+02  9.40000000E+01  0.00000000E+00
  7.20000000E+02  9.20000000E+01  0.00000000E+00
  7.20000000E+02  9.00000000E+01  0.00000000E+00
  7.20000000E+02  8.80000000E+01  0.00000000E+00
  7.20000000E+02  8.60000000E+01  0.00000000E+00
  7.20000000E+02  8.40000000E+01  0.00000000E+00
  7.20000000E+02  8.20000000E+01  0.00000000E+00
  7.20000000E+02  8.00000000E+01  0.00000000E+00
  7.20000000E+02  7.80000000E+01  0.00000000E+00
  7.20000000E+02  7.60000000E+01  0.00000000E+00
  7.20000000E+02  7.40000000E+01  0.00000000E+00
  7.20000000E+02  7.20000000E+01  0.00000000E+00
  7.20000000E+02  7.00000000E+01  0.00000000E+00
  7.20000000E+02  6.80000000E+01  0.00000000E+00
  7.20000000E+02  6.60000000E+01  0.00000000E+00
  7.20000000E+02  6.40000000E+01  0.00000000E+00
  7.20000000E+02  6.20000000E+01  0.00000000E+00
  7.20000000E+02  6.00000000E+01  0.00000000E+00
  7.20000000E+02  5.80000000E+01  0.00000000E+00
  7.20000000E+02  5.60000000E+01  0.00000000E+00
  7.20000000E+02  5.40000000E+01  0.00000000E+00
  7.20000000E+02  5.20000000E+01  0.00000000E+00
  7.20000000E+02  5.00000000E+01  0.00000000E+00
  7.20000000E+02  4.80000000E+01  0.00000000E+00
  7.20000000E+02  4.60000000E+01  0.00000000E+00
  7.20000000E+02  4.40000000E+01  0.00000000E+00
  7.20000000E+02  4.20000000E+01  0.00000000E+00
  7.20000000E+02  4.00000000E+01  0.00000000E+00
  7.20000000E+02  3.80000000E+01  0.00000000E+00
  7.20000000E+02  3.60000000E+01  0.00000000E+00
  7.20000000E+02  3.40000000E+01  0.00000000E+00
  7.20000000E+02  3.20000000E+01  0.00000000E+00
  7.20000000E+02  3.00000000E+01  0.00000000E+00
  7.20000000E+02  2.80000000E+01  0.00000000E+00
  7.20000000E+02  2.60000000E+01  0.00000000E+00
  7.20000000E+02  2.40000000E+01  0.00000000E+00
  7.20000000E+02  2.20000000E+01  0.00000000E+00
  7.20000000E+02  2.00000000E+01  0.00000000E+00
  7.20000000E+02  1.80000000E+01  0.00000000E+00
  7.20000000E+02  1.60000000E+01  0.00000000E+00
  7.20000000E+02  1.40000000E+01  0.00000000E+00
  7.20000000E+02  1.20000000E+01  0.00000000E+00
  7.20000000E+02  1.00000000E+01  0.00000000E+00
  7.20000000E+02  8.00000000E+00  0.00000000E+00
  7.20000000E+02  6.00000000E+00  0.00000000E+00
  7.20000000E+02  4.00000000E+00  0.00000000E+00
  7.20000000E+02  2.00000000E+00  0.00000000E+00
  7.20000000E+02 -3.33066907E-14  0.00000000E+00
  7.30000000E+02  1.00000000E+02  0.00000000E+00
  7.30000000E+02  9.80000000E+01  0.00000000E+00
  7.30000000E+02  9.60000000E+01  0.00000000E+00
  7.30000000E+02  9.40000000E+01  0.00000000E+00
  7.30000000E+02  9.20000000E+01  0.00000000E+00
  7.30000000E+02  9.00000000E+01  0.00000000E+00
  7.30000000E+02  8.80000000E+01  0.00000000E+00
  7.30000000E+02  8.60000000E+01  0.00000000E+00
  7.30000000E+02  8.40000000E+01  0.00000000E+00
  7.30000000E+02  8.20000000E+01  0.00000000E+00
  7.30000000E+02  8.00000000E+01  0.00000000E+00
  7.30000000E+02  7.80000000E+01  0.00000000E+00
  7.30000000E+02  7.60000000E+01  0.00000000E+00
  7.30000000E+02  7.40000000E+01  0.00000000E+00
  7.30000000E+02  7.20000000E+01  0.00000000E+00
  7.30000000E+02  7.00000000E+01  0.00000000E+00
  7.30000000E+02  6.80000000E+01  0.00000000E+00
  7.30000000E+02  6.60000000E+01  0.00000000E+00
  7.30000000E+02  6.40000000E+01  0.00000000E+00
  7.30000000E+02  6.20000000E+01  0.00000000E+00
  7.30000000E+02  6.00000000E+01  0.00000000E+00
  7.30000000E+02  5.80000000E+01  0.00000000E+00
  7.30000000E+02  5.60000000E+01  0.00000000E+00
  7.30000000E+02  5.40000000E+01  0.00000000E+00
  7.30000000E+02  5.20000000E+01  0.00000000E+00
  7.30000000E+02  5.00000000E+01  0.00000000E+00
  7.30000000E+02  4.80000000E+01  0.00000000E+00
  7.30000000E+02  4.60000000E+01  0.00000000E+00
  7.30000000E+02  4.40000000E+01  0.00000000E+00
  7.30000000E+02  4.20000000E+01  0.00000000E+00
  7.30000000E+02  4.00000000E+01  0.00000000E+00
  7.30000000E+02  3.80000000E+01  0.00000000E+00
  7.30000000E+02  3.60000000E+01  0.00000000E+00
  7.30000000E+02  3.40000000E+01  0.00000000E+00
  7.30000000E+02  3.20000000E+01  0.00000000E+00
  7.30000000E+02  3.00000000E+01  0.00000000E+00
  7.30000000E+02  2.80000000E+01  0.00000000E+00
  7.30000000E+02  2.60000000E+01  0.00000000E+00
  7.30000000E+02  2.40000000E+01  0.00000000E+00
  7.30000000E+02  2.20000000E+01  0.00000000E+00
  7.30000000E+02  2.00000000E+01  0.00000000E+00
  7.30000000E+02  1.80000000E+01  0.00000000E+00
  7.30000000E+02  1.60000000E+01  0.00000000E+00
  7.30000000E+02  1.40000000E+01  0.00000000E+00
  7.30000000E+02  1.20000000E+01  0.00000000E+00
  7.30000000E+02  1.00000000E+01  0.00000000E+00
  7.30000000E+02  8.00000000E+00  0.00000000E+00
  7.30000000E+02  6.00000000E+00  0.00000000E+00
  7.30000000E+02  4.00000000E+00  0.00000000E+00
  7.30000000E+02  2.00000000E+00  0.00000000E+00
  7.30000000E+02 -3.33066907E-14  0.00000000E+00
  7.40000000E+02  1.00000000E+02  0.00000000E+00
  7.40000000E+02  9.80000000E+01  0.00000000E+00
  7.40000000E+02  9.60000000E+01  0.00000000E+00
  7.40000000E+02  9.40000000E+01  0.00000000E+00
  7.40000000E+02  9.20000000E+01  0.00000000E+00
  7.40000000E+02  9.00000000E+01  0.00000000E+00
  7.40000000E+02  8.80000000E+01  0.00000000E+00
  7.40000000E+02  8.60000000E+01  0.00000000E+00
  7.40000000E+02  8.40000000E+01  0.00000000E+00
  7.40000000E+02  8.20000000E+01  0.00000000E+00
  7.40000000E+02  8.00000000E+01  0.00000000E+00
  7.40000000E+02  7.80000000E+01  0.00000000E+00
  7.40000000E+02  7.60000000E+01  0.00000000E+00
  7.40000000E+02  7.40000000E+01  0.00000000E+00
  7.40000000E+02  7.20000000E+01  0.00000000E+00
  7.40000000E+02  7.00000000E+01  0.00000000E+00
  7.40000000E+02  6.80000000E+01  0.00000000E+00
  7.40000000E+02  6.60000000E+01  0.00000000E+00
  7.40000000E+02  6.40000000E+01  0.00000000E+00
  7.40000000E+02  6.20000000E+01  0.00000000E+00
  7.40000000E+02  6.00000000E+01  0.00000000E+00
  7.40000000E+02  5.80000000E+01  0.00000000E+00
  7.40000000E+02  5.60000000E+01  0.00000000E+00
  7.40000000E+02  5.40000000E+01  0.00000000E+00
  7.40000000E+02  5.20000000E+01  0.00000000E+00
  7.40000000E+02  5.00000000E+01  0.00000000E+00
  7.40000000E+02  4.80000000E+01  0.00000000E+00
  7.40000000E+02  4.60000000E+01  0.00000000E+00
  7.40000000E+02  4.40000000E+01  0.00000000E+00
  7.40000000E+02  4.20000000E+01  0.00000000E+00
  7.40000000E+02  4.00000000E+01  0.00000000E+00
  7.40000000E+02  3.80000000E+01  0.00000000E+00
  7.40000000E+02  3.60000000E+01  0.00000000E+00
  7.40000000E+02  3.40000000E+01  0.00000000E+00
  7.40000000E+02  3.20000000E+01  0.00000000E+00
  7.40000000E+02  3.00000000E+01  0.00000000E+00
  7.40000000E+02  2.80000000E+01  0.00000000E+00
  7.40000000E+02  2.60000000E+01  0.00000000E+00
  7.40000000E+02  2.40000000E+01  0.00000000E+00
  7.40000000E+02  2.20000000E+01  0.00000000E+00
  7.40000000E+02  2.00000000E+01  0.00000000E+00
  7.40000000E+02  1.80000000E+01  0.00000000E+00
  7.40000000E+02  1.60000000E+01  0.00000000E+00
  7.40000000E+02  1.40000000E+01  0.00000000E+00
  7.40000000E+02  1.20000000E+01  0.00000000E+00
  7.40000000E+02  1.00000000E+01  0.00000000E+00
  7.40000000E+02  8.00000000E+00  0.00000000E+00
  7.40000000E+02  6.00000000E+00  0.00000000E+00
  7.40000000E+02  4.00000000E+00  0.00000000E+00
  7.40000000E+02  2.00000000E+00  0.00000000E+00
  7.40000000E+02 -3.33066907E-14  0.00000000E+00
  7.50000000E+02  1.00000000E+02  0.00000000E+00
  7.50000000E+02  9.80000000E+01  0.00000000E+00
  7.50000000E+02  9.60000000E+01  0.00000000E+00
  7.50000000E+02  9.40000000E+01  0.00000000E+00
  7.50000000E+02  9.20000000E+01  0.00000000E+00
  7.50000000E+02  9.00000000E+01  0.00000000E+00
  7.50000000E+02  8.80000000E+01  0.00000000E+00
  7.50000000E+02  8.60000000E+01  0.00000000E+00
  7.50000000E+02  8.40000000E+01  0.00000000E+00
  7.50000000E+02  8.20000000E+01  0.00000000E+00
  7.50000000E+02  8.00000000E+01  0.00000000E+00
  7.50000000E+02  7.80000000E+01  0.00000000E+00
  7.50000000E+02  7.60000000E+01  0.00000000E+00
  7.50000000E+02  7.40000000E+01  0.00000000E+00
  7.50000000E+02  7.20000000E+01  0.00000000E+00
  7.50000000E+02  7.00000000E+01  0.00000000E+00
  7.50000000E+02  6.80000000E+01  0.00000000E+00
  7.50000000E+02  6.60000000E+01  0.00000000E+00
  7.50000000E+02  6.40000000E+01  0.00000000E+00
  7.50000000E+02  6.20000000E+01  0.00000000E+00
  7.50000000E+02  6.00000000E+01  0.00000000E+00
  7.50000000E+02  5.80000000E+01  0.00000000E+00
  7.50000000E+02  5.60000000E+01  0.00000000E+00
  7.50000000E+02  5.40000000E+01  0.00000000E+00
  7.50000000E+02  5.20000000E+01  0.00000000E+00
  7.50000000E+02  5.00000000E+01  0.00000000E+00
  7.50000000E+02  4.80000000E+01  0.00000000E+00
  7.50000000E+02  4.60000000E+01  0.00000000E+00
  7.50000000E+02  4.40000000E+01  0.00000000E+00
  7.50000000E+02  4.20000000E+01  0.00000000E+00
  7.50000000E+02  4.00000000E+01  0.00000000E+00
  7.50000000E+02  3.80000000E+01  0.00000000E+00
  7.50000000E+02  3.60000000E+01  0.00000000E+00
  7.50000000E+02  3.40000000E+01  0.00000000E+00
  7.50000000E+02  3.20000000E+01  0.00000000E+00
  7.50000000E+02  3.00000000E+01  0.00000000E+00
  7.50000000E+02  2.80000000E+01  0.00000000E+00
  7.50000000E+02  2.60000000E+01  0.00000000E+00
  7.50000000E+02  2.40000000E+01  0.00000000E+00
  7.50000000E+02  2.20000000E+01  0.00000000E+00
  7.50000000E+02  2.00000000E+01  0.00000000E+00
  7.50000000E+02  1.80000000E+01  0.00000000E+00
  7.50000000E+02  1.60000000E+01  0.00000000E+00
  7.50000000E+02  1.40000000E+01  0.00000000E+00
  7.50000000E+02  1.20000000E+01  0.00000000E+00
  7.50000000E+02  1.00000000E+01  0.00000000E+00
  7.50000000E+02  8.00000000E+00  0.00000000E+00
  7.50000000E+02  6.00000000E+00  0.00000000E+00
  7.50000000E+02  4.00000000E+00  0.00000000E+00
  7.50000000E+02  2.00000000E+00  0.00000000E+00
  7.50000000E+02 -3.33066907E-14  0.00000000E+00
  7.60000000E+02  1.00000000E+02  0.00000000E+00
  7.60000000E+02  9.80000000E+01  0.00000000E+00
  7.60000000E+02  9.60000000E+01  0.00000000E+00
  7.60000000E+02  9.40000000E+01  0.00000000E+00
  7.60000000E+02  9.20000000E+01  0.00000000E+00
  7.60000000E+02  9.00000000E+01  0.00000000E+00
  7.60000000E+02  8.80000000E+01  0.00000000E+00
  7.60000000E+02  8.60000000E+01  0.00000000E+00
  7.60000000E+02  8.40000000E+01  0.00000000E+00
  7.60000000E+02  8.20000000E+01  0.00000000E+00
  7.60000000E+02  8.00000000E+01  0.00000000E+00
  7.60000000E+02  7.80000000E+01  0.00000000E+00
  7.60000000E+02  7.60000000E+01  0.00000000E+00
  7.60000000E+02  7.40000000E+01  0.00000000E+00
  7.60000000E+02  7.20000000E+01  0.00000000E+00
  7.60000000E+02  7.00000000E+01  0.00000000E+00
  7.60000000E+02  6.80000000E+01  0.00000000E+00
  7.60000000E+02  6.60000000E+01  0.00000000E+00
  7.60000000E+02  6.40000000E+01  0.00000000E+00
  7.60000000E+02  6.20000000E+01  0.00000000E+00
  7.60000000E+02  6.00000000E+01  0.00000000E+00
  7.60000000E+02  5.80000000E+01  0.00000000E+00
  7.60000000E+02  5.60000000E+01  0.00000000E+00
  7.60000000E+02  5.40000000E+01  0.00000000E+00
  7.60000000E+02  5.20000000E+01  0.00000000E+00
  7.60000000E+02  5.00000000E+01  0.00000000E+00
  7.60000000E+02  4.80000000E+01  0.00000000E+00
  7.60000000E+02  4.60000000E+01  0.00000000E+00
  7.60000000E+02  4.40000000E+01  0.00000000E+00
  7.60000000E+02  4.20000000E+01  0.00000000E+00
  7.60000000E+02  4.00000000E+01  0.00000000E+00
  7.60000000E+02  3.80000000E+01  0.00000000E+00
  7.60000000E+02  3.60000000E+01  0.00000000E+00
  7.60000000E+02  3.40000000E+01  0.00000000E+00
  7.60000000E+02  3.20000000E+01  0.00000000E+00
  7.60000000E+02  3.00000000E+01  0.00000000E+00
  7.60000000E+02  2.80000000E+01  0.00000000E+00
  7.60000000E+02  2.60000000E+01  0.00000000E+00
  7.60000000E+02  2.40000000E+01  0.00000000E+00
  7.60000000E+02  2.20000000E+01  0.00000000E+00
  7.60000000E+02  2.00000000E+01  0.00000000E+00
  7.60000000E+02  1.80000000E+01  0.00000000E+00
  7.60000000E+02  1.60000000E+01  0.00000000E+00
  7.60000000E+02  1.40000000E+01  0.00000000E+00
  7.60000000E+02  1.20000000E+01  0.00000000E+00
  7.60000000E+02  1.00000000E+01  0.00000000E+00
  7.60000000E+02  8.00000000E+00  0.00000000E+00
  7.60000000E+02  6.00000000E+00  0.00000000E+00
  7.60000000E+02  4.00000000E+00  0.00000000E+00
  7.60000000E+02  2.00000000E+00  0.00000000E+00
  7.60000000E+02 -3.33066907E-14  0.00000000E+00
  7.70000000E+02  1.00000000E+02  0.00000000E+00
  7.70000000E+02  9.80000000E+01  0.00000000E+00
  7.70000000E+02  9.60000000E+01  0.00000000E+00
  7.70000000E+02  9.40000000E+01  0.00000000E+00
  7.70000000E+02  9.20000000E+01  0.00000000E+00
  7.70000000E+02  9.00000000E+01  0.00000000E+00
  7.70000000E+02  8.80000000E+01  0.00000000E+00
  7.70000000E+02  8.60000000E+01  0.00000000E+00
  7.70000000E+02  8.40000000E+01  0.00000000E+00
  7.70000000E+02  8.20000000E+01  0.00000000E+00
  7.70000000E+02  8.00000000E+01  0.00000000E+00
  7.70000000E+02  7.80000000E+01  0.00000000E+00
  7.70000000E+02  7.60000000E+01  0.00000000E+00
  7.70000000E+02  7.40000000E+01  0.00000000E+00
  7.70000000E+02  7.20000000E+01  0.00000000E+00
  7.70000000E+02  7.00000000E+01  0.00000000E+00
  7.70000000E+02  6.80000000E+01  0.00000000E+00
  7.70000000E+02  6.60000000E+01  0.00000000E+00
  7.70000000E+02  6.40000000E+01  0.00000000E+00
  7.70000000E+02  6.20000000E+01  0.00000000E+00
  7.70000000E+02  6.00000000E+01  0.00000000E+00
  7.70000000E+02  5.80000000E+01  0.00000000E+00
  7.70000000E+02  5.60000000E+01  0.00000000E+00
  7.70000000E+02  5.40000000E+01  0.00000000E+00
  7.70000000E+02  5.20000000E+01  0.00000000E+00
  7.70000000E+02  5.00000000E+01  0.00000000E+00
  7.70000000E+02  4.80000000E+01  0.00000000E+00
  7.70000000E+02  4.60000000E+01  0.00000000E+00
  7.70000000E+02  4.40000000E+01  0.00000000E+00
  7.70000000E+02  4.20000000E+01  0.00000000E+00
  7.70000000E+02  4.00000000E+01  0.00000000E+00
  7.70000000E+02  3.80000000E+01  0.00000000E+00
  7.70000000E+02  3.60000000E+01  0.00000000E+00
  7.70000000E+02  3.40000000E+01  0.00000000E+00
  7.70000000E+02  3.20000000E+01  0.00000000E+00
  7.70000000E+02  3.00000000E+01  0.00000000E+00
  7.70000000E+02  2.80000000E+01  0.00000000E+00
  7.70000000E+02  2.60000000E+01  0.00000000E+00
  7.70000000E+02  2.40000000E+01  0.00000000E+00
  7.70000000E+02  2.20000000E+01  0.00000000E+00
  7.70000000E+02  2.00000000E+01  0.00000000E+00
  7.70000000E+02  1.80000000E+01  0.00000000E+00
  7.70000000E+02  1.60000000E+01  0.00000000E+00
  7.70000000E+02  1.40000000E+01  0.00000000E+00
  7.70000000E+02  1.20000000E+01  0.00000000E+00
  7.70000000E+02  1.00000000E+01  0.00000000E+00
  7.70000000E+02  8.00000000E+00  0.00000000E+00
  7.70000000E+02  6.00000000E+00  0.00000000E+00
  7.70000000E+02  4.00000000E+00  0.00000000E+00
  7.70000000E+02  2.00000000E+00  0.00000000E+00
  7.70000000E+02 -3.33066907E-14  0.00000000E+00
  7.80000000E+02  1.00000000E+02  0.00000000E+00
  7.80000000E+02  9.80000000E+01  0.00000000E+00
  7.80000000E+02  9.60000000E+01  0.00000000E+00
  7.80000000E+02  9.40000000E+01  0.00000000E+00
  7.80000000E+02  9.20000000E+01  0.00000000E+00
  7.80000000E+02  9.00000000E+01  0.00000000E+00
  7.80000000E+02  8.80000000E+01  0.00000000E+00
  7.80000000E+02  8.60000000E+01  0.00000000E+00
  7.80000000E+02  8.40000000E+01  0.00000000E+00
  7.80000000E+02  8.20000000E+01  0.00000000E+00
  7.80000000E+02  8.00000000E+01  0.00000000E+00
  7.80000000E+02  7.80000000E+01  0.00000000E+00
  7.80000000E+02  7.60000000E+01  0.00000000E+00
  7.80000000E+02  7.40000000E+01  0.00000000E+00
  7.80000000E+02  7.20000000E+01  0.00000000E+00
  7.80000000E+02  7.00000000E+01  0.00000000E+00
  7.80000000E+02  6.80000000E+01  0.00000000E+00
  7.80000000E+02  6.60000000E+01  0.00000000E+00
  7.80000000E+02  6.40000000E+01  0.00000000E+00
  7.80000000E+02  6.20000000E+01  0.00000000E+00
  7.80000000E+02  6.00000000E+01  0.00000000E+00
  7.80000000E+02  5.80000000E+01  0.00000000E+00
  7.80000000E+02  5.60000000E+01  0.00000000E+00
  7.80000000E+02  5.40000000E+01  0.00000000E+00
  7.80000000E+02  5.20000000E+01  0.00000000E+00
  7.80000000E+02  5.00000000E+01  0.00000000E+00
  7.80000000E+02  4.80000000E+01  0.00000000E+00
  7.80000000E+02  4.60000000E+01  0.00000000E+00
  7.80000000E+02  4.40000000E+01  0.00000000E+00
  7.80000000E+02  4.20000000E+01  0.00000000E+00
  7.80000000E+02  4.00000000E+01  0.00000000E+00
  7.80000000E+02  3.80000000E+01  0.00000000E+00
  7.80000000E+02  3.60000000E+01  0.00000000E+00
  7.80000000E+02  3.40000000E+01  0.00000000E+00
  7.80000000E+02  3.20000000E+01  0.00000000E+00
  7.80000000E+02  3.00000000E+01  0.00000000E+00
  7.80000000E+02  2.80000000E+01  0.00000000E+00
  7.80000000E+02  2.60000000E+01  0.00000000E+00
  7.80000000E+02  2.40000000E+01  0.00000000E+00
  7.80000000E+02  2.20000000E+01  0.00000000E+00
  7.80000000E+02  2.00000000E+01  0.00000000E+00
  7.80000000E+02  1.80000000E+01  0.00000000E+00
  7.80000000E+02  1.60000000E+01  0.00000000E+00
  7.80000000E+02  1.40000000E+01  0.00000000E+00
  7.80000000E+02  1.20000000E+01  0.00000000E+00
  7.80000000E+02  1.00000000E+01  0.00000000E+00
  7.80000000E+02  8.00000000E+00  0.00000000E+00
  7.80000000E+02  6.00000000E+00  0.00000000E+00
  7.80000000E+02  4.00000000E+00  0.00000000E+00
  7.80000000E+02  2.00000000E+00  0.00000000E+00
  7.80000000E+02 -3.33066907E-14  0.00000000E+00
  7.90000000E+02  1.00000000E+02  0.00000000E+00
  7.90000000E+02  9.80000000E+01  0.00000000E+00
  7.90000000E+02  9.60000000E+01  0.00000000E+00
  7.90000000E+02  9.40000000E+01  0.00000000E+00
  7.90000000E+02  9.20000000E+01  0.00000000E+00
  7.90000000E+02  9.00000000E+01  0.00000000E+00
  7.90000000E+02  8.80000000E+01  0.00000000E+00
  7.90000000E+02  8.60000000E+01  0.00000000E+00
  7.90000000E+02  8.40000000E+01  0.00000000E+00
  7.90000000E+02  8.20000000E+01  0.00000000E+00
  7.90000000E+02  8.00000000E+01  0.00000000E+00
  7.90000000E+02  7.80000000E+01  0.00000000E+00
  7.90000000E+02  7.60000000E+01  0.00000000E+00
  7.90000000E+02  7.40000000E+01  0.00000000E+00
  7.90000000E+02  7.20000000E+01  0.00000000E+00
  7.90000000E+02  7.00000000E+01  0.00000000E+00
  7.90000000E+02  6.80000000E+01  0.00000000E+00
  7.90000000E+02  6.60000000E+01  0.00000000E+00
  7.90000000E+02  6.40000000E+01  0.00000000E+00
  7.90000000E+02  6.20000000E+01  0.00000000E+00
  7.90000000E+02  6.00000000E+01  0.00000000E+00
  7.90000000E+02  5.80000000E+01  0.00000000E+00
  7.90000000E+02  5.60000000E+01  0.00000000E+00
  7.90000000E+02  5.40000000E+01  0.00000000E+00
  7.90000000E+02  5.20000000E+01  0.00000000E+00
  7.90000000E+02  5.00000000E+01  0.00000000E+00
  7.90000000E+02  4.80000000E+01  0.00000000E+00
  7.90000000E+02  4.60000000E+01  0.00000000E+00
  7.90000000E+02  4.40000000E+01  0.00000000E+00
  7.90000000E+02  4.20000000E+01  0.00000000E+00
  7.90000000E+02  4.00000000E+01  0.00000000E+00
  7.90000000E+02  3.80000000E+01  0.00000000E+00
  7.90000000E+02  3.60000000E+01  0.00000000E+00
  7.90000000E+02  3.40000000E+01  0.00000000E+00
  7.90000000E+02  3.20000000E+01  0.00000000E+00
  7.90000000E+02  3.00000000E+01  0.00000000E+00
  7.90000000E+02  2.80000000E+01  0.00000000E+00
  7.90000000E+02  2.60000000E+01  0.00000000E+00
  7.90000000E+02  2.40000000E+01  0.00000000E+00
  7.90000000E+02  2.20000000E+01  0.00000000E+00
  7.90000000E+02  2.00000000E+01  0.00000000E+00
  7.90000000E+02  1.80000000E+01  0.00000000E+00
  7.90000000E+02  1.60000000E+01  0.00000000E+00
  7.90000000E+02  1.40000000E+01  0.00000000E+00
  7.90000000E+02  1.20000000E+01  0.00000000E+00
  7.90000000E+02  1.00000000E+01  0.00000000E+00
  7.90000000E+02  8.00000000E+00  0.00000000E+00
  7.90000000E+02  6.00000000E+00  0.00000000E+00
  7.90000000E+02  4.00000000E+00  0.00000000E+00
  7.90000000E+02  2.00000000E+00  0.00000000E+00
  7.90000000E+02 -3.33066907E-14  0.00000000E+00
  8.00000000E+02  1.00000000E+02  0.00000000E+00
  8.00000000E+02  9.80000000E+01  0.00000000E+00
  8.00000000E+02  9.60000000E+01  0.00000000E+00
  8.00000000E+02  9.40000000E+01  0.00000000E+00
  8.00000000E+02  9.20000000E+01  0.00000000E+00
  8.00000000E+02  9.00000000E+01  0.00000000E+00
  8.00000000E+02  8.80000000E+01  0.00000000E+00
  8.00000000E+02  8.60000000E+01  0.00000000E+00
  8.00000000E+02  8.40000000E+01  0.00000000E+00
  8.00000000E+02  8.20000000E+01  0.00000000E+00
  8.00000000E+02  8.00000000E+01  0.00000000E+00
  8.00000000E+02  7.80000000E+01  0.00000000E+00
  8.00000000E+02  7.60000000E+01  0.00000000E+00
  8.00000000E+02  7.40000000E+01  0.00000000E+00
  8.00000000E+02  7.20000000E+01  0.00000000E+00
  8.00000000E+02  7.00000000E+01  0.00000000E+00
  8.00000000E+02  6.80000000E+01  0.00000000E+00
  8.00000000E+02  6.60000000E+01  0.00000000E+00
  8.00000000E+02  6.40000000E+01  0.00000000E+00
  8.00000000E+02  6.20000000E+01  0.00000000E+00
  8.00000000E+02  6.00000000E+01  0.00000000E+00
  8.00000000E+02  5.80000000E+01  0.00000000E+00
  8.00000000E+02  5.60000000E+01  0.00000000E+00
  8.00000000E+02  5.40000000E+01  0.00000000E+00
  8.00000000E+02  5.20000000E+01  0.00000000E+00
  8.00000000E+02  5.00000000E+01  0.00000000E+00
  8.00000000E+02  4.80000000E+01  0.00000000E+00
  8.00000000E+02  4.60000000E+01  0.00000000E+00
  8.00000000E+02  4.40000000E+01  0.00000000E+00
  8.00000000E+02  4.20000000E+01  0.00000000E+00
  8.00000000E+02  4.00000000E+01  0.00000000E+00
  8.00000000E+02  3.80000000E+01  0.00000000E+00
  8.00000000E+02  3.60000000E+01  0.00000000E+00
  8.00000000E+02  3.40000000E+01  0.00000000E+00
  8.00000000E+02  3.20000000E+01  0.00000000E+00
  8.00000000E+02  3.00000000E+01  0.00000000E+00
  8.00000000E+02  2.80000000E+01  0.00000000E+00
  8.00000000E+02  2.60000000E+01  0.00000000E+00
  8.00000000E+02  2.40000000E+01  0.00000000E+00
  8.00000000E+02  2.20000000E+01  0.00000000E+00
  8.00000000E+02  2.00000000E+01  0.00000000E+00
  8.00000000E+02  1.80000000E+01  0.00000000E+00
  8.00000000E+02  1.60000000E+01  0.00000000E+00
  8.00000000E+02  1.40000000E+01  0.00000000E+00
  8.00000000E+02  1.20000000E+01  0.00000000E+00
  8.00000000E+02  1.00000000E+01  0.00000000E+00
  8.00000000E+02  8.00000000E+00  0.00000000E+00
  8.00000000E+02  6.00000000E+00  0.00000000E+00
  8.00000000E+02  4.00000000E+00  0.00000000E+00
  8.00000000E+02  2.00000000E+00  0.00000000E+00
  8.00000000E+02 -3.33066907E-14  0.00000000E+00
  8.10000000E+02  1.00000000E+02  0.00000000E+00
  8.10000000E+02  9.80000000E+01  0.00000000E+00
  8.10000000E+02  9.60000000E+01  0.00000000E+00
  8.10000000E+02  9.40000000E+01  0.00000000E+00
  8.10000000E+02  9.20000000E+01  0.00000000E+00
  8.10000000E+02  9.00000000E+01  0.00000000E+00
  8.10000000E+02  8.80000000E+01  0.00000000E+00
  8.10000000E+02  8.60000000E+01  0.00000000E+00
  8.10000000E+02  8.40000000E+01  0.00000000E+00
  8.10000000E+02  8.20000000E+01  0.00000000E+00
  8.10000000E+02  8.00000000E+01  0.00000000E+00
  8.10000000E+02  7.80000000E+01  0.00000000E+00
  8.10000000E+02  7.60000000E+01  0.00000000E+00
  8.10000000E+02  7.40000000E+01  0.00000000E+00
  8.10000000E+02  7.20000000E+01  0.00000000E+00
  8.10000000E+02  7.00000000E+01  0.00000000E+00
  8.10000000E+02  6.80000000E+01  0.00000000E+00
  8.10000000E+02  6.60000000E+01  0.00000000E+00
  8.10000000E+02  6.40000000E+01  0.00000000E+00
  8.10000000E+02  6.20000000E+01  0.00000000E+00
  8.10000000E+02  6.00000000E+01  0.00000000E+00
  8.10000000E+02  5.80000000E+01  0.00000000E+00
  8.10000000E+02  5.60000000E+01  0.00000000E+00
  8.10000000E+02  5.40000000E+01  0.00000000E+00
  8.10000000E+02  5.20000000E+01  0.00000000E+00
  8.10000000E+02  5.00000000E+01  0.00000000E+00
  8.10000000E+02  4.80000000E+01  0.00000000E+00
  8.10000000E+02  4.60000000E+01  0.00000000E+00
  8.10000000E+02  4.40000000E+01  0.00000000E+00
  8.10000000E+02  4.20000000E+01  0.00000000E+00
  8.10000000E+02  4.00000000E+01  0.00000000E+00
  8.10000000E+02  3.80000000E+01  0.00000000E+00
  8.10000000E+02  3.60000000E+01  0.00000000E+00
  8.10000000E+02  3.40000000E+01  0.00000000E+00
  8.10000000E+02  3.20000000E+01  0.00000000E+00
  8.10000000E+02  3.00000000E+01  0.00000000E+00
  8.10000000E+02  2.80000000E+01  0.00000000E+00
  8.10000000E+02  2.60000000E+01  0.00000000E+00
  8.10000000E+02  2.40000000E+01  0.00000000E+00
  8.10000000E+02  2.20000000E+01  0.00000000E+00
  8.10000000E+02  2.00000000E+01  0.00000000E+00
  8.10000000E+02  1.80000000E+01  0.00000000E+00
  8.10000000E+02  1.60000000E+01  0.00000000E+00
  8.10000000E+02  1.40000000E+01  0.00000000E+00
  8.10000000E+02  1.20000000E+01  0.00000000E+00
  8.10000000E+02  1.00000000E+01  0.00000000E+00
  8.10000000E+02  8.00000000E+00  0.00000000E+00
  8.10000000E+02  6.00000000E+00  0.00000000E+00
  8.10000000E+02  4.00000000E+00  0.00000000E+00
  8.10000000E+02  2.00000000E+00  0.00000000E+00
  8.10000000E+02 -3.33066907E-14  0.00000000E+00
  8.20000000E+02  1.00000000E+02  0.00000000E+00
  8.20000000E+02  9.80000000E+01  0.00000000E+00
  8.20000000E+02  9.60000000E+01  0.00000000E+00
  8.20000000E+02  9.40000000E+01  0.00000000E+00
  8.20000000E+02  9.20000000E+01  0.00000000E+00
  8.20000000E+02  9.00000000E+01  0.00000000E+00
  8.20000000E+02  8.80000000E+01  0.00000000E+00
  8.20000000E+02  8.60000000E+01  0.00000000E+00
  8.20000000E+02  8.40000000E+01  0.00000000E+00
  8.20000000E+02  8.20000000E+01  0.00000000E+00
  8.20000000E+02  8.00000000E+01  0.00000000E+00
  8.20000000E+02  7.80000000E+01  0.00000000E+00
  8.20000000E+02  7.60000000E+01  0.00000000E+00
  8.20000000E+02  7.40000000E+01  0.00000000E+00
  8.20000000E+02  7.20000000E+01  0.00000000E+00
  8.20000000E+02  7.00000000E+01  0.00000000E+00
  8.20000000E+02  6.80000000E+01  0.00000000E+00
  8.20000000E+02  6.60000000E+01  0.00000000E+00
  8.20000000E+02  6.40000000E+01  0.00000000E+00
  8.20000000E+02  6.20000000E+01  0.00000000E+00
  8.20000000E+02  6.00000000E+01  0.00000000E+00
  8.20000000E+02  5.80000000E+01  0.00000000E+00
  8.20000000E+02  5.60000000E+01  0.00000000E+00
  8.20000000E+02  5.40000000E+01  0.00000000E+00
  8.20000000E+02  5.20000000E+01  0.00000000E+00
  8.20000000E+02  5.00000000E+01  0.00000000E+00
  8.20000000E+02  4.80000000E+01  0.00000000E+00
  8.20000000E+02  4.60000000E+01  0.00000000E+00
  8.20000000E+02  4.40000000E+01  0.00000000E+00
  8.20000000E+02  4.20000000E+01  0.00000000E+00
  8.20000000E+02  4.00000000E+01  0.00000000E+00
  8.20000000E+02  3.80000000E+01  0.00000000E+00
  8.20000000E+02  3.60000000E+01  0.00000000E+00
  8.20000000E+02  3.40000000E+01  0.00000000E+00
  8.20000000E+02  3.20000000E+01  0.00000000E+00
  8.20000000E+02  3.00000000E+01  0.00000000E+00
  8.20000000E+02  2.80000000E+01  0.00000000E+00
  8.20000000E+02  2.60000000E+01  0.00000000E+00
  8.20000000E+02  2.40000000E+01  0.00000000E+00
  8.20000000E+02  2.20000000E+01  0.00000000E+00
  8.20000000E+02  2.00000000E+01  0.00000000E+00
  8.20000000E+02  1.80000000E+01  0.00000000E+00
  8.20000000E+02  1.60000000E+01  0.00000000E+00
  8.20000000E+02  1.40000000E+01  0.00000000E+00
  8.20000000E+02  1.20000000E+01  0.00000000E+00
  8.20000000E+02  1.00000000E+01  0.00000000E+00
  8.20000000E+02  8.00000000E+00  0.00000000E+00
  8.20000000E+02  6.00000000E+00  0.00000000E+00
  8.20000000E+02  4.00000000E+00  0.00000000E+00
  8.20000000E+02  2.00000000E+00  0.00000000E+00
  8.20000000E+02 -3.33066907E-14  0.00000000E+00
  8.30000000E+02  1.00000000E+02  0.00000000E+00
  8.30000000E+02  9.80000000E+01  0.00000000E+00
  8.30000000E+02  9.60000000E+01  0.00000000E+00
  8.30000000E+02  9.40000000E+01  0.00000000E+00
  8.30000000E+02  9.20000000E+01  0.00000000E+00
  8.30000000E+02  9.00000000E+01  0.00000000E+00
  8.30000000E+02  8.80000000E+01  0.00000000E+00
  8.30000000E+02  8.60000000E+01  0.00000000E+00
  8.30000000E+02  8.40000000E+01  0.00000000E+00
  8.30000000E+02  8.20000000E+01  0.00000000E+00
  8.30000000E+02  8.00000000E+01  0.00000000E+00
  8.30000000E+02  7.80000000E+01  0.00000000E+00
  8.30000000E+02  7.60000000E+01  0.00000000E+00
  8.30000000E+02  7.40000000E+01  0.00000000E+00
  8.30000000E+02  7.20000000E+01  0.00000000E+00
  8.30000000E+02  7.00000000E+01  0.00000000E+00
  8.30000000E+02  6.80000000E+01  0.00000000E+00
  8.30000000E+02  6.60000000E+01  0.00000000E+00
  8.30000000E+02  6.40000000E+01  0.00000000E+00
  8.30000000E+02  6.20000000E+01  0.00000000E+00
  8.30000000E+02  6.00000000E+01  0.00000000E+00
  8.30000000E+02  5.80000000E+01  0.00000000E+00
  8.30000000E+02  5.60000000E+01  0.00000000E+00
  8.30000000E+02  5.40000000E+01  0.00000000E+00
  8.30000000E+02  5.20000000E+01  0.00000000E+00
  8.30000000E+02  5.00000000E+01  0.00000000E+00
  8.30000000E+02  4.80000000E+01  0.00000000E+00
  8.30000000E+02  4.60000000E+01  0.00000000E+00
  8.30000000E+02  4.40000000E+01  0.00000000E+00
  8.30000000E+02  4.20000000E+01  0.00000000E+00
  8.30000000E+02  4.00000000E+01  0.00000000E+00
  8.30000000E+02  3.80000000E+01  0.00000000E+00
  8.30000000E+02  3.60000000E+01  0.00000000E+00
  8.30000000E+02  3.40000000E+01  0.00000000E+00
  8.30000000E+02  3.20000000E+01  0.00000000E+00
  8.30000000E+02  3.00000000E+01  0.00000000E+00
  8.30000000E+02  2.80000000E+01  0.00000000E+00
  8.30000000E+02  2.60000000E+01  0.00000000E+00
  8.30000000E+02  2.40000000E+01  0.00000000E+00
  8.30000000E+02  2.20000000E+01  0.00000000E+00
  8.30000000E+02  2.00000000E+01  0.00000000E+00
  8.30000000E+02  1.80000000E+01  0.00000000E+00
  8.30000000E+02  1.60000000E+01  0.00000000E+00
  8.30000000E+02  1.40000000E+01  0.00000000E+00
  8.30000000E+02  1.20000000E+01  0.00000000E+00
  8.30000000E+02  1.00000000E+01  0.00000000E+00
  8.30000000E+02  8.00000000E+00  0.00000000E+00
  8.30000000E+02  6.00000000E+00  0.00000000E+00
  8.30000000E+02  4.00000000E+00  0.00000000E+00
  8.30000000E+02  2.00000000E+00  0.00000000E+00
  8.30000000E+02 -3.33066907E-14  0.00000000E+00
  8.40000000E+02  1.00000000E+02  0.00000000E+00
  8.40000000E+02  9.80000000E+01  0.00000000E+00
  8.40000000E+02  9.60000000E+01  0.00000000E+00
  8.40000000E+02  9.40000000E+01  0.00000000E+00
  8.40000000E+02  9.20000000E+01  0.00000000E+00
  8.40000000E+02  9.00000000E+01  0.00000000E+00
  8.40000000E+02  8.80000000E+01  0.00000000E+00
  8.40000000E+02  8.60000000E+01  0.00000000E+00
  8.40000000E+02  8.40000000E+01  0.00000000E+00
  8.40000000E+02  8.20000000E+01  0.00000000E+00
  8.40000000E+02  8.00000000E+01  0.00000000E+00
  8.40000000E+02  7.80000000E+01  0.00000000E+00
  8.40000000E+02  7.60000000E+01  0.00000000E+00
  8.40000000E+02  7.40000000E+01  0.00000000E+00
  8.40000000E+02  7.20000000E+01  0.00000000E+00
  8.40000000E+02  7.00000000E+01  0.00000000E+00
  8.40000000E+02  6.80000000E+01  0.00000000E+00
  8.40000000E+02  6.60000000E+01  0.00000000E+00
  8.40000000E+02  6.40000000E+01  0.00000000E+00
  8.40000000E+02  6.20000000E+01  0.00000000E+00
  8.40000000E+02  6.00000000E+01  0.00000000E+00
  8.40000000E+02  5.80000000E+01  0.00000000E+00
  8.40000000E+02  5.60000000E+01  0.00000000E+00
  8.40000000E+02  5.40000000E+01  0.00000000E+00
  8.40000000E+02  5.20000000E+01  0.00000000E+00
  8.40000000E+02  5.00000000E+01  0.00000000E+00
  8.40000000E+02  4.80000000E+01  0.00000000E+00
  8.40000000E+02  4.60000000E+01  0.00000000E+00
  8.40000000E+02  4.40000000E+01  0.00000000E+00
  8.40000000E+02  4.20000000E+01  0.00000000E+00
  8.40000000E+02  4.00000000E+01  0.00000000E+00
  8.40000000E+02  3.80000000E+01  0.00000000E+00
  8.40000000E+02  3.60000000E+01  0.00000000E+00
  8.40000000E+02  3.40000000E+01  0.00000000E+00
  8.40000000E+02  3.20000000E+01  0.00000000E+00
  8.40000000E+02  3.00000000E+01  0.00000000E+00
  8.40000000E+02  2.80000000E+01  0.00000000E+00
  8.40000000E+02  2.60000000E+01  0.00000000E+00
  8.40000000E+02  2.40000000E+01  0.00000000E+00
  8.40000000E+02  2.20000000E+01  0.00000000E+00
  8.40000000E+02  2.00000000E+01  0.00000000E+00
  8.40000000E+02  1.80000000E+01  0.00000000E+00
  8.40000000E+02  1.60000000E+01  0.00000000E+00
  8.40000000E+02  1.40000000E+01  0.00000000E+00
  8.40000000E+02  1.20000000E+01  0.00000000E+00
  8.40000000E+02  1.00000000E+01  0.00000000E+00
  8.40000000E+02  8.00000000E+00  0.00000000E+00
  8.40000000E+02  6.00000000E+00  0.00000000E+00
  8.40000000E+02  4.00000000E+00  0.00000000E+00
  8.40000000E+02  2.00000000E+00  0.00000000E+00
  8.40000000E+02 -3.33066907E-14  0.00000000E+00
  8.50000000E+02  1.00000000E+02  0.00000000E+00
  8.50000000E+02  9.80000000E+01  0.00000000E+00
  8.50000000E+02  9.60000000E+01  0.00000000E+00
  8.50000000E+02  9.40000000E+01  0.00000000E+00
  8.50000000E+02  9.20000000E+01  0.00000000E+00
  8.50000000E+02  9.00000000E+01  0.00000000E+00
  8.50000000E+02  8.80000000E+01  0.00000000E+00
  8.50000000E+02  8.60000000E+01  0.00000000E+00
  8.50000000E+02  8.40000000E+01  0.00000000E+00
  8.50000000E+02  8.20000000E+01  0.00000000E+00
  8.50000000E+02  8.00000000E+01  0.00000000E+00
  8.50000000E+02  7.80000000E+01  0.00000000E+00
  8.50000000E+02  7.60000000E+01  0.00000000E+00
  8.50000000E+02  7.40000000E+01  0.00000000E+00
  8.50000000E+02  7.20000000E+01  0.00000000E+00
  8.50000000E+02  7.00000000E+01  0.00000000E+00
  8.50000000E+02  6.80000000E+01  0.00000000E+00
  8.50000000E+02  6.60000000E+01  0.00000000E+00
  8.50000000E+02  6.40000000E+01  0.00000000E+00
  8.50000000E+02  6.20000000E+01  0.00000000E+00
  8.50000000E+02  6.00000000E+01  0.00000000E+00
  8.50000000E+02  5.80000000E+01  0.00000000E+00
  8.50000000E+02  5.60000000E+01  0.00000000E+00
  8.50000000E+02  5.40000000E+01  0.00000000E+00
  8.50000000E+02  5.20000000E+01  0.00000000E+00
  8.50000000E+02  5.00000000E+01  0.00000000E+00
  8.50000000E+02  4.80000000E+01  0.00000000E+00
  8.50000000E+02  4.60000000E+01  0.00000000E+00
  8.50000000E+02  4.40000000E+01  0.00000000E+00
  8.50000000E+02  4.20000000E+01  0.00000000E+00
  8.50000000E+02  4.00000000E+01  0.00000000E+00
  8.50000000E+02  3.80000000E+01  0.00000000E+00
  8.50000000E+02  3.60000000E+01  0.00000000E+00
  8.50000000E+02  3.40000000E+01  0.00000000E+00
  8.50000000E+02  3.20000000E+01  0.00000000E+00
  8.50000000E+02  3.00000000E+01  0.00000000E+00
  8.50000000E+02  2.80000000E+01  0.00000000E+00
  8.50000000E+02  2.60000000E+01  0.00000000E+00
  8.50000000E+02  2.40000000E+01  0.00000000E+00
  8.50000000E+02  2.20000000E+01  0.00000000E+00
  8.50000000E+02  2.00000000E+01  0.00000000E+00
  8.50000000E+02  1.80000000E+01  0.00000000E+00
  8.50000000E+02  1.60000000E+01  0.00000000E+00
  8.50000000E+02  1.40000000E+01  0.00000000E+00
  8.50000000E+02  1.20000000E+01  0.00000000E+00
  8.50000000E+02  1.00000000E+01  0.00000000E+00
  8.50000000E+02  8.00000000E+00  0.00000000E+00
  8.50000000E+02  6.00000000E+00  0.00000000E+00
  8.50000000E+02  4.00000000E+00  0.00000000E+00
  8.50000000E+02  2.00000000E+00  0.00000000E+00
  8.50000000E+02 -3.33066907E-14  0.00000000E+00
  8.60000000E+02  1.00000000E+02  0.00000000E+00
  8.60000000E+02  9.80000000E+01  0.00000000E+00
  8.60000000E+02  9.60000000E+01  0.00000000E+00
  8.60000000E+02  9.40000000E+01  0.00000000E+00
  8.60000000E+02  9.20000000E+01  0.00000000E+00
  8.60000000E+02  9.00000000E+01  0.00000000E+00
  8.60000000E+02  8.80000000E+01  0.00000000E+00
  8.60000000E+02  8.60000000E+01  0.00000000E+00
  8.60000000E+02  8.40000000E+01  0.00000000E+00
  8.60000000E+02  8.20000000E+01  0.00000000E+00
  8.60000000E+02  8.00000000E+01  0.00000000E+00
  8.60000000E+02  7.80000000E+01  0.00000000E+00
  8.60000000E+02  7.60000000E+01  0.00000000E+00
  8.60000000E+02  7.40000000E+01  0.00000000E+00
  8.60000000E+02  7.20000000E+01  0.00000000E+00
  8.60000000E+02  7.00000000E+01  0.00000000E+00
  8.60000000E+02  6.80000000E+01  0.00000000E+00
  8.60000000E+02  6.60000000E+01  0.00000000E+00
  8.60000000E+02  6.40000000E+01  0.00000000E+00
  8.60000000E+02  6.20000000E+01  0.00000000E+00
  8.60000000E+02  6.00000000E+01  0.00000000E+00
  8.60000000E+02  5.80000000E+01  0.00000000E+00
  8.60000000E+02  5.60000000E+01  0.00000000E+00
  8.60000000E+02  5.40000000E+01  0.00000000E+00
  8.60000000E+02  5.20000000E+01  0.00000000E+00
  8.60000000E+02  5.00000000E+01  0.00000000E+00
  8.60000000E+02  4.80000000E+01  0.00000000E+00
  8.60000000E+02  4.60000000E+01  0.00000000E+00
  8.60000000E+02  4.40000000E+01  0.00000000E+00
  8.60000000E+02  4.20000000E+01  0.00000000E+00
  8.60000000E+02  4.00000000E+01  0.00000000E+00
  8.60000000E+02  3.80000000E+01  0.00000000E+00
  8.60000000E+02  3.60000000E+01  0.00000000E+00
  8.60000000E+02  3.40000000E+01  0.00000000E+00
  8.60000000E+02  3.20000000E+01  0.00000000E+00
  8.60000000E+02  3.00000000E+01  0.00000000E+00
  8.60000000E+02  2.80000000E+01  0.00000000E+00
  8.60000000E+02  2.60000000E+01  0.00000000E+00
  8.60000000E+02  2.40000000E+01  0.00000000E+00
  8.60000000E+02  2.20000000E+01  0.00000000E+00
  8.60000000E+02  2.00000000E+01  0.00000000E+00
  8.60000000E+02  1.80000000E+01  0.00000000E+00
  8.60000000E+02  1.60000000E+01  0.00000000E+00
  8.60000000E+02  1.40000000E+01  0.00000000E+00
  8.60000000E+02  1.20000000E+01  0.00000000E+00
  8.60000000E+02  1.00000000E+01  0.00000000E+00
  8.60000000E+02  8.00000000E+00  0.00000000E+00
  8.60000000E+02  6.00000000E+00  0.00000000E+00
  8.60000000E+02  4.00000000E+00  0.00000000E+00
  8.60000000E+02  2.00000000E+00  0.00000000E+00
  8.60000000E+02 -3.33066907E-14  0.00000000E+00
  8.70000000E+02  1.00000000E+02  0.00000000E+00
  8.70000000E+02  9.80000000E+01  0.00000000E+00
  8.70000000E+02  9.60000000E+01  0.00000000E+00
  8.70000000E+02  9.40000000E+01  0.00000000E+00
  8.70000000E+02  9.20000000E+01  0.00000000E+00
  8.70000000E+02  9.00000000E+01  0.00000000E+00
  8.70000000E+02  8.80000000E+01  0.00000000E+00
  8.70000000E+02  8.60000000E+01  0.00000000E+00
  8.70000000E+02  8.40000000E+01  0.00000000E+00
  8.70000000E+02  8.20000000E+01  0.00000000E+00
  8.70000000E+02  8.00000000E+01  0.00000000E+00
  8.70000000E+02  7.80000000E+01  0.00000000E+00
  8.70000000E+02  7.60000000E+01  0.00000000E+00
  8.70000000E+02  7.40000000E+01  0.00000000E+00
  8.70000000E+02  7.20000000E+01  0.00000000E+00
  8.70000000E+02  7.00000000E+01  0.00000000E+00
  8.70000000E+02  6.80000000E+01  0.00000000E+00
  8.70000000E+02  6.60000000E+01  0.00000000E+00
  8.70000000E+02  6.40000000E+01  0.00000000E+00
  8.70000000E+02  6.20000000E+01  0.00000000E+00
  8.70000000E+02  6.00000000E+01  0.00000000E+00
  8.70000000E+02  5.80000000E+01  0.00000000E+00
  8.70000000E+02  5.60000000E+01  0.00000000E+00
  8.70000000E+02  5.40000000E+01  0.00000000E+00
  8.70000000E+02  5.20000000E+01  0.00000000E+00
  8.70000000E+02  5.00000000E+01  0.00000000E+00
  8.70000000E+02  4.80000000E+01  0.00000000E+00
  8.70000000E+02  4.60000000E+01  0.00000000E+00
  8.70000000E+02  4.40000000E+01  0.00000000E+00
  8.70000000E+02  4.20000000E+01  0.00000000E+00
  8.70000000E+02  4.00000000E+01  0.00000000E+00
  8.70000000E+02  3.80000000E+01  0.00000000E+00
  8.70000000E+02  3.60000000E+01  0.00000000E+00
  8.70000000E+02  3.40000000E+01  0.00000000E+00
  8.70000000E+02  3.20000000E+01  0.00000000E+00
  8.70000000E+02  3.00000000E+01  0.00000000E+00
  8.70000000E+02  2.80000000E+01  0.00000000E+00
  8.70000000E+02  2.60000000E+01  0.00000000E+00
  8.70000000E+02  2.40000000E+01  0.00000000E+00
  8.70000000E+02  2.20000000E+01  0.00000000E+00
  8.70000000E+02  2.00000000E+01  0.00000000E+00
  8.70000000E+02  1.80000000E+01  0.00000000E+00
  8.70000000E+02  1.60000000E+01  0.00000000E+00
  8.70000000E+02  1.40000000E+01  0.00000000E+00
  8.70000000E+02  1.20000000E+01  0.00000000E+00
  8.70000000E+02  1.00000000E+01  0.00000000E+00
  8.70000000E+02  8.00000000E+00  0.00000000E+00
  8.70000000E+02  6.00000000E+00  0.00000000E+00
  8.70000000E+02  4.00000000E+00  0.00000000E+00
  8.70000000E+02  2.00000000E+00  0.00000000E+00
  8.70000000E+02 -3.33066907E-14  0.00000000E+00
  8.80000000E+02  1.00000000E+02  0.00000000E+00
  8.80000000E+02  9.80000000E+01  0.00000000E+00
  8.80000000E+02  9.60000000E+01  0.00000000E+00
  8.80000000E+02  9.40000000E+01  0.00000000E+00
  8.80000000E+02  9.20000000E+01  0.00000000E+00
  8.80000000E+02  9.00000000E+01  0.00000000E+00
  8.80000000E+02  8.80000000E+01  0.00000000E+00
  8.80000000E+02  8.60000000E+01  0.00000000E+00
  8.80000000E+02  8.40000000E+01  0.00000000E+00
  8.80000000E+02  8.20000000E+01  0.00000000E+00
  8.80000000E+02  8.00000000E+01  0.00000000E+00
  8.80000000E+02  7.80000000E+01  0.00000000E+00
  8.80000000E+02  7.60000000E+01  0.00000000E+00
  8.80000000E+02  7.40000000E+01  0.00000000E+00
  8.80000000E+02  7.20000000E+01  0.00000000E+00
  8.80000000E+02  7.00000000E+01  0.00000000E+00
  8.80000000E+02  6.80000000E+01  0.00000000E+00
  8.80000000E+02  6.60000000E+01  0.00000000E+00
  8.80000000E+02  6.40000000E+01  0.00000000E+00
  8.80000000E+02  6.20000000E+01  0.00000000E+00
  8.80000000E+02  6.00000000E+01  0.00000000E+00
  8.80000000E+02  5.80000000E+01  0.00000000E+00
  8.80000000E+02  5.60000000E+01  0.00000000E+00
  8.80000000E+02  5.40000000E+01  0.00000000E+00
  8.80000000E+02  5.20000000E+01  0.00000000E+00
  8.80000000E+02  5.00000000E+01  0.00000000E+00
  8.80000000E+02  4.80000000E+01  0.00000000E+00
  8.80000000E+02  4.60000000E+01  0.00000000E+00
  8.80000000E+02  4.40000000E+01  0.00000000E+00
  8.80000000E+02  4.20000000E+01  0.00000000E+00
  8.80000000E+02  4.00000000E+01  0.00000000E+00
  8.80000000E+02  3.80000000E+01  0.00000000E+00
  8.80000000E+02  3.60000000E+01  0.00000000E+00
  8.80000000E+02  3.40000000E+01  0.00000000E+00
  8.80000000E+02  3.20000000E+01  0.00000000E+00
  8.80000000E+02  3.00000000E+01  0.00000000E+00
  8.80000000E+02  2.80000000E+01  0.00000000E+00
  8.80000000E+02  2.60000000E+01  0.00000000E+00
  8.80000000E+02  2.40000000E+01  0.00000000E+00
  8.80000000E+02  2.20000000E+01  0.00000000E+00
  8.80000000E+02  2.00000000E+01  0.00000000E+00
  8.80000000E+02  1.80000000E+01  0.00000000E+00
  8.80000000E+02  1.60000000E+01  0.00000000E+00
  8.80000000E+02  1.40000000E+01  0.00000000E+00
  8.80000000E+02  1.20000000E+01  0.00000000E+00
  8.80000000E+02  1.00000000E+01  0.00000000E+00
  8.80000000E+02  8.00000000E+00  0.00000000E+00
  8.80000000E+02  6.00000000E+00  0.00000000E+00
  8.80000000E+02  4.00000000E+00  0.00000000E+00
  8.80000000E+02  2.00000000E+00  0.00000000E+00
  8.80000000E+02 -3.33066907E-14  0.00000000E+00
  8.90000000E+02  1.00000000E+02  0.00000000E+00
  8.90000000E+02  9.80000000E+01  0.00000000E+00
  8.90000000E+02  9.60000000E+01  0.00000000E+00
  8.90000000E+02  9.40000000E+01  0.00000000E+00
  8.90000000E+02  9.20000000E+01  0.00000000E+00
  8.90000000E+02  9.00000000E+01  0.00000000E+00
  8.90000000E+02  8.80000000E+01  0.00000000E+00
  8.90000000E+02  8.60000000E+01  0.00000000E+00
  8.90000000E+02  8.40000000E+01  0.00000000E+00
  8.90000000E+02  8.20000000E+01  0.00000000E+00
  8.90000000E+02  8.00000000E+01  0.00000000E+00
  8.90000000E+02  7.80000000E+01  0.00000000E+00
  8.90000000E+02  7.60000000E+01  0.00000000E+00
  8.90000000E+02  7.40000000E+01  0.00000000E+00
  8.90000000E+02  7.20000000E+01  0.00000000E+00
  8.90000000E+02  7.00000000E+01  0.00000000E+00
  8.90000000E+02  6.80000000E+01  0.00000000E+00
  8.90000000E+02  6.60000000E+01  0.00000000E+00
  8.90000000E+02  6.40000000E+01  0.00000000E+00
  8.90000000E+02  6.20000000E+01  0.00000000E+00
  8.90000000E+02  6.00000000E+01  0.00000000E+00
  8.90000000E+02  5.80000000E+01  0.00000000E+00
  8.90000000E+02  5.60000000E+01  0.00000000E+00
  8.90000000E+02  5.40000000E+01  0.00000000E+00
  8.90000000E+02  5.20000000E+01  0.00000000E+00
  8.90000000E+02  5.00000000E+01  0.00000000E+00
  8.90000000E+02  4.80000000E+01  0.00000000E+00
  8.90000000E+02  4.60000000E+01  0.00000000E+00
  8.90000000E+02  4.40000000E+01  0.00000000E+00
  8.90000000E+02  4.20000000E+01  0.00000000E+00
  8.90000000E+02  4.00000000E+01  0.00000000E+00
  8.90000000E+02  3.80000000E+01  0.00000000E+00
  8.90000000E+02  3.60000000E+01  0.00000000E+00
  8.90000000E+02  3.40000000E+01  0.00000000E+00
  8.90000000E+02  3.20000000E+01  0.00000000E+00
  8.90000000E+02  3.00000000E+01  0.00000000E+00
  8.90000000E+02  2.80000000E+01  0.00000000E+00
  8.90000000E+02  2.60000000E+01  0.00000000E+00
  8.90000000E+02  2.40000000E+01  0.00000000E+00
  8.90000000E+02  2.20000000E+01  0.00000000E+00
  8.90000000E+02  2.00000000E+01  0.00000000E+00
  8.90000000E+02  1.80000000E+01  0.00000000E+00
  8.90000000E+02  1.60000000E+01  0.00000000E+00
  8.90000000E+02  1.40000000E+01  0.00000000E+00
  8.90000000E+02  1.20000000E+01  0.00000000E+00
  8.90000000E+02  1.00000000E+01  0.00000000E+00
  8.90000000E+02  8.00000000E+00  0.00000000E+00
  8.90000000E+02  6.00000000E+00  0.00000000E+00
  8.90000000E+02  4.00000000E+00  0.00000000E+00
  8.90000000E+02  2.00000000E+00  0.00000000E+00
  8.90000000E+02 -3.33066907E-14  0.00000000E+00
  9.00000000E+02  1.00000000E+02  0.00000000E+00
  9.00000000E+02  9.80000000E+01  0.00000000E+00
  9.00000000E+02  9.60000000E+01  0.00000000E+00
  9.00000000E+02  9.40000000E+01  0.00000000E+00
  9.00000000E+02  9.20000000E+01  0.00000000E+00
  9.00000000E+02  9.00000000E+01  0.00000000E+00
  9.00000000E+02  8.80000000E+01  0.00000000E+00
  9.00000000E+02  8.60000000E+01  0.00000000E+00
  9.00000000E+02  8.40000000E+01  0.00000000E+00
  9.00000000E+02  8.20000000E+01  0.00000000E+00
  9.00000000E+02  8.00000000E+01  0.00000000E+00
  9.00000000E+02  7.80000000E+01  0.00000000E+00
  9.00000000E+02  7.60000000E+01  0.00000000E+00
  9.00000000E+02  7.40000000E+01  0.00000000E+00
  9.00000000E+02  7.20000000E+01  0.00000000E+00
  9.00000000E+02  7.00000000E+01  0.00000000E+00
  9.00000000E+02  6.80000000E+01  0.00000000E+00
  9.00000000E+02  6.60000000E+01  0.00000000E+00
  9.00000000E+02  6.40000000E+01  0.00000000E+00
  9.00000000E+02  6.20000000E+01  0.00000000E+00
  9.00000000E+02  6.00000000E+01  0.00000000E+00
  9.00000000E+02  5.80000000E+01  0.00000000E+00
  9.00000000E+02  5.60000000E+01  0.00000000E+00
  9.00000000E+02  5.40000000E+01  0.00000000E+00
  9.00000000E+02  5.20000000E+01  0.00000000E+00
  9.00000000E+02  5.00000000E+01  0.00000000E+00
  9.00000000E+02  4.80000000E+01  0.00000000E+00
  9.00000000E+02  4.60000000E+01  0.00000000E+00
  9.00000000E+02  4.40000000E+01  0.00000000E+00
  9.00000000E+02  4.20000000E+01  0.00000000E+00
  9.00000000E+02  4.00000000E+01  0.00000000E+00
  9.00000000E+02  3.80000000E+01  0.00000000E+00
  9.00000000E+02  3.60000000E+01  0.00000000E+00
  9.00000000E+02  3.40000000E+01  0.00000000E+00
  9.00000000E+02  3.20000000E+01  0.00000000E+00
  9.00000000E+02  3.00000000E+01  0.00000000E+00
  9.00000000E+02  2.80000000E+01  0.00000000E+00
  9.00000000E+02  2.60000000E+01  0.00000000E+00
  9.00000000E+02  2.40000000E+01  0.00000000E+00
  9.00000000E+02  2.20000000E+01  0.00000000E+00
  9.00000000E+02  2.00000000E+01  0.00000000E+00
  9.00000000E+02  1.80000000E+01  0.00000000E+00
  9.00000000E+02  1.60000000E+01  0.00000000E+00
  9.00000000E+02  1.40000000E+01  0.00000000E+00
  9.00000000E+02  1.20000000E+01  0.00000000E+00
  9.00000000E+02  1.00000000E+01  0.00000000E+00
  9.00000000E+02  8.00000000E+00  0.00000000E+00
  9.00000000E+02  6.00000000E+00  0.00000000E+00
  9.00000000E+02  4.00000000E+00  0.00000000E+00
  9.00000000E+02  2.00000000E+00  0.00000000E+00
  9.00000000E+02 -3.33066907E-14  0.00000000E+00
  9.10000000E+02  1.00000000E+02  0.00000000E+00
  9.10000000E+02  9.80000000E+01  0.00000000E+00
  9.10000000E+02  9.60000000E+01  0.00000000E+00
  9.10000000E+02  9.40000000E+01  0.00000000E+00
  9.10000000E+02  9.20000000E+01  0.00000000E+00
  9.10000000E+02  9.00000000E+01  0.00000000E+00
  9.10000000E+02  8.80000000E+01  0.00000000E+00
  9.10000000E+02  8.60000000E+01  0.00000000E+00
  9.10000000E+02  8.40000000E+01  0.00000000E+00
  9.10000000E+02  8.20000000E+01  0.00000000E+00
  9.10000000E+02  8.00000000E+01  0.00000000E+00
  9.10000000E+02  7.80000000E+01  0.00000000E+00
  9.10000000E+02  7.60000000E+01  0.00000000E+00
  9.10000000E+02  7.40000000E+01  0.00000000E+00
  9.10000000E+02  7.20000000E+01  0.00000000E+00
  9.10000000E+02  7.00000000E+01  0.00000000E+00
  9.10000000E+02  6.80000000E+01  0.00000000E+00
  9.10000000E+02  6.60000000E+01  0.00000000E+00
  9.10000000E+02  6.40000000E+01  0.00000000E+00
  9.10000000E+02  6.20000000E+01  0.00000000E+00
  9.10000000E+02  6.00000000E+01  0.00000000E+00
  9.10000000E+02  5.80000000E+01  0.00000000E+00
  9.10000000E+02  5.60000000E+01  0.00000000E+00
  9.10000000E+02  5.40000000E+01  0.00000000E+00
  9.10000000E+02  5.20000000E+01  0.00000000E+00
  9.10000000E+02  5.00000000E+01  0.00000000E+00
  9.10000000E+02  4.80000000E+01  0.00000000E+00
  9.10000000E+02  4.60000000E+01  0.00000000E+00
  9.10000000E+02  4.40000000E+01  0.00000000E+00
  9.10000000E+02  4.20000000E+01  0.00000000E+00
  9.10000000E+02  4.00000000E+01  0.00000000E+00
  9.10000000E+02  3.80000000E+01  0.00000000E+00
  9.10000000E+02  3.60000000E+01  0.00000000E+00
  9.10000000E+02  3.40000000E+01  0.00000000E+00
  9.10000000E+02  3.20000000E+01  0.00000000E+00
  9.10000000E+02  3.00000000E+01  0.00000000E+00
  9.10000000E+02  2.80000000E+01  0.00000000E+00
  9.10000000E+02  2.60000000E+01  0.00000000E+00
  9.10000000E+02  2.40000000E+01  0.00000000E+00
  9.10000000E+02  2.20000000E+01  0.00000000E+00
  9.10000000E+02  2.00000000E+01  0.00000000E+00
  9.10000000E+02  1.80000000E+01  0.00000000E+00
  9.10000000E+02  1.60000000E+01  0.00000000E+00
  9.10000000E+02  1.40000000E+01  0.00000000E+00
  9.10000000E+02  1.20000000E+01  0.00000000E+00
  9.10000000E+02  1.00000000E+01  0.00000000E+00
  9.10000000E+02  8.00000000E+00  0.00000000E+00
  9.10000000E+02  6.00000000E+00  0.00000000E+00
  9.10000000E+02  4.00000000E+00  0.00000000E+00
  9.10000000E+02  2.00000000E+00  0.00000000E+00
  9.10000000E+02 -3.33066907E-14  0.00000000E+00
  9.20000000E+02  1.00000000E+02  0.00000000E+00
  9.20000000E+02  9.80000000E+01  0.00000000E+00
  9.20000000E+02  9.60000000E+01  0.00000000E+00
  9.20000000E+02  9.40000000E+01  0.00000000E+00
  9.20000000E+02  9.20000000E+01  0.00000000E+00
  9.20000000E+02  9.00000000E+01  0.00000000E+00
  9.20000000E+02  8.80000000E+01  0.00000000E+00
  9.20000000E+02  8.60000000E+01  0.00000000E+00
  9.20000000E+02  8.40000000E+01  0.00000000E+00
  9.20000000E+02  8.20000000E+01  0.00000000E+00
  9.20000000E+02  8.00000000E+01  0.00000000E+00
  9.20000000E+02  7.80000000E+01  0.00000000E+00
  9.20000000E+02  7.60000000E+01  0.00000000E+00
  9.20000000E+02  7.40000000E+01  0.00000000E+00
  9.20000000E+02  7.20000000E+01  0.00000000E+00
  9.20000000E+02  7.00000000E+01  0.00000000E+00
  9.20000000E+02  6.80000000E+01  0.00000000E+00
  9.20000000E+02  6.60000000E+01  0.00000000E+00
  9.20000000E+02  6.40000000E+01  0.00000000E+00
  9.20000000E+02  6.20000000E+01  0.00000000E+00
  9.20000000E+02  6.00000000E+01  0.00000000E+00
  9.20000000E+02  5.80000000E+01  0.00000000E+00
  9.20000000E+02  5.60000000E+01  0.00000000E+00
  9.20000000E+02  5.40000000E+01  0.00000000E+00
  9.20000000E+02  5.20000000E+01  0.00000000E+00
  9.20000000E+02  5.00000000E+01  0.00000000E+00
  9.20000000E+02  4.80000000E+01  0.00000000E+00
  9.20000000E+02  4.60000000E+01  0.00000000E+00
  9.20000000E+02  4.40000000E+01  0.00000000E+00
  9.20000000E+02  4.20000000E+01  0.00000000E+00
  9.20000000E+02  4.00000000E+01  0.00000000E+00
  9.20000000E+02  3.80000000E+01  0.00000000E+00
  9.20000000E+02  3.60000000E+01  0.00000000E+00
  9.20000000E+02  3.40000000E+01  0.00000000E+00
  9.20000000E+02  3.20000000E+01  0.00000000E+00
  9.20000000E+02  3.00000000E+01  0.00000000E+00
  9.20000000E+02  2.80000000E+01  0.00000000E+00
  9.20000000E+02  2.60000000E+01  0.00000000E+00
  9.20000000E+02  2.40000000E+01  0.00000000E+00
  9.20000000E+02  2.20000000E+01  0.00000000E+00
  9.20000000E+02  2.00000000E+01  0.00000000E+00
  9.20000000E+02  1.80000000E+01  0.00000000E+00
  9.20000000E+02  1.60000000E+01  0.00000000E+00
  9.20000000E+02  1.40000000E+01  0.00000000E+00
  9.20000000E+02  1.20000000E+01  0.00000000E+00
  9.20000000E+02  1.00000000E+01  0.00000000E+00
  9.20000000E+02  8.00000000E+00  0.00000000E+00
  9.20000000E+02  6.00000000E+00  0.00000000E+00
  9.20000000E+02  4.00000000E+00  0.00000000E+00
  9.20000000E+02  2.00000000E+00  0.00000000E+00
  9.20000000E+02 -3.33066907E-14  0.00000000E+00
  9.30000000E+02  1.00000000E+02  0.00000000E+00
  9.30000000E+02  9.80000000E+01  0.00000000E+00
  9.30000000E+02  9.60000000E+01  0.00000000E+00
  9.30000000E+02  9.40000000E+01  0.00000000E+00
  9.30000000E+02  9.20000000E+01  0.00000000E+00
  9.30000000E+02  9.00000000E+01  0.00000000E+00
  9.30000000E+02  8.80000000E+01  0.00000000E+00
  9.30000000E+02  8.60000000E+01  0.00000000E+00
  9.30000000E+02  8.40000000E+01  0.00000000E+00
  9.30000000E+02  8.20000000E+01  0.00000000E+00
  9.30000000E+02  8.00000000E+01  0.00000000E+00
  9.30000000E+02  7.80000000E+01  0.00000000E+00
  9.30000000E+02  7.60000000E+01  0.00000000E+00
  9.30000000E+02  7.40000000E+01  0.00000000E+00
  9.30000000E+02  7.20000000E+01  0.00000000E+00
  9.30000000E+02  7.00000000E+01  0.00000000E+00
  9.30000000E+02  6.80000000E+01  0.00000000E+00
  9.30000000E+02  6.60000000E+01  0.00000000E+00
  9.30000000E+02  6.40000000E+01  0.00000000E+00
  9.30000000E+02  6.20000000E+01  0.00000000E+00
  9.30000000E+02  6.00000000E+01  0.00000000E+00
  9.30000000E+02  5.80000000E+01  0.00000000E+00
  9.30000000E+02  5.60000000E+01  0.00000000E+00
  9.30000000E+02  5.40000000E+01  0.00000000E+00
  9.30000000E+02  5.20000000E+01  0.00000000E+00
  9.30000000E+02  5.00000000E+01  0.00000000E+00
  9.30000000E+02  4.80000000E+01  0.00000000E+00
  9.30000000E+02  4.60000000E+01  0.00000000E+00
  9.30000000E+02  4.40000000E+01  0.00000000E+00
  9.30000000E+02  4.20000000E+01  0.00000000E+00
  9.30000000E+02  4.00000000E+01  0.00000000E+00
  9.30000000E+02  3.80000000E+01  0.00000000E+00
  9.30000000E+02  3.60000000E+01  0.00000000E+00
  9.30000000E+02  3.40000000E+01  0.00000000E+00
  9.30000000E+02  3.20000000E+01  0.00000000E+00
  9.30000000E+02  3.00000000E+01  0.00000000E+00
  9.30000000E+02  2.80000000E+01  0.00000000E+00
  9.30000000E+02  2.60000000E+01  0.00000000E+00
  9.30000000E+02  2.40000000E+01  0.00000000E+00
  9.30000000E+02  2.20000000E+01  0.00000000E+00
  9.30000000E+02  2.00000000E+01  0.00000000E+00
  9.30000000E+02  1.80000000E+01  0.00000000E+00
  9.30000000E+02  1.60000000E+01  0.00000000E+00
  9.30000000E+02  1.40000000E+01  0.00000000E+00
  9.30000000E+02  1.20000000E+01  0.00000000E+00
  9.30000000E+02  1.00000000E+01  0.00000000E+00
  9.30000000E+02  8.00000000E+00  0.00000000E+00
  9.30000000E+02  6.00000000E+00  0.00000000E+00
  9.30000000E+02  4.00000000E+00  0.00000000E+00
  9.30000000E+02  2.00000000E+00  0.00000000E+00
  9.30000000E+02 -3.33066907E-14  0.00000000E+00
  9.40000000E+02  1.00000000E+02  0.00000000E+00
  9.40000000E+02  9.80000000E+01  0.00000000E+00
  9.40000000E+02  9.60000000E+01  0.00000000E+00
  9.40000000E+02  9.40000000E+01  0.00000000E+00
  9.40000000E+02  9.20000000E+01  0.00000000E+00
  9.40000000E+02  9.00000000E+01  0.00000000E+00
  9.40000000E+02  8.80000000E+01  0.00000000E+00
  9.40000000E+02  8.60000000E+01  0.00000000E+00
  9.40000000E+02  8.40000000E+01  0.00000000E+00
  9.40000000E+02  8.20000000E+01  0.00000000E+00
  9.40000000E+02  8.00000000E+01  0.00000000E+00
  9.40000000E+02  7.80000000E+01  0.00000000E+00
  9.40000000E+02  7.60000000E+01  0.00000000E+00
  9.40000000E+02  7.40000000E+01  0.00000000E+00
  9.40000000E+02  7.20000000E+01  0.00000000E+00
  9.40000000E+02  7.00000000E+01  0.00000000E+00
  9.40000000E+02  6.80000000E+01  0.00000000E+00
  9.40000000E+02  6.60000000E+01  0.00000000E+00
  9.40000000E+02  6.40000000E+01  0.00000000E+00
  9.40000000E+02  6.20000000E+01  0.00000000E+00
  9.40000000E+02  6.00000000E+01  0.00000000E+00
  9.40000000E+02  5.80000000E+01  0.00000000E+00
  9.40000000E+02  5.60000000E+01  0.00000000E+00
  9.40000000E+02  5.40000000E+01  0.00000000E+00
  9.40000000E+02  5.20000000E+01  0.00000000E+00
  9.40000000E+02  5.00000000E+01  0.00000000E+00
  9.40000000E+02  4.80000000E+01  0.00000000E+00
  9.40000000E+02  4.60000000E+01  0.00000000E+00
  9.40000000E+02  4.40000000E+01  0.00000000E+00
  9.40000000E+02  4.20000000E+01  0.00000000E+00
  9.40000000E+02  4.00000000E+01  0.00000000E+00
  9.40000000E+02  3.80000000E+01  0.00000000E+00
  9.40000000E+02  3.60000000E+01  0.00000000E+00
  9.40000000E+02  3.40000000E+01  0.00000000E+00
  9.40000000E+02  3.20000000E+01  0.00000000E+00
  9.40000000E+02  3.00000000E+01  0.00000000E+00
  9.40000000E+02  2.80000000E+01  0.00000000E+00
  9.40000000E+02  2.60000000E+01  0.00000000E+00
  9.40000000E+02  2.40000000E+01  0.00000000E+00
  9.40000000E+02  2.20000000E+01  0.00000000E+00
  9.40000000E+02  2.00000000E+01  0.00000000E+00
  9.40000000E+02  1.80000000E+01  0.00000000E+00
  9.40000000E+02  1.60000000E+01  0.00000000E+00
  9.40000000E+02  1.40000000E+01  0.00000000E+00
  9.40000000E+02  1.20000000E+01  0.00000000E+00
  9.40000000E+02  1.00000000E+01  0.00000000E+00
  9.40000000E+02  8.00000000E+00  0.00000000E+00
  9.40000000E+02  6.00000000E+00  0.00000000E+00
  9.40000000E+02  4.00000000E+00  0.00000000E+00
  9.40000000E+02  2.00000000E+00  0.00000000E+00
  9.40000000E+02 -3.33066907E-14  0.00000000E+00
  9.50000000E+02  1.00000000E+02  0.00000000E+00
  9.50000000E+02  9.80000000E+01  0.00000000E+00
  9.50000000E+02  9.60000000E+01  0.00000000E+00
  9.50000000E+02  9.40000000E+01  0.00000000E+00
  9.50000000E+02  9.20000000E+01  0.00000000E+00
  9.50000000E+02  9.00000000E+01  0.00000000E+00
  9.50000000E+02  8.80000000E+01  0.00000000E+00
  9.50000000E+02  8.60000000E+01  0.00000000E+00
  9.50000000E+02  8.40000000E+01  0.00000000E+00
  9.50000000E+02  8.20000000E+01  0.00000000E+00
  9.50000000E+02  8.00000000E+01  0.00000000E+00
  9.50000000E+02  7.80000000E+01  0.00000000E+00
  9.50000000E+02  7.60000000E+01  0.00000000E+00
  9.50000000E+02  7.40000000E+01  0.00000000E+00
  9.50000000E+02  7.20000000E+01  0.00000000E+00
  9.50000000E+02  7.00000000E+01  0.00000000E+00
  9.50000000E+02  6.80000000E+01  0.00000000E+00
  9.50000000E+02  6.60000000E+01  0.00000000E+00
  9.50000000E+02  6.40000000E+01  0.00000000E+00
  9.50000000E+02  6.20000000E+01  0.00000000E+00
  9.50000000E+02  6.00000000E+01  0.00000000E+00
  9.50000000E+02  5.80000000E+01  0.00000000E+00
  9.50000000E+02  5.60000000E+01  0.00000000E+00
  9.50000000E+02  5.40000000E+01  0.00000000E+00
  9.50000000E+02  5.20000000E+01  0.00000000E+00
  9.50000000E+02  5.00000000E+01  0.00000000E+00
  9.50000000E+02  4.80000000E+01  0.00000000E+00
  9.50000000E+02  4.60000000E+01  0.00000000E+00
  9.50000000E+02  4.40000000E+01  0.00000000E+00
  9.50000000E+02  4.20000000E+01  0.00000000E+00
  9.50000000E+02  4.00000000E+01  0.00000000E+00
  9.50000000E+02  3.80000000E+01  0.00000000E+00
  9.50000000E+02  3.60000000E+01  0.00000000E+00
  9.50000000E+02  3.40000000E+01  0.00000000E+00
  9.50000000E+02  3.20000000E+01  0.00000000E+00
  9.50000000E+02  3.00000000E+01  0.00000000E+00
  9.50000000E+02  2.80000000E+01  0.00000000E+00
  9.50000000E+02  2.60000000E+01  0.00000000E+00
  9.50000000E+02  2.40000000E+01  0.00000000E+00
  9.50000000E+02  2.20000000E+01  0.00000000E+00
  9.50000000E+02  2.00000000E+01  0.00000000E+00
  9.50000000E+02  1.80000000E+01  0.00000000E+00
  9.50000000E+02  1.60000000E+01  0.00000000E+00
  9.50000000E+02  1.40000000E+01  0.00000000E+00
  9.50000000E+02  1.20000000E+01  0.00000000E+00
  9.50000000E+02  1.00000000E+01  0.00000000E+00
  9.50000000E+02  8.00000000E+00  0.00000000E+00
  9.50000000E+02  6.00000000E+00  0.00000000E+00
  9.50000000E+02  4.00000000E+00  0.00000000E+00
  9.50000000E+02  2.00000000E+00  0.00000000E+00
  9.50000000E+02 -3.33066907E-14  0.00000000E+00
  9.60000000E+02  1.00000000E+02  0.00000000E+00
  9.60000000E+02  9.80000000E+01  0.00000000E+00
  9.60000000E+02  9.60000000E+01  0.00000000E+00
  9.60000000E+02  9.40000000E+01  0.00000000E+00
  9.60000000E+02  9.20000000E+01  0.00000000E+00
  9.60000000E+02  9.00000000E+01  0.00000000E+00
  9.60000000E+02  8.80000000E+01  0.00000000E+00
  9.60000000E+02  8.60000000E+01  0.00000000E+00
  9.60000000E+02  8.40000000E+01  0.00000000E+00
  9.60000000E+02  8.20000000E+01  0.00000000E+00
  9.60000000E+02  8.00000000E+01  0.00000000E+00
  9.60000000E+02  7.80000000E+01  0.00000000E+00
  9.60000000E+02  7.60000000E+01  0.00000000E+00
  9.60000000E+02  7.40000000E+01  0.00000000E+00
  9.60000000E+02  7.20000000E+01  0.00000000E+00
  9.60000000E+02  7.00000000E+01  0.00000000E+00
  9.60000000E+02  6.80000000E+01  0.00000000E+00
  9.60000000E+02  6.60000000E+01  0.00000000E+00
  9.60000000E+02  6.40000000E+01  0.00000000E+00
  9.60000000E+02  6.20000000E+01  0.00000000E+00
  9.60000000E+02  6.00000000E+01  0.00000000E+00
  9.60000000E+02  5.80000000E+01  0.00000000E+00
  9.60000000E+02  5.60000000E+01  0.00000000E+00
  9.60000000E+02  5.40000000E+01  0.00000000E+00
  9.60000000E+02  5.20000000E+01  0.00000000E+00
  9.60000000E+02  5.00000000E+01  0.00000000E+00
  9.60000000E+02  4.80000000E+01  0.00000000E+00
  9.60000000E+02  4.60000000E+01  0.00000000E+00
  9.60000000E+02  4.40000000E+01  0.00000000E+00
  9.60000000E+02  4.20000000E+01  0.00000000E+00
  9.60000000E+02  4.00000000E+01  0.00000000E+00
  9.60000000E+02  3.80000000E+01  0.00000000E+00
  9.60000000E+02  3.60000000E+01  0.00000000E+00
  9.60000000E+02  3.40000000E+01  0.00000000E+00
  9.60000000E+02  3.20000000E+01  0.00000000E+00
  9.60000000E+02  3.00000000E+01  0.00000000E+00
  9.60000000E+02  2.80000000E+01  0.00000000E+00
  9.60000000E+02  2.60000000E+01  0.00000000E+00
  9.60000000E+02  2.40000000E+01  0.00000000E+00
  9.60000000E+02  2.20000000E+01  0.00000000E+00
  9.60000000E+02  2.00000000E+01  0.00000000E+00
  9.60000000E+02  1.80000000E+01  0.00000000E+00
  9.60000000E+02  1.60000000E+01  0.00000000E+00
  9.60000000E+02  1.40000000E+01  0.00000000E+00
  9.60000000E+02  1.20000000E+01  0.00000000E+00
  9.60000000E+02  1.00000000E+01  0.00000000E+00
  9.60000000E+02  8.00000000E+00  0.00000000E+00
  9.60000000E+02  6.00000000E+00  0.00000000E+00
  9.60000000E+02  4.00000000E+00  0.00000000E+00
  9.60000000E+02  2.00000000E+00  0.00000000E+00
  9.60000000E+02 -3.33066907E-14  0.00000000E+00
  9.70000000E+02  1.00000000E+02  0.00000000E+00
  9.70000000E+02  9.80000000E+01  0.00000000E+00
  9.70000000E+02  9.60000000E+01  0.00000000E+00
  9.70000000E+02  9.40000000E+01  0.00000000E+00
  9.70000000E+02  9.20000000E+01  0.00000000E+00
  9.70000000E+02  9.00000000E+01  0.00000000E+00
  9.70000000E+02  8.80000000E+01  0.00000000E+00
  9.70000000E+02  8.60000000E+01  0.00000000E+00
  9.70000000E+02  8.40000000E+01  0.00000000E+00
  9.70000000E+02  8.20000000E+01  0.00000000E+00
  9.70000000E+02  8.00000000E+01  0.00000000E+00
  9.70000000E+02  7.80000000E+01  0.00000000E+00
  9.70000000E+02  7.60000000E+01  0.00000000E+00
  9.70000000E+02  7.40000000E+01  0.00000000E+00
  9.70000000E+02  7.20000000E+01  0.00000000E+00
  9.70000000E+02  7.00000000E+01  0.00000000E+00
  9.70000000E+02  6.80000000E+01  0.00000000E+00
  9.70000000E+02  6.60000000E+01  0.00000000E+00
  9.70000000E+02  6.40000000E+01  0.00000000E+00
  9.70000000E+02  6.20000000E+01  0.00000000E+00
  9.70000000E+02  6.00000000E+01  0.00000000E+00
  9.70000000E+02  5.80000000E+01  0.00000000E+00
  9.70000000E+02  5.60000000E+01  0.00000000E+00
  9.70000000E+02  5.40000000E+01  0.00000000E+00
  9.70000000E+02  5.20000000E+01  0.00000000E+00
  9.70000000E+02  5.00000000E+01  0.00000000E+00
  9.70000000E+02  4.80000000E+01  0.00000000E+00
  9.70000000E+02  4.60000000E+01  0.00000000E+00
  9.70000000E+02  4.40000000E+01  0.00000000E+00
  9.70000000E+02  4.20000000E+01  0.00000000E+00
  9.70000000E+02  4.00000000E+01  0.00000000E+00
  9.70000000E+02  3.80000000E+01  0.00000000E+00
  9.70000000E+02  3.60000000E+01  0.00000000E+00
  9.70000000E+02  3.40000000E+01  0.00000000E+00
  9.70000000E+02  3.20000000E+01  0.00000000E+00
  9.70000000E+02  3.00000000E+01  0.00000000E+00
  9.70000000E+02  2.80000000E+01  0.00000000E+00
  9.70000000E+02  2.60000000E+01  0.00000000E+00
  9.70000000E+02  2.40000000E+01  0.00000000E+00
  9.70000000E+02  2.20000000E+01  0.00000000E+00
  9.70000000E+02  2.00000000E+01  0.00000000E+00
  9.70000000E+02  1.80000000E+01  0.00000000E+00
  9.70000000E+02  1.60000000E+01  0.00000000E+00
  9.70000000E+02  1.40000000E+01  0.00000000E+00
  9.70000000E+02  1.20000000E+01  0.00000000E+00
  9.70000000E+02  1.00000000E+01  0.00000000E+00
  9.70000000E+02  8.00000000E+00  0.00000000E+00
  9.70000000E+02  6.00000000E+00  0.00000000E+00
  9.70000000E+02  4.00000000E+00  0.00000000E+00
  9.70000000E+02  2.00000000E+00  0.00000000E+00
  9.70000000E+02 -3.33066907E-14  0.00000000E+00
  9.80000000E+02  1.00000000E+02  0.00000000E+00
  9.80000000E+02  9.80000000E+01  0.00000000E+00
  9.80000000E+02  9.60000000E+01  0.00000000E+00
  9.80000000E+02  9.40000000E+01  0.00000000E+00
  9.80000000E+02  9.20000000E+01  0.00000000E+00
  9.80000000E+02  9.00000000E+01  0.00000000E+00
  9.80000000E+02  8.80000000E+01  0.00000000E+00
  9.80000000E+02  8.60000000E+01  0.00000000E+00
  9.80000000E+02  8.40000000E+01  0.00000000E+00
  9.80000000E+02  8.20000000E+01  0.00000000E+00
  9.80000000E+02  8.00000000E+01  0.00000000E+00
  9.80000000E+02  7.80000000E+01  0.00000000E+00
  9.80000000E+02  7.60000000E+01  0.00000000E+00
  9.80000000E+02  7.40000000E+01  0.00000000E+00
  9.80000000E+02  7.20000000E+01  0.00000000E+00
  9.80000000E+02  7.00000000E+01  0.00000000E+00
  9.80000000E+02  6.80000000E+01  0.00000000E+00
  9.80000000E+02  6.60000000E+01  0.00000000E+00
  9.80000000E+02  6.40000000E+01  0.00000000E+00
  9.80000000E+02  6.20000000E+01  0.00000000E+00
  9.80000000E+02  6.00000000E+01  0.00000000E+00
  9.80000000E+02  5.80000000E+01  0.00000000E+00
  9.80000000E+02  5.60000000E+01  0.00000000E+00
  9.80000000E+02  5.40000000E+01  0.00000000E+00
  9.80000000E+02  5.20000000E+01  0.00000000E+00
  9.80000000E+02  5.00000000E+01  0.00000000E+00
  9.80000000E+02  4.80000000E+01  0.00000000E+00
  9.80000000E+02  4.60000000E+01  0.00000000E+00
  9.80000000E+02  4.40000000E+01  0.00000000E+00
  9.80000000E+02  4.20000000E+01  0.00000000E+00
  9.80000000E+02  4.00000000E+01  0.00000000E+00
  9.80000000E+02  3.80000000E+01  0.00000000E+00
  9.80000000E+02  3.60000000E+01  0.00000000E+00
  9.80000000E+02  3.40000000E+01  0.00000000E+00
  9.80000000E+02  3.20000000E+01  0.00000000E+00
  9.80000000E+02  3.00000000E+01  0.00000000E+00
  9.80000000E+02  2.80000000E+01  0.00000000E+00
  9.80000000E+02  2.60000000E+01  0.00000000E+00
  9.80000000E+02  2.40000000E+01  0.00000000E+00
  9.80000000E+02  2.20000000E+01  0.00000000E+00
  9.80000000E+02  2.00000000E+01  0.00000000E+00
  9.80000000E+02  1.80000000E+01  0.00000000E+00
  9.80000000E+02  1.60000000E+01  0.00000000E+00
  9.80000000E+02  1.40000000E+01  0.00000000E+00
  9.80000000E+02  1.20000000E+01  0.00000000E+00
  9.80000000E+02  1.00000000E+01  0.00000000E+00
  9.80000000E+02  8.00000000E+00  0.00000000E+00
  9.80000000E+02  6.00000000E+00  0.00000000E+00
  9.80000000E+02  4.00000000E+00  0.00000000E+00
  9.80000000E+02  2.00000000E+00  0.00000000E+00
  9.80000000E+02 -3.33066907E-14  0.00000000E+00
  9.90000000E+02  1.00000000E+02  0.00000000E+00
  9.90000000E+02  9.80000000E+01  0.00000000E+00
  9.90000000E+02  9.60000000E+01  0.00000000E+00
  9.90000000E+02  9.40000000E+01  0.00000000E+00
  9.90000000E+02  9.20000000E+01  0.00000000E+00
  9.90000000E+02  9.00000000E+01  0.00000000E+00
  9.90000000E+02  8.80000000E+01  0.00000000E+00
  9.90000000E+02  8.60000000E+01  0.00000000E+00
  9.90000000E+02  8.40000000E+01  0.00000000E+00
  9.90000000E+02  8.20000000E+01  0.00000000E+00
  9.90000000E+02  8.00000000E+01  0.00000000E+00
  9.90000000E+02  7.80000000E+01  0.00000000E+00
  9.90000000E+02  7.60000000E+01  0.00000000E+00
  9.90000000E+02  7.40000000E+01  0.00000000E+00
  9.90000000E+02  7.20000000E+01  0.00000000E+00
  9.90000000E+02  7.00000000E+01  0.00000000E+00
  9.90000000E+02  6.80000000E+01  0.00000000E+00
  9.90000000E+02  6.60000000E+01  0.00000000E+00
  9.90000000E+02  6.40000000E+01  0.00000000E+00
  9.90000000E+02  6.20000000E+01  0.00000000E+00
  9.90000000E+02  6.00000000E+01  0.00000000E+00
  9.90000000E+02  5.80000000E+01  0.00000000E+00
  9.90000000E+02  5.60000000E+01  0.00000000E+00
  9.90000000E+02  5.40000000E+01  0.00000000E+00
  9.90000000E+02  5.20000000E+01  0.00000000E+00
  9.90000000E+02  5.00000000E+01  0.00000000E+00
  9.90000000E+02  4.80000000E+01  0.00000000E+00
  9.90000000E+02  4.60000000E+01  0.00000000E+00
  9.90000000E+02  4.40000000E+01  0.00000000E+00
  9.90000000E+02  4.20000000E+01  0.00000000E+00
  9.90000000E+02  4.00000000E+01  0.00000000E+00
  9.90000000E+02  3.80000000E+01  0.00000000E+00
  9.90000000E+02  3.60000000E+01  0.00000000E+00
  9.90000000E+02  3.40000000E+01  0.00000000E+00
  9.90000000E+02  3.20000000E+01  0.00000000E+00
  9.90000000E+02  3.00000000E+01  0.00000000E+00
  9.90000000E+02  2.80000000E+01  0.00000000E+00
  9.90000000E+02  2.60000000E+01  0.00000000E+00
  9.90000000E+02  2.40000000E+01  0.00000000E+00
  9.90000000E+02  2.20000000E+01  0.00000000E+00
  9.90000000E+02  2.00000000E+01  0.00000000E+00
  9.90000000E+02  1.80000000E+01  0.00000000E+00
  9.90000000E+02  1.60000000E+01  0.00000000E+00
  9.90000000E+02  1.40000000E+01  0.00000000E+00
  9.90000000E+02  1.20000000E+01  0.00000000E+00
  9.90000000E+02  1.00000000E+01  0.00000000E+00
  9.90000000E+02  8.00000000E+00  0.00000000E+00
  9.90000000E+02  6.00000000E+00  0.00000000E+00
  9.90000000E+02  4.00000000E+00  0.00000000E+00
  9.90000000E+02  2.00000000E+00  0.00000000E+00
  9.90000000E+02 -3.33066907E-14  0.00000000E+00
  1.00000000E+03  1.00000000E+02  0.00000000E+00
  1.00000000E+03  9.80000000E+01  0.00000000E+00
  1.00000000E+03  9.60000000E+01  0.00000000E+00
  1.00000000E+03  9.40000000E+01  0.00000000E+00
  1.00000000E+03  9.20000000E+01  0.00000000E+00
  1.00000000E+03  9.00000000E+01  0.00000000E+00
  1.00000000E+03  8.80000000E+01  0.00000000E+00
  1.00000000E+03  8.60000000E+01  0.00000000E+00
  1.00000000E+03  8.40000000E+01  0.00000000E+00
  1.00000000E+03  8.20000000E+01  0.00000000E+00
  1.00000000E+03  8.00000000E+01  0.00000000E+00
  1.00000000E+03  7.80000000E+01  0.00000000E+00
  1.00000000E+03  7.60000000E+01  0.00000000E+00
  1.00000000E+03  7.40000000E+01  0.00000000E+00
  1.00000000E+03  7.20000000E+01  0.00000000E+00
  1.00000000E+03  7.00000000E+01  0.00000000E+00
  1.00000000E+03  6.80000000E+01  0.00000000E+00
  1.00000000E+03  6.60000000E+01  0.00000000E+00
  1.00000000E+03  6.40000000E+01  0.00000000E+00
  1.00000000E+03  6.20000000E+01  0.00000000E+00
  1.00000000E+03  6.00000000E+01  0.00000000E+00
  1.00000000E+03  5.80000000E+01  0.00000000E+00
  1.00000000E+03  5.60000000E+01  0.00000000E+00
  1.00000000E+03  5.40000000E+01  0.00000000E+00
  1.00000000E+03  5.20000000E+01  0.00000000E+00
  1.00000000E+03  5.00000000E+01  0.00000000E+00
  1.00000000E+03  4.80000000E+01  0.00000000E+00
  1.00000000E+03  4.60000000E+01  0.00000000E+00
  1.00000000E+03  4.40000000E+01  0.00000000E+00
  1.00000000E+03  4.20000000E+01  0.00000000E+00
  1.00000000E+03  4.00000000E+01  0.00000000E+00
  1.00000000E+03  3.80000000E+01  0.00000000E+00
  1.00000000E+03  3.60000000E+01  0.00000000E+00
  1.00000000E+03  3.40000000E+01  0.00000000E+00
  1.00000000E+03  3.20000000E+01  0.00000000E+00
  1.00000000E+03  3.00000000E+01  0.00000000E+00
  1.00000000E+03  2.80000000E+01  0.00000000E+00
  1.00000000E+03  2.60000000E+01  0.00000000E+00
  1.00000000E+03  2.40000000E+01  0.00000000E+00
  1.00000000E+03  2.20000000E+01  0.00000000E+00
  1.00000000E+03  2.00000000E+01  0.00000000E+00
  1.00000000E+03  1.80000000E+01  0.00000000E+00
  1.00000000E+03  1.60000000E+01  0.00000000E+00
  1.00000000E+03  1.40000000E+01  0.00000000E+00
  1.00000000E+03  1.20000000E+01  0.00000000E+00
  1.00000000E+03  1.00000000E+01  0.00000000E+00
  1.00000000E+03  8.00000000E+00  0.00000000E+00
  1.00000000E+03  6.00000000E+00  0.00000000E+00
  1.00000000E+03  4.00000000E+00  0.00000000E+00
  1.00000000E+03  2.00000000E+00  0.00000000E+00
  1.00000000E+03 -3.33066907E-14  0.00000000E+00
CELLS      5000     25000
         4           0           1          52          51
         4           1           2          53          52
         4           2           3          54          53
         4           3           4          55          54
         4           4           5          56          55
         4           5           6          57          56
         4           6           7          58          57
         4           7           8          59          58
         4           8           9          60          59
         4           9          10          61          60
         4          10          11          62          61
         4          11          12          63          62
         4          12          13          64          63
         4          13          14          65          64
         4          14          15          66          65
         4          15          16          67          66
         4          16          17          68          67
         4          17          18          69          68
         4          18          19          70          69
         4          19          20          71          70
         4          20          21          72          71
         4          21          22          73          72
         4          22          23          74          73
         4          23          24          75          74
         4          24          25          76          75
         4          25          26          77          76
         4          26          27          78          77
         4          27          28          79          78
         4          28          29          80          79
         4          29          30          81          80
         4          30          31          82          81
         4          31          32          83          82
         4          32          33          84          83
         4          33          34          85          84
         4          34          35          86          85
         4          35          36          87          86
         4          36          37          88          87
         4          37          38          89          88
         4          38          39          90          89
         4          39          40          91          90
         4          40          41          92          91
         4          41          42          93          92
         4          42          43          94          93
         4          43          44          95          94
         4          44          45          96          95
         4          45          46          97          96
         4          46          47          98          97
         4          47          48          99          98
         4          48          49         100          99
         4          49          50         101         100
         4          51          52         103         102
         4          52          53         104         103
         4          53          54         105         104
         4          54          55         106         105
         4          55          56         107         106
         4          56          57         108         107
         4          57          58         109         108
         4          58          59         110         109
         4          59          60         111         110
         4          60          61         112         111
         4          61          62         113         112
         4          62          63         114         113
         4          63          64         115         114
         4          64          65         116         115
         4          65          66         117         116
         4          66          67         118         117
         4          67          68         119         118
         4          68          69         120         119
         4          69          70         121         120
         4          70          71         122         121
         4          71          72         123         122
         4          72          73         124         123
         4          73          74         125         124
         4          74          75         126         125
         4          75          76         127         126
         4          76          77         128         127
         4          77          78         129         128
         4          78          79         130         129
         4          79          80         131         130
         4          80          81         132         131
         4          81          82         133         132
         4          82          83         134         133
         4          83          84         135         134
         4          84          85         136         135
         4          85          86         137         136
         4          86          87         138         137
         4          87          88         139         138
         4          88          89         140         139
         4          89          90         141         140
         4          90          91         142         141
         4          91          92         143         142
         4          92          93         144         143
         4          93          94         145         144
         4          94          95         146         145
         4          95          96         147         146
         4          96          97         148         147
         4          97          98         149         148
         4          98          99         150         149
         4          99         100         151         150
         4         100         101         152         151
         4         102         103         154         153
         4         103         104         155         154
         4         104         105         156         155
         4         105         106         157         156
         4         106         107         158         157
         4         107         108         159         158
         4         108         109         160         159
         4         109         110         161         160
         4         110         111         162         161
         4         111         112         163         162
         4         112         113         164         163
         4         113         114         165         164
         4         114         115         166         165
         4         115         116         167         166
         4         116         117         168         167
         4         117         118         169         168
         4         118         119         170         169
         4         119         120         171         170
         4         120         121         172         171
         4         121         122         173         172
         4         122         123         174         173
         4         123         124         175         174
         4         124         125         176         175
         4         125         126         177         176
         4         126         127         178         177
         4         127         128         179         178
         4         128         129         180         179
         4         129         130         181         180
         4         130         131         182         181
         4         131         132         183         182
         4         132         133         184         183
         4         133         134         185         184
         4         134         135         186         185
         4         135         136         187         186
         4         136         137         188         187
         4         137         138         189         188
         4         138         139         190         189
         4         139         140         191         190
         4         140         141         192         191
         4         141         142         193         192
         4         142         143         194         193
         4         143         144         195         194
         4         144         145         196         195
         4         145         146         197         196
         4         146         147         198         197
         4         147         148         199         198
         4         148         149         200         199
         4         149         150         201         200
         4         150         151         202         201
         4         151         152         203         202
         4         153         154         205         204
         4         154         155         206         205
         4         155         156         207         206
         4         156         157         208         207
         4         157         158         209         208
         4         158         159         210         209
         4         159         160         211         210
         4         160         161         212         211
         4         161         162         213         212
         4         162         163         214         213
         4         163         164         215         214
         4         164         165         216         215
         4         165         166         217         216
         4         166         167         218         217
         4         167         168         219         218
         4         168         169         220         219
         4         169         170         221         220
         4         170         171         222         221
         4         171         172         223         222
         4         172         173         224         223
         4         173         174         225         224
         4         174         175         226         225
         4         175         176         227         226
         4         176         177         228         227
         4         177         178         229         228
         4         178         179         230         229
         4         179         180         231         230
         4         180         181         232         231
         4         181         182         233         232
         4         182         183         234         233
         4         183         184         235         234
         4         184         185         236         235
         4         185         186         237         236
         4         186         187         238         237
         4         187         188         239         238
         4         188         189         240         239
         4         189         190         241         240
         4         190         191         242         241
         4         191         192         243         242
         4         192         193         244         243
         4         193         194         245         244
         4         194         195         246         245
         4         195         196         247         246
         4         196         197         248         247
         4         197         198         249         248
         4         198         199         250         249
         4         199         200         251         250
         4         200         201         252         251
         4         201         202         253         252
         4         202         203         254         253
         4         204         205         256         255
         4         205         206         257         256
         4         206         207         258         257
         4         207         208         259         258
         4         208         209         260         259
         4         209         210         261         260
         4         210         211         262         261
         4         211         212         263         262
         4         212         213         264         263
         4         213         214         265         264
         4         214         215         266         265
         4         215         216         267         266
         4         216         217         268         267
         4         217         218         269         268
         4         218         219         270         269
         4         219         220         271         270
         4         220         221         272         271
         4         221         222         273         272
         4         222         223         274         273
         4         223         224         275         274
         4         224         225         276         275
         4         225         226         277         276
         4         226         227         278         277
         4         227         228         279         278
         4         228         229         280         279
         4         229         230         281         280
         4         230         231         282         281
         4         231         232         283         282
         4         232         233         284         283
         4         233         234         285         284
         4         234         235         286         285
         4         235         236         287         286
         4         236         237         288         287
         4         237         238         289         288
         4         238         239         290         289
         4         239         240         291         290
         4         240         241         292         291
         4         241         242         293         292
         4         242         243         294         293
         4         243         244         295         294
         4         244         245         296         295
         4         245         246         297         296
         4         246         247         298         297
         4         247         248         299         298
         4         248         249         300         299
         4         249         250         301         300
         4         250         251         302         301
         4         251         252         303         302
         4         252         253         304         303
         4         253         254         305         304
         4         255         256         307         306
         4         256         257         308         307
         4         257         258         309         308
         4         258         259         310         309
         4         259         260         311         310
         4         260         261         312         311
         4         261         262         313         312
         4         262         263         314         313
         4         263         264         315         314
         4         264         265         316         315
         4         265         266         317         316
         4         266         267         318         317
         4         267         268         319         318
         4         268         269         320         319
         4         269         270         321         320
         4         270         271         322         321
         4         271         272         323         322
         4         272         273         324         323
         4         273         274         325         324
         4         274         275         326         325
         4         275         276         327         326
         4         276         277         328         327
         4         277         278         329         328
         4         278         279         330         329
         4         279         280         331         330
         4         280         281         332         331
         4         281         282         333         332
         4         282         283         334         333
         4         283         284         335         334
         4         284         285         336         335
         4         285         286         337         336
         4         286         287         338         337
         4         287         288         339         338
         4         288         289         340         339
         4         289         290         341         340
         4         290         291         342         341
         4         291         292         343         342
         4         292         293         344         343
         4         293         294         345         344
         4         294         295         346         345
         4         295         296         347         346
         4         296         297         348         347
         4         297         298         349         348
         4         298         299         350         349
         4         299         300         351         350
         4         300         301         352         351
         4         301         302         353         352
         4         302         303         354         353
         4         303         304         355         354
         4         304         305         356         355
         4         306         307         358         357
         4         307         308         359         358
         4         308         309         360         359
         4         309         310         361         360
         4         310         311         362         361
         4         311         312         363         362
         4         312         313         364         363
         4         313         314         365         364
         4         314         315         366         365
         4         315         316         367         366
         4         316         317         368         367
         4         317         318         369         368
         4         318         319         370         369
         4         319         320         371         370
         4         320         321         372         371
         4         321         322         373         372
         4         322         323         374         373
         4         323         324         375         374
         4         324         325         376         375
         4         325         326         377         376
         4         326         327         378         377
         4         327         328         379         378
         4         328         329         380         379
         4         329         330         381         380
         4         330         331         382         381
         4         331         332         383         382
         4         332         333         384         383
         4         333         334         385         384
         4         334         335         386         385
         4         335         336         387         386
         4         336         337         388         387
         4         337         338         389         388
         4         338         339         390         389
         4         339         340         391         390
         4         340         341         392         391
         4         341         342         393         392
         4         342         343         394         393
         4         343         344         395         394
         4         344         345         396         395
         4         345         346         397         396
         4         346         347         398         397
         4         347         348         399         398
         4         348         349         400         399
         4         349         350         401         400
         4         350         351         402         401
         4         351         352         403         402
         4         352         353         404         403
         4         353         354         405         404
         4         354         355         406         405
         4         355         356         407         406
         4         357         358         409         408
         4         358         359         410         409
         4         359         360         411         410
         4         360         361         412         411
         4         361         362         413         412
         4         362         363         414         413
         4         363         364         415         414
         4         364         365         416         415
         4         365         366         417         416
         4         366         367         418         417
         4         367         368         419         418
         4         368         369         420         419
         4         369         370         421         420
         4         370         371         422         421
         4         371         372         423         422
         4         372         373         424         423
         4         373         374         425         424
         4         374         375         426         425
         4         375         376         427         426
         4         376         377         428         427
         4         377         378         429         428
         4         378         379         430         429
         4         379         380         431         430
         4         380         381         432         431
         4         381         382         433         432
         4         382         383         434         433
         4         383         384         435         434
         4         384         385         436         435
         4         385         386         437         436
         4         386         387         438         437
         4         387         388         439         438
         4         388         389         440         439
         4         389         390         441         440
         4         390         391         442         441
         4         391         392         443         442
         4         392         393         444         443
         4         393         394         445         444
         4         394         395         446         445
         4         395         396         447         446
         4         396         397         448         447
         4         397         398         449         448
         4         398         399         450         449
         4         399         400         451         450
         4         400         401         452         451
         4         401         402         453         452
         4         402         403         454         453
         4         403         404         455         454
         4         404         405         456         455
         4         405         406         457         456
         4         406         407         458         457
         4         408         409         460         459
         4         409         410         461         460
         4         410         411         462         461
         4         411         412         463         462
         4         412         413         464         463
         4         413         414         465         464
         4         414         415         466         465
         4         415         416         467         466
         4         416         417         468         467
         4         417         418         469         468
         4         418         419         470         469
         4         419         420         471         470
         4         420         421         472         471
         4         421         422         473         472
         4         422         423         474         473
         4         423         424         475         474
         4         424         425         476         475
         4         425         426         477         476
         4         426         427         478         477
         4         427         428         479         478
         4         428         429         480         479
         4         429         430         481         480
         4         430         431         482         481
         4         431         432         483         482
         4         432         433         484         483
         4         433         434         485         484
         4         434         435         486         485
         4         435         436         487         486
         4         436         437         488         487
         4         437         438         489         488
         4         438         439         490         489
         4         439         440         491         490
         4         440         441         492         491
         4         441         442         493         492
         4         442         443         494         493
         4         443         444         495         494
         4         444         445         496         495
         4         445         446         497         496
         4         446         447         498         497
         4         447         448         499         498
         4         448         449         500         499
         4         449         450         501         500
         4         450         451         502         501
         4         451         452         503         502
         4         452         453         504         503
         4         453         454         505         504
         4         454         455         506         505
         4         455         456         507         506
         4         456         457         508         507
         4         457         458         509         508
         4         459         460         511         510
         4         460         461         512         511
         4         461         462         513         512
         4         462         463         514         513
         4         463         464         515         514
         4         464         465         516         515
         4         465         466         517         516
         4         466         467         518         517
         4         467         468         519         518
         4         468         469         520         519
         4         469         470         521         520
         4         470         471         522         521
         4         471         472         523         522
         4         472         473         524         523
         4         473         474         525         524
         4         474         475         526         525
         4         475         476         527         526
         4         476         477         528         527
         4         477         478         529         528
         4         478         479         530         529
         4         479         480         531         530
         4         480         481         532         531
         4         481         482         533         532
         4         482         483         534         533
         4         483         484         535         534
         4         484         485         536         535
         4         485         486         537         536
         4         486         487         538         537
         4         487         488         539         538
         4         488         489         540         539
         4         489         490         541         540
         4         490         491         542         541
         4         491         492         543         542
         4         492         493         544         543
         4         493         494         545         544
         4         494         495         546         545
         4         495         496         547         546
         4         496         497         548         547
         4         497         498         549         548
         4         498         499         550         549
         4         499         500         551         550
         4         500         501         552         551
         4         501         502         553         552
         4         502         503         554         553
         4         503         504         555         554
         4         504         505         556         555
         4         505         506         557         556
         4         506         507         558         557
         4         507         508         559         558
         4         508         509         560         559
         4         510         511         562         561
         4         511         512         563         562
         4         512         513         564         563
         4         513         514         565         564
         4         514         515         566         565
         4         515         516         567         566
         4         516         517         568         567
         4         517         518         569         568
         4         518         519         570         569
         4         519         520         571         570
         4         520         521         572         571
         4         521         522         573         572
         4         522         523         574         573
         4         523         524         575         574
         4         524         525         576         575
         4         525         526         577         576
         4         526         527         578         577
         4         527         528         579         578
         4         528         529         580         579
         4         529         530         581         580
         4         530         531         582         581
         4         531         532         583         582
         4         532         533         584         583
         4         533         534         585         584
         4         534         535         586         585
         4         535         536         587         586
         4         536         537         588         587
         4         537         538         589         588
         4         538         539         590         589
         4         539         540         591         590
         4         540         541         592         591
         4         541         542         593         592
         4         542         543         594         593
         4         543         544         595         594
         4         544         545         596         595
         4         545         546         597         596
         4         546         547         598         597
         4         547         548         599         598
         4         548         549         600         599
         4         549         550         601         600
         4         550         551         602         601
         4         551         552         603         602
         4         552         553         604         603
         4         553         554         605         604
         4         554         555         606         605
         4         555         556         607         606
         4         556         557         608         607
         4         557         558         609         608
         4         558         559         610         609
         4         559         560         611         610
         4         561         562         613         612
         4         562         563         614         613
         4         563         564         615         614
         4         564         565         616         615
         4         565         566         617         616
         4         566         567         618         617
         4         567         568         619         618
         4         568         569         620         619
         4         569         570         621         620
         4         570         571         622         621
         4         571         572         623         622
         4         572         573         624         623
         4         573         574         625         624
         4         574         575         626         625
         4         575         576         627         626
         4         576         577         628         627
         4         577         578         629         628
         4         578         579         630         629
         4         579         580         631         630
         4         580         581         632         631
         4         581         582         633         632
         4         582         583         634         633
         4         583         584         635         634
         4         584         585         636         635
         4         585         586         637         636
         4         586         587         638         637
         4         587         588         639         638
         4         588         589         640         639
         4         589         590         641         640
         4         590         591         642         641
         4         591         592         643         642
         4         592         593         644         643
         4         593         594         645         644
         4         594         595         646         645
         4         595         596         647         646
         4         596         597         648         647
         4         597         598         649         648
         4         598         599         650         649
         4         599         600         651         650
         4         600         601         652         651
         4         601         602         653         652
         4         602         603         654         653
         4         603         604         655         654
         4         604         605         656         655
         4         605         606         657         656
         4         606         607         658         657
         4         607         608         659         658
         4         608         609         660         659
         4         609         610         661         660
         4         610         611         662         661
         4         612         613         664         663
         4         613         614         665         664
         4         614         615         666         665
         4         615         616         667         666
         4         616         617         668         667
         4         617         618         669         668
         4         618         619         670         669
         4         619         620         671         670
         4         620         621         672         671
         4         621         622         673         672
         4         622         623         674         673
         4         623         624         675         674
         4         624         625         676         675
         4         625         626         677         676
         4         626         627         678         677
         4         627         628         679         678
         4         628         629         680         679
         4         629         630         681         680
         4         630         631         682         681
         4         631         632         683         682
         4         632         633         684         683
         4         633         634         685         684
         4         634         635         686         685
         4         635         636         687         686
         4         636         637         688         687
         4         637         638         689         688
         4         638         639         690         689
         4         639         640         691         690
         4         640         641         692         691
         4         641         642         693         692
         4         642         643         694         693
         4         643         644         695         694
         4         644         645         696         695
         4         645         646         697         696
         4         646         647         698         697
         4         647         648         699         698
         4         648         649         700         699
         4         649         650         701         700
         4         650         651         702         701
         4         651         652         703         702
         4         652         653         704         703
         4         653         654         705         704
         4         654         655         706         705
         4         655         656         707         706
         4         656         657         708         707
         4         657         658         709         708
         4         658         659         710         709
         4         659         660         711         710
         4         660         661         712         711
         4         661         662         713         712
         4         663         664         715         714
         4         664         665         716         715
         4         665         666         717         716
         4         666         667         718         717
         4         667         668         719         718
         4         668         669         720         719
         4         669         670         721         720
         4         670         671         722         721
         4         671         672         723         722
         4         672         673         724         723
         4         673         674         725         724
         4         674         675         726         725
         4         675         676         727         726
         4         676         677         728         727
         4         677         678         729         728
         4         678         679         730         729
         4         679         680         731         730
         4         680         681         732         731
         4         681         682         733         732
         4         682         683         734         733
         4         683         684         735         734
         4         684         685         736         735
         4         685         686         737         736
         4         686         687         738         737
         4         687         688         739         738
         4         688         689         740         739
         4         689         690         741         740
         4         690         691         742         741
         4         691         692         743         742
         4         692         693         744         743
         4         693         694         745         744
         4         694         695         746         745
         4         695         696         747         746
         4         696         697         748         747
         4         697         698         749         748
         4         698         699         750         749
         4         699         700         751         750
         4         700         701         752         751
         4         701         702         753         752
         4         702         703         754         753
         4         703         704         755         754
         4         704         705         756         755
         4         705         706         757         756
         4         706         707         758         757
         4         707         708         759         758
         4         708         709         760         759
         4         709         710         761         760
         4         710         711         762         761
         4         711         712         763         762
         4         712         713         764         763
         4         714         715         766         765
         4         715         716         767         766
         4         716         717         768         767
         4         717         718         769         768
         4         718         719         770         769
         4         719         720         771         770
         4         720         721         772         771
         4         721         722         773         772
         4         722         723         774         773
         4         723         724         775         774
         4         724         725         776         775
         4         725         726         777         776
         4         726         727         778         777
         4         727         728         779         778
         4         728         729         780         779
         4         729         730         781         780
         4         730         731         782         781
         4         731         732         783         782
         4         732         733         784         783
         4         733         734         785         784
         4         734         735         786         785
         4         735         736         787         786
         4         736         737         788         787
         4         737         738         789         788
         4         738         739         790         789
         4         739         740         791         790
         4         740         741         792         791
         4         741         742         793         792
         4         742         743         794         793
         4         743         744         795         794
         4         744         745         796         795
         4         745         746         797         796
         4         746         747         798         797
         4         747         748         799         798
         4         748         749         800         799
         4         749         750         801         800
         4         750         751         802         801
         4         751         752         803         802
         4         752         753         804         803
         4         753         754         805         804
         4         754         755         806         805
         4         755         756         807         806
         4         756         757         808         807
         4         757         758         809         808
         4         758         759         810         809
         4         759         760         811         810
         4         760         761         812         811
         4         761         762         813         812
         4         762         763         814         813
         4         763         764         815         814
         4         765         766         817         816
         4         766         767         818         817
         4         767         768         819         818
         4         768         769         820         819
         4         769         770         821         820
         4         770         771         822         821
         4         771         772         823         822
         4         772         773         824         823
         4         773         774         825         824
         4         774         775         826         825
         4         775         776         827         826
         4         776         777         828         827
         4         777         778         829         828
         4         778         779         830         829
         4         779         780         831         830
         4         780         781         832         831
         4         781         782         833         832
         4         782         783         834         833
         4         783         784         835         834
         4         784         785         836         835
         4         785         786         837         836
         4         786         787         838         837
         4         787         788         839         838
         4         788         789         840         839
         4         789         790         841         840
         4         790         791         842         841
         4         791         792         843         842
         4         792         793         844         843
         4         793         794         845         844
         4         794         795         846         845
         4         795         796         847         846
         4         796         797         848         847
         4         797         798         849         848
         4         798         799         850         849
         4         799         800         851         850
         4         800         801         852         851
         4         801         802         853         852
         4         802         803         854         853
         4         803         804         855         854
         4         804         805         856         855
         4         805         806         857         856
         4         806         807         858         857
         4         807         808         859         858
         4         808         809         860         859
         4         809         810         861         860
         4         810         811         862         861
         4         811         812         863         862
         4         812         813         864         863
         4         813         814         865         864
         4         814         815         866         865
         4         816         817         868         867
         4         817         818         869         868
         4         818         819         870         869
         4         819         820         871         870
         4         820         821         872         871
         4         821         822         873         872
         4         822         823         874         873
         4         823         824         875         874
         4         824         825         876         875
         4         825         826         877         876
         4         826         827         878         877
         4         827         828         879         878
         4         828         829         880         879
         4         829         830         881         880
         4         830         831         882         881
         4         831         832         883         882
         4         832         833         884         883
         4         833         834         885         884
         4         834         835         886         885
         4         835         836         887         886
         4         836         837         888         887
         4         837         838         889         888
         4         838         839         890         889
         4         839         840         891         890
         4         840         841         892         891
         4         841         842         893         892
         4         842         843         894         893
         4         843         844         895         894
         4         844         845         896         895
         4         845         846         897         896
         4         846         847         898         897
         4         847         848         899         898
         4         848         849         900         899
         4         849         850         901         900
         4         850         851         902         901
         4         851         852         903         902
         4         852         853         904         903
         4         853         854         905         904
         4         854         855         906         905
         4         855         856         907         906
         4         856         857         908         907
         4         857         858         909         908
         4         858         859         910         909
         4         859         860         911         910
         4         860         861         912         911
         4         861         862         913         912
         4         862         863         914         913
         4         863         864         915         914
         4         864         865         916         915
         4         865         866         917         916
         4         867         868         919         918
         4         868         869         920         919
         4         869         870         921         920
         4         870         871         922         921
         4         871         872         923         922
         4         872         873         924         923
         4         873         874         925         924
         4         874         875         926         925
         4         875         876         927         926
         4         876         877         928         927
         4         877         878         929         928
         4         878         879         930         929
         4         879         880         931         930
         4         880         881         932         931
         4         881         882         933         932
         4         882         883         934         933
         4         883         884         935         934
         4         884         885         936         935
         4         885         886         937         936
         4         886         887         938         937
         4         887         888         939         938
         4         888         889         940         939
         4         889         890         941         940
         4         890         891         942         941
         4         891         892         943         942
         4         892         893         944         943
         4         893         894         945         944
         4         894         895         946         945
         4         895         896         947         946
         4         896         897         948         947
         4         897         898         949         948
         4         898         899         950         949
         4         899         900         951         950
         4         900         901         952         951
         4         901         902         953         952
         4         902         903         954         953
         4         903         904         955         954
         4         904         905         956         955
         4         905         906         957         956
         4         906         907         958         957
         4         907         908         959         958
         4         908         909         960         959
         4         909         910         961         960
         4         910         911         962         961
         4         911         912         963         962
         4         912         913         964         963
         4         913         914         965         964
         4         914         915         966         965
         4         915         916         967         966
         4         916         917         968         967
         4         918         919         970         969
         4         919         920         971         970
         4         920         921         972         971
         4         921         922         973         972
         4         922         923         974         973
         4         923         924         975         974
         4         924         925         976         975
         4         925         926         977         976
         4         926         927         978         977
         4         927         928         979         978
         4         928         929         980         979
         4         929         930         981         980
         4         930         931         982         981
         4         931         932         983         982
         4         932         933         984         983
         4         933         934         985         984
         4         934         935         986         985
         4         935         936         987         986
         4         936         937         988         987
         4         937         938         989         988
         4         938         939         990         989
         4         939         940         991         990
         4         940         941         992         991
         4         941         942         993         992
         4         942         943         994         993
         4         943         944         995         994
         4         944         945         996         995
         4         945         946         997         996
         4         946         947         998         997
         4         947         948         999         998
         4         948         949        1000         999
         4         949         950        1001        1000
         4         950         951        1002        1001
         4         951         952        1003        1002
         4         952         953        1004        1003
         4         953         954        1005        1004
         4         954         955        1006        1005
         4         955         956        1007        1006
         4         956         957        1008        1007
         4         957         958        1009        1008
         4         958         959        1010        1009
         4         959         960        1011        1010
         4         960         961        1012        1011
         4         961         962        1013        1012
         4         962         963        1014        1013
         4         963         964        1015        1014
         4         964         965        1016        1015
         4         965         966        1017        1016
         4         966         967        1018        1017
         4         967         968        1019        1018
         4         969         970        1021        1020
         4         970         971        1022        1021
         4         971         972        1023        1022
         4         972         973        1024        1023
         4         973         974        1025        1024
         4         974         975        1026        1025
         4         975         976        1027        1026
         4         976         977        1028        1027
         4         977         978        1029        1028
         4         978         979        1030        1029
         4         979         980        1031        1030
         4         980         981        1032        1031
         4         981         982        1033        1032
         4         982         983        1034        1033
         4         983         984        1035        1034
         4         984         985        1036        1035
         4         985         986        1037        1036
         4         986         987        1038        1037
         4         987         988        1039        1038
         4         988         989        1040        1039
         4         989         990        1041        1040
         4         990         991        1042        1041
         4         991         992        1043        1042
         4         992         993        1044        1043
         4         993         994        1045        1044
         4         994         995        1046        1045
         4         995         996        1047        1046
         4         996         997        1048        1047
         4         997         998        1049        1048
         4         998         999        1050        1049
         4         999        1000        1051        1050
         4        1000        1001        1052        1051
         4        1001        1002        1053        1052
         4        1002        1003        1054        1053
         4        1003        1004        1055        1054
         4        1004        1005        1056        1055
         4        1005        1006        1057        1056
         4        1006        1007        1058        1057
         4        1007        1008        1059        1058
         4        1008        1009        1060        1059
         4        1009        1010        1061        1060
         4        1010        1011        1062        1061
         4        1011        1012        1063        1062
         4        1012        1013        1064        1063
         4        1013        1014        1065        1064
         4        1014        1015        1066        1065
         4        1015        1016        1067        1066
         4        1016        1017        1068        1067
         4        1017        1018        1069        1068
         4        1018        1019        1070        1069
         4        1020        1021        1072        1071
         4        1021        1022        1073        1072
         4        1022        1023        1074        1073
         4        1023        1024        1075        1074
         4        1024        1025        1076        1075
         4        1025        1026        1077        1076
         4        1026        1027        1078        1077
         4        1027        1028        1079        1078
         4        1028        1029        1080        1079
         4        1029        1030        1081        1080
         4        1030        1031        1082        1081
         4        1031        1032        1083        1082
         4        1032        1033        1084        1083
         4        1033        1034        1085        1084
         4        1034        1035        1086        1085
         4        1035        1036        1087        1086
         4        1036        1037        1088        1087
         4        1037        1038        1089        1088
         4        1038        1039        1090        1089
         4        1039        1040        1091        1090
         4        1040        1041        1092        1091
         4        1041        1042        1093        1092
         4        1042        1043        1094        1093
         4        1043        1044        1095        1094
         4        1044        1045        1096        1095
         4        1045        1046        1097        1096
         4        1046        1047        1098        1097
         4        1047        1048        1099        1098
         4        1048        1049        1100        1099
         4        1049        1050        1101        1100
         4        1050        1051        1102        1101
         4        1051        1052        1103        1102
         4        1052        1053        1104        1103
         4        1053        1054        1105        1104
         4        1054        1055        1106        1105
         4        1055        1056        1107        1106
         4        1056        1057        1108        1107
         4        1057        1058        1109        1108
         4        1058        1059        1110        1109
         4        1059        1060        1111        1110
         4        1060        1061        1112        1111
         4        1061        1062        1113        1112
         4        1062        1063        1114        1113
         4        1063        1064        1115        1114
         4        1064        1065        1116        1115
         4        1065        1066        1117        1116
         4        1066        1067        1118        1117
         4        1067        1068        1119        1118
         4        1068        1069        1120        1119
         4        1069        1070        1121        1120
         4        1071        1072        1123        1122
         4        1072        1073        1124        1123
         4        1073        1074        1125        1124
         4        1074        1075        1126        1125
         4        1075        1076        1127        1126
         4        1076        1077        1128        1127
         4        1077        1078        1129        1128
         4        1078        1079        1130        1129
         4        1079        1080        1131        1130
         4        1080        1081        1132        1131
         4        1081        1082        1133        1132
         4        1082        1083        1134        1133
         4        1083        1084        1135        1134
         4        1084        1085        1136        1135
         4        1085        1086        1137        1136
         4        1086        1087        1138        1137
         4        1087        1088        1139        1138
         4        1088        1089        1140        1139
         4        1089        1090        1141        1140
         4        1090        1091        1142        1141
         4        1091        1092        1143        1142
         4        1092        1093        1144        1143
         4        1093        1094        1145        1144
         4        1094        1095        1146        1145
         4        1095        1096        1147        1146
         4        1096        1097        1148        1147
         4        1097        1098        1149        1148
         4        1098        1099        1150        1149
         4        1099        1100        1151        1150
         4        1100        1101        1152        1151
         4        1101        1102        1153        1152
         4        1102        1103        1154        1153
         4        1103        1104        1155        1154
         4        1104        1105        1156        1155
         4        1105        1106        1157        1156
         4        1106        1107        1158        1157
         4        1107        1108        1159        1158
         4        1108        1109        1160        1159
         4        1109        1110        1161        1160
         4        1110        1111        1162        1161
         4        1111        1112        1163        1162
         4        1112        1113        1164        1163
         4        1113        1114        1165        1164
         4        1114        1115        1166        1165
         4        1115        1116        1167        1166
         4        1116        1117        1168        1167
         4        1117        1118        1169        1168
         4        1118        1119        1170        1169
         4        1119        1120        1171        1170
         4        1120        1121        1172        1171
         4        1122        1123        1174        1173
         4        1123        1124        1175        1174
         4        1124        1125        1176        1175
         4        1125        1126        1177        1176
         4        1126        1127        1178        1177
         4        1127        1128        1179        1178
         4        1128        1129        1180        1179
         4        1129        1130        1181        1180
         4        1130        1131        1182        1181
         4        1131        1132        1183        1182
         4        1132        1133        1184        1183
         4        1133        1134        1185        1184
         4        1134        1135        1186        1185
         4        1135        1136        1187        1186
         4        1136        1137        1188        1187
         4        1137        1138        1189        1188
         4        1138        1139        1190        1189
         4        1139        1140        1191        1190
         4        1140        1141        1192        1191
         4        1141        1142        1193        1192
         4        1142        1143        1194        1193
         4        1143        1144        1195        1194
         4        1144        1145        1196        1195
         4        1145        1146        1197        1196
         4        1146        1147        1198        1197
         4        1147        1148        1199        1198
         4        1148        1149        1200        1199
         4        1149        1150        1201        1200
         4        1150        1151        1202        1201
         4        1151        1152        1203        1202
         4        1152        1153        1204        1203
         4        1153        1154        1205        1204
         4        1154        1155        1206        1205
         4        1155        1156        1207        1206
         4        1156        1157        1208        1207
         4        1157        1158        1209        1208
         4        1158        1159        1210        1209
         4        1159        1160        1211        1210
         4        1160        1161        1212        1211
         4        1161        1162        1213        1212
         4        1162        1163        1214        1213
         4        1163        1164        1215        1214
         4        1164        1165        1216        1215
         4        1165        1166        1217        1216
         4        1166        1167        1218        1217
         4        1167        1168        1219        1218
         4        1168        1169        1220        1219
         4        1169        1170        1221        1220
         4        1170        1171        1222        1221
         4        1171        1172        1223        1222
         4        1173        1174        1225        1224
         4        1174        1175        1226        1225
         4        1175        1176        1227        1226
         4        1176        1177        1228        1227
         4        1177        1178        1229        1228
         4        1178        1179        1230        1229
         4        1179        1180        1231        1230
         4        1180        1181        1232        1231
         4        1181        1182        1233        1232
         4        1182        1183        1234        1233
         4        1183        1184        1235        1234
         4        1184        1185        1236        1235
         4        1185        1186        1237        1236
         4        1186        1187        1238        1237
         4        1187        1188        1239        1238
         4        1188        1189        1240        1239
         4        1189        1190        1241        1240
         4        1190        1191        1242        1241
         4        1191        1192        1243        1242
         4        1192        1193        1244        1243
         4        1193        1194        1245        1244
         4        1194        1195        1246        1245
         4        1195        1196        1247        1246
         4        1196        1197        1248        1247
         4        1197        1198        1249        1248
         4        1198        1199        1250        1249
         4        1199        1200        1251        1250
         4        1200        1201        1252        1251
         4        1201        1202        1253        1252
         4        1202        1203        1254        1253
         4        1203        1204        1255        1254
         4        1204        1205        1256        1255
         4        1205        1206        1257        1256
         4        1206        1207        1258        1257
         4        1207        1208        1259        1258
         4        1208        1209        1260        1259
         4        1209        1210        1261        1260
         4        1210        1211        1262        1261
         4        1211        1212        1263        1262
         4        1212        1213        1264        1263
         4        1213        1214        1265        1264
         4        1214        1215        1266        1265
         4        1215        1216        1267        1266
         4        1216        1217        1268        1267
         4        1217        1218        1269        1268
         4        1218        1219        1270        1269
         4        1219        1220        1271        1270
         4        1220        1221        1272        1271
         4        1221        1222        1273        1272
         4        1222        1223        1274        1273
         4        1224        1225        1276        1275
         4        1225        1226        1277        1276
         4        1226        1227        1278        1277
         4        1227        1228        1279        1278
         4        1228        1229        1280        1279
         4        1229        1230        1281        1280
         4        1230        1231        1282        1281
         4        1231        1232        1283        1282
         4        1232        1233        1284        1283
         4        1233        1234        1285        1284
         4        1234        1235        1286        1285
         4        1235        1236        1287        1286
         4        1236        1237        1288        1287
         4        1237        1238        1289        1288
         4        1238        1239        1290        1289
         4        1239        1240        1291        1290
         4        1240        1241        1292        1291
         4        1241        1242        1293        1292
         4        1242        1243        1294        1293
         4        1243        1244        1295        1294
         4        1244        1245        1296        1295
         4        1245        1246        1297        1296
         4        1246        1247        1298        1297
         4        1247        1248        1299        1298
         4        1248        1249        1300        1299
         4        1249        1250        1301        1300
         4        1250        1251        1302        1301
         4        1251        1252        1303        1302
         4        1252        1253        1304        1303
         4        1253        1254        1305        1304
         4        1254        1255        1306        1305
         4        1255        1256        1307        1306
         4        1256        1257        1308        1307
         4        1257        1258        1309        1308
         4        1258        1259        1310        1309
         4        1259        1260        1311        1310
         4        1260        1261        1312        1311
         4        1261        1262        1313        1312
         4        1262        1263        1314        1313
         4        1263        1264        1315        1314
         4        1264        1265        1316        1315
         4        1265        1266        1317        1316
         4        1266        1267        1318        1317
         4        1267        1268        1319        1318
         4        1268        1269        1320        1319
         4        1269        1270        1321        1320
         4        1270        1271        1322        1321
         4        1271        1272        1323        1322
         4        1272        1273        1324        1323
         4        1273        1274        1325        1324
         4        1275        1276        1327        1326
         4        1276        1277        1328        1327
         4        1277        1278        1329        1328
         4        1278        1279        1330        1329
         4        1279        1280        1331        1330
         4        1280        1281        1332        1331
         4        1281        1282        1333        1332
         4        1282        1283        1334        1333
         4        1283        1284        1335        1334
         4        1284        1285        1336        1335
         4        1285        1286        1337        1336
         4        1286        1287        1338        1337
         4        1287        1288        1339        1338
         4        1288        1289        1340        1339
         4        1289        1290        1341        1340
         4        1290        1291        1342        1341
         4        1291        1292        1343        1342
         4        1292        1293        1344        1343
         4        1293        1294        1345        1344
         4        1294        1295        1346        1345
         4        1295        1296        1347        1346
         4        1296        1297        1348        1347
         4        1297        1298        1349        1348
         4        1298        1299        1350        1349
         4        1299        1300        1351        1350
         4        1300        1301        1352        1351
         4        1301        1302        1353        1352
         4        1302        1303        1354        1353
         4        1303        1304        1355        1354
         4        1304        1305        1356        1355
         4        1305        1306        1357        1356
         4        1306        1307        1358        1357
         4        1307        1308        1359        1358
         4        1308        1309        1360        1359
         4        1309        1310        1361        1360
         4        1310        1311        1362        1361
         4        1311        1312        1363        1362
         4        1312        1313        1364        1363
         4        1313        1314        1365        1364
         4        1314        1315        1366        1365
         4        1315        1316        1367        1366
         4        1316        1317        1368        1367
         4        1317        1318        1369        1368
         4        1318        1319        1370        1369
         4        1319        1320        1371        1370
         4        1320        1321        1372        1371
         4        1321        1322        1373        1372
         4        1322        1323        1374        1373
         4        1323        1324        1375        1374
         4        1324        1325        1376        1375
         4        1326        1327        1378        1377
         4        1327        1328        1379        1378
         4        1328        1329        1380        1379
         4        1329        1330        1381        1380
         4        1330        1331        1382        1381
         4        1331        1332        1383        1382
         4        1332        1333        1384        1383
         4        1333        1334        1385        1384
         4        1334        1335        1386        1385
         4        1335        1336        1387        1386
         4        1336        1337        1388        1387
         4        1337        1338        1389        1388
         4        1338        1339        1390        1389
         4        1339        1340        1391        1390
         4        1340        1341        1392        1391
         4        1341        1342        1393        1392
         4        1342        1343        1394        1393
         4        1343        1344        1395        1394
         4        1344        1345        1396        1395
         4        1345        1346        1397        1396
         4        1346        1347        1398        1397
         4        1347        1348        1399        1398
         4        1348        1349        1400        1399
         4        1349        1350        1401        1400
         4        1350        1351        1402        1401
         4        1351        1352        1403        1402
         4        1352        1353        1404        1403
         4        1353        1354        1405        1404
         4        1354        1355        1406        1405
         4        1355        1356        1407        1406
         4        1356        1357        1408        1407
         4        1357        1358        1409        1408
         4        1358        1359        1410        1409
         4        1359        1360        1411        1410
         4        1360        1361        1412        1411
         4        1361        1362        1413        1412
         4        1362        1363        1414        1413
         4        1363        1364        1415        1414
         4        1364        1365        1416        1415
         4        1365        1366        1417        1416
         4        1366        1367        1418        1417
         4        1367        1368        1419        1418
         4        1368        1369        1420        1419
         4        1369        1370        1421        1420
         4        1370        1371        1422        1421
         4        1371        1372        1423        1422
         4        1372        1373        1424        1423
         4        1373        1374        1425        1424
         4        1374        1375        1426        1425
         4        1375        1376        1427        1426
         4        1377        1378        1429        1428
         4        1378        1379        1430        1429
         4        1379        1380        1431        1430
         4        1380        1381        1432        1431
         4        1381        1382        1433        1432
         4        1382        1383        1434        1433
         4        1383        1384        1435        1434
         4        1384        1385        1436        1435
         4        1385        1386        1437        1436
         4        1386        1387        1438        1437
         4        1387        1388        1439        1438
         4        1388        1389        1440        1439
         4        1389        1390        1441        1440
         4        1390        1391        1442        1441
         4        1391        1392        1443        1442
         4        1392        1393        1444        1443
         4        1393        1394        1445        1444
         4        1394        1395        1446        1445
         4        1395        1396        1447        1446
         4        1396        1397        1448        1447
         4        1397        1398        1449        1448
         4        1398        1399        1450        1449
         4        1399        1400        1451        1450
         4        1400        1401        1452        1451
         4        1401        1402        1453        1452
         4        1402        1403        1454        1453
         4        1403        1404        1455        1454
         4        1404        1405        1456        1455
         4        1405        1406        1457        1456
         4        1406        1407        1458        1457
         4        1407        1408        1459        1458
         4        1408        1409        1460        1459
         4        1409        1410        1461        1460
         4        1410        1411        1462        1461
         4        1411        1412        1463        1462
         4        1412        1413        1464        1463
         4        1413        1414        1465        1464
         4        1414        1415        1466        1465
         4        1415        1416        1467        1466
         4        1416        1417        1468        1467
         4        1417        1418        1469        1468
         4        1418        1419        1470        1469
         4        1419        1420        1471        1470
         4        1420        1421        1472        1471
         4        1421        1422        1473        1472
         4        1422        1423        1474        1473
         4        1423        1424        1475        1474
         4        1424        1425        1476        1475
         4        1425        1426        1477        1476
         4        1426        1427        1478        1477
         4        1428        1429        1480        1479
         4        1429        1430        1481        1480
         4        1430        1431        1482        1481
         4        1431        1432        1483        1482
         4        1432        1433        1484        1483
         4        1433        1434        1485        1484
         4        1434        1435        1486        1485
         4        1435        1436        1487        1486
         4        1436        1437        1488        1487
         4        1437        1438        1489        1488
         4        1438        1439        1490        1489
         4        1439        1440        1491        1490
         4        1440        1441        1492        1491
         4        1441        1442        1493        1492
         4        1442        1443        1494        1493
         4        1443        1444        1495        1494
         4        1444        1445        1496        1495
         4        1445        1446        1497        1496
         4        1446        1447        1498        1497
         4        1447        1448        1499        1498
         4        1448        1449        1500        1499
         4        1449        1450        1501        1500
         4        1450        1451        1502        1501
         4        1451        1452        1503        1502
         4        1452        1453        1504        1503
         4        1453        1454        1505        1504
         4        1454        1455        1506        1505
         4        1455        1456        1507        1506
         4        1456        1457        1508        1507
         4        1457        1458        1509        1508
         4        1458        1459        1510        1509
         4        1459        1460        1511        1510
         4        1460        1461        1512        1511
         4        1461        1462        1513        1512
         4        1462        1463        1514        1513
         4        1463        1464        1515        1514
         4        1464        1465        1516        1515
         4        1465        1466        1517        1516
         4        1466        1467        1518        1517
         4        1467        1468        1519        1518
         4        1468        1469        1520        1519
         4        1469        1470        1521        1520
         4        1470        1471        1522        1521
         4        1471        1472        1523        1522
         4        1472        1473        1524        1523
         4        1473        1474        1525        1524
         4        1474        1475        1526        1525
         4        1475        1476        1527        1526
         4        1476        1477        1528        1527
         4        1477        1478        1529        1528
         4        1479        1480        1531        1530
         4        1480        1481        1532        1531
         4        1481        1482        1533        1532
         4        1482        1483        1534        1533
         4        1483        1484        1535        1534
         4        1484        1485        1536        1535
         4        1485        1486        1537        1536
         4        1486        1487        1538        1537
         4        1487        1488        1539        1538
         4        1488        1489        1540        1539
         4        1489        1490        1541        1540
         4        1490        1491        1542        1541
         4        1491        1492        1543        1542
         4        1492        1493        1544        1543
         4        1493        1494        1545        1544
         4        1494        1495        1546        1545
         4        1495        1496        1547        1546
         4        1496        1497        1548        1547
         4        1497        1498        1549        1548
         4        1498        1499        1550        1549
         4        1499        1500        1551        1550
         4        1500        1501        1552        1551
         4        1501        1502        1553        1552
         4        1502        1503        1554        1553
         4        1503        1504        1555        1554
         4        1504        1505        1556        1555
         4        1505        1506        1557        1556
         4        1506        1507        1558        1557
         4        1507        1508        1559        1558
         4        1508        1509        1560        1559
         4        1509        1510        1561        1560
         4        1510        1511        1562        1561
         4        1511        1512        1563        1562
         4        1512        1513        1564        1563
         4        1513        1514        1565        1564
         4        1514        1515        1566        1565
         4        1515        1516        1567        1566
         4        1516        1517        1568        1567
         4        1517        1518        1569        1568
         4        1518        1519        1570        1569
         4        1519        1520        1571        1570
         4        1520        1521        1572        1571
         4        1521        1522        1573        1572
         4        1522        1523        1574        1573
         4        1523        1524        1575        1574
         4        1524        1525        1576        1575
         4        1525        1526        1577        1576
         4        1526        1527        1578        1577
         4        1527        1528        1579        1578
         4        1528        1529        1580        1579
         4        1530        1531        1582        1581
         4        1531        1532        1583        1582
         4        1532        1533        1584        1583
         4        1533        1534        1585        1584
         4        1534        1535        1586        1585
         4        1535        1536        1587        1586
         4        1536        1537        1588        1587
         4        1537        1538        1589        1588
         4        1538        1539        1590        1589
         4        1539        1540        1591        1590
         4        1540        1541        1592        1591
         4        1541        1542        1593        1592
         4        1542        1543        1594        1593
         4        1543        1544        1595        1594
         4        1544        1545        1596        1595
         4        1545        1546        1597        1596
         4        1546        1547        1598        1597
         4        1547        1548        1599        1598
         4        1548        1549        1600        1599
         4        1549        1550        1601        1600
         4        1550        1551        1602        1601
         4        1551        1552        1603        1602
         4        1552        1553        1604        1603
         4        1553        1554        1605        1604
         4        1554        1555        1606        1605
         4        1555        1556        1607        1606
         4        1556        1557        1608        1607
         4        1557        1558        1609        1608
         4        1558        1559        1610        1609
         4        1559        1560        1611        1610
         4        1560        1561        1612        1611
         4        1561        1562        1613        1612
         4        1562        1563        1614        1613
         4        1563        1564        1615        1614
         4        1564        1565        1616        1615
         4        1565        1566        1617        1616
         4        1566        1567        1618        1617
         4        1567        1568        1619        1618
         4        1568        1569        1620        1619
         4        1569        1570        1621        1620
         4        1570        1571        1622        1621
         4        1571        1572        1623        1622
         4        1572        1573        1624        1623
         4        1573        1574        1625        1624
         4        1574        1575        1626        1625
         4        1575        1576        1627        1626
         4        1576        1577        1628        1627
         4        1577        1578        1629        1628
         4        1578        1579        1630        1629
         4        1579        1580        1631        1630
         4        1581        1582        1633        1632
         4        1582        1583        1634        1633
         4        1583        1584        1635        1634
         4        1584        1585        1636        1635
         4        1585        1586        1637        1636
         4        1586        1587        1638        1637
         4        1587        1588        1639        1638
         4        1588        1589        1640        1639
         4        1589        1590        1641        1640
         4        1590        1591        1642        1641
         4        1591        1592        1643        1642
         4        1592        1593        1644        1643
         4        1593        1594        1645        1644
         4        1594        1595        1646        1645
         4        1595        1596        1647        1646
         4        1596        1597        1648        1647
         4        1597        1598        1649        1648
         4        1598        1599        1650        1649
         4        1599        1600        1651        1650
         4        1600        1601        1652        1651
         4        1601        1602        1653        1652
         4        1602        1603        1654        1653
         4        1603        1604        1655        1654
         4        1604        1605        1656        1655
         4        1605        1606        1657        1656
         4        1606        1607        1658        1657
         4        1607        1608        1659        1658
         4        1608        1609        1660        1659
         4        1609        1610        1661        1660
         4        1610        1611        1662        1661
         4        1611        1612        1663        1662
         4        1612        1613        1664        1663
         4        1613        1614        1665        1664
         4        1614        1615        1666        1665
         4        1615        1616        1667        1666
         4        1616        1617        1668        1667
         4        1617        1618        1669        1668
         4        1618        1619        1670        1669
         4        1619        1620        1671        1670
         4        1620        1621        1672        1671
         4        1621        1622        1673        1672
         4        1622        1623        1674        1673
         4        1623        1624        1675        1674
         4        1624        1625        1676        1675
         4        1625        1626        1677        1676
         4        1626        1627        1678        1677
         4        1627        1628        1679        1678
         4        1628        1629        1680        1679
         4        1629        1630        1681        1680
         4        1630        1631        1682        1681
         4        1632        1633        1684        1683
         4        1633        1634        1685        1684
         4        1634        1635        1686        1685
         4        1635        1636        1687        1686
         4        1636        1637        1688        1687
         4        1637        1638        1689        1688
         4        1638        1639        1690        1689
         4        1639        1640        1691        1690
         4        1640        1641        1692        1691
         4        1641        1642        1693        1692
         4        1642        1643        1694        1693
         4        1643        1644        1695        1694
         4        1644        1645        1696        1695
         4        1645        1646        1697        1696
         4        1646        1647        1698        1697
         4        1647        1648        1699        1698
         4        1648        1649        1700        1699
         4        1649        1650        1701        1700
         4        1650        1651        1702        1701
         4        1651        1652        1703        1702
         4        1652        1653        1704        1703
         4        1653        1654        1705        1704
         4        1654        1655        1706        1705
         4        1655        1656        1707        1706
         4        1656        1657        1708        1707
         4        1657        1658        1709        1708
         4        1658        1659        1710        1709
         4        1659        1660        1711        1710
         4        1660        1661        1712        1711
         4        1661        1662        1713        1712
         4        1662        1663        1714        1713
         4        1663        1664        1715        1714
         4        1664        1665        1716        1715
         4        1665        1666        1717        1716
         4        1666        1667        1718        1717
         4        1667        1668        1719        1718
         4        1668        1669        1720        1719
         4        1669        1670        1721        1720
         4        1670        1671        1722        1721
         4        1671        1672        1723        1722
         4        1672        1673        1724        1723
         4        1673        1674        1725        1724
         4        1674        1675        1726        1725
         4        1675        1676        1727        1726
         4        1676        1677        1728        1727
         4        1677        1678        1729        1728
         4        1678        1679        1730        1729
         4        1679        1680        1731        1730
         4        1680        1681        1732        1731
         4        1681        1682        1733        1732
         4        1683        1684        1735        1734
         4        1684        1685        1736        1735
         4        1685        1686        1737        1736
         4        1686        1687        1738        1737
         4        1687        1688        1739        1738
         4        1688        1689        1740        1739
         4        1689        1690        1741        1740
         4        1690        1691        1742        1741
         4        1691        1692        1743        1742
         4        1692        1693        1744        1743
         4        1693        1694        1745        1744
         4        1694        1695        1746        1745
         4        1695        1696        1747        1746
         4        1696        1697        1748        1747
         4        1697        1698        1749        1748
         4        1698        1699        1750        1749
         4        1699        1700        1751        1750
         4        1700        1701        1752        1751
         4        1701        1702        1753        1752
         4        1702        1703        1754        1753
         4        1703        1704        1755        1754
         4        1704        1705        1756        1755
         4        1705        1706        1757        1756
         4        1706        1707        1758        1757
         4        1707        1708        1759        1758
         4        1708        1709        1760        1759
         4        1709        1710        1761        1760
         4        1710        1711        1762        1761
         4        1711        1712        1763        1762
         4        1712        1713        1764        1763
         4        1713        1714        1765        1764
         4        1714        1715        1766        1765
         4        1715        1716        1767        1766
         4        1716        1717        1768        1767
         4        1717        1718        1769        1768
         4        1718        1719        1770        1769
         4        1719        1720        1771        1770
         4        1720        1721        1772        1771
         4        1721        1722        1773        1772
         4        1722        1723        1774        1773
         4        1723        1724        1775        1774
         4        1724        1725        1776        1775
         4        1725        1726        1777        1776
         4        1726        1727        1778        1777
         4        1727        1728        1779        1778
         4        1728        1729        1780        1779
         4        1729        1730        1781        1780
         4        1730        1731        1782        1781
         4        1731        1732        1783        1782
         4        1732        1733        1784        1783
         4        1734        1735        1786        1785
         4        1735        1736        1787        1786
         4        1736        1737        1788        1787
         4        1737        1738        1789        1788
         4        1738        1739        1790        1789
         4        1739        1740        1791        1790
         4        1740        1741        1792        1791
         4        1741        1742        1793        1792
         4        1742        1743        1794        1793
         4        1743        1744        1795        1794
         4        1744        1745        1796        1795
         4        1745        1746        1797        1796
         4        1746        1747        1798        1797
         4        1747        1748        1799        1798
         4        1748        1749        1800        1799
         4        1749        1750        1801        1800
         4        1750        1751        1802        1801
         4        1751        1752        1803        1802
         4        1752        1753        1804        1803
         4        1753        1754        1805        1804
         4        1754        1755        1806        1805
         4        1755        1756        1807        1806
         4        1756        1757        1808        1807
         4        1757        1758        1809        1808
         4        1758        1759        1810        1809
         4        1759        1760        1811        1810
         4        1760        1761        1812        1811
         4        1761        1762        1813        1812
         4        1762        1763        1814        1813
         4        1763        1764        1815        1814
         4        1764        1765        1816        1815
         4        1765        1766        1817        1816
         4        1766        1767        1818        1817
         4        1767        1768        1819        1818
         4        1768        1769        1820        1819
         4        1769        1770        1821        1820
         4        1770        1771        1822        1821
         4        1771        1772        1823        1822
         4        1772        1773        1824        1823
         4        1773        1774        1825        1824
         4        1774        1775        1826        1825
         4        1775        1776        1827        1826
         4        1776        1777        1828        1827
         4        1777        1778        1829        1828
         4        1778        1779        1830        1829
         4        1779        1780        1831        1830
         4        1780        1781        1832        1831
         4        1781        1782        1833        1832
         4        1782        1783        1834        1833
         4        1783        1784        1835        1834
         4        1785        1786        1837        1836
         4        1786        1787        1838        1837
         4        1787        1788        1839        1838
         4        1788        1789        1840        1839
         4        1789        1790        1841        1840
         4        1790        1791        1842        1841
         4        1791        1792        1843        1842
         4        1792        1793        1844        1843
         4        1793        1794        1845        1844
         4        1794        1795        1846        1845
         4        1795        1796        1847        1846
         4        1796        1797        1848        1847
         4        1797        1798        1849        1848
         4        1798        1799        1850        1849
         4        1799        1800        1851        1850
         4        1800        1801        1852        1851
         4        1801        1802        1853        1852
         4        1802        1803        1854        1853
         4        1803        1804        1855        1854
         4        1804        1805        1856        1855
         4        1805        1806        1857        1856
         4        1806        1807        1858        1857
         4        1807        1808        1859        1858
         4        1808        1809        1860        1859
         4        1809        1810        1861        1860
         4        1810        1811        1862        1861
         4        1811        1812        1863        1862
         4        1812        1813        1864        1863
         4        1813        1814        1865        1864
         4        1814        1815        1866        1865
         4        1815        1816        1867        1866
         4        1816        1817        1868        1867
         4        1817        1818        1869        1868
         4        1818        1819        1870        1869
         4        1819        1820        1871        1870
         4        1820        1821        1872        1871
         4        1821        1822        1873        1872
         4        1822        1823        1874        1873
         4        1823        1824        1875        1874
         4        1824        1825        1876        1875
         4        1825        1826        1877        1876
         4        1826        1827        1878        1877
         4        1827        1828        1879        1878
         4        1828        1829        1880        1879
         4        1829        1830        1881        1880
         4        1830        1831        1882        1881
         4        1831        1832        1883        1882
         4        1832        1833        1884        1883
         4        1833        1834        1885        1884
         4        1834        1835        1886        1885
         4        1836        1837        1888        1887
         4        1837        1838        1889        1888
         4        1838        1839        1890        1889
         4        1839        1840        1891        1890
         4        1840        1841        1892        1891
         4        1841        1842        1893        1892
         4        1842        1843        1894        1893
         4        1843        1844        1895        1894
         4        1844        1845        1896        1895
         4        1845        1846        1897        1896
         4        1846        1847        1898        1897
         4        1847        1848        1899        1898
         4        1848        1849        1900        1899
         4        1849        1850        1901        1900
         4        1850        1851        1902        1901
         4        1851        1852        1903        1902
         4        1852        1853        1904        1903
         4        1853        1854        1905        1904
         4        1854        1855        1906        1905
         4        1855        1856        1907        1906
         4        1856        1857        1908        1907
         4        1857        1858        1909        1908
         4        1858        1859        1910        1909
         4        1859        1860        1911        1910
         4        1860        1861        1912        1911
         4        1861        1862        1913        1912
         4        1862        1863        1914        1913
         4        1863        1864        1915        1914
         4        1864        1865        1916        1915
         4        1865        1866        1917        1916
         4        1866        1867        1918        1917
         4        1867        1868        1919        1918
         4        1868        1869        1920        1919
         4        1869        1870        1921        1920
         4        1870        1871        1922        1921
         4        1871        1872        1923        1922
         4        1872        1873        1924        1923
         4        1873        1874        1925        1924
         4        1874        1875        1926        1925
         4        1875        1876        1927        1926
         4        1876        1877        1928        1927
         4        1877        1878        1929        1928
         4        1878        1879        1930        1929
         4        1879        1880        1931        1930
         4        1880        1881        1932        1931
         4        1881        1882        1933        1932
         4        1882        1883        1934        1933
         4        1883        1884        1935        1934
         4        1884        1885        1936        1935
         4        1885        1886        1937        1936
         4        1887        1888        1939        1938
         4        1888        1889        1940        1939
         4        1889        1890        1941        1940
         4        1890        1891        1942        1941
         4        1891        1892        1943        1942
         4        1892        1893        1944        1943
         4        1893        1894        1945        1944
         4        1894        1895        1946        1945
         4        1895        1896        1947        1946
         4        1896        1897        1948        1947
         4        1897        1898        1949        1948
         4        1898        1899        1950        1949
         4        1899        1900        1951        1950
         4        1900        1901        1952        1951
         4        1901        1902        1953        1952
         4        1902        1903        1954        1953
         4        1903        1904        1955        1954
         4        1904        1905        1956        1955
         4        1905        1906        1957        1956
         4        1906        1907        1958        1957
         4        1907        1908        1959        1958
         4        1908        1909        1960        1959
         4        1909        1910        1961        1960
         4        1910        1911        1962        1961
         4        1911        1912        1963        1962
         4        1912        1913        1964        1963
         4        1913        1914        1965        1964
         4        1914        1915        1966        1965
         4        1915        1916        1967        1966
         4        1916        1917        1968        1967
         4        1917        1918        1969        1968
         4        1918        1919        1970        1969
         4        1919        1920        1971        1970
         4        1920        1921        1972        1971
         4        1921        1922        1973        1972
         4        1922        1923        1974        1973
         4        1923        1924        1975        1974
         4        1924        1925        1976        1975
         4        1925        1926        1977        1976
         4        1926        1927        1978        1977
         4        1927        1928        1979        1978
         4        1928        1929        1980        1979
         4        1929        1930        1981        1980
         4        1930        1931        1982        1981
         4        1931        1932        1983        1982
         4        1932        1933        1984        1983
         4        1933        1934        1985        1984
         4        1934        1935        1986        1985
         4        1935        1936        1987        1986
         4        1936        1937        1988        1987
         4        1938        1939        1990        1989
         4        1939        1940        1991        1990
         4        1940        1941        1992        1991
         4        1941        1942        1993        1992
         4        1942        1943        1994        1993
         4        1943        1944        1995        1994
         4        1944        1945        1996        1995
         4        1945        1946        1997        1996
         4        1946        1947        1998        1997
         4        1947        1948        1999        1998
         4        1948        1949        2000        1999
         4        1949        1950        2001        2000
         4        1950        1951        2002        2001
         4        1951        1952        2003        2002
         4        1952        1953        2004        2003
         4        1953        1954        2005        2004
         4        1954        1955        2006        2005
         4        1955        1956        2007        2006
         4        1956        1957        2008        2007
         4        1957        1958        2009        2008
         4        1958        1959        2010        2009
         4        1959        1960        2011        2010
         4        1960        1961        2012        2011
         4        1961        1962        2013        2012
         4        1962        1963        2014        2013
         4        1963        1964        2015        2014
         4        1964        1965        2016        2015
         4        1965        1966        2017        2016
         4        1966        1967        2018        2017
         4        1967        1968        2019        2018
         4        1968        1969        2020        2019
         4        1969        1970        2021        2020
         4        1970        1971        2022        2021
         4        1971        1972        2023        2022
         4        1972        1973        2024        2023
         4        1973        1974        2025        2024
         4        1974        1975        2026        2025
         4        1975        1976        2027        2026
         4        1976        1977        2028        2027
         4        1977        1978        2029        2028
         4        1978        1979        2030        2029
         4        1979        1980        2031        2030
         4        1980        1981        2032        2031
         4        1981        1982        2033        2032
         4        1982        1983        2034        2033
         4        1983        1984        2035        2034
         4        1984        1985        2036        2035
         4        1985        1986        2037        2036
         4        1986        1987        2038        2037
         4        1987        1988        2039        2038
         4        1989        1990        2041        2040
         4        1990        1991        2042        2041
         4        1991        1992        2043        2042
         4        1992        1993        2044        2043
         4        1993        1994        2045        2044
         4        1994        1995        2046        2045
         4        1995        1996        2047        2046
         4        1996        1997        2048        2047
         4        1997        1998        2049        2048
         4        1998        1999        2050        2049
         4        1999        2000        2051        2050
         4        2000        2001        2052        2051
         4        2001        2002        2053        2052
         4        2002        2003        2054        2053
         4        2003        2004        2055        2054
         4        2004        2005        2056        2055
         4        2005        2006        2057        2056
         4        2006        2007        2058        2057
         4        2007        2008        2059        2058
         4        2008        2009        2060        2059
         4        2009        2010        2061        2060
         4        2010        2011        2062        2061
         4        2011        2012        2063        2062
         4        2012        2013        2064        2063
         4        2013        2014        2065        2064
         4        2014        2015        2066        2065
         4        2015        2016        2067        2066
         4        2016        2017        2068        2067
         4        2017        2018        2069        2068
         4        2018        2019        2070        2069
         4        2019        2020        2071        2070
         4        2020        2021        2072        2071
         4        2021        2022        2073        2072
         4        2022        2023        2074        2073
         4        2023        2024        2075        2074
         4        2024        2025        2076        2075
         4        2025        2026        2077        2076
         4        2026        2027        2078        2077
         4        2027        2028        2079        2078
         4        2028        2029        2080        2079
         4        2029        2030        2081        2080
         4        2030        2031        2082        2081
         4        2031        2032        2083        2082
         4        2032        2033        2084        2083
         4        2033        2034        2085        2084
         4        2034        2035        2086        2085
         4        2035        2036        2087        2086
         4        2036        2037        2088        2087
         4        2037        2038        2089        2088
         4        2038        2039        2090        2089
         4        2040        2041        2092        2091
         4        2041        2042        2093        2092
         4        2042        2043        2094        2093
         4        2043        2044        2095        2094
         4        2044        2045        2096        2095
         4        2045        2046        2097        2096
         4        2046        2047        2098        2097
         4        2047        2048        2099        2098
         4        2048        2049        2100        2099
         4        2049        2050        2101        2100
         4        2050        2051        2102        2101
         4        2051        2052        2103        2102
         4        2052        2053        2104        2103
         4        2053        2054        2105        2104
         4        2054        2055        2106        2105
         4        2055        2056        2107        2106
         4        2056        2057        2108        2107
         4        2057        2058        2109        2108
         4        2058        2059        2110        2109
         4        2059        2060        2111        2110
         4        2060        2061        2112        2111
         4        2061        2062        2113        2112
         4        2062        2063        2114        2113
         4        2063        2064        2115        2114
         4        2064        2065        2116        2115
         4        2065        2066        2117        2116
         4        2066        2067        2118        2117
         4        2067        2068        2119        2118
         4        2068        2069        2120        2119
         4        2069        2070        2121        2120
         4        2070        2071        2122        2121
         4        2071        2072        2123        2122
         4        2072        2073        2124        2123
         4        2073        2074        2125        2124
         4        2074        2075        2126        2125
         4        2075        2076        2127        2126
         4        2076        2077        2128        2127
         4        2077        2078        2129        2128
         4        2078        2079        2130        2129
         4        2079        2080        2131        2130
         4        2080        2081        2132        2131
         4        2081        2082        2133        2132
         4        2082        2083        2134        2133
         4        2083        2084        2135        2134
         4        2084        2085        2136        2135
         4        2085        2086        2137        2136
         4        2086        2087        2138        2137
         4        2087        2088        2139        2138
         4        2088        2089        2140        2139
         4        2089        2090        2141        2140
         4        2091        2092        2143        2142
         4        2092        2093        2144        2143
         4        2093        2094        2145        2144
         4        2094        2095        2146        2145
         4        2095        2096        2147        2146
         4        2096        2097        2148        2147
         4        2097        2098        2149        2148
         4        2098        2099        2150        2149
         4        2099        2100        2151        2150
         4        2100        2101        2152        2151
         4        2101        2102        2153        2152
         4        2102        2103        2154        2153
         4        2103        2104        2155        2154
         4        2104        2105        2156        2155
         4        2105        2106        2157        2156
         4        2106        2107        2158        2157
         4        2107        2108        2159        2158
         4        2108        2109        2160        2159
         4        2109        2110        2161        2160
         4        2110        2111        2162        2161
         4        2111        2112        2163        2162
         4        2112        2113        2164        2163
         4        2113        2114        2165        2164
         4        2114        2115        2166        2165
         4        2115        2116        2167        2166
         4        2116        2117        2168        2167
         4        2117        2118        2169        2168
         4        2118        2119        2170        2169
         4        2119        2120        2171        2170
         4        2120        2121        2172        2171
         4        2121        2122        2173        2172
         4        2122        2123        2174        2173
         4        2123        2124        2175        2174
         4        2124        2125        2176        2175
         4        2125        2126        2177        2176
         4        2126        2127        2178        2177
         4        2127        2128        2179        2178
         4        2128        2129        2180        2179
         4        2129        2130        2181        2180
         4        2130        2131        2182        2181
         4        2131        2132        2183        2182
         4        2132        2133        2184        2183
         4        2133        2134        2185        2184
         4        2134        2135        2186        2185
         4        2135        2136        2187        2186
         4        2136        2137        2188        2187
         4        2137        2138        2189        2188
         4        2138        2139        2190        2189
         4        2139        2140        2191        2190
         4        2140        2141        2192        2191
         4        2142        2143        2194        2193
         4        2143        2144        2195        2194
         4        2144        2145        2196        2195
         4        2145        2146        2197        2196
         4        2146        2147        2198        2197
         4        2147        2148        2199        2198
         4        2148        2149        2200        2199
         4        2149        2150        2201        2200
         4        2150        2151        2202        2201
         4        2151        2152        2203        2202
         4        2152        2153        2204        2203
         4        2153        2154        2205        2204
         4        2154        2155        2206        2205
         4        2155        2156        2207        2206
         4        2156        2157        2208        2207
         4        2157        2158        2209        2208
         4        2158        2159        2210        2209
         4        2159        2160        2211        2210
         4        2160        2161        2212        2211
         4        2161        2162        2213        2212
         4        2162        2163        2214        2213
         4        2163        2164        2215        2214
         4        2164        2165        2216        2215
         4        2165        2166        2217        2216
         4        2166        2167        2218        2217
         4        2167        2168        2219        2218
         4        2168        2169        2220        2219
         4        2169        2170        2221        2220
         4        2170        2171        2222        2221
         4        2171        2172        2223        2222
         4        2172        2173        2224        2223
         4        2173        2174        2225        2224
         4        2174        2175        2226        2225
         4        2175        2176        2227        2226
         4        2176        2177        2228        2227
         4        2177        2178        2229        2228
         4        2178        2179        2230        2229
         4        2179        2180        2231        2230
         4        2180        2181        2232        2231
         4        2181        2182        2233        2232
         4        2182        2183        2234        2233
         4        2183        2184        2235        2234
         4        2184        2185        2236        2235
         4        2185        2186        2237        2236
         4        2186        2187        2238        2237
         4        2187        2188        2239        2238
         4        2188        2189        2240        2239
         4        2189        2190        2241        2240
         4        2190        2191        2242        2241
         4        2191        2192        2243        2242
         4        2193        2194        2245        2244
         4        2194        2195        2246        2245
         4        2195        2196        2247        2246
         4        2196        2197        2248        2247
         4        2197        2198        2249        2248
         4        2198        2199        2250        2249
         4        2199        2200        2251        2250
         4        2200        2201        2252        2251
         4        2201        2202        2253        2252
         4        2202        2203        2254        2253
         4        2203        2204        2255        2254
         4        2204        2205        2256        2255
         4        2205        2206        2257        2256
         4        2206        2207        2258        2257
         4        2207        2208        2259        2258
         4        2208        2209        2260        2259
         4        2209        2210        2261        2260
         4        2210        2211        2262        2261
         4        2211        2212        2263        2262
         4        2212        2213        2264        2263
         4        2213        2214        2265        2264
         4        2214        2215        2266        2265
         4        2215        2216        2267        2266
         4        2216        2217        2268        2267
         4        2217        2218        2269        2268
         4        2218        2219        2270        2269
         4        2219        2220        2271        2270
         4        2220        2221        2272        2271
         4        2221        2222        2273        2272
         4        2222        2223        2274        2273
         4        2223        2224        2275        2274
         4        2224        2225        2276        2275
         4        2225        2226        2277        2276
         4        2226        2227        2278        2277
         4        2227        2228        2279        2278
         4        2228        2229        2280        2279
         4        2229        2230        2281        2280
         4        2230        2231        2282        2281
         4        2231        2232        2283        2282
         4        2232        2233        2284        2283
         4        2233        2234        2285        2284
         4        2234        2235        2286        2285
         4        2235        2236        2287        2286
         4        2236        2237        2288        2287
         4        2237        2238        2289        2288
         4        2238        2239        2290        2289
         4        2239        2240        2291        2290
         4        2240        2241        2292        2291
         4        2241        2242        2293        2292
         4        2242        2243        2294        2293
         4        2244        2245        2296        2295
         4        2245        2246        2297        2296
         4        2246        2247        2298        2297
         4        2247        2248        2299        2298
         4        2248        2249        2300        2299
         4        2249        2250        2301        2300
         4        2250        2251        2302        2301
         4        2251        2252        2303        2302
         4        2252        2253        2304        2303
         4        2253        2254        2305        2304
         4        2254        2255        2306        2305
         4        2255        2256        2307        2306
         4        2256        2257        2308        2307
         4        2257        2258        2309        2308
         4        2258        2259        2310        2309
         4        2259        2260        2311        2310
         4        2260        2261        2312        2311
         4        2261        2262        2313        2312
         4        2262        2263        2314        2313
         4        2263        2264        2315        2314
         4        2264        2265        2316        2315
         4        2265        2266        2317        2316
         4        2266        2267        2318        2317
         4        2267        2268        2319        2318
         4        2268        2269        2320        2319
         4        2269        2270        2321        2320
         4        2270        2271        2322        2321
         4        2271        2272        2323        2322
         4        2272        2273        2324        2323
         4        2273        2274        2325        2324
         4        2274        2275        2326        2325
         4        2275        2276        2327        2326
         4        2276        2277        2328        2327
         4        2277        2278        2329        2328
         4        2278        2279        2330        2329
         4        2279        2280        2331        2330
         4        2280        2281        2332        2331
         4        2281        2282        2333        2332
         4        2282        2283        2334        2333
         4        2283        2284        2335        2334
         4        2284        2285        2336        2335
         4        2285        2286        2337        2336
         4        2286        2287        2338        2337
         4        2287        2288        2339        2338
         4        2288        2289        2340        2339
         4        2289        2290        2341        2340
         4        2290        2291        2342        2341
         4        2291        2292        2343        2342
         4        2292        2293        2344        2343
         4        2293        2294        2345        2344
         4        2295        2296        2347        2346
         4        2296        2297        2348        2347
         4        2297        2298        2349        2348
         4        2298        2299        2350        2349
         4        2299        2300        2351        2350
         4        2300        2301        2352        2351
         4        2301        2302        2353        2352
         4        2302        2303        2354        2353
         4        2303        2304        2355        2354
         4        2304        2305        2356        2355
         4        2305        2306        2357        2356
         4        2306        2307        2358        2357
         4        2307        2308        2359        2358
         4        2308        2309        2360        2359
         4        2309        2310        2361        2360
         4        2310        2311        2362        2361
         4        2311        2312        2363        2362
         4        2312        2313        2364        2363
         4        2313        2314        2365        2364
         4        2314        2315        2366        2365
         4        2315        2316        2367        2366
         4        2316        2317        2368        2367
         4        2317        2318        2369        2368
         4        2318        2319        2370        2369
         4        2319        2320        2371        2370
         4        2320        2321        2372        2371
         4        2321        2322        2373        2372
         4        2322        2323        2374        2373
         4        2323        2324        2375        2374
         4        2324        2325        2376        2375
         4        2325        2326        2377        2376
         4        2326        2327        2378        2377
         4        2327        2328        2379        2378
         4        2328        2329        2380        2379
         4        2329        2330        2381        2380
         4        2330        2331        2382        2381
         4        2331        2332        2383        2382
         4        2332        2333        2384        2383
         4        2333        2334        2385        2384
         4        2334        2335        2386        2385
         4        2335        2336        2387        2386
         4        2336        2337        2388        2387
         4        2337        2338        2389        2388
         4        2338        2339        2390        2389
         4        2339        2340        2391        2390
         4        2340        2341        2392        2391
         4        2341        2342        2393        2392
         4        2342        2343        2394        2393
         4        2343        2344        2395        2394
         4        2344        2345        2396        2395
         4        2346        2347        2398        2397
         4        2347        2348        2399        2398
         4        2348        2349        2400        2399
         4        2349        2350        2401        2400
         4        2350        2351        2402        2401
         4        2351        2352        2403        2402
         4        2352        2353        2404        2403
         4        2353        2354        2405        2404
         4        2354        2355        2406        2405
         4        2355        2356        2407        2406
         4        2356        2357        2408        2407
         4        2357        2358        2409        2408
         4        2358        2359        2410        2409
         4        2359        2360        2411        2410
         4        2360        2361        2412        2411
         4        2361        2362        2413        2412
         4        2362        2363        2414        2413
         4        2363        2364        2415        2414
         4        2364        2365        2416        2415
         4        2365        2366        2417        2416
         4        2366        2367        2418        2417
         4        2367        2368        2419        2418
         4        2368        2369        2420        2419
         4        2369        2370        2421        2420
         4        2370        2371        2422        2421
         4        2371        2372        2423        2422
         4        2372        2373        2424        2423
         4        2373        2374        2425        2424
         4        2374        2375        2426        2425
         4        2375        2376        2427        2426
         4        2376        2377        2428        2427
         4        2377        2378        2429        2428
         4        2378        2379        2430        2429
         4        2379        2380        2431        2430
         4        2380        2381        2432        2431
         4        2381        2382        2433        2432
         4        2382        2383        2434        2433
         4        2383        2384        2435        2434
         4        2384        2385        2436        2435
         4        2385        2386        2437        2436
         4        2386        2387        2438        2437
         4        2387        2388        2439        2438
         4        2388        2389        2440        2439
         4        2389        2390        2441        2440
         4        2390        2391        2442        2441
         4        2391        2392        2443        2442
         4        2392        2393        2444        2443
         4        2393        2394        2445        2444
         4        2394        2395        2446        2445
         4        2395        2396        2447        2446
         4        2397        2398        2449        2448
         4        2398        2399        2450        2449
         4        2399        2400        2451        2450
         4        2400        2401        2452        2451
         4        2401        2402        2453        2452
         4        2402        2403        2454        2453
         4        2403        2404        2455        2454
         4        2404        2405        2456        2455
         4        2405        2406        2457        2456
         4        2406        2407        2458        2457
         4        2407        2408        2459        2458
         4        2408        2409        2460        2459
         4        2409        2410        2461        2460
         4        2410        2411        2462        2461
         4        2411        2412        2463        2462
         4        2412        2413        2464        2463
         4        2413        2414        2465        2464
         4        2414        2415        2466        2465
         4        2415        2416        2467        2466
         4        2416        2417        2468        2467
         4        2417        2418        2469        2468
         4        2418        2419        2470        2469
         4        2419        2420        2471        2470
         4        2420        2421        2472        2471
         4        2421        2422        2473        2472
         4        2422        2423        2474        2473
         4        2423        2424        2475        2474
         4        2424        2425        2476        2475
         4        2425        2426        2477        2476
         4        2426        2427        2478        2477
         4        2427        2428        2479        2478
         4        2428        2429        2480        2479
         4        2429        2430        2481        2480
         4        2430        2431        2482        2481
         4        2431        2432        2483        2482
         4        2432        2433        2484        2483
         4        2433        2434        2485        2484
         4        2434        2435        2486        2485
         4        2435        2436        2487        2486
         4        2436        2437        2488        2487
         4        2437        2438        2489        2488
         4        2438        2439        2490        2489
         4        2439        2440        2491        2490
         4        2440        2441        2492        2491
         4        2441        2442        2493        2492
         4        2442        2443        2494        2493
         4        2443        2444        2495        2494
         4        2444        2445        2496        2495
         4        2445        2446        2497        2496
         4        2446        2447        2498        2497
         4        2448        2449        2500        2499
         4        2449        2450        2501        2500
         4        2450        2451        2502        2501
         4        2451        2452        2503        2502
         4        2452        2453        2504        2503
         4        2453        2454        2505        2504
         4        2454        2455        2506        2505
         4        2455        2456        2507        2506
         4        2456        2457        2508        2507
         4        2457        2458        2509        2508
         4        2458        2459        2510        2509
         4        2459        2460        2511        2510
         4        2460        2461        2512        2511
         4        2461        2462        2513        2512
         4        2462        2463        2514        2513
         4        2463        2464        2515        2514
         4        2464        2465        2516        2515
         4        2465        2466        2517        2516
         4        2466        2467        2518        2517
         4        2467        2468        2519        2518
         4        2468        2469        2520        2519
         4        2469        2470        2521        2520
         4        2470        2471        2522        2521
         4        2471        2472        2523        2522
         4        2472        2473        2524        2523
         4        2473        2474        2525        2524
         4        2474        2475        2526        2525
         4        2475        2476        2527        2526
         4        2476        2477        2528        2527
         4        2477        2478        2529        2528
         4        2478        2479        2530        2529
         4        2479        2480        2531        2530
         4        2480        2481        2532        2531
         4        2481        2482        2533        2532
         4        2482        2483        2534        2533
         4        2483        2484        2535        2534
         4        2484        2485        2536        2535
         4        2485        2486        2537        2536
         4        2486        2487        2538        2537
         4        2487        2488        2539        2538
         4        2488        2489        2540        2539
         4        2489        2490        2541        2540
         4        2490        2491        2542        2541
         4        2491        2492        2543        2542
         4        2492        2493        2544        2543
         4        2493        2494        2545        2544
         4        2494        2495        2546        2545
         4        2495        2496        2547        2546
         4        2496        2497        2548        2547
         4        2497        2498        2549        2548
         4        2499        2500        2551        2550
         4        2500        2501        2552        2551
         4        2501        2502        2553        2552
         4        2502        2503        2554        2553
         4        2503        2504        2555        2554
         4        2504        2505        2556        2555
         4        2505        2506        2557        2556
         4        2506        2507        2558        2557
         4        2507        2508        2559        2558
         4        2508        2509        2560        2559
         4        2509        2510        2561        2560
         4        2510        2511        2562        2561
         4        2511        2512        2563        2562
         4        2512        2513        2564        2563
         4        2513        2514        2565        2564
         4        2514        2515        2566        2565
         4        2515        2516        2567        2566
         4        2516        2517        2568        2567
         4        2517        2518        2569        2568
         4        2518        2519        2570        2569
         4        2519        2520        2571        2570
         4        2520        2521        2572        2571
         4        2521        2522        2573        2572
         4        2522        2523        2574        2573
         4        2523        2524        2575        2574
         4        2524        2525        2576        2575
         4        2525        2526        2577        2576
         4        2526        2527        2578        2577
         4        2527        2528        2579        2578
         4        2528        2529        2580        2579
         4        2529        2530        2581        2580
         4        2530        2531        2582        2581
         4        2531        2532        2583        2582
         4        2532        2533        2584        2583
         4        2533        2534        2585        2584
         4        2534        2535        2586        2585
         4        2535        2536        2587        2586
         4        2536        2537        2588        2587
         4        2537        2538        2589        2588
         4        2538        2539        2590        2589
         4        2539        2540        2591        2590
         4        2540        2541        2592        2591
         4        2541        2542        2593        2592
         4        2542        2543        2594        2593
         4        2543        2544        2595        2594
         4        2544        2545        2596        2595
         4        2545        2546        2597        2596
         4        2546        2547        2598        2597
         4        2547        2548        2599        2598
         4        2548        2549        2600        2599
         4        2550        2551        2602        2601
         4        2551        2552        2603        2602
         4        2552        2553        2604        2603
         4        2553        2554        2605        2604
         4        2554        2555        2606        2605
         4        2555        2556        2607        2606
         4        2556        2557        2608        2607
         4        2557        2558        2609        2608
         4        2558        2559        2610        2609
         4        2559        2560        2611        2610
         4        2560        2561        2612        2611
         4        2561        2562        2613        2612
         4        2562        2563        2614        2613
         4        2563        2564        2615        2614
         4        2564        2565        2616        2615
         4        2565        2566        2617        2616
         4        2566        2567        2618        2617
         4        2567        2568        2619        2618
         4        2568        2569        2620        2619
         4        2569        2570        2621        2620
         4        2570        2571        2622        2621
         4        2571        2572        2623        2622
         4        2572        2573        2624        2623
         4        2573        2574        2625        2624
         4        2574        2575        2626        2625
         4        2575        2576        2627        2626
         4        2576        2577        2628        2627
         4        2577        2578        2629        2628
         4        2578        2579        2630        2629
         4        2579        2580        2631        2630
         4        2580        2581        2632        2631
         4        2581        2582        2633        2632
         4        2582        2583        2634        2633
         4        2583        2584        2635        2634
         4        2584        2585        2636        2635
         4        2585        2586        2637        2636
         4        2586        2587        2638        2637
         4        2587        2588        2639        2638
         4        2588        2589        2640        2639
         4        2589        2590        2641        2640
         4        2590        2591        2642        2641
         4        2591        2592        2643        2642
         4        2592        2593        2644        2643
         4        2593        2594        2645        2644
         4        2594        2595        2646        2645
         4        2595        2596        2647        2646
         4        2596        2597        2648        2647
         4        2597        2598        2649        2648
         4        2598        2599        2650        2649
         4        2599        2600        2651        2650
         4        2601        2602        2653        2652
         4        2602        2603        2654        2653
         4        2603        2604        2655        2654
         4        2604        2605        2656        2655
         4        2605        2606        2657        2656
         4        2606        2607        2658        2657
         4        2607        2608        2659        2658
         4        2608        2609        2660        2659
         4        2609        2610        2661        2660
         4        2610        2611        2662        2661
         4        2611        2612        2663        2662
         4        2612        2613        2664        2663
         4        2613        2614        2665        2664
         4        2614        2615        2666        2665
         4        2615        2616        2667        2666
         4        2616        2617        2668        2667
         4        2617        2618        2669        2668
         4        2618        2619        2670        2669
         4        2619        2620        2671        2670
         4        2620        2621        2672        2671
         4        2621        2622        2673        2672
         4        2622        2623        2674        2673
         4        2623        2624        2675        2674
         4        2624        2625        2676        2675
         4        2625        2626        2677        2676
         4        2626        2627        2678        2677
         4        2627        2628        2679        2678
         4        2628        2629        2680        2679
         4        2629        2630        2681        2680
         4        2630        2631        2682        2681
         4        2631        2632        2683        2682
         4        2632        2633        2684        2683
         4        2633        2634        2685        2684
         4        2634        2635        2686        2685
         4        2635        2636        2687        2686
         4        2636        2637        2688        2687
         4        2637        2638        2689        2688
         4        2638        2639        2690        2689
         4        2639        2640        2691        2690
         4        2640        2641        2692        2691
         4        2641        2642        2693        2692
         4        2642        2643        2694        2693
         4        2643        2644        2695        2694
         4        2644        2645        2696        2695
         4        2645        2646        2697        2696
         4        2646        2647        2698        2697
         4        2647        2648        2699        2698
         4        2648        2649        2700        2699
         4        2649        2650        2701        2700
         4        2650        2651        2702        2701
         4        2652        2653        2704        2703
         4        2653        2654        2705        2704
         4        2654        2655        2706        2705
         4        2655        2656        2707        2706
         4        2656        2657        2708        2707
         4        2657        2658        2709        2708
         4        2658        2659        2710        2709
         4        2659        2660        2711        2710
         4        2660        2661        2712        2711
         4        2661        2662        2713        2712
         4        2662        2663        2714        2713
         4        2663        2664        2715        2714
         4        2664        2665        2716        2715
         4        2665        2666        2717        2716
         4        2666        2667        2718        2717
         4        2667        2668        2719        2718
         4        2668        2669        2720        2719
         4        2669        2670        2721        2720
         4        2670        2671        2722        2721
         4        2671        2672        2723        2722
         4        2672        2673        2724        2723
         4        2673        2674        2725        2724
         4        2674        2675        2726        2725
         4        2675        2676        2727        2726
         4        2676        2677        2728        2727
         4        2677        2678        2729        2728
         4        2678        2679        2730        2729
         4        2679        2680        2731        2730
         4        2680        2681        2732        2731
         4        2681        2682        2733        2732
         4        2682        2683        2734        2733
         4        2683        2684        2735        2734
         4        2684        2685        2736        2735
         4        2685        2686        2737        2736
         4        2686        2687        2738        2737
         4        2687        2688        2739        2738
         4        2688        2689        2740        2739
         4        2689        2690        2741        2740
         4        2690        2691        2742        2741
         4        2691        2692        2743        2742
         4        2692        2693        2744        2743
         4        2693        2694        2745        2744
         4        2694        2695        2746        2745
         4        2695        2696        2747        2746
         4        2696        2697        2748        2747
         4        2697        2698        2749        2748
         4        2698        2699        2750        2749
         4        2699        2700        2751        2750
         4        2700        2701        2752        2751
         4        2701        2702        2753        2752
         4        2703        2704        2755        2754
         4        2704        2705        2756        2755
         4        2705        2706        2757        2756
         4        2706        2707        2758        2757
         4        2707        2708        2759        2758
         4        2708        2709        2760        2759
         4        2709        2710        2761        2760
         4        2710        2711        2762        2761
         4        2711        2712        2763        2762
         4        2712        2713        2764        2763
         4        2713        2714        2765        2764
         4        2714        2715        2766        2765
         4        2715        2716        2767        2766
         4        2716        2717        2768        2767
         4        2717        2718        2769        2768
         4        2718        2719        2770        2769
         4        2719        2720        2771        2770
         4        2720        2721        2772        2771
         4        2721        2722        2773        2772
         4        2722        2723        2774        2773
         4        2723        2724        2775        2774
         4        2724        2725        2776        2775
         4        2725        2726        2777        2776
         4        2726        2727        2778        2777
         4        2727        2728        2779        2778
         4        2728        2729        2780        2779
         4        2729        2730        2781        2780
         4        2730        2731        2782        2781
         4        2731        2732        2783        2782
         4        2732        2733        2784        2783
         4        2733        2734        2785        2784
         4        2734        2735        2786        2785
         4        2735        2736        2787        2786
         4        2736        2737        2788        2787
         4        2737        2738        2789        2788
         4        2738        2739        2790        2789
         4        2739        2740        2791        2790
         4        2740        2741        2792        2791
         4        2741        2742        2793        2792
         4        2742        2743        2794        2793
         4        2743        2744        2795        2794
         4        2744        2745        2796        2795
         4        2745        2746        2797        2796
         4        2746        2747        2798        2797
         4        2747        2748        2799        2798
         4        2748        2749        2800        2799
         4        2749        2750        2801        2800
         4        2750        2751        2802        2801
         4        2751        2752        2803        2802
         4        2752        2753        2804        2803
         4        2754        2755        2806        2805
         4        2755        2756        2807        2806
         4        2756        2757        2808        2807
         4        2757        2758        2809        2808
         4        2758        2759        2810        2809
         4        2759        2760        2811        2810
         4        2760        2761        2812        2811
         4        2761        2762        2813        2812
         4        2762        2763        2814        2813
         4        2763        2764        2815        2814
         4        2764        2765        2816        2815
         4        2765        2766        2817        2816
         4        2766        2767        2818        2817
         4        2767        2768        2819        2818
         4        2768        2769        2820        2819
         4        2769        2770        2821        2820
         4        2770        2771        2822        2821
         4        2771        2772        2823        2822
         4        2772        2773        2824        2823
         4        2773        2774        2825        2824
         4        2774        2775        2826        2825
         4        2775        2776        2827        2826
         4        2776        2777        2828        2827
         4        2777        2778        2829        2828
         4        2778        2779        2830        2829
         4        2779        2780        2831        2830
         4        2780        2781        2832        2831
         4        2781        2782        2833        2832
         4        2782        2783        2834        2833
         4        2783        2784        2835        2834
         4        2784        2785        2836        2835
         4        2785        2786        2837        2836
         4        2786        2787        2838        2837
         4        2787        2788        2839        2838
         4        2788        2789        2840        2839
         4        2789        2790        2841        2840
         4        2790        2791        2842        2841
         4        2791        2792        2843        2842
         4        2792        2793        2844        2843
         4        2793        2794        2845        2844
         4        2794        2795        2846        2845
         4        2795        2796        2847        2846
         4        2796        2797        2848        2847
         4        2797        2798        2849        2848
         4        2798        2799        2850        2849
         4        2799        2800        2851        2850
         4        2800        2801        2852        2851
         4        2801        2802        2853        2852
         4        2802        2803        2854        2853
         4        2803        2804        2855        2854
         4        2805        2806        2857        2856
         4        2806        2807        2858        2857
         4        2807        2808        2859        2858
         4        2808        2809        2860        2859
         4        2809        2810        2861        2860
         4        2810        2811        2862        2861
         4        2811        2812        2863        2862
         4        2812        2813        2864        2863
         4        2813        2814        2865        2864
         4        2814        2815        2866        2865
         4        2815        2816        2867        2866
         4        2816        2817        2868        2867
         4        2817        2818        2869        2868
         4        2818        2819        2870        2869
         4        2819        2820        2871        2870
         4        2820        2821        2872        2871
         4        2821        2822        2873        2872
         4        2822        2823        2874        2873
         4        2823        2824        2875        2874
         4        2824        2825        2876        2875
         4        2825        2826        2877        2876
         4        2826        2827        2878        2877
         4        2827        2828        2879        2878
         4        2828        2829        2880        2879
         4        2829        2830        2881        2880
         4        2830        2831        2882        2881
         4        2831        2832        2883        2882
         4        2832        2833        2884        2883
         4        2833        2834        2885        2884
         4        2834        2835        2886        2885
         4        2835        2836        2887        2886
         4        2836        2837        2888        2887
         4        2837        2838        2889        2888
         4        2838        2839        2890        2889
         4        2839        2840        2891        2890
         4        2840        2841        2892        2891
         4        2841        2842        2893        2892
         4        2842        2843        2894        2893
         4        2843        2844        2895        2894
         4        2844        2845        2896        2895
         4        2845        2846        2897        2896
         4        2846        2847        2898        2897
         4        2847        2848        2899        2898
         4        2848        2849        2900        2899
         4        2849        2850        2901        2900
         4        2850        2851        2902        2901
         4        2851        2852        2903        2902
         4        2852        2853        2904        2903
         4        2853        2854        2905        2904
         4        2854        2855        2906        2905
         4        2856        2857        2908        2907
         4        2857        2858        2909        2908
         4        2858        2859        2910        2909
         4        2859        2860        2911        2910
         4        2860        2861        2912        2911
         4        2861        2862        2913        2912
         4        2862        2863        2914        2913
         4        2863        2864        2915        2914
         4        2864        2865        2916        2915
         4        2865        2866        2917        2916
         4        2866        2867        2918        2917
         4        2867        2868        2919        2918
         4        2868        2869        2920        2919
         4        2869        2870        2921        2920
         4        2870        2871        2922        2921
         4        2871        2872        2923        2922
         4        2872        2873        2924        2923
         4        2873        2874        2925        2924
         4        2874        2875        2926        2925
         4        2875        2876        2927        2926
         4        2876        2877        2928        2927
         4        2877        2878        2929        2928
         4        2878        2879        2930        2929
         4        2879        2880        2931        2930
         4        2880        2881        2932        2931
         4        2881        2882        2933        2932
         4        2882        2883        2934        2933
         4        2883        2884        2935        2934
         4        2884        2885        2936        2935
         4        2885        2886        2937        2936
         4        2886        2887        2938        2937
         4        2887        2888        2939        2938
         4        2888        2889        2940        2939
         4        2889        2890        2941        2940
         4        2890        2891        2942        2941
         4        2891        2892        2943        2942
         4        2892        2893        2944        2943
         4        2893        2894        2945        2944
         4        2894        2895        2946        2945
         4        2895        2896        2947        2946
         4        2896        2897        2948        2947
         4        2897        2898        2949        2948
         4        2898        2899        2950        2949
         4        2899        2900        2951        2950
         4        2900        2901        2952        2951
         4        2901        2902        2953        2952
         4        2902        2903        2954        2953
         4        2903        2904        2955        2954
         4        2904        2905        2956        2955
         4        2905        2906        2957        2956
         4        2907        2908        2959        2958
         4        2908        2909        2960        2959
         4        2909        2910        2961        2960
         4        2910        2911        2962        2961
         4        2911        2912        2963        2962
         4        2912        2913        2964        2963
         4        2913        2914        2965        2964
         4        2914        2915        2966        2965
         4        2915        2916        2967        2966
         4        2916        2917        2968        2967
         4        2917        2918        2969        2968
         4        2918        2919        2970        2969
         4        2919        2920        2971        2970
         4        2920        2921        2972        2971
         4        2921        2922        2973        2972
         4        2922        2923        2974        2973
         4        2923        2924        2975        2974
         4        2924        2925        2976        2975
         4        2925        2926        2977        2976
         4        2926        2927        2978        2977
         4        2927        2928        2979        2978
         4        2928        2929        2980        2979
         4        2929        2930        2981        2980
         4        2930        2931        2982        2981
         4        2931        2932        2983        2982
         4        2932        2933        2984        2983
         4        2933        2934        2985        2984
         4        2934        2935        2986        2985
         4        2935        2936        2987        2986
         4        2936        2937        2988        2987
         4        2937        2938        2989        2988
         4        2938        2939        2990        2989
         4        2939        2940        2991        2990
         4        2940        2941        2992        2991
         4        2941        2942        2993        2992
         4        2942        2943        2994        2993
         4        2943        2944        2995        2994
         4        2944        2945        2996        2995
         4        2945        2946        2997        2996
         4        2946        2947        2998        2997
         4        2947        2948        2999        2998
         4        2948        2949        3000        2999
         4        2949        2950        3001        3000
         4        2950        2951        3002        3001
         4        2951        2952        3003        3002
         4        2952        2953        3004        3003
         4        2953        2954        3005        3004
         4        2954        2955        3006        3005
         4        2955        2956        3007        3006
         4        2956        2957        3008        3007
         4        2958        2959        3010        3009
         4        2959        2960        3011        3010
         4        2960        2961        3012        3011
         4        2961        2962        3013        3012
         4        2962        2963        3014        3013
         4        2963        2964        3015        3014
         4        2964        2965        3016        3015
         4        2965        2966        3017        3016
         4        2966        2967        3018        3017
         4        2967        2968        3019        3018
         4        2968        2969        3020        3019
         4        2969        2970        3021        3020
         4        2970        2971        3022        3021
         4        2971        2972        3023        3022
         4        2972        2973        3024        3023
         4        2973        2974        3025        3024
         4        2974        2975        3026        3025
         4        2975        2976        3027        3026
         4        2976        2977        3028        3027
         4        2977        2978        3029        3028
         4        2978        2979        3030        3029
         4        2979        2980        3031        3030
         4        2980        2981        3032        3031
         4        2981        2982        3033        3032
         4        2982        2983        3034        3033
         4        2983        2984        3035        3034
         4        2984        2985        3036        3035
         4        2985        2986        3037        3036
         4        2986        2987        3038        3037
         4        2987        2988        3039        3038
         4        2988        2989        3040        3039
         4        2989        2990        3041        3040
         4        2990        2991        3042        3041
         4        2991        2992        3043        3042
         4        2992        2993        3044        3043
         4        2993        2994        3045        3044
         4        2994        2995        3046        3045
         4        2995        2996        3047        3046
         4        2996        2997        3048        3047
         4        2997        2998        3049        3048
         4        2998        2999        3050        3049
         4        2999        3000        3051        3050
         4        3000        3001        3052        3051
         4        3001        3002        3053        3052
         4        3002        3003        3054        3053
         4        3003        3004        3055        3054
         4        3004        3005        3056        3055
         4        3005        3006        3057        3056
         4        3006        3007        3058        3057
         4        3007        3008        3059        3058
         4        3009        3010        3061        3060
         4        3010        3011        3062        3061
         4        3011        3012        3063        3062
         4        3012        3013        3064        3063
         4        3013        3014        3065        3064
         4        3014        3015        3066        3065
         4        3015        3016        3067        3066
         4        3016        3017        3068        3067
         4        3017        3018        3069        3068
         4        3018        3019        3070        3069
         4        3019        3020        3071        3070
         4        3020        3021        3072        3071
         4        3021        3022        3073        3072
         4        3022        3023        3074        3073
         4        3023        3024        3075        3074
         4        3024        3025        3076        3075
         4        3025        3026        3077        3076
         4        3026        3027        3078        3077
         4        3027        3028        3079        3078
         4        3028        3029        3080        3079
         4        3029        3030        3081        3080
         4        3030        3031        3082        3081
         4        3031        3032        3083        3082
         4        3032        3033        3084        3083
         4        3033        3034        3085        3084
         4        3034        3035        3086        3085
         4        3035        3036        3087        3086
         4        3036        3037        3088        3087
         4        3037        3038        3089        3088
         4        3038        3039        3090        3089
         4        3039        3040        3091        3090
         4        3040        3041        3092        3091
         4        3041        3042        3093        3092
         4        3042        3043        3094        3093
         4        3043        3044        3095        3094
         4        3044        3045        3096        3095
         4        3045        3046        3097        3096
         4        3046        3047        3098        3097
         4        3047        3048        3099        3098
         4        3048        3049        3100        3099
         4        3049        3050        3101        3100
         4        3050        3051        3102        3101
         4        3051        3052        3103        3102
         4        3052        3053        3104        3103
         4        3053        3054        3105        3104
         4        3054        3055        3106        3105
         4        3055        3056        3107        3106
         4        3056        3057        3108        3107
         4        3057        3058        3109        3108
         4        3058        3059        3110        3109
         4        3060        3061        3112        3111
         4        3061        3062        3113        3112
         4        3062        3063        3114        3113
         4        3063        3064        3115        3114
         4        3064        3065        3116        3115
         4        3065        3066        3117        3116
         4        3066        3067        3118        3117
         4        3067        3068        3119        3118
         4        3068        3069        3120        3119
         4        3069        3070        3121        3120
         4        3070        3071        3122        3121
         4        3071        3072        3123        3122
         4        3072        3073        3124        3123
         4        3073        3074        3125        3124
         4        3074        3075        3126        3125
         4        3075        3076        3127        3126
         4        3076        3077        3128        3127
         4        3077        3078        3129        3128
         4        3078        3079        3130        3129
         4        3079        3080        3131        3130
         4        3080        3081        3132        3131
         4        3081        3082        3133        3132
         4        3082        3083        3134        3133
         4        3083        3084        3135        3134
         4        3084        3085        3136        3135
         4        3085        3086        3137        3136
         4        3086        3087        3138        3137
         4        3087        3088        3139        3138
         4        3088        3089        3140        3139
         4        3089        3090        3141        3140
         4        3090        3091        3142        3141
         4        3091        3092        3143        3142
         4        3092        3093        3144        3143
         4        3093        3094        3145        3144
         4        3094        3095        3146        3145
         4        3095        3096        3147        3146
         4        3096        3097        3148        3147
         4        3097        3098        3149        3148
         4        3098        3099        3150        3149
         4        3099        3100        3151        3150
         4        3100        3101        3152        3151
         4        3101        3102        3153        3152
         4        3102        3103        3154        3153
         4        3103        3104        3155        3154
         4        3104        3105        3156        3155
         4        3105        3106        3157        3156
         4        3106        3107        3158        3157
         4        3107        3108        3159        3158
         4        3108        3109        3160        3159
         4        3109        3110        3161        3160
         4        3111        3112        3163        3162
         4        3112        3113        3164        3163
         4        3113        3114        3165        3164
         4        3114        3115        3166        3165
         4        3115        3116        3167        3166
         4        3116        3117        3168        3167
         4        3117        3118        3169        3168
         4        3118        3119        3170        3169
         4        3119        3120        3171        3170
         4        3120        3121        3172        3171
         4        3121        3122        3173        3172
         4        3122        3123        3174        3173
         4        3123        3124        3175        3174
         4        3124        3125        3176        3175
         4        3125        3126        3177        3176
         4        3126        3127        3178        3177
         4        3127        3128        3179        3178
         4        3128        3129        3180        3179
         4        3129        3130        3181        3180
         4        3130        3131        3182        3181
         4        3131        3132        3183        3182
         4        3132        3133        3184        3183
         4        3133        3134        3185        3184
         4        3134        3135        3186        3185
         4        3135        3136        3187        3186
         4        3136        3137        3188        3187
         4        3137        3138        3189        3188
         4        3138        3139        3190        3189
         4        3139        3140        3191        3190
         4        3140        3141        3192        3191
         4        3141        3142        3193        3192
         4        3142        3143        3194        3193
         4        3143        3144        3195        3194
         4        3144        3145        3196        3195
         4        3145        3146        3197        3196
         4        3146        3147        3198        3197
         4        3147        3148        3199        3198
         4        3148        3149        3200        3199
         4        3149        3150        3201        3200
         4        3150        3151        3202        3201
         4        3151        3152        3203        3202
         4        3152        3153        3204        3203
         4        3153        3154        3205        3204
         4        3154        3155        3206        3205
         4        3155        3156        3207        3206
         4        3156        3157        3208        3207
         4        3157        3158        3209        3208
         4        3158        3159        3210        3209
         4        3159        3160        3211        3210
         4        3160        3161        3212        3211
         4        3162        3163        3214        3213
         4        3163        3164        3215        3214
         4        3164        3165        3216        3215
         4        3165        3166        3217        3216
         4        3166        3167        3218        3217
         4        3167        3168        3219        3218
         4        3168        3169        3220        3219
         4        3169        3170        3221        3220
         4        3170        3171        3222        3221
         4        3171        3172        3223        3222
         4        3172        3173        3224        3223
         4        3173        3174        3225        3224
         4        3174        3175        3226        3225
         4        3175        3176        3227        3226
         4        3176        3177        3228        3227
         4        3177        3178        3229        3228
         4        3178        3179        3230        3229
         4        3179        3180        3231        3230
         4        3180        3181        3232        3231
         4        3181        3182        3233        3232
         4        3182        3183        3234        3233
         4        3183        3184        3235        3234
         4        3184        3185        3236        3235
         4        3185        3186        3237        3236
         4        3186        3187        3238        3237
         4        3187        3188        3239        3238
         4        3188        3189        3240        3239
         4        3189        3190        3241        3240
         4        3190        3191        3242        3241
         4        3191        3192        3243        3242
         4        3192        3193        3244        3243
         4        3193        3194        3245        3244
         4        3194        3195        3246        3245
         4        3195        3196        3247        3246
         4        3196        3197        3248        3247
         4        3197        3198        3249        3248
         4        3198        3199        3250        3249
         4        3199        3200        3251        3250
         4        3200        3201        3252        3251
         4        3201        3202        3253        3252
         4        3202        3203        3254        3253
         4        3203        3204        3255        3254
         4        3204        3205        3256        3255
         4        3205        3206        3257        3256
         4        3206        3207        3258        3257
         4        3207        3208        3259        3258
         4        3208        3209        3260        3259
         4        3209        3210        3261        3260
         4        3210        3211        3262        3261
         4        3211        3212        3263        3262
         4        3213        3214        3265        3264
         4        3214        3215        3266        3265
         4        3215        3216        3267        3266
         4        3216        3217        3268        3267
         4        3217        3218        3269        3268
         4        3218        3219        3270        3269
         4        3219        3220        3271        3270
         4        3220        3221        3272        3271
         4        3221        3222        3273        3272
         4        3222        3223        3274        3273
         4        3223        3224        3275        3274
         4        3224        3225        3276        3275
         4        3225        3226        3277        3276
         4        3226        3227        3278        3277
         4        3227        3228        3279        3278
         4        3228        3229        3280        3279
         4        3229        3230        3281        3280
         4        3230        3231        3282        3281
         4        3231        3232        3283        3282
         4        3232        3233        3284        3283
         4        3233        3234        3285        3284
         4        3234        3235        3286        3285
         4        3235        3236        3287        3286
         4        3236        3237        3288        3287
         4        3237        3238        3289        3288
         4        3238        3239        3290        3289
         4        3239        3240        3291        3290
         4        3240        3241        3292        3291
         4        3241        3242        3293        3292
         4        3242        3243        3294        3293
         4        3243        3244        3295        3294
         4        3244        3245        3296        3295
         4        3245        3246        3297        3296
         4        3246        3247        3298        3297
         4        3247        3248        3299        3298
         4        3248        3249        3300        3299
         4        3249        3250        3301        3300
         4        3250        3251        3302        3301
         4        3251        3252        3303        3302
         4        3252        3253        3304        3303
         4        3253        3254        3305        3304
         4        3254        3255        3306        3305
         4        3255        3256        3307        3306
         4        3256        3257        3308        3307
         4        3257        3258        3309        3308
         4        3258        3259        3310        3309
         4        3259        3260        3311        3310
         4        3260        3261        3312        3311
         4        3261        3262        3313        3312
         4        3262        3263        3314        3313
         4        3264        3265        3316        3315
         4        3265        3266        3317        3316
         4        3266        3267        3318        3317
         4        3267        3268        3319        3318
         4        3268        3269        3320        3319
         4        3269        3270        3321        3320
         4        3270        3271        3322        3321
         4        3271        3272        3323        3322
         4        3272        3273        3324        3323
         4        3273        3274        3325        3324
         4        3274        3275        3326        3325
         4        3275        3276        3327        3326
         4        3276        3277        3328        3327
         4        3277        3278        3329        3328
         4        3278        3279        3330        3329
         4        3279        3280        3331        3330
         4        3280        3281        3332        3331
         4        3281        3282        3333        3332
         4        3282        3283        3334        3333
         4        3283        3284        3335        3334
         4        3284        3285        3336        3335
         4        3285        3286        3337        3336
         4        3286        3287        3338        3337
         4        3287        3288        3339        3338
         4        3288        3289        3340        3339
         4        3289        3290        3341        3340
         4        3290        3291        3342        3341
         4        3291        3292        3343        3342
         4        3292        3293        3344        3343
         4        3293        3294        3345        3344
         4        3294        3295        3346        3345
         4        3295        3296        3347        3346
         4        3296        3297        3348        3347
         4        3297        3298        3349        3348
         4        3298        3299        3350        3349
         4        3299        3300        3351        3350
         4        3300        3301        3352        3351
         4        3301        3302        3353        3352
         4        3302        3303        3354        3353
         4        3303        3304        3355        3354
         4        3304        3305        3356        3355
         4        3305        3306        3357        3356
         4        3306        3307        3358        3357
         4        3307        3308        3359        3358
         4        3308        3309        3360        3359
         4        3309        3310        3361        3360
         4        3310        3311        3362        3361
         4        3311        3312        3363        3362
         4        3312        3313        3364        3363
         4        3313        3314        3365        3364
         4        3315        3316        3367        3366
         4        3316        3317        3368        3367
         4        3317        3318        3369        3368
         4        3318        3319        3370        3369
         4        3319        3320        3371        3370
         4        3320        3321        3372        3371
         4        3321        3322        3373        3372
         4        3322        3323        3374        3373
         4        3323        3324        3375        3374
         4        3324        3325        3376        3375
         4        3325        3326        3377        3376
         4        3326        3327        3378        3377
         4        3327        3328        3379        3378
         4        3328        3329        3380        3379
         4        3329        3330        3381        3380
         4        3330        3331        3382        3381
         4        3331        3332        3383        3382
         4        3332        3333        3384        3383
         4        3333        3334        3385        3384
         4        3334        3335        3386        3385
         4        3335        3336        3387        3386
         4        3336        3337        3388        3387
         4        3337        3338        3389        3388
         4        3338        3339        3390        3389
         4        3339        3340        3391        3390
         4        3340        3341        3392        3391
         4        3341        3342        3393        3392
         4        3342        3343        3394        3393
         4        3343        3344        3395        3394
         4        3344        3345        3396        3395
         4        3345        3346        3397        3396
         4        3346        3347        3398        3397
         4        3347        3348        3399        3398
         4        3348        3349        3400        3399
         4        3349        3350        3401        3400
         4        3350        3351        3402        3401
         4        3351        3352        3403        3402
         4        3352        3353        3404        3403
         4        3353        3354        3405        3404
         4        3354        3355        3406        3405
         4        3355        3356        3407        3406
         4        3356        3357        3408        3407
         4        3357        3358        3409        3408
         4        3358        3359        3410        3409
         4        3359        3360        3411        3410
         4        3360        3361        3412        3411
         4        3361        3362        3413        3412
         4        3362        3363        3414        3413
         4        3363        3364        3415        3414
         4        3364        3365        3416        3415
         4        3366        3367        3418        3417
         4        3367        3368        3419        3418
         4        3368        3369        3420        3419
         4        3369        3370        3421        3420
         4        3370        3371        3422        3421
         4        3371        3372        3423        3422
         4        3372        3373        3424        3423
         4        3373        3374        3425        3424
         4        3374        3375        3426        3425
         4        3375        3376        3427        3426
         4        3376        3377        3428        3427
         4        3377        3378        3429        3428
         4        3378        3379        3430        3429
         4        3379        3380        3431        3430
         4        3380        3381        3432        3431
         4        3381        3382        3433        3432
         4        3382        3383        3434        3433
         4        3383        3384        3435        3434
         4        3384        3385        3436        3435
         4        3385        3386        3437        3436
         4        3386        3387        3438        3437
         4        3387        3388        3439        3438
         4        3388        3389        3440        3439
         4        3389        3390        3441        3440
         4        3390        3391        3442        3441
         4        3391        3392        3443        3442
         4        3392        3393        3444        3443
         4        3393        3394        3445        3444
         4        3394        3395        3446        3445
         4        3395        3396        3447        3446
         4        3396        3397        3448        3447
         4        3397        3398        3449        3448
         4        3398        3399        3450        3449
         4        3399        3400        3451        3450
         4        3400        3401        3452        3451
         4        3401        3402        3453        3452
         4        3402        3403        3454        3453
         4        3403        3404        3455        3454
         4        3404        3405        3456        3455
         4        3405        3406        3457        3456
         4        3406        3407        3458        3457
         4        3407        3408        3459        3458
         4        3408        3409        3460        3459
         4        3409        3410        3461        3460
         4        3410        3411        3462        3461
         4        3411        3412        3463        3462
         4        3412        3413        3464        3463
         4        3413        3414        3465        3464
         4        3414        3415        3466        3465
         4        3415        3416        3467        3466
         4        3417        3418        3469        3468
         4        3418        3419        3470        3469
         4        3419        3420        3471        3470
         4        3420        3421        3472        3471
         4        3421        3422        3473        3472
         4        3422        3423        3474        3473
         4        3423        3424        3475        3474
         4        3424        3425        3476        3475
         4        3425        3426        3477        3476
         4        3426        3427        3478        3477
         4        3427        3428        3479        3478
         4        3428        3429        3480        3479
         4        3429        3430        3481        3480
         4        3430        3431        3482        3481
         4        3431        3432        3483        3482
         4        3432        3433        3484        3483
         4        3433        3434        3485        3484
         4        3434        3435        3486        3485
         4        3435        3436        3487        3486
         4        3436        3437        3488        3487
         4        3437        3438        3489        3488
         4        3438        3439        3490        3489
         4        3439        3440        3491        3490
         4        3440        3441        3492        3491
         4        3441        3442        3493        3492
         4        3442        3443        3494        3493
         4        3443        3444        3495        3494
         4        3444        3445        3496        3495
         4        3445        3446        3497        3496
         4        3446        3447        3498        3497
         4        3447        3448        3499        3498
         4        3448        3449        3500        3499
         4        3449        3450        3501        3500
         4        3450        3451        3502        3501
         4        3451        3452        3503        3502
         4        3452        3453        3504        3503
         4        3453        3454        3505        3504
         4        3454        3455        3506        3505
         4        3455        3456        3507        3506
         4        3456        3457        3508        3507
         4        3457        3458        3509        3508
         4        3458        3459        3510        3509
         4        3459        3460        3511        3510
         4        3460        3461        3512        3511
         4        3461        3462        3513        3512
         4        3462        3463        3514        3513
         4        3463        3464        3515        3514
         4        3464        3465        3516        3515
         4        3465        3466        3517        3516
         4        3466        3467        3518        3517
         4        3468        3469        3520        3519
         4        3469        3470        3521        3520
         4        3470        3471        3522        3521
         4        3471        3472        3523        3522
         4        3472        3473        3524        3523
         4        3473        3474        3525        3524
         4        3474        3475        3526        3525
         4        3475        3476        3527        3526
         4        3476        3477        3528        3527
         4        3477        3478        3529        3528
         4        3478        3479        3530        3529
         4        3479        3480        3531        3530
         4        3480        3481        3532        3531
         4        3481        3482        3533        3532
         4        3482        3483        3534        3533
         4        3483        3484        3535        3534
         4        3484        3485        3536        3535
         4        3485        3486        3537        3536
         4        3486        3487        3538        3537
         4        3487        3488        3539        3538
         4        3488        3489        3540        3539
         4        3489        3490        3541        3540
         4        3490        3491        3542        3541
         4        3491        3492        3543        3542
         4        3492        3493        3544        3543
         4        3493        3494        3545        3544
         4        3494        3495        3546        3545
         4        3495        3496        3547        3546
         4        3496        3497        3548        3547
         4        3497        3498        3549        3548
         4        3498        3499        3550        3549
         4        3499        3500        3551        3550
         4        3500        3501        3552        3551
         4        3501        3502        3553        3552
         4        3502        3503        3554        3553
         4        3503        3504        3555        3554
         4        3504        3505        3556        3555
         4        3505        3506        3557        3556
         4        3506        3507        3558        3557
         4        3507        3508        3559        3558
         4        3508        3509        3560        3559
         4        3509        3510        3561        3560
         4        3510        3511        3562        3561
         4        3511        3512        3563        3562
         4        3512        3513        3564        3563
         4        3513        3514        3565        3564
         4        3514        3515        3566        3565
         4        3515        3516        3567        3566
         4        3516        3517        3568        3567
         4        3517        3518        3569        3568
         4        3519        3520        3571        3570
         4        3520        3521        3572        3571
         4        3521        3522        3573        3572
         4        3522        3523        3574        3573
         4        3523        3524        3575        3574
         4        3524        3525        3576        3575
         4        3525        3526        3577        3576
         4        3526        3527        3578        3577
         4        3527        3528        3579        3578
         4        3528        3529        3580        3579
         4        3529        3530        3581        3580
         4        3530        3531        3582        3581
         4        3531        3532        3583        3582
         4        3532        3533        3584        3583
         4        3533        3534        3585        3584
         4        3534        3535        3586        3585
         4        3535        3536        3587        3586
         4        3536        3537        3588        3587
         4        3537        3538        3589        3588
         4        3538        3539        3590        3589
         4        3539        3540        3591        3590
         4        3540        3541        3592        3591
         4        3541        3542        3593        3592
         4        3542        3543        3594        3593
         4        3543        3544        3595        3594
         4        3544        3545        3596        3595
         4        3545        3546        3597        3596
         4        3546        3547        3598        3597
         4        3547        3548        3599        3598
         4        3548        3549        3600        3599
         4        3549        3550        3601        3600
         4        3550        3551        3602        3601
         4        3551        3552        3603        3602
         4        3552        3553        3604        3603
         4        3553        3554        3605        3604
         4        3554        3555        3606        3605
         4        3555        3556        3607        3606
         4        3556        3557        3608        3607
         4        3557        3558        3609        3608
         4        3558        3559        3610        3609
         4        3559        3560        3611        3610
         4        3560        3561        3612        3611
         4        3561        3562        3613        3612
         4        3562        3563        3614        3613
         4        3563        3564        3615        3614
         4        3564        3565        3616        3615
         4        3565        3566        3617        3616
         4        3566        3567        3618        3617
         4        3567        3568        3619        3618
         4        3568        3569        3620        3619
         4        3570        3571        3622        3621
         4        3571        3572        3623        3622
         4        3572        3573        3624        3623
         4        3573        3574        3625        3624
         4        3574        3575        3626        3625
         4        3575        3576        3627        3626
         4        3576        3577        3628        3627
         4        3577        3578        3629        3628
         4        3578        3579        3630        3629
         4        3579        3580        3631        3630
         4        3580        3581        3632        3631
         4        3581        3582        3633        3632
         4        3582        3583        3634        3633
         4        3583        3584        3635        3634
         4        3584        3585        3636        3635
         4        3585        3586        3637        3636
         4        3586        3587        3638        3637
         4        3587        3588        3639        3638
         4        3588        3589        3640        3639
         4        3589        3590        3641        3640
         4        3590        3591        3642        3641
         4        3591        3592        3643        3642
         4        3592        3593        3644        3643
         4        3593        3594        3645        3644
         4        3594        3595        3646        3645
         4        3595        3596        3647        3646
         4        3596        3597        3648        3647
         4        3597        3598        3649        3648
         4        3598        3599        3650        3649
         4        3599        3600        3651        3650
         4        3600        3601        3652        3651
         4        3601        3602        3653        3652
         4        3602        3603        3654        3653
         4        3603        3604        3655        3654
         4        3604        3605        3656        3655
         4        3605        3606        3657        3656
         4        3606        3607        3658        3657
         4        3607        3608        3659        3658
         4        3608        3609        3660        3659
         4        3609        3610        3661        3660
         4        3610        3611        3662        3661
         4        3611        3612        3663        3662
         4        3612        3613        3664        3663
         4        3613        3614        3665        3664
         4        3614        3615        3666        3665
         4        3615        3616        3667        3666
         4        3616        3617        3668        3667
         4        3617        3618        3669        3668
         4        3618        3619        3670        3669
         4        3619        3620        3671        3670
         4        3621        3622        3673        3672
         4        3622        3623        3674        3673
         4        3623        3624        3675        3674
         4        3624        3625        3676        3675
         4        3625        3626        3677        3676
         4        3626        3627        3678        3677
         4        3627        3628        3679        3678
         4        3628        3629        3680        3679
         4        3629        3630        3681        3680
         4        3630        3631        3682        3681
         4        3631        3632        3683        3682
         4        3632        3633        3684        3683
         4        3633        3634        3685        3684
         4        3634        3635        3686        3685
         4        3635        3636        3687        3686
         4        3636        3637        3688        3687
         4        3637        3638        3689        3688
         4        3638        3639        3690        3689
         4        3639        3640        3691        3690
         4        3640        3641        3692        3691
         4        3641        3642        3693        3692
         4        3642        3643        3694        3693
         4        3643        3644        3695        3694
         4        3644        3645        3696        3695
         4        3645        3646        3697        3696
         4        3646        3647        3698        3697
         4        3647        3648        3699        3698
         4        3648        3649        3700        3699
         4        3649        3650        3701        3700
         4        3650        3651        3702        3701
         4        3651        3652        3703        3702
         4        3652        3653        3704        3703
         4        3653        3654        3705        3704
         4        3654        3655        3706        3705
         4        3655        3656        3707        3706
         4        3656        3657        3708        3707
         4        3657        3658        3709        3708
         4        3658        3659        3710        3709
         4        3659        3660        3711        3710
         4        3660        3661        3712        3711
         4        3661        3662        3713        3712
         4        3662        3663        3714        3713
         4        3663        3664        3715        3714
         4        3664        3665        3716        3715
         4        3665        3666        3717        3716
         4        3666        3667        3718        3717
         4        3667        3668        3719        3718
         4        3668        3669        3720        3719
         4        3669        3670        3721        3720
         4        3670        3671        3722        3721
         4        3672        3673        3724        3723
         4        3673        3674        3725        3724
         4        3674        3675        3726        3725
         4        3675        3676        3727        3726
         4        3676        3677        3728        3727
         4        3677        3678        3729        3728
         4        3678        3679        3730        3729
         4        3679        3680        3731        3730
         4        3680        3681        3732        3731
         4        3681        3682        3733        3732
         4        3682        3683        3734        3733
         4        3683        3684        3735        3734
         4        3684        3685        3736        3735
         4        3685        3686        3737        3736
         4        3686        3687        3738        3737
         4        3687        3688        3739        3738
         4        3688        3689        3740        3739
         4        3689        3690        3741        3740
         4        3690        3691        3742        3741
         4        3691        3692        3743        3742
         4        3692        3693        3744        3743
         4        3693        3694        3745        3744
         4        3694        3695        3746        3745
         4        3695        3696        3747        3746
         4        3696        3697        3748        3747
         4        3697        3698        3749        3748
         4        3698        3699        3750        3749
         4        3699        3700        3751        3750
         4        3700        3701        3752        3751
         4        3701        3702        3753        3752
         4        3702        3703        3754        3753
         4        3703        3704        3755        3754
         4        3704        3705        3756        3755
         4        3705        3706        3757        3756
         4        3706        3707        3758        3757
         4        3707        3708        3759        3758
         4        3708        3709        3760        3759
         4        3709        3710        3761        3760
         4        3710        3711        3762        3761
         4        3711        3712        3763        3762
         4        3712        3713        3764        3763
         4        3713        3714        3765        3764
         4        3714        3715        3766        3765
         4        3715        3716        3767        3766
         4        3716        3717        3768        3767
         4        3717        3718        3769        3768
         4        3718        3719        3770        3769
         4        3719        3720        3771        3770
         4        3720        3721        3772        3771
         4        3721        3722        3773        3772
         4        3723        3724        3775        3774
         4        3724        3725        3776        3775
         4        3725        3726        3777        3776
         4        3726        3727        3778        3777
         4        3727        3728        3779        3778
         4        3728        3729        3780        3779
         4        3729        3730        3781        3780
         4        3730        3731        3782        3781
         4        3731        3732        3783        3782
         4        3732        3733        3784        3783
         4        3733        3734        3785        3784
         4        3734        3735        3786        3785
         4        3735        3736        3787        3786
         4        3736        3737        3788        3787
         4        3737        3738        3789        3788
         4        3738        3739        3790        3789
         4        3739        3740        3791        3790
         4        3740        3741        3792        3791
         4        3741        3742        3793        3792
         4        3742        3743        3794        3793
         4        3743        3744        3795        3794
         4        3744        3745        3796        3795
         4        3745        3746        3797        3796
         4        3746        3747        3798        3797
         4        3747        3748        3799        3798
         4        3748        3749        3800        3799
         4        3749        3750        3801        3800
         4        3750        3751        3802        3801
         4        3751        3752        3803        3802
         4        3752        3753        3804        3803
         4        3753        3754        3805        3804
         4        3754        3755        3806        3805
         4        3755        3756        3807        3806
         4        3756        3757        3808        3807
         4        3757        3758        3809        3808
         4        3758        3759        3810        3809
         4        3759        3760        3811        3810
         4        3760        3761        3812        3811
         4        3761        3762        3813        3812
         4        3762        3763        3814        3813
         4        3763        3764        3815        3814
         4        3764        3765        3816        3815
         4        3765        3766        3817        3816
         4        3766        3767        3818        3817
         4        3767        3768        3819        3818
         4        3768        3769        3820        3819
         4        3769        3770        3821        3820
         4        3770        3771        3822        3821
         4        3771        3772        3823        3822
         4        3772        3773        3824        3823
         4        3774        3775        3826        3825
         4        3775        3776        3827        3826
         4        3776        3777        3828        3827
         4        3777        3778        3829        3828
         4        3778        3779        3830        3829
         4        3779        3780        3831        3830
         4        3780        3781        3832        3831
         4        3781        3782        3833        3832
         4        3782        3783        3834        3833
         4        3783        3784        3835        3834
         4        3784        3785        3836        3835
         4        3785        3786        3837        3836
         4        3786        3787        3838        3837
         4        3787        3788        3839        3838
         4        3788        3789        3840        3839
         4        3789        3790        3841        3840
         4        3790        3791        3842        3841
         4        3791        3792        3843        3842
         4        3792        3793        3844        3843
         4        3793        3794        3845        3844
         4        3794        3795        3846        3845
         4        3795        3796        3847        3846
         4        3796        3797        3848        3847
         4        3797        3798        3849        3848
         4        3798        3799        3850        3849
         4        3799        3800        3851        3850
         4        3800        3801        3852        3851
         4        3801        3802        3853        3852
         4        3802        3803        3854        3853
         4        3803        3804        3855        3854
         4        3804        3805        3856        3855
         4        3805        3806        3857        3856
         4        3806        3807        3858        3857
         4        3807        3808        3859        3858
         4        3808        3809        3860        3859
         4        3809        3810        3861        3860
         4        3810        3811        3862        3861
         4        3811        3812        3863        3862
         4        3812        3813        3864        3863
         4        3813        3814        3865        3864
         4        3814        3815        3866        3865
         4        3815        3816        3867        3866
         4        3816        3817        3868        3867
         4        3817        3818        3869        3868
         4        3818        3819        3870        3869
         4        3819        3820        3871        3870
         4        3820        3821        3872        3871
         4        3821        3822        3873        3872
         4        3822        3823        3874        3873
         4        3823        3824        3875        3874
         4        3825        3826        3877        3876
         4        3826        3827        3878        3877
         4        3827        3828        3879        3878
         4        3828        3829        3880        3879
         4        3829        3830        3881        3880
         4        3830        3831        3882        3881
         4        3831        3832        3883        3882
         4        3832        3833        3884        3883
         4        3833        3834        3885        3884
         4        3834        3835        3886        3885
         4        3835        3836        3887        3886
         4        3836        3837        3888        3887
         4        3837        3838        3889        3888
         4        3838        3839        3890        3889
         4        3839        3840        3891        3890
         4        3840        3841        3892        3891
         4        3841        3842        3893        3892
         4        3842        3843        3894        3893
         4        3843        3844        3895        3894
         4        3844        3845        3896        3895
         4        3845        3846        3897        3896
         4        3846        3847        3898        3897
         4        3847        3848        3899        3898
         4        3848        3849        3900        3899
         4        3849        3850        3901        3900
         4        3850        3851        3902        3901
         4        3851        3852        3903        3902
         4        3852        3853        3904        3903
         4        3853        3854        3905        3904
         4        3854        3855        3906        3905
         4        3855        3856        3907        3906
         4        3856        3857        3908        3907
         4        3857        3858        3909        3908
         4        3858        3859        3910        3909
         4        3859        3860        3911        3910
         4        3860        3861        3912        3911
         4        3861        3862        3913        3912
         4        3862        3863        3914        3913
         4        3863        3864        3915        3914
         4        3864        3865        3916        3915
         4        3865        3866        3917        3916
         4        3866        3867        3918        3917
         4        3867        3868        3919        3918
         4        3868        3869        3920        3919
         4        3869        3870        3921        3920
         4        3870        3871        3922        3921
         4        3871        3872        3923        3922
         4        3872        3873        3924        3923
         4        3873        3874        3925        3924
         4        3874        3875        3926        3925
         4        3876        3877        3928        3927
         4        3877        3878        3929        3928
         4        3878        3879        3930        3929
         4        3879        3880        3931        3930
         4        3880        3881        3932        3931
         4        3881        3882        3933        3932
         4        3882        3883        3934        3933
         4        3883        3884        3935        3934
         4        3884        3885        3936        3935
         4        3885        3886        3937        3936
         4        3886        3887        3938        3937
         4        3887        3888        3939        3938
         4        3888        3889        3940        3939
         4        3889        3890        3941        3940
         4        3890        3891        3942        3941
         4        3891        3892        3943        3942
         4        3892        3893        3944        3943
         4        3893        3894        3945        3944
         4        3894        3895        3946        3945
         4        3895        3896        3947        3946
         4        3896        3897        3948        3947
         4        3897        3898        3949        3948
         4        3898        3899        3950        3949
         4        3899        3900        3951        3950
         4        3900        3901        3952        3951
         4        3901        3902        3953        3952
         4        3902        3903        3954        3953
         4        3903        3904        3955        3954
         4        3904        3905        3956        3955
         4        3905        3906        3957        3956
         4        3906        3907        3958        3957
         4        3907        3908        3959        3958
         4        3908        3909        3960        3959
         4        3909        3910        3961        3960
         4        3910        3911        3962        3961
         4        3911        3912        3963        3962
         4        3912        3913        3964        3963
         4        3913        3914        3965        3964
         4        3914        3915        3966        3965
         4        3915        3916        3967        3966
         4        3916        3917        3968        3967
         4        3917        3918        3969        3968
         4        3918        3919        3970        3969
         4        3919        3920        3971        3970
         4        3920        3921        3972        3971
         4        3921        3922        3973        3972
         4        3922        3923        3974        3973
         4        3923        3924        3975        3974
         4        3924        3925        3976        3975
         4        3925        3926        3977        3976
         4        3927        3928        3979        3978
         4        3928        3929        3980        3979
         4        3929        3930        3981        3980
         4        3930        3931        3982        3981
         4        3931        3932        3983        3982
         4        3932        3933        3984        3983
         4        3933        3934        3985        3984
         4        3934        3935        3986        3985
         4        3935        3936        3987        3986
         4        3936        3937        3988        3987
         4        3937        3938        3989        3988
         4        3938        3939        3990        3989
         4        3939        3940        3991        3990
         4        3940        3941        3992        3991
         4        3941        3942        3993        3992
         4        3942        3943        3994        3993
         4        3943        3944        3995        3994
         4        3944        3945        3996        3995
         4        3945        3946        3997        3996
         4        3946        3947        3998        3997
         4        3947        3948        3999        3998
         4        3948        3949        4000        3999
         4        3949        3950        4001        4000
         4        3950        3951        4002        4001
         4        3951        3952        4003        4002
         4        3952        3953        4004        4003
         4        3953        3954        4005        4004
         4        3954        3955        4006        4005
         4        3955        3956        4007        4006
         4        3956        3957        4008        4007
         4        3957        3958        4009        4008
         4        3958        3959        4010        4009
         4        3959        3960        4011        4010
         4        3960        3961        4012        4011
         4        3961        3962        4013        4012
         4        3962        3963        4014        4013
         4        3963        3964        4015        4014
         4        3964        3965        4016        4015
         4        3965        3966        4017        4016
         4        3966        3967        4018        4017
         4        3967        3968        4019        4018
         4        3968        3969        4020        4019
         4        3969        3970        4021        4020
         4        3970        3971        4022        4021
         4        3971        3972        4023        4022
         4        3972        3973        4024        4023
         4        3973        3974        4025        4024
         4        3974        3975        4026        4025
         4        3975        3976        4027        4026
         4        3976        3977        4028        4027
         4        3978        3979        4030        4029
         4        3979        3980        4031        4030
         4        3980        3981        4032        4031
         4        3981        3982        4033        4032
         4        3982        3983        4034        4033
         4        3983        3984        4035        4034
         4        3984        3985        4036        4035
         4        3985        3986        4037        4036
         4        3986        3987        4038        4037
         4        3987        3988        4039        4038
         4        3988        3989        4040        4039
         4        3989        3990        4041        4040
         4        3990        3991        4042        4041
         4        3991        3992        4043        4042
         4        3992        3993        4044        4043
         4        3993        3994        4045        4044
         4        3994        3995        4046        4045
         4        3995        3996        4047        4046
         4        3996        3997        4048        4047
         4        3997        3998        4049        4048
         4        3998        3999        4050        4049
         4        3999        4000        4051        4050
         4        4000        4001        4052        4051
         4        4001        4002        4053        4052
         4        4002        4003        4054        4053
         4        4003        4004        4055        4054
         4        4004        4005        4056        4055
         4        4005        4006        4057        4056
         4        4006        4007        4058        4057
         4        4007        4008        4059        4058
         4        4008        4009        4060        4059
         4        4009        4010        4061        4060
         4        4010        4011        4062        4061
         4        4011        4012        4063        4062
         4        4012        4013        4064        4063
         4        4013        4014        4065        4064
         4        4014        4015        4066        4065
         4        4015        4016        4067        4066
         4        4016        4017        4068        4067
         4        4017        4018        4069        4068
         4        4018        4019        4070        4069
         4        4019        4020        4071        4070
         4        4020        4021        4072        4071
         4        4021        4022        4073        4072
         4        4022        4023        4074        4073
         4        4023        4024        4075        4074
         4        4024        4025        4076        4075
         4        4025        4026        4077        4076
         4        4026        4027        4078        4077
         4        4027        4028        4079        4078
         4        4029        4030        4081        4080
         4        4030        4031        4082        4081
         4        4031        4032        4083        4082
         4        4032        4033        4084        4083
         4        4033        4034        4085        4084
         4        4034        4035        4086        4085
         4        4035        4036        4087        4086
         4        4036        4037        4088        4087
         4        4037        4038        4089        4088
         4        4038        4039        4090        4089
         4        4039        4040        4091        4090
         4        4040        4041        4092        4091
         4        4041        4042        4093        4092
         4        4042        4043        4094        4093
         4        4043        4044        4095        4094
         4        4044        4045        4096        4095
         4        4045        4046        4097        4096
         4        4046        4047        4098        4097
         4        4047        4048        4099        4098
         4        4048        4049        4100        4099
         4        4049        4050        4101        4100
         4        4050        4051        4102        4101
         4        4051        4052        4103        4102
         4        4052        4053        4104        4103
         4        4053        4054        4105        4104
         4        4054        4055        4106        4105
         4        4055        4056        4107        4106
         4        4056        4057        4108        4107
         4        4057        4058        4109        4108
         4        4058        4059        4110        4109
         4        4059        4060        4111        4110
         4        4060        4061        4112        4111
         4        4061        4062        4113        4112
         4        4062        4063        4114        4113
         4        4063        4064        4115        4114
         4        4064        4065        4116        4115
         4        4065        4066        4117        4116
         4        4066        4067        4118        4117
         4        4067        4068        4119        4118
         4        4068        4069        4120        4119
         4        4069        4070        4121        4120
         4        4070        4071        4122        4121
         4        4071        4072        4123        4122
         4        4072        4073        4124        4123
         4        4073        4074        4125        4124
         4        4074        4075        4126        4125
         4        4075        4076        4127        4126
         4        4076        4077        4128        4127
         4        4077        4078        4129        4128
         4        4078        4079        4130        4129
         4        4080        4081        4132        4131
         4        4081        4082        4133        4132
         4        4082        4083        4134        4133
         4        4083        4084        4135        4134
         4        4084        4085        4136        4135
         4        4085        4086        4137        4136
         4        4086        4087        4138        4137
         4        4087        4088        4139        4138
         4        4088        4089        4140        4139
         4        4089        4090        4141        4140
         4        4090        4091        4142        4141
         4        4091        4092        4143        4142
         4        4092        4093        4144        4143
         4        4093        4094        4145        4144
         4        4094        4095        4146        4145
         4        4095        4096        4147        4146
         4        4096        4097        4148        4147
         4        4097        4098        4149        4148
         4        4098        4099        4150        4149
         4        4099        4100        4151        4150
         4        4100        4101        4152        4151
         4        4101        4102        4153        4152
         4        4102        4103        4154        4153
         4        4103        4104        4155        4154
         4        4104        4105        4156        4155
         4        4105        4106        4157        4156
         4        4106        4107        4158        4157
         4        4107        4108        4159        4158
         4        4108        4109        4160        4159
         4        4109        4110        4161        4160
         4        4110        4111        4162        4161
         4        4111        4112        4163        4162
         4        4112        4113        4164        4163
         4        4113        4114        4165        4164
         4        4114        4115        4166        4165
         4        4115        4116        4167        4166
         4        4116        4117        4168        4167
         4        4117        4118        4169        4168
         4        4118        4119        4170        4169
         4        4119        4120        4171        4170
         4        4120        4121        4172        4171
         4        4121        4122        4173        4172
         4        4122        4123        4174        4173
         4        4123        4124        4175        4174
         4        4124        4125        4176        4175
         4        4125        4126        4177        4176
         4        4126        4127        4178        4177
         4        4127        4128        4179        4178
         4        4128        4129        4180        4179
         4        4129        4130        4181        4180
         4        4131        4132        4183        4182
         4        4132        4133        4184        4183
         4        4133        4134        4185        4184
         4        4134        4135        4186        4185
         4        4135        4136        4187        4186
         4        4136        4137        4188        4187
         4        4137        4138        4189        4188
         4        4138        4139        4190        4189
         4        4139        4140        4191        4190
         4        4140        4141        4192        4191
         4        4141        4142        4193        4192
         4        4142        4143        4194        4193
         4        4143        4144        4195        4194
         4        4144        4145        4196        4195
         4        4145        4146        4197        4196
         4        4146        4147        4198        4197
         4        4147        4148        4199        4198
         4        4148        4149        4200        4199
         4        4149        4150        4201        4200
         4        4150        4151        4202        4201
         4        4151        4152        4203        4202
         4        4152        4153        4204        4203
         4        4153        4154        4205        4204
         4        4154        4155        4206        4205
         4        4155        4156        4207        4206
         4        4156        4157        4208        4207
         4        4157        4158        4209        4208
         4        4158        4159        4210        4209
         4        4159        4160        4211        4210
         4        4160        4161        4212        4211
         4        4161        4162        4213        4212
         4        4162        4163        4214        4213
         4        4163        4164        4215        4214
         4        4164        4165        4216        4215
         4        4165        4166        4217        4216
         4        4166        4167        4218        4217
         4        4167        4168        4219        4218
         4        4168        4169        4220        4219
         4        4169        4170        4221        4220
         4        4170        4171        4222        4221
         4        4171        4172        4223        4222
         4        4172        4173        4224        4223
         4        4173        4174        4225        4224
         4        4174        4175        4226        4225
         4        4175        4176        4227        4226
         4        4176        4177        4228        4227
         4        4177        4178        4229        4228
         4        4178        4179        4230        4229
         4        4179        4180        4231        4230
         4        4180        4181        4232        4231
         4        4182        4183        4234        4233
         4        4183        4184        4235        4234
         4        4184        4185        4236        4235
         4        4185        4186        4237        4236
         4        4186        4187        4238        4237
         4        4187        4188        4239        4238
         4        4188        4189        4240        4239
         4        4189        4190        4241        4240
         4        4190        4191        4242        4241
         4        4191        4192        4243        4242
         4        4192        4193        4244        4243
         4        4193        4194        4245        4244
         4        4194        4195        4246        4245
         4        4195        4196        4247        4246
         4        4196        4197        4248        4247
         4        4197        4198        4249        4248
         4        4198        4199        4250        4249
         4        4199        4200        4251        4250
         4        4200        4201        4252        4251
         4        4201        4202        4253        4252
         4        4202        4203        4254        4253
         4        4203        4204        4255        4254
         4        4204        4205        4256        4255
         4        4205        4206        4257        4256
         4        4206        4207        4258        4257
         4        4207        4208        4259        4258
         4        4208        4209        4260        4259
         4        4209        4210        4261        4260
         4        4210        4211        4262        4261
         4        4211        4212        4263        4262
         4        4212        4213        4264        4263
         4        4213        4214        4265        4264
         4        4214        4215        4266        4265
         4        4215        4216        4267        4266
         4        4216        4217        4268        4267
         4        4217        4218        4269        4268
         4        4218        4219        4270        4269
         4        4219        4220        4271        4270
         4        4220        4221        4272        4271
         4        4221        4222        4273        4272
         4        4222        4223        4274        4273
         4        4223        4224        4275        4274
         4        4224        4225        4276        4275
         4        4225        4226        4277        4276
         4        4226        4227        4278        4277
         4        4227        4228        4279        4278
         4        4228        4229        4280        4279
         4        4229        4230        4281        4280
         4        4230        4231        4282        4281
         4        4231        4232        4283        4282
         4        4233        4234        4285        4284
         4        4234        4235        4286        4285
         4        4235        4236        4287        4286
         4        4236        4237        4288        4287
         4        4237        4238        4289        4288
         4        4238        4239        4290        4289
         4        4239        4240        4291        4290
         4        4240        4241        4292        4291
         4        4241        4242        4293        4292
         4        4242        4243        4294        4293
         4        4243        4244        4295        4294
         4        4244        4245        4296        4295
         4        4245        4246        4297        4296
         4        4246        4247        4298        4297
         4        4247        4248        4299        4298
         4        4248        4249        4300        4299
         4        4249        4250        4301        4300
         4        4250        4251        4302        4301
         4        4251        4252        4303        4302
         4        4252        4253        4304        4303
         4        4253        4254        4305        4304
         4        4254        4255        4306        4305
         4        4255        4256        4307        4306
         4        4256        4257        4308        4307
         4        4257        4258        4309        4308
         4        4258        4259        4310        4309
         4        4259        4260        4311        4310
         4        4260        4261        4312        4311
         4        4261        4262        4313        4312
         4        4262        4263        4314        4313
         4        4263        4264        4315        4314
         4        4264        4265        4316        4315
         4        4265        4266        4317        4316
         4        4266        4267        4318        4317
         4        4267        4268        4319        4318
         4        4268        4269        4320        4319
         4        4269        4270        4321        4320
         4        4270        4271        4322        4321
         4        4271        4272        4323        4322
         4        4272        4273        4324        4323
         4        4273        4274        4325        4324
         4        4274        4275        4326        4325
         4        4275        4276        4327        4326
         4        4276        4277        4328        4327
         4        4277        4278        4329        4328
         4        4278        4279        4330        4329
         4        4279        4280        4331        4330
         4        4280        4281        4332        4331
         4        4281        4282        4333        4332
         4        4282        4283        4334        4333
         4        4284        4285        4336        4335
         4        4285        4286        4337        4336
         4        4286        4287        4338        4337
         4        4287        4288        4339        4338
         4        4288        4289        4340        4339
         4        4289        4290        4341        4340
         4        4290        4291        4342        4341
         4        4291        4292        4343        4342
         4        4292        4293        4344        4343
         4        4293        4294        4345        4344
         4        4294        4295        4346        4345
         4        4295        4296        4347        4346
         4        4296        4297        4348        4347
         4        4297        4298        4349        4348
         4        4298        4299        4350        4349
         4        4299        4300        4351        4350
         4        4300        4301        4352        4351
         4        4301        4302        4353        4352
         4        4302        4303        4354        4353
         4        4303        4304        4355        4354
         4        4304        4305        4356        4355
         4        4305        4306        4357        4356
         4        4306        4307        4358        4357
         4        4307        4308        4359        4358
         4        4308        4309        4360        4359
         4        4309        4310        4361        4360
         4        4310        4311        4362        4361
         4        4311        4312        4363        4362
         4        4312        4313        4364        4363
         4        4313        4314        4365        4364
         4        4314        4315        4366        4365
         4        4315        4316        4367        4366
         4        4316        4317        4368        4367
         4        4317        4318        4369        4368
         4        4318        4319        4370        4369
         4        4319        4320        4371        4370
         4        4320        4321        4372        4371
         4        4321        4322        4373        4372
         4        4322        4323        4374        4373
         4        4323        4324        4375        4374
         4        4324        4325        4376        4375
         4        4325        4326        4377        4376
         4        4326        4327        4378        4377
         4        4327        4328        4379        4378
         4        4328        4329        4380        4379
         4        4329        4330        4381        4380
         4        4330        4331        4382        4381
         4        4331        4332        4383        4382
         4        4332        4333        4384        4383
         4        4333        4334        4385        4384
         4        4335        4336        4387        4386
         4        4336        4337        4388        4387
         4        4337        4338        4389        4388
         4        4338        4339        4390        4389
         4        4339        4340        4391        4390
         4        4340        4341        4392        4391
         4        4341        4342        4393        4392
         4        4342        4343        4394        4393
         4        4343        4344        4395        4394
         4        4344        4345        4396        4395
         4        4345        4346        4397        4396
         4        4346        4347        4398        4397
         4        4347        4348        4399        4398
         4        4348        4349        4400        4399
         4        4349        4350        4401        4400
         4        4350        4351        4402        4401
         4        4351        4352        4403        4402
         4        4352        4353        4404        4403
         4        4353        4354        4405        4404
         4        4354        4355        4406        4405
         4        4355        4356        4407        4406
         4        4356        4357        4408        4407
         4        4357        4358        4409        4408
         4        4358        4359        4410        4409
         4        4359        4360        4411        4410
         4        4360        4361        4412        4411
         4        4361        4362        4413        4412
         4        4362        4363        4414        4413
         4        4363        4364        4415        4414
         4        4364        4365        4416        4415
         4        4365        4366        4417        4416
         4        4366        4367        4418        4417
         4        4367        4368        4419        4418
         4        4368        4369        4420        4419
         4        4369        4370        4421        4420
         4        4370        4371        4422        4421
         4        4371        4372        4423        4422
         4        4372        4373        4424        4423
         4        4373        4374        4425        4424
         4        4374        4375        4426        4425
         4        4375        4376        4427        4426
         4        4376        4377        4428        4427
         4        4377        4378        4429        4428
         4        4378        4379        4430        4429
         4        4379        4380        4431        4430
         4        4380        4381        4432        4431
         4        4381        4382        4433        4432
         4        4382        4383        4434        4433
         4        4383        4384        4435        4434
         4        4384        4385        4436        4435
         4        4386        4387        4438        4437
         4        4387        4388        4439        4438
         4        4388        4389        4440        4439
         4        4389        4390        4441        4440
         4        4390        4391        4442        4441
         4        4391        4392        4443        4442
         4        4392        4393        4444        4443
         4        4393        4394        4445        4444
         4        4394        4395        4446        4445
         4        4395        4396        4447        4446
         4        4396        4397        4448        4447
         4        4397        4398        4449        4448
         4        4398        4399        4450        4449
         4        4399        4400        4451        4450
         4        4400        4401        4452        4451
         4        4401        4402        4453        4452
         4        4402        4403        4454        4453
         4        4403        4404        4455        4454
         4        4404        4405        4456        4455
         4        4405        4406        4457        4456
         4        4406        4407        4458        4457
         4        4407        4408        4459        4458
         4        4408        4409        4460        4459
         4        4409        4410        4461        4460
         4        4410        4411        4462        4461
         4        4411        4412        4463        4462
         4        4412        4413        4464        4463
         4        4413        4414        4465        4464
         4        4414        4415        4466        4465
         4        4415        4416        4467        4466
         4        4416        4417        4468        4467
         4        4417        4418        4469        4468
         4        4418        4419        4470        4469
         4        4419        4420        4471        4470
         4        4420        4421        4472        4471
         4        4421        4422        4473        4472
         4        4422        4423        4474        4473
         4        4423        4424        4475        4474
         4        4424        4425        4476        4475
         4        4425        4426        4477        4476
         4        4426        4427        4478        4477
         4        4427        4428        4479        4478
         4        4428        4429        4480        4479
         4        4429        4430        4481        4480
         4        4430        4431        4482        4481
         4        4431        4432        4483        4482
         4        4432        4433        4484        4483
         4        4433        4434        4485        4484
         4        4434        4435        4486        4485
         4        4435        4436        4487        4486
         4        4437        4438        4489        4488
         4        4438        4439        4490        4489
         4        4439        4440        4491        4490
         4        4440        4441        4492        4491
         4        4441        4442        4493        4492
         4        4442        4443        4494        4493
         4        4443        4444        4495        4494
         4        4444        4445        4496        4495
         4        4445        4446        4497        4496
         4        4446        4447        4498        4497
         4        4447        4448        4499        4498
         4        4448        4449        4500        4499
         4        4449        4450        4501        4500
         4        4450        4451        4502        4501
         4        4451        4452        4503        4502
         4        4452        4453        4504        4503
         4        4453        4454        4505        4504
         4        4454        4455        4506        4505
         4        4455        4456        4507        4506
         4        4456        4457        4508        4507
         4        4457        4458        4509        4508
         4        4458        4459        4510        4509
         4        4459        4460        4511        4510
         4        4460        4461        4512        4511
         4        4461        4462        4513        4512
         4        4462        4463        4514        4513
         4        4463        4464        4515        4514
         4        4464        4465        4516        4515
         4        4465        4466        4517        4516
         4        4466        4467        4518        4517
         4        4467        4468        4519        4518
         4        4468        4469        4520        4519
         4        4469        4470        4521        4520
         4        4470        4471        4522        4521
         4        4471        4472        4523        4522
         4        4472        4473        4524        4523
         4        4473        4474        4525        4524
         4        4474        4475        4526        4525
         4        4475        4476        4527        4526
         4        4476        4477        4528        4527
         4        4477        4478        4529        4528
         4        4478        4479        4530        4529
         4        4479        4480        4531        4530
         4        4480        4481        4532        4531
         4        4481        4482        4533        4532
         4        4482        4483        4534        4533
         4        4483        4484        4535        4534
         4        4484        4485        4536        4535
         4        4485        4486        4537        4536
         4        4486        4487        4538        4537
         4        4488        4489        4540        4539
         4        4489        4490        4541        4540
         4        4490        4491        4542        4541
         4        4491        4492        4543        4542
         4        4492        4493        4544        4543
         4        4493        4494        4545        4544
         4        4494        4495        4546        4545
         4        4495        4496        4547        4546
         4        4496        4497        4548        4547
         4        4497        4498        4549        4548
         4        4498        4499        4550        4549
         4        4499        4500        4551        4550
         4        4500        4501        4552        4551
         4        4501        4502        4553        4552
         4        4502        4503        4554        4553
         4        4503        4504        4555        4554
         4        4504        4505        4556        4555
         4        4505        4506        4557        4556
         4        4506        4507        4558        4557
         4        4507        4508        4559        4558
         4        4508        4509        4560        4559
         4        4509        4510        4561        4560
         4        4510        4511        4562        4561
         4        4511        4512        4563        4562
         4        4512        4513        4564        4563
         4        4513        4514        4565        4564
         4        4514        4515        4566        4565
         4        4515        4516        4567        4566
         4        4516        4517        4568        4567
         4        4517        4518        4569        4568
         4        4518        4519        4570        4569
         4        4519        4520        4571        4570
         4        4520        4521        4572        4571
         4        4521        4522        4573        4572
         4        4522        4523        4574        4573
         4        4523        4524        4575        4574
         4        4524        4525        4576        4575
         4        4525        4526        4577        4576
         4        4526        4527        4578        4577
         4        4527        4528        4579        4578
         4        4528        4529        4580        4579
         4        4529        4530        4581        4580
         4        4530        4531        4582        4581
         4        4531        4532        4583        4582
         4        4532        4533        4584        4583
         4        4533        4534        4585        4584
         4        4534        4535        4586        4585
         4        4535        4536        4587        4586
         4        4536        4537        4588        4587
         4        4537        4538        4589        4588
         4        4539        4540        4591        4590
         4        4540        4541        4592        4591
         4        4541        4542        4593        4592
         4        4542        4543        4594        4593
         4        4543        4544        4595        4594
         4        4544        4545        4596        4595
         4        4545        4546        4597        4596
         4        4546        4547        4598        4597
         4        4547        4548        4599        4598
         4        4548        4549        4600        4599
         4        4549        4550        4601        4600
         4        4550        4551        4602        4601
         4        4551        4552        4603        4602
         4        4552        4553        4604        4603
         4        4553        4554        4605        4604
         4        4554        4555        4606        4605
         4        4555        4556        4607        4606
         4        4556        4557        4608        4607
         4        4557        4558        4609        4608
         4        4558        4559        4610        4609
         4        4559        4560        4611        4610
         4        4560        4561        4612        4611
         4        4561        4562        4613        4612
         4        4562        4563        4614        4613
         4        4563        4564        4615        4614
         4        4564        4565        4616        4615
         4        4565        4566        4617        4616
         4        4566        4567        4618        4617
         4        4567        4568        4619        4618
         4        4568        4569        4620        4619
         4        4569        4570        4621        4620
         4        4570        4571        4622        4621
         4        4571        4572        4623        4622
         4        4572        4573        4624        4623
         4        4573        4574        4625        4624
         4        4574        4575        4626        4625
         4        4575        4576        4627        4626
         4        4576        4577        4628        4627
         4        4577        4578        4629        4628
         4        4578        4579        4630        4629
         4        4579        4580        4631        4630
         4        4580        4581        4632        4631
         4        4581        4582        4633        4632
         4        4582        4583        4634        4633
         4        4583        4584        4635        4634
         4        4584        4585        4636        4635
         4        4585        4586        4637        4636
         4        4586        4587        4638        4637
         4        4587        4588        4639        4638
         4        4588        4589        4640        4639
         4        4590        4591        4642        4641
         4        4591        4592        4643        4642
         4        4592        4593        4644        4643
         4        4593        4594        4645        4644
         4        4594        4595        4646        4645
         4        4595        4596        4647        4646
         4        4596        4597        4648        4647
         4        4597        4598        4649        4648
         4        4598        4599        4650        4649
         4        4599        4600        4651        4650
         4        4600        4601        4652        4651
         4        4601        4602        4653        4652
         4        4602        4603        4654        4653
         4        4603        4604        4655        4654
         4        4604        4605        4656        4655
         4        4605        4606        4657        4656
         4        4606        4607        4658        4657
         4        4607        4608        4659        4658
         4        4608        4609        4660        4659
         4        4609        4610        4661        4660
         4        4610        4611        4662        4661
         4        4611        4612        4663        4662
         4        4612        4613        4664        4663
         4        4613        4614        4665        4664
         4        4614        4615        4666        4665
         4        4615        4616        4667        4666
         4        4616        4617        4668        4667
         4        4617        4618        4669        4668
         4        4618        4619        4670        4669
         4        4619        4620        4671        4670
         4        4620        4621        4672        4671
         4        4621        4622        4673        4672
         4        4622        4623        4674        4673
         4        4623        4624        4675        4674
         4        4624        4625        4676        4675
         4        4625        4626        4677        4676
         4        4626        4627        4678        4677
         4        4627        4628        4679        4678
         4        4628        4629        4680        4679
         4        4629        4630        4681        4680
         4        4630        4631        4682        4681
         4        4631        4632        4683        4682
         4        4632        4633        4684        4683
         4        4633        4634        4685        4684
         4        4634        4635        4686        4685
         4        4635        4636        4687        4686
         4        4636        4637        4688        4687
         4        4637        4638        4689        4688
         4        4638        4639        4690        4689
         4        4639        4640        4691        4690
         4        4641        4642        4693        4692
         4        4642        4643        4694        4693
         4        4643        4644        4695        4694
         4        4644        4645        4696        4695
         4        4645        4646        4697        4696
         4        4646        4647        4698        4697
         4        4647        4648        4699        4698
         4        4648        4649        4700        4699
         4        4649        4650        4701        4700
         4        4650        4651        4702        4701
         4        4651        4652        4703        4702
         4        4652        4653        4704        4703
         4        4653        4654        4705        4704
         4        4654        4655        4706        4705
         4        4655        4656        4707        4706
         4        4656        4657        4708        4707
         4        4657        4658        4709        4708
         4        4658        4659        4710        4709
         4        4659        4660        4711        4710
         4        4660        4661        4712        4711
         4        4661        4662        4713        4712
         4        4662        4663        4714        4713
         4        4663        4664        4715        4714
         4        4664        4665        4716        4715
         4        4665        4666        4717        4716
         4        4666        4667        4718        4717
         4        4667        4668        4719        4718
         4        4668        4669        4720        4719
         4        4669        4670        4721        4720
         4        4670        4671        4722        4721
         4        4671        4672        4723        4722
         4        4672        4673        4724        4723
         4        4673        4674        4725        4724
         4        4674        4675        4726        4725
         4        4675        4676        4727        4726
         4        4676        4677        4728        4727
         4        4677        4678        4729        4728
         4        4678        4679        4730        4729
         4        4679        4680        4731        4730
         4        4680        4681        4732        4731
         4        4681        4682        4733        4732
         4        4682        4683        4734        4733
         4        4683        4684        4735        4734
         4        4684        4685        4736        4735
         4        4685        4686        4737        4736
         4        4686        4687        4738        4737
         4        4687        4688        4739        4738
         4        4688        4689        4740        4739
         4        4689        4690        4741        4740
         4        4690        4691        4742        4741
         4        4692        4693        4744        4743
         4        4693        4694        4745        4744
         4        4694        4695        4746        4745
         4        4695        4696        4747        4746
         4        4696        4697        4748        4747
         4        4697        4698        4749        4748
         4        4698        4699        4750        4749
         4        4699        4700        4751        4750
         4        4700        4701        4752        4751
         4        4701        4702        4753        4752
         4        4702        4703        4754        4753
         4        4703        4704        4755        4754
         4        4704        4705        4756        4755
         4        4705        4706        4757        4756
         4        4706        4707        4758        4757
         4        4707        4708        4759        4758
         4        4708        4709        4760        4759
         4        4709        4710        4761        4760
         4        4710        4711        4762        4761
         4        4711        4712        4763        4762
         4        4712        4713        4764        4763
         4        4713        4714        4765        4764
         4        4714        4715        4766        4765
         4        4715        4716        4767        4766
         4        4716        4717        4768        4767
         4        4717        4718        4769        4768
         4        4718        4719        4770        4769
         4        4719        4720        4771        4770
         4        4720        4721        4772        4771
         4        4721        4722        4773        4772
         4        4722        4723        4774        4773
         4        4723        4724        4775        4774
         4        4724        4725        4776        4775
         4        4725        4726        4777        4776
         4        4726        4727        4778        4777
         4        4727        4728        4779        4778
         4        4728        4729        4780        4779
         4        4729        4730        4781        4780
         4        4730        4731        4782        4781
         4        4731        4732        4783        4782
         4        4732        4733        4784        4783
         4        4733        4734        4785        4784
         4        4734        4735        4786        4785
         4        4735        4736        4787        4786
         4        4736        4737        4788        4787
         4        4737        4738        4789        4788
         4        4738        4739        4790        4789
         4        4739        4740        4791        4790
         4        4740        4741        4792        4791
         4        4741        4742        4793        4792
         4        4743        4744        4795        4794
         4        4744        4745        4796        4795
         4        4745        4746        4797        4796
         4        4746        4747        4798        4797
         4        4747        4748        4799        4798
         4        4748        4749        4800        4799
         4        4749        4750        4801        4800
         4        4750        4751        4802        4801
         4        4751        4752        4803        4802
         4        4752        4753        4804        4803
         4        4753        4754        4805        4804
         4        4754        4755        4806        4805
         4        4755        4756        4807        4806
         4        4756        4757        4808        4807
         4        4757        4758        4809        4808
         4        4758        4759        4810        4809
         4        4759        4760        4811        4810
         4        4760        4761        4812        4811
         4        4761        4762        4813        4812
         4        4762        4763        4814        4813
         4        4763        4764        4815        4814
         4        4764        4765        4816        4815
         4        4765        4766        4817        4816
         4        4766        4767        4818        4817
         4        4767        4768        4819        4818
         4        4768        4769        4820        4819
         4        4769        4770        4821        4820
         4        4770        4771        4822        4821
         4        4771        4772        4823        4822
         4        4772        4773        4824        4823
         4        4773        4774        4825        4824
         4        4774        4775        4826        4825
         4        4775        4776        4827        4826
         4        4776        4777        4828        4827
         4        4777        4778        4829        4828
         4        4778        4779        4830        4829
         4        4779        4780        4831        4830
         4        4780        4781        4832        4831
         4        4781        4782        4833        4832
         4        4782        4783        4834        4833
         4        4783        4784        4835        4834
         4        4784        4785        4836        4835
         4        4785        4786        4837        4836
         4        4786        4787        4838        4837
         4        4787        4788        4839        4838
         4        4788        4789        4840        4839
         4        4789        4790        4841        4840
         4        4790        4791        4842        4841
         4        4791        4792        4843        4842
         4        4792        4793        4844        4843
         4        4794        4795        4846        4845
         4        4795        4796        4847        4846
         4        4796        4797        4848        4847
         4        4797        4798        4849        4848
         4        4798        4799        4850        4849
         4        4799        4800        4851        4850
         4        4800        4801        4852        4851
         4        4801        4802        4853        4852
         4        4802        4803        4854        4853
         4        4803        4804        4855        4854
         4        4804        4805        4856        4855
         4        4805        4806        4857        4856
         4        4806        4807        4858        4857
         4        4807        4808        4859        4858
         4        4808        4809        4860        4859
         4        4809        4810        4861        4860
         4        4810        4811        4862        4861
         4        4811        4812        4863        4862
         4        4812        4813        4864        4863
         4        4813        4814        4865        4864
         4        4814        4815        4866        4865
         4        4815        4816        4867        4866
         4        4816        4817        4868        4867
         4        4817        4818        4869        4868
         4        4818        4819        4870        4869
         4        4819        4820        4871        4870
         4        4820        4821        4872        4871
         4        4821        4822        4873        4872
         4        4822        4823        4874        4873
         4        4823        4824        4875        4874
         4        4824        4825        4876        4875
         4        4825        4826        4877        4876
         4        4826        4827        4878        4877
         4        4827        4828        4879        4878
         4        4828        4829        4880        4879
         4        4829        4830        4881        4880
         4        4830        4831        4882        4881
         4        4831        4832        4883        4882
         4        4832        4833        4884        4883
         4        4833        4834        4885        4884
         4        4834        4835        4886        4885
         4        4835        4836        4887        4886
         4        4836        4837        4888        4887
         4        4837        4838        4889        4888
         4        4838        4839        4890        4889
         4        4839        4840        4891        4890
         4        4840        4841        4892        4891
         4        4841        4842        4893        4892
         4        4842        4843        4894        4893
         4        4843        4844        4895        4894
         4        4845        4846        4897        4896
         4        4846        4847        4898        4897
         4        4847        4848        4899        4898
         4        4848        4849        4900        4899
         4        4849        4850        4901        4900
         4        4850        4851        4902        4901
         4        4851        4852        4903        4902
         4        4852        4853        4904        4903
         4        4853        4854        4905        4904
         4        4854        4855        4906        4905
         4        4855        4856        4907        4906
         4        4856        4857        4908        4907
         4        4857        4858        4909        4908
         4        4858        4859        4910        4909
         4        4859        4860        4911        4910
         4        4860        4861        4912        4911
         4        4861        4862        4913        4912
         4        4862        4863        4914        4913
         4        4863        4864        4915        4914
         4        4864        4865        4916        4915
         4        4865        4866        4917        4916
         4        4866        4867        4918        4917
         4        4867        4868        4919        4918
         4        4868        4869        4920        4919
         4        4869        4870        4921        4920
         4        4870        4871        4922        4921
         4        4871        4872        4923        4922
         4        4872        4873        4924        4923
         4        4873        4874        4925        4924
         4        4874        4875        4926        4925
         4        4875        4876        4927        4926
         4        4876        4877        4928        4927
         4        4877        4878        4929        4928
         4        4878        4879        4930        4929
         4        4879        4880        4931        4930
         4        4880        4881        4932        4931
         4        4881        4882        4933        4932
         4        4882        4883        4934        4933
         4        4883        4884        4935        4934
         4        4884        4885        4936        4935
         4        4885        4886        4937        4936
         4        4886        4887        4938        4937
         4        4887        4888        4939        4938
         4        4888        4889        4940        4939
         4        4889        4890        4941        4940
         4        4890        4891        4942        4941
         4        4891        4892        4943        4942
         4        4892        4893        4944        4943
         4        4893        4894        4945        4944
         4        4894        4895        4946        4945
         4        4896        4897        4948        4947
         4        4897        4898        4949        4948
         4        4898        4899        4950        4949
         4        4899        4900        4951        4950
         4        4900        4901        4952        4951
         4        4901        4902        4953        4952
         4        4902        4903        4954        4953
         4        4903        4904        4955        4954
         4        4904        4905        4956        4955
         4        4905        4906        4957        4956
         4        4906        4907        4958        4957
         4        4907        4908        4959        4958
         4        4908        4909        4960        4959
         4        4909        4910        4961        4960
         4        4910        4911        4962        4961
         4        4911        4912        4963        4962
         4        4912        4913        4964        4963
         4        4913        4914        4965        4964
         4        4914        4915        4966        4965
         4        4915        4916        4967        4966
         4        4916        4917        4968        4967
         4        4917        4918        4969        4968
         4        4918        4919        4970        4969
         4        4919        4920        4971        4970
         4        4920        4921        4972        4971
         4        4921        4922        4973        4972
         4        4922        4923        4974        4973
         4        4923        4924        4975        4974
         4        4924        4925        4976        4975
         4        4925        4926        4977        4976
         4        4926        4927        4978        4977
         4        4927        4928        4979        4978
         4        4928        4929        4980        4979
         4        4929        4930        4981        4980
         4        4930        4931        4982        4981
         4        4931        4932        4983        4982
         4        4932        4933        4984        4983
         4        4933        4934        4985        4984
         4        4934        4935        4986        4985
         4        4935        4936        4987        4986
         4        4936        4937        4988        4987
         4        4937        4938        4989        4988
         4        4938        4939        4990        4989
         4        4939        4940        4991        4990
         4        4940        4941        4992        4991
         4        4941        4942        4993        4992
         4        4942        4943        4994        4993
         4        4943        4944        4995        4994
         4        4944        4945        4996        4995
         4        4945        4946        4997        4996
         4        4947        4948        4999        4998
         4        4948        4949        5000        4999
         4        4949        4950        5001        5000
         4        4950        4951        5002        5001
         4        4951        4952        5003        5002
         4        4952        4953        5004        5003
         4        4953        4954        5005        5004
         4        4954        4955        5006        5005
         4        4955        4956        5007        5006
         4        4956        4957        5008        5007
         4        4957        4958        5009        5008
         4        4958        4959        5010        5009
         4        4959        4960        5011        5010
         4        4960        4961        5012        5011
         4        4961        4962        5013        5012
         4        4962        4963        5014        5013
         4        4963        4964        5015        5014
         4        4964        4965        5016        5015
         4        4965        4966        5017        5016
         4        4966        4967        5018        5017
         4        4967        4968        5019        5018
         4        4968        4969        5020        5019
         4        4969        4970        5021        5020
         4        4970        4971        5022        5021
         4        4971        4972        5023        5022
         4        4972        4973        5024        5023
         4        4973        4974        5025        5024
         4        4974        4975        5026        5025
         4        4975        4976        5027        5026
         4        4976        4977        5028        5027
         4        4977        4978        5029        5028
         4        4978        4979        5030        5029
         4        4979        4980        5031        5030
         4        4980        4981        5032        5031
         4        4981        4982        5033        5032
         4        4982        4983        5034        5033
         4        4983        4984        5035        5034
         4        4984        4985        5036        5035
         4        4985        4986        5037        5036
         4        4986        4987        5038        5037
         4        4987        4988        5039        5038
         4        4988        4989        5040        5039
         4        4989        4990        5041        5040
         4        4990        4991        5042        5041
         4        4991        4992        5043        5042
         4        4992        4993        5044        5043
         4        4993        4994        5045        5044
         4        4994        4995        5046        5045
         4        4995        4996        5047        5046
         4        4996        4997        5048        5047
         4        4998        4999        5050        5049
         4        4999        5000        5051        5050
         4        5000        5001        5052        5051
         4        5001        5002        5053        5052
         4        5002        5003        5054        5053
         4        5003        5004        5055        5054
         4        5004        5005        5056        5055
         4        5005        5006        5057        5056
         4        5006        5007        5058        5057
         4        5007        5008        5059        5058
         4        5008        5009        5060        5059
         4        5009        5010        5061        5060
         4        5010        5011        5062        5061
         4        5011        5012        5063        5062
         4        5012        5013        5064        5063
         4        5013        5014        5065        5064
         4        5014        5015        5066        5065
         4        5015        5016        5067        5066
         4        5016        5017        5068        5067
         4        5017        5018        5069        5068
         4        5018        5019        5070        5069
         4        5019        5020        5071        5070
         4        5020        5021        5072        5071
         4        5021        5022        5073        5072
         4        5022        5023        5074        5073
         4        5023        5024        5075        5074
         4        5024        5025        5076        5075
         4        5025        5026        5077        5076
         4        5026        5027        5078        5077
         4        5027        5028        5079        5078
         4        5028        5029        5080        5079
         4        5029        5030        5081        5080
         4        5030        5031        5082        5081
         4        5031        5032        5083        5082
         4        5032        5033        5084        5083
         4        5033        5034        5085        5084
         4        5034        5035        5086        5085
         4        5035        5036        5087        5086
         4        5036        5037        5088        5087
         4        5037        5038        5089        5088
         4        5038        5039        5090        5089
         4        5039        5040        5091        5090
         4        5040        5041        5092        5091
         4        5041        5042        5093        5092
         4        5042        5043        5094        5093
         4        5043        5044        5095        5094
         4        5044        5045        5096        5095
         4        5045        5046        5097        5096
         4        5046        5047        5098        5097
         4        5047        5048        5099        5098
         4        5049        5050        5101        5100
         4        5050        5051        5102        5101
         4        5051        5052        5103        5102
         4        5052        5053        5104        5103
         4        5053        5054        5105        5104
         4        5054        5055        5106        5105
         4        5055        5056        5107        5106
         4        5056        5057        5108        5107
         4        5057        5058        5109        5108
         4        5058        5059        5110        5109
         4        5059        5060        5111        5110
         4        5060        5061        5112        5111
         4        5061        5062        5113        5112
         4        5062        5063        5114        5113
         4        5063        5064        5115        5114
         4        5064        5065        5116        5115
         4        5065        5066        5117        5116
         4        5066        5067        5118        5117
         4        5067        5068        5119        5118
         4        5068        5069        5120        5119
         4        5069        5070        5121        5120
         4        5070        5071        5122        5121
         4        5071        5072        5123        5122
         4        5072        5073        5124        5123
         4        5073        5074        5125        5124
         4        5074        5075        5126        5125
         4        5075        5076        5127        5126
         4        5076        5077        5128        5127
         4        5077        5078        5129        5128
         4        5078        5079        5130        5129
         4        5079        5080        5131        5130
         4        5080        5081        5132        5131
         4        5081        5082        5133        5132
         4        5082        5083        5134        5133
         4        5083        5084        5135        5134
         4        5084        5085        5136        5135
         4        5085        5086        5137        5136
         4        5086        5087        5138        5137
         4        5087        5088        5139        5138
         4        5088        5089        5140        5139
         4        5089        5090        5141        5140
         4        5090        5091        5142        5141
         4        5091        5092        5143        5142
         4        5092        5093        5144        5143
         4        5093        5094        5145        5144
         4        5094        5095        5146        5145
         4        5095        5096        5147        5146
         4        5096        5097        5148        5147
         4        5097        5098        5149        5148
         4        5098        5099        5150        5149
CELL_TYPES       5000
9
9
9
9
9
9
9
9
9
9
9
9
9
9
9
9
9
9
9
9
9
9
9
9
9
9
9
9
9
9
9
9
9
9
9
9
9
9
9
9
9
9
9
9
9
9
9
9
9
9
9
9
9
9
9
9
9
9
9
9
9
9
9
9
9
9
9
9
9
9
9
9
9
9
9
9
9
9
9
9
9
9
9
9
9
9
9
9
9
9
9
9
9
9
9
9
9
9
9
9
9
9
9
9
9
9
9
9
9
9
9
9
9
9
9
9
9
9
9
9
9
9
9
9
9
9
9
9
9
9
9
9
9
9
9
9
9
9
9
9
9
9
9
9
9
9
9
9
9
9
9
9
9
9
9
9
9
9
9
9
9
9
9
9
9
9
9
9
9
9
9
9
9
9
9
9
9
9
9
9
9
9
9
9
9
9
9
9
9
9
9
9
9
9
9
9
9
9
9
9
9
9
9
9
9
9
9
9
9
9
9
9
9
9
9
9
9
9
9
9
9
9
9
9
9
9
9
9
9
9
9
9
9
9
9
9
9
9
9
9
9
9
9
9
9
9
9
9
9
9
9
9
9
9
9
9
9
9
9
9
9
9
9
9
9
9
9
9
9
9
9
9
9
9
9
9
9
9
9
9
9
9
9
9
9
9
9
9
9
9
9
9
9
9
9
9
9
9
9
9
9
9
9
9
9
9
9
9
9
9
9
9
9
9
9
9
9
9
9
9
9
9
9
9
9
9
9
9
9
9
9
9
9
9
9
9
9
9
9
9
9
9
9
9
9
9
9
9
9
9
9
9
9
9
9
9
9
9
9
9
9
9
9
9
9
9
9
9
9
9
9
9
9
9
9
9
9
9
9
9
9
9
9
9
9
9
9
9
9
9
9
9
9
9
9
9
9
9
9
9
9
9
9
9
9
9
9
9
9
9
9
9
9
9
9
9
9
9
9
9
9
9
9
9
9
9
9
9
9
9
9
9
9
9
9
9
9
9
9
9
9
9
9
9
9
9
9
9
9
9
9
9
9
9
9
9
9
9
9
9
9
9
9
9
9
9
9
9
9
9
9
9
9
9
9
9
9
9
9
9
9
9
9
9
9
9
9
9
9
9
9
9
9
9
9
9
9
9
9
9
9
9
9
9
9
9
9
9
9
9
9
9
9
9
9
9
9
9
9
9
9
9
9
9
9
9
9
9
9
9
9
9
9
9
9
9
9
9
9
9
9
9
9
9
9
9
9
9
9
9
9
9
9
9
9
9
9
9
9
9
9
9
9
9
9
9
9
9
9
9
9
9
9
9
9
9
9
9
9
9
9
9
9
9
9
9
9
9
9
9
9
9
9
9
9
9
9
9
9
9
9
9
9
9
9
9
9
9
9
9
9
9
9
9
9
9
9
9
9
9
9
9
9
9
9
9
9
9
9
9
9
9
9
9
9
9
9
9
9
9
9
9
9
9
9
9
9
9
9
9
9
9
9
9
9
9
9
9
9
9
9
9
9
9
9
9
9
9
9
9
9
9
9
9
9
9
9
9
9
9
9
9
9
9
9
9
9
9
9
9
9
9
9
9
9
9
9
9
9
9
9
9
9
9
9
9
9
9
9
9
9
9
9
9
9
9
9
9
9
9
9
9
9
9
9
9
9
9
9
9
9
9
9
9
9
9
9
9
9
9
9
9
9
9
9
9
9
9
9
9
9
9
9
9
9
9
9
9
9
9
9
9
9
9
9
9
9
9
9
9
9
9
9
9
9
9
9
9
9
9
9
9
9
9
9
9
9
9
9
9
9
9
9
9
9
9
9
9
9
9
9
9
9
9
9
9
9
9
9
9
9
9
9
9
9
9
9
9
9
9
9
9
9
9
9
9
9
9
9
9
9
9
9
9
9
9
9
9
9
9
9
9
9
9
9
9
9
9
9
9
9
9
9
9
9
9
9
9
9
9
9
9
9
9
9
9
9
9
9
9
9
9
9
9
9
9
9
9
9
9
9
9
9
9
9
9
9
9
9
9
9
9
9
9
9
9
9
9
9
9
9
9
9
9
9
9
9
9
9
9
9
9
9
9
9
9
9
9
9
9
9
9
9
9
9
9
9
9
9
9
9
9
9
9
9
9
9
9
9
9
9
9
9
9
9
9
9
9
9
9
9
9
9
9
9
9
9
9
9
9
9
9
9
9
9
9
9
9
9
9
9
9
9
9
9
9
9
9
9
9
9
9
9
9
9
9
9
9
9
9
9
9
9
9
9
9
9
9
9
9
9
9
9
9
9
9
9
9
9
9
9
9
9
9
9
9
9
9
9
9
9
9
9
9
9
9
9
9
9
9
9
9
9
9
9
9
9
9
9
9
9
9
9
9
9
9
9
9
9
9
9
9
9
9
9
9
9
9
9
9
9
9
9
9
9
9
9
9
9
9
9
9
9
9
9
9
9
9
9
9
9
9
9
9
9
9
9
9
9
9
9
9
9
9
9
9
9
9
9
9
9
9
9
9
9
9
9
9
9
9
9
9
9
9
9
9
9
9
9
9
9
9
9
9
9
9
9
9
9
9
9
9
9
9
9
9
9
9
9
9
9
9
9
9
9
9
9
9
9
9
9
9
9
9
9
9
9
9
9
9
9
9
9
9
9
9
9
9
9
9
9
9
9
9
9
9
9
9
9
9
9
9
9
9
9
9
9
9
9
9
9
9
9
9
9
9
9
9
9
9
9
9
9
9
9
9
9
9
9
9
9
9
9
9
9
9
9
9
9
9
9
9
9
9
9
9
9
9
9
9
9
9
9
9
9
9
9
9
9
9
9
9
9
9
9
9
9
9
9
9
9
9
9
9
9
9
9
9
9
9
9
9
9
9
9
9
9
9
9
9
9
9
9
9
9
9
9
9
9
9
9
9
9
9
9
9
9
9
9
9
9
9
9
9
9
9
9
9
9
9
9
9
9
9
9
9
9
9
9
9
9
9
9
9
9
9
9
9
9
9
9
9
9
9
9
9
9
9
9
9
9
9
9
9
9
9
9
9
9
9
9
9
9
9
9
9
9
9
9
9
9
9
9
9
9
9
9
9
9
9
9
9
9
9
9
9
9
9
9
9
9
9
9
9
9
9
9
9
9
9
9
9
9
9
9
9
9
9
9
9
9
9
9
9
9
9
9
9
9
9
9
9
9
9
9
9
9
9
9
9
9
9
9
9
9
9
9
9
9
9
9
9
9
9
9
9
9
9
9
9
9
9
9
9
9
9
9
9
9
9
9
9
9
9
9
9
9
9
9
9
9
9
9
9
9
9
9
9
9
9
9
9
9
9
9
9
9
9
9
9
9
9
9
9
9
9
9
9
9
9
9
9
9
9
9
9
9
9
9
9
9
9
9
9
9
9
9
9
9
9
9
9
9
9
9
9
9
9
9
9
9
9
9
9
9
9
9
9
9
9
9
9
9
9
9
9
9
9
9
9
9
9
9
9
9
9
9
9
9
9
9
9
9
9
9
9
9
9
9
9
9
9
9
9
9
9
9
9
9
9
9
9
9
9
9
9
9
9
9
9
9
9
9
9
9
9
9
9
9
9
9
9
9
9
9
9
9
9
9
9
9
9
9
9
9
9
9
9
9
9
9
9
9
9
9
9
9
9
9
9
9
9
9
9
9
9
9
9
9
9
9
9
9
9
9
9
9
9
9
9
9
9
9
9
9
9
9
9
9
9
9
9
9
9
9
9
9
9
9
9
9
9
9
9
9
9
9
9
9
9
9
9
9
9
9
9
9
9
9
9
9
9
9
9
9
9
9
9
9
9
9
9
9
9
9
9
9
9
9
9
9
9
9
9
9
9
9
9
9
9
9
9
9
9
9
9
9
9
9
9
9
9
9
9
9
9
9
9
9
9
9
9
9
9
9
9
9
9
9
9
9
9
9
9
9
9
9
9
9
9
9
9
9
9
9
9
9
9
9
9
9
9
9
9
9
9
9
9
9
9
9
9
9
9
9
9
9
9
9
9
9
9
9
9
9
9
9
9
9
9
9
9
9
9
9
9
9
9
9
9
9
9
9
9
9
9
9
9
9
9
9
9
9
9
9
9
9
9
9
9
9
9
9
9
9
9
9
9
9
9
9
9
9
9
9
9
9
9
9
9
9
9
9
9
9
9
9
9
9
9
9
9
9
9
9
9
9
9
9
9
9
9
9
9
9
9
9
9
9
9
9
9
9
9
9
9
9
9
9
9
9
9
9
9
9
9
9
9
9
9
9
9
9
9
9
9
9
9
9
9
9
9
9
9
9
9
9
9
9
9
9
9
9
9
9
9
9
9
9
9
9
9
9
9
9
9
9
9
9
9
9
9
9
9
9
9
9
9
9
9
9
9
9
9
9
9
9
9
9
9
9
9
9
9
9
9
9
9
9
9
9
9
9
9
9
9
9
9
9
9
9
9
9
9
9
9
9
9
9
9
9
9
9
9
9
9
9
9
9
9
9
9
9
9
9
9
9
9
9
9
9
9
9
9
9
9
9
9
9
9
9
9
9
9
9
9
9
9
9
9
9
9
9
9
9
9
9
9
9
9
9
9
9
9
9
9
9
9
9
9
9
9
9
9
9
9
9
9
9
9
9
9
9
9
9
9
9
9
9
9
9
9
9
9
9
9
9
9
9
9
9
9
9
9
9
9
9
9
9
9
9
9
9
9
9
9
9
9
9
9
9
9
9
9
9
9
9
9
9
9
9
9
9
9
9
9
9
9
9
9
9
9
9
9
9
9
9
9
9
9
9
9
9
9
9
9
9
9
9
9
9
9
9
9
9
9
9
9
9
9
9
9
9
9
9
9
9
9
9
9
9
9
9
9
9
9
9
9
9
9
9
9
9
9
9
9
9
9
9
9
9
9
9
9
9
9
9
9
9
9
9
9
9
9
9
9
9
9
9
9
9
9
9
9
9
9
9
9
9
9
9
9
9
9
9
9
9
9
9
9
9
9
9
9
9
9
9
9
9
9
9
9
9
9
9
9
9
9
9
9
9
9
9
9
9
9
9
9
9
9
9
9
9
9
9
9
9
9
9
9
9
9
9
9
9
9
9
9
9
9
9
9
9
9
9
9
9
9
9
9
9
9
9
9
9
9
9
9
9
9
9
9
9
9
9
9
9
9
9
9
9
9
9
9
9
9
9
9
9
9
9
9
9
9
9
9
9
9
9
9
9
9
9
9
9
9
9
9
9
9
9
9
9
9
9
9
9
9
9
9
9
9
9
9
9
9
9
9
9
9
9
9
9
9
9
9
9
9
9
9
9
9
9
9
9
9
9
9
9
9
9
9
9
9
9
9
9
9
9
9
9
9
9
9
9
9
9
9
9
9
9
9
9
9
9
9
9
9
9
9
9
9
9
9
9
9
9
9
9
9
9
9
9
9
9
9
9
9
9
9
9
9
9
9
9
9
9
9
9
9
9
9
9
9
9
9
9
9
9
9
9
9
9
9
9
9
9
9
9
9
9
9
9
9
9
9
9
9
9
9
9
9
9
9
9
9
9
9
9
9
9
9
9
9
9
9
9
9
9
9
9
9
9
9
9
9
9
9
9
9
9
9
9
9
9
9
9
9
9
9
9
9
9
9
9
9
9
9
9
9
9
9
9
9
9
9
9
9
9
9
9
9
9
9
9
9
9
9
9
9
9
9
9
9
9
9
9
9
9
9
9
9
9
9
9
9
9
9
9
9
9
9
9
9
9
9
9
9
9
9
9
9
9
9
9
9
9
9
9
9
9
9
9
9
9
9
9
9
9
9
9
9
9
9
9
9
9
9
9
9
9
9
9
9
9
9
9
9
9
9
9
9
9
9
9
9
9
9
9
9
9
9
9
9
9
9
9
9
9
9
9
9
9
9
9
9
9
9
9
9
9
9
9
9
9
9
9
9
9
9
9
9
9
9
9
9
9
9
9
9
9
9
9
9
9
9
9
9
9
9
9
9
9
9
9
9
9
9
9
9
9
9
9
9
9
9
9
9
9
9
9
9
9
9
9
9
9
9
9
9
9
9
9
9
9
9
9
9
9
9
9
9
9
9
9
9
9
9
9
9
9
9
9
9
9
9
9
9
9
9
9
9
9
9
9
9
9
9
9
9
9
9
9
9
9
9
9
9
9
9
9
9
9
9
9
9
9
9
9
9
9
9
9
9
9
9
9
9
9
9
9
9
9
9
9
9
9
9
9
9
9
9
9
9
9
9
9
9
9
9
9
9
9
9
9
9
9
9
9
9
9
9
9
9
9
9
9
9
9
9
9
9
9
9
9
9
9
9
9
9
9
9
9
9
9
9
9
9
9
9
9
9
9
9
9
9
9
9
9
9
9
9
9
9
9
9
9
9
9
9
9
9
9
9
9
9
9
9
9
9
9
9
9
9
9
9
9
9
9
9
9
9
9
9
9
9
9
9
9
9
9
9
9
9
9
9
9
9
9
9
9
9
9
9
9
9
9
9
9
9
9
9
9
9
9
9
9
9
9
9
9
9
9
9
9
9
9
9
9
9
9
9
9
9
9
9
9
9
9
9
9
9
9
9
9
9
9
9
9
9
9
9
9
9
9
9
9
9
9
9
9
9
9
9
9
9
9
9
9
9
9
9
9
9
9
9
9
9
9
9
9
9
9
9
9
9
9
9
9
9
9
9
9
9
9
9
9
9
9
9
9
9
9
9
9
9
9
9
9
9
9
9
9
9
9
9
9
9
9
9
9
9
9
9
9
9
9
9
9
9
9
9
9
9
9
9
9
9
9
9
9
9
9
9
9
9
9
9
9
9
9
9
9
9
9
9
9
9
9
9
9
9
9
9
9
9
9
9
9
9
9
9
9
9
9
9
9
9
9
9
9
9
9
9
9
9
9
9
9
9
9
9
9
9
9
9
9
9
9
9
9
9
9
9
9
9
9
9
9
9
9
9
9
9
9
9
9
9
9
9
9
9
9
9
9
9
9
9
9
9
9
9
9
9
9
9
9
9
9
9
9
9
9
9
9
9
9
9
9
9
9
9
9
9
9
9
9
9
9
9
9
9
9
9
9
9
9
9
9
9
9
9
9
9
9
9
9
9
9
9
9
9
9
9
9
9
9
9
9
9
9
9
9
9
9
9
9
9
9
9
9
9
9
9
9
9
9
9
9
9
9
9
9
9
9
9
9
9
9
9
9
9
9
9
9
9
9
9
9
9
9
9
9
9
9
9
9
9
9
9
9
9
9
9
9
9
9
9
9
9
9
9
9
9
9
9
9
9
9
9
9
9
9
9
9
9
9
9
9
9
9
9
9
9
9
9
9
9
9
9
9
9
9
9
9
9
9
9
9
9
9
9
9
9
9
9
9
9
9
9
9
9
9
9
9
9
9
9
9
9
9
9
9
9
9
9
9
9
9
9
9
9
9
9
9
9
9
9
9
9
9
9
9
9
9
9
9
9
9
9
9
9
9
9
9
9
9
9
9
9
9
9
9
9
9
9
9
9
9
9
9
9
9
9
9
9
9
9
9
9
9
9
9
9
9
9
9
9
9
9
9
9
9
9
9
9
9
9
9
9
9
9
9
9
9
9
9
9
9
9
9
9
9
9
9
9
9
9
9
9
9
9
9
9
9
9
9
9
9
9
9
9
9
9
9
9
9
9
9
9
9
9
9
9
9
9
9
9
9
9
9
9
9
9
9
9
9
9
9
9
9
9
9
9
9
9
9
9
9
9
9
9
9
9
9
9
9
9
9
9
9
9
9
9
9
9
9
9
9
9
9
9
9
9
9
9
9
9
9
9
9
9
9
9
9
9
9
9
9
9
9
9
9
9
9
9
9
9
9
9
9
9
9
9
9
9
9
9
9
9
9
9
9
9
9
9
9
9
9
9
9
9
9
9
9
9
9
9
9
9
9
9
9
9
9
9
9
9
9
9
9
9
9
9
9
9
9
9
9
9
9
9
9
9
9
9
9
9
9
9
9
9
9
9
9
9
9
9
9
9
9
9
9
9
9
9
9
9
9
9
9
9
9
9
9
9
9
9
9
9
9
9
9
9
9
9
9
9
9
9
9
9
9
9
9
9
9
9
9
9
9
9
9
9
9
9
9
9
9
9
9
9
9
9
9
9
9
9
9
9
9
9
9
9
9
9
9
9
9
9
9
9
9
9
9
9
9
9
9
9
9
9
9
9
9
9
9
9
9
9
9
9
9
9
9
9
9
9
9
9
9
9
9
9
9
9
9
9
9
9
9
9
9
9
9
9
9
9
9
9
9
9
9
9
9
9
9
9
9
9
9
9
9
9
9
9
9
9
9
9
9
9
9
9
9
9
9
9
9
9
9
9
9
9
9
9
9
9
9
9
9
9
9
9
9
9
9
9
9
9
9
9
9
9
9
9
9
9
9
9
9
9
9
9
9
9
9
9
9
9
9
9
9
9
9
9
9
9
9
9
9
9
9
9
9
9
9
9
9
9
9
9
9
9
9
9
9
9
9
9
9
9
9
9
9
9
9
9
9
9
9
9
9
9
9
9
9
9
9
9
9
9
9
9
9
9
9
9
9
9
9
9
9
9
9
9
9
9
9
9
9
9
9
9
9
9
9
9
9
9
9
9
9
9
9
9
9
9
9
9
9
9
9
9
9
9
9
9
9
9
9
9
9
9
9
9
9
9
9
9
9
9
9
9
9
9
9
9
9
9
9
9
9
9
9
9
9
9
9
9
9
9
9
9
9
9
9
9
9
9
9
9
9
9
9
9
9
9
9
9
9
9
9
9
9
9
9
9
9
9
9
9
9
9
9
9
9
9
9
9
9
9
9
9
9
9
9
9
9
9
9
9
9
9
9
9
9
9
9
9
9
9
9
9
9
9
9
9
9
9
9
9
9
9
9
9
9
9
9
9
9
9
9
9
9
9
9
9
9
9
9
9
9
9
9
9
9
9
9
9
9
9
9
9
9
9
9
9
9
9
9
9
9
9
9
9
9
9
9
9
9
9
9
9
9
9
9
9
9
9
9
9
9
9
9
9
9
9
9
9
9
9
9
9
9
9
9
9
9
9
9
9
9
9
9
9
9
9
9
9
9
9
9
9
9
9
9
9
9
9
9
9
9
9
9
9
9
9
9
9
9
9
9
9
9
9
9
9
9
9
9
9
9
9
9
9
9
9
9
9
9
9
9
9
9
9
9
9
9
9
9
9
9
9
9
9
9
9
9
9
9
9
9
9
9
9
9
9
9
9
9
9
9
9
9
9
9
9
9
9
9
9
9
9
9
9
9
9
9
9
9
9
9
9
9
9
9
9
9
9
9
9
9
9
9
9
9
9
9
9
9
9
9
9
9
9
9
9
9
9
9
9
9
9
9
9
9
9
9
9
9
9
9
9
9
9
9
9
9
9
9
9
9
9
9
9
9
9
9
9
9
9
9
9
9
9
9
9
9
9
9
9
9
9
9
9
9
9
9
9
9
9
9
9
9
9
9
9
9
9
9
9
9
9
9
9
9
9
9
9
9
9
9
9
9
9
9
9
9
9
9
9
9
9
9
9
9
9
9
9
9
9
9
9
9
9
9
9
9
9
9
9
9
9
9
9
9
9
9
9
9
9
9
9
9
9
9
9
9
9
9
9
9
9
9
9
9
9
9
9
9
9
9
9
9
9
9
9
9
9
9
9
9
9
9
9
9
9
9
9
9
9
9
9
9
9
9
9
9
9
9
9
9
9
9
9
9
9
9
9
9
9
9
9
9
9
9
9
9
9
9
9
9
9
9
9
9
9
9
9
9
9
9
9
9
9
9
9
9
9
9
9
9
9
9
9
9
9
9
9
9
9
9
9
9
9
9
9
9
9
9
9
9
9
9
9
9
9
9
9
9
9
9
9
9
9
9
9
9
9
9
9
9
9
9
9
9
9
9
9
9
9
9
9
9
9
9
9
9
9
9
9
9
9
9
9
9
9
9
9
9
9
9
9
9
9
9
9
9
9
9
9
9
9
9
9
9
9
9
9
9
9
9
9
9
9
9
9
9
9
9
9
9
9
9
9
9
9
9
9
9
9
9
9
9
9
9
9
9
9
9
9
9
9
9
9
9
9
9
9
9
9
9
9
9
9
9
9
9
9
9
9
9
9
9
9
9
9
9
9
9
9
9
9
9
9
9
9
9
9
9
9
9
9
9
9
9
9
9
9
9
9
9
9
9
9
9
9
9
9
9
9
9
9
9
9
9
9
9
9
9
9
9
9
9
9
9
9
9
9
9
9
9
9
9
9
9
9
9
9
9
9
9
9
9
9
9
9
9
9
9
9
9
9
9
9
9
9
9
9
9
9
9
9
9
9
9
9
9
9
9
9
9
9
9
9
9
9
9
9
9
9
9
9
9
9
9
9
9
9
9
9
9
9
9
9
9
9
9
9
9
9
9
9
9
9
9
9
9
9
9
9
9
9
9
9
9
9
9
9
9
9
9
9
9
9
9
9
9
9
9
9
9
9
9
9
9
9
9
9
9
9
9
9
9
9
9
9
9
9
9
9
9
9
9
9
9
9
9
9
9
9
9
9
9
9
9
9
9
9
9
9
9
9
9
9
9
9
9
9
9
9
9
9
9
9
9
9
9
9
9
9
9
9
9
9
9
9
9
9
9
9
9
9
9
9
9
9
9
9
9
9
9
9
9
9
9
9
9
9
9
9
9
9
9
9
9
9
9
9
9
9
9
9
9
9
9
9
9
9
9
9
9
9
9
9
9
9
9
9
9
9
9
9
9
9
9
9
9
9
9
9
9
9
9
9
9
9
9
9
9
9
9
9
9
9
9
9
9
9
9
9
9
9
9
9
9
9
9
9
9
9
9
9
9
9
9
9
9
9
9
9
9
9
9
9
9
9
9
9
9
9
9
9
9
9
9
9
9
9
9
9
9
9
9
9
9
9
9
9
9
9
9
9
9
9
9
9
9
9
9
9
9
9
9
9
9
9
9
9
9
9
9
9
9
9
9
9
9
9
9
9
9
9
9
9
9
9
9
9
9
9
9
9
9
9
9
9
9
9
9
9
9
9
9
9
9
9
9
9
9
9
9
9
9
9
9
9
9
9
9
9
9
9
9
9
9
9
9
9
9
9
9
9
9
9
9
9
9
9
9
9
9
9
9
9
9
9
9
9
9
9
9
9
9
9
9
9
9
9
9
9
9
9
9
9
9
9
9
9
9
9
9
9
9
9
9
9
9
9
9
9
9
9
9
9
9
9
9
9
9
9
9
9
9
9
9
9
9
9
9
9
9
9
9
9
9
9
9
9
POINT_DATA      5151
SCALARS p double 
LOOKUP_TABLE default
   70000000.0000000     
   70000000.0000000     
   70000000.0000000     
   70000000.0000000     
   70000000.0000000     
   70000000.0000000     
   70000000.0000000     
   70000000.0000000     
   70000000.0000000     
   70000000.0000000     
   70000000.0000000     
   70000000.0000000     
   70000000.0000000     
   70000000.0000000     
   70000000.0000000     
   70000000.0000000     
   70000000.0000000     
   70000000.0000000     
   70000000.0000000     
   70000000.0000000     
   70000000.0000000     
   70000000.0000000     
   70000000.0000000     
   70000000.0000000     
   70000000.0000000     
   70000000.0000000     
   70000000.0000000     
   70000000.0000000     
   70000000.0000000     
   70000000.0000000     
   70000000.0000000     
   70000000.0000000     
   70000000.0000000     
   70000000.0000000     
   70000000.0000000     
   70000000.0000000     
   70000000.0000000     
   70000000.0000000     
   70000000.0000000     
   70000000.0000000     
   70000000.0000000     
   70000000.0000000     
   70000000.0000000     
   70000000.0000000     
   70000000.0000000     
   70000000.0000000     
   70000000.0000000     
   70000000.0000000     
   70000000.0000000     
   70000000.0000000     
   70000000.0000000     
   69358263.6149041     
   69358263.6149041     
   69358263.6149041     
   69358263.6149041     
   69358263.6149040     
   69358263.6149040     
   69358263.6149040     
   69358263.6149040     
   69358263.6149039     
   69358263.6149039     
   69358263.6149039     
   69358263.6149039     
   69358263.6149039     
   69358263.6149039     
   69358263.6149039     
   69358263.6149039     
   69358263.6149038     
   69358263.6149038     
   69358263.6149038     
   69358263.6149038     
   69358263.6149037     
   69358263.6149037     
   69358263.6149037     
   69358263.6149037     
   69358263.6149037     
   69358263.6149037     
   69358263.6149037     
   69358263.6149036     
   69358263.6149036     
   69358263.6149036     
   69358263.6149036     
   69358263.6149036     
   69358263.6149036     
   69358263.6149036     
   69358263.6149036     
   69358263.6149036     
   69358263.6149036     
   69358263.6149035     
   69358263.6149035     
   69358263.6149035     
   69358263.6149034     
   69358263.6149034     
   69358263.6149034     
   69358263.6149034     
   69358263.6149034     
   69358263.6149034     
   69358263.6149034     
   69358263.6149034     
   69358263.6149034     
   69358263.6149034     
   69358263.6149033     
   68717608.7736141     
   68717608.7736141     
   68717608.7736140     
   68717608.7736140     
   68717608.7736139     
   68717608.7736139     
   68717608.7736139     
   68717608.7736139     
   68717608.7736139     
   68717608.7736139     
   68717608.7736138     
   68717608.7736138     
   68717608.7736138     
   68717608.7736137     
   68717608.7736138     
   68717608.7736137     
   68717608.7736136     
   68717608.7736136     
   68717608.7736136     
   68717608.7736135     
   68717608.7736134     
   68717608.7736134     
   68717608.7736134     
   68717608.7736133     
   68717608.7736133     
   68717608.7736133     
   68717608.7736133     
   68717608.7736133     
   68717608.7736133     
   68717608.7736132     
   68717608.7736132     
   68717608.7736132     
   68717608.7736132     
   68717608.7736131     
   68717608.7736131     
   68717608.7736131     
   68717608.7736131     
   68717608.7736131     
   68717608.7736131     
   68717608.7736129     
   68717608.7736129     
   68717608.7736128     
   68717608.7736128     
   68717608.7736128     
   68717608.7736128     
   68717608.7736128     
   68717608.7736127     
   68717608.7736127     
   68717608.7736127     
   68717608.7736127     
   68717608.7736128     
   68079110.1710271     
   68079110.1710271     
   68079110.1710271     
   68079110.1710270     
   68079110.1710270     
   68079110.1710270     
   68079110.1710269     
   68079110.1710268     
   68079110.1710268     
   68079110.1710268     
   68079110.1710268     
   68079110.1710267     
   68079110.1710266     
   68079110.1710265     
   68079110.1710263     
   68079110.1710263     
   68079110.1710263     
   68079110.1710262     
   68079110.1710262     
   68079110.1710261     
   68079110.1710261     
   68079110.1710261     
   68079110.1710260     
   68079110.1710260     
   68079110.1710259     
   68079110.1710258     
   68079110.1710258     
   68079110.1710258     
   68079110.1710257     
   68079110.1710257     
   68079110.1710257     
   68079110.1710257     
   68079110.1710257     
   68079110.1710256     
   68079110.1710257     
   68079110.1710256     
   68079110.1710256     
   68079110.1710256     
   68079110.1710255     
   68079110.1710256     
   68079110.1710256     
   68079110.1710256     
   68079110.1710255     
   68079110.1710255     
   68079110.1710254     
   68079110.1710254     
   68079110.1710253     
   68079110.1710253     
   68079110.1710254     
   68079110.1710254     
   68079110.1710253     
   67443828.8774105     
   67443828.8774105     
   67443828.8774104     
   67443828.8774104     
   67443828.8774104     
   67443828.8774104     
   67443828.8774104     
   67443828.8774104     
   67443828.8774104     
   67443828.8774103     
   67443828.8774102     
   67443828.8774102     
   67443828.8774101     
   67443828.8774100     
   67443828.8774099     
   67443828.8774098     
   67443828.8774098     
   67443828.8774097     
   67443828.8774096     
   67443828.8774095     
   67443828.8774094     
   67443828.8774093     
   67443828.8774093     
   67443828.8774092     
   67443828.8774091     
   67443828.8774090     
   67443828.8774090     
   67443828.8774090     
   67443828.8774089     
   67443828.8774088     
   67443828.8774088     
   67443828.8774088     
   67443828.8774088     
   67443828.8774087     
   67443828.8774086     
   67443828.8774086     
   67443828.8774085     
   67443828.8774084     
   67443828.8774084     
   67443828.8774084     
   67443828.8774084     
   67443828.8774085     
   67443828.8774085     
   67443828.8774085     
   67443828.8774084     
   67443828.8774084     
   67443828.8774085     
   67443828.8774085     
   67443828.8774084     
   67443828.8774084     
   67443828.8774084     
   66812805.7076691     
   66812805.7076691     
   66812805.7076691     
   66812805.7076690     
   66812805.7076690     
   66812805.7076689     
   66812805.7076689     
   66812805.7076689     
   66812805.7076689     
   66812805.7076689     
   66812805.7076688     
   66812805.7076687     
   66812805.7076686     
   66812805.7076686     
   66812805.7076685     
   66812805.7076684     
   66812805.7076683     
   66812805.7076682     
   66812805.7076682     
   66812805.7076681     
   66812805.7076680     
   66812805.7076679     
   66812805.7076678     
   66812805.7076677     
   66812805.7076676     
   66812805.7076675     
   66812805.7076675     
   66812805.7076674     
   66812805.7076674     
   66812805.7076673     
   66812805.7076672     
   66812805.7076672     
   66812805.7076671     
   66812805.7076671     
   66812805.7076670     
   66812805.7076669     
   66812805.7076669     
   66812805.7076668     
   66812805.7076668     
   66812805.7076667     
   66812805.7076667     
   66812805.7076667     
   66812805.7076666     
   66812805.7076666     
   66812805.7076666     
   66812805.7076666     
   66812805.7076666     
   66812805.7076666     
   66812805.7076666     
   66812805.7076666     
   66812805.7076666     
   66187054.8046640     
   66187054.8046640     
   66187054.8046639     
   66187054.8046639     
   66187054.8046639     
   66187054.8046639     
   66187054.8046638     
   66187054.8046637     
   66187054.8046637     
   66187054.8046636     
   66187054.8046635     
   66187054.8046635     
   66187054.8046635     
   66187054.8046634     
   66187054.8046633     
   66187054.8046632     
   66187054.8046632     
   66187054.8046631     
   66187054.8046630     
   66187054.8046629     
   66187054.8046628     
   66187054.8046627     
   66187054.8046626     
   66187054.8046626     
   66187054.8046624     
   66187054.8046623     
   66187054.8046622     
   66187054.8046622     
   66187054.8046622     
   66187054.8046621     
   66187054.8046621     
   66187054.8046620     
   66187054.8046620     
   66187054.8046619     
   66187054.8046619     
   66187054.8046619     
   66187054.8046618     
   66187054.8046617     
   66187054.8046616     
   66187054.8046616     
   66187054.8046616     
   66187054.8046616     
   66187054.8046615     
   66187054.8046615     
   66187054.8046614     
   66187054.8046614     
   66187054.8046614     
   66187054.8046613     
   66187054.8046613     
   66187054.8046613     
   66187054.8046613     
   65567557.5016447     
   65567557.5016447     
   65567557.5016448     
   65567557.5016447     
   65567557.5016446     
   65567557.5016445     
   65567557.5016445     
   65567557.5016445     
   65567557.5016444     
   65567557.5016444     
   65567557.5016443     
   65567557.5016442     
   65567557.5016441     
   65567557.5016440     
   65567557.5016441     
   65567557.5016440     
   65567557.5016439     
   65567557.5016437     
   65567557.5016436     
   65567557.5016435     
   65567557.5016434     
   65567557.5016434     
   65567557.5016433     
   65567557.5016432     
   65567557.5016431     
   65567557.5016430     
   65567557.5016430     
   65567557.5016429     
   65567557.5016427     
   65567557.5016426     
   65567557.5016426     
   65567557.5016426     
   65567557.5016425     
   65567557.5016424     
   65567557.5016424     
   65567557.5016423     
   65567557.5016423     
   65567557.5016423     
   65567557.5016424     
   65567557.5016423     
   65567557.5016423     
   65567557.5016422     
   65567557.5016421     
   65567557.5016421     
   65567557.5016421     
   65567557.5016421     
   65567557.5016421     
   65567557.5016421     
   65567557.5016421     
   65567557.5016421     
   65567557.5016421     
   64955256.5236977     
   64955256.5236977     
   64955256.5236976     
   64955256.5236975     
   64955256.5236975     
   64955256.5236974     
   64955256.5236974     
   64955256.5236973     
   64955256.5236973     
   64955256.5236972     
   64955256.5236972     
   64955256.5236971     
   64955256.5236971     
   64955256.5236970     
   64955256.5236969     
   64955256.5236969     
   64955256.5236968     
   64955256.5236967     
   64955256.5236967     
   64955256.5236966     
   64955256.5236965     
   64955256.5236964     
   64955256.5236963     
   64955256.5236962     
   64955256.5236961     
   64955256.5236960     
   64955256.5236960     
   64955256.5236959     
   64955256.5236958     
   64955256.5236958     
   64955256.5236957     
   64955256.5236956     
   64955256.5236956     
   64955256.5236956     
   64955256.5236955     
   64955256.5236955     
   64955256.5236954     
   64955256.5236954     
   64955256.5236953     
   64955256.5236952     
   64955256.5236952     
   64955256.5236951     
   64955256.5236951     
   64955256.5236950     
   64955256.5236950     
   64955256.5236950     
   64955256.5236950     
   64955256.5236950     
   64955256.5236951     
   64955256.5236951     
   64955256.5236951     
   64351050.5819478     
   64351050.5819478     
   64351050.5819478     
   64351050.5819478     
   64351050.5819478     
   64351050.5819478     
   64351050.5819477     
   64351050.5819477     
   64351050.5819476     
   64351050.5819476     
   64351050.5819476     
   64351050.5819476     
   64351050.5819476     
   64351050.5819475     
   64351050.5819475     
   64351050.5819474     
   64351050.5819473     
   64351050.5819472     
   64351050.5819472     
   64351050.5819471     
   64351050.5819470     
   64351050.5819469     
   64351050.5819469     
   64351050.5819468     
   64351050.5819468     
   64351050.5819467     
   64351050.5819467     
   64351050.5819466     
   64351050.5819465     
   64351050.5819464     
   64351050.5819464     
   64351050.5819463     
   64351050.5819461     
   64351050.5819461     
   64351050.5819460     
   64351050.5819459     
   64351050.5819458     
   64351050.5819458     
   64351050.5819458     
   64351050.5819458     
   64351050.5819457     
   64351050.5819457     
   64351050.5819456     
   64351050.5819456     
   64351050.5819455     
   64351050.5819455     
   64351050.5819456     
   64351050.5819456     
   64351050.5819456     
   64351050.5819456     
   64351050.5819456     
   63755789.4072454     
   63755789.4072454     
   63755789.4072455     
   63755789.4072456     
   63755789.4072456     
   63755789.4072455     
   63755789.4072455     
   63755789.4072455     
   63755789.4072456     
   63755789.4072456     
   63755789.4072455     
   63755789.4072454     
   63755789.4072454     
   63755789.4072454     
   63755789.4072453     
   63755789.4072453     
   63755789.4072452     
   63755789.4072451     
   63755789.4072450     
   63755789.4072449     
   63755789.4072448     
   63755789.4072447     
   63755789.4072446     
   63755789.4072446     
   63755789.4072446     
   63755789.4072445     
   63755789.4072445     
   63755789.4072444     
   63755789.4072444     
   63755789.4072444     
   63755789.4072443     
   63755789.4072442     
   63755789.4072441     
   63755789.4072441     
   63755789.4072440     
   63755789.4072438     
   63755789.4072437     
   63755789.4072436     
   63755789.4072435     
   63755789.4072434     
   63755789.4072433     
   63755789.4072433     
   63755789.4072433     
   63755789.4072433     
   63755789.4072433     
   63755789.4072433     
   63755789.4072433     
   63755789.4072433     
   63755789.4072433     
   63755789.4072433     
   63755789.4072433     
   63170269.2624053     
   63170269.2624054     
   63170269.2624054     
   63170269.2624054     
   63170269.2624054     
   63170269.2624054     
   63170269.2624054     
   63170269.2624054     
   63170269.2624054     
   63170269.2624054     
   63170269.2624054     
   63170269.2624054     
   63170269.2624053     
   63170269.2624053     
   63170269.2624053     
   63170269.2624052     
   63170269.2624052     
   63170269.2624051     
   63170269.2624050     
   63170269.2624049     
   63170269.2624048     
   63170269.2624047     
   63170269.2624047     
   63170269.2624045     
   63170269.2624045     
   63170269.2624044     
   63170269.2624045     
   63170269.2624044     
   63170269.2624044     
   63170269.2624044     
   63170269.2624043     
   63170269.2624042     
   63170269.2624041     
   63170269.2624039     
   63170269.2624038     
   63170269.2624037     
   63170269.2624036     
   63170269.2624035     
   63170269.2624034     
   63170269.2624035     
   63170269.2624034     
   63170269.2624033     
   63170269.2624033     
   63170269.2624032     
   63170269.2624032     
   63170269.2624032     
   63170269.2624031     
   63170269.2624031     
   63170269.2624031     
   63170269.2624031     
   63170269.2624031     
   62595228.9639547     
   62595228.9639547     
   62595228.9639546     
   62595228.9639546     
   62595228.9639546     
   62595228.9639546     
   62595228.9639546     
   62595228.9639545     
   62595228.9639545     
   62595228.9639545     
   62595228.9639544     
   62595228.9639544     
   62595228.9639544     
   62595228.9639544     
   62595228.9639543     
   62595228.9639542     
   62595228.9639542     
   62595228.9639542     
   62595228.9639542     
   62595228.9639541     
   62595228.9639541     
   62595228.9639540     
   62595228.9639539     
   62595228.9639538     
   62595228.9639537     
   62595228.9639536     
   62595228.9639535     
   62595228.9639535     
   62595228.9639534     
   62595228.9639533     
   62595228.9639532     
   62595228.9639531     
   62595228.9639530     
   62595228.9639530     
   62595228.9639529     
   62595228.9639528     
   62595228.9639528     
   62595228.9639529     
   62595228.9639528     
   62595228.9639528     
   62595228.9639528     
   62595228.9639528     
   62595228.9639527     
   62595228.9639527     
   62595228.9639527     
   62595228.9639527     
   62595228.9639527     
   62595228.9639526     
   62595228.9639525     
   62595228.9639525     
   62595228.9639525     
   62031346.4359680     
   62031346.4359680     
   62031346.4359679     
   62031346.4359679     
   62031346.4359678     
   62031346.4359678     
   62031346.4359678     
   62031346.4359677     
   62031346.4359677     
   62031346.4359676     
   62031346.4359675     
   62031346.4359674     
   62031346.4359673     
   62031346.4359673     
   62031346.4359672     
   62031346.4359672     
   62031346.4359671     
   62031346.4359671     
   62031346.4359671     
   62031346.4359670     
   62031346.4359669     
   62031346.4359668     
   62031346.4359668     
   62031346.4359667     
   62031346.4359666     
   62031346.4359666     
   62031346.4359665     
   62031346.4359665     
   62031346.4359663     
   62031346.4359663     
   62031346.4359662     
   62031346.4359662     
   62031346.4359661     
   62031346.4359660     
   62031346.4359659     
   62031346.4359659     
   62031346.4359659     
   62031346.4359659     
   62031346.4359659     
   62031346.4359659     
   62031346.4359658     
   62031346.4359658     
   62031346.4359658     
   62031346.4359658     
   62031346.4359657     
   62031346.4359657     
   62031346.4359657     
   62031346.4359657     
   62031346.4359657     
   62031346.4359658     
   62031346.4359658     
   61479235.8101345     
   61479235.8101345     
   61479235.8101344     
   61479235.8101344     
   61479235.8101344     
   61479235.8101344     
   61479235.8101343     
   61479235.8101343     
   61479235.8101342     
   61479235.8101342     
   61479235.8101342     
   61479235.8101342     
   61479235.8101341     
   61479235.8101341     
   61479235.8101340     
   61479235.8101339     
   61479235.8101339     
   61479235.8101337     
   61479235.8101336     
   61479235.8101336     
   61479235.8101335     
   61479235.8101335     
   61479235.8101334     
   61479235.8101334     
   61479235.8101333     
   61479235.8101333     
   61479235.8101332     
   61479235.8101331     
   61479235.8101331     
   61479235.8101330     
   61479235.8101329     
   61479235.8101329     
   61479235.8101329     
   61479235.8101329     
   61479235.8101328     
   61479235.8101328     
   61479235.8101328     
   61479235.8101327     
   61479235.8101327     
   61479235.8101327     
   61479235.8101327     
   61479235.8101327     
   61479235.8101327     
   61479235.8101326     
   61479235.8101326     
   61479235.8101326     
   61479235.8101325     
   61479235.8101325     
   61479235.8101325     
   61479235.8101325     
   61479235.8101326     
   60939445.0779003     
   60939445.0779003     
   60939445.0779002     
   60939445.0779003     
   60939445.0779002     
   60939445.0779001     
   60939445.0779001     
   60939445.0779000     
   60939445.0779000     
   60939445.0779000     
   60939445.0778999     
   60939445.0778999     
   60939445.0778998     
   60939445.0778998     
   60939445.0778997     
   60939445.0778998     
   60939445.0778997     
   60939445.0778997     
   60939445.0778996     
   60939445.0778996     
   60939445.0778995     
   60939445.0778994     
   60939445.0778993     
   60939445.0778993     
   60939445.0778992     
   60939445.0778991     
   60939445.0778991     
   60939445.0778991     
   60939445.0778990     
   60939445.0778989     
   60939445.0778989     
   60939445.0778988     
   60939445.0778988     
   60939445.0778987     
   60939445.0778986     
   60939445.0778986     
   60939445.0778985     
   60939445.0778985     
   60939445.0778985     
   60939445.0778984     
   60939445.0778984     
   60939445.0778983     
   60939445.0778983     
   60939445.0778983     
   60939445.0778982     
   60939445.0778982     
   60939445.0778982     
   60939445.0778982     
   60939445.0778982     
   60939445.0778982     
   60939445.0778982     
   60412454.2925133     
   60412454.2925133     
   60412454.2925133     
   60412454.2925133     
   60412454.2925133     
   60412454.2925133     
   60412454.2925132     
   60412454.2925132     
   60412454.2925131     
   60412454.2925131     
   60412454.2925130     
   60412454.2925130     
   60412454.2925130     
   60412454.2925129     
   60412454.2925128     
   60412454.2925127     
   60412454.2925127     
   60412454.2925126     
   60412454.2925126     
   60412454.2925126     
   60412454.2925125     
   60412454.2925125     
   60412454.2925126     
   60412454.2925125     
   60412454.2925124     
   60412454.2925124     
   60412454.2925124     
   60412454.2925123     
   60412454.2925123     
   60412454.2925122     
   60412454.2925121     
   60412454.2925120     
   60412454.2925119     
   60412454.2925119     
   60412454.2925118     
   60412454.2925118     
   60412454.2925117     
   60412454.2925117     
   60412454.2925116     
   60412454.2925115     
   60412454.2925115     
   60412454.2925114     
   60412454.2925114     
   60412454.2925113     
   60412454.2925113     
   60412454.2925113     
   60412454.2925113     
   60412454.2925112     
   60412454.2925112     
   60412454.2925112     
   60412454.2925112     
   59898674.3112562     
   59898674.3112562     
   59898674.3112562     
   59898674.3112562     
   59898674.3112562     
   59898674.3112562     
   59898674.3112562     
   59898674.3112562     
   59898674.3112561     
   59898674.3112561     
   59898674.3112561     
   59898674.3112561     
   59898674.3112561     
   59898674.3112560     
   59898674.3112560     
   59898674.3112560     
   59898674.3112559     
   59898674.3112558     
   59898674.3112558     
   59898674.3112557     
   59898674.3112556     
   59898674.3112556     
   59898674.3112555     
   59898674.3112555     
   59898674.3112555     
   59898674.3112555     
   59898674.3112554     
   59898674.3112553     
   59898674.3112552     
   59898674.3112552     
   59898674.3112552     
   59898674.3112551     
   59898674.3112550     
   59898674.3112550     
   59898674.3112549     
   59898674.3112549     
   59898674.3112549     
   59898674.3112548     
   59898674.3112547     
   59898674.3112547     
   59898674.3112546     
   59898674.3112545     
   59898674.3112544     
   59898674.3112544     
   59898674.3112543     
   59898674.3112544     
   59898674.3112544     
   59898674.3112544     
   59898674.3112544     
   59898674.3112544     
   59898674.3112544     
   59398446.0611767     
   59398446.0611767     
   59398446.0611767     
   59398446.0611767     
   59398446.0611768     
   59398446.0611768     
   59398446.0611768     
   59398446.0611768     
   59398446.0611768     
   59398446.0611768     
   59398446.0611768     
   59398446.0611768     
   59398446.0611767     
   59398446.0611766     
   59398446.0611766     
   59398446.0611766     
   59398446.0611765     
   59398446.0611765     
   59398446.0611766     
   59398446.0611765     
   59398446.0611764     
   59398446.0611764     
   59398446.0611763     
   59398446.0611763     
   59398446.0611762     
   59398446.0611761     
   59398446.0611760     
   59398446.0611760     
   59398446.0611759     
   59398446.0611758     
   59398446.0611757     
   59398446.0611757     
   59398446.0611756     
   59398446.0611755     
   59398446.0611754     
   59398446.0611753     
   59398446.0611753     
   59398446.0611752     
   59398446.0611752     
   59398446.0611751     
   59398446.0611751     
   59398446.0611751     
   59398446.0611751     
   59398446.0611750     
   59398446.0611751     
   59398446.0611750     
   59398446.0611750     
   59398446.0611750     
   59398446.0611750     
   59398446.0611749     
   59398446.0611749     
   58912040.3053549     
   58912040.3053549     
   58912040.3053549     
   58912040.3053549     
   58912040.3053549     
   58912040.3053550     
   58912040.3053549     
   58912040.3053549     
   58912040.3053550     
   58912040.3053549     
   58912040.3053550     
   58912040.3053550     
   58912040.3053551     
   58912040.3053551     
   58912040.3053551     
   58912040.3053551     
   58912040.3053550     
   58912040.3053550     
   58912040.3053550     
   58912040.3053549     
   58912040.3053548     
   58912040.3053548     
   58912040.3053547     
   58912040.3053546     
   58912040.3053546     
   58912040.3053546     
   58912040.3053545     
   58912040.3053544     
   58912040.3053543     
   58912040.3053542     
   58912040.3053541     
   58912040.3053540     
   58912040.3053539     
   58912040.3053538     
   58912040.3053537     
   58912040.3053537     
   58912040.3053536     
   58912040.3053536     
   58912040.3053535     
   58912040.3053534     
   58912040.3053534     
   58912040.3053533     
   58912040.3053533     
   58912040.3053532     
   58912040.3053532     
   58912040.3053532     
   58912040.3053532     
   58912040.3053532     
   58912040.3053532     
   58912040.3053531     
   58912040.3053531     
   58439657.8812500     
   58439657.8812500     
   58439657.8812500     
   58439657.8812500     
   58439657.8812500     
   58439657.8812500     
   58439657.8812500     
   58439657.8812500     
   58439657.8812500     
   58439657.8812500     
   58439657.8812500     
   58439657.8812500     
   58439657.8812501     
   58439657.8812501     
   58439657.8812502     
   58439657.8812502     
   58439657.8812501     
   58439657.8812501     
   58439657.8812501     
   58439657.8812501     
   58439657.8812500     
   58439657.8812499     
   58439657.8812499     
   58439657.8812499     
   58439657.8812498     
   58439657.8812497     
   58439657.8812496     
   58439657.8812495     
   58439657.8812494     
   58439657.8812493     
   58439657.8812492     
   58439657.8812492     
   58439657.8812491     
   58439657.8812491     
   58439657.8812490     
   58439657.8812489     
   58439657.8812488     
   58439657.8812487     
   58439657.8812487     
   58439657.8812487     
   58439657.8812486     
   58439657.8812486     
   58439657.8812486     
   58439657.8812486     
   58439657.8812486     
   58439657.8812486     
   58439657.8812486     
   58439657.8812485     
   58439657.8812485     
   58439657.8812485     
   58439657.8812486     
   57981430.3780083     
   57981430.3780083     
   57981430.3780083     
   57981430.3780083     
   57981430.3780083     
   57981430.3780083     
   57981430.3780083     
   57981430.3780083     
   57981430.3780083     
   57981430.3780083     
   57981430.3780083     
   57981430.3780083     
   57981430.3780083     
   57981430.3780083     
   57981430.3780083     
   57981430.3780083     
   57981430.3780084     
   57981430.3780084     
   57981430.3780084     
   57981430.3780084     
   57981430.3780083     
   57981430.3780083     
   57981430.3780082     
   57981430.3780081     
   57981430.3780080     
   57981430.3780079     
   57981430.3780079     
   57981430.3780078     
   57981430.3780078     
   57981430.3780077     
   57981430.3780076     
   57981430.3780075     
   57981430.3780074     
   57981430.3780073     
   57981430.3780072     
   57981430.3780072     
   57981430.3780071     
   57981430.3780070     
   57981430.3780070     
   57981430.3780070     
   57981430.3780070     
   57981430.3780069     
   57981430.3780068     
   57981430.3780068     
   57981430.3780068     
   57981430.3780068     
   57981430.3780069     
   57981430.3780069     
   57981430.3780069     
   57981430.3780068     
   57981430.3780068     
   57537421.2158208     
   57537421.2158208     
   57537421.2158208     
   57537421.2158209     
   57537421.2158209     
   57537421.2158209     
   57537421.2158209     
   57537421.2158209     
   57537421.2158210     
   57537421.2158210     
   57537421.2158210     
   57537421.2158210     
   57537421.2158211     
   57537421.2158211     
   57537421.2158210     
   57537421.2158210     
   57537421.2158210     
   57537421.2158209     
   57537421.2158209     
   57537421.2158209     
   57537421.2158209     
   57537421.2158208     
   57537421.2158207     
   57537421.2158207     
   57537421.2158206     
   57537421.2158204     
   57537421.2158204     
   57537421.2158203     
   57537421.2158202     
   57537421.2158201     
   57537421.2158200     
   57537421.2158199     
   57537421.2158198     
   57537421.2158198     
   57537421.2158197     
   57537421.2158196     
   57537421.2158196     
   57537421.2158196     
   57537421.2158195     
   57537421.2158195     
   57537421.2158195     
   57537421.2158195     
   57537421.2158195     
   57537421.2158195     
   57537421.2158195     
   57537421.2158194     
   57537421.2158194     
   57537421.2158194     
   57537421.2158194     
   57537421.2158195     
   57537421.2158194     
   57107627.0875116     
   57107627.0875116     
   57107627.0875116     
   57107627.0875116     
   57107627.0875116     
   57107627.0875116     
   57107627.0875115     
   57107627.0875116     
   57107627.0875116     
   57107627.0875116     
   57107627.0875116     
   57107627.0875116     
   57107627.0875116     
   57107627.0875116     
   57107627.0875115     
   57107627.0875115     
   57107627.0875114     
   57107627.0875114     
   57107627.0875113     
   57107627.0875112     
   57107627.0875112     
   57107627.0875112     
   57107627.0875111     
   57107627.0875111     
   57107627.0875111     
   57107627.0875110     
   57107627.0875109     
   57107627.0875108     
   57107627.0875108     
   57107627.0875107     
   57107627.0875106     
   57107627.0875106     
   57107627.0875105     
   57107627.0875104     
   57107627.0875103     
   57107627.0875103     
   57107627.0875103     
   57107627.0875103     
   57107627.0875102     
   57107627.0875102     
   57107627.0875102     
   57107627.0875102     
   57107627.0875102     
   57107627.0875102     
   57107627.0875102     
   57107627.0875102     
   57107627.0875102     
   57107627.0875102     
   57107627.0875101     
   57107627.0875101     
   57107627.0875101     
   56691979.7204980     
   56691979.7204980     
   56691979.7204980     
   56691979.7204980     
   56691979.7204980     
   56691979.7204979     
   56691979.7204979     
   56691979.7204979     
   56691979.7204979     
   56691979.7204978     
   56691979.7204978     
   56691979.7204978     
   56691979.7204977     
   56691979.7204977     
   56691979.7204977     
   56691979.7204976     
   56691979.7204976     
   56691979.7204975     
   56691979.7204975     
   56691979.7204974     
   56691979.7204974     
   56691979.7204973     
   56691979.7204973     
   56691979.7204973     
   56691979.7204973     
   56691979.7204973     
   56691979.7204973     
   56691979.7204972     
   56691979.7204973     
   56691979.7204973     
   56691979.7204973     
   56691979.7204972     
   56691979.7204971     
   56691979.7204971     
   56691979.7204970     
   56691979.7204969     
   56691979.7204969     
   56691979.7204968     
   56691979.7204968     
   56691979.7204968     
   56691979.7204968     
   56691979.7204968     
   56691979.7204968     
   56691979.7204968     
   56691979.7204968     
   56691979.7204968     
   56691979.7204969     
   56691979.7204969     
   56691979.7204969     
   56691979.7204969     
   56691979.7204969     
   56290347.9160783     
   56290347.9160783     
   56290347.9160783     
   56290347.9160782     
   56290347.9160783     
   56290347.9160783     
   56290347.9160784     
   56290347.9160783     
   56290347.9160783     
   56290347.9160783     
   56290347.9160782     
   56290347.9160782     
   56290347.9160782     
   56290347.9160781     
   56290347.9160781     
   56290347.9160781     
   56290347.9160780     
   56290347.9160780     
   56290347.9160780     
   56290347.9160779     
   56290347.9160779     
   56290347.9160778     
   56290347.9160779     
   56290347.9160779     
   56290347.9160778     
   56290347.9160778     
   56290347.9160777     
   56290347.9160777     
   56290347.9160776     
   56290347.9160776     
   56290347.9160776     
   56290347.9160777     
   56290347.9160777     
   56290347.9160776     
   56290347.9160776     
   56290347.9160776     
   56290347.9160775     
   56290347.9160775     
   56290347.9160775     
   56290347.9160775     
   56290347.9160775     
   56290347.9160775     
   56290347.9160775     
   56290347.9160775     
   56290347.9160775     
   56290347.9160776     
   56290347.9160776     
   56290347.9160776     
   56290347.9160775     
   56290347.9160775     
   56290347.9160775     
   55902539.8226104     
   55902539.8226104     
   55902539.8226104     
   55902539.8226104     
   55902539.8226104     
   55902539.8226104     
   55902539.8226103     
   55902539.8226103     
   55902539.8226103     
   55902539.8226102     
   55902539.8226102     
   55902539.8226101     
   55902539.8226101     
   55902539.8226101     
   55902539.8226101     
   55902539.8226100     
   55902539.8226100     
   55902539.8226100     
   55902539.8226099     
   55902539.8226100     
   55902539.8226100     
   55902539.8226101     
   55902539.8226101     
   55902539.8226101     
   55902539.8226100     
   55902539.8226100     
   55902539.8226100     
   55902539.8226099     
   55902539.8226099     
   55902539.8226098     
   55902539.8226098     
   55902539.8226098     
   55902539.8226097     
   55902539.8226097     
   55902539.8226097     
   55902539.8226097     
   55902539.8226097     
   55902539.8226097     
   55902539.8226096     
   55902539.8226096     
   55902539.8226095     
   55902539.8226095     
   55902539.8226096     
   55902539.8226096     
   55902539.8226096     
   55902539.8226096     
   55902539.8226097     
   55902539.8226097     
   55902539.8226098     
   55902539.8226098     
   55902539.8226098     
   55528305.3995079     
   55528305.3995079     
   55528305.3995079     
   55528305.3995078     
   55528305.3995078     
   55528305.3995078     
   55528305.3995077     
   55528305.3995077     
   55528305.3995077     
   55528305.3995077     
   55528305.3995078     
   55528305.3995077     
   55528305.3995077     
   55528305.3995077     
   55528305.3995077     
   55528305.3995078     
   55528305.3995078     
   55528305.3995077     
   55528305.3995078     
   55528305.3995077     
   55528305.3995077     
   55528305.3995077     
   55528305.3995077     
   55528305.3995077     
   55528305.3995077     
   55528305.3995078     
   55528305.3995078     
   55528305.3995078     
   55528305.3995078     
   55528305.3995078     
   55528305.3995077     
   55528305.3995077     
   55528305.3995076     
   55528305.3995076     
   55528305.3995075     
   55528305.3995074     
   55528305.3995074     
   55528305.3995074     
   55528305.3995074     
   55528305.3995073     
   55528305.3995073     
   55528305.3995073     
   55528305.3995073     
   55528305.3995073     
   55528305.3995073     
   55528305.3995073     
   55528305.3995073     
   55528305.3995073     
   55528305.3995073     
   55528305.3995073     
   55528305.3995073     
   55167339.0300346     
   55167339.0300346     
   55167339.0300345     
   55167339.0300345     
   55167339.0300344     
   55167339.0300344     
   55167339.0300344     
   55167339.0300343     
   55167339.0300343     
   55167339.0300343     
   55167339.0300344     
   55167339.0300344     
   55167339.0300345     
   55167339.0300345     
   55167339.0300345     
   55167339.0300345     
   55167339.0300345     
   55167339.0300346     
   55167339.0300347     
   55167339.0300347     
   55167339.0300347     
   55167339.0300348     
   55167339.0300348     
   55167339.0300347     
   55167339.0300347     
   55167339.0300346     
   55167339.0300346     
   55167339.0300346     
   55167339.0300346     
   55167339.0300346     
   55167339.0300346     
   55167339.0300346     
   55167339.0300346     
   55167339.0300345     
   55167339.0300345     
   55167339.0300345     
   55167339.0300345     
   55167339.0300344     
   55167339.0300343     
   55167339.0300343     
   55167339.0300342     
   55167339.0300342     
   55167339.0300342     
   55167339.0300342     
   55167339.0300342     
   55167339.0300342     
   55167339.0300342     
   55167339.0300342     
   55167339.0300342     
   55167339.0300342     
   55167339.0300342     
   54819282.2425252     
   54819282.2425252     
   54819282.2425252     
   54819282.2425253     
   54819282.2425253     
   54819282.2425253     
   54819282.2425254     
   54819282.2425254     
   54819282.2425255     
   54819282.2425255     
   54819282.2425255     
   54819282.2425255     
   54819282.2425255     
   54819282.2425256     
   54819282.2425256     
   54819282.2425256     
   54819282.2425257     
   54819282.2425257     
   54819282.2425257     
   54819282.2425258     
   54819282.2425258     
   54819282.2425258     
   54819282.2425259     
   54819282.2425259     
   54819282.2425259     
   54819282.2425258     
   54819282.2425258     
   54819282.2425258     
   54819282.2425257     
   54819282.2425257     
   54819282.2425257     
   54819282.2425256     
   54819282.2425256     
   54819282.2425256     
   54819282.2425256     
   54819282.2425255     
   54819282.2425255     
   54819282.2425255     
   54819282.2425255     
   54819282.2425255     
   54819282.2425255     
   54819282.2425256     
   54819282.2425256     
   54819282.2425255     
   54819282.2425255     
   54819282.2425255     
   54819282.2425255     
   54819282.2425255     
   54819282.2425255     
   54819282.2425255     
   54819282.2425254     
   54483726.5018689     
   54483726.5018689     
   54483726.5018689     
   54483726.5018689     
   54483726.5018690     
   54483726.5018689     
   54483726.5018690     
   54483726.5018690     
   54483726.5018690     
   54483726.5018691     
   54483726.5018691     
   54483726.5018691     
   54483726.5018692     
   54483726.5018691     
   54483726.5018691     
   54483726.5018692     
   54483726.5018692     
   54483726.5018692     
   54483726.5018693     
   54483726.5018694     
   54483726.5018694     
   54483726.5018694     
   54483726.5018694     
   54483726.5018694     
   54483726.5018694     
   54483726.5018694     
   54483726.5018693     
   54483726.5018693     
   54483726.5018694     
   54483726.5018693     
   54483726.5018693     
   54483726.5018693     
   54483726.5018693     
   54483726.5018692     
   54483726.5018692     
   54483726.5018692     
   54483726.5018693     
   54483726.5018693     
   54483726.5018693     
   54483726.5018693     
   54483726.5018694     
   54483726.5018694     
   54483726.5018695     
   54483726.5018694     
   54483726.5018694     
   54483726.5018694     
   54483726.5018694     
   54483726.5018693     
   54483726.5018692     
   54483726.5018692     
   54483726.5018692     
   54160216.0357318     
   54160216.0357318     
   54160216.0357318     
   54160216.0357318     
   54160216.0357318     
   54160216.0357318     
   54160216.0357318     
   54160216.0357318     
   54160216.0357319     
   54160216.0357318     
   54160216.0357318     
   54160216.0357318     
   54160216.0357318     
   54160216.0357318     
   54160216.0357319     
   54160216.0357320     
   54160216.0357321     
   54160216.0357321     
   54160216.0357322     
   54160216.0357322     
   54160216.0357321     
   54160216.0357321     
   54160216.0357321     
   54160216.0357320     
   54160216.0357320     
   54160216.0357321     
   54160216.0357321     
   54160216.0357321     
   54160216.0357321     
   54160216.0357321     
   54160216.0357320     
   54160216.0357320     
   54160216.0357321     
   54160216.0357321     
   54160216.0357321     
   54160216.0357321     
   54160216.0357320     
   54160216.0357320     
   54160216.0357320     
   54160216.0357320     
   54160216.0357320     
   54160216.0357320     
   54160216.0357320     
   54160216.0357321     
   54160216.0357322     
   54160216.0357322     
   54160216.0357323     
   54160216.0357323     
   54160216.0357323     
   54160216.0357323     
   54160216.0357323     
   53848250.6630415     
   53848250.6630415     
   53848250.6630416     
   53848250.6630416     
   53848250.6630416     
   53848250.6630416     
   53848250.6630416     
   53848250.6630417     
   53848250.6630417     
   53848250.6630417     
   53848250.6630417     
   53848250.6630418     
   53848250.6630418     
   53848250.6630418     
   53848250.6630418     
   53848250.6630418     
   53848250.6630418     
   53848250.6630418     
   53848250.6630418     
   53848250.6630417     
   53848250.6630418     
   53848250.6630417     
   53848250.6630418     
   53848250.6630419     
   53848250.6630419     
   53848250.6630419     
   53848250.6630419     
   53848250.6630418     
   53848250.6630418     
   53848250.6630419     
   53848250.6630419     
   53848250.6630420     
   53848250.6630420     
   53848250.6630420     
   53848250.6630420     
   53848250.6630419     
   53848250.6630419     
   53848250.6630419     
   53848250.6630419     
   53848250.6630419     
   53848250.6630419     
   53848250.6630419     
   53848250.6630419     
   53848250.6630420     
   53848250.6630420     
   53848250.6630420     
   53848250.6630420     
   53848250.6630420     
   53848250.6630420     
   53848250.6630420     
   53848250.6630420     
   53547288.5955769     
   53547288.5955769     
   53547288.5955769     
   53547288.5955769     
   53547288.5955769     
   53547288.5955768     
   53547288.5955768     
   53547288.5955769     
   53547288.5955769     
   53547288.5955769     
   53547288.5955769     
   53547288.5955770     
   53547288.5955770     
   53547288.5955771     
   53547288.5955771     
   53547288.5955771     
   53547288.5955771     
   53547288.5955771     
   53547288.5955771     
   53547288.5955771     
   53547288.5955771     
   53547288.5955771     
   53547288.5955772     
   53547288.5955772     
   53547288.5955772     
   53547288.5955772     
   53547288.5955773     
   53547288.5955773     
   53547288.5955774     
   53547288.5955774     
   53547288.5955773     
   53547288.5955773     
   53547288.5955773     
   53547288.5955772     
   53547288.5955772     
   53547288.5955772     
   53547288.5955772     
   53547288.5955772     
   53547288.5955771     
   53547288.5955771     
   53547288.5955771     
   53547288.5955771     
   53547288.5955771     
   53547288.5955771     
   53547288.5955772     
   53547288.5955772     
   53547288.5955773     
   53547288.5955773     
   53547288.5955773     
   53547288.5955773     
   53547288.5955773     
   53256749.1870695     
   53256749.1870695     
   53256749.1870695     
   53256749.1870695     
   53256749.1870694     
   53256749.1870694     
   53256749.1870693     
   53256749.1870693     
   53256749.1870693     
   53256749.1870693     
   53256749.1870694     
   53256749.1870693     
   53256749.1870693     
   53256749.1870693     
   53256749.1870693     
   53256749.1870694     
   53256749.1870694     
   53256749.1870695     
   53256749.1870696     
   53256749.1870696     
   53256749.1870696     
   53256749.1870696     
   53256749.1870696     
   53256749.1870696     
   53256749.1870696     
   53256749.1870697     
   53256749.1870697     
   53256749.1870697     
   53256749.1870697     
   53256749.1870697     
   53256749.1870697     
   53256749.1870697     
   53256749.1870697     
   53256749.1870696     
   53256749.1870697     
   53256749.1870696     
   53256749.1870696     
   53256749.1870696     
   53256749.1870696     
   53256749.1870696     
   53256749.1870696     
   53256749.1870696     
   53256749.1870696     
   53256749.1870696     
   53256749.1870696     
   53256749.1870696     
   53256749.1870696     
   53256749.1870696     
   53256749.1870696     
   53256749.1870697     
   53256749.1870697     
   52976015.6079429     
   52976015.6079429     
   52976015.6079429     
   52976015.6079429     
   52976015.6079428     
   52976015.6079428     
   52976015.6079429     
   52976015.6079429     
   52976015.6079429     
   52976015.6079428     
   52976015.6079428     
   52976015.6079428     
   52976015.6079428     
   52976015.6079428     
   52976015.6079428     
   52976015.6079428     
   52976015.6079428     
   52976015.6079428     
   52976015.6079429     
   52976015.6079429     
   52976015.6079430     
   52976015.6079430     
   52976015.6079430     
   52976015.6079430     
   52976015.6079430     
   52976015.6079430     
   52976015.6079430     
   52976015.6079430     
   52976015.6079430     
   52976015.6079430     
   52976015.6079429     
   52976015.6079429     
   52976015.6079429     
   52976015.6079429     
   52976015.6079428     
   52976015.6079429     
   52976015.6079429     
   52976015.6079429     
   52976015.6079429     
   52976015.6079428     
   52976015.6079428     
   52976015.6079428     
   52976015.6079428     
   52976015.6079428     
   52976015.6079428     
   52976015.6079428     
   52976015.6079428     
   52976015.6079428     
   52976015.6079428     
   52976015.6079428     
   52976015.6079428     
   52704437.4276179     
   52704437.4276179     
   52704437.4276180     
   52704437.4276180     
   52704437.4276179     
   52704437.4276179     
   52704437.4276178     
   52704437.4276178     
   52704437.4276179     
   52704437.4276178     
   52704437.4276178     
   52704437.4276179     
   52704437.4276179     
   52704437.4276179     
   52704437.4276179     
   52704437.4276179     
   52704437.4276179     
   52704437.4276179     
   52704437.4276179     
   52704437.4276179     
   52704437.4276179     
   52704437.4276179     
   52704437.4276178     
   52704437.4276179     
   52704437.4276179     
   52704437.4276179     
   52704437.4276179     
   52704437.4276179     
   52704437.4276178     
   52704437.4276178     
   52704437.4276178     
   52704437.4276177     
   52704437.4276178     
   52704437.4276177     
   52704437.4276178     
   52704437.4276178     
   52704437.4276178     
   52704437.4276178     
   52704437.4276178     
   52704437.4276178     
   52704437.4276178     
   52704437.4276178     
   52704437.4276178     
   52704437.4276178     
   52704437.4276178     
   52704437.4276179     
   52704437.4276179     
   52704437.4276179     
   52704437.4276179     
   52704437.4276180     
   52704437.4276179     
   52441333.0901497     
   52441333.0901497     
   52441333.0901497     
   52441333.0901496     
   52441333.0901497     
   52441333.0901497     
   52441333.0901497     
   52441333.0901497     
   52441333.0901497     
   52441333.0901497     
   52441333.0901497     
   52441333.0901496     
   52441333.0901496     
   52441333.0901496     
   52441333.0901496     
   52441333.0901496     
   52441333.0901496     
   52441333.0901496     
   52441333.0901495     
   52441333.0901495     
   52441333.0901495     
   52441333.0901496     
   52441333.0901496     
   52441333.0901496     
   52441333.0901496     
   52441333.0901496     
   52441333.0901496     
   52441333.0901496     
   52441333.0901496     
   52441333.0901495     
   52441333.0901495     
   52441333.0901495     
   52441333.0901495     
   52441333.0901495     
   52441333.0901495     
   52441333.0901495     
   52441333.0901495     
   52441333.0901495     
   52441333.0901495     
   52441333.0901495     
   52441333.0901496     
   52441333.0901496     
   52441333.0901496     
   52441333.0901496     
   52441333.0901496     
   52441333.0901496     
   52441333.0901496     
   52441333.0901496     
   52441333.0901496     
   52441333.0901496     
   52441333.0901496     
   52185992.2727805     
   52185992.2727805     
   52185992.2727805     
   52185992.2727805     
   52185992.2727804     
   52185992.2727804     
   52185992.2727805     
   52185992.2727805     
   52185992.2727805     
   52185992.2727805     
   52185992.2727805     
   52185992.2727805     
   52185992.2727805     
   52185992.2727804     
   52185992.2727804     
   52185992.2727804     
   52185992.2727804     
   52185992.2727804     
   52185992.2727804     
   52185992.2727803     
   52185992.2727802     
   52185992.2727802     
   52185992.2727801     
   52185992.2727801     
   52185992.2727801     
   52185992.2727802     
   52185992.2727802     
   52185992.2727802     
   52185992.2727802     
   52185992.2727802     
   52185992.2727802     
   52185992.2727802     
   52185992.2727801     
   52185992.2727801     
   52185992.2727801     
   52185992.2727801     
   52185992.2727801     
   52185992.2727801     
   52185992.2727802     
   52185992.2727802     
   52185992.2727802     
   52185992.2727802     
   52185992.2727802     
   52185992.2727802     
   52185992.2727802     
   52185992.2727802     
   52185992.2727802     
   52185992.2727802     
   52185992.2727802     
   52185992.2727802     
   52185992.2727802     
   51937678.1207321     
   51937678.1207321     
   51937678.1207320     
   51937678.1207320     
   51937678.1207320     
   51937678.1207320     
   51937678.1207320     
   51937678.1207320     
   51937678.1207320     
   51937678.1207320     
   51937678.1207320     
   51937678.1207320     
   51937678.1207320     
   51937678.1207320     
   51937678.1207320     
   51937678.1207321     
   51937678.1207321     
   51937678.1207320     
   51937678.1207320     
   51937678.1207320     
   51937678.1207319     
   51937678.1207319     
   51937678.1207319     
   51937678.1207319     
   51937678.1207319     
   51937678.1207319     
   51937678.1207319     
   51937678.1207318     
   51937678.1207318     
   51937678.1207318     
   51937678.1207318     
   51937678.1207318     
   51937678.1207318     
   51937678.1207318     
   51937678.1207318     
   51937678.1207317     
   51937678.1207317     
   51937678.1207317     
   51937678.1207317     
   51937678.1207316     
   51937678.1207316     
   51937678.1207316     
   51937678.1207316     
   51937678.1207316     
   51937678.1207315     
   51937678.1207315     
   51937678.1207315     
   51937678.1207315     
   51937678.1207315     
   51937678.1207315     
   51937678.1207315     
   51695629.3551957     
   51695629.3551957     
   51695629.3551957     
   51695629.3551956     
   51695629.3551956     
   51695629.3551956     
   51695629.3551957     
   51695629.3551957     
   51695629.3551957     
   51695629.3551958     
   51695629.3551958     
   51695629.3551958     
   51695629.3551958     
   51695629.3551958     
   51695629.3551958     
   51695629.3551958     
   51695629.3551957     
   51695629.3551956     
   51695629.3551956     
   51695629.3551956     
   51695629.3551955     
   51695629.3551955     
   51695629.3551955     
   51695629.3551955     
   51695629.3551955     
   51695629.3551955     
   51695629.3551955     
   51695629.3551955     
   51695629.3551954     
   51695629.3551954     
   51695629.3551953     
   51695629.3551953     
   51695629.3551952     
   51695629.3551952     
   51695629.3551951     
   51695629.3551951     
   51695629.3551951     
   51695629.3551951     
   51695629.3551951     
   51695629.3551951     
   51695629.3551951     
   51695629.3551950     
   51695629.3551950     
   51695629.3551950     
   51695629.3551950     
   51695629.3551950     
   51695629.3551950     
   51695629.3551950     
   51695629.3551950     
   51695629.3551950     
   51695629.3551950     
   51459062.2549555     
   51459062.2549555     
   51459062.2549555     
   51459062.2549556     
   51459062.2549556     
   51459062.2549556     
   51459062.2549556     
   51459062.2549556     
   51459062.2549556     
   51459062.2549556     
   51459062.2549556     
   51459062.2549557     
   51459062.2549557     
   51459062.2549557     
   51459062.2549556     
   51459062.2549556     
   51459062.2549556     
   51459062.2549555     
   51459062.2549555     
   51459062.2549554     
   51459062.2549554     
   51459062.2549554     
   51459062.2549553     
   51459062.2549553     
   51459062.2549552     
   51459062.2549552     
   51459062.2549552     
   51459062.2549551     
   51459062.2549551     
   51459062.2549551     
   51459062.2549551     
   51459062.2549550     
   51459062.2549550     
   51459062.2549549     
   51459062.2549549     
   51459062.2549549     
   51459062.2549549     
   51459062.2549548     
   51459062.2549548     
   51459062.2549548     
   51459062.2549549     
   51459062.2549549     
   51459062.2549549     
   51459062.2549549     
   51459062.2549549     
   51459062.2549548     
   51459062.2549548     
   51459062.2549548     
   51459062.2549548     
   51459062.2549549     
   51459062.2549549     
   51227172.5153843     
   51227172.5153843     
   51227172.5153842     
   51227172.5153842     
   51227172.5153842     
   51227172.5153842     
   51227172.5153843     
   51227172.5153843     
   51227172.5153844     
   51227172.5153844     
   51227172.5153844     
   51227172.5153844     
   51227172.5153843     
   51227172.5153843     
   51227172.5153843     
   51227172.5153843     
   51227172.5153843     
   51227172.5153843     
   51227172.5153843     
   51227172.5153843     
   51227172.5153843     
   51227172.5153842     
   51227172.5153842     
   51227172.5153841     
   51227172.5153841     
   51227172.5153840     
   51227172.5153839     
   51227172.5153838     
   51227172.5153838     
   51227172.5153838     
   51227172.5153837     
   51227172.5153837     
   51227172.5153837     
   51227172.5153837     
   51227172.5153838     
   51227172.5153838     
   51227172.5153837     
   51227172.5153837     
   51227172.5153837     
   51227172.5153836     
   51227172.5153836     
   51227172.5153835     
   51227172.5153835     
   51227172.5153836     
   51227172.5153836     
   51227172.5153836     
   51227172.5153836     
   51227172.5153835     
   51227172.5153835     
   51227172.5153835     
   51227172.5153834     
   50999136.9916410     
   50999136.9916410     
   50999136.9916410     
   50999136.9916411     
   50999136.9916411     
   50999136.9916411     
   50999136.9916411     
   50999136.9916411     
   50999136.9916412     
   50999136.9916412     
   50999136.9916412     
   50999136.9916412     
   50999136.9916412     
   50999136.9916412     
   50999136.9916412     
   50999136.9916412     
   50999136.9916412     
   50999136.9916412     
   50999136.9916412     
   50999136.9916411     
   50999136.9916411     
   50999136.9916411     
   50999136.9916410     
   50999136.9916409     
   50999136.9916408     
   50999136.9916408     
   50999136.9916407     
   50999136.9916407     
   50999136.9916406     
   50999136.9916406     
   50999136.9916406     
   50999136.9916405     
   50999136.9916405     
   50999136.9916405     
   50999136.9916405     
   50999136.9916405     
   50999136.9916405     
   50999136.9916405     
   50999136.9916405     
   50999136.9916405     
   50999136.9916405     
   50999136.9916405     
   50999136.9916405     
   50999136.9916405     
   50999136.9916404     
   50999136.9916404     
   50999136.9916404     
   50999136.9916404     
   50999136.9916404     
   50999136.9916404     
   50999136.9916404     
   50774115.3357670     
   50774115.3357670     
   50774115.3357671     
   50774115.3357671     
   50774115.3357671     
   50774115.3357671     
   50774115.3357671     
   50774115.3357672     
   50774115.3357672     
   50774115.3357672     
   50774115.3357672     
   50774115.3357672     
   50774115.3357672     
   50774115.3357673     
   50774115.3357673     
   50774115.3357673     
   50774115.3357673     
   50774115.3357673     
   50774115.3357672     
   50774115.3357673     
   50774115.3357673     
   50774115.3357672     
   50774115.3357672     
   50774115.3357671     
   50774115.3357671     
   50774115.3357670     
   50774115.3357670     
   50774115.3357669     
   50774115.3357669     
   50774115.3357668     
   50774115.3357668     
   50774115.3357668     
   50774115.3357668     
   50774115.3357667     
   50774115.3357667     
   50774115.3357667     
   50774115.3357666     
   50774115.3357666     
   50774115.3357667     
   50774115.3357667     
   50774115.3357667     
   50774115.3357667     
   50774115.3357667     
   50774115.3357666     
   50774115.3357666     
   50774115.3357667     
   50774115.3357667     
   50774115.3357666     
   50774115.3357666     
   50774115.3357666     
   50774115.3357666     
   50551251.5399879     
   50551251.5399879     
   50551251.5399879     
   50551251.5399879     
   50551251.5399879     
   50551251.5399879     
   50551251.5399880     
   50551251.5399880     
   50551251.5399879     
   50551251.5399880     
   50551251.5399880     
   50551251.5399880     
   50551251.5399881     
   50551251.5399881     
   50551251.5399881     
   50551251.5399880     
   50551251.5399880     
   50551251.5399880     
   50551251.5399880     
   50551251.5399879     
   50551251.5399880     
   50551251.5399880     
   50551251.5399880     
   50551251.5399879     
   50551251.5399879     
   50551251.5399879     
   50551251.5399879     
   50551251.5399879     
   50551251.5399879     
   50551251.5399879     
   50551251.5399879     
   50551251.5399879     
   50551251.5399879     
   50551251.5399879     
   50551251.5399879     
   50551251.5399879     
   50551251.5399879     
   50551251.5399878     
   50551251.5399878     
   50551251.5399877     
   50551251.5399877     
   50551251.5399876     
   50551251.5399876     
   50551251.5399877     
   50551251.5399877     
   50551251.5399877     
   50551251.5399877     
   50551251.5399877     
   50551251.5399877     
   50551251.5399877     
   50551251.5399877     
   50329675.4008856     
   50329675.4008856     
   50329675.4008857     
   50329675.4008857     
   50329675.4008857     
   50329675.4008856     
   50329675.4008856     
   50329675.4008857     
   50329675.4008857     
   50329675.4008857     
   50329675.4008856     
   50329675.4008856     
   50329675.4008856     
   50329675.4008856     
   50329675.4008856     
   50329675.4008856     
   50329675.4008857     
   50329675.4008856     
   50329675.4008856     
   50329675.4008856     
   50329675.4008856     
   50329675.4008857     
   50329675.4008857     
   50329675.4008857     
   50329675.4008857     
   50329675.4008857     
   50329675.4008857     
   50329675.4008857     
   50329675.4008857     
   50329675.4008857     
   50329675.4008857     
   50329675.4008857     
   50329675.4008857     
   50329675.4008857     
   50329675.4008857     
   50329675.4008857     
   50329675.4008856     
   50329675.4008856     
   50329675.4008856     
   50329675.4008856     
   50329675.4008857     
   50329675.4008857     
   50329675.4008857     
   50329675.4008857     
   50329675.4008857     
   50329675.4008857     
   50329675.4008857     
   50329675.4008856     
   50329675.4008856     
   50329675.4008857     
   50329675.4008857     
   50108503.9211791     
   50108503.9211790     
   50108503.9211790     
   50108503.9211790     
   50108503.9211790     
   50108503.9211790     
   50108503.9211789     
   50108503.9211789     
   50108503.9211788     
   50108503.9211788     
   50108503.9211788     
   50108503.9211788     
   50108503.9211788     
   50108503.9211788     
   50108503.9211789     
   50108503.9211789     
   50108503.9211789     
   50108503.9211789     
   50108503.9211789     
   50108503.9211789     
   50108503.9211789     
   50108503.9211790     
   50108503.9211790     
   50108503.9211789     
   50108503.9211789     
   50108503.9211789     
   50108503.9211790     
   50108503.9211790     
   50108503.9211790     
   50108503.9211790     
   50108503.9211790     
   50108503.9211791     
   50108503.9211791     
   50108503.9211791     
   50108503.9211791     
   50108503.9211791     
   50108503.9211791     
   50108503.9211791     
   50108503.9211792     
   50108503.9211792     
   50108503.9211791     
   50108503.9211792     
   50108503.9211792     
   50108503.9211792     
   50108503.9211792     
   50108503.9211792     
   50108503.9211792     
   50108503.9211792     
   50108503.9211793     
   50108503.9211793     
   50108503.9211793     
   49886842.6676374     
   49886842.6676374     
   49886842.6676374     
   49886842.6676374     
   49886842.6676375     
   49886842.6676375     
   49886842.6676374     
   49886842.6676374     
   49886842.6676373     
   49886842.6676373     
   49886842.6676372     
   49886842.6676372     
   49886842.6676372     
   49886842.6676372     
   49886842.6676372     
   49886842.6676372     
   49886842.6676372     
   49886842.6676372     
   49886842.6676372     
   49886842.6676372     
   49886842.6676372     
   49886842.6676372     
   49886842.6676372     
   49886842.6676372     
   49886842.6676372     
   49886842.6676372     
   49886842.6676372     
   49886842.6676372     
   49886842.6676372     
   49886842.6676372     
   49886842.6676373     
   49886842.6676373     
   49886842.6676373     
   49886842.6676373     
   49886842.6676372     
   49886842.6676373     
   49886842.6676373     
   49886842.6676373     
   49886842.6676373     
   49886842.6676374     
   49886842.6676374     
   49886842.6676374     
   49886842.6676375     
   49886842.6676375     
   49886842.6676375     
   49886842.6676375     
   49886842.6676375     
   49886842.6676376     
   49886842.6676376     
   49886842.6676376     
   49886842.6676376     
   49663787.1051464     
   49663787.1051464     
   49663787.1051464     
   49663787.1051464     
   49663787.1051464     
   49663787.1051463     
   49663787.1051463     
   49663787.1051463     
   49663787.1051462     
   49663787.1051461     
   49663787.1051461     
   49663787.1051460     
   49663787.1051460     
   49663787.1051460     
   49663787.1051460     
   49663787.1051460     
   49663787.1051460     
   49663787.1051461     
   49663787.1051461     
   49663787.1051461     
   49663787.1051460     
   49663787.1051460     
   49663787.1051460     
   49663787.1051460     
   49663787.1051459     
   49663787.1051459     
   49663787.1051459     
   49663787.1051459     
   49663787.1051459     
   49663787.1051459     
   49663787.1051460     
   49663787.1051460     
   49663787.1051461     
   49663787.1051461     
   49663787.1051462     
   49663787.1051462     
   49663787.1051463     
   49663787.1051463     
   49663787.1051463     
   49663787.1051463     
   49663787.1051463     
   49663787.1051463     
   49663787.1051464     
   49663787.1051464     
   49663787.1051464     
   49663787.1051465     
   49663787.1051465     
   49663787.1051465     
   49663787.1051465     
   49663787.1051466     
   49663787.1051465     
   49438423.9281277     
   49438423.9281277     
   49438423.9281277     
   49438423.9281277     
   49438423.9281278     
   49438423.9281278     
   49438423.9281278     
   49438423.9281277     
   49438423.9281276     
   49438423.9281276     
   49438423.9281276     
   49438423.9281276     
   49438423.9281276     
   49438423.9281276     
   49438423.9281276     
   49438423.9281276     
   49438423.9281276     
   49438423.9281275     
   49438423.9281275     
   49438423.9281274     
   49438423.9281274     
   49438423.9281274     
   49438423.9281274     
   49438423.9281274     
   49438423.9281274     
   49438423.9281274     
   49438423.9281274     
   49438423.9281274     
   49438423.9281275     
   49438423.9281275     
   49438423.9281276     
   49438423.9281276     
   49438423.9281277     
   49438423.9281277     
   49438423.9281277     
   49438423.9281278     
   49438423.9281278     
   49438423.9281278     
   49438423.9281279     
   49438423.9281279     
   49438423.9281279     
   49438423.9281279     
   49438423.9281280     
   49438423.9281280     
   49438423.9281280     
   49438423.9281280     
   49438423.9281280     
   49438423.9281279     
   49438423.9281279     
   49438423.9281279     
   49438423.9281279     
   49209832.4113903     
   49209832.4113903     
   49209832.4113903     
   49209832.4113903     
   49209832.4113902     
   49209832.4113902     
   49209832.4113902     
   49209832.4113902     
   49209832.4113903     
   49209832.4113903     
   49209832.4113903     
   49209832.4113903     
   49209832.4113903     
   49209832.4113902     
   49209832.4113902     
   49209832.4113902     
   49209832.4113902     
   49209832.4113902     
   49209832.4113901     
   49209832.4113901     
   49209832.4113901     
   49209832.4113901     
   49209832.4113901     
   49209832.4113901     
   49209832.4113901     
   49209832.4113902     
   49209832.4113902     
   49209832.4113902     
   49209832.4113903     
   49209832.4113903     
   49209832.4113903     
   49209832.4113903     
   49209832.4113904     
   49209832.4113904     
   49209832.4113904     
   49209832.4113904     
   49209832.4113904     
   49209832.4113905     
   49209832.4113905     
   49209832.4113906     
   49209832.4113906     
   49209832.4113906     
   49209832.4113906     
   49209832.4113907     
   49209832.4113907     
   49209832.4113907     
   49209832.4113907     
   49209832.4113907     
   49209832.4113907     
   49209832.4113906     
   49209832.4113907     
   48977085.8030332     
   48977085.8030331     
   48977085.8030331     
   48977085.8030331     
   48977085.8030331     
   48977085.8030331     
   48977085.8030332     
   48977085.8030332     
   48977085.8030332     
   48977085.8030332     
   48977085.8030332     
   48977085.8030332     
   48977085.8030332     
   48977085.8030331     
   48977085.8030331     
   48977085.8030331     
   48977085.8030331     
   48977085.8030330     
   48977085.8030331     
   48977085.8030331     
   48977085.8030330     
   48977085.8030331     
   48977085.8030331     
   48977085.8030331     
   48977085.8030331     
   48977085.8030332     
   48977085.8030332     
   48977085.8030332     
   48977085.8030332     
   48977085.8030333     
   48977085.8030333     
   48977085.8030334     
   48977085.8030334     
   48977085.8030334     
   48977085.8030334     
   48977085.8030334     
   48977085.8030334     
   48977085.8030335     
   48977085.8030335     
   48977085.8030335     
   48977085.8030335     
   48977085.8030336     
   48977085.8030336     
   48977085.8030337     
   48977085.8030337     
   48977085.8030337     
   48977085.8030337     
   48977085.8030337     
   48977085.8030338     
   48977085.8030338     
   48977085.8030339     
   48739252.7822497     
   48739252.7822497     
   48739252.7822497     
   48739252.7822497     
   48739252.7822497     
   48739252.7822497     
   48739252.7822497     
   48739252.7822497     
   48739252.7822498     
   48739252.7822498     
   48739252.7822498     
   48739252.7822497     
   48739252.7822496     
   48739252.7822496     
   48739252.7822496     
   48739252.7822495     
   48739252.7822496     
   48739252.7822496     
   48739252.7822496     
   48739252.7822496     
   48739252.7822496     
   48739252.7822497     
   48739252.7822497     
   48739252.7822498     
   48739252.7822498     
   48739252.7822498     
   48739252.7822498     
   48739252.7822499     
   48739252.7822499     
   48739252.7822500     
   48739252.7822499     
   48739252.7822499     
   48739252.7822499     
   48739252.7822499     
   48739252.7822499     
   48739252.7822500     
   48739252.7822500     
   48739252.7822500     
   48739252.7822500     
   48739252.7822501     
   48739252.7822502     
   48739252.7822502     
   48739252.7822502     
   48739252.7822503     
   48739252.7822503     
   48739252.7822504     
   48739252.7822504     
   48739252.7822505     
   48739252.7822505     
   48739252.7822505     
   48739252.7822505     
   48495399.0047615     
   48495399.0047615     
   48495399.0047616     
   48495399.0047616     
   48495399.0047617     
   48495399.0047617     
   48495399.0047617     
   48495399.0047617     
   48495399.0047617     
   48495399.0047617     
   48495399.0047616     
   48495399.0047616     
   48495399.0047617     
   48495399.0047617     
   48495399.0047617     
   48495399.0047617     
   48495399.0047617     
   48495399.0047617     
   48495399.0047617     
   48495399.0047617     
   48495399.0047618     
   48495399.0047618     
   48495399.0047618     
   48495399.0047619     
   48495399.0047619     
   48495399.0047619     
   48495399.0047620     
   48495399.0047620     
   48495399.0047619     
   48495399.0047619     
   48495399.0047619     
   48495399.0047620     
   48495399.0047620     
   48495399.0047620     
   48495399.0047620     
   48495399.0047620     
   48495399.0047620     
   48495399.0047620     
   48495399.0047621     
   48495399.0047621     
   48495399.0047622     
   48495399.0047623     
   48495399.0047624     
   48495399.0047624     
   48495399.0047625     
   48495399.0047625     
   48495399.0047625     
   48495399.0047625     
   48495399.0047625     
   48495399.0047625     
   48495399.0047625     
   48244588.7581549     
   48244588.7581549     
   48244588.7581549     
   48244588.7581549     
   48244588.7581549     
   48244588.7581550     
   48244588.7581550     
   48244588.7581550     
   48244588.7581550     
   48244588.7581550     
   48244588.7581550     
   48244588.7581550     
   48244588.7581550     
   48244588.7581551     
   48244588.7581551     
   48244588.7581551     
   48244588.7581552     
   48244588.7581552     
   48244588.7581553     
   48244588.7581553     
   48244588.7581553     
   48244588.7581554     
   48244588.7581554     
   48244588.7581553     
   48244588.7581553     
   48244588.7581554     
   48244588.7581554     
   48244588.7581554     
   48244588.7581554     
   48244588.7581554     
   48244588.7581555     
   48244588.7581555     
   48244588.7581554     
   48244588.7581554     
   48244588.7581555     
   48244588.7581555     
   48244588.7581556     
   48244588.7581556     
   48244588.7581556     
   48244588.7581556     
   48244588.7581556     
   48244588.7581556     
   48244588.7581557     
   48244588.7581557     
   48244588.7581557     
   48244588.7581557     
   48244588.7581557     
   48244588.7581558     
   48244588.7581558     
   48244588.7581558     
   48244588.7581558     
   47985886.7485773     
   47985886.7485772     
   47985886.7485772     
   47985886.7485772     
   47985886.7485772     
   47985886.7485772     
   47985886.7485772     
   47985886.7485772     
   47985886.7485772     
   47985886.7485772     
   47985886.7485772     
   47985886.7485772     
   47985886.7485772     
   47985886.7485772     
   47985886.7485772     
   47985886.7485773     
   47985886.7485773     
   47985886.7485773     
   47985886.7485773     
   47985886.7485774     
   47985886.7485774     
   47985886.7485775     
   47985886.7485775     
   47985886.7485776     
   47985886.7485776     
   47985886.7485776     
   47985886.7485777     
   47985886.7485777     
   47985886.7485777     
   47985886.7485777     
   47985886.7485777     
   47985886.7485777     
   47985886.7485777     
   47985886.7485778     
   47985886.7485778     
   47985886.7485778     
   47985886.7485778     
   47985886.7485777     
   47985886.7485777     
   47985886.7485777     
   47985886.7485777     
   47985886.7485778     
   47985886.7485778     
   47985886.7485778     
   47985886.7485778     
   47985886.7485778     
   47985886.7485778     
   47985886.7485778     
   47985886.7485777     
   47985886.7485777     
   47985886.7485777     
   47718360.0390879     
   47718360.0390879     
   47718360.0390880     
   47718360.0390880     
   47718360.0390879     
   47718360.0390879     
   47718360.0390879     
   47718360.0390878     
   47718360.0390878     
   47718360.0390879     
   47718360.0390879     
   47718360.0390879     
   47718360.0390880     
   47718360.0390880     
   47718360.0390879     
   47718360.0390880     
   47718360.0390880     
   47718360.0390880     
   47718360.0390880     
   47718360.0390881     
   47718360.0390881     
   47718360.0390882     
   47718360.0390882     
   47718360.0390882     
   47718360.0390883     
   47718360.0390883     
   47718360.0390883     
   47718360.0390883     
   47718360.0390883     
   47718360.0390883     
   47718360.0390883     
   47718360.0390884     
   47718360.0390884     
   47718360.0390884     
   47718360.0390883     
   47718360.0390883     
   47718360.0390883     
   47718360.0390882     
   47718360.0390882     
   47718360.0390882     
   47718360.0390882     
   47718360.0390882     
   47718360.0390882     
   47718360.0390882     
   47718360.0390883     
   47718360.0390882     
   47718360.0390882     
   47718360.0390883     
   47718360.0390882     
   47718360.0390882     
   47718360.0390882     
   47441080.1584230     
   47441080.1584230     
   47441080.1584229     
   47441080.1584229     
   47441080.1584228     
   47441080.1584228     
   47441080.1584229     
   47441080.1584229     
   47441080.1584229     
   47441080.1584229     
   47441080.1584229     
   47441080.1584229     
   47441080.1584230     
   47441080.1584229     
   47441080.1584229     
   47441080.1584229     
   47441080.1584229     
   47441080.1584230     
   47441080.1584230     
   47441080.1584230     
   47441080.1584229     
   47441080.1584229     
   47441080.1584229     
   47441080.1584230     
   47441080.1584230     
   47441080.1584230     
   47441080.1584231     
   47441080.1584231     
   47441080.1584231     
   47441080.1584231     
   47441080.1584231     
   47441080.1584230     
   47441080.1584230     
   47441080.1584230     
   47441080.1584230     
   47441080.1584230     
   47441080.1584231     
   47441080.1584230     
   47441080.1584230     
   47441080.1584230     
   47441080.1584230     
   47441080.1584230     
   47441080.1584230     
   47441080.1584230     
   47441080.1584230     
   47441080.1584230     
   47441080.1584230     
   47441080.1584230     
   47441080.1584230     
   47441080.1584230     
   47441080.1584230     
   47153125.3970323     
   47153125.3970323     
   47153125.3970323     
   47153125.3970324     
   47153125.3970323     
   47153125.3970323     
   47153125.3970323     
   47153125.3970322     
   47153125.3970322     
   47153125.3970322     
   47153125.3970321     
   47153125.3970321     
   47153125.3970321     
   47153125.3970321     
   47153125.3970321     
   47153125.3970321     
   47153125.3970322     
   47153125.3970321     
   47153125.3970322     
   47153125.3970322     
   47153125.3970323     
   47153125.3970323     
   47153125.3970323     
   47153125.3970323     
   47153125.3970323     
   47153125.3970323     
   47153125.3970323     
   47153125.3970323     
   47153125.3970323     
   47153125.3970323     
   47153125.3970323     
   47153125.3970323     
   47153125.3970323     
   47153125.3970323     
   47153125.3970323     
   47153125.3970322     
   47153125.3970322     
   47153125.3970323     
   47153125.3970323     
   47153125.3970323     
   47153125.3970323     
   47153125.3970323     
   47153125.3970323     
   47153125.3970323     
   47153125.3970322     
   47153125.3970322     
   47153125.3970322     
   47153125.3970321     
   47153125.3970321     
   47153125.3970321     
   47153125.3970321     
   46853583.3049794     
   46853583.3049794     
   46853583.3049794     
   46853583.3049794     
   46853583.3049794     
   46853583.3049794     
   46853583.3049793     
   46853583.3049793     
   46853583.3049793     
   46853583.3049793     
   46853583.3049793     
   46853583.3049793     
   46853583.3049793     
   46853583.3049792     
   46853583.3049792     
   46853583.3049792     
   46853583.3049792     
   46853583.3049792     
   46853583.3049791     
   46853583.3049791     
   46853583.3049791     
   46853583.3049791     
   46853583.3049792     
   46853583.3049792     
   46853583.3049792     
   46853583.3049792     
   46853583.3049793     
   46853583.3049793     
   46853583.3049793     
   46853583.3049793     
   46853583.3049794     
   46853583.3049794     
   46853583.3049794     
   46853583.3049793     
   46853583.3049794     
   46853583.3049794     
   46853583.3049794     
   46853583.3049794     
   46853583.3049793     
   46853583.3049793     
   46853583.3049793     
   46853583.3049793     
   46853583.3049793     
   46853583.3049792     
   46853583.3049792     
   46853583.3049792     
   46853583.3049791     
   46853583.3049791     
   46853583.3049791     
   46853583.3049791     
   46853583.3049791     
   46541553.4036488     
   46541553.4036488     
   46541553.4036488     
   46541553.4036488     
   46541553.4036488     
   46541553.4036488     
   46541553.4036488     
   46541553.4036488     
   46541553.4036488     
   46541553.4036487     
   46541553.4036487     
   46541553.4036487     
   46541553.4036488     
   46541553.4036488     
   46541553.4036488     
   46541553.4036488     
   46541553.4036487     
   46541553.4036487     
   46541553.4036487     
   46541553.4036487     
   46541553.4036487     
   46541553.4036487     
   46541553.4036487     
   46541553.4036487     
   46541553.4036487     
   46541553.4036487     
   46541553.4036488     
   46541553.4036488     
   46541553.4036488     
   46541553.4036488     
   46541553.4036488     
   46541553.4036488     
   46541553.4036489     
   46541553.4036489     
   46541553.4036488     
   46541553.4036488     
   46541553.4036488     
   46541553.4036488     
   46541553.4036488     
   46541553.4036488     
   46541553.4036487     
   46541553.4036487     
   46541553.4036487     
   46541553.4036487     
   46541553.4036486     
   46541553.4036486     
   46541553.4036486     
   46541553.4036485     
   46541553.4036485     
   46541553.4036485     
   46541553.4036485     
   46216150.1202002     
   46216150.1202002     
   46216150.1202002     
   46216150.1202002     
   46216150.1202002     
   46216150.1202002     
   46216150.1202002     
   46216150.1202002     
   46216150.1202002     
   46216150.1202003     
   46216150.1202003     
   46216150.1202003     
   46216150.1202003     
   46216150.1202003     
   46216150.1202003     
   46216150.1202003     
   46216150.1202003     
   46216150.1202003     
   46216150.1202003     
   46216150.1202003     
   46216150.1202003     
   46216150.1202003     
   46216150.1202003     
   46216150.1202003     
   46216150.1202003     
   46216150.1202003     
   46216150.1202003     
   46216150.1202002     
   46216150.1202002     
   46216150.1202002     
   46216150.1202001     
   46216150.1202002     
   46216150.1202002     
   46216150.1202002     
   46216150.1202002     
   46216150.1202002     
   46216150.1202002     
   46216150.1202002     
   46216150.1202002     
   46216150.1202002     
   46216150.1202001     
   46216150.1202001     
   46216150.1202001     
   46216150.1202001     
   46216150.1202001     
   46216150.1202001     
   46216150.1202001     
   46216150.1202000     
   46216150.1202000     
   46216150.1202000     
   46216150.1202000     
   45876505.9503343     
   45876505.9503343     
   45876505.9503343     
   45876505.9503343     
   45876505.9503343     
   45876505.9503343     
   45876505.9503343     
   45876505.9503343     
   45876505.9503344     
   45876505.9503344     
   45876505.9503344     
   45876505.9503344     
   45876505.9503344     
   45876505.9503344     
   45876505.9503344     
   45876505.9503344     
   45876505.9503344     
   45876505.9503344     
   45876505.9503344     
   45876505.9503344     
   45876505.9503344     
   45876505.9503344     
   45876505.9503344     
   45876505.9503344     
   45876505.9503344     
   45876505.9503344     
   45876505.9503344     
   45876505.9503344     
   45876505.9503343     
   45876505.9503343     
   45876505.9503343     
   45876505.9503343     
   45876505.9503344     
   45876505.9503344     
   45876505.9503344     
   45876505.9503344     
   45876505.9503344     
   45876505.9503344     
   45876505.9503344     
   45876505.9503344     
   45876505.9503344     
   45876505.9503343     
   45876505.9503343     
   45876505.9503343     
   45876505.9503343     
   45876505.9503343     
   45876505.9503343     
   45876505.9503342     
   45876505.9503343     
   45876505.9503343     
   45876505.9503343     
   45521774.8512215     
   45521774.8512215     
   45521774.8512215     
   45521774.8512216     
   45521774.8512216     
   45521774.8512216     
   45521774.8512216     
   45521774.8512216     
   45521774.8512215     
   45521774.8512215     
   45521774.8512215     
   45521774.8512215     
   45521774.8512216     
   45521774.8512216     
   45521774.8512216     
   45521774.8512216     
   45521774.8512215     
   45521774.8512216     
   45521774.8512216     
   45521774.8512216     
   45521774.8512216     
   45521774.8512216     
   45521774.8512216     
   45521774.8512216     
   45521774.8512216     
   45521774.8512216     
   45521774.8512216     
   45521774.8512216     
   45521774.8512216     
   45521774.8512216     
   45521774.8512216     
   45521774.8512216     
   45521774.8512216     
   45521774.8512216     
   45521774.8512216     
   45521774.8512216     
   45521774.8512216     
   45521774.8512216     
   45521774.8512216     
   45521774.8512216     
   45521774.8512216     
   45521774.8512216     
   45521774.8512216     
   45521774.8512216     
   45521774.8512216     
   45521774.8512216     
   45521774.8512216     
   45521774.8512216     
   45521774.8512216     
   45521774.8512216     
   45521774.8512216     
   45151135.8623930     
   45151135.8623930     
   45151135.8623930     
   45151135.8623930     
   45151135.8623930     
   45151135.8623930     
   45151135.8623930     
   45151135.8623930     
   45151135.8623930     
   45151135.8623930     
   45151135.8623930     
   45151135.8623930     
   45151135.8623930     
   45151135.8623930     
   45151135.8623930     
   45151135.8623930     
   45151135.8623931     
   45151135.8623931     
   45151135.8623931     
   45151135.8623931     
   45151135.8623931     
   45151135.8623931     
   45151135.8623931     
   45151135.8623931     
   45151135.8623931     
   45151135.8623931     
   45151135.8623931     
   45151135.8623931     
   45151135.8623931     
   45151135.8623931     
   45151135.8623931     
   45151135.8623931     
   45151135.8623931     
   45151135.8623931     
   45151135.8623932     
   45151135.8623932     
   45151135.8623932     
   45151135.8623932     
   45151135.8623932     
   45151135.8623932     
   45151135.8623932     
   45151135.8623932     
   45151135.8623932     
   45151135.8623932     
   45151135.8623932     
   45151135.8623932     
   45151135.8623932     
   45151135.8623933     
   45151135.8623933     
   45151135.8623934     
   45151135.8623934     
   44763796.9480404     
   44763796.9480404     
   44763796.9480405     
   44763796.9480405     
   44763796.9480405     
   44763796.9480405     
   44763796.9480405     
   44763796.9480405     
   44763796.9480406     
   44763796.9480406     
   44763796.9480406     
   44763796.9480406     
   44763796.9480406     
   44763796.9480406     
   44763796.9480406     
   44763796.9480406     
   44763796.9480407     
   44763796.9480407     
   44763796.9480407     
   44763796.9480407     
   44763796.9480407     
   44763796.9480407     
   44763796.9480406     
   44763796.9480406     
   44763796.9480406     
   44763796.9480406     
   44763796.9480406     
   44763796.9480407     
   44763796.9480407     
   44763796.9480407     
   44763796.9480407     
   44763796.9480408     
   44763796.9480408     
   44763796.9480408     
   44763796.9480408     
   44763796.9480408     
   44763796.9480409     
   44763796.9480409     
   44763796.9480409     
   44763796.9480410     
   44763796.9480410     
   44763796.9480410     
   44763796.9480410     
   44763796.9480410     
   44763796.9480411     
   44763796.9480411     
   44763796.9480411     
   44763796.9480411     
   44763796.9480412     
   44763796.9480412     
   44763796.9480412     
   44358999.0495472     
   44358999.0495472     
   44358999.0495472     
   44358999.0495472     
   44358999.0495472     
   44358999.0495472     
   44358999.0495472     
   44358999.0495472     
   44358999.0495472     
   44358999.0495472     
   44358999.0495471     
   44358999.0495472     
   44358999.0495472     
   44358999.0495472     
   44358999.0495472     
   44358999.0495472     
   44358999.0495472     
   44358999.0495471     
   44358999.0495471     
   44358999.0495471     
   44358999.0495471     
   44358999.0495470     
   44358999.0495470     
   44358999.0495470     
   44358999.0495470     
   44358999.0495471     
   44358999.0495472     
   44358999.0495472     
   44358999.0495472     
   44358999.0495472     
   44358999.0495472     
   44358999.0495472     
   44358999.0495473     
   44358999.0495473     
   44358999.0495474     
   44358999.0495474     
   44358999.0495475     
   44358999.0495475     
   44358999.0495476     
   44358999.0495476     
   44358999.0495477     
   44358999.0495477     
   44358999.0495477     
   44358999.0495478     
   44358999.0495477     
   44358999.0495478     
   44358999.0495478     
   44358999.0495478     
   44358999.0495479     
   44358999.0495478     
   44358999.0495478     
   43936020.3322068     
   43936020.3322068     
   43936020.3322068     
   43936020.3322068     
   43936020.3322068     
   43936020.3322068     
   43936020.3322068     
   43936020.3322068     
   43936020.3322068     
   43936020.3322069     
   43936020.3322069     
   43936020.3322068     
   43936020.3322068     
   43936020.3322068     
   43936020.3322068     
   43936020.3322068     
   43936020.3322068     
   43936020.3322068     
   43936020.3322068     
   43936020.3322068     
   43936020.3322069     
   43936020.3322069     
   43936020.3322069     
   43936020.3322069     
   43936020.3322069     
   43936020.3322069     
   43936020.3322069     
   43936020.3322069     
   43936020.3322069     
   43936020.3322069     
   43936020.3322069     
   43936020.3322070     
   43936020.3322070     
   43936020.3322070     
   43936020.3322071     
   43936020.3322071     
   43936020.3322072     
   43936020.3322072     
   43936020.3322073     
   43936020.3322073     
   43936020.3322074     
   43936020.3322074     
   43936020.3322074     
   43936020.3322074     
   43936020.3322074     
   43936020.3322074     
   43936020.3322074     
   43936020.3322074     
   43936020.3322074     
   43936020.3322075     
   43936020.3322075     
   43494180.6050531     
   43494180.6050531     
   43494180.6050532     
   43494180.6050532     
   43494180.6050532     
   43494180.6050532     
   43494180.6050532     
   43494180.6050532     
   43494180.6050533     
   43494180.6050532     
   43494180.6050532     
   43494180.6050532     
   43494180.6050532     
   43494180.6050532     
   43494180.6050532     
   43494180.6050532     
   43494180.6050532     
   43494180.6050532     
   43494180.6050532     
   43494180.6050532     
   43494180.6050532     
   43494180.6050532     
   43494180.6050532     
   43494180.6050532     
   43494180.6050532     
   43494180.6050532     
   43494180.6050532     
   43494180.6050532     
   43494180.6050532     
   43494180.6050532     
   43494180.6050532     
   43494180.6050532     
   43494180.6050532     
   43494180.6050533     
   43494180.6050533     
   43494180.6050534     
   43494180.6050535     
   43494180.6050536     
   43494180.6050536     
   43494180.6050536     
   43494180.6050537     
   43494180.6050537     
   43494180.6050537     
   43494180.6050537     
   43494180.6050538     
   43494180.6050538     
   43494180.6050538     
   43494180.6050538     
   43494180.6050538     
   43494180.6050538     
   43494180.6050538     
   43032845.8875439     
   43032845.8875440     
   43032845.8875439     
   43032845.8875440     
   43032845.8875440     
   43032845.8875440     
   43032845.8875440     
   43032845.8875440     
   43032845.8875440     
   43032845.8875440     
   43032845.8875440     
   43032845.8875440     
   43032845.8875440     
   43032845.8875441     
   43032845.8875441     
   43032845.8875440     
   43032845.8875440     
   43032845.8875440     
   43032845.8875441     
   43032845.8875441     
   43032845.8875441     
   43032845.8875441     
   43032845.8875440     
   43032845.8875440     
   43032845.8875440     
   43032845.8875440     
   43032845.8875439     
   43032845.8875439     
   43032845.8875439     
   43032845.8875439     
   43032845.8875439     
   43032845.8875440     
   43032845.8875440     
   43032845.8875441     
   43032845.8875442     
   43032845.8875443     
   43032845.8875443     
   43032845.8875443     
   43032845.8875443     
   43032845.8875443     
   43032845.8875443     
   43032845.8875443     
   43032845.8875444     
   43032845.8875444     
   43032845.8875444     
   43032845.8875444     
   43032845.8875444     
   43032845.8875443     
   43032845.8875444     
   43032845.8875444     
   43032845.8875443     
   42551433.0916301     
   42551433.0916301     
   42551433.0916301     
   42551433.0916301     
   42551433.0916301     
   42551433.0916301     
   42551433.0916301     
   42551433.0916300     
   42551433.0916300     
   42551433.0916300     
   42551433.0916300     
   42551433.0916300     
   42551433.0916300     
   42551433.0916300     
   42551433.0916300     
   42551433.0916300     
   42551433.0916300     
   42551433.0916300     
   42551433.0916300     
   42551433.0916300     
   42551433.0916300     
   42551433.0916300     
   42551433.0916299     
   42551433.0916299     
   42551433.0916299     
   42551433.0916299     
   42551433.0916298     
   42551433.0916298     
   42551433.0916298     
   42551433.0916298     
   42551433.0916298     
   42551433.0916298     
   42551433.0916298     
   42551433.0916298     
   42551433.0916298     
   42551433.0916299     
   42551433.0916299     
   42551433.0916300     
   42551433.0916300     
   42551433.0916300     
   42551433.0916300     
   42551433.0916300     
   42551433.0916301     
   42551433.0916301     
   42551433.0916301     
   42551433.0916301     
   42551433.0916300     
   42551433.0916300     
   42551433.0916299     
   42551433.0916299     
   42551433.0916299     
   42049414.7825305     
   42049414.7825305     
   42049414.7825305     
   42049414.7825305     
   42049414.7825305     
   42049414.7825305     
   42049414.7825305     
   42049414.7825305     
   42049414.7825304     
   42049414.7825304     
   42049414.7825304     
   42049414.7825305     
   42049414.7825305     
   42049414.7825305     
   42049414.7825305     
   42049414.7825305     
   42049414.7825305     
   42049414.7825304     
   42049414.7825304     
   42049414.7825304     
   42049414.7825303     
   42049414.7825303     
   42049414.7825303     
   42049414.7825302     
   42049414.7825302     
   42049414.7825301     
   42049414.7825301     
   42049414.7825300     
   42049414.7825300     
   42049414.7825300     
   42049414.7825300     
   42049414.7825300     
   42049414.7825300     
   42049414.7825300     
   42049414.7825301     
   42049414.7825301     
   42049414.7825301     
   42049414.7825302     
   42049414.7825302     
   42049414.7825302     
   42049414.7825302     
   42049414.7825302     
   42049414.7825302     
   42049414.7825302     
   42049414.7825302     
   42049414.7825301     
   42049414.7825301     
   42049414.7825301     
   42049414.7825301     
   42049414.7825301     
   42049414.7825301     
   41526323.9764480     
   41526323.9764480     
   41526323.9764480     
   41526323.9764480     
   41526323.9764480     
   41526323.9764480     
   41526323.9764480     
   41526323.9764480     
   41526323.9764480     
   41526323.9764480     
   41526323.9764479     
   41526323.9764479     
   41526323.9764479     
   41526323.9764480     
   41526323.9764480     
   41526323.9764480     
   41526323.9764480     
   41526323.9764480     
   41526323.9764479     
   41526323.9764479     
   41526323.9764479     
   41526323.9764478     
   41526323.9764478     
   41526323.9764478     
   41526323.9764478     
   41526323.9764477     
   41526323.9764477     
   41526323.9764476     
   41526323.9764476     
   41526323.9764476     
   41526323.9764475     
   41526323.9764475     
   41526323.9764475     
   41526323.9764475     
   41526323.9764475     
   41526323.9764476     
   41526323.9764476     
   41526323.9764476     
   41526323.9764476     
   41526323.9764476     
   41526323.9764476     
   41526323.9764476     
   41526323.9764476     
   41526323.9764476     
   41526323.9764475     
   41526323.9764474     
   41526323.9764474     
   41526323.9764474     
   41526323.9764474     
   41526323.9764474     
   41526323.9764474     
   40981758.9285683     
   40981758.9285683     
   40981758.9285683     
   40981758.9285683     
   40981758.9285683     
   40981758.9285683     
   40981758.9285683     
   40981758.9285683     
   40981758.9285683     
   40981758.9285683     
   40981758.9285683     
   40981758.9285683     
   40981758.9285683     
   40981758.9285683     
   40981758.9285683     
   40981758.9285683     
   40981758.9285683     
   40981758.9285683     
   40981758.9285683     
   40981758.9285682     
   40981758.9285682     
   40981758.9285682     
   40981758.9285681     
   40981758.9285681     
   40981758.9285680     
   40981758.9285680     
   40981758.9285679     
   40981758.9285679     
   40981758.9285678     
   40981758.9285678     
   40981758.9285678     
   40981758.9285678     
   40981758.9285678     
   40981758.9285677     
   40981758.9285678     
   40981758.9285677     
   40981758.9285677     
   40981758.9285678     
   40981758.9285678     
   40981758.9285678     
   40981758.9285678     
   40981758.9285678     
   40981758.9285678     
   40981758.9285678     
   40981758.9285678     
   40981758.9285678     
   40981758.9285678     
   40981758.9285677     
   40981758.9285677     
   40981758.9285677     
   40981758.9285677     
   40415387.8601155     
   40415387.8601155     
   40415387.8601155     
   40415387.8601155     
   40415387.8601155     
   40415387.8601155     
   40415387.8601155     
   40415387.8601155     
   40415387.8601156     
   40415387.8601156     
   40415387.8601156     
   40415387.8601156     
   40415387.8601156     
   40415387.8601156     
   40415387.8601156     
   40415387.8601156     
   40415387.8601156     
   40415387.8601155     
   40415387.8601155     
   40415387.8601155     
   40415387.8601154     
   40415387.8601154     
   40415387.8601153     
   40415387.8601153     
   40415387.8601153     
   40415387.8601152     
   40415387.8601151     
   40415387.8601151     
   40415387.8601151     
   40415387.8601150     
   40415387.8601150     
   40415387.8601150     
   40415387.8601150     
   40415387.8601150     
   40415387.8601150     
   40415387.8601150     
   40415387.8601150     
   40415387.8601150     
   40415387.8601150     
   40415387.8601150     
   40415387.8601150     
   40415387.8601150     
   40415387.8601150     
   40415387.8601150     
   40415387.8601150     
   40415387.8601150     
   40415387.8601150     
   40415387.8601150     
   40415387.8601150     
   40415387.8601150     
   40415387.8601150     
   39826953.5690817     
   39826953.5690817     
   39826953.5690817     
   39826953.5690817     
   39826953.5690817     
   39826953.5690817     
   39826953.5690817     
   39826953.5690818     
   39826953.5690818     
   39826953.5690817     
   39826953.5690817     
   39826953.5690817     
   39826953.5690817     
   39826953.5690817     
   39826953.5690817     
   39826953.5690817     
   39826953.5690817     
   39826953.5690817     
   39826953.5690817     
   39826953.5690816     
   39826953.5690816     
   39826953.5690815     
   39826953.5690815     
   39826953.5690815     
   39826953.5690814     
   39826953.5690814     
   39826953.5690813     
   39826953.5690813     
   39826953.5690813     
   39826953.5690813     
   39826953.5690813     
   39826953.5690813     
   39826953.5690813     
   39826953.5690812     
   39826953.5690812     
   39826953.5690812     
   39826953.5690812     
   39826953.5690812     
   39826953.5690812     
   39826953.5690812     
   39826953.5690812     
   39826953.5690812     
   39826953.5690812     
   39826953.5690812     
   39826953.5690812     
   39826953.5690812     
   39826953.5690812     
   39826953.5690812     
   39826953.5690811     
   39826953.5690811     
   39826953.5690811     
   39216277.8656336     
   39216277.8656336     
   39216277.8656336     
   39216277.8656336     
   39216277.8656336     
   39216277.8656336     
   39216277.8656336     
   39216277.8656336     
   39216277.8656336     
   39216277.8656336     
   39216277.8656335     
   39216277.8656335     
   39216277.8656335     
   39216277.8656335     
   39216277.8656335     
   39216277.8656335     
   39216277.8656335     
   39216277.8656335     
   39216277.8656335     
   39216277.8656335     
   39216277.8656335     
   39216277.8656334     
   39216277.8656333     
   39216277.8656333     
   39216277.8656333     
   39216277.8656332     
   39216277.8656332     
   39216277.8656331     
   39216277.8656331     
   39216277.8656331     
   39216277.8656331     
   39216277.8656331     
   39216277.8656331     
   39216277.8656331     
   39216277.8656331     
   39216277.8656331     
   39216277.8656331     
   39216277.8656330     
   39216277.8656330     
   39216277.8656330     
   39216277.8656330     
   39216277.8656330     
   39216277.8656330     
   39216277.8656330     
   39216277.8656330     
   39216277.8656330     
   39216277.8656330     
   39216277.8656330     
   39216277.8656330     
   39216277.8656330     
   39216277.8656330     
   38583265.7702439     
   38583265.7702439     
   38583265.7702439     
   38583265.7702439     
   38583265.7702439     
   38583265.7702439     
   38583265.7702439     
   38583265.7702438     
   38583265.7702438     
   38583265.7702438     
   38583265.7702438     
   38583265.7702438     
   38583265.7702438     
   38583265.7702438     
   38583265.7702438     
   38583265.7702438     
   38583265.7702438     
   38583265.7702438     
   38583265.7702438     
   38583265.7702437     
   38583265.7702437     
   38583265.7702437     
   38583265.7702436     
   38583265.7702436     
   38583265.7702435     
   38583265.7702435     
   38583265.7702435     
   38583265.7702434     
   38583265.7702434     
   38583265.7702434     
   38583265.7702434     
   38583265.7702434     
   38583265.7702434     
   38583265.7702434     
   38583265.7702434     
   38583265.7702434     
   38583265.7702434     
   38583265.7702434     
   38583265.7702434     
   38583265.7702434     
   38583265.7702434     
   38583265.7702434     
   38583265.7702434     
   38583265.7702434     
   38583265.7702434     
   38583265.7702434     
   38583265.7702434     
   38583265.7702433     
   38583265.7702433     
   38583265.7702433     
   38583265.7702433     
   37927909.4104130     
   37927909.4104130     
   37927909.4104130     
   37927909.4104130     
   37927909.4104130     
   37927909.4104130     
   37927909.4104130     
   37927909.4104130     
   37927909.4104130     
   37927909.4104130     
   37927909.4104130     
   37927909.4104130     
   37927909.4104130     
   37927909.4104130     
   37927909.4104130     
   37927909.4104130     
   37927909.4104130     
   37927909.4104130     
   37927909.4104129     
   37927909.4104129     
   37927909.4104128     
   37927909.4104128     
   37927909.4104128     
   37927909.4104128     
   37927909.4104128     
   37927909.4104127     
   37927909.4104127     
   37927909.4104127     
   37927909.4104127     
   37927909.4104127     
   37927909.4104126     
   37927909.4104126     
   37927909.4104126     
   37927909.4104126     
   37927909.4104126     
   37927909.4104126     
   37927909.4104126     
   37927909.4104127     
   37927909.4104127     
   37927909.4104127     
   37927909.4104127     
   37927909.4104127     
   37927909.4104127     
   37927909.4104126     
   37927909.4104126     
   37927909.4104126     
   37927909.4104126     
   37927909.4104126     
   37927909.4104126     
   37927909.4104126     
   37927909.4104126     
   37250291.5505565     
   37250291.5505565     
   37250291.5505565     
   37250291.5505564     
   37250291.5505564     
   37250291.5505564     
   37250291.5505564     
   37250291.5505564     
   37250291.5505564     
   37250291.5505564     
   37250291.5505564     
   37250291.5505564     
   37250291.5505564     
   37250291.5505563     
   37250291.5505564     
   37250291.5505563     
   37250291.5505563     
   37250291.5505563     
   37250291.5505563     
   37250291.5505562     
   37250291.5505562     
   37250291.5505562     
   37250291.5505561     
   37250291.5505561     
   37250291.5505561     
   37250291.5505560     
   37250291.5505560     
   37250291.5505560     
   37250291.5505560     
   37250291.5505560     
   37250291.5505560     
   37250291.5505560     
   37250291.5505560     
   37250291.5505560     
   37250291.5505560     
   37250291.5505560     
   37250291.5505560     
   37250291.5505560     
   37250291.5505560     
   37250291.5505560     
   37250291.5505560     
   37250291.5505560     
   37250291.5505560     
   37250291.5505560     
   37250291.5505560     
   37250291.5505560     
   37250291.5505560     
   37250291.5505559     
   37250291.5505559     
   37250291.5505559     
   37250291.5505559     
   36550588.6893440     
   36550588.6893440     
   36550588.6893440     
   36550588.6893440     
   36550588.6893440     
   36550588.6893439     
   36550588.6893439     
   36550588.6893439     
   36550588.6893439     
   36550588.6893438     
   36550588.6893438     
   36550588.6893438     
   36550588.6893438     
   36550588.6893438     
   36550588.6893438     
   36550588.6893438     
   36550588.6893437     
   36550588.6893437     
   36550588.6893437     
   36550588.6893437     
   36550588.6893436     
   36550588.6893436     
   36550588.6893435     
   36550588.6893435     
   36550588.6893435     
   36550588.6893435     
   36550588.6893435     
   36550588.6893435     
   36550588.6893435     
   36550588.6893435     
   36550588.6893435     
   36550588.6893435     
   36550588.6893435     
   36550588.6893436     
   36550588.6893436     
   36550588.6893436     
   36550588.6893436     
   36550588.6893436     
   36550588.6893436     
   36550588.6893436     
   36550588.6893436     
   36550588.6893436     
   36550588.6893435     
   36550588.6893435     
   36550588.6893435     
   36550588.6893435     
   36550588.6893435     
   36550588.6893435     
   36550588.6893435     
   36550588.6893435     
   36550588.6893435     
   35829073.6595891     
   35829073.6595890     
   35829073.6595891     
   35829073.6595891     
   35829073.6595890     
   35829073.6595890     
   35829073.6595890     
   35829073.6595890     
   35829073.6595889     
   35829073.6595889     
   35829073.6595889     
   35829073.6595889     
   35829073.6595889     
   35829073.6595889     
   35829073.6595889     
   35829073.6595889     
   35829073.6595888     
   35829073.6595888     
   35829073.6595888     
   35829073.6595888     
   35829073.6595888     
   35829073.6595887     
   35829073.6595887     
   35829073.6595887     
   35829073.6595886     
   35829073.6595886     
   35829073.6595886     
   35829073.6595886     
   35829073.6595886     
   35829073.6595886     
   35829073.6595886     
   35829073.6595886     
   35829073.6595886     
   35829073.6595886     
   35829073.6595887     
   35829073.6595887     
   35829073.6595887     
   35829073.6595887     
   35829073.6595888     
   35829073.6595888     
   35829073.6595888     
   35829073.6595888     
   35829073.6595887     
   35829073.6595887     
   35829073.6595887     
   35829073.6595887     
   35829073.6595887     
   35829073.6595887     
   35829073.6595886     
   35829073.6595886     
   35829073.6595886     
   35086117.6677745     
   35086117.6677745     
   35086117.6677745     
   35086117.6677745     
   35086117.6677745     
   35086117.6677744     
   35086117.6677744     
   35086117.6677744     
   35086117.6677744     
   35086117.6677744     
   35086117.6677744     
   35086117.6677743     
   35086117.6677744     
   35086117.6677743     
   35086117.6677743     
   35086117.6677743     
   35086117.6677743     
   35086117.6677743     
   35086117.6677742     
   35086117.6677742     
   35086117.6677742     
   35086117.6677741     
   35086117.6677741     
   35086117.6677741     
   35086117.6677741     
   35086117.6677741     
   35086117.6677741     
   35086117.6677741     
   35086117.6677740     
   35086117.6677740     
   35086117.6677740     
   35086117.6677740     
   35086117.6677741     
   35086117.6677741     
   35086117.6677741     
   35086117.6677741     
   35086117.6677742     
   35086117.6677742     
   35086117.6677742     
   35086117.6677742     
   35086117.6677742     
   35086117.6677742     
   35086117.6677742     
   35086117.6677742     
   35086117.6677741     
   35086117.6677741     
   35086117.6677741     
   35086117.6677741     
   35086117.6677741     
   35086117.6677740     
   35086117.6677740     
   34322191.7135419     
   34322191.7135419     
   34322191.7135419     
   34322191.7135419     
   34322191.7135419     
   34322191.7135418     
   34322191.7135418     
   34322191.7135418     
   34322191.7135418     
   34322191.7135418     
   34322191.7135417     
   34322191.7135417     
   34322191.7135417     
   34322191.7135417     
   34322191.7135417     
   34322191.7135417     
   34322191.7135416     
   34322191.7135416     
   34322191.7135416     
   34322191.7135416     
   34322191.7135415     
   34322191.7135415     
   34322191.7135414     
   34322191.7135414     
   34322191.7135414     
   34322191.7135413     
   34322191.7135414     
   34322191.7135414     
   34322191.7135414     
   34322191.7135414     
   34322191.7135414     
   34322191.7135414     
   34322191.7135414     
   34322191.7135414     
   34322191.7135414     
   34322191.7135414     
   34322191.7135414     
   34322191.7135415     
   34322191.7135415     
   34322191.7135415     
   34322191.7135415     
   34322191.7135415     
   34322191.7135414     
   34322191.7135414     
   34322191.7135414     
   34322191.7135414     
   34322191.7135414     
   34322191.7135414     
   34322191.7135414     
   34322191.7135414     
   34322191.7135414     
   33537867.3340001     
   33537867.3340001     
   33537867.3340001     
   33537867.3340001     
   33537867.3340001     
   33537867.3340001     
   33537867.3340001     
   33537867.3340000     
   33537867.3340000     
   33537867.3340000     
   33537867.3340000     
   33537867.3339999     
   33537867.3339999     
   33537867.3339999     
   33537867.3339998     
   33537867.3339998     
   33537867.3339998     
   33537867.3339998     
   33537867.3339998     
   33537867.3339998     
   33537867.3339997     
   33537867.3339997     
   33537867.3339996     
   33537867.3339996     
   33537867.3339996     
   33537867.3339995     
   33537867.3339995     
   33537867.3339995     
   33537867.3339995     
   33537867.3339995     
   33537867.3339995     
   33537867.3339995     
   33537867.3339995     
   33537867.3339995     
   33537867.3339995     
   33537867.3339995     
   33537867.3339995     
   33537867.3339995     
   33537867.3339995     
   33537867.3339995     
   33537867.3339995     
   33537867.3339995     
   33537867.3339995     
   33537867.3339995     
   33537867.3339995     
   33537867.3339995     
   33537867.3339995     
   33537867.3339995     
   33537867.3339995     
   33537867.3339995     
   33537867.3339995     
   32733816.6235394     
   32733816.6235394     
   32733816.6235394     
   32733816.6235394     
   32733816.6235394     
   32733816.6235394     
   32733816.6235393     
   32733816.6235393     
   32733816.6235393     
   32733816.6235393     
   32733816.6235393     
   32733816.6235392     
   32733816.6235392     
   32733816.6235392     
   32733816.6235392     
   32733816.6235392     
   32733816.6235392     
   32733816.6235391     
   32733816.6235391     
   32733816.6235390     
   32733816.6235390     
   32733816.6235390     
   32733816.6235389     
   32733816.6235389     
   32733816.6235389     
   32733816.6235389     
   32733816.6235389     
   32733816.6235389     
   32733816.6235389     
   32733816.6235389     
   32733816.6235389     
   32733816.6235388     
   32733816.6235388     
   32733816.6235388     
   32733816.6235388     
   32733816.6235388     
   32733816.6235388     
   32733816.6235388     
   32733816.6235388     
   32733816.6235388     
   32733816.6235388     
   32733816.6235388     
   32733816.6235388     
   32733816.6235388     
   32733816.6235387     
   32733816.6235387     
   32733816.6235387     
   32733816.6235387     
   32733816.6235387     
   32733816.6235387     
   32733816.6235387     
   31910811.4869551     
   31910811.4869551     
   31910811.4869551     
   31910811.4869551     
   31910811.4869551     
   31910811.4869551     
   31910811.4869551     
   31910811.4869551     
   31910811.4869550     
   31910811.4869550     
   31910811.4869550     
   31910811.4869550     
   31910811.4869550     
   31910811.4869550     
   31910811.4869550     
   31910811.4869549     
   31910811.4869549     
   31910811.4869549     
   31910811.4869548     
   31910811.4869548     
   31910811.4869548     
   31910811.4869548     
   31910811.4869547     
   31910811.4869547     
   31910811.4869547     
   31910811.4869547     
   31910811.4869547     
   31910811.4869546     
   31910811.4869546     
   31910811.4869546     
   31910811.4869546     
   31910811.4869546     
   31910811.4869546     
   31910811.4869546     
   31910811.4869546     
   31910811.4869546     
   31910811.4869546     
   31910811.4869546     
   31910811.4869546     
   31910811.4869546     
   31910811.4869545     
   31910811.4869545     
   31910811.4869545     
   31910811.4869545     
   31910811.4869545     
   31910811.4869545     
   31910811.4869545     
   31910811.4869545     
   31910811.4869544     
   31910811.4869545     
   31910811.4869545     
   31069722.0920418     
   31069722.0920418     
   31069722.0920418     
   31069722.0920419     
   31069722.0920419     
   31069722.0920419     
   31069722.0920418     
   31069722.0920418     
   31069722.0920418     
   31069722.0920418     
   31069722.0920418     
   31069722.0920418     
   31069722.0920417     
   31069722.0920417     
   31069722.0920417     
   31069722.0920417     
   31069722.0920416     
   31069722.0920416     
   31069722.0920416     
   31069722.0920415     
   31069722.0920415     
   31069722.0920414     
   31069722.0920414     
   31069722.0920414     
   31069722.0920414     
   31069722.0920413     
   31069722.0920413     
   31069722.0920413     
   31069722.0920413     
   31069722.0920413     
   31069722.0920413     
   31069722.0920413     
   31069722.0920413     
   31069722.0920413     
   31069722.0920413     
   31069722.0920413     
   31069722.0920413     
   31069722.0920413     
   31069722.0920413     
   31069722.0920413     
   31069722.0920413     
   31069722.0920412     
   31069722.0920412     
   31069722.0920412     
   31069722.0920412     
   31069722.0920412     
   31069722.0920412     
   31069722.0920412     
   31069722.0920412     
   31069722.0920412     
   31069722.0920412     
   30211514.4973244     
   30211514.4973244     
   30211514.4973244     
   30211514.4973244     
   30211514.4973244     
   30211514.4973244     
   30211514.4973244     
   30211514.4973244     
   30211514.4973244     
   30211514.4973243     
   30211514.4973243     
   30211514.4973243     
   30211514.4973243     
   30211514.4973243     
   30211514.4973242     
   30211514.4973242     
   30211514.4973242     
   30211514.4973241     
   30211514.4973241     
   30211514.4973240     
   30211514.4973240     
   30211514.4973240     
   30211514.4973239     
   30211514.4973239     
   30211514.4973239     
   30211514.4973239     
   30211514.4973239     
   30211514.4973239     
   30211514.4973239     
   30211514.4973239     
   30211514.4973238     
   30211514.4973238     
   30211514.4973238     
   30211514.4973238     
   30211514.4973238     
   30211514.4973238     
   30211514.4973238     
   30211514.4973238     
   30211514.4973238     
   30211514.4973238     
   30211514.4973238     
   30211514.4973238     
   30211514.4973238     
   30211514.4973238     
   30211514.4973238     
   30211514.4973238     
   30211514.4973238     
   30211514.4973238     
   30211514.4973238     
   30211514.4973238     
   30211514.4973238     
   29337247.4411272     
   29337247.4411272     
   29337247.4411272     
   29337247.4411272     
   29337247.4411272     
   29337247.4411272     
   29337247.4411272     
   29337247.4411272     
   29337247.4411272     
   29337247.4411272     
   29337247.4411272     
   29337247.4411272     
   29337247.4411271     
   29337247.4411271     
   29337247.4411271     
   29337247.4411271     
   29337247.4411270     
   29337247.4411270     
   29337247.4411269     
   29337247.4411269     
   29337247.4411269     
   29337247.4411268     
   29337247.4411268     
   29337247.4411268     
   29337247.4411267     
   29337247.4411267     
   29337247.4411267     
   29337247.4411267     
   29337247.4411267     
   29337247.4411267     
   29337247.4411267     
   29337247.4411266     
   29337247.4411266     
   29337247.4411266     
   29337247.4411266     
   29337247.4411266     
   29337247.4411266     
   29337247.4411266     
   29337247.4411267     
   29337247.4411267     
   29337247.4411267     
   29337247.4411267     
   29337247.4411267     
   29337247.4411267     
   29337247.4411267     
   29337247.4411266     
   29337247.4411267     
   29337247.4411266     
   29337247.4411266     
   29337247.4411266     
   29337247.4411266     
   28448068.2895830     
   28448068.2895830     
   28448068.2895830     
   28448068.2895830     
   28448068.2895830     
   28448068.2895830     
   28448068.2895829     
   28448068.2895829     
   28448068.2895829     
   28448068.2895829     
   28448068.2895829     
   28448068.2895829     
   28448068.2895829     
   28448068.2895828     
   28448068.2895828     
   28448068.2895828     
   28448068.2895828     
   28448068.2895828     
   28448068.2895827     
   28448068.2895827     
   28448068.2895826     
   28448068.2895826     
   28448068.2895825     
   28448068.2895825     
   28448068.2895825     
   28448068.2895825     
   28448068.2895825     
   28448068.2895824     
   28448068.2895824     
   28448068.2895824     
   28448068.2895824     
   28448068.2895824     
   28448068.2895824     
   28448068.2895824     
   28448068.2895824     
   28448068.2895824     
   28448068.2895824     
   28448068.2895825     
   28448068.2895825     
   28448068.2895824     
   28448068.2895824     
   28448068.2895824     
   28448068.2895824     
   28448068.2895824     
   28448068.2895824     
   28448068.2895824     
   28448068.2895824     
   28448068.2895824     
   28448068.2895824     
   28448068.2895824     
   28448068.2895824     
   27545208.1532524     
   27545208.1532524     
   27545208.1532525     
   27545208.1532525     
   27545208.1532525     
   27545208.1532525     
   27545208.1532524     
   27545208.1532524     
   27545208.1532524     
   27545208.1532524     
   27545208.1532524     
   27545208.1532524     
   27545208.1532524     
   27545208.1532523     
   27545208.1532523     
   27545208.1532523     
   27545208.1532523     
   27545208.1532523     
   27545208.1532522     
   27545208.1532522     
   27545208.1532522     
   27545208.1532521     
   27545208.1532521     
   27545208.1532521     
   27545208.1532520     
   27545208.1532520     
   27545208.1532520     
   27545208.1532520     
   27545208.1532520     
   27545208.1532520     
   27545208.1532520     
   27545208.1532520     
   27545208.1532520     
   27545208.1532520     
   27545208.1532520     
   27545208.1532520     
   27545208.1532520     
   27545208.1532520     
   27545208.1532520     
   27545208.1532520     
   27545208.1532520     
   27545208.1532520     
   27545208.1532520     
   27545208.1532520     
   27545208.1532519     
   27545208.1532519     
   27545208.1532519     
   27545208.1532520     
   27545208.1532520     
   27545208.1532520     
   27545208.1532519     
   26629976.1945393     
   26629976.1945393     
   26629976.1945392     
   26629976.1945393     
   26629976.1945393     
   26629976.1945392     
   26629976.1945392     
   26629976.1945392     
   26629976.1945392     
   26629976.1945392     
   26629976.1945392     
   26629976.1945391     
   26629976.1945391     
   26629976.1945391     
   26629976.1945391     
   26629976.1945391     
   26629976.1945390     
   26629976.1945390     
   26629976.1945390     
   26629976.1945389     
   26629976.1945389     
   26629976.1945389     
   26629976.1945389     
   26629976.1945388     
   26629976.1945388     
   26629976.1945388     
   26629976.1945388     
   26629976.1945388     
   26629976.1945388     
   26629976.1945388     
   26629976.1945388     
   26629976.1945388     
   26629976.1945388     
   26629976.1945388     
   26629976.1945388     
   26629976.1945388     
   26629976.1945388     
   26629976.1945388     
   26629976.1945388     
   26629976.1945388     
   26629976.1945388     
   26629976.1945388     
   26629976.1945388     
   26629976.1945388     
   26629976.1945388     
   26629976.1945388     
   26629976.1945388     
   26629976.1945388     
   26629976.1945387     
   26629976.1945388     
   26629976.1945388     
   25703753.1607750     
   25703753.1607749     
   25703753.1607750     
   25703753.1607750     
   25703753.1607749     
   25703753.1607749     
   25703753.1607749     
   25703753.1607749     
   25703753.1607749     
   25703753.1607748     
   25703753.1607748     
   25703753.1607748     
   25703753.1607748     
   25703753.1607748     
   25703753.1607748     
   25703753.1607748     
   25703753.1607748     
   25703753.1607747     
   25703753.1607747     
   25703753.1607746     
   25703753.1607746     
   25703753.1607746     
   25703753.1607745     
   25703753.1607745     
   25703753.1607745     
   25703753.1607745     
   25703753.1607745     
   25703753.1607745     
   25703753.1607745     
   25703753.1607745     
   25703753.1607745     
   25703753.1607745     
   25703753.1607745     
   25703753.1607745     
   25703753.1607745     
   25703753.1607745     
   25703753.1607745     
   25703753.1607745     
   25703753.1607745     
   25703753.1607745     
   25703753.1607745     
   25703753.1607745     
   25703753.1607744     
   25703753.1607744     
   25703753.1607744     
   25703753.1607744     
   25703753.1607744     
   25703753.1607744     
   25703753.1607744     
   25703753.1607744     
   25703753.1607744     
   24767984.1904485     
   24767984.1904485     
   24767984.1904484     
   24767984.1904484     
   24767984.1904484     
   24767984.1904484     
   24767984.1904484     
   24767984.1904484     
   24767984.1904484     
   24767984.1904483     
   24767984.1904483     
   24767984.1904483     
   24767984.1904483     
   24767984.1904483     
   24767984.1904483     
   24767984.1904482     
   24767984.1904482     
   24767984.1904481     
   24767984.1904481     
   24767984.1904481     
   24767984.1904481     
   24767984.1904480     
   24767984.1904480     
   24767984.1904480     
   24767984.1904480     
   24767984.1904479     
   24767984.1904480     
   24767984.1904480     
   24767984.1904480     
   24767984.1904480     
   24767984.1904480     
   24767984.1904479     
   24767984.1904480     
   24767984.1904480     
   24767984.1904480     
   24767984.1904480     
   24767984.1904480     
   24767984.1904480     
   24767984.1904480     
   24767984.1904480     
   24767984.1904480     
   24767984.1904480     
   24767984.1904479     
   24767984.1904479     
   24767984.1904479     
   24767984.1904479     
   24767984.1904479     
   24767984.1904479     
   24767984.1904479     
   24767984.1904480     
   24767984.1904480     
   23824170.9522573     
   23824170.9522573     
   23824170.9522574     
   23824170.9522574     
   23824170.9522573     
   23824170.9522573     
   23824170.9522573     
   23824170.9522573     
   23824170.9522572     
   23824170.9522572     
   23824170.9522572     
   23824170.9522572     
   23824170.9522572     
   23824170.9522572     
   23824170.9522571     
   23824170.9522571     
   23824170.9522571     
   23824170.9522570     
   23824170.9522570     
   23824170.9522570     
   23824170.9522570     
   23824170.9522570     
   23824170.9522569     
   23824170.9522569     
   23824170.9522569     
   23824170.9522569     
   23824170.9522569     
   23824170.9522569     
   23824170.9522569     
   23824170.9522568     
   23824170.9522568     
   23824170.9522569     
   23824170.9522569     
   23824170.9522569     
   23824170.9522569     
   23824170.9522569     
   23824170.9522569     
   23824170.9522569     
   23824170.9522569     
   23824170.9522569     
   23824170.9522569     
   23824170.9522569     
   23824170.9522569     
   23824170.9522568     
   23824170.9522569     
   23824170.9522569     
   23824170.9522569     
   23824170.9522569     
   23824170.9522569     
   23824170.9522569     
   23824170.9522569     
   22873863.1881734     
   22873863.1881734     
   22873863.1881734     
   22873863.1881734     
   22873863.1881733     
   22873863.1881733     
   22873863.1881733     
   22873863.1881733     
   22873863.1881732     
   22873863.1881732     
   22873863.1881732     
   22873863.1881732     
   22873863.1881731     
   22873863.1881731     
   22873863.1881731     
   22873863.1881731     
   22873863.1881730     
   22873863.1881730     
   22873863.1881730     
   22873863.1881730     
   22873863.1881729     
   22873863.1881729     
   22873863.1881729     
   22873863.1881729     
   22873863.1881729     
   22873863.1881729     
   22873863.1881729     
   22873863.1881729     
   22873863.1881729     
   22873863.1881729     
   22873863.1881729     
   22873863.1881729     
   22873863.1881729     
   22873863.1881729     
   22873863.1881729     
   22873863.1881729     
   22873863.1881729     
   22873863.1881729     
   22873863.1881729     
   22873863.1881730     
   22873863.1881729     
   22873863.1881730     
   22873863.1881730     
   22873863.1881730     
   22873863.1881729     
   22873863.1881729     
   22873863.1881729     
   22873863.1881729     
   22873863.1881729     
   22873863.1881729     
   22873863.1881729     
   21918649.7422431     
   21918649.7422431     
   21918649.7422431     
   21918649.7422431     
   21918649.7422431     
   21918649.7422431     
   21918649.7422431     
   21918649.7422431     
   21918649.7422430     
   21918649.7422430     
   21918649.7422430     
   21918649.7422430     
   21918649.7422430     
   21918649.7422430     
   21918649.7422430     
   21918649.7422429     
   21918649.7422429     
   21918649.7422429     
   21918649.7422429     
   21918649.7422428     
   21918649.7422428     
   21918649.7422428     
   21918649.7422428     
   21918649.7422428     
   21918649.7422428     
   21918649.7422428     
   21918649.7422428     
   21918649.7422428     
   21918649.7422428     
   21918649.7422428     
   21918649.7422428     
   21918649.7422428     
   21918649.7422429     
   21918649.7422429     
   21918649.7422429     
   21918649.7422429     
   21918649.7422428     
   21918649.7422429     
   21918649.7422429     
   21918649.7422429     
   21918649.7422429     
   21918649.7422429     
   21918649.7422429     
   21918649.7422429     
   21918649.7422429     
   21918649.7422429     
   21918649.7422429     
   21918649.7422429     
   21918649.7422429     
   21918649.7422429     
   21918649.7422429     
   20960149.1661116     
   20960149.1661116     
   20960149.1661116     
   20960149.1661116     
   20960149.1661115     
   20960149.1661115     
   20960149.1661115     
   20960149.1661115     
   20960149.1661115     
   20960149.1661115     
   20960149.1661115     
   20960149.1661115     
   20960149.1661115     
   20960149.1661115     
   20960149.1661115     
   20960149.1661115     
   20960149.1661115     
   20960149.1661115     
   20960149.1661114     
   20960149.1661114     
   20960149.1661114     
   20960149.1661114     
   20960149.1661114     
   20960149.1661114     
   20960149.1661114     
   20960149.1661114     
   20960149.1661114     
   20960149.1661114     
   20960149.1661114     
   20960149.1661114     
   20960149.1661114     
   20960149.1661114     
   20960149.1661114     
   20960149.1661114     
   20960149.1661114     
   20960149.1661114     
   20960149.1661114     
   20960149.1661114     
   20960149.1661114     
   20960149.1661114     
   20960149.1661114     
   20960149.1661114     
   20960149.1661114     
   20960149.1661114     
   20960149.1661114     
   20960149.1661114     
   20960149.1661114     
   20960149.1661114     
   20960149.1661114     
   20960149.1661114     
   20960149.1661114     
   20000000.0000000     
   20000000.0000000     
   20000000.0000000     
   20000000.0000000     
   20000000.0000000     
   20000000.0000000     
   20000000.0000000     
   20000000.0000000     
   20000000.0000000     
   20000000.0000000     
   20000000.0000000     
   20000000.0000000     
   20000000.0000000     
   20000000.0000000     
   20000000.0000000     
   20000000.0000000     
   20000000.0000000     
   20000000.0000000     
   20000000.0000000     
   20000000.0000000     
   20000000.0000000     
   20000000.0000000     
   20000000.0000000     
   20000000.0000000     
   20000000.0000000     
   20000000.0000000     
   20000000.0000000     
   20000000.0000000     
   20000000.0000000     
   20000000.0000000     
   20000000.0000000     
   20000000.0000000     
   20000000.0000000     
   20000000.0000000     
   20000000.0000000     
   20000000.0000000     
   20000000.0000000     
   20000000.0000000     
   20000000.0000000     
   20000000.0000000     
   20000000.0000000     
   20000000.0000000     
   20000000.0000000     
   20000000.0000000     
   20000000.0000000     
   20000000.0000000     
   20000000.0000000     
   20000000.0000000     
   20000000.0000000     
   20000000.0000000     
   20000000.0000000     
VECTORS u double 
    0.00000E+00         0.74328E-01         0.00000E+00
    0.00000E+00         0.72828E-01         0.00000E+00
    0.00000E+00         0.71341E-01         0.00000E+00
    0.00000E+00         0.69873E-01         0.00000E+00
    0.00000E+00         0.68425E-01         0.00000E+00
    0.00000E+00         0.67002E-01         0.00000E+00
    0.00000E+00         0.65577E-01         0.00000E+00
    0.00000E+00         0.64145E-01         0.00000E+00
    0.00000E+00         0.62711E-01         0.00000E+00
    0.00000E+00         0.61281E-01         0.00000E+00
    0.00000E+00         0.59856E-01         0.00000E+00
    0.00000E+00         0.58438E-01         0.00000E+00
    0.00000E+00         0.57028E-01         0.00000E+00
    0.00000E+00         0.55626E-01         0.00000E+00
    0.00000E+00         0.54230E-01         0.00000E+00
    0.00000E+00         0.52840E-01         0.00000E+00
    0.00000E+00         0.51456E-01         0.00000E+00
    0.00000E+00         0.50077E-01         0.00000E+00
    0.00000E+00         0.48703E-01         0.00000E+00
    0.00000E+00         0.47332E-01         0.00000E+00
    0.00000E+00         0.45964E-01         0.00000E+00
    0.00000E+00         0.44598E-01         0.00000E+00
    0.00000E+00         0.43233E-01         0.00000E+00
    0.00000E+00         0.41867E-01         0.00000E+00
    0.00000E+00         0.40500E-01         0.00000E+00
    0.00000E+00         0.39129E-01         0.00000E+00
    0.00000E+00         0.37753E-01         0.00000E+00
    0.00000E+00         0.36371E-01         0.00000E+00
    0.00000E+00         0.34981E-01         0.00000E+00
    0.00000E+00         0.33583E-01         0.00000E+00
    0.00000E+00         0.32173E-01         0.00000E+00
    0.00000E+00         0.30753E-01         0.00000E+00
    0.00000E+00         0.29320E-01         0.00000E+00
    0.00000E+00         0.27873E-01         0.00000E+00
    0.00000E+00         0.26413E-01         0.00000E+00
    0.00000E+00         0.24937E-01         0.00000E+00
    0.00000E+00         0.23446E-01         0.00000E+00
    0.00000E+00         0.21939E-01         0.00000E+00
    0.00000E+00         0.20415E-01         0.00000E+00
    0.00000E+00         0.18872E-01         0.00000E+00
    0.00000E+00         0.17310E-01         0.00000E+00
    0.00000E+00         0.15726E-01         0.00000E+00
    0.00000E+00         0.14121E-01         0.00000E+00
    0.00000E+00         0.12490E-01         0.00000E+00
    0.00000E+00         0.10832E-01         0.00000E+00
    0.00000E+00         0.91422E-02         0.00000E+00
    0.00000E+00         0.74174E-02         0.00000E+00
    0.00000E+00         0.56510E-02         0.00000E+00
    0.00000E+00         0.38352E-02         0.00000E+00
    0.00000E+00         0.19580E-02         0.00000E+00
    0.00000E+00         0.00000E+00         0.00000E+00
    0.44362E-02         0.73210E-01         0.00000E+00
    0.41252E-02         0.71843E-01         0.00000E+00
    0.38567E-02         0.70474E-01         0.00000E+00
    0.36243E-02         0.69108E-01         0.00000E+00
    0.34225E-02         0.67746E-01         0.00000E+00
    0.32461E-02         0.66379E-01         0.00000E+00
    0.30914E-02         0.65003E-01         0.00000E+00
    0.29567E-02         0.63621E-01         0.00000E+00
    0.28401E-02         0.62236E-01         0.00000E+00
    0.27387E-02         0.60848E-01         0.00000E+00
    0.26493E-02         0.59461E-01         0.00000E+00
    0.25693E-02         0.58076E-01         0.00000E+00
    0.24966E-02         0.56692E-01         0.00000E+00
    0.24294E-02         0.55312E-01         0.00000E+00
    0.23664E-02         0.53935E-01         0.00000E+00
    0.23067E-02         0.52561E-01         0.00000E+00
    0.22495E-02         0.51191E-01         0.00000E+00
    0.21940E-02         0.49824E-01         0.00000E+00
    0.21398E-02         0.48459E-01         0.00000E+00
    0.20863E-02         0.47098E-01         0.00000E+00
    0.20331E-02         0.45737E-01         0.00000E+00
    0.19798E-02         0.44379E-01         0.00000E+00
    0.19261E-02         0.43020E-01         0.00000E+00
    0.18718E-02         0.41661E-01         0.00000E+00
    0.18166E-02         0.40300E-01         0.00000E+00
    0.17606E-02         0.38936E-01         0.00000E+00
    0.17038E-02         0.37568E-01         0.00000E+00
    0.16465E-02         0.36195E-01         0.00000E+00
    0.15890E-02         0.34814E-01         0.00000E+00
    0.15317E-02         0.33425E-01         0.00000E+00
    0.14748E-02         0.32026E-01         0.00000E+00
    0.14187E-02         0.30616E-01         0.00000E+00
    0.13637E-02         0.29192E-01         0.00000E+00
    0.13098E-02         0.27755E-01         0.00000E+00
    0.12569E-02         0.26304E-01         0.00000E+00
    0.12050E-02         0.24837E-01         0.00000E+00
    0.11538E-02         0.23353E-01         0.00000E+00
    0.11029E-02         0.21853E-01         0.00000E+00
    0.10518E-02         0.20334E-01         0.00000E+00
    0.99999E-03         0.18796E-01         0.00000E+00
    0.94700E-03         0.17239E-01         0.00000E+00
    0.89193E-03         0.15659E-01         0.00000E+00
    0.83392E-03         0.14056E-01         0.00000E+00
    0.77191E-03         0.12428E-01         0.00000E+00
    0.70433E-03         0.10771E-01         0.00000E+00
    0.62950E-03         0.90827E-02         0.00000E+00
    0.54496E-03         0.73592E-02         0.00000E+00
    0.44680E-03         0.55956E-02         0.00000E+00
    0.33105E-03         0.37859E-02         0.00000E+00
    0.18745E-03         0.19232E-02         0.00000E+00
    0.00000E+00         0.00000E+00         0.00000E+00
    0.74914E-02         0.71540E-01         0.00000E+00
    0.71603E-02         0.70249E-01         0.00000E+00
    0.68498E-02         0.68955E-01         0.00000E+00
    0.65614E-02         0.67656E-01         0.00000E+00
    0.62941E-02         0.66352E-01         0.00000E+00
    0.60469E-02         0.65044E-01         0.00000E+00
    0.58191E-02         0.63732E-01         0.00000E+00
    0.56097E-02         0.62415E-01         0.00000E+00
    0.54172E-02         0.61095E-01         0.00000E+00
    0.52400E-02         0.59770E-01         0.00000E+00
    0.50764E-02         0.58442E-01         0.00000E+00
    0.49247E-02         0.57111E-01         0.00000E+00
    0.47832E-02         0.55778E-01         0.00000E+00
    0.46503E-02         0.54442E-01         0.00000E+00
    0.45245E-02         0.53106E-01         0.00000E+00
    0.44045E-02         0.51768E-01         0.00000E+00
    0.42891E-02         0.50430E-01         0.00000E+00
    0.41773E-02         0.49091E-01         0.00000E+00
    0.40682E-02         0.47752E-01         0.00000E+00
    0.39609E-02         0.46412E-01         0.00000E+00
    0.38547E-02         0.45072E-01         0.00000E+00
    0.37489E-02         0.43732E-01         0.00000E+00
    0.36430E-02         0.42390E-01         0.00000E+00
    0.35363E-02         0.41047E-01         0.00000E+00
    0.34285E-02         0.39703E-01         0.00000E+00
    0.33192E-02         0.38357E-01         0.00000E+00
    0.32082E-02         0.37009E-01         0.00000E+00
    0.30956E-02         0.35657E-01         0.00000E+00
    0.29817E-02         0.34300E-01         0.00000E+00
    0.28668E-02         0.32937E-01         0.00000E+00
    0.27517E-02         0.31566E-01         0.00000E+00
    0.26370E-02         0.30184E-01         0.00000E+00
    0.25235E-02         0.28790E-01         0.00000E+00
    0.24114E-02         0.27382E-01         0.00000E+00
    0.23012E-02         0.25958E-01         0.00000E+00
    0.21927E-02         0.24517E-01         0.00000E+00
    0.20856E-02         0.23056E-01         0.00000E+00
    0.19795E-02         0.21577E-01         0.00000E+00
    0.18737E-02         0.20078E-01         0.00000E+00
    0.17671E-02         0.18557E-01         0.00000E+00
    0.16584E-02         0.17014E-01         0.00000E+00
    0.15462E-02         0.15447E-01         0.00000E+00
    0.14288E-02         0.13855E-01         0.00000E+00
    0.13043E-02         0.12237E-01         0.00000E+00
    0.11709E-02         0.10589E-01         0.00000E+00
    0.10254E-02         0.89113E-02         0.00000E+00
    0.86515E-03         0.72001E-02         0.00000E+00
    0.68628E-03         0.54537E-02         0.00000E+00
    0.48410E-03         0.36710E-02         0.00000E+00
    0.25765E-03         0.18521E-02         0.00000E+00
    0.00000E+00         0.00000E+00         0.00000E+00
    0.10237E-01         0.69753E-01         0.00000E+00
    0.98669E-02         0.68490E-01         0.00000E+00
    0.95138E-02         0.67225E-01         0.00000E+00
    0.91781E-02         0.65959E-01         0.00000E+00
    0.88602E-02         0.64691E-01         0.00000E+00
    0.85598E-02         0.63421E-01         0.00000E+00
    0.82762E-02         0.62148E-01         0.00000E+00
    0.80085E-02         0.60872E-01         0.00000E+00
    0.77558E-02         0.59593E-01         0.00000E+00
    0.75172E-02         0.58311E-01         0.00000E+00
    0.72915E-02         0.57026E-01         0.00000E+00
    0.70776E-02         0.55738E-01         0.00000E+00
    0.68743E-02         0.54447E-01         0.00000E+00
    0.66805E-02         0.53152E-01         0.00000E+00
    0.64949E-02         0.51855E-01         0.00000E+00
    0.63164E-02         0.50554E-01         0.00000E+00
    0.61439E-02         0.49250E-01         0.00000E+00
    0.59763E-02         0.47944E-01         0.00000E+00
    0.58127E-02         0.46636E-01         0.00000E+00
    0.56522E-02         0.45325E-01         0.00000E+00
    0.54938E-02         0.44011E-01         0.00000E+00
    0.53369E-02         0.42695E-01         0.00000E+00
    0.51806E-02         0.41378E-01         0.00000E+00
    0.50245E-02         0.40058E-01         0.00000E+00
    0.48677E-02         0.38736E-01         0.00000E+00
    0.47098E-02         0.37412E-01         0.00000E+00
    0.45503E-02         0.36086E-01         0.00000E+00
    0.43887E-02         0.34759E-01         0.00000E+00
    0.42245E-02         0.33430E-01         0.00000E+00
    0.40575E-02         0.32098E-01         0.00000E+00
    0.38879E-02         0.30763E-01         0.00000E+00
    0.37159E-02         0.29422E-01         0.00000E+00
    0.35421E-02         0.28071E-01         0.00000E+00
    0.33675E-02         0.26709E-01         0.00000E+00
    0.31935E-02         0.25332E-01         0.00000E+00
    0.30214E-02         0.23936E-01         0.00000E+00
    0.28519E-02         0.22520E-01         0.00000E+00
    0.26844E-02         0.21082E-01         0.00000E+00
    0.25183E-02         0.19621E-01         0.00000E+00
    0.23522E-02         0.18134E-01         0.00000E+00
    0.21847E-02         0.16622E-01         0.00000E+00
    0.20144E-02         0.15083E-01         0.00000E+00
    0.18392E-02         0.13517E-01         0.00000E+00
    0.16569E-02         0.11924E-01         0.00000E+00
    0.14651E-02         0.10303E-01         0.00000E+00
    0.12617E-02         0.86542E-02         0.00000E+00
    0.10444E-02         0.69768E-02         0.00000E+00
    0.81155E-03         0.52716E-02         0.00000E+00
    0.56151E-03         0.35398E-02         0.00000E+00
    0.29075E-03         0.17821E-02         0.00000E+00
    0.00000E+00         0.00000E+00         0.00000E+00
    0.12668E-01         0.67740E-01         0.00000E+00
    0.12255E-01         0.66511E-01         0.00000E+00
    0.11861E-01         0.65279E-01         0.00000E+00
    0.11484E-01         0.64046E-01         0.00000E+00
    0.11125E-01         0.62811E-01         0.00000E+00
    0.10781E-01         0.61574E-01         0.00000E+00
    0.10452E-01         0.60334E-01         0.00000E+00
    0.10138E-01         0.59092E-01         0.00000E+00
    0.98377E-02         0.57847E-01         0.00000E+00
    0.95498E-02         0.56600E-01         0.00000E+00
    0.92737E-02         0.55350E-01         0.00000E+00
    0.90085E-02         0.54097E-01         0.00000E+00
    0.87533E-02         0.52840E-01         0.00000E+00
    0.85072E-02         0.51580E-01         0.00000E+00
    0.82692E-02         0.50317E-01         0.00000E+00
    0.80384E-02         0.49051E-01         0.00000E+00
    0.78140E-02         0.47782E-01         0.00000E+00
    0.75950E-02         0.46509E-01         0.00000E+00
    0.73806E-02         0.45232E-01         0.00000E+00
    0.71700E-02         0.43953E-01         0.00000E+00
    0.69623E-02         0.42670E-01         0.00000E+00
    0.67569E-02         0.41384E-01         0.00000E+00
    0.65531E-02         0.40095E-01         0.00000E+00
    0.63501E-02         0.38802E-01         0.00000E+00
    0.61473E-02         0.37507E-01         0.00000E+00
    0.59441E-02         0.36209E-01         0.00000E+00
    0.57399E-02         0.34907E-01         0.00000E+00
    0.55341E-02         0.33602E-01         0.00000E+00
    0.53260E-02         0.32294E-01         0.00000E+00
    0.51149E-02         0.30984E-01         0.00000E+00
    0.49001E-02         0.29670E-01         0.00000E+00
    0.46812E-02         0.28354E-01         0.00000E+00
    0.44579E-02         0.27035E-01         0.00000E+00
    0.42304E-02         0.25714E-01         0.00000E+00
    0.39989E-02         0.24387E-01         0.00000E+00
    0.37645E-02         0.23054E-01         0.00000E+00
    0.35282E-02         0.21703E-01         0.00000E+00
    0.32919E-02         0.20331E-01         0.00000E+00
    0.30570E-02         0.18933E-01         0.00000E+00
    0.28245E-02         0.17508E-01         0.00000E+00
    0.25939E-02         0.16053E-01         0.00000E+00
    0.23638E-02         0.14569E-01         0.00000E+00
    0.21320E-02         0.13055E-01         0.00000E+00
    0.18966E-02         0.11511E-01         0.00000E+00
    0.16559E-02         0.99391E-02         0.00000E+00
    0.14080E-02         0.83406E-02         0.00000E+00
    0.11509E-02         0.67171E-02         0.00000E+00
    0.88301E-03         0.50699E-02         0.00000E+00
    0.60228E-03         0.34001E-02         0.00000E+00
    0.30840E-03         0.17096E-02         0.00000E+00
    0.00000E+00         0.00000E+00         0.00000E+00
    0.14774E-01         0.65545E-01         0.00000E+00
    0.14330E-01         0.64348E-01         0.00000E+00
    0.13904E-01         0.63150E-01         0.00000E+00
    0.13494E-01         0.61950E-01         0.00000E+00
    0.13100E-01         0.60749E-01         0.00000E+00
    0.12720E-01         0.59545E-01         0.00000E+00
    0.12355E-01         0.58339E-01         0.00000E+00
    0.12003E-01         0.57131E-01         0.00000E+00
    0.11664E-01         0.55921E-01         0.00000E+00
    0.11336E-01         0.54707E-01         0.00000E+00
    0.11018E-01         0.53491E-01         0.00000E+00
    0.10711E-01         0.52272E-01         0.00000E+00
    0.10413E-01         0.51050E-01         0.00000E+00
    0.10123E-01         0.49825E-01         0.00000E+00
    0.98404E-02         0.48596E-01         0.00000E+00
    0.95650E-02         0.47364E-01         0.00000E+00
    0.92957E-02         0.46128E-01         0.00000E+00
    0.90317E-02         0.44889E-01         0.00000E+00
    0.87723E-02         0.43646E-01         0.00000E+00
    0.85168E-02         0.42399E-01         0.00000E+00
    0.82646E-02         0.41149E-01         0.00000E+00
    0.80148E-02         0.39895E-01         0.00000E+00
    0.77669E-02         0.38637E-01         0.00000E+00
    0.75203E-02         0.37375E-01         0.00000E+00
    0.72743E-02         0.36109E-01         0.00000E+00
    0.70282E-02         0.34840E-01         0.00000E+00
    0.67815E-02         0.33567E-01         0.00000E+00
    0.65337E-02         0.32289E-01         0.00000E+00
    0.62841E-02         0.31008E-01         0.00000E+00
    0.60323E-02         0.29724E-01         0.00000E+00
    0.57776E-02         0.28435E-01         0.00000E+00
    0.55196E-02         0.27142E-01         0.00000E+00
    0.52577E-02         0.25845E-01         0.00000E+00
    0.49909E-02         0.24544E-01         0.00000E+00
    0.47185E-02         0.23239E-01         0.00000E+00
    0.44396E-02         0.21931E-01         0.00000E+00
    0.41541E-02         0.20620E-01         0.00000E+00
    0.38632E-02         0.19305E-01         0.00000E+00
    0.35682E-02         0.17983E-01         0.00000E+00
    0.32709E-02         0.16643E-01         0.00000E+00
    0.29731E-02         0.15278E-01         0.00000E+00
    0.26765E-02         0.13882E-01         0.00000E+00
    0.23831E-02         0.12453E-01         0.00000E+00
    0.20932E-02         0.10992E-01         0.00000E+00
    0.18050E-02         0.94995E-02         0.00000E+00
    0.15164E-02         0.79765E-02         0.00000E+00
    0.12255E-02         0.64255E-02         0.00000E+00
    0.92968E-03         0.48491E-02         0.00000E+00
    0.62826E-03         0.32515E-02         0.00000E+00
    0.31874E-03         0.16347E-02         0.00000E+00
    0.00000E+00         0.00000E+00         0.00000E+00
    0.16568E-01         0.63224E-01         0.00000E+00
    0.16103E-01         0.62061E-01         0.00000E+00
    0.15654E-01         0.60896E-01         0.00000E+00
    0.15220E-01         0.59730E-01         0.00000E+00
    0.14801E-01         0.58563E-01         0.00000E+00
    0.14394E-01         0.57394E-01         0.00000E+00
    0.14000E-01         0.56223E-01         0.00000E+00
    0.13619E-01         0.55050E-01         0.00000E+00
    0.13248E-01         0.53874E-01         0.00000E+00
    0.12887E-01         0.52696E-01         0.00000E+00
    0.12536E-01         0.51515E-01         0.00000E+00
    0.12194E-01         0.50332E-01         0.00000E+00
    0.11860E-01         0.49145E-01         0.00000E+00
    0.11534E-01         0.47955E-01         0.00000E+00
    0.11215E-01         0.46761E-01         0.00000E+00
    0.10902E-01         0.45565E-01         0.00000E+00
    0.10594E-01         0.44364E-01         0.00000E+00
    0.10291E-01         0.43160E-01         0.00000E+00
    0.99929E-02         0.41952E-01         0.00000E+00
    0.96981E-02         0.40740E-01         0.00000E+00
    0.94063E-02         0.39525E-01         0.00000E+00
    0.91170E-02         0.38305E-01         0.00000E+00
    0.88295E-02         0.37081E-01         0.00000E+00
    0.85433E-02         0.35853E-01         0.00000E+00
    0.82578E-02         0.34621E-01         0.00000E+00
    0.79725E-02         0.33385E-01         0.00000E+00
    0.76868E-02         0.32144E-01         0.00000E+00
    0.74002E-02         0.30899E-01         0.00000E+00
    0.71122E-02         0.29649E-01         0.00000E+00
    0.68223E-02         0.28395E-01         0.00000E+00
    0.65299E-02         0.27136E-01         0.00000E+00
    0.62346E-02         0.25873E-01         0.00000E+00
    0.59359E-02         0.24605E-01         0.00000E+00
    0.56334E-02         0.23332E-01         0.00000E+00
    0.53265E-02         0.22055E-01         0.00000E+00
    0.50149E-02         0.20773E-01         0.00000E+00
    0.46980E-02         0.19486E-01         0.00000E+00
    0.43749E-02         0.18194E-01         0.00000E+00
    0.40446E-02         0.16898E-01         0.00000E+00
    0.37070E-02         0.15599E-01         0.00000E+00
    0.33637E-02         0.14297E-01         0.00000E+00
    0.30165E-02         0.12987E-01         0.00000E+00
    0.26688E-02         0.11667E-01         0.00000E+00
    0.23208E-02         0.10318E-01         0.00000E+00
    0.19761E-02         0.89388E-02         0.00000E+00
    0.16362E-02         0.75247E-02         0.00000E+00
    0.13025E-02         0.60756E-02         0.00000E+00
    0.97526E-03         0.45960E-02         0.00000E+00
    0.65085E-03         0.30868E-02         0.00000E+00
    0.32668E-03         0.15526E-02         0.00000E+00
    0.00000E+00         0.00000E+00         0.00000E+00
    0.18070E-01         0.60832E-01         0.00000E+00
    0.17594E-01         0.59702E-01         0.00000E+00
    0.17132E-01         0.58572E-01         0.00000E+00
    0.16683E-01         0.57441E-01         0.00000E+00
    0.16246E-01         0.56309E-01         0.00000E+00
    0.15821E-01         0.55175E-01         0.00000E+00
    0.15406E-01         0.54040E-01         0.00000E+00
    0.15002E-01         0.52903E-01         0.00000E+00
    0.14607E-01         0.51763E-01         0.00000E+00
    0.14221E-01         0.50621E-01         0.00000E+00
    0.13844E-01         0.49477E-01         0.00000E+00
    0.13474E-01         0.48330E-01         0.00000E+00
    0.13111E-01         0.47180E-01         0.00000E+00
    0.12755E-01         0.46027E-01         0.00000E+00
    0.12405E-01         0.44870E-01         0.00000E+00
    0.12061E-01         0.43711E-01         0.00000E+00
    0.11721E-01         0.42548E-01         0.00000E+00
    0.11385E-01         0.41381E-01         0.00000E+00
    0.11053E-01         0.40210E-01         0.00000E+00
    0.10725E-01         0.39036E-01         0.00000E+00
    0.10399E-01         0.37858E-01         0.00000E+00
    0.10075E-01         0.36676E-01         0.00000E+00
    0.97525E-02         0.35489E-01         0.00000E+00
    0.94314E-02         0.34299E-01         0.00000E+00
    0.91108E-02         0.33104E-01         0.00000E+00
    0.87904E-02         0.31905E-01         0.00000E+00
    0.84696E-02         0.30701E-01         0.00000E+00
    0.81480E-02         0.29493E-01         0.00000E+00
    0.78252E-02         0.28281E-01         0.00000E+00
    0.75007E-02         0.27063E-01         0.00000E+00
    0.71741E-02         0.25841E-01         0.00000E+00
    0.68450E-02         0.24614E-01         0.00000E+00
    0.65130E-02         0.23383E-01         0.00000E+00
    0.61777E-02         0.22146E-01         0.00000E+00
    0.58388E-02         0.20905E-01         0.00000E+00
    0.54959E-02         0.19659E-01         0.00000E+00
    0.51487E-02         0.18407E-01         0.00000E+00
    0.47971E-02         0.17151E-01         0.00000E+00
    0.44411E-02         0.15889E-01         0.00000E+00
    0.40803E-02         0.14622E-01         0.00000E+00
    0.37141E-02         0.13350E-01         0.00000E+00
    0.33422E-02         0.12073E-01         0.00000E+00
    0.29641E-02         0.10793E-01         0.00000E+00
    0.25811E-02         0.95087E-02         0.00000E+00
    0.21967E-02         0.82213E-02         0.00000E+00
    0.18126E-02         0.69220E-02         0.00000E+00
    0.14339E-02         0.56081E-02         0.00000E+00
    0.10593E-02         0.42590E-02         0.00000E+00
    0.69424E-03         0.28763E-02         0.00000E+00
    0.34067E-03         0.14562E-02         0.00000E+00
    0.00000E+00         0.00000E+00         0.00000E+00
    0.19309E-01         0.58412E-01         0.00000E+00
    0.18830E-01         0.57317E-01         0.00000E+00
    0.18362E-01         0.56223E-01         0.00000E+00
    0.17905E-01         0.55127E-01         0.00000E+00
    0.17458E-01         0.54031E-01         0.00000E+00
    0.17021E-01         0.52933E-01         0.00000E+00
    0.16592E-01         0.51834E-01         0.00000E+00
    0.16172E-01         0.50734E-01         0.00000E+00
    0.15760E-01         0.49631E-01         0.00000E+00
    0.15356E-01         0.48527E-01         0.00000E+00
    0.14958E-01         0.47420E-01         0.00000E+00
    0.14567E-01         0.46311E-01         0.00000E+00
    0.14182E-01         0.45199E-01         0.00000E+00
    0.13802E-01         0.44084E-01         0.00000E+00
    0.13427E-01         0.42967E-01         0.00000E+00
    0.13057E-01         0.41846E-01         0.00000E+00
    0.12691E-01         0.40722E-01         0.00000E+00
    0.12328E-01         0.39595E-01         0.00000E+00
    0.11968E-01         0.38464E-01         0.00000E+00
    0.11611E-01         0.37330E-01         0.00000E+00
    0.11256E-01         0.36192E-01         0.00000E+00
    0.10903E-01         0.35050E-01         0.00000E+00
    0.10551E-01         0.33904E-01         0.00000E+00
    0.10200E-01         0.32755E-01         0.00000E+00
    0.98488E-02         0.31601E-01         0.00000E+00
    0.94980E-02         0.30443E-01         0.00000E+00
    0.91467E-02         0.29282E-01         0.00000E+00
    0.87946E-02         0.28115E-01         0.00000E+00
    0.84413E-02         0.26945E-01         0.00000E+00
    0.80865E-02         0.25770E-01         0.00000E+00
    0.77298E-02         0.24591E-01         0.00000E+00
    0.73708E-02         0.23408E-01         0.00000E+00
    0.70092E-02         0.22220E-01         0.00000E+00
    0.66448E-02         0.21027E-01         0.00000E+00
    0.62773E-02         0.19830E-01         0.00000E+00
    0.59065E-02         0.18629E-01         0.00000E+00
    0.55322E-02         0.17422E-01         0.00000E+00
    0.51541E-02         0.16211E-01         0.00000E+00
    0.47722E-02         0.14996E-01         0.00000E+00
    0.43864E-02         0.13776E-01         0.00000E+00
    0.39969E-02         0.12551E-01         0.00000E+00
    0.36037E-02         0.11321E-01         0.00000E+00
    0.32072E-02         0.10086E-01         0.00000E+00
    0.28075E-02         0.88454E-02         0.00000E+00
    0.24040E-02         0.75994E-02         0.00000E+00
    0.19973E-02         0.63493E-02         0.00000E+00
    0.15877E-02         0.50946E-02         0.00000E+00
    0.11783E-02         0.38362E-02         0.00000E+00
    0.77419E-03         0.25733E-02         0.00000E+00
    0.37839E-03         0.12954E-02         0.00000E+00
    0.00000E+00         0.00000E+00         0.00000E+00
    0.20315E-01         0.55998E-01         0.00000E+00
    0.19839E-01         0.54939E-01         0.00000E+00
    0.19372E-01         0.53880E-01         0.00000E+00
    0.18913E-01         0.52821E-01         0.00000E+00
    0.18461E-01         0.51761E-01         0.00000E+00
    0.18017E-01         0.50701E-01         0.00000E+00
    0.17581E-01         0.49639E-01         0.00000E+00
    0.17151E-01         0.48576E-01         0.00000E+00
    0.16727E-01         0.47511E-01         0.00000E+00
    0.16309E-01         0.46445E-01         0.00000E+00
    0.15897E-01         0.45377E-01         0.00000E+00
    0.15490E-01         0.44306E-01         0.00000E+00
    0.15088E-01         0.43234E-01         0.00000E+00
    0.14690E-01         0.42159E-01         0.00000E+00
    0.14296E-01         0.41081E-01         0.00000E+00
    0.13906E-01         0.40000E-01         0.00000E+00
    0.13519E-01         0.38917E-01         0.00000E+00
    0.13134E-01         0.37831E-01         0.00000E+00
    0.12752E-01         0.36742E-01         0.00000E+00
    0.12372E-01         0.35649E-01         0.00000E+00
    0.11993E-01         0.34554E-01         0.00000E+00
    0.11616E-01         0.33455E-01         0.00000E+00
    0.11239E-01         0.32352E-01         0.00000E+00
    0.10863E-01         0.31246E-01         0.00000E+00
    0.10487E-01         0.30137E-01         0.00000E+00
    0.10111E-01         0.29023E-01         0.00000E+00
    0.97340E-02         0.27907E-01         0.00000E+00
    0.93562E-02         0.26786E-01         0.00000E+00
    0.89773E-02         0.25662E-01         0.00000E+00
    0.85968E-02         0.24534E-01         0.00000E+00
    0.82145E-02         0.23402E-01         0.00000E+00
    0.78301E-02         0.22267E-01         0.00000E+00
    0.74434E-02         0.21127E-01         0.00000E+00
    0.70541E-02         0.19984E-01         0.00000E+00
    0.66621E-02         0.18837E-01         0.00000E+00
    0.62672E-02         0.17687E-01         0.00000E+00
    0.58691E-02         0.16532E-01         0.00000E+00
    0.54679E-02         0.15374E-01         0.00000E+00
    0.50634E-02         0.14212E-01         0.00000E+00
    0.46555E-02         0.13046E-01         0.00000E+00
    0.42444E-02         0.11877E-01         0.00000E+00
    0.38300E-02         0.10704E-01         0.00000E+00
    0.34124E-02         0.95282E-02         0.00000E+00
    0.29919E-02         0.83485E-02         0.00000E+00
    0.25689E-02         0.71657E-02         0.00000E+00
    0.21438E-02         0.59793E-02         0.00000E+00
    0.17172E-02         0.47897E-02         0.00000E+00
    0.12895E-02         0.35965E-02         0.00000E+00
    0.86025E-03         0.23996E-02         0.00000E+00
    0.43046E-03         0.12009E-02         0.00000E+00
    0.00000E+00         0.00000E+00         0.00000E+00
    0.21119E-01         0.53613E-01         0.00000E+00
    0.20650E-01         0.52591E-01         0.00000E+00
    0.20187E-01         0.51569E-01         0.00000E+00
    0.19729E-01         0.50546E-01         0.00000E+00
    0.19278E-01         0.49524E-01         0.00000E+00
    0.18833E-01         0.48501E-01         0.00000E+00
    0.18392E-01         0.47477E-01         0.00000E+00
    0.17957E-01         0.46451E-01         0.00000E+00
    0.17527E-01         0.45425E-01         0.00000E+00
    0.17101E-01         0.44398E-01         0.00000E+00
    0.16679E-01         0.43368E-01         0.00000E+00
    0.16262E-01         0.42337E-01         0.00000E+00
    0.15847E-01         0.41305E-01         0.00000E+00
    0.15436E-01         0.40270E-01         0.00000E+00
    0.15028E-01         0.39233E-01         0.00000E+00
    0.14623E-01         0.38193E-01         0.00000E+00
    0.14220E-01         0.37152E-01         0.00000E+00
    0.13818E-01         0.36108E-01         0.00000E+00
    0.13419E-01         0.35061E-01         0.00000E+00
    0.13021E-01         0.34011E-01         0.00000E+00
    0.12623E-01         0.32959E-01         0.00000E+00
    0.12227E-01         0.31904E-01         0.00000E+00
    0.11830E-01         0.30846E-01         0.00000E+00
    0.11434E-01         0.29785E-01         0.00000E+00
    0.11038E-01         0.28721E-01         0.00000E+00
    0.10641E-01         0.27654E-01         0.00000E+00
    0.10243E-01         0.26584E-01         0.00000E+00
    0.98448E-02         0.25511E-01         0.00000E+00
    0.94448E-02         0.24434E-01         0.00000E+00
    0.90433E-02         0.23355E-01         0.00000E+00
    0.86400E-02         0.22272E-01         0.00000E+00
    0.82347E-02         0.21187E-01         0.00000E+00
    0.78272E-02         0.20098E-01         0.00000E+00
    0.74173E-02         0.19006E-01         0.00000E+00
    0.70048E-02         0.17911E-01         0.00000E+00
    0.65896E-02         0.16813E-01         0.00000E+00
    0.61716E-02         0.15712E-01         0.00000E+00
    0.57507E-02         0.14608E-01         0.00000E+00
    0.53268E-02         0.13501E-01         0.00000E+00
    0.48997E-02         0.12392E-01         0.00000E+00
    0.44696E-02         0.11279E-01         0.00000E+00
    0.40364E-02         0.10164E-01         0.00000E+00
    0.36002E-02         0.90459E-02         0.00000E+00
    0.31609E-02         0.79252E-02         0.00000E+00
    0.27187E-02         0.68018E-02         0.00000E+00
    0.22735E-02         0.56757E-02         0.00000E+00
    0.18253E-02         0.45468E-02         0.00000E+00
    0.13741E-02         0.34151E-02         0.00000E+00
    0.91992E-03         0.22804E-02         0.00000E+00
    0.46218E-03         0.11421E-02         0.00000E+00
    0.00000E+00         0.00000E+00         0.00000E+00
    0.21749E-01         0.51273E-01         0.00000E+00
    0.21288E-01         0.50288E-01         0.00000E+00
    0.20832E-01         0.49302E-01         0.00000E+00
    0.20380E-01         0.48317E-01         0.00000E+00
    0.19932E-01         0.47332E-01         0.00000E+00
    0.19488E-01         0.46347E-01         0.00000E+00
    0.19048E-01         0.45361E-01         0.00000E+00
    0.18611E-01         0.44374E-01         0.00000E+00
    0.18178E-01         0.43387E-01         0.00000E+00
    0.17748E-01         0.42398E-01         0.00000E+00
    0.17321E-01         0.41408E-01         0.00000E+00
    0.16897E-01         0.40417E-01         0.00000E+00
    0.16475E-01         0.39424E-01         0.00000E+00
    0.16055E-01         0.38430E-01         0.00000E+00
    0.15637E-01         0.37433E-01         0.00000E+00
    0.15221E-01         0.36435E-01         0.00000E+00
    0.14806E-01         0.35436E-01         0.00000E+00
    0.14393E-01         0.34434E-01         0.00000E+00
    0.13980E-01         0.33429E-01         0.00000E+00
    0.13568E-01         0.32423E-01         0.00000E+00
    0.13157E-01         0.31415E-01         0.00000E+00
    0.12745E-01         0.30404E-01         0.00000E+00
    0.12334E-01         0.29390E-01         0.00000E+00
    0.11922E-01         0.28375E-01         0.00000E+00
    0.11510E-01         0.27356E-01         0.00000E+00
    0.11097E-01         0.26336E-01         0.00000E+00
    0.10683E-01         0.25312E-01         0.00000E+00
    0.10267E-01         0.24287E-01         0.00000E+00
    0.98506E-02         0.23258E-01         0.00000E+00
    0.94321E-02         0.22227E-01         0.00000E+00
    0.90118E-02         0.21194E-01         0.00000E+00
    0.85895E-02         0.20158E-01         0.00000E+00
    0.81649E-02         0.19119E-01         0.00000E+00
    0.77379E-02         0.18078E-01         0.00000E+00
    0.73085E-02         0.17034E-01         0.00000E+00
    0.68763E-02         0.15988E-01         0.00000E+00
    0.64413E-02         0.14939E-01         0.00000E+00
    0.60035E-02         0.13888E-01         0.00000E+00
    0.55626E-02         0.12835E-01         0.00000E+00
    0.51186E-02         0.11779E-01         0.00000E+00
    0.46714E-02         0.10720E-01         0.00000E+00
    0.42209E-02         0.96594E-02         0.00000E+00
    0.37671E-02         0.85961E-02         0.00000E+00
    0.33098E-02         0.75305E-02         0.00000E+00
    0.28489E-02         0.64624E-02         0.00000E+00
    0.23844E-02         0.53918E-02         0.00000E+00
    0.19160E-02         0.43187E-02         0.00000E+00
    0.14435E-02         0.32430E-02         0.00000E+00
    0.96683E-03         0.21646E-02         0.00000E+00
    0.48565E-03         0.10836E-02         0.00000E+00
    0.00000E+00         0.00000E+00         0.00000E+00
    0.22228E-01         0.48986E-01         0.00000E+00
    0.21778E-01         0.48038E-01         0.00000E+00
    0.21330E-01         0.47090E-01         0.00000E+00
    0.20885E-01         0.46143E-01         0.00000E+00
    0.20443E-01         0.45195E-01         0.00000E+00
    0.20003E-01         0.44248E-01         0.00000E+00
    0.19566E-01         0.43300E-01         0.00000E+00
    0.19131E-01         0.42351E-01         0.00000E+00
    0.18698E-01         0.41402E-01         0.00000E+00
    0.18267E-01         0.40453E-01         0.00000E+00
    0.17838E-01         0.39502E-01         0.00000E+00
    0.17410E-01         0.38550E-01         0.00000E+00
    0.16984E-01         0.37597E-01         0.00000E+00
    0.16559E-01         0.36643E-01         0.00000E+00
    0.16135E-01         0.35688E-01         0.00000E+00
    0.15711E-01         0.34731E-01         0.00000E+00
    0.15289E-01         0.33773E-01         0.00000E+00
    0.14867E-01         0.32813E-01         0.00000E+00
    0.14445E-01         0.31851E-01         0.00000E+00
    0.14024E-01         0.30887E-01         0.00000E+00
    0.13602E-01         0.29922E-01         0.00000E+00
    0.13180E-01         0.28955E-01         0.00000E+00
    0.12757E-01         0.27986E-01         0.00000E+00
    0.12333E-01         0.27015E-01         0.00000E+00
    0.11909E-01         0.26042E-01         0.00000E+00
    0.11483E-01         0.25066E-01         0.00000E+00
    0.11056E-01         0.24089E-01         0.00000E+00
    0.10628E-01         0.23110E-01         0.00000E+00
    0.10198E-01         0.22128E-01         0.00000E+00
    0.97660E-02         0.21145E-01         0.00000E+00
    0.93320E-02         0.20159E-01         0.00000E+00
    0.88958E-02         0.19171E-01         0.00000E+00
    0.84572E-02         0.18182E-01         0.00000E+00
    0.80162E-02         0.17189E-01         0.00000E+00
    0.75724E-02         0.16195E-01         0.00000E+00
    0.71259E-02         0.15199E-01         0.00000E+00
    0.66765E-02         0.14201E-01         0.00000E+00
    0.62239E-02         0.13200E-01         0.00000E+00
    0.57682E-02         0.12198E-01         0.00000E+00
    0.53092E-02         0.11193E-01         0.00000E+00
    0.48467E-02         0.10186E-01         0.00000E+00
    0.43806E-02         0.91772E-02         0.00000E+00
    0.39108E-02         0.81662E-02         0.00000E+00
    0.34371E-02         0.71530E-02         0.00000E+00
    0.29594E-02         0.61377E-02         0.00000E+00
    0.24776E-02         0.51203E-02         0.00000E+00
    0.19914E-02         0.41006E-02         0.00000E+00
    0.15008E-02         0.30788E-02         0.00000E+00
    0.10055E-02         0.20548E-02         0.00000E+00
    0.50530E-03         0.10285E-02         0.00000E+00
    0.00000E+00         0.00000E+00         0.00000E+00
    0.22578E-01         0.46757E-01         0.00000E+00
    0.22138E-01         0.45846E-01         0.00000E+00
    0.21701E-01         0.44936E-01         0.00000E+00
    0.21264E-01         0.44026E-01         0.00000E+00
    0.20829E-01         0.43116E-01         0.00000E+00
    0.20395E-01         0.42206E-01         0.00000E+00
    0.19963E-01         0.41296E-01         0.00000E+00
    0.19531E-01         0.40386E-01         0.00000E+00
    0.19101E-01         0.39476E-01         0.00000E+00
    0.18671E-01         0.38565E-01         0.00000E+00
    0.18242E-01         0.37653E-01         0.00000E+00
    0.17814E-01         0.36741E-01         0.00000E+00
    0.17386E-01         0.35827E-01         0.00000E+00
    0.16959E-01         0.34913E-01         0.00000E+00
    0.16532E-01         0.33998E-01         0.00000E+00
    0.16105E-01         0.33082E-01         0.00000E+00
    0.15678E-01         0.32164E-01         0.00000E+00
    0.15251E-01         0.31245E-01         0.00000E+00
    0.14823E-01         0.30325E-01         0.00000E+00
    0.14395E-01         0.29404E-01         0.00000E+00
    0.13966E-01         0.28481E-01         0.00000E+00
    0.13536E-01         0.27557E-01         0.00000E+00
    0.13105E-01         0.26631E-01         0.00000E+00
    0.12673E-01         0.25703E-01         0.00000E+00
    0.12239E-01         0.24774E-01         0.00000E+00
    0.11805E-01         0.23843E-01         0.00000E+00
    0.11368E-01         0.22911E-01         0.00000E+00
    0.10930E-01         0.21977E-01         0.00000E+00
    0.10489E-01         0.21041E-01         0.00000E+00
    0.10047E-01         0.20103E-01         0.00000E+00
    0.96017E-02         0.19164E-01         0.00000E+00
    0.91544E-02         0.18223E-01         0.00000E+00
    0.87045E-02         0.17280E-01         0.00000E+00
    0.82519E-02         0.16335E-01         0.00000E+00
    0.77964E-02         0.15389E-01         0.00000E+00
    0.73378E-02         0.14441E-01         0.00000E+00
    0.68761E-02         0.13491E-01         0.00000E+00
    0.64112E-02         0.12539E-01         0.00000E+00
    0.59427E-02         0.11585E-01         0.00000E+00
    0.54707E-02         0.10630E-01         0.00000E+00
    0.49950E-02         0.96726E-02         0.00000E+00
    0.45154E-02         0.87136E-02         0.00000E+00
    0.40319E-02         0.77528E-02         0.00000E+00
    0.35441E-02         0.67901E-02         0.00000E+00
    0.30521E-02         0.58256E-02         0.00000E+00
    0.25555E-02         0.48593E-02         0.00000E+00
    0.20544E-02         0.38911E-02         0.00000E+00
    0.15484E-02         0.29211E-02         0.00000E+00
    0.10375E-02         0.19492E-02         0.00000E+00
    0.52142E-03         0.97554E-03         0.00000E+00
    0.00000E+00         0.00000E+00         0.00000E+00
    0.22815E-01         0.44588E-01         0.00000E+00
    0.22388E-01         0.43714E-01         0.00000E+00
    0.21960E-01         0.42841E-01         0.00000E+00
    0.21533E-01         0.41969E-01         0.00000E+00
    0.21106E-01         0.41096E-01         0.00000E+00
    0.20680E-01         0.40224E-01         0.00000E+00
    0.20253E-01         0.39352E-01         0.00000E+00
    0.19827E-01         0.38480E-01         0.00000E+00
    0.19401E-01         0.37607E-01         0.00000E+00
    0.18974E-01         0.36735E-01         0.00000E+00
    0.18548E-01         0.35861E-01         0.00000E+00
    0.18121E-01         0.34988E-01         0.00000E+00
    0.17694E-01         0.34113E-01         0.00000E+00
    0.17267E-01         0.33239E-01         0.00000E+00
    0.16839E-01         0.32363E-01         0.00000E+00
    0.16411E-01         0.31486E-01         0.00000E+00
    0.15981E-01         0.30609E-01         0.00000E+00
    0.15551E-01         0.29731E-01         0.00000E+00
    0.15120E-01         0.28852E-01         0.00000E+00
    0.14688E-01         0.27971E-01         0.00000E+00
    0.14255E-01         0.27090E-01         0.00000E+00
    0.13820E-01         0.26207E-01         0.00000E+00
    0.13384E-01         0.25323E-01         0.00000E+00
    0.12946E-01         0.24438E-01         0.00000E+00
    0.12506E-01         0.23552E-01         0.00000E+00
    0.12064E-01         0.22664E-01         0.00000E+00
    0.11621E-01         0.21775E-01         0.00000E+00
    0.11175E-01         0.20885E-01         0.00000E+00
    0.10726E-01         0.19993E-01         0.00000E+00
    0.10276E-01         0.19100E-01         0.00000E+00
    0.98226E-02         0.18205E-01         0.00000E+00
    0.93666E-02         0.17309E-01         0.00000E+00
    0.89077E-02         0.16412E-01         0.00000E+00
    0.84459E-02         0.15513E-01         0.00000E+00
    0.79809E-02         0.14612E-01         0.00000E+00
    0.75126E-02         0.13710E-01         0.00000E+00
    0.70410E-02         0.12807E-01         0.00000E+00
    0.65657E-02         0.11902E-01         0.00000E+00
    0.60868E-02         0.10996E-01         0.00000E+00
    0.56041E-02         0.10088E-01         0.00000E+00
    0.51174E-02         0.91781E-02         0.00000E+00
    0.46267E-02         0.82671E-02         0.00000E+00
    0.41316E-02         0.73546E-02         0.00000E+00
    0.36322E-02         0.64406E-02         0.00000E+00
    0.31282E-02         0.55251E-02         0.00000E+00
    0.26195E-02         0.46080E-02         0.00000E+00
    0.21060E-02         0.36894E-02         0.00000E+00
    0.15874E-02         0.27693E-02         0.00000E+00
    0.10637E-02         0.18477E-02         0.00000E+00
    0.53460E-03         0.92460E-03         0.00000E+00
    0.00000E+00         0.00000E+00         0.00000E+00
    0.22956E-01         0.42479E-01         0.00000E+00
    0.22540E-01         0.41642E-01         0.00000E+00
    0.22123E-01         0.40806E-01         0.00000E+00
    0.21706E-01         0.39971E-01         0.00000E+00
    0.21288E-01         0.39136E-01         0.00000E+00
    0.20869E-01         0.38301E-01         0.00000E+00
    0.20450E-01         0.37466E-01         0.00000E+00
    0.20030E-01         0.36631E-01         0.00000E+00
    0.19609E-01         0.35796E-01         0.00000E+00
    0.19187E-01         0.34961E-01         0.00000E+00
    0.18765E-01         0.34126E-01         0.00000E+00
    0.18341E-01         0.33290E-01         0.00000E+00
    0.17917E-01         0.32455E-01         0.00000E+00
    0.17492E-01         0.31618E-01         0.00000E+00
    0.17065E-01         0.30781E-01         0.00000E+00
    0.16637E-01         0.29944E-01         0.00000E+00
    0.16208E-01         0.29106E-01         0.00000E+00
    0.15777E-01         0.28267E-01         0.00000E+00
    0.15345E-01         0.27428E-01         0.00000E+00
    0.14911E-01         0.26588E-01         0.00000E+00
    0.14475E-01         0.25747E-01         0.00000E+00
    0.14037E-01         0.24905E-01         0.00000E+00
    0.13598E-01         0.24062E-01         0.00000E+00
    0.13156E-01         0.23218E-01         0.00000E+00
    0.12712E-01         0.22373E-01         0.00000E+00
    0.12266E-01         0.21527E-01         0.00000E+00
    0.11818E-01         0.20680E-01         0.00000E+00
    0.11367E-01         0.19832E-01         0.00000E+00
    0.10913E-01         0.18983E-01         0.00000E+00
    0.10456E-01         0.18133E-01         0.00000E+00
    0.99970E-02         0.17281E-01         0.00000E+00
    0.95345E-02         0.16429E-01         0.00000E+00
    0.90689E-02         0.15575E-01         0.00000E+00
    0.86000E-02         0.14720E-01         0.00000E+00
    0.81277E-02         0.13864E-01         0.00000E+00
    0.76519E-02         0.13007E-01         0.00000E+00
    0.71724E-02         0.12148E-01         0.00000E+00
    0.66891E-02         0.11288E-01         0.00000E+00
    0.62019E-02         0.10427E-01         0.00000E+00
    0.57107E-02         0.95652E-02         0.00000E+00
    0.52153E-02         0.87018E-02         0.00000E+00
    0.47155E-02         0.78371E-02         0.00000E+00
    0.42113E-02         0.69712E-02         0.00000E+00
    0.37025E-02         0.61040E-02         0.00000E+00
    0.31890E-02         0.52357E-02         0.00000E+00
    0.26706E-02         0.43661E-02         0.00000E+00
    0.21471E-02         0.34952E-02         0.00000E+00
    0.16185E-02         0.26232E-02         0.00000E+00
    0.10846E-02         0.17500E-02         0.00000E+00
    0.54510E-03         0.87559E-03         0.00000E+00
    0.00000E+00         0.00000E+00         0.00000E+00
    0.23012E-01         0.40430E-01         0.00000E+00
    0.22607E-01         0.39630E-01         0.00000E+00
    0.22201E-01         0.38830E-01         0.00000E+00
    0.21794E-01         0.38032E-01         0.00000E+00
    0.21385E-01         0.37233E-01         0.00000E+00
    0.20975E-01         0.36435E-01         0.00000E+00
    0.20564E-01         0.35637E-01         0.00000E+00
    0.20151E-01         0.34839E-01         0.00000E+00
    0.19737E-01         0.34041E-01         0.00000E+00
    0.19321E-01         0.33243E-01         0.00000E+00
    0.18903E-01         0.32445E-01         0.00000E+00
    0.18484E-01         0.31647E-01         0.00000E+00
    0.18064E-01         0.30849E-01         0.00000E+00
    0.17641E-01         0.30051E-01         0.00000E+00
    0.17217E-01         0.29252E-01         0.00000E+00
    0.16792E-01         0.28453E-01         0.00000E+00
    0.16364E-01         0.27653E-01         0.00000E+00
    0.15934E-01         0.26853E-01         0.00000E+00
    0.15502E-01         0.26052E-01         0.00000E+00
    0.15068E-01         0.25251E-01         0.00000E+00
    0.14632E-01         0.24450E-01         0.00000E+00
    0.14194E-01         0.23647E-01         0.00000E+00
    0.13753E-01         0.22844E-01         0.00000E+00
    0.13310E-01         0.22040E-01         0.00000E+00
    0.12864E-01         0.21236E-01         0.00000E+00
    0.12415E-01         0.20430E-01         0.00000E+00
    0.11964E-01         0.19624E-01         0.00000E+00
    0.11509E-01         0.18817E-01         0.00000E+00
    0.11052E-01         0.18009E-01         0.00000E+00
    0.10591E-01         0.17200E-01         0.00000E+00
    0.10128E-01         0.16391E-01         0.00000E+00
    0.96609E-02         0.15580E-01         0.00000E+00
    0.91905E-02         0.14769E-01         0.00000E+00
    0.87166E-02         0.13956E-01         0.00000E+00
    0.82390E-02         0.13143E-01         0.00000E+00
    0.77576E-02         0.12329E-01         0.00000E+00
    0.72724E-02         0.11514E-01         0.00000E+00
    0.67831E-02         0.10697E-01         0.00000E+00
    0.62897E-02         0.98803E-02         0.00000E+00
    0.57921E-02         0.90621E-02         0.00000E+00
    0.52900E-02         0.82430E-02         0.00000E+00
    0.47835E-02         0.74230E-02         0.00000E+00
    0.42723E-02         0.66020E-02         0.00000E+00
    0.37564E-02         0.57800E-02         0.00000E+00
    0.32356E-02         0.49570E-02         0.00000E+00
    0.27097E-02         0.41332E-02         0.00000E+00
    0.21787E-02         0.33083E-02         0.00000E+00
    0.16423E-02         0.24826E-02         0.00000E+00
    0.11005E-02         0.16560E-02         0.00000E+00
    0.55313E-03         0.82842E-03         0.00000E+00
    0.00000E+00         0.00000E+00         0.00000E+00
    0.22994E-01         0.38439E-01         0.00000E+00
    0.22601E-01         0.37676E-01         0.00000E+00
    0.22206E-01         0.36912E-01         0.00000E+00
    0.21809E-01         0.36150E-01         0.00000E+00
    0.21410E-01         0.35387E-01         0.00000E+00
    0.21008E-01         0.34625E-01         0.00000E+00
    0.20605E-01         0.33864E-01         0.00000E+00
    0.20200E-01         0.33102E-01         0.00000E+00
    0.19793E-01         0.32341E-01         0.00000E+00
    0.19384E-01         0.31579E-01         0.00000E+00
    0.18972E-01         0.30818E-01         0.00000E+00
    0.18559E-01         0.30057E-01         0.00000E+00
    0.18143E-01         0.29295E-01         0.00000E+00
    0.17725E-01         0.28534E-01         0.00000E+00
    0.17305E-01         0.27772E-01         0.00000E+00
    0.16882E-01         0.27011E-01         0.00000E+00
    0.16457E-01         0.26249E-01         0.00000E+00
    0.16030E-01         0.25486E-01         0.00000E+00
    0.15600E-01         0.24723E-01         0.00000E+00
    0.15168E-01         0.23960E-01         0.00000E+00
    0.14732E-01         0.23197E-01         0.00000E+00
    0.14295E-01         0.22433E-01         0.00000E+00
    0.13854E-01         0.21668E-01         0.00000E+00
    0.13411E-01         0.20903E-01         0.00000E+00
    0.12964E-01         0.20138E-01         0.00000E+00
    0.12515E-01         0.19372E-01         0.00000E+00
    0.12062E-01         0.18605E-01         0.00000E+00
    0.11606E-01         0.17838E-01         0.00000E+00
    0.11147E-01         0.17070E-01         0.00000E+00
    0.10684E-01         0.16301E-01         0.00000E+00
    0.10218E-01         0.15532E-01         0.00000E+00
    0.97488E-02         0.14762E-01         0.00000E+00
    0.92755E-02         0.13992E-01         0.00000E+00
    0.87983E-02         0.13220E-01         0.00000E+00
    0.83173E-02         0.12448E-01         0.00000E+00
    0.78323E-02         0.11676E-01         0.00000E+00
    0.73432E-02         0.10902E-01         0.00000E+00
    0.68498E-02         0.10128E-01         0.00000E+00
    0.63522E-02         0.93533E-02         0.00000E+00
    0.58501E-02         0.85777E-02         0.00000E+00
    0.53434E-02         0.78014E-02         0.00000E+00
    0.48321E-02         0.70243E-02         0.00000E+00
    0.43160E-02         0.62465E-02         0.00000E+00
    0.37949E-02         0.54681E-02         0.00000E+00
    0.32689E-02         0.46889E-02         0.00000E+00
    0.27377E-02         0.39091E-02         0.00000E+00
    0.22012E-02         0.31285E-02         0.00000E+00
    0.16594E-02         0.23473E-02         0.00000E+00
    0.11119E-02         0.15655E-02         0.00000E+00
    0.55887E-03         0.78306E-03         0.00000E+00
    0.00000E+00         0.00000E+00         0.00000E+00
    0.22912E-01         0.36508E-01         0.00000E+00
    0.22530E-01         0.35779E-01         0.00000E+00
    0.22146E-01         0.35052E-01         0.00000E+00
    0.21759E-01         0.34324E-01         0.00000E+00
    0.21369E-01         0.33597E-01         0.00000E+00
    0.20977E-01         0.32871E-01         0.00000E+00
    0.20583E-01         0.32145E-01         0.00000E+00
    0.20186E-01         0.31419E-01         0.00000E+00
    0.19786E-01         0.30693E-01         0.00000E+00
    0.19384E-01         0.29968E-01         0.00000E+00
    0.18979E-01         0.29242E-01         0.00000E+00
    0.18572E-01         0.28517E-01         0.00000E+00
    0.18162E-01         0.27792E-01         0.00000E+00
    0.17749E-01         0.27067E-01         0.00000E+00
    0.17334E-01         0.26341E-01         0.00000E+00
    0.16916E-01         0.25616E-01         0.00000E+00
    0.16495E-01         0.24891E-01         0.00000E+00
    0.16071E-01         0.24165E-01         0.00000E+00
    0.15644E-01         0.23439E-01         0.00000E+00
    0.15214E-01         0.22713E-01         0.00000E+00
    0.14781E-01         0.21987E-01         0.00000E+00
    0.14346E-01         0.21260E-01         0.00000E+00
    0.13907E-01         0.20533E-01         0.00000E+00
    0.13464E-01         0.19806E-01         0.00000E+00
    0.13019E-01         0.19079E-01         0.00000E+00
    0.12570E-01         0.18351E-01         0.00000E+00
    0.12118E-01         0.17622E-01         0.00000E+00
    0.11662E-01         0.16894E-01         0.00000E+00
    0.11202E-01         0.16164E-01         0.00000E+00
    0.10739E-01         0.15435E-01         0.00000E+00
    0.10272E-01         0.14705E-01         0.00000E+00
    0.98015E-02         0.13974E-01         0.00000E+00
    0.93269E-02         0.13243E-01         0.00000E+00
    0.88482E-02         0.12511E-01         0.00000E+00
    0.83654E-02         0.11779E-01         0.00000E+00
    0.78784E-02         0.11047E-01         0.00000E+00
    0.73872E-02         0.10314E-01         0.00000E+00
    0.68915E-02         0.95800E-02         0.00000E+00
    0.63913E-02         0.88459E-02         0.00000E+00
    0.58865E-02         0.81113E-02         0.00000E+00
    0.53771E-02         0.73762E-02         0.00000E+00
    0.48628E-02         0.66406E-02         0.00000E+00
    0.43436E-02         0.59045E-02         0.00000E+00
    0.38194E-02         0.51680E-02         0.00000E+00
    0.32901E-02         0.44310E-02         0.00000E+00
    0.27555E-02         0.36935E-02         0.00000E+00
    0.22156E-02         0.29556E-02         0.00000E+00
    0.16702E-02         0.22173E-02         0.00000E+00
    0.11192E-02         0.14786E-02         0.00000E+00
    0.56253E-03         0.73946E-03         0.00000E+00
    0.00000E+00         0.00000E+00         0.00000E+00
    0.22773E-01         0.34633E-01         0.00000E+00
    0.22403E-01         0.33940E-01         0.00000E+00
    0.22029E-01         0.33247E-01         0.00000E+00
    0.21652E-01         0.32554E-01         0.00000E+00
    0.21273E-01         0.31862E-01         0.00000E+00
    0.20890E-01         0.31171E-01         0.00000E+00
    0.20504E-01         0.30479E-01         0.00000E+00
    0.20116E-01         0.29788E-01         0.00000E+00
    0.19724E-01         0.29098E-01         0.00000E+00
    0.19330E-01         0.28407E-01         0.00000E+00
    0.18932E-01         0.27717E-01         0.00000E+00
    0.18532E-01         0.27027E-01         0.00000E+00
    0.18128E-01         0.26337E-01         0.00000E+00
    0.17721E-01         0.25647E-01         0.00000E+00
    0.17311E-01         0.24957E-01         0.00000E+00
    0.16898E-01         0.24268E-01         0.00000E+00
    0.16482E-01         0.23578E-01         0.00000E+00
    0.16063E-01         0.22888E-01         0.00000E+00
    0.15640E-01         0.22198E-01         0.00000E+00
    0.15214E-01         0.21508E-01         0.00000E+00
    0.14785E-01         0.20818E-01         0.00000E+00
    0.14352E-01         0.20128E-01         0.00000E+00
    0.13915E-01         0.19438E-01         0.00000E+00
    0.13476E-01         0.18747E-01         0.00000E+00
    0.13032E-01         0.18056E-01         0.00000E+00
    0.12585E-01         0.17365E-01         0.00000E+00
    0.12134E-01         0.16674E-01         0.00000E+00
    0.11680E-01         0.15983E-01         0.00000E+00
    0.11221E-01         0.15291E-01         0.00000E+00
    0.10759E-01         0.14599E-01         0.00000E+00
    0.10293E-01         0.13907E-01         0.00000E+00
    0.98224E-02         0.13214E-01         0.00000E+00
    0.93479E-02         0.12521E-01         0.00000E+00
    0.88691E-02         0.11828E-01         0.00000E+00
    0.83861E-02         0.11135E-01         0.00000E+00
    0.78987E-02         0.10441E-01         0.00000E+00
    0.74068E-02         0.97467E-02         0.00000E+00
    0.69104E-02         0.90523E-02         0.00000E+00
    0.64093E-02         0.83575E-02         0.00000E+00
    0.59035E-02         0.76625E-02         0.00000E+00
    0.53929E-02         0.69671E-02         0.00000E+00
    0.48773E-02         0.62715E-02         0.00000E+00
    0.43568E-02         0.55756E-02         0.00000E+00
    0.38311E-02         0.48794E-02         0.00000E+00
    0.33003E-02         0.41829E-02         0.00000E+00
    0.27641E-02         0.34863E-02         0.00000E+00
    0.22225E-02         0.27894E-02         0.00000E+00
    0.16754E-02         0.20923E-02         0.00000E+00
    0.11227E-02         0.13950E-02         0.00000E+00
    0.56428E-03         0.69757E-03         0.00000E+00
    0.00000E+00         0.00000E+00         0.00000E+00
    0.22586E-01         0.32815E-01         0.00000E+00
    0.22226E-01         0.32156E-01         0.00000E+00
    0.21863E-01         0.31497E-01         0.00000E+00
    0.21497E-01         0.30838E-01         0.00000E+00
    0.21127E-01         0.30181E-01         0.00000E+00
    0.20754E-01         0.29523E-01         0.00000E+00
    0.20378E-01         0.28866E-01         0.00000E+00
    0.19998E-01         0.28209E-01         0.00000E+00
    0.19615E-01         0.27553E-01         0.00000E+00
    0.19228E-01         0.26896E-01         0.00000E+00
    0.18838E-01         0.26241E-01         0.00000E+00
    0.18445E-01         0.25585E-01         0.00000E+00
    0.18048E-01         0.24929E-01         0.00000E+00
    0.17648E-01         0.24274E-01         0.00000E+00
    0.17244E-01         0.23619E-01         0.00000E+00
    0.16837E-01         0.22964E-01         0.00000E+00
    0.16426E-01         0.22309E-01         0.00000E+00
    0.16012E-01         0.21654E-01         0.00000E+00
    0.15594E-01         0.20999E-01         0.00000E+00
    0.15172E-01         0.20345E-01         0.00000E+00
    0.14747E-01         0.19690E-01         0.00000E+00
    0.14318E-01         0.19035E-01         0.00000E+00
    0.13886E-01         0.18380E-01         0.00000E+00
    0.13449E-01         0.17725E-01         0.00000E+00
    0.13009E-01         0.17070E-01         0.00000E+00
    0.12565E-01         0.16415E-01         0.00000E+00
    0.12117E-01         0.15760E-01         0.00000E+00
    0.11665E-01         0.15105E-01         0.00000E+00
    0.11208E-01         0.14449E-01         0.00000E+00
    0.10748E-01         0.13794E-01         0.00000E+00
    0.10284E-01         0.13138E-01         0.00000E+00
    0.98148E-02         0.12482E-01         0.00000E+00
    0.93417E-02         0.11826E-01         0.00000E+00
    0.88642E-02         0.11170E-01         0.00000E+00
    0.83822E-02         0.10514E-01         0.00000E+00
    0.78957E-02         0.98575E-02         0.00000E+00
    0.74046E-02         0.92010E-02         0.00000E+00
    0.69088E-02         0.85443E-02         0.00000E+00
    0.64083E-02         0.78875E-02         0.00000E+00
    0.59029E-02         0.72306E-02         0.00000E+00
    0.53926E-02         0.65736E-02         0.00000E+00
    0.48773E-02         0.59164E-02         0.00000E+00
    0.43569E-02         0.52592E-02         0.00000E+00
    0.38314E-02         0.46019E-02         0.00000E+00
    0.33005E-02         0.39445E-02         0.00000E+00
    0.27644E-02         0.32871E-02         0.00000E+00
    0.22227E-02         0.26296E-02         0.00000E+00
    0.16756E-02         0.19722E-02         0.00000E+00
    0.11228E-02         0.13147E-02         0.00000E+00
    0.56432E-03         0.65733E-03         0.00000E+00
    0.00000E+00         0.00000E+00         0.00000E+00
    0.22357E-01         0.31053E-01         0.00000E+00
    0.22008E-01         0.30427E-01         0.00000E+00
    0.21655E-01         0.29801E-01         0.00000E+00
    0.21299E-01         0.29176E-01         0.00000E+00
    0.20939E-01         0.28552E-01         0.00000E+00
    0.20576E-01         0.27927E-01         0.00000E+00
    0.20209E-01         0.27304E-01         0.00000E+00
    0.19838E-01         0.26680E-01         0.00000E+00
    0.19463E-01         0.26057E-01         0.00000E+00
    0.19085E-01         0.25435E-01         0.00000E+00
    0.18703E-01         0.24812E-01         0.00000E+00
    0.18317E-01         0.24190E-01         0.00000E+00
    0.17927E-01         0.23568E-01         0.00000E+00
    0.17534E-01         0.22947E-01         0.00000E+00
    0.17137E-01         0.22325E-01         0.00000E+00
    0.16736E-01         0.21704E-01         0.00000E+00
    0.16332E-01         0.21083E-01         0.00000E+00
    0.15923E-01         0.20462E-01         0.00000E+00
    0.15511E-01         0.19841E-01         0.00000E+00
    0.15095E-01         0.19221E-01         0.00000E+00
    0.14674E-01         0.18600E-01         0.00000E+00
    0.14250E-01         0.17980E-01         0.00000E+00
    0.13822E-01         0.17359E-01         0.00000E+00
    0.13390E-01         0.16739E-01         0.00000E+00
    0.12954E-01         0.16119E-01         0.00000E+00
    0.12513E-01         0.15498E-01         0.00000E+00
    0.12069E-01         0.14878E-01         0.00000E+00
    0.11620E-01         0.14258E-01         0.00000E+00
    0.11167E-01         0.13638E-01         0.00000E+00
    0.10710E-01         0.13017E-01         0.00000E+00
    0.10248E-01         0.12397E-01         0.00000E+00
    0.97820E-02         0.11777E-01         0.00000E+00
    0.93114E-02         0.11157E-01         0.00000E+00
    0.88363E-02         0.10537E-01         0.00000E+00
    0.83566E-02         0.99163E-02         0.00000E+00
    0.78722E-02         0.92960E-02         0.00000E+00
    0.73831E-02         0.86758E-02         0.00000E+00
    0.68892E-02         0.80556E-02         0.00000E+00
    0.63904E-02         0.74354E-02         0.00000E+00
    0.58867E-02         0.68153E-02         0.00000E+00
    0.53781E-02         0.61951E-02         0.00000E+00
    0.48643E-02         0.55751E-02         0.00000E+00
    0.43454E-02         0.49551E-02         0.00000E+00
    0.38213E-02         0.43352E-02         0.00000E+00
    0.32920E-02         0.37154E-02         0.00000E+00
    0.27572E-02         0.30957E-02         0.00000E+00
    0.22170E-02         0.24762E-02         0.00000E+00
    0.16712E-02         0.18568E-02         0.00000E+00
    0.11199E-02         0.12377E-02         0.00000E+00
    0.56283E-03         0.61871E-03         0.00000E+00
    0.00000E+00         0.00000E+00         0.00000E+00
    0.22091E-01         0.29346E-01         0.00000E+00
    0.21754E-01         0.28752E-01         0.00000E+00
    0.21412E-01         0.28159E-01         0.00000E+00
    0.21066E-01         0.27567E-01         0.00000E+00
    0.20716E-01         0.26975E-01         0.00000E+00
    0.20362E-01         0.26383E-01         0.00000E+00
    0.20004E-01         0.25792E-01         0.00000E+00
    0.19642E-01         0.25201E-01         0.00000E+00
    0.19276E-01         0.24611E-01         0.00000E+00
    0.18906E-01         0.24021E-01         0.00000E+00
    0.18532E-01         0.23431E-01         0.00000E+00
    0.18154E-01         0.22841E-01         0.00000E+00
    0.17772E-01         0.22252E-01         0.00000E+00
    0.17386E-01         0.21664E-01         0.00000E+00
    0.16996E-01         0.21075E-01         0.00000E+00
    0.16602E-01         0.20487E-01         0.00000E+00
    0.16204E-01         0.19899E-01         0.00000E+00
    0.15802E-01         0.19311E-01         0.00000E+00
    0.15396E-01         0.18723E-01         0.00000E+00
    0.14985E-01         0.18136E-01         0.00000E+00
    0.14571E-01         0.17548E-01         0.00000E+00
    0.14152E-01         0.16961E-01         0.00000E+00
    0.13729E-01         0.16374E-01         0.00000E+00
    0.13302E-01         0.15788E-01         0.00000E+00
    0.12870E-01         0.15201E-01         0.00000E+00
    0.12435E-01         0.14614E-01         0.00000E+00
    0.11995E-01         0.14028E-01         0.00000E+00
    0.11550E-01         0.13442E-01         0.00000E+00
    0.11101E-01         0.12856E-01         0.00000E+00
    0.10648E-01         0.12270E-01         0.00000E+00
    0.10190E-01         0.11684E-01         0.00000E+00
    0.97272E-02         0.11098E-01         0.00000E+00
    0.92601E-02         0.10512E-01         0.00000E+00
    0.87884E-02         0.99265E-02         0.00000E+00
    0.83119E-02         0.93410E-02         0.00000E+00
    0.78306E-02         0.87557E-02         0.00000E+00
    0.73446E-02         0.81705E-02         0.00000E+00
    0.68536E-02         0.75855E-02         0.00000E+00
    0.63578E-02         0.70006E-02         0.00000E+00
    0.58569E-02         0.64159E-02         0.00000E+00
    0.53510E-02         0.58314E-02         0.00000E+00
    0.48400E-02         0.52470E-02         0.00000E+00
    0.43238E-02         0.46629E-02         0.00000E+00
    0.38024E-02         0.40790E-02         0.00000E+00
    0.32757E-02         0.34953E-02         0.00000E+00
    0.27435E-02         0.29120E-02         0.00000E+00
    0.22060E-02         0.23289E-02         0.00000E+00
    0.16629E-02         0.17461E-02         0.00000E+00
    0.11143E-02         0.11637E-02         0.00000E+00
    0.56002E-03         0.58165E-03         0.00000E+00
    0.00000E+00         0.00000E+00         0.00000E+00
    0.21796E-01         0.27693E-01         0.00000E+00
    0.21469E-01         0.27132E-01         0.00000E+00
    0.21137E-01         0.26570E-01         0.00000E+00
    0.20802E-01         0.26009E-01         0.00000E+00
    0.20462E-01         0.25449E-01         0.00000E+00
    0.20117E-01         0.24889E-01         0.00000E+00
    0.19769E-01         0.24329E-01         0.00000E+00
    0.19416E-01         0.23770E-01         0.00000E+00
    0.19059E-01         0.23212E-01         0.00000E+00
    0.18697E-01         0.22653E-01         0.00000E+00
    0.18332E-01         0.22096E-01         0.00000E+00
    0.17962E-01         0.21538E-01         0.00000E+00
    0.17588E-01         0.20981E-01         0.00000E+00
    0.17209E-01         0.20424E-01         0.00000E+00
    0.16827E-01         0.19867E-01         0.00000E+00
    0.16440E-01         0.19311E-01         0.00000E+00
    0.16049E-01         0.18755E-01         0.00000E+00
    0.15653E-01         0.18199E-01         0.00000E+00
    0.15254E-01         0.17644E-01         0.00000E+00
    0.14849E-01         0.17089E-01         0.00000E+00
    0.14441E-01         0.16534E-01         0.00000E+00
    0.14028E-01         0.15979E-01         0.00000E+00
    0.13611E-01         0.15425E-01         0.00000E+00
    0.13189E-01         0.14870E-01         0.00000E+00
    0.12763E-01         0.14316E-01         0.00000E+00
    0.12333E-01         0.13762E-01         0.00000E+00
    0.11898E-01         0.13209E-01         0.00000E+00
    0.11458E-01         0.12655E-01         0.00000E+00
    0.11014E-01         0.12102E-01         0.00000E+00
    0.10565E-01         0.11549E-01         0.00000E+00
    0.10112E-01         0.10996E-01         0.00000E+00
    0.96535E-02         0.10444E-01         0.00000E+00
    0.91907E-02         0.98916E-02         0.00000E+00
    0.87231E-02         0.93395E-02         0.00000E+00
    0.82507E-02         0.87876E-02         0.00000E+00
    0.77735E-02         0.82360E-02         0.00000E+00
    0.72914E-02         0.76846E-02         0.00000E+00
    0.68044E-02         0.71335E-02         0.00000E+00
    0.63123E-02         0.65826E-02         0.00000E+00
    0.58153E-02         0.60320E-02         0.00000E+00
    0.53131E-02         0.54818E-02         0.00000E+00
    0.48059E-02         0.49318E-02         0.00000E+00
    0.42934E-02         0.43822E-02         0.00000E+00
    0.37757E-02         0.38329E-02         0.00000E+00
    0.32527E-02         0.32841E-02         0.00000E+00
    0.27243E-02         0.27356E-02         0.00000E+00
    0.21905E-02         0.21875E-02         0.00000E+00
    0.16512E-02         0.16399E-02         0.00000E+00
    0.11064E-02         0.10927E-02         0.00000E+00
    0.55605E-03         0.54611E-03         0.00000E+00
    0.00000E+00         0.00000E+00         0.00000E+00
    0.21477E-01         0.26094E-01         0.00000E+00
    0.21160E-01         0.25563E-01         0.00000E+00
    0.20839E-01         0.25033E-01         0.00000E+00
    0.20513E-01         0.24503E-01         0.00000E+00
    0.20182E-01         0.23973E-01         0.00000E+00
    0.19848E-01         0.23444E-01         0.00000E+00
    0.19508E-01         0.22916E-01         0.00000E+00
    0.19165E-01         0.22387E-01         0.00000E+00
    0.18816E-01         0.21860E-01         0.00000E+00
    0.18464E-01         0.21332E-01         0.00000E+00
    0.18106E-01         0.20805E-01         0.00000E+00
    0.17745E-01         0.20279E-01         0.00000E+00
    0.17379E-01         0.19753E-01         0.00000E+00
    0.17008E-01         0.19227E-01         0.00000E+00
    0.16633E-01         0.18701E-01         0.00000E+00
    0.16254E-01         0.18176E-01         0.00000E+00
    0.15870E-01         0.17651E-01         0.00000E+00
    0.15481E-01         0.17127E-01         0.00000E+00
    0.15088E-01         0.16603E-01         0.00000E+00
    0.14691E-01         0.16079E-01         0.00000E+00
    0.14289E-01         0.15555E-01         0.00000E+00
    0.13883E-01         0.15032E-01         0.00000E+00
    0.13472E-01         0.14509E-01         0.00000E+00
    0.13056E-01         0.13986E-01         0.00000E+00
    0.12636E-01         0.13464E-01         0.00000E+00
    0.12211E-01         0.12941E-01         0.00000E+00
    0.11781E-01         0.12420E-01         0.00000E+00
    0.11347E-01         0.11898E-01         0.00000E+00
    0.10909E-01         0.11377E-01         0.00000E+00
    0.10465E-01         0.10856E-01         0.00000E+00
    0.10017E-01         0.10335E-01         0.00000E+00
    0.95637E-02         0.98146E-02         0.00000E+00
    0.91059E-02         0.92945E-02         0.00000E+00
    0.86432E-02         0.87748E-02         0.00000E+00
    0.81757E-02         0.82553E-02         0.00000E+00
    0.77032E-02         0.77362E-02         0.00000E+00
    0.72259E-02         0.72174E-02         0.00000E+00
    0.67435E-02         0.66990E-02         0.00000E+00
    0.62561E-02         0.61809E-02         0.00000E+00
    0.57636E-02         0.56632E-02         0.00000E+00
    0.52661E-02         0.51460E-02         0.00000E+00
    0.47634E-02         0.46291E-02         0.00000E+00
    0.42555E-02         0.41127E-02         0.00000E+00
    0.37424E-02         0.35968E-02         0.00000E+00
    0.32240E-02         0.30813E-02         0.00000E+00
    0.27002E-02         0.25663E-02         0.00000E+00
    0.21711E-02         0.20519E-02         0.00000E+00
    0.16366E-02         0.15380E-02         0.00000E+00
    0.10966E-02         0.10247E-02         0.00000E+00
    0.55110E-03         0.51203E-03         0.00000E+00
    0.00000E+00         0.00000E+00         0.00000E+00
    0.21138E-01         0.24548E-01         0.00000E+00
    0.20831E-01         0.24047E-01         0.00000E+00
    0.20520E-01         0.23547E-01         0.00000E+00
    0.20204E-01         0.23047E-01         0.00000E+00
    0.19883E-01         0.22547E-01         0.00000E+00
    0.19558E-01         0.22048E-01         0.00000E+00
    0.19228E-01         0.21550E-01         0.00000E+00
    0.18893E-01         0.21051E-01         0.00000E+00
    0.18554E-01         0.20554E-01         0.00000E+00
    0.18210E-01         0.20056E-01         0.00000E+00
    0.17861E-01         0.19559E-01         0.00000E+00
    0.17508E-01         0.19063E-01         0.00000E+00
    0.17150E-01         0.18567E-01         0.00000E+00
    0.16787E-01         0.18071E-01         0.00000E+00
    0.16420E-01         0.17576E-01         0.00000E+00
    0.16048E-01         0.17081E-01         0.00000E+00
    0.15672E-01         0.16586E-01         0.00000E+00
    0.15291E-01         0.16092E-01         0.00000E+00
    0.14905E-01         0.15598E-01         0.00000E+00
    0.14514E-01         0.15105E-01         0.00000E+00
    0.14119E-01         0.14612E-01         0.00000E+00
    0.13719E-01         0.14119E-01         0.00000E+00
    0.13315E-01         0.13626E-01         0.00000E+00
    0.12906E-01         0.13134E-01         0.00000E+00
    0.12492E-01         0.12642E-01         0.00000E+00
    0.12073E-01         0.12151E-01         0.00000E+00
    0.11650E-01         0.11660E-01         0.00000E+00
    0.11221E-01         0.11169E-01         0.00000E+00
    0.10788E-01         0.10678E-01         0.00000E+00
    0.10351E-01         0.10188E-01         0.00000E+00
    0.99081E-02         0.96986E-02         0.00000E+00
    0.94607E-02         0.92093E-02         0.00000E+00
    0.90084E-02         0.87203E-02         0.00000E+00
    0.85512E-02         0.82317E-02         0.00000E+00
    0.80891E-02         0.77435E-02         0.00000E+00
    0.76220E-02         0.72558E-02         0.00000E+00
    0.71500E-02         0.67684E-02         0.00000E+00
    0.66729E-02         0.62815E-02         0.00000E+00
    0.61908E-02         0.57950E-02         0.00000E+00
    0.57037E-02         0.53090E-02         0.00000E+00
    0.52114E-02         0.48235E-02         0.00000E+00
    0.47140E-02         0.43385E-02         0.00000E+00
    0.42114E-02         0.38541E-02         0.00000E+00
    0.37036E-02         0.33701E-02         0.00000E+00
    0.31906E-02         0.28868E-02         0.00000E+00
    0.26722E-02         0.24040E-02         0.00000E+00
    0.21486E-02         0.19218E-02         0.00000E+00
    0.16196E-02         0.14403E-02         0.00000E+00
    0.10852E-02         0.95950E-03         0.00000E+00
    0.54534E-03         0.47938E-03         0.00000E+00
    0.00000E+00         0.00000E+00         0.00000E+00
    0.20784E-01         0.23053E-01         0.00000E+00
    0.20488E-01         0.22582E-01         0.00000E+00
    0.20186E-01         0.22110E-01         0.00000E+00
    0.19880E-01         0.21640E-01         0.00000E+00
    0.19569E-01         0.21169E-01         0.00000E+00
    0.19253E-01         0.20699E-01         0.00000E+00
    0.18932E-01         0.20230E-01         0.00000E+00
    0.18607E-01         0.19761E-01         0.00000E+00
    0.18276E-01         0.19293E-01         0.00000E+00
    0.17941E-01         0.18825E-01         0.00000E+00
    0.17601E-01         0.18357E-01         0.00000E+00
    0.17256E-01         0.17890E-01         0.00000E+00
    0.16906E-01         0.17423E-01         0.00000E+00
    0.16551E-01         0.16956E-01         0.00000E+00
    0.16192E-01         0.16490E-01         0.00000E+00
    0.15828E-01         0.16025E-01         0.00000E+00
    0.15459E-01         0.15559E-01         0.00000E+00
    0.15085E-01         0.15095E-01         0.00000E+00
    0.14706E-01         0.14630E-01         0.00000E+00
    0.14323E-01         0.14166E-01         0.00000E+00
    0.13935E-01         0.13702E-01         0.00000E+00
    0.13542E-01         0.13239E-01         0.00000E+00
    0.13144E-01         0.12776E-01         0.00000E+00
    0.12742E-01         0.12313E-01         0.00000E+00
    0.12334E-01         0.11851E-01         0.00000E+00
    0.11922E-01         0.11389E-01         0.00000E+00
    0.11505E-01         0.10928E-01         0.00000E+00
    0.11083E-01         0.10467E-01         0.00000E+00
    0.10656E-01         0.10006E-01         0.00000E+00
    0.10225E-01         0.95463E-02         0.00000E+00
    0.97884E-02         0.90865E-02         0.00000E+00
    0.93470E-02         0.86271E-02         0.00000E+00
    0.89006E-02         0.81682E-02         0.00000E+00
    0.84494E-02         0.77097E-02         0.00000E+00
    0.79932E-02         0.72517E-02         0.00000E+00
    0.75320E-02         0.67942E-02         0.00000E+00
    0.70658E-02         0.63371E-02         0.00000E+00
    0.65946E-02         0.58806E-02         0.00000E+00
    0.61183E-02         0.54245E-02         0.00000E+00
    0.56370E-02         0.49690E-02         0.00000E+00
    0.51505E-02         0.45141E-02         0.00000E+00
    0.46590E-02         0.40597E-02         0.00000E+00
    0.41623E-02         0.36059E-02         0.00000E+00
    0.36604E-02         0.31527E-02         0.00000E+00
    0.31533E-02         0.27002E-02         0.00000E+00
    0.26410E-02         0.22483E-02         0.00000E+00
    0.21235E-02         0.17972E-02         0.00000E+00
    0.16006E-02         0.13467E-02         0.00000E+00
    0.10724E-02         0.89703E-03         0.00000E+00
    0.53892E-03         0.44811E-03         0.00000E+00
    0.00000E+00         0.00000E+00         0.00000E+00
    0.20420E-01         0.21609E-01         0.00000E+00
    0.20134E-01         0.21166E-01         0.00000E+00
    0.19842E-01         0.20723E-01         0.00000E+00
    0.19546E-01         0.20281E-01         0.00000E+00
    0.19244E-01         0.19839E-01         0.00000E+00
    0.18937E-01         0.19397E-01         0.00000E+00
    0.18625E-01         0.18956E-01         0.00000E+00
    0.18309E-01         0.18516E-01         0.00000E+00
    0.17987E-01         0.18075E-01         0.00000E+00
    0.17660E-01         0.17636E-01         0.00000E+00
    0.17328E-01         0.17196E-01         0.00000E+00
    0.16992E-01         0.16758E-01         0.00000E+00
    0.16650E-01         0.16319E-01         0.00000E+00
    0.16303E-01         0.15881E-01         0.00000E+00
    0.15952E-01         0.15444E-01         0.00000E+00
    0.15595E-01         0.15006E-01         0.00000E+00
    0.15234E-01         0.14570E-01         0.00000E+00
    0.14868E-01         0.14133E-01         0.00000E+00
    0.14497E-01         0.13697E-01         0.00000E+00
    0.14121E-01         0.13262E-01         0.00000E+00
    0.13740E-01         0.12826E-01         0.00000E+00
    0.13354E-01         0.12392E-01         0.00000E+00
    0.12963E-01         0.11957E-01         0.00000E+00
    0.12567E-01         0.11523E-01         0.00000E+00
    0.12167E-01         0.11090E-01         0.00000E+00
    0.11761E-01         0.10657E-01         0.00000E+00
    0.11351E-01         0.10224E-01         0.00000E+00
    0.10935E-01         0.97919E-02         0.00000E+00
    0.10515E-01         0.93601E-02         0.00000E+00
    0.10090E-01         0.89288E-02         0.00000E+00
    0.96600E-02         0.84979E-02         0.00000E+00
    0.92250E-02         0.80675E-02         0.00000E+00
    0.87850E-02         0.76376E-02         0.00000E+00
    0.83400E-02         0.72081E-02         0.00000E+00
    0.78900E-02         0.67792E-02         0.00000E+00
    0.74351E-02         0.63508E-02         0.00000E+00
    0.69751E-02         0.59229E-02         0.00000E+00
    0.65101E-02         0.54956E-02         0.00000E+00
    0.60401E-02         0.50689E-02         0.00000E+00
    0.55650E-02         0.46427E-02         0.00000E+00
    0.50849E-02         0.42171E-02         0.00000E+00
    0.45996E-02         0.37922E-02         0.00000E+00
    0.41093E-02         0.33679E-02         0.00000E+00
    0.36138E-02         0.29443E-02         0.00000E+00
    0.31132E-02         0.25214E-02         0.00000E+00
    0.26073E-02         0.20992E-02         0.00000E+00
    0.20964E-02         0.16777E-02         0.00000E+00
    0.15801E-02         0.12571E-02         0.00000E+00
    0.10587E-02         0.83720E-03         0.00000E+00
    0.53199E-03         0.41817E-03         0.00000E+00
    0.00000E+00         0.00000E+00         0.00000E+00
    0.20051E-01         0.20215E-01         0.00000E+00
    0.19774E-01         0.19799E-01         0.00000E+00
    0.19492E-01         0.19383E-01         0.00000E+00
    0.19205E-01         0.18969E-01         0.00000E+00
    0.18912E-01         0.18554E-01         0.00000E+00
    0.18614E-01         0.18140E-01         0.00000E+00
    0.18312E-01         0.17727E-01         0.00000E+00
    0.18003E-01         0.17314E-01         0.00000E+00
    0.17690E-01         0.16901E-01         0.00000E+00
    0.17372E-01         0.16489E-01         0.00000E+00
    0.17049E-01         0.16077E-01         0.00000E+00
    0.16720E-01         0.15666E-01         0.00000E+00
    0.16387E-01         0.15255E-01         0.00000E+00
    0.16048E-01         0.14844E-01         0.00000E+00
    0.15704E-01         0.14434E-01         0.00000E+00
    0.15355E-01         0.14025E-01         0.00000E+00
    0.15002E-01         0.13616E-01         0.00000E+00
    0.14643E-01         0.13207E-01         0.00000E+00
    0.14279E-01         0.12798E-01         0.00000E+00
    0.13910E-01         0.12390E-01         0.00000E+00
    0.13537E-01         0.11983E-01         0.00000E+00
    0.13158E-01         0.11576E-01         0.00000E+00
    0.12774E-01         0.11169E-01         0.00000E+00
    0.12386E-01         0.10763E-01         0.00000E+00
    0.11992E-01         0.10357E-01         0.00000E+00
    0.11593E-01         0.99518E-02         0.00000E+00
    0.11190E-01         0.95469E-02         0.00000E+00
    0.10781E-01         0.91425E-02         0.00000E+00
    0.10367E-01         0.87385E-02         0.00000E+00
    0.99490E-02         0.83351E-02         0.00000E+00
    0.95255E-02         0.79321E-02         0.00000E+00
    0.90970E-02         0.75296E-02         0.00000E+00
    0.86635E-02         0.71277E-02         0.00000E+00
    0.82251E-02         0.67263E-02         0.00000E+00
    0.77816E-02         0.63254E-02         0.00000E+00
    0.73332E-02         0.59250E-02         0.00000E+00
    0.68798E-02         0.55253E-02         0.00000E+00
    0.64213E-02         0.51261E-02         0.00000E+00
    0.59578E-02         0.47275E-02         0.00000E+00
    0.54893E-02         0.43296E-02         0.00000E+00
    0.50157E-02         0.39323E-02         0.00000E+00
    0.45371E-02         0.35357E-02         0.00000E+00
    0.40534E-02         0.31397E-02         0.00000E+00
    0.35646E-02         0.27445E-02         0.00000E+00
    0.30708E-02         0.23500E-02         0.00000E+00
    0.25718E-02         0.19563E-02         0.00000E+00
    0.20678E-02         0.15633E-02         0.00000E+00
    0.15586E-02         0.11712E-02         0.00000E+00
    0.10442E-02         0.77992E-03         0.00000E+00
    0.52469E-03         0.38951E-03         0.00000E+00
    0.00000E+00         0.00000E+00         0.00000E+00
    0.19679E-01         0.18868E-01         0.00000E+00
    0.19412E-01         0.18479E-01         0.00000E+00
    0.19139E-01         0.18090E-01         0.00000E+00
    0.18861E-01         0.17702E-01         0.00000E+00
    0.18577E-01         0.17314E-01         0.00000E+00
    0.18289E-01         0.16927E-01         0.00000E+00
    0.17994E-01         0.16540E-01         0.00000E+00
    0.17695E-01         0.16154E-01         0.00000E+00
    0.17390E-01         0.15768E-01         0.00000E+00
    0.17080E-01         0.15383E-01         0.00000E+00
    0.16765E-01         0.14998E-01         0.00000E+00
    0.16444E-01         0.14613E-01         0.00000E+00
    0.16119E-01         0.14229E-01         0.00000E+00
    0.15788E-01         0.13845E-01         0.00000E+00
    0.15452E-01         0.13462E-01         0.00000E+00
    0.15111E-01         0.13079E-01         0.00000E+00
    0.14765E-01         0.12696E-01         0.00000E+00
    0.14414E-01         0.12314E-01         0.00000E+00
    0.14057E-01         0.11933E-01         0.00000E+00
    0.13696E-01         0.11551E-01         0.00000E+00
    0.13329E-01         0.11171E-01         0.00000E+00
    0.12958E-01         0.10790E-01         0.00000E+00
    0.12581E-01         0.10410E-01         0.00000E+00
    0.12199E-01         0.10031E-01         0.00000E+00
    0.11813E-01         0.96520E-02         0.00000E+00
    0.11421E-01         0.92735E-02         0.00000E+00
    0.11024E-01         0.88955E-02         0.00000E+00
    0.10622E-01         0.85180E-02         0.00000E+00
    0.10216E-01         0.81409E-02         0.00000E+00
    0.98037E-02         0.77644E-02         0.00000E+00
    0.93869E-02         0.73883E-02         0.00000E+00
    0.89652E-02         0.70128E-02         0.00000E+00
    0.85384E-02         0.66378E-02         0.00000E+00
    0.81066E-02         0.62634E-02         0.00000E+00
    0.76699E-02         0.58895E-02         0.00000E+00
    0.72281E-02         0.55163E-02         0.00000E+00
    0.67813E-02         0.51436E-02         0.00000E+00
    0.63296E-02         0.47715E-02         0.00000E+00
    0.58728E-02         0.44001E-02         0.00000E+00
    0.54110E-02         0.40293E-02         0.00000E+00
    0.49443E-02         0.36591E-02         0.00000E+00
    0.44725E-02         0.32897E-02         0.00000E+00
    0.39957E-02         0.29210E-02         0.00000E+00
    0.35138E-02         0.25530E-02         0.00000E+00
    0.30270E-02         0.21858E-02         0.00000E+00
    0.25351E-02         0.18194E-02         0.00000E+00
    0.20382E-02         0.14538E-02         0.00000E+00
    0.15362E-02         0.10890E-02         0.00000E+00
    0.10292E-02         0.72509E-03         0.00000E+00
    0.51714E-03         0.36208E-03         0.00000E+00
    0.00000E+00         0.00000E+00         0.00000E+00
    0.19310E-01         0.17567E-01         0.00000E+00
    0.19052E-01         0.17204E-01         0.00000E+00
    0.18788E-01         0.16842E-01         0.00000E+00
    0.18519E-01         0.16480E-01         0.00000E+00
    0.18244E-01         0.16118E-01         0.00000E+00
    0.17963E-01         0.15757E-01         0.00000E+00
    0.17678E-01         0.15396E-01         0.00000E+00
    0.17386E-01         0.15035E-01         0.00000E+00
    0.17090E-01         0.14675E-01         0.00000E+00
    0.16788E-01         0.14316E-01         0.00000E+00
    0.16481E-01         0.13957E-01         0.00000E+00
    0.16168E-01         0.13598E-01         0.00000E+00
    0.15850E-01         0.13240E-01         0.00000E+00
    0.15527E-01         0.12882E-01         0.00000E+00
    0.15199E-01         0.12524E-01         0.00000E+00
    0.14865E-01         0.12167E-01         0.00000E+00
    0.14527E-01         0.11811E-01         0.00000E+00
    0.14183E-01         0.11455E-01         0.00000E+00
    0.13834E-01         0.11099E-01         0.00000E+00
    0.13479E-01         0.10743E-01         0.00000E+00
    0.13120E-01         0.10389E-01         0.00000E+00
    0.12755E-01         0.10034E-01         0.00000E+00
    0.12386E-01         0.96802E-02         0.00000E+00
    0.12011E-01         0.93267E-02         0.00000E+00
    0.11631E-01         0.89737E-02         0.00000E+00
    0.11246E-01         0.86211E-02         0.00000E+00
    0.10857E-01         0.82690E-02         0.00000E+00
    0.10462E-01         0.79175E-02         0.00000E+00
    0.10062E-01         0.75664E-02         0.00000E+00
    0.96566E-02         0.72158E-02         0.00000E+00
    0.92465E-02         0.68657E-02         0.00000E+00
    0.88315E-02         0.65162E-02         0.00000E+00
    0.84114E-02         0.61673E-02         0.00000E+00
    0.79864E-02         0.58189E-02         0.00000E+00
    0.75564E-02         0.54710E-02         0.00000E+00
    0.71213E-02         0.51238E-02         0.00000E+00
    0.66813E-02         0.47772E-02         0.00000E+00
    0.62364E-02         0.44312E-02         0.00000E+00
    0.57864E-02         0.40859E-02         0.00000E+00
    0.53315E-02         0.37412E-02         0.00000E+00
    0.48716E-02         0.33972E-02         0.00000E+00
    0.44068E-02         0.30539E-02         0.00000E+00
    0.39370E-02         0.27113E-02         0.00000E+00
    0.34622E-02         0.23695E-02         0.00000E+00
    0.29825E-02         0.20285E-02         0.00000E+00
    0.24978E-02         0.16883E-02         0.00000E+00
    0.20081E-02         0.13489E-02         0.00000E+00
    0.15135E-02         0.10103E-02         0.00000E+00
    0.10140E-02         0.67261E-03         0.00000E+00
    0.50947E-03         0.33584E-03         0.00000E+00
    0.00000E+00         0.00000E+00         0.00000E+00
    0.18947E-01         0.16312E-01         0.00000E+00
    0.18697E-01         0.15974E-01         0.00000E+00
    0.18442E-01         0.15637E-01         0.00000E+00
    0.18181E-01         0.15300E-01         0.00000E+00
    0.17914E-01         0.14963E-01         0.00000E+00
    0.17642E-01         0.14627E-01         0.00000E+00
    0.17365E-01         0.14291E-01         0.00000E+00
    0.17081E-01         0.13956E-01         0.00000E+00
    0.16793E-01         0.13621E-01         0.00000E+00
    0.16499E-01         0.13287E-01         0.00000E+00
    0.16199E-01         0.12953E-01         0.00000E+00
    0.15894E-01         0.12619E-01         0.00000E+00
    0.15584E-01         0.12286E-01         0.00000E+00
    0.15268E-01         0.11953E-01         0.00000E+00
    0.14948E-01         0.11621E-01         0.00000E+00
    0.14621E-01         0.11289E-01         0.00000E+00
    0.14290E-01         0.10957E-01         0.00000E+00
    0.13953E-01         0.10626E-01         0.00000E+00
    0.13611E-01         0.10296E-01         0.00000E+00
    0.13264E-01         0.99654E-02         0.00000E+00
    0.12912E-01         0.96356E-02         0.00000E+00
    0.12554E-01         0.93063E-02         0.00000E+00
    0.12191E-01         0.89774E-02         0.00000E+00
    0.11823E-01         0.86489E-02         0.00000E+00
    0.11450E-01         0.83210E-02         0.00000E+00
    0.11072E-01         0.79935E-02         0.00000E+00
    0.10689E-01         0.76665E-02         0.00000E+00
    0.10301E-01         0.73400E-02         0.00000E+00
    0.99078E-02         0.70139E-02         0.00000E+00
    0.95095E-02         0.66885E-02         0.00000E+00
    0.91061E-02         0.63635E-02         0.00000E+00
    0.86978E-02         0.60391E-02         0.00000E+00
    0.82844E-02         0.57152E-02         0.00000E+00
    0.78661E-02         0.53919E-02         0.00000E+00
    0.74428E-02         0.50692E-02         0.00000E+00
    0.70145E-02         0.47470E-02         0.00000E+00
    0.65812E-02         0.44255E-02         0.00000E+00
    0.61430E-02         0.41046E-02         0.00000E+00
    0.56999E-02         0.37844E-02         0.00000E+00
    0.52518E-02         0.34649E-02         0.00000E+00
    0.47989E-02         0.31460E-02         0.00000E+00
    0.43410E-02         0.28278E-02         0.00000E+00
    0.38782E-02         0.25104E-02         0.00000E+00
    0.34104E-02         0.21937E-02         0.00000E+00
    0.29379E-02         0.18778E-02         0.00000E+00
    0.24604E-02         0.15627E-02         0.00000E+00
    0.19780E-02         0.12484E-02         0.00000E+00
    0.14908E-02         0.93493E-03         0.00000E+00
    0.99873E-03         0.62238E-03         0.00000E+00
    0.50179E-03         0.31072E-03         0.00000E+00
    0.00000E+00         0.00000E+00         0.00000E+00
    0.18592E-01         0.15099E-01         0.00000E+00
    0.18351E-01         0.14786E-01         0.00000E+00
    0.18104E-01         0.14473E-01         0.00000E+00
    0.17851E-01         0.14160E-01         0.00000E+00
    0.17592E-01         0.13848E-01         0.00000E+00
    0.17328E-01         0.13537E-01         0.00000E+00
    0.17058E-01         0.13225E-01         0.00000E+00
    0.16783E-01         0.12915E-01         0.00000E+00
    0.16502E-01         0.12604E-01         0.00000E+00
    0.16215E-01         0.12294E-01         0.00000E+00
    0.15923E-01         0.11984E-01         0.00000E+00
    0.15626E-01         0.11675E-01         0.00000E+00
    0.15323E-01         0.11366E-01         0.00000E+00
    0.15015E-01         0.11058E-01         0.00000E+00
    0.14701E-01         0.10750E-01         0.00000E+00
    0.14382E-01         0.10442E-01         0.00000E+00
    0.14057E-01         0.10135E-01         0.00000E+00
    0.13727E-01         0.98282E-02         0.00000E+00
    0.13392E-01         0.95218E-02         0.00000E+00
    0.13052E-01         0.92158E-02         0.00000E+00
    0.12706E-01         0.89103E-02         0.00000E+00
    0.12356E-01         0.86053E-02         0.00000E+00
    0.12000E-01         0.83006E-02         0.00000E+00
    0.11639E-01         0.79964E-02         0.00000E+00
    0.11272E-01         0.76927E-02         0.00000E+00
    0.10901E-01         0.73895E-02         0.00000E+00
    0.10524E-01         0.70867E-02         0.00000E+00
    0.10143E-01         0.67844E-02         0.00000E+00
    0.97561E-02         0.64827E-02         0.00000E+00
    0.93644E-02         0.61814E-02         0.00000E+00
    0.89676E-02         0.58806E-02         0.00000E+00
    0.85658E-02         0.55804E-02         0.00000E+00
    0.81591E-02         0.52808E-02         0.00000E+00
    0.77473E-02         0.49817E-02         0.00000E+00
    0.73306E-02         0.46831E-02         0.00000E+00
    0.69089E-02         0.43852E-02         0.00000E+00
    0.64823E-02         0.40879E-02         0.00000E+00
    0.60508E-02         0.37912E-02         0.00000E+00
    0.56144E-02         0.34951E-02         0.00000E+00
    0.51731E-02         0.31997E-02         0.00000E+00
    0.47269E-02         0.29050E-02         0.00000E+00
    0.42759E-02         0.26110E-02         0.00000E+00
    0.38200E-02         0.23177E-02         0.00000E+00
    0.33593E-02         0.20251E-02         0.00000E+00
    0.28937E-02         0.17333E-02         0.00000E+00
    0.24234E-02         0.14423E-02         0.00000E+00
    0.19483E-02         0.11521E-02         0.00000E+00
    0.14683E-02         0.86277E-03         0.00000E+00
    0.98364E-03         0.57428E-03         0.00000E+00
    0.49420E-03         0.28668E-03         0.00000E+00
    0.00000E+00         0.00000E+00         0.00000E+00
    0.18250E-01         0.13927E-01         0.00000E+00
    0.18016E-01         0.13638E-01         0.00000E+00
    0.17777E-01         0.13348E-01         0.00000E+00
    0.17532E-01         0.13060E-01         0.00000E+00
    0.17281E-01         0.12772E-01         0.00000E+00
    0.17024E-01         0.12484E-01         0.00000E+00
    0.16762E-01         0.12196E-01         0.00000E+00
    0.16494E-01         0.11909E-01         0.00000E+00
    0.16220E-01         0.11622E-01         0.00000E+00
    0.15941E-01         0.11336E-01         0.00000E+00
    0.15656E-01         0.11050E-01         0.00000E+00
    0.15366E-01         0.10764E-01         0.00000E+00
    0.15070E-01         0.10479E-01         0.00000E+00
    0.14768E-01         0.10194E-01         0.00000E+00
    0.14461E-01         0.99097E-02         0.00000E+00
    0.14149E-01         0.96256E-02         0.00000E+00
    0.13831E-01         0.93420E-02         0.00000E+00
    0.13508E-01         0.90587E-02         0.00000E+00
    0.13180E-01         0.87759E-02         0.00000E+00
    0.12846E-01         0.84935E-02         0.00000E+00
    0.12507E-01         0.82115E-02         0.00000E+00
    0.12163E-01         0.79299E-02         0.00000E+00
    0.11813E-01         0.76488E-02         0.00000E+00
    0.11459E-01         0.73681E-02         0.00000E+00
    0.11099E-01         0.70878E-02         0.00000E+00
    0.10734E-01         0.68080E-02         0.00000E+00
    0.10364E-01         0.65287E-02         0.00000E+00
    0.99886E-02         0.62498E-02         0.00000E+00
    0.96083E-02         0.59715E-02         0.00000E+00
    0.92229E-02         0.56936E-02         0.00000E+00
    0.88325E-02         0.54162E-02         0.00000E+00
    0.84372E-02         0.51394E-02         0.00000E+00
    0.80368E-02         0.48631E-02         0.00000E+00
    0.76314E-02         0.45873E-02         0.00000E+00
    0.72212E-02         0.43122E-02         0.00000E+00
    0.68060E-02         0.40375E-02         0.00000E+00
    0.63858E-02         0.37635E-02         0.00000E+00
    0.59608E-02         0.34901E-02         0.00000E+00
    0.55310E-02         0.32173E-02         0.00000E+00
    0.50963E-02         0.29452E-02         0.00000E+00
    0.46567E-02         0.26737E-02         0.00000E+00
    0.42124E-02         0.24029E-02         0.00000E+00
    0.37632E-02         0.21328E-02         0.00000E+00
    0.33093E-02         0.18634E-02         0.00000E+00
    0.28507E-02         0.15948E-02         0.00000E+00
    0.23873E-02         0.13270E-02         0.00000E+00
    0.19192E-02         0.10599E-02         0.00000E+00
    0.14464E-02         0.79363E-03         0.00000E+00
    0.96892E-03         0.52822E-03         0.00000E+00
    0.48678E-03         0.26366E-03         0.00000E+00
    0.00000E+00         0.00000E+00         0.00000E+00
    0.17922E-01         0.12794E-01         0.00000E+00
    0.17696E-01         0.12527E-01         0.00000E+00
    0.17465E-01         0.12262E-01         0.00000E+00
    0.17227E-01         0.11996E-01         0.00000E+00
    0.16983E-01         0.11731E-01         0.00000E+00
    0.16734E-01         0.11466E-01         0.00000E+00
    0.16478E-01         0.11201E-01         0.00000E+00
    0.16217E-01         0.10937E-01         0.00000E+00
    0.15950E-01         0.10674E-01         0.00000E+00
    0.15678E-01         0.10410E-01         0.00000E+00
    0.15400E-01         0.10147E-01         0.00000E+00
    0.15116E-01         0.98845E-02         0.00000E+00
    0.14827E-01         0.96222E-02         0.00000E+00
    0.14532E-01         0.93603E-02         0.00000E+00
    0.14232E-01         0.90988E-02         0.00000E+00
    0.13926E-01         0.88376E-02         0.00000E+00
    0.13614E-01         0.85768E-02         0.00000E+00
    0.13298E-01         0.83164E-02         0.00000E+00
    0.12976E-01         0.80564E-02         0.00000E+00
    0.12648E-01         0.77968E-02         0.00000E+00
    0.12316E-01         0.75376E-02         0.00000E+00
    0.11978E-01         0.72788E-02         0.00000E+00
    0.11634E-01         0.70204E-02         0.00000E+00
    0.11286E-01         0.67625E-02         0.00000E+00
    0.10932E-01         0.65049E-02         0.00000E+00
    0.10573E-01         0.62478E-02         0.00000E+00
    0.10209E-01         0.59912E-02         0.00000E+00
    0.98402E-02         0.57350E-02         0.00000E+00
    0.94660E-02         0.54793E-02         0.00000E+00
    0.90868E-02         0.52240E-02         0.00000E+00
    0.87025E-02         0.49693E-02         0.00000E+00
    0.83133E-02         0.47150E-02         0.00000E+00
    0.79191E-02         0.44613E-02         0.00000E+00
    0.75199E-02         0.42081E-02         0.00000E+00
    0.71158E-02         0.39554E-02         0.00000E+00
    0.67068E-02         0.37033E-02         0.00000E+00
    0.62929E-02         0.34518E-02         0.00000E+00
    0.58742E-02         0.32008E-02         0.00000E+00
    0.54506E-02         0.29504E-02         0.00000E+00
    0.50222E-02         0.27007E-02         0.00000E+00
    0.45891E-02         0.24516E-02         0.00000E+00
    0.41512E-02         0.22032E-02         0.00000E+00
    0.37086E-02         0.19554E-02         0.00000E+00
    0.32612E-02         0.17083E-02         0.00000E+00
    0.28092E-02         0.14619E-02         0.00000E+00
    0.23525E-02         0.12163E-02         0.00000E+00
    0.18912E-02         0.97144E-03         0.00000E+00
    0.14253E-02         0.72735E-03         0.00000E+00
    0.95474E-03         0.48407E-03         0.00000E+00
    0.47964E-03         0.24161E-03         0.00000E+00
    0.00000E+00         0.00000E+00         0.00000E+00
    0.17613E-01         0.11697E-01         0.00000E+00
    0.17394E-01         0.11453E-01         0.00000E+00
    0.17169E-01         0.11210E-01         0.00000E+00
    0.16938E-01         0.10967E-01         0.00000E+00
    0.16701E-01         0.10724E-01         0.00000E+00
    0.16458E-01         0.10482E-01         0.00000E+00
    0.16210E-01         0.10240E-01         0.00000E+00
    0.15955E-01         0.99978E-02         0.00000E+00
    0.15695E-01         0.97564E-02         0.00000E+00
    0.15429E-01         0.95154E-02         0.00000E+00
    0.15157E-01         0.92747E-02         0.00000E+00
    0.14880E-01         0.90344E-02         0.00000E+00
    0.14597E-01         0.87944E-02         0.00000E+00
    0.14308E-01         0.85547E-02         0.00000E+00
    0.14014E-01         0.83154E-02         0.00000E+00
    0.13714E-01         0.80765E-02         0.00000E+00
    0.13409E-01         0.78379E-02         0.00000E+00
    0.13098E-01         0.75997E-02         0.00000E+00
    0.12782E-01         0.73618E-02         0.00000E+00
    0.12461E-01         0.71243E-02         0.00000E+00
    0.12134E-01         0.68872E-02         0.00000E+00
    0.11802E-01         0.66505E-02         0.00000E+00
    0.11464E-01         0.64142E-02         0.00000E+00
    0.11122E-01         0.61783E-02         0.00000E+00
    0.10774E-01         0.59428E-02         0.00000E+00
    0.10421E-01         0.57077E-02         0.00000E+00
    0.10063E-01         0.54730E-02         0.00000E+00
    0.96993E-02         0.52387E-02         0.00000E+00
    0.93309E-02         0.50049E-02         0.00000E+00
    0.89575E-02         0.47716E-02         0.00000E+00
    0.85790E-02         0.45387E-02         0.00000E+00
    0.81956E-02         0.43063E-02         0.00000E+00
    0.78072E-02         0.40744E-02         0.00000E+00
    0.74139E-02         0.38429E-02         0.00000E+00
    0.70156E-02         0.36120E-02         0.00000E+00
    0.66125E-02         0.33816E-02         0.00000E+00
    0.62045E-02         0.31518E-02         0.00000E+00
    0.57917E-02         0.29225E-02         0.00000E+00
    0.53742E-02         0.26938E-02         0.00000E+00
    0.49518E-02         0.24656E-02         0.00000E+00
    0.45248E-02         0.22381E-02         0.00000E+00
    0.40930E-02         0.20112E-02         0.00000E+00
    0.36566E-02         0.17849E-02         0.00000E+00
    0.32155E-02         0.15593E-02         0.00000E+00
    0.27698E-02         0.13343E-02         0.00000E+00
    0.23195E-02         0.11101E-02         0.00000E+00
    0.18646E-02         0.88655E-03         0.00000E+00
    0.14052E-02         0.66375E-03         0.00000E+00
    0.94126E-03         0.44171E-03         0.00000E+00
    0.47285E-03         0.22045E-03         0.00000E+00
    0.00000E+00         0.00000E+00         0.00000E+00
    0.17324E-01         0.10634E-01         0.00000E+00
    0.17111E-01         0.10412E-01         0.00000E+00
    0.16893E-01         0.10191E-01         0.00000E+00
    0.16668E-01         0.99697E-02         0.00000E+00
    0.16438E-01         0.97488E-02         0.00000E+00
    0.16201E-01         0.95283E-02         0.00000E+00
    0.15959E-01         0.93081E-02         0.00000E+00
    0.15710E-01         0.90882E-02         0.00000E+00
    0.15456E-01         0.88686E-02         0.00000E+00
    0.15196E-01         0.86493E-02         0.00000E+00
    0.14930E-01         0.84303E-02         0.00000E+00
    0.14658E-01         0.82117E-02         0.00000E+00
    0.14381E-01         0.79934E-02         0.00000E+00
    0.14098E-01         0.77754E-02         0.00000E+00
    0.13810E-01         0.75577E-02         0.00000E+00
    0.13516E-01         0.73404E-02         0.00000E+00
    0.13216E-01         0.71234E-02         0.00000E+00
    0.12911E-01         0.69067E-02         0.00000E+00
    0.12601E-01         0.66904E-02         0.00000E+00
    0.12285E-01         0.64744E-02         0.00000E+00
    0.11964E-01         0.62588E-02         0.00000E+00
    0.11637E-01         0.60435E-02         0.00000E+00
    0.11305E-01         0.58286E-02         0.00000E+00
    0.10968E-01         0.56141E-02         0.00000E+00
    0.10625E-01         0.53999E-02         0.00000E+00
    0.10278E-01         0.51862E-02         0.00000E+00
    0.99251E-02         0.49728E-02         0.00000E+00
    0.95673E-02         0.47598E-02         0.00000E+00
    0.92043E-02         0.45473E-02         0.00000E+00
    0.88363E-02         0.43351E-02         0.00000E+00
    0.84633E-02         0.41234E-02         0.00000E+00
    0.80853E-02         0.39122E-02         0.00000E+00
    0.77024E-02         0.37013E-02         0.00000E+00
    0.73145E-02         0.34910E-02         0.00000E+00
    0.69218E-02         0.32811E-02         0.00000E+00
    0.65242E-02         0.30717E-02         0.00000E+00
    0.61217E-02         0.28629E-02         0.00000E+00
    0.57145E-02         0.26545E-02         0.00000E+00
    0.53026E-02         0.24466E-02         0.00000E+00
    0.48859E-02         0.22394E-02         0.00000E+00
    0.44645E-02         0.20326E-02         0.00000E+00
    0.40385E-02         0.18265E-02         0.00000E+00
    0.36078E-02         0.16209E-02         0.00000E+00
    0.31726E-02         0.14160E-02         0.00000E+00
    0.27328E-02         0.12116E-02         0.00000E+00
    0.22885E-02         0.10080E-02         0.00000E+00
    0.18396E-02         0.80496E-03         0.00000E+00
    0.13863E-02         0.60264E-03         0.00000E+00
    0.92862E-03         0.40103E-03         0.00000E+00
    0.46649E-03         0.20014E-03         0.00000E+00
    0.00000E+00         0.00000E+00         0.00000E+00
    0.17057E-01         0.96028E-02         0.00000E+00
    0.16851E-01         0.94024E-02         0.00000E+00
    0.16638E-01         0.92023E-02         0.00000E+00
    0.16420E-01         0.90025E-02         0.00000E+00
    0.16195E-01         0.88030E-02         0.00000E+00
    0.15964E-01         0.86038E-02         0.00000E+00
    0.15727E-01         0.84049E-02         0.00000E+00
    0.15484E-01         0.82062E-02         0.00000E+00
    0.15236E-01         0.80079E-02         0.00000E+00
    0.14981E-01         0.78098E-02         0.00000E+00
    0.14721E-01         0.76120E-02         0.00000E+00
    0.14455E-01         0.74145E-02         0.00000E+00
    0.14183E-01         0.72173E-02         0.00000E+00
    0.13905E-01         0.70204E-02         0.00000E+00
    0.13622E-01         0.68238E-02         0.00000E+00
    0.13333E-01         0.66275E-02         0.00000E+00
    0.13039E-01         0.64315E-02         0.00000E+00
    0.12739E-01         0.62358E-02         0.00000E+00
    0.12434E-01         0.60405E-02         0.00000E+00
    0.12123E-01         0.58454E-02         0.00000E+00
    0.11807E-01         0.56507E-02         0.00000E+00
    0.11485E-01         0.54562E-02         0.00000E+00
    0.11158E-01         0.52622E-02         0.00000E+00
    0.10826E-01         0.50684E-02         0.00000E+00
    0.10489E-01         0.48750E-02         0.00000E+00
    0.10146E-01         0.46820E-02         0.00000E+00
    0.97985E-02         0.44893E-02         0.00000E+00
    0.94456E-02         0.42970E-02         0.00000E+00
    0.90877E-02         0.41050E-02         0.00000E+00
    0.87247E-02         0.39134E-02         0.00000E+00
    0.83566E-02         0.37223E-02         0.00000E+00
    0.79837E-02         0.35315E-02         0.00000E+00
    0.76057E-02         0.33412E-02         0.00000E+00
    0.72229E-02         0.31512E-02         0.00000E+00
    0.68352E-02         0.29617E-02         0.00000E+00
    0.64427E-02         0.27727E-02         0.00000E+00
    0.60454E-02         0.25841E-02         0.00000E+00
    0.56433E-02         0.23960E-02         0.00000E+00
    0.52365E-02         0.22083E-02         0.00000E+00
    0.48251E-02         0.20212E-02         0.00000E+00
    0.44089E-02         0.18346E-02         0.00000E+00
    0.39882E-02         0.16485E-02         0.00000E+00
    0.35629E-02         0.14629E-02         0.00000E+00
    0.31331E-02         0.12779E-02         0.00000E+00
    0.26987E-02         0.10935E-02         0.00000E+00
    0.22599E-02         0.90967E-03         0.00000E+00
    0.18166E-02         0.72644E-03         0.00000E+00
    0.13690E-02         0.54384E-03         0.00000E+00
    0.91696E-03         0.36189E-03         0.00000E+00
    0.46062E-03         0.18060E-03         0.00000E+00
    0.00000E+00         0.00000E+00         0.00000E+00
    0.16816E-01         0.86003E-02         0.00000E+00
    0.16615E-01         0.84209E-02         0.00000E+00
    0.16408E-01         0.82417E-02         0.00000E+00
    0.16194E-01         0.80628E-02         0.00000E+00
    0.15975E-01         0.78841E-02         0.00000E+00
    0.15749E-01         0.77057E-02         0.00000E+00
    0.15518E-01         0.75276E-02         0.00000E+00
    0.15280E-01         0.73497E-02         0.00000E+00
    0.15036E-01         0.71720E-02         0.00000E+00
    0.14787E-01         0.69947E-02         0.00000E+00
    0.14531E-01         0.68175E-02         0.00000E+00
    0.14270E-01         0.66407E-02         0.00000E+00
    0.14003E-01         0.64641E-02         0.00000E+00
    0.13730E-01         0.62878E-02         0.00000E+00
    0.13452E-01         0.61117E-02         0.00000E+00
    0.13168E-01         0.59359E-02         0.00000E+00
    0.12878E-01         0.57604E-02         0.00000E+00
    0.12583E-01         0.55852E-02         0.00000E+00
    0.12282E-01         0.54102E-02         0.00000E+00
    0.11976E-01         0.52355E-02         0.00000E+00
    0.11665E-01         0.50611E-02         0.00000E+00
    0.11348E-01         0.48870E-02         0.00000E+00
    0.11026E-01         0.47132E-02         0.00000E+00
    0.10698E-01         0.45397E-02         0.00000E+00
    0.10365E-01         0.43665E-02         0.00000E+00
    0.10027E-01         0.41936E-02         0.00000E+00
    0.96838E-02         0.40210E-02         0.00000E+00
    0.93355E-02         0.38488E-02         0.00000E+00
    0.89821E-02         0.36769E-02         0.00000E+00
    0.86236E-02         0.35053E-02         0.00000E+00
    0.82601E-02         0.33341E-02         0.00000E+00
    0.78917E-02         0.31632E-02         0.00000E+00
    0.75183E-02         0.29928E-02         0.00000E+00
    0.71400E-02         0.28226E-02         0.00000E+00
    0.67569E-02         0.26529E-02         0.00000E+00
    0.63690E-02         0.24836E-02         0.00000E+00
    0.59763E-02         0.23147E-02         0.00000E+00
    0.55789E-02         0.21462E-02         0.00000E+00
    0.51768E-02         0.19781E-02         0.00000E+00
    0.47700E-02         0.18105E-02         0.00000E+00
    0.43586E-02         0.16433E-02         0.00000E+00
    0.39427E-02         0.14766E-02         0.00000E+00
    0.35222E-02         0.13104E-02         0.00000E+00
    0.30973E-02         0.11447E-02         0.00000E+00
    0.26678E-02         0.97952E-03         0.00000E+00
    0.22340E-02         0.81485E-03         0.00000E+00
    0.17958E-02         0.65073E-03         0.00000E+00
    0.13533E-02         0.48716E-03         0.00000E+00
    0.90641E-03         0.32417E-03         0.00000E+00
    0.45531E-03         0.16178E-03         0.00000E+00
    0.00000E+00         0.00000E+00         0.00000E+00
    0.16601E-01         0.76240E-02         0.00000E+00
    0.16405E-01         0.74650E-02         0.00000E+00
    0.16203E-01         0.73063E-02         0.00000E+00
    0.15994E-01         0.71478E-02         0.00000E+00
    0.15780E-01         0.69895E-02         0.00000E+00
    0.15559E-01         0.68315E-02         0.00000E+00
    0.15332E-01         0.66736E-02         0.00000E+00
    0.15099E-01         0.65161E-02         0.00000E+00
    0.14859E-01         0.63587E-02         0.00000E+00
    0.14614E-01         0.62016E-02         0.00000E+00
    0.14363E-01         0.60447E-02         0.00000E+00
    0.14107E-01         0.58880E-02         0.00000E+00
    0.13844E-01         0.57315E-02         0.00000E+00
    0.13576E-01         0.55753E-02         0.00000E+00
    0.13301E-01         0.54193E-02         0.00000E+00
    0.13022E-01         0.52636E-02         0.00000E+00
    0.12736E-01         0.51081E-02         0.00000E+00
    0.12445E-01         0.49528E-02         0.00000E+00
    0.12149E-01         0.47977E-02         0.00000E+00
    0.11847E-01         0.46430E-02         0.00000E+00
    0.11539E-01         0.44884E-02         0.00000E+00
    0.11226E-01         0.43341E-02         0.00000E+00
    0.10908E-01         0.41801E-02         0.00000E+00
    0.10584E-01         0.40263E-02         0.00000E+00
    0.10256E-01         0.38728E-02         0.00000E+00
    0.99216E-02         0.37196E-02         0.00000E+00
    0.95824E-02         0.35666E-02         0.00000E+00
    0.92381E-02         0.34139E-02         0.00000E+00
    0.88887E-02         0.32615E-02         0.00000E+00
    0.85342E-02         0.31095E-02         0.00000E+00
    0.81747E-02         0.29577E-02         0.00000E+00
    0.78103E-02         0.28062E-02         0.00000E+00
    0.74410E-02         0.26550E-02         0.00000E+00
    0.70667E-02         0.25042E-02         0.00000E+00
    0.66877E-02         0.23537E-02         0.00000E+00
    0.63038E-02         0.22035E-02         0.00000E+00
    0.59152E-02         0.20537E-02         0.00000E+00
    0.55219E-02         0.19043E-02         0.00000E+00
    0.51239E-02         0.17552E-02         0.00000E+00
    0.47213E-02         0.16065E-02         0.00000E+00
    0.43142E-02         0.14582E-02         0.00000E+00
    0.39025E-02         0.13104E-02         0.00000E+00
    0.34863E-02         0.11629E-02         0.00000E+00
    0.30656E-02         0.10159E-02         0.00000E+00
    0.26406E-02         0.86931E-03         0.00000E+00
    0.22111E-02         0.72320E-03         0.00000E+00
    0.17774E-02         0.57755E-03         0.00000E+00
    0.13393E-02         0.43239E-03         0.00000E+00
    0.89708E-03         0.28774E-03         0.00000E+00
    0.45062E-03         0.14360E-03         0.00000E+00
    0.00000E+00         0.00000E+00         0.00000E+00
    0.16416E-01         0.66709E-02         0.00000E+00
    0.16224E-01         0.65320E-02         0.00000E+00
    0.16026E-01         0.63933E-02         0.00000E+00
    0.15821E-01         0.62549E-02         0.00000E+00
    0.15611E-01         0.61166E-02         0.00000E+00
    0.15394E-01         0.59785E-02         0.00000E+00
    0.15171E-01         0.58406E-02         0.00000E+00
    0.14942E-01         0.57029E-02         0.00000E+00
    0.14707E-01         0.55654E-02         0.00000E+00
    0.14466E-01         0.54281E-02         0.00000E+00
    0.14219E-01         0.52910E-02         0.00000E+00
    0.13966E-01         0.51541E-02         0.00000E+00
    0.13707E-01         0.50174E-02         0.00000E+00
    0.13442E-01         0.48809E-02         0.00000E+00
    0.13172E-01         0.47445E-02         0.00000E+00
    0.12896E-01         0.46084E-02         0.00000E+00
    0.12614E-01         0.44725E-02         0.00000E+00
    0.12326E-01         0.43367E-02         0.00000E+00
    0.12033E-01         0.42012E-02         0.00000E+00
    0.11735E-01         0.40659E-02         0.00000E+00
    0.11431E-01         0.39307E-02         0.00000E+00
    0.11122E-01         0.37958E-02         0.00000E+00
    0.10807E-01         0.36611E-02         0.00000E+00
    0.10487E-01         0.35266E-02         0.00000E+00
    0.10162E-01         0.33924E-02         0.00000E+00
    0.98311E-02         0.32583E-02         0.00000E+00
    0.94954E-02         0.31245E-02         0.00000E+00
    0.91545E-02         0.29910E-02         0.00000E+00
    0.88085E-02         0.28576E-02         0.00000E+00
    0.84575E-02         0.27245E-02         0.00000E+00
    0.81015E-02         0.25917E-02         0.00000E+00
    0.77405E-02         0.24591E-02         0.00000E+00
    0.73746E-02         0.23268E-02         0.00000E+00
    0.70038E-02         0.21948E-02         0.00000E+00
    0.66283E-02         0.20630E-02         0.00000E+00
    0.62479E-02         0.19315E-02         0.00000E+00
    0.58628E-02         0.18003E-02         0.00000E+00
    0.54730E-02         0.16694E-02         0.00000E+00
    0.50786E-02         0.15389E-02         0.00000E+00
    0.46796E-02         0.14086E-02         0.00000E+00
    0.42760E-02         0.12787E-02         0.00000E+00
    0.38680E-02         0.11491E-02         0.00000E+00
    0.34554E-02         0.10199E-02         0.00000E+00
    0.30385E-02         0.89098E-03         0.00000E+00
    0.26171E-02         0.76248E-03         0.00000E+00
    0.21915E-02         0.63436E-03         0.00000E+00
    0.17616E-02         0.50665E-03         0.00000E+00
    0.13274E-02         0.37934E-03         0.00000E+00
    0.88907E-03         0.25245E-03         0.00000E+00
    0.44658E-03         0.12600E-03         0.00000E+00
    0.00000E+00         0.00000E+00         0.00000E+00
    0.16260E-01         0.57381E-02         0.00000E+00
    0.16072E-01         0.56190E-02         0.00000E+00
    0.15878E-01         0.55000E-02         0.00000E+00
    0.15677E-01         0.53812E-02         0.00000E+00
    0.15470E-01         0.52626E-02         0.00000E+00
    0.15257E-01         0.51441E-02         0.00000E+00
    0.15037E-01         0.50258E-02         0.00000E+00
    0.14812E-01         0.49077E-02         0.00000E+00
    0.14580E-01         0.47897E-02         0.00000E+00
    0.14342E-01         0.46719E-02         0.00000E+00
    0.14098E-01         0.45542E-02         0.00000E+00
    0.13849E-01         0.44367E-02         0.00000E+00
    0.13593E-01         0.43194E-02         0.00000E+00
    0.13331E-01         0.42022E-02         0.00000E+00
    0.13064E-01         0.40851E-02         0.00000E+00
    0.12791E-01         0.39682E-02         0.00000E+00
    0.12512E-01         0.38515E-02         0.00000E+00
    0.12228E-01         0.37350E-02         0.00000E+00
    0.11938E-01         0.36186E-02         0.00000E+00
    0.11643E-01         0.35023E-02         0.00000E+00
    0.11342E-01         0.33862E-02         0.00000E+00
    0.11035E-01         0.32703E-02         0.00000E+00
    0.10724E-01         0.31546E-02         0.00000E+00
    0.10407E-01         0.30390E-02         0.00000E+00
    0.10084E-01         0.29236E-02         0.00000E+00
    0.97565E-02         0.28083E-02         0.00000E+00
    0.94236E-02         0.26933E-02         0.00000E+00
    0.90856E-02         0.25784E-02         0.00000E+00
    0.87425E-02         0.24637E-02         0.00000E+00
    0.83943E-02         0.23492E-02         0.00000E+00
    0.80412E-02         0.22349E-02         0.00000E+00
    0.76830E-02         0.21208E-02         0.00000E+00
    0.73200E-02         0.20069E-02         0.00000E+00
    0.69521E-02         0.18933E-02         0.00000E+00
    0.65794E-02         0.17798E-02         0.00000E+00
    0.62019E-02         0.16666E-02         0.00000E+00
    0.58197E-02         0.15535E-02         0.00000E+00
    0.54328E-02         0.14408E-02         0.00000E+00
    0.50413E-02         0.13282E-02         0.00000E+00
    0.46453E-02         0.12159E-02         0.00000E+00
    0.42446E-02         0.11039E-02         0.00000E+00
    0.38396E-02         0.99217E-03         0.00000E+00
    0.34300E-02         0.88070E-03         0.00000E+00
    0.30161E-02         0.76950E-03         0.00000E+00
    0.25979E-02         0.65861E-03         0.00000E+00
    0.21753E-02         0.54802E-03         0.00000E+00
    0.17486E-02         0.43774E-03         0.00000E+00
    0.13176E-02         0.32779E-03         0.00000E+00
    0.88248E-03         0.21817E-03         0.00000E+00
    0.44326E-03         0.10891E-03         0.00000E+00
    0.00000E+00         0.00000E+00         0.00000E+00
    0.16137E-01         0.48227E-02         0.00000E+00
    0.15952E-01         0.47230E-02         0.00000E+00
    0.15761E-01         0.46234E-02         0.00000E+00
    0.15563E-01         0.45240E-02         0.00000E+00
    0.15359E-01         0.44248E-02         0.00000E+00
    0.15148E-01         0.43256E-02         0.00000E+00
    0.14932E-01         0.42266E-02         0.00000E+00
    0.14709E-01         0.41277E-02         0.00000E+00
    0.14480E-01         0.40289E-02         0.00000E+00
    0.14245E-01         0.39303E-02         0.00000E+00
    0.14004E-01         0.38318E-02         0.00000E+00
    0.13757E-01         0.37334E-02         0.00000E+00
    0.13504E-01         0.36351E-02         0.00000E+00
    0.13245E-01         0.35369E-02         0.00000E+00
    0.12980E-01         0.34389E-02         0.00000E+00
    0.12710E-01         0.33409E-02         0.00000E+00
    0.12433E-01         0.32431E-02         0.00000E+00
    0.12152E-01         0.31454E-02         0.00000E+00
    0.11864E-01         0.30478E-02         0.00000E+00
    0.11571E-01         0.29503E-02         0.00000E+00
    0.11272E-01         0.28530E-02         0.00000E+00
    0.10968E-01         0.27557E-02         0.00000E+00
    0.10659E-01         0.26586E-02         0.00000E+00
    0.10344E-01         0.25616E-02         0.00000E+00
    0.10024E-01         0.24647E-02         0.00000E+00
    0.96986E-02         0.23679E-02         0.00000E+00
    0.93680E-02         0.22713E-02         0.00000E+00
    0.90323E-02         0.21748E-02         0.00000E+00
    0.86914E-02         0.20784E-02         0.00000E+00
    0.83455E-02         0.19822E-02         0.00000E+00
    0.79945E-02         0.18860E-02         0.00000E+00
    0.76386E-02         0.17901E-02         0.00000E+00
    0.72778E-02         0.16942E-02         0.00000E+00
    0.69121E-02         0.15986E-02         0.00000E+00
    0.65416E-02         0.15030E-02         0.00000E+00
    0.61664E-02         0.14077E-02         0.00000E+00
    0.57864E-02         0.13124E-02         0.00000E+00
    0.54018E-02         0.12174E-02         0.00000E+00
    0.50126E-02         0.11225E-02         0.00000E+00
    0.46187E-02         0.10278E-02         0.00000E+00
    0.42204E-02         0.93333E-03         0.00000E+00
    0.38176E-02         0.83901E-03         0.00000E+00
    0.34104E-02         0.74489E-03         0.00000E+00
    0.29989E-02         0.65098E-03         0.00000E+00
    0.25830E-02         0.55728E-03         0.00000E+00
    0.21629E-02         0.46380E-03         0.00000E+00
    0.17385E-02         0.37055E-03         0.00000E+00
    0.13100E-02         0.27753E-03         0.00000E+00
    0.87738E-03         0.18476E-03         0.00000E+00
    0.44069E-03         0.92249E-04         0.00000E+00
    0.00000E+00         0.00000E+00         0.00000E+00
    0.16046E-01         0.39214E-02         0.00000E+00
    0.15864E-01         0.38409E-02         0.00000E+00
    0.15675E-01         0.37606E-02         0.00000E+00
    0.15480E-01         0.36803E-02         0.00000E+00
    0.15278E-01         0.36002E-02         0.00000E+00
    0.15070E-01         0.35201E-02         0.00000E+00
    0.14856E-01         0.34402E-02         0.00000E+00
    0.14635E-01         0.33603E-02         0.00000E+00
    0.14408E-01         0.32805E-02         0.00000E+00
    0.14175E-01         0.32008E-02         0.00000E+00
    0.13936E-01         0.31212E-02         0.00000E+00
    0.13691E-01         0.30416E-02         0.00000E+00
    0.13440E-01         0.29621E-02         0.00000E+00
    0.13183E-01         0.28827E-02         0.00000E+00
    0.12921E-01         0.28034E-02         0.00000E+00
    0.12652E-01         0.27242E-02         0.00000E+00
    0.12378E-01         0.26450E-02         0.00000E+00
    0.12098E-01         0.25659E-02         0.00000E+00
    0.11812E-01         0.24869E-02         0.00000E+00
    0.11521E-01         0.24079E-02         0.00000E+00
    0.11224E-01         0.23290E-02         0.00000E+00
    0.10921E-01         0.22501E-02         0.00000E+00
    0.10614E-01         0.21714E-02         0.00000E+00
    0.10301E-01         0.20927E-02         0.00000E+00
    0.99821E-02         0.20140E-02         0.00000E+00
    0.96584E-02         0.19355E-02         0.00000E+00
    0.93294E-02         0.18570E-02         0.00000E+00
    0.89952E-02         0.17785E-02         0.00000E+00
    0.86560E-02         0.17002E-02         0.00000E+00
    0.83116E-02         0.16219E-02         0.00000E+00
    0.79622E-02         0.15437E-02         0.00000E+00
    0.76079E-02         0.14655E-02         0.00000E+00
    0.72486E-02         0.13875E-02         0.00000E+00
    0.68845E-02         0.13095E-02         0.00000E+00
    0.65156E-02         0.12316E-02         0.00000E+00
    0.61419E-02         0.11538E-02         0.00000E+00
    0.57635E-02         0.10761E-02         0.00000E+00
    0.53804E-02         0.99844E-03         0.00000E+00
    0.49927E-02         0.92092E-03         0.00000E+00
    0.46005E-02         0.84349E-03         0.00000E+00
    0.42037E-02         0.76618E-03         0.00000E+00
    0.38025E-02         0.68897E-03         0.00000E+00
    0.33969E-02         0.61188E-03         0.00000E+00
    0.29870E-02         0.53491E-03         0.00000E+00
    0.25727E-02         0.45806E-03         0.00000E+00
    0.21543E-02         0.38135E-03         0.00000E+00
    0.17316E-02         0.30478E-03         0.00000E+00
    0.13048E-02         0.22835E-03         0.00000E+00
    0.87385E-03         0.15207E-03         0.00000E+00
    0.43892E-03         0.75954E-04         0.00000E+00
    0.00000E+00         0.00000E+00         0.00000E+00
    0.15991E-01         0.30312E-02         0.00000E+00
    0.15810E-01         0.29698E-02         0.00000E+00
    0.15623E-01         0.29084E-02         0.00000E+00
    0.15430E-01         0.28472E-02         0.00000E+00
    0.15230E-01         0.27859E-02         0.00000E+00
    0.15023E-01         0.27248E-02         0.00000E+00
    0.14810E-01         0.26637E-02         0.00000E+00
    0.14591E-01         0.26026E-02         0.00000E+00
    0.14366E-01         0.25416E-02         0.00000E+00
    0.14135E-01         0.24807E-02         0.00000E+00
    0.13897E-01         0.24198E-02         0.00000E+00
    0.13653E-01         0.23589E-02         0.00000E+00
    0.13404E-01         0.22981E-02         0.00000E+00
    0.13148E-01         0.22372E-02         0.00000E+00
    0.12887E-01         0.21765E-02         0.00000E+00
    0.12619E-01         0.21157E-02         0.00000E+00
    0.12346E-01         0.20550E-02         0.00000E+00
    0.12067E-01         0.19943E-02         0.00000E+00
    0.11783E-01         0.19336E-02         0.00000E+00
    0.11493E-01         0.18729E-02         0.00000E+00
    0.11197E-01         0.18123E-02         0.00000E+00
    0.10896E-01         0.17516E-02         0.00000E+00
    0.10589E-01         0.16910E-02         0.00000E+00
    0.10277E-01         0.16304E-02         0.00000E+00
    0.99592E-02         0.15698E-02         0.00000E+00
    0.96365E-02         0.15092E-02         0.00000E+00
    0.93084E-02         0.14486E-02         0.00000E+00
    0.89752E-02         0.13881E-02         0.00000E+00
    0.86368E-02         0.13275E-02         0.00000E+00
    0.82934E-02         0.12670E-02         0.00000E+00
    0.79449E-02         0.12064E-02         0.00000E+00
    0.75915E-02         0.11459E-02         0.00000E+00
    0.72331E-02         0.10854E-02         0.00000E+00
    0.68698E-02         0.10249E-02         0.00000E+00
    0.65017E-02         0.96437E-03         0.00000E+00
    0.61288E-02         0.90388E-03         0.00000E+00
    0.57513E-02         0.84342E-03         0.00000E+00
    0.53690E-02         0.78297E-03         0.00000E+00
    0.49822E-02         0.72254E-03         0.00000E+00
    0.45908E-02         0.66214E-03         0.00000E+00
    0.41949E-02         0.60176E-03         0.00000E+00
    0.37945E-02         0.54140E-03         0.00000E+00
    0.33898E-02         0.48108E-03         0.00000E+00
    0.29807E-02         0.42079E-03         0.00000E+00
    0.25673E-02         0.36053E-03         0.00000E+00
    0.21497E-02         0.30032E-03         0.00000E+00
    0.17279E-02         0.24015E-03         0.00000E+00
    0.13020E-02         0.18003E-03         0.00000E+00
    0.87196E-03         0.11996E-03         0.00000E+00
    0.43796E-03         0.59948E-04         0.00000E+00
    0.00000E+00         0.00000E+00         0.00000E+00
    0.15970E-01         0.21488E-02         0.00000E+00
    0.15791E-01         0.21063E-02         0.00000E+00
    0.15605E-01         0.20638E-02         0.00000E+00
    0.15413E-01         0.20214E-02         0.00000E+00
    0.15214E-01         0.19790E-02         0.00000E+00
    0.15008E-01         0.19366E-02         0.00000E+00
    0.14796E-01         0.18943E-02         0.00000E+00
    0.14578E-01         0.18520E-02         0.00000E+00
    0.14354E-01         0.18096E-02         0.00000E+00
    0.14123E-01         0.17673E-02         0.00000E+00
    0.13886E-01         0.17250E-02         0.00000E+00
    0.13644E-01         0.16826E-02         0.00000E+00
    0.13395E-01         0.16403E-02         0.00000E+00
    0.13140E-01         0.15979E-02         0.00000E+00
    0.12879E-01         0.15556E-02         0.00000E+00
    0.12612E-01         0.15132E-02         0.00000E+00
    0.12340E-01         0.14708E-02         0.00000E+00
    0.12061E-01         0.14283E-02         0.00000E+00
    0.11777E-01         0.13859E-02         0.00000E+00
    0.11487E-01         0.13434E-02         0.00000E+00
    0.11192E-01         0.13008E-02         0.00000E+00
    0.10891E-01         0.12583E-02         0.00000E+00
    0.10585E-01         0.12156E-02         0.00000E+00
    0.10273E-01         0.11730E-02         0.00000E+00
    0.99560E-02         0.11303E-02         0.00000E+00
    0.96335E-02         0.10875E-02         0.00000E+00
    0.93057E-02         0.10447E-02         0.00000E+00
    0.89727E-02         0.10018E-02         0.00000E+00
    0.86346E-02         0.95892E-03         0.00000E+00
    0.82913E-02         0.91595E-03         0.00000E+00
    0.79430E-02         0.87292E-03         0.00000E+00
    0.75897E-02         0.82983E-03         0.00000E+00
    0.72315E-02         0.78669E-03         0.00000E+00
    0.68684E-02         0.74348E-03         0.00000E+00
    0.65004E-02         0.70022E-03         0.00000E+00
    0.61276E-02         0.65689E-03         0.00000E+00
    0.57502E-02         0.61350E-03         0.00000E+00
    0.53680E-02         0.57005E-03         0.00000E+00
    0.49813E-02         0.52654E-03         0.00000E+00
    0.45899E-02         0.48297E-03         0.00000E+00
    0.41941E-02         0.43934E-03         0.00000E+00
    0.37938E-02         0.39565E-03         0.00000E+00
    0.33891E-02         0.35191E-03         0.00000E+00
    0.29801E-02         0.30810E-03         0.00000E+00
    0.25668E-02         0.26424E-03         0.00000E+00
    0.21492E-02         0.22032E-03         0.00000E+00
    0.17275E-02         0.17636E-03         0.00000E+00
    0.13017E-02         0.13234E-03         0.00000E+00
    0.87177E-03         0.88270E-04         0.00000E+00
    0.43786E-03         0.44157E-04         0.00000E+00
    0.00000E+00         0.00000E+00         0.00000E+00
    0.15986E-01         0.12709E-02         0.00000E+00
    0.15807E-01         0.12473E-02         0.00000E+00
    0.15622E-01         0.12237E-02         0.00000E+00
    0.15430E-01         0.12000E-02         0.00000E+00
    0.15231E-01         0.11764E-02         0.00000E+00
    0.15026E-01         0.11527E-02         0.00000E+00
    0.14815E-01         0.11291E-02         0.00000E+00
    0.14597E-01         0.11054E-02         0.00000E+00
    0.14373E-01         0.10816E-02         0.00000E+00
    0.14142E-01         0.10579E-02         0.00000E+00
    0.13906E-01         0.10341E-02         0.00000E+00
    0.13663E-01         0.10102E-02         0.00000E+00
    0.13414E-01         0.98630E-03         0.00000E+00
    0.13159E-01         0.96234E-03         0.00000E+00
    0.12898E-01         0.93831E-03         0.00000E+00
    0.12631E-01         0.91422E-03         0.00000E+00
    0.12359E-01         0.89005E-03         0.00000E+00
    0.12080E-01         0.86580E-03         0.00000E+00
    0.11796E-01         0.84148E-03         0.00000E+00
    0.11506E-01         0.81707E-03         0.00000E+00
    0.11210E-01         0.79256E-03         0.00000E+00
    0.10909E-01         0.76797E-03         0.00000E+00
    0.10603E-01         0.74327E-03         0.00000E+00
    0.10290E-01         0.71848E-03         0.00000E+00
    0.99728E-02         0.69357E-03         0.00000E+00
    0.96499E-02         0.66856E-03         0.00000E+00
    0.93217E-02         0.64343E-03         0.00000E+00
    0.89883E-02         0.61819E-03         0.00000E+00
    0.86497E-02         0.59283E-03         0.00000E+00
    0.83059E-02         0.56735E-03         0.00000E+00
    0.79571E-02         0.54174E-03         0.00000E+00
    0.76032E-02         0.51600E-03         0.00000E+00
    0.72444E-02         0.49013E-03         0.00000E+00
    0.68806E-02         0.46413E-03         0.00000E+00
    0.65120E-02         0.43799E-03         0.00000E+00
    0.61386E-02         0.41171E-03         0.00000E+00
    0.57605E-02         0.38530E-03         0.00000E+00
    0.53777E-02         0.35874E-03         0.00000E+00
    0.49902E-02         0.33204E-03         0.00000E+00
    0.45982E-02         0.30519E-03         0.00000E+00
    0.42016E-02         0.27820E-03         0.00000E+00
    0.38006E-02         0.25106E-03         0.00000E+00
    0.33952E-02         0.22377E-03         0.00000E+00
    0.29854E-02         0.19633E-03         0.00000E+00
    0.25714E-02         0.16874E-03         0.00000E+00
    0.21531E-02         0.14099E-03         0.00000E+00
    0.17306E-02         0.11310E-03         0.00000E+00
    0.13040E-02         0.85054E-04         0.00000E+00
    0.87331E-03         0.56855E-04         0.00000E+00
    0.43863E-03         0.28504E-04         0.00000E+00
    0.00000E+00         0.00000E+00         0.00000E+00
    0.16039E-01         0.39426E-03         0.00000E+00
    0.15860E-01         0.38949E-03         0.00000E+00
    0.15675E-01         0.38468E-03         0.00000E+00
    0.15482E-01         0.37984E-03         0.00000E+00
    0.15284E-01         0.37496E-03         0.00000E+00
    0.15078E-01         0.37002E-03         0.00000E+00
    0.14866E-01         0.36502E-03         0.00000E+00
    0.14648E-01         0.35997E-03         0.00000E+00
    0.14423E-01         0.35484E-03         0.00000E+00
    0.14192E-01         0.34963E-03         0.00000E+00
    0.13955E-01         0.34433E-03         0.00000E+00
    0.13712E-01         0.33895E-03         0.00000E+00
    0.13462E-01         0.33347E-03         0.00000E+00
    0.13207E-01         0.32788E-03         0.00000E+00
    0.12945E-01         0.32219E-03         0.00000E+00
    0.12677E-01         0.31638E-03         0.00000E+00
    0.12404E-01         0.31044E-03         0.00000E+00
    0.12125E-01         0.30438E-03         0.00000E+00
    0.11839E-01         0.29818E-03         0.00000E+00
    0.11549E-01         0.29185E-03         0.00000E+00
    0.11252E-01         0.28537E-03         0.00000E+00
    0.10950E-01         0.27874E-03         0.00000E+00
    0.10642E-01         0.27195E-03         0.00000E+00
    0.10329E-01         0.26500E-03         0.00000E+00
    0.10010E-01         0.25789E-03         0.00000E+00
    0.96863E-02         0.25060E-03         0.00000E+00
    0.93569E-02         0.24314E-03         0.00000E+00
    0.90223E-02         0.23549E-03         0.00000E+00
    0.86824E-02         0.22766E-03         0.00000E+00
    0.83374E-02         0.21964E-03         0.00000E+00
    0.79873E-02         0.21142E-03         0.00000E+00
    0.76321E-02         0.20301E-03         0.00000E+00
    0.72719E-02         0.19439E-03         0.00000E+00
    0.69068E-02         0.18556E-03         0.00000E+00
    0.65369E-02         0.17651E-03         0.00000E+00
    0.61621E-02         0.16726E-03         0.00000E+00
    0.57825E-02         0.15778E-03         0.00000E+00
    0.53982E-02         0.14807E-03         0.00000E+00
    0.50093E-02         0.13814E-03         0.00000E+00
    0.46158E-02         0.12798E-03         0.00000E+00
    0.42177E-02         0.11758E-03         0.00000E+00
    0.38151E-02         0.10694E-03         0.00000E+00
    0.34082E-02         0.96066E-04         0.00000E+00
    0.29968E-02         0.84943E-04         0.00000E+00
    0.25812E-02         0.73573E-04         0.00000E+00
    0.21613E-02         0.61953E-04         0.00000E+00
    0.17372E-02         0.50079E-04         0.00000E+00
    0.13089E-02         0.37949E-04         0.00000E+00
    0.87662E-03         0.25561E-04         0.00000E+00
    0.44029E-03         0.12912E-04         0.00000E+00
    0.00000E+00         0.00000E+00         0.00000E+00
    0.16130E-01        -0.48461E-03         0.00000E+00
    0.15950E-01        -0.47046E-03         0.00000E+00
    0.15764E-01        -0.45638E-03         0.00000E+00
    0.15570E-01        -0.44236E-03         0.00000E+00
    0.15371E-01        -0.42843E-03         0.00000E+00
    0.15164E-01        -0.41459E-03         0.00000E+00
    0.14951E-01        -0.40085E-03         0.00000E+00
    0.14732E-01        -0.38721E-03         0.00000E+00
    0.14506E-01        -0.37368E-03         0.00000E+00
    0.14274E-01        -0.36027E-03         0.00000E+00
    0.14035E-01        -0.34699E-03         0.00000E+00
    0.13791E-01        -0.33385E-03         0.00000E+00
    0.13540E-01        -0.32085E-03         0.00000E+00
    0.13283E-01        -0.30800E-03         0.00000E+00
    0.13020E-01        -0.29531E-03         0.00000E+00
    0.12751E-01        -0.28278E-03         0.00000E+00
    0.12476E-01        -0.27043E-03         0.00000E+00
    0.12195E-01        -0.25825E-03         0.00000E+00
    0.11908E-01        -0.24626E-03         0.00000E+00
    0.11616E-01        -0.23447E-03         0.00000E+00
    0.11317E-01        -0.22288E-03         0.00000E+00
    0.11014E-01        -0.21150E-03         0.00000E+00
    0.10704E-01        -0.20033E-03         0.00000E+00
    0.10389E-01        -0.18938E-03         0.00000E+00
    0.10069E-01        -0.17866E-03         0.00000E+00
    0.97428E-02        -0.16817E-03         0.00000E+00
    0.94115E-02        -0.15792E-03         0.00000E+00
    0.90750E-02        -0.14793E-03         0.00000E+00
    0.87332E-02        -0.13818E-03         0.00000E+00
    0.83861E-02        -0.12870E-03         0.00000E+00
    0.80340E-02        -0.11948E-03         0.00000E+00
    0.76767E-02        -0.11054E-03         0.00000E+00
    0.73145E-02        -0.10187E-03         0.00000E+00
    0.69473E-02        -0.93488E-04         0.00000E+00
    0.65751E-02        -0.85397E-04         0.00000E+00
    0.61981E-02        -0.77602E-04         0.00000E+00
    0.58163E-02        -0.70109E-04         0.00000E+00
    0.54298E-02        -0.62924E-04         0.00000E+00
    0.50386E-02        -0.56052E-04         0.00000E+00
    0.46428E-02        -0.49500E-04         0.00000E+00
    0.42424E-02        -0.43272E-04         0.00000E+00
    0.38375E-02        -0.37374E-04         0.00000E+00
    0.34281E-02        -0.31812E-04         0.00000E+00
    0.30143E-02        -0.26590E-04         0.00000E+00
    0.25963E-02        -0.21714E-04         0.00000E+00
    0.21739E-02        -0.17188E-04         0.00000E+00
    0.17473E-02        -0.13019E-04         0.00000E+00
    0.13166E-02        -0.92108E-05         0.00000E+00
    0.88174E-03        -0.57683E-05         0.00000E+00
    0.44286E-03        -0.26965E-05         0.00000E+00
    0.00000E+00         0.00000E+00         0.00000E+00
    0.16258E-01        -0.13691E-02         0.00000E+00
    0.16077E-01        -0.13359E-02         0.00000E+00
    0.15889E-01        -0.13028E-02         0.00000E+00
    0.15694E-01        -0.12698E-02         0.00000E+00
    0.15493E-01        -0.12369E-02         0.00000E+00
    0.15285E-01        -0.12042E-02         0.00000E+00
    0.15070E-01        -0.11716E-02         0.00000E+00
    0.14849E-01        -0.11391E-02         0.00000E+00
    0.14621E-01        -0.11068E-02         0.00000E+00
    0.14387E-01        -0.10747E-02         0.00000E+00
    0.14147E-01        -0.10427E-02         0.00000E+00
    0.13900E-01        -0.10109E-02         0.00000E+00
    0.13647E-01        -0.97931E-03         0.00000E+00
    0.13388E-01        -0.94791E-03         0.00000E+00
    0.13123E-01        -0.91671E-03         0.00000E+00
    0.12852E-01        -0.88573E-03         0.00000E+00
    0.12575E-01        -0.85497E-03         0.00000E+00
    0.12291E-01        -0.82444E-03         0.00000E+00
    0.12002E-01        -0.79415E-03         0.00000E+00
    0.11708E-01        -0.76412E-03         0.00000E+00
    0.11407E-01        -0.73433E-03         0.00000E+00
    0.11101E-01        -0.70482E-03         0.00000E+00
    0.10789E-01        -0.67558E-03         0.00000E+00
    0.10471E-01        -0.64662E-03         0.00000E+00
    0.10148E-01        -0.61795E-03         0.00000E+00
    0.98197E-02        -0.58957E-03         0.00000E+00
    0.94859E-02        -0.56151E-03         0.00000E+00
    0.91466E-02        -0.53375E-03         0.00000E+00
    0.88021E-02        -0.50632E-03         0.00000E+00
    0.84523E-02        -0.47922E-03         0.00000E+00
    0.80974E-02        -0.45246E-03         0.00000E+00
    0.77373E-02        -0.42604E-03         0.00000E+00
    0.73722E-02        -0.39998E-03         0.00000E+00
    0.70020E-02        -0.37427E-03         0.00000E+00
    0.66270E-02        -0.34894E-03         0.00000E+00
    0.62470E-02        -0.32398E-03         0.00000E+00
    0.58622E-02        -0.29941E-03         0.00000E+00
    0.54726E-02        -0.27523E-03         0.00000E+00
    0.50783E-02        -0.25145E-03         0.00000E+00
    0.46793E-02        -0.22808E-03         0.00000E+00
    0.42758E-02        -0.20512E-03         0.00000E+00
    0.38677E-02        -0.18258E-03         0.00000E+00
    0.34551E-02        -0.16048E-03         0.00000E+00
    0.30381E-02        -0.13881E-03         0.00000E+00
    0.26167E-02        -0.11759E-03         0.00000E+00
    0.21910E-02        -0.96816E-04         0.00000E+00
    0.17611E-02        -0.76505E-04         0.00000E+00
    0.13269E-02        -0.56660E-04         0.00000E+00
    0.88868E-03        -0.37290E-04         0.00000E+00
    0.44635E-03        -0.18400E-04         0.00000E+00
    0.00000E+00         0.00000E+00         0.00000E+00
    0.16425E-01        -0.22627E-02         0.00000E+00
    0.16242E-01        -0.22102E-02         0.00000E+00
    0.16051E-01        -0.21579E-02         0.00000E+00
    0.15854E-01        -0.21058E-02         0.00000E+00
    0.15651E-01        -0.20538E-02         0.00000E+00
    0.15440E-01        -0.20019E-02         0.00000E+00
    0.15223E-01        -0.19503E-02         0.00000E+00
    0.14999E-01        -0.18988E-02         0.00000E+00
    0.14769E-01        -0.18476E-02         0.00000E+00
    0.14533E-01        -0.17965E-02         0.00000E+00
    0.14290E-01        -0.17456E-02         0.00000E+00
    0.14040E-01        -0.16950E-02         0.00000E+00
    0.13785E-01        -0.16446E-02         0.00000E+00
    0.13523E-01        -0.15945E-02         0.00000E+00
    0.13255E-01        -0.15446E-02         0.00000E+00
    0.12981E-01        -0.14950E-02         0.00000E+00
    0.12700E-01        -0.14456E-02         0.00000E+00
    0.12414E-01        -0.13966E-02         0.00000E+00
    0.12122E-01        -0.13478E-02         0.00000E+00
    0.11824E-01        -0.12993E-02         0.00000E+00
    0.11521E-01        -0.12512E-02         0.00000E+00
    0.11211E-01        -0.12033E-02         0.00000E+00
    0.10896E-01        -0.11558E-02         0.00000E+00
    0.10575E-01        -0.11087E-02         0.00000E+00
    0.10249E-01        -0.10619E-02         0.00000E+00
    0.99172E-02        -0.10154E-02         0.00000E+00
    0.95800E-02        -0.96938E-03         0.00000E+00
    0.92373E-02        -0.92369E-03         0.00000E+00
    0.88893E-02        -0.87839E-03         0.00000E+00
    0.85360E-02        -0.83349E-03         0.00000E+00
    0.81775E-02        -0.78900E-03         0.00000E+00
    0.78139E-02        -0.74493E-03         0.00000E+00
    0.74451E-02        -0.70129E-03         0.00000E+00
    0.70713E-02        -0.65808E-03         0.00000E+00
    0.66924E-02        -0.61533E-03         0.00000E+00
    0.63087E-02        -0.57303E-03         0.00000E+00
    0.59201E-02        -0.53120E-03         0.00000E+00
    0.55266E-02        -0.48984E-03         0.00000E+00
    0.51284E-02        -0.44897E-03         0.00000E+00
    0.47255E-02        -0.40860E-03         0.00000E+00
    0.43180E-02        -0.36874E-03         0.00000E+00
    0.39059E-02        -0.32938E-03         0.00000E+00
    0.34892E-02        -0.29056E-03         0.00000E+00
    0.30681E-02        -0.25227E-03         0.00000E+00
    0.26425E-02        -0.21452E-03         0.00000E+00
    0.22127E-02        -0.17732E-03         0.00000E+00
    0.17785E-02        -0.14069E-03         0.00000E+00
    0.13401E-02        -0.10464E-03         0.00000E+00
    0.89746E-03        -0.69161E-04         0.00000E+00
    0.45076E-03        -0.34280E-04         0.00000E+00
    0.00000E+00         0.00000E+00         0.00000E+00
    0.16630E-01        -0.31688E-02         0.00000E+00
    0.16444E-01        -0.30969E-02         0.00000E+00
    0.16251E-01        -0.30251E-02         0.00000E+00
    0.16051E-01        -0.29535E-02         0.00000E+00
    0.15844E-01        -0.28822E-02         0.00000E+00
    0.15630E-01        -0.28110E-02         0.00000E+00
    0.15410E-01        -0.27401E-02         0.00000E+00
    0.15183E-01        -0.26693E-02         0.00000E+00
    0.14950E-01        -0.25988E-02         0.00000E+00
    0.14710E-01        -0.25286E-02         0.00000E+00
    0.14464E-01        -0.24586E-02         0.00000E+00
    0.14211E-01        -0.23889E-02         0.00000E+00
    0.13952E-01        -0.23195E-02         0.00000E+00
    0.13686E-01        -0.22504E-02         0.00000E+00
    0.13415E-01        -0.21815E-02         0.00000E+00
    0.13137E-01        -0.21130E-02         0.00000E+00
    0.12853E-01        -0.20449E-02         0.00000E+00
    0.12564E-01        -0.19770E-02         0.00000E+00
    0.12268E-01        -0.19095E-02         0.00000E+00
    0.11966E-01        -0.18424E-02         0.00000E+00
    0.11659E-01        -0.17756E-02         0.00000E+00
    0.11345E-01        -0.17092E-02         0.00000E+00
    0.11026E-01        -0.16432E-02         0.00000E+00
    0.10702E-01        -0.15776E-02         0.00000E+00
    0.10371E-01        -0.15124E-02         0.00000E+00
    0.10035E-01        -0.14476E-02         0.00000E+00
    0.96939E-02        -0.13833E-02         0.00000E+00
    0.93471E-02        -0.13194E-02         0.00000E+00
    0.89948E-02        -0.12560E-02         0.00000E+00
    0.86373E-02        -0.11931E-02         0.00000E+00
    0.82745E-02        -0.11306E-02         0.00000E+00
    0.79064E-02        -0.10686E-02         0.00000E+00
    0.75332E-02        -0.10072E-02         0.00000E+00
    0.71549E-02        -0.94621E-03         0.00000E+00
    0.67716E-02        -0.88578E-03         0.00000E+00
    0.63833E-02        -0.82589E-03         0.00000E+00
    0.59901E-02        -0.76654E-03         0.00000E+00
    0.55920E-02        -0.70776E-03         0.00000E+00
    0.51890E-02        -0.64955E-03         0.00000E+00
    0.47814E-02        -0.59193E-03         0.00000E+00
    0.43690E-02        -0.53490E-03         0.00000E+00
    0.39520E-02        -0.47848E-03         0.00000E+00
    0.35304E-02        -0.42268E-03         0.00000E+00
    0.31043E-02        -0.36751E-03         0.00000E+00
    0.26738E-02        -0.31298E-03         0.00000E+00
    0.22388E-02        -0.25911E-03         0.00000E+00
    0.17995E-02        -0.20590E-03         0.00000E+00
    0.13559E-02        -0.15338E-03         0.00000E+00
    0.90808E-03        -0.10154E-03         0.00000E+00
    0.45609E-03        -0.50414E-04         0.00000E+00
    0.00000E+00         0.00000E+00         0.00000E+00
    0.16874E-01        -0.40909E-02         0.00000E+00
    0.16684E-01        -0.39992E-02         0.00000E+00
    0.16487E-01        -0.39077E-02         0.00000E+00
    0.16283E-01        -0.38164E-02         0.00000E+00
    0.16073E-01        -0.37254E-02         0.00000E+00
    0.15856E-01        -0.36345E-02         0.00000E+00
    0.15631E-01        -0.35440E-02         0.00000E+00
    0.15401E-01        -0.34537E-02         0.00000E+00
    0.15163E-01        -0.33637E-02         0.00000E+00
    0.14919E-01        -0.32740E-02         0.00000E+00
    0.14669E-01        -0.31846E-02         0.00000E+00
    0.14412E-01        -0.30955E-02         0.00000E+00
    0.14149E-01        -0.30067E-02         0.00000E+00
    0.13879E-01        -0.29183E-02         0.00000E+00
    0.13604E-01        -0.28302E-02         0.00000E+00
    0.13322E-01        -0.27425E-02         0.00000E+00
    0.13033E-01        -0.26551E-02         0.00000E+00
    0.12739E-01        -0.25682E-02         0.00000E+00
    0.12439E-01        -0.24816E-02         0.00000E+00
    0.12133E-01        -0.23955E-02         0.00000E+00
    0.11821E-01        -0.23098E-02         0.00000E+00
    0.11503E-01        -0.22245E-02         0.00000E+00
    0.11179E-01        -0.21397E-02         0.00000E+00
    0.10850E-01        -0.20553E-02         0.00000E+00
    0.10515E-01        -0.19714E-02         0.00000E+00
    0.10174E-01        -0.18880E-02         0.00000E+00
    0.98276E-02        -0.18051E-02         0.00000E+00
    0.94758E-02        -0.17228E-02         0.00000E+00
    0.91186E-02        -0.16409E-02         0.00000E+00
    0.87560E-02        -0.15596E-02         0.00000E+00
    0.83881E-02        -0.14788E-02         0.00000E+00
    0.80150E-02        -0.13986E-02         0.00000E+00
    0.76366E-02        -0.13190E-02         0.00000E+00
    0.72530E-02        -0.12400E-02         0.00000E+00
    0.68644E-02        -0.11615E-02         0.00000E+00
    0.64707E-02        -0.10837E-02         0.00000E+00
    0.60721E-02        -0.10065E-02         0.00000E+00
    0.56685E-02        -0.92999E-03         0.00000E+00
    0.52601E-02        -0.85412E-03         0.00000E+00
    0.48468E-02        -0.77891E-03         0.00000E+00
    0.44288E-02        -0.70439E-03         0.00000E+00
    0.40061E-02        -0.63057E-03         0.00000E+00
    0.35787E-02        -0.55746E-03         0.00000E+00
    0.31468E-02        -0.48508E-03         0.00000E+00
    0.27104E-02        -0.41345E-03         0.00000E+00
    0.22695E-02        -0.34256E-03         0.00000E+00
    0.18241E-02        -0.27245E-03         0.00000E+00
    0.13745E-02        -0.20313E-03         0.00000E+00
    0.92053E-03        -0.13460E-03         0.00000E+00
    0.46235E-03        -0.66885E-04         0.00000E+00
    0.00000E+00         0.00000E+00         0.00000E+00
    0.17155E-01        -0.50327E-02         0.00000E+00
    0.16961E-01        -0.49208E-02         0.00000E+00
    0.16760E-01        -0.48091E-02         0.00000E+00
    0.16552E-01        -0.46977E-02         0.00000E+00
    0.16337E-01        -0.45866E-02         0.00000E+00
    0.16115E-01        -0.44758E-02         0.00000E+00
    0.15887E-01        -0.43652E-02         0.00000E+00
    0.15651E-01        -0.42550E-02         0.00000E+00
    0.15409E-01        -0.41451E-02         0.00000E+00
    0.15161E-01        -0.40355E-02         0.00000E+00
    0.14905E-01        -0.39263E-02         0.00000E+00
    0.14644E-01        -0.38174E-02         0.00000E+00
    0.14376E-01        -0.37089E-02         0.00000E+00
    0.14101E-01        -0.36008E-02         0.00000E+00
    0.13820E-01        -0.34931E-02         0.00000E+00
    0.13533E-01        -0.33858E-02         0.00000E+00
    0.13240E-01        -0.32789E-02         0.00000E+00
    0.12941E-01        -0.31725E-02         0.00000E+00
    0.12636E-01        -0.30665E-02         0.00000E+00
    0.12324E-01        -0.29610E-02         0.00000E+00
    0.12007E-01        -0.28560E-02         0.00000E+00
    0.11684E-01        -0.27514E-02         0.00000E+00
    0.11354E-01        -0.26474E-02         0.00000E+00
    0.11020E-01        -0.25439E-02         0.00000E+00
    0.10679E-01        -0.24409E-02         0.00000E+00
    0.10333E-01        -0.23385E-02         0.00000E+00
    0.99809E-02        -0.22366E-02         0.00000E+00
    0.96234E-02        -0.21354E-02         0.00000E+00
    0.92605E-02        -0.20347E-02         0.00000E+00
    0.88922E-02        -0.19346E-02         0.00000E+00
    0.85184E-02        -0.18351E-02         0.00000E+00
    0.81393E-02        -0.17363E-02         0.00000E+00
    0.77550E-02        -0.16381E-02         0.00000E+00
    0.73654E-02        -0.15406E-02         0.00000E+00
    0.69707E-02        -0.14438E-02         0.00000E+00
    0.65709E-02        -0.13477E-02         0.00000E+00
    0.61660E-02        -0.12522E-02         0.00000E+00
    0.57562E-02        -0.11576E-02         0.00000E+00
    0.53414E-02        -0.10636E-02         0.00000E+00
    0.49217E-02        -0.97042E-03         0.00000E+00
    0.44973E-02        -0.87800E-03         0.00000E+00
    0.40680E-02        -0.78638E-03         0.00000E+00
    0.36341E-02        -0.69556E-03         0.00000E+00
    0.31955E-02        -0.60556E-03         0.00000E+00
    0.27523E-02        -0.51640E-03         0.00000E+00
    0.23046E-02        -0.42810E-03         0.00000E+00
    0.18524E-02        -0.34067E-03         0.00000E+00
    0.13958E-02        -0.25412E-03         0.00000E+00
    0.93479E-03        -0.16849E-03         0.00000E+00
    0.46952E-03        -0.83774E-04         0.00000E+00
    0.00000E+00         0.00000E+00         0.00000E+00
    0.17475E-01        -0.59975E-02         0.00000E+00
    0.17276E-01        -0.58650E-02         0.00000E+00
    0.17069E-01        -0.57328E-02         0.00000E+00
    0.16856E-01        -0.56008E-02         0.00000E+00
    0.16636E-01        -0.54692E-02         0.00000E+00
    0.16409E-01        -0.53379E-02         0.00000E+00
    0.16175E-01        -0.52070E-02         0.00000E+00
    0.15935E-01        -0.50763E-02         0.00000E+00
    0.15687E-01        -0.49461E-02         0.00000E+00
    0.15433E-01        -0.48162E-02         0.00000E+00
    0.15173E-01        -0.46867E-02         0.00000E+00
    0.14905E-01        -0.45576E-02         0.00000E+00
    0.14632E-01        -0.44289E-02         0.00000E+00
    0.14352E-01        -0.43007E-02         0.00000E+00
    0.14065E-01        -0.41729E-02         0.00000E+00
    0.13773E-01        -0.40456E-02         0.00000E+00
    0.13474E-01        -0.39187E-02         0.00000E+00
    0.13168E-01        -0.37924E-02         0.00000E+00
    0.12857E-01        -0.36665E-02         0.00000E+00
    0.12540E-01        -0.35412E-02         0.00000E+00
    0.12217E-01        -0.34164E-02         0.00000E+00
    0.11887E-01        -0.32921E-02         0.00000E+00
    0.11552E-01        -0.31684E-02         0.00000E+00
    0.11211E-01        -0.30453E-02         0.00000E+00
    0.10864E-01        -0.29228E-02         0.00000E+00
    0.10512E-01        -0.28009E-02         0.00000E+00
    0.10153E-01        -0.26796E-02         0.00000E+00
    0.97896E-02        -0.25590E-02         0.00000E+00
    0.94202E-02        -0.24390E-02         0.00000E+00
    0.90454E-02        -0.23197E-02         0.00000E+00
    0.86650E-02        -0.22011E-02         0.00000E+00
    0.82793E-02        -0.20832E-02         0.00000E+00
    0.78882E-02        -0.19660E-02         0.00000E+00
    0.74919E-02        -0.18495E-02         0.00000E+00
    0.70903E-02        -0.17338E-02         0.00000E+00
    0.66836E-02        -0.16189E-02         0.00000E+00
    0.62717E-02        -0.15048E-02         0.00000E+00
    0.58548E-02        -0.13915E-02         0.00000E+00
    0.54329E-02        -0.12790E-02         0.00000E+00
    0.50060E-02        -0.11673E-02         0.00000E+00
    0.45743E-02        -0.10565E-02         0.00000E+00
    0.41377E-02        -0.94662E-03         0.00000E+00
    0.36963E-02        -0.83760E-03         0.00000E+00
    0.32502E-02        -0.72950E-03         0.00000E+00
    0.27995E-02        -0.62233E-03         0.00000E+00
    0.23441E-02        -0.51611E-03         0.00000E+00
    0.18842E-02        -0.41087E-03         0.00000E+00
    0.14197E-02        -0.30662E-03         0.00000E+00
    0.95085E-03        -0.20337E-03         0.00000E+00
    0.47759E-03        -0.10116E-03         0.00000E+00
    0.00000E+00         0.00000E+00         0.00000E+00
    0.17831E-01        -0.69890E-02         0.00000E+00
    0.17626E-01        -0.68354E-02         0.00000E+00
    0.17415E-01        -0.66820E-02         0.00000E+00
    0.17196E-01        -0.65291E-02         0.00000E+00
    0.16970E-01        -0.63764E-02         0.00000E+00
    0.16737E-01        -0.62242E-02         0.00000E+00
    0.16497E-01        -0.60723E-02         0.00000E+00
    0.16250E-01        -0.59208E-02         0.00000E+00
    0.15997E-01        -0.57697E-02         0.00000E+00
    0.15737E-01        -0.56190E-02         0.00000E+00
    0.15470E-01        -0.54687E-02         0.00000E+00
    0.15196E-01        -0.53189E-02         0.00000E+00
    0.14917E-01        -0.51695E-02         0.00000E+00
    0.14630E-01        -0.50207E-02         0.00000E+00
    0.14337E-01        -0.48723E-02         0.00000E+00
    0.14038E-01        -0.47244E-02         0.00000E+00
    0.13733E-01        -0.45771E-02         0.00000E+00
    0.13421E-01        -0.44303E-02         0.00000E+00
    0.13103E-01        -0.42840E-02         0.00000E+00
    0.12779E-01        -0.41383E-02         0.00000E+00
    0.12449E-01        -0.39933E-02         0.00000E+00
    0.12113E-01        -0.38488E-02         0.00000E+00
    0.11771E-01        -0.37049E-02         0.00000E+00
    0.11424E-01        -0.35617E-02         0.00000E+00
    0.11070E-01        -0.34191E-02         0.00000E+00
    0.10710E-01        -0.32772E-02         0.00000E+00
    0.10345E-01        -0.31359E-02         0.00000E+00
    0.99740E-02        -0.29954E-02         0.00000E+00
    0.95975E-02        -0.28556E-02         0.00000E+00
    0.92153E-02        -0.27165E-02         0.00000E+00
    0.88277E-02        -0.25782E-02         0.00000E+00
    0.84345E-02        -0.24407E-02         0.00000E+00
    0.80360E-02        -0.23039E-02         0.00000E+00
    0.76321E-02        -0.21680E-02         0.00000E+00
    0.72230E-02        -0.20329E-02         0.00000E+00
    0.68086E-02        -0.18987E-02         0.00000E+00
    0.63889E-02        -0.17653E-02         0.00000E+00
    0.59642E-02        -0.16328E-02         0.00000E+00
    0.55344E-02        -0.15012E-02         0.00000E+00
    0.50995E-02        -0.13705E-02         0.00000E+00
    0.46597E-02        -0.12408E-02         0.00000E+00
    0.42150E-02        -0.11120E-02         0.00000E+00
    0.37654E-02        -0.98423E-03         0.00000E+00
    0.33109E-02        -0.85746E-03         0.00000E+00
    0.28518E-02        -0.73171E-03         0.00000E+00
    0.23879E-02        -0.60701E-03         0.00000E+00
    0.19194E-02        -0.48339E-03         0.00000E+00
    0.14463E-02        -0.36085E-03         0.00000E+00
    0.96865E-03        -0.23942E-03         0.00000E+00
    0.48654E-03        -0.11913E-03         0.00000E+00
    0.00000E+00         0.00000E+00         0.00000E+00
    0.18224E-01        -0.80106E-02         0.00000E+00
    0.18013E-01        -0.78353E-02         0.00000E+00
    0.17795E-01        -0.76603E-02         0.00000E+00
    0.17569E-01        -0.74857E-02         0.00000E+00
    0.17337E-01        -0.73115E-02         0.00000E+00
    0.17097E-01        -0.71377E-02         0.00000E+00
    0.16851E-01        -0.69643E-02         0.00000E+00
    0.16597E-01        -0.67914E-02         0.00000E+00
    0.16337E-01        -0.66188E-02         0.00000E+00
    0.16070E-01        -0.64468E-02         0.00000E+00
    0.15797E-01        -0.62752E-02         0.00000E+00
    0.15516E-01        -0.61041E-02         0.00000E+00
    0.15230E-01        -0.59335E-02         0.00000E+00
    0.14936E-01        -0.57634E-02         0.00000E+00
    0.14636E-01        -0.55939E-02         0.00000E+00
    0.14330E-01        -0.54249E-02         0.00000E+00
    0.14018E-01        -0.52564E-02         0.00000E+00
    0.13699E-01        -0.50886E-02         0.00000E+00
    0.13374E-01        -0.49214E-02         0.00000E+00
    0.13042E-01        -0.47548E-02         0.00000E+00
    0.12705E-01        -0.45888E-02         0.00000E+00
    0.12362E-01        -0.44235E-02         0.00000E+00
    0.12012E-01        -0.42589E-02         0.00000E+00
    0.11657E-01        -0.40949E-02         0.00000E+00
    0.11295E-01        -0.39317E-02         0.00000E+00
    0.10928E-01        -0.37691E-02         0.00000E+00
    0.10555E-01        -0.36074E-02         0.00000E+00
    0.10176E-01        -0.34464E-02         0.00000E+00
    0.97917E-02        -0.32861E-02         0.00000E+00
    0.94016E-02        -0.31267E-02         0.00000E+00
    0.90059E-02        -0.29681E-02         0.00000E+00
    0.86047E-02        -0.28103E-02         0.00000E+00
    0.81980E-02        -0.26534E-02         0.00000E+00
    0.77858E-02        -0.24974E-02         0.00000E+00
    0.73683E-02        -0.23422E-02         0.00000E+00
    0.69455E-02        -0.21880E-02         0.00000E+00
    0.65174E-02        -0.20348E-02         0.00000E+00
    0.60840E-02        -0.18825E-02         0.00000E+00
    0.56456E-02        -0.17311E-02         0.00000E+00
    0.52020E-02        -0.15808E-02         0.00000E+00
    0.47533E-02        -0.14315E-02         0.00000E+00
    0.42996E-02        -0.12833E-02         0.00000E+00
    0.38410E-02        -0.11361E-02         0.00000E+00
    0.33775E-02        -0.99000E-03         0.00000E+00
    0.29091E-02        -0.84503E-03         0.00000E+00
    0.24359E-02        -0.70121E-03         0.00000E+00
    0.19580E-02        -0.55854E-03         0.00000E+00
    0.14754E-02        -0.41706E-03         0.00000E+00
    0.98817E-03        -0.27680E-03         0.00000E+00
    0.49635E-03        -0.13777E-03         0.00000E+00
    0.00000E+00         0.00000E+00         0.00000E+00
    0.18653E-01        -0.90658E-02         0.00000E+00
    0.18434E-01        -0.88682E-02         0.00000E+00
    0.18209E-01        -0.86710E-02         0.00000E+00
    0.17976E-01        -0.84742E-02         0.00000E+00
    0.17736E-01        -0.82778E-02         0.00000E+00
    0.17490E-01        -0.80818E-02         0.00000E+00
    0.17236E-01        -0.78863E-02         0.00000E+00
    0.16975E-01        -0.76912E-02         0.00000E+00
    0.16708E-01        -0.74966E-02         0.00000E+00
    0.16433E-01        -0.73026E-02         0.00000E+00
    0.16152E-01        -0.71090E-02         0.00000E+00
    0.15864E-01        -0.69160E-02         0.00000E+00
    0.15570E-01        -0.67235E-02         0.00000E+00
    0.15269E-01        -0.65315E-02         0.00000E+00
    0.14961E-01        -0.63402E-02         0.00000E+00
    0.14647E-01        -0.61494E-02         0.00000E+00
    0.14327E-01        -0.59593E-02         0.00000E+00
    0.14000E-01        -0.57698E-02         0.00000E+00
    0.13667E-01        -0.55810E-02         0.00000E+00
    0.13328E-01        -0.53928E-02         0.00000E+00
    0.12982E-01        -0.52053E-02         0.00000E+00
    0.12631E-01        -0.50185E-02         0.00000E+00
    0.12273E-01        -0.48324E-02         0.00000E+00
    0.11909E-01        -0.46471E-02         0.00000E+00
    0.11540E-01        -0.44625E-02         0.00000E+00
    0.11164E-01        -0.42787E-02         0.00000E+00
    0.10783E-01        -0.40958E-02         0.00000E+00
    0.10395E-01        -0.39136E-02         0.00000E+00
    0.10002E-01        -0.37323E-02         0.00000E+00
    0.96037E-02        -0.35518E-02         0.00000E+00
    0.91992E-02        -0.33722E-02         0.00000E+00
    0.87892E-02        -0.31935E-02         0.00000E+00
    0.83736E-02        -0.30158E-02         0.00000E+00
    0.79525E-02        -0.28389E-02         0.00000E+00
    0.75259E-02        -0.26631E-02         0.00000E+00
    0.70940E-02        -0.24882E-02         0.00000E+00
    0.66566E-02        -0.23144E-02         0.00000E+00
    0.62140E-02        -0.21416E-02         0.00000E+00
    0.57661E-02        -0.19698E-02         0.00000E+00
    0.53130E-02        -0.17991E-02         0.00000E+00
    0.48548E-02        -0.16296E-02         0.00000E+00
    0.43914E-02        -0.14611E-02         0.00000E+00
    0.39230E-02        -0.12938E-02         0.00000E+00
    0.34496E-02        -0.11277E-02         0.00000E+00
    0.29712E-02        -0.96279E-03         0.00000E+00
    0.24880E-02        -0.79910E-03         0.00000E+00
    0.19999E-02        -0.63667E-03         0.00000E+00
    0.15070E-02        -0.47551E-03         0.00000E+00
    0.10093E-02        -0.31567E-03         0.00000E+00
    0.50699E-03        -0.15715E-03         0.00000E+00
    0.00000E+00         0.00000E+00         0.00000E+00
    0.19115E-01        -0.10158E-01         0.00000E+00
    0.18889E-01        -0.99376E-02         0.00000E+00
    0.18656E-01        -0.97174E-02         0.00000E+00
    0.18415E-01        -0.94977E-02         0.00000E+00
    0.18168E-01        -0.92784E-02         0.00000E+00
    0.17913E-01        -0.90596E-02         0.00000E+00
    0.17651E-01        -0.88412E-02         0.00000E+00
    0.17382E-01        -0.86234E-02         0.00000E+00
    0.17107E-01        -0.84060E-02         0.00000E+00
    0.16824E-01        -0.81893E-02         0.00000E+00
    0.16535E-01        -0.79730E-02         0.00000E+00
    0.16239E-01        -0.77574E-02         0.00000E+00
    0.15936E-01        -0.75423E-02         0.00000E+00
    0.15627E-01        -0.73278E-02         0.00000E+00
    0.15311E-01        -0.71139E-02         0.00000E+00
    0.14989E-01        -0.69007E-02         0.00000E+00
    0.14660E-01        -0.66882E-02         0.00000E+00
    0.14325E-01        -0.64763E-02         0.00000E+00
    0.13983E-01        -0.62651E-02         0.00000E+00
    0.13635E-01        -0.60546E-02         0.00000E+00
    0.13281E-01        -0.58449E-02         0.00000E+00
    0.12921E-01        -0.56359E-02         0.00000E+00
    0.12554E-01        -0.54277E-02         0.00000E+00
    0.12182E-01        -0.52202E-02         0.00000E+00
    0.11803E-01        -0.50136E-02         0.00000E+00
    0.11418E-01        -0.48078E-02         0.00000E+00
    0.11028E-01        -0.46029E-02         0.00000E+00
    0.10631E-01        -0.43988E-02         0.00000E+00
    0.10229E-01        -0.41957E-02         0.00000E+00
    0.98209E-02        -0.39934E-02         0.00000E+00
    0.94070E-02        -0.37921E-02         0.00000E+00
    0.89875E-02        -0.35918E-02         0.00000E+00
    0.85624E-02        -0.33924E-02         0.00000E+00
    0.81316E-02        -0.31940E-02         0.00000E+00
    0.76953E-02        -0.29967E-02         0.00000E+00
    0.72535E-02        -0.28004E-02         0.00000E+00
    0.68063E-02        -0.26052E-02         0.00000E+00
    0.63536E-02        -0.24111E-02         0.00000E+00
    0.58956E-02        -0.22182E-02         0.00000E+00
    0.54324E-02        -0.20264E-02         0.00000E+00
    0.49638E-02        -0.18357E-02         0.00000E+00
    0.44901E-02        -0.16463E-02         0.00000E+00
    0.40111E-02        -0.14581E-02         0.00000E+00
    0.35271E-02        -0.12711E-02         0.00000E+00
    0.30380E-02        -0.10855E-02         0.00000E+00
    0.25439E-02        -0.90110E-03         0.00000E+00
    0.20449E-02        -0.71809E-03         0.00000E+00
    0.15409E-02        -0.53644E-03         0.00000E+00
    0.10321E-02        -0.35619E-03         0.00000E+00
    0.51842E-03        -0.17737E-03         0.00000E+00
    0.00000E+00         0.00000E+00         0.00000E+00
    0.19611E-01        -0.11291E-01         0.00000E+00
    0.19377E-01        -0.11047E-01         0.00000E+00
    0.19135E-01        -0.10803E-01         0.00000E+00
    0.18886E-01        -0.10560E-01         0.00000E+00
    0.18629E-01        -0.10317E-01         0.00000E+00
    0.18366E-01        -0.10074E-01         0.00000E+00
    0.18096E-01        -0.98322E-02         0.00000E+00
    0.17818E-01        -0.95908E-02         0.00000E+00
    0.17534E-01        -0.93500E-02         0.00000E+00
    0.17243E-01        -0.91098E-02         0.00000E+00
    0.16944E-01        -0.88701E-02         0.00000E+00
    0.16640E-01        -0.86310E-02         0.00000E+00
    0.16328E-01        -0.83926E-02         0.00000E+00
    0.16010E-01        -0.81548E-02         0.00000E+00
    0.15685E-01        -0.79177E-02         0.00000E+00
    0.15353E-01        -0.76812E-02         0.00000E+00
    0.15015E-01        -0.74455E-02         0.00000E+00
    0.14671E-01        -0.72104E-02         0.00000E+00
    0.14320E-01        -0.69761E-02         0.00000E+00
    0.13963E-01        -0.67426E-02         0.00000E+00
    0.13600E-01        -0.65098E-02         0.00000E+00
    0.13230E-01        -0.62778E-02         0.00000E+00
    0.12854E-01        -0.60467E-02         0.00000E+00
    0.12472E-01        -0.58164E-02         0.00000E+00
    0.12083E-01        -0.55869E-02         0.00000E+00
    0.11689E-01        -0.53583E-02         0.00000E+00
    0.11289E-01        -0.51306E-02         0.00000E+00
    0.10883E-01        -0.49039E-02         0.00000E+00
    0.10470E-01        -0.46780E-02         0.00000E+00
    0.10052E-01        -0.44532E-02         0.00000E+00
    0.96286E-02        -0.42293E-02         0.00000E+00
    0.91989E-02        -0.40065E-02         0.00000E+00
    0.87636E-02        -0.37847E-02         0.00000E+00
    0.83225E-02        -0.35640E-02         0.00000E+00
    0.78759E-02        -0.33443E-02         0.00000E+00
    0.74236E-02        -0.31258E-02         0.00000E+00
    0.69658E-02        -0.29084E-02         0.00000E+00
    0.65025E-02        -0.26922E-02         0.00000E+00
    0.60337E-02        -0.24771E-02         0.00000E+00
    0.55595E-02        -0.22633E-02         0.00000E+00
    0.50800E-02        -0.20508E-02         0.00000E+00
    0.45952E-02        -0.18395E-02         0.00000E+00
    0.41051E-02        -0.16295E-02         0.00000E+00
    0.36097E-02        -0.14208E-02         0.00000E+00
    0.31092E-02        -0.12135E-02         0.00000E+00
    0.26036E-02        -0.10076E-02         0.00000E+00
    0.20929E-02        -0.80313E-03         0.00000E+00
    0.15771E-02        -0.60009E-03         0.00000E+00
    0.10563E-02        -0.39854E-03         0.00000E+00
    0.53061E-03        -0.19849E-03         0.00000E+00
    0.00000E+00         0.00000E+00         0.00000E+00
    0.20139E-01        -0.12468E-01         0.00000E+00
    0.19895E-01        -0.12199E-01         0.00000E+00
    0.19644E-01        -0.11931E-01         0.00000E+00
    0.19385E-01        -0.11663E-01         0.00000E+00
    0.19120E-01        -0.11396E-01         0.00000E+00
    0.18847E-01        -0.11129E-01         0.00000E+00
    0.18568E-01        -0.10862E-01         0.00000E+00
    0.18281E-01        -0.10597E-01         0.00000E+00
    0.17987E-01        -0.10331E-01         0.00000E+00
    0.17686E-01        -0.10067E-01         0.00000E+00
    0.17379E-01        -0.98030E-02         0.00000E+00
    0.17065E-01        -0.95398E-02         0.00000E+00
    0.16743E-01        -0.92771E-02         0.00000E+00
    0.16416E-01        -0.90152E-02         0.00000E+00
    0.16081E-01        -0.87540E-02         0.00000E+00
    0.15740E-01        -0.84934E-02         0.00000E+00
    0.15392E-01        -0.82337E-02         0.00000E+00
    0.15038E-01        -0.79746E-02         0.00000E+00
    0.14677E-01        -0.77164E-02         0.00000E+00
    0.14310E-01        -0.74589E-02         0.00000E+00
    0.13937E-01        -0.72023E-02         0.00000E+00
    0.13557E-01        -0.69465E-02         0.00000E+00
    0.13171E-01        -0.66915E-02         0.00000E+00
    0.12779E-01        -0.64374E-02         0.00000E+00
    0.12381E-01        -0.61843E-02         0.00000E+00
    0.11976E-01        -0.59320E-02         0.00000E+00
    0.11565E-01        -0.56807E-02         0.00000E+00
    0.11149E-01        -0.54304E-02         0.00000E+00
    0.10726E-01        -0.51810E-02         0.00000E+00
    0.10298E-01        -0.49327E-02         0.00000E+00
    0.98630E-02        -0.46854E-02         0.00000E+00
    0.94227E-02        -0.44392E-02         0.00000E+00
    0.89765E-02        -0.41941E-02         0.00000E+00
    0.85246E-02        -0.39500E-02         0.00000E+00
    0.80669E-02        -0.37072E-02         0.00000E+00
    0.76035E-02        -0.34655E-02         0.00000E+00
    0.71345E-02        -0.32250E-02         0.00000E+00
    0.66599E-02        -0.29857E-02         0.00000E+00
    0.61798E-02        -0.27477E-02         0.00000E+00
    0.56941E-02        -0.25109E-02         0.00000E+00
    0.52030E-02        -0.22755E-02         0.00000E+00
    0.47064E-02        -0.20414E-02         0.00000E+00
    0.42045E-02        -0.18087E-02         0.00000E+00
    0.36972E-02        -0.15774E-02         0.00000E+00
    0.31846E-02        -0.13475E-02         0.00000E+00
    0.26667E-02        -0.11190E-02         0.00000E+00
    0.21436E-02        -0.89211E-03         0.00000E+00
    0.16154E-02        -0.66671E-03         0.00000E+00
    0.10820E-02        -0.44287E-03         0.00000E+00
    0.54352E-03        -0.22062E-03         0.00000E+00
    0.00000E+00         0.00000E+00         0.00000E+00
    0.20696E-01        -0.13693E-01         0.00000E+00
    0.20442E-01        -0.13398E-01         0.00000E+00
    0.20181E-01        -0.13104E-01         0.00000E+00
    0.19913E-01        -0.12811E-01         0.00000E+00
    0.19638E-01        -0.12518E-01         0.00000E+00
    0.19355E-01        -0.12226E-01         0.00000E+00
    0.19065E-01        -0.11935E-01         0.00000E+00
    0.18769E-01        -0.11644E-01         0.00000E+00
    0.18465E-01        -0.11353E-01         0.00000E+00
    0.18154E-01        -0.11064E-01         0.00000E+00
    0.17837E-01        -0.10775E-01         0.00000E+00
    0.17512E-01        -0.10486E-01         0.00000E+00
    0.17181E-01        -0.10199E-01         0.00000E+00
    0.16843E-01        -0.99116E-02         0.00000E+00
    0.16498E-01        -0.96253E-02         0.00000E+00
    0.16147E-01        -0.93399E-02         0.00000E+00
    0.15789E-01        -0.90551E-02         0.00000E+00
    0.15424E-01        -0.87712E-02         0.00000E+00
    0.15053E-01        -0.84881E-02         0.00000E+00
    0.14676E-01        -0.82058E-02         0.00000E+00
    0.14292E-01        -0.79244E-02         0.00000E+00
    0.13902E-01        -0.76438E-02         0.00000E+00
    0.13505E-01        -0.73642E-02         0.00000E+00
    0.13102E-01        -0.70854E-02         0.00000E+00
    0.12693E-01        -0.68076E-02         0.00000E+00
    0.12278E-01        -0.65308E-02         0.00000E+00
    0.11856E-01        -0.62549E-02         0.00000E+00
    0.11429E-01        -0.59800E-02         0.00000E+00
    0.10995E-01        -0.57062E-02         0.00000E+00
    0.10555E-01        -0.54335E-02         0.00000E+00
    0.10109E-01        -0.51618E-02         0.00000E+00
    0.96578E-02        -0.48912E-02         0.00000E+00
    0.92003E-02        -0.46218E-02         0.00000E+00
    0.87369E-02        -0.43536E-02         0.00000E+00
    0.82676E-02        -0.40865E-02         0.00000E+00
    0.77926E-02        -0.38206E-02         0.00000E+00
    0.73119E-02        -0.35560E-02         0.00000E+00
    0.68254E-02        -0.32927E-02         0.00000E+00
    0.63333E-02        -0.30307E-02         0.00000E+00
    0.58355E-02        -0.27700E-02         0.00000E+00
    0.53322E-02        -0.25107E-02         0.00000E+00
    0.48233E-02        -0.22528E-02         0.00000E+00
    0.43089E-02        -0.19963E-02         0.00000E+00
    0.37890E-02        -0.17413E-02         0.00000E+00
    0.32637E-02        -0.14878E-02         0.00000E+00
    0.27330E-02        -0.12358E-02         0.00000E+00
    0.21970E-02        -0.98537E-03         0.00000E+00
    0.16556E-02        -0.73654E-03         0.00000E+00
    0.11090E-02        -0.48935E-03         0.00000E+00
    0.55708E-03        -0.24382E-03         0.00000E+00
    0.00000E+00         0.00000E+00         0.00000E+00
    0.21280E-01        -0.14968E-01         0.00000E+00
    0.21016E-01        -0.14647E-01         0.00000E+00
    0.20745E-01        -0.14327E-01         0.00000E+00
    0.20466E-01        -0.14007E-01         0.00000E+00
    0.20181E-01        -0.13688E-01         0.00000E+00
    0.19887E-01        -0.13370E-01         0.00000E+00
    0.19587E-01        -0.13052E-01         0.00000E+00
    0.19280E-01        -0.12735E-01         0.00000E+00
    0.18966E-01        -0.12418E-01         0.00000E+00
    0.18644E-01        -0.12103E-01         0.00000E+00
    0.18316E-01        -0.11788E-01         0.00000E+00
    0.17981E-01        -0.11473E-01         0.00000E+00
    0.17639E-01        -0.11159E-01         0.00000E+00
    0.17290E-01        -0.10846E-01         0.00000E+00
    0.16935E-01        -0.10534E-01         0.00000E+00
    0.16573E-01        -0.10223E-01         0.00000E+00
    0.16204E-01        -0.99123E-02         0.00000E+00
    0.15828E-01        -0.96025E-02         0.00000E+00
    0.15447E-01        -0.92936E-02         0.00000E+00
    0.15058E-01        -0.89855E-02         0.00000E+00
    0.14663E-01        -0.86783E-02         0.00000E+00
    0.14262E-01        -0.83720E-02         0.00000E+00
    0.13854E-01        -0.80667E-02         0.00000E+00
    0.13440E-01        -0.77622E-02         0.00000E+00
    0.13019E-01        -0.74588E-02         0.00000E+00
    0.12593E-01        -0.71564E-02         0.00000E+00
    0.12160E-01        -0.68550E-02         0.00000E+00
    0.11721E-01        -0.65546E-02         0.00000E+00
    0.11276E-01        -0.62553E-02         0.00000E+00
    0.10824E-01        -0.59571E-02         0.00000E+00
    0.10367E-01        -0.56600E-02         0.00000E+00
    0.99033E-02        -0.53641E-02         0.00000E+00
    0.94339E-02        -0.50693E-02         0.00000E+00
    0.89585E-02        -0.47758E-02         0.00000E+00
    0.84772E-02        -0.44835E-02         0.00000E+00
    0.79900E-02        -0.41924E-02         0.00000E+00
    0.74969E-02        -0.39027E-02         0.00000E+00
    0.69981E-02        -0.36142E-02         0.00000E+00
    0.64935E-02        -0.33272E-02         0.00000E+00
    0.59831E-02        -0.30415E-02         0.00000E+00
    0.54670E-02        -0.27572E-02         0.00000E+00
    0.49453E-02        -0.24744E-02         0.00000E+00
    0.44179E-02        -0.21930E-02         0.00000E+00
    0.38849E-02        -0.19132E-02         0.00000E+00
    0.33463E-02        -0.16350E-02         0.00000E+00
    0.28022E-02        -0.13583E-02         0.00000E+00
    0.22526E-02        -0.10832E-02         0.00000E+00
    0.16976E-02        -0.80983E-03         0.00000E+00
    0.11371E-02        -0.53814E-03         0.00000E+00
    0.57123E-03        -0.26818E-03         0.00000E+00
    0.00000E+00         0.00000E+00         0.00000E+00
    0.21891E-01        -0.16296E-01         0.00000E+00
    0.21616E-01        -0.15948E-01         0.00000E+00
    0.21333E-01        -0.15601E-01         0.00000E+00
    0.21043E-01        -0.15254E-01         0.00000E+00
    0.20746E-01        -0.14908E-01         0.00000E+00
    0.20442E-01        -0.14562E-01         0.00000E+00
    0.20131E-01        -0.14217E-01         0.00000E+00
    0.19812E-01        -0.13873E-01         0.00000E+00
    0.19487E-01        -0.13530E-01         0.00000E+00
    0.19155E-01        -0.13187E-01         0.00000E+00
    0.18815E-01        -0.12844E-01         0.00000E+00
    0.18469E-01        -0.12503E-01         0.00000E+00
    0.18116E-01        -0.12162E-01         0.00000E+00
    0.17756E-01        -0.11822E-01         0.00000E+00
    0.17389E-01        -0.11483E-01         0.00000E+00
    0.17015E-01        -0.11145E-01         0.00000E+00
    0.16635E-01        -0.10807E-01         0.00000E+00
    0.16248E-01        -0.10471E-01         0.00000E+00
    0.15855E-01        -0.10135E-01         0.00000E+00
    0.15455E-01        -0.98001E-02         0.00000E+00
    0.15049E-01        -0.94661E-02         0.00000E+00
    0.14636E-01        -0.91331E-02         0.00000E+00
    0.14216E-01        -0.88010E-02         0.00000E+00
    0.13790E-01        -0.84699E-02         0.00000E+00
    0.13358E-01        -0.81397E-02         0.00000E+00
    0.12920E-01        -0.78106E-02         0.00000E+00
    0.12475E-01        -0.74826E-02         0.00000E+00
    0.12024E-01        -0.71556E-02         0.00000E+00
    0.11567E-01        -0.68298E-02         0.00000E+00
    0.11103E-01        -0.65051E-02         0.00000E+00
    0.10634E-01        -0.61815E-02         0.00000E+00
    0.10158E-01        -0.58591E-02         0.00000E+00
    0.96763E-02        -0.55379E-02         0.00000E+00
    0.91884E-02        -0.52180E-02         0.00000E+00
    0.86946E-02        -0.48993E-02         0.00000E+00
    0.81947E-02        -0.45819E-02         0.00000E+00
    0.76890E-02        -0.42659E-02         0.00000E+00
    0.71772E-02        -0.39512E-02         0.00000E+00
    0.66596E-02        -0.36379E-02         0.00000E+00
    0.61362E-02        -0.33261E-02         0.00000E+00
    0.56069E-02        -0.30157E-02         0.00000E+00
    0.50718E-02        -0.27068E-02         0.00000E+00
    0.45309E-02        -0.23994E-02         0.00000E+00
    0.39843E-02        -0.20936E-02         0.00000E+00
    0.34320E-02        -0.17894E-02         0.00000E+00
    0.28740E-02        -0.14869E-02         0.00000E+00
    0.23104E-02        -0.11860E-02         0.00000E+00
    0.17411E-02        -0.88682E-03         0.00000E+00
    0.11663E-02        -0.58940E-03         0.00000E+00
    0.58592E-03        -0.29378E-03         0.00000E+00
    0.00000E+00         0.00000E+00         0.00000E+00
    0.22524E-01        -0.17682E-01         0.00000E+00
    0.22237E-01        -0.17306E-01         0.00000E+00
    0.21943E-01        -0.16930E-01         0.00000E+00
    0.21642E-01        -0.16555E-01         0.00000E+00
    0.21333E-01        -0.16181E-01         0.00000E+00
    0.21017E-01        -0.15807E-01         0.00000E+00
    0.20694E-01        -0.15434E-01         0.00000E+00
    0.20364E-01        -0.15061E-01         0.00000E+00
    0.20027E-01        -0.14689E-01         0.00000E+00
    0.19683E-01        -0.14318E-01         0.00000E+00
    0.19331E-01        -0.13948E-01         0.00000E+00
    0.18973E-01        -0.13579E-01         0.00000E+00
    0.18609E-01        -0.13210E-01         0.00000E+00
    0.18237E-01        -0.12842E-01         0.00000E+00
    0.17858E-01        -0.12475E-01         0.00000E+00
    0.17473E-01        -0.12108E-01         0.00000E+00
    0.17081E-01        -0.11743E-01         0.00000E+00
    0.16682E-01        -0.11378E-01         0.00000E+00
    0.16277E-01        -0.11015E-01         0.00000E+00
    0.15865E-01        -0.10652E-01         0.00000E+00
    0.15447E-01        -0.10290E-01         0.00000E+00
    0.15022E-01        -0.99290E-02         0.00000E+00
    0.14590E-01        -0.95690E-02         0.00000E+00
    0.14152E-01        -0.92101E-02         0.00000E+00
    0.13708E-01        -0.88522E-02         0.00000E+00
    0.13257E-01        -0.84953E-02         0.00000E+00
    0.12800E-01        -0.81395E-02         0.00000E+00
    0.12337E-01        -0.77849E-02         0.00000E+00
    0.11867E-01        -0.74313E-02         0.00000E+00
    0.11391E-01        -0.70789E-02         0.00000E+00
    0.10909E-01        -0.67277E-02         0.00000E+00
    0.10421E-01        -0.63777E-02         0.00000E+00
    0.99262E-02        -0.60289E-02         0.00000E+00
    0.94255E-02        -0.56814E-02         0.00000E+00
    0.89187E-02        -0.53352E-02         0.00000E+00
    0.84058E-02        -0.49903E-02         0.00000E+00
    0.78869E-02        -0.46468E-02         0.00000E+00
    0.73619E-02        -0.43047E-02         0.00000E+00
    0.68309E-02        -0.39640E-02         0.00000E+00
    0.62940E-02        -0.36247E-02         0.00000E+00
    0.57511E-02        -0.32870E-02         0.00000E+00
    0.52022E-02        -0.29508E-02         0.00000E+00
    0.46475E-02        -0.26161E-02         0.00000E+00
    0.40868E-02        -0.22831E-02         0.00000E+00
    0.35204E-02        -0.19517E-02         0.00000E+00
    0.29481E-02        -0.16220E-02         0.00000E+00
    0.23699E-02        -0.12940E-02         0.00000E+00
    0.17861E-02        -0.96774E-03         0.00000E+00
    0.11964E-02        -0.64330E-03         0.00000E+00
    0.60107E-03        -0.32071E-03         0.00000E+00
    0.00000E+00         0.00000E+00         0.00000E+00
    0.23177E-01        -0.19128E-01         0.00000E+00
    0.22878E-01        -0.18722E-01         0.00000E+00
    0.22572E-01        -0.18317E-01         0.00000E+00
    0.22258E-01        -0.17913E-01         0.00000E+00
    0.21937E-01        -0.17509E-01         0.00000E+00
    0.21609E-01        -0.17106E-01         0.00000E+00
    0.21274E-01        -0.16703E-01         0.00000E+00
    0.20932E-01        -0.16302E-01         0.00000E+00
    0.20582E-01        -0.15901E-01         0.00000E+00
    0.20226E-01        -0.15500E-01         0.00000E+00
    0.19863E-01        -0.15101E-01         0.00000E+00
    0.19492E-01        -0.14702E-01         0.00000E+00
    0.19115E-01        -0.14304E-01         0.00000E+00
    0.18731E-01        -0.13907E-01         0.00000E+00
    0.18341E-01        -0.13511E-01         0.00000E+00
    0.17943E-01        -0.13115E-01         0.00000E+00
    0.17539E-01        -0.12721E-01         0.00000E+00
    0.17128E-01        -0.12327E-01         0.00000E+00
    0.16710E-01        -0.11934E-01         0.00000E+00
    0.16286E-01        -0.11542E-01         0.00000E+00
    0.15855E-01        -0.11152E-01         0.00000E+00
    0.15418E-01        -0.10762E-01         0.00000E+00
    0.14974E-01        -0.10373E-01         0.00000E+00
    0.14524E-01        -0.99848E-02         0.00000E+00
    0.14067E-01        -0.95979E-02         0.00000E+00
    0.13604E-01        -0.92121E-02         0.00000E+00
    0.13134E-01        -0.88274E-02         0.00000E+00
    0.12658E-01        -0.84438E-02         0.00000E+00
    0.12175E-01        -0.80614E-02         0.00000E+00
    0.11686E-01        -0.76801E-02         0.00000E+00
    0.11191E-01        -0.73000E-02         0.00000E+00
    0.10690E-01        -0.69211E-02         0.00000E+00
    0.10182E-01        -0.65436E-02         0.00000E+00
    0.96685E-02        -0.61672E-02         0.00000E+00
    0.91484E-02        -0.57923E-02         0.00000E+00
    0.86221E-02        -0.54186E-02         0.00000E+00
    0.80897E-02        -0.50464E-02         0.00000E+00
    0.75511E-02        -0.46755E-02         0.00000E+00
    0.70064E-02        -0.43061E-02         0.00000E+00
    0.64556E-02        -0.39382E-02         0.00000E+00
    0.58988E-02        -0.35718E-02         0.00000E+00
    0.53358E-02        -0.32070E-02         0.00000E+00
    0.47669E-02        -0.28437E-02         0.00000E+00
    0.41919E-02        -0.24821E-02         0.00000E+00
    0.36109E-02        -0.21222E-02         0.00000E+00
    0.30239E-02        -0.17640E-02         0.00000E+00
    0.24310E-02        -0.14075E-02         0.00000E+00
    0.18321E-02        -0.10528E-02         0.00000E+00
    0.12273E-02        -0.69999E-03         0.00000E+00
    0.61659E-03        -0.34903E-03         0.00000E+00
    0.00000E+00         0.00000E+00         0.00000E+00
    0.23848E-01        -0.20637E-01         0.00000E+00
    0.23536E-01        -0.20201E-01         0.00000E+00
    0.23217E-01        -0.19765E-01         0.00000E+00
    0.22890E-01        -0.19330E-01         0.00000E+00
    0.22557E-01        -0.18896E-01         0.00000E+00
    0.22216E-01        -0.18462E-01         0.00000E+00
    0.21868E-01        -0.18029E-01         0.00000E+00
    0.21513E-01        -0.17597E-01         0.00000E+00
    0.21151E-01        -0.17166E-01         0.00000E+00
    0.20782E-01        -0.16735E-01         0.00000E+00
    0.20406E-01        -0.16305E-01         0.00000E+00
    0.20023E-01        -0.15876E-01         0.00000E+00
    0.19633E-01        -0.15448E-01         0.00000E+00
    0.19237E-01        -0.15020E-01         0.00000E+00
    0.18834E-01        -0.14594E-01         0.00000E+00
    0.18423E-01        -0.14168E-01         0.00000E+00
    0.18007E-01        -0.13743E-01         0.00000E+00
    0.17583E-01        -0.13319E-01         0.00000E+00
    0.17153E-01        -0.12896E-01         0.00000E+00
    0.16716E-01        -0.12474E-01         0.00000E+00
    0.16272E-01        -0.12053E-01         0.00000E+00
    0.15822E-01        -0.11633E-01         0.00000E+00
    0.15366E-01        -0.11214E-01         0.00000E+00
    0.14902E-01        -0.10796E-01         0.00000E+00
    0.14433E-01        -0.10379E-01         0.00000E+00
    0.13956E-01        -0.99627E-02         0.00000E+00
    0.13474E-01        -0.95478E-02         0.00000E+00
    0.12985E-01        -0.91340E-02         0.00000E+00
    0.12489E-01        -0.87214E-02         0.00000E+00
    0.11987E-01        -0.83100E-02         0.00000E+00
    0.11479E-01        -0.78998E-02         0.00000E+00
    0.10964E-01        -0.74908E-02         0.00000E+00
    0.10443E-01        -0.70831E-02         0.00000E+00
    0.99159E-02        -0.66767E-02         0.00000E+00
    0.93823E-02        -0.62716E-02         0.00000E+00
    0.88424E-02        -0.58679E-02         0.00000E+00
    0.82962E-02        -0.54656E-02         0.00000E+00
    0.77438E-02        -0.50647E-02         0.00000E+00
    0.71851E-02        -0.46652E-02         0.00000E+00
    0.66202E-02        -0.42673E-02         0.00000E+00
    0.60491E-02        -0.38709E-02         0.00000E+00
    0.54719E-02        -0.34761E-02         0.00000E+00
    0.48884E-02        -0.30828E-02         0.00000E+00
    0.42988E-02        -0.26913E-02         0.00000E+00
    0.37030E-02        -0.23014E-02         0.00000E+00
    0.31011E-02        -0.19132E-02         0.00000E+00
    0.24931E-02        -0.15269E-02         0.00000E+00
    0.18789E-02        -0.11423E-02         0.00000E+00
    0.12587E-02        -0.75962E-03         0.00000E+00
    0.63239E-03        -0.37883E-03         0.00000E+00
    0.00000E+00         0.00000E+00         0.00000E+00
    0.24532E-01        -0.22212E-01         0.00000E+00
    0.24207E-01        -0.21744E-01         0.00000E+00
    0.23875E-01        -0.21276E-01         0.00000E+00
    0.23535E-01        -0.20810E-01         0.00000E+00
    0.23188E-01        -0.20344E-01         0.00000E+00
    0.22834E-01        -0.19878E-01         0.00000E+00
    0.22473E-01        -0.19414E-01         0.00000E+00
    0.22105E-01        -0.18950E-01         0.00000E+00
    0.21730E-01        -0.18487E-01         0.00000E+00
    0.21348E-01        -0.18025E-01         0.00000E+00
    0.20959E-01        -0.17563E-01         0.00000E+00
    0.20563E-01        -0.17103E-01         0.00000E+00
    0.20160E-01        -0.16643E-01         0.00000E+00
    0.19750E-01        -0.16184E-01         0.00000E+00
    0.19334E-01        -0.15726E-01         0.00000E+00
    0.18911E-01        -0.15269E-01         0.00000E+00
    0.18481E-01        -0.14812E-01         0.00000E+00
    0.18045E-01        -0.14357E-01         0.00000E+00
    0.17601E-01        -0.13903E-01         0.00000E+00
    0.17152E-01        -0.13449E-01         0.00000E+00
    0.16695E-01        -0.12996E-01         0.00000E+00
    0.16232E-01        -0.12545E-01         0.00000E+00
    0.15762E-01        -0.12094E-01         0.00000E+00
    0.15286E-01        -0.11645E-01         0.00000E+00
    0.14803E-01        -0.11196E-01         0.00000E+00
    0.14314E-01        -0.10749E-01         0.00000E+00
    0.13818E-01        -0.10302E-01         0.00000E+00
    0.13316E-01        -0.98571E-02         0.00000E+00
    0.12807E-01        -0.94130E-02         0.00000E+00
    0.12292E-01        -0.89701E-02         0.00000E+00
    0.11770E-01        -0.85284E-02         0.00000E+00
    0.11242E-01        -0.80880E-02         0.00000E+00
    0.10707E-01        -0.76488E-02         0.00000E+00
    0.10166E-01        -0.72110E-02         0.00000E+00
    0.96189E-02        -0.67744E-02         0.00000E+00
    0.90652E-02        -0.63392E-02         0.00000E+00
    0.85051E-02        -0.59054E-02         0.00000E+00
    0.79387E-02        -0.54731E-02         0.00000E+00
    0.73659E-02        -0.50422E-02         0.00000E+00
    0.67867E-02        -0.46128E-02         0.00000E+00
    0.62012E-02        -0.41850E-02         0.00000E+00
    0.56095E-02        -0.37587E-02         0.00000E+00
    0.50114E-02        -0.33340E-02         0.00000E+00
    0.44069E-02        -0.29110E-02         0.00000E+00
    0.37962E-02        -0.24897E-02         0.00000E+00
    0.31792E-02        -0.20701E-02         0.00000E+00
    0.25559E-02        -0.16524E-02         0.00000E+00
    0.19263E-02        -0.12364E-02         0.00000E+00
    0.12905E-02        -0.82234E-03         0.00000E+00
    0.64838E-03        -0.41018E-03         0.00000E+00
    0.00000E+00         0.00000E+00         0.00000E+00
    0.25227E-01        -0.23855E-01         0.00000E+00
    0.24888E-01        -0.23354E-01         0.00000E+00
    0.24541E-01        -0.22853E-01         0.00000E+00
    0.24188E-01        -0.22354E-01         0.00000E+00
    0.23827E-01        -0.21855E-01         0.00000E+00
    0.23460E-01        -0.21357E-01         0.00000E+00
    0.23085E-01        -0.20860E-01         0.00000E+00
    0.22703E-01        -0.20363E-01         0.00000E+00
    0.22315E-01        -0.19867E-01         0.00000E+00
    0.21919E-01        -0.19372E-01         0.00000E+00
    0.21517E-01        -0.18878E-01         0.00000E+00
    0.21108E-01        -0.18385E-01         0.00000E+00
    0.20692E-01        -0.17892E-01         0.00000E+00
    0.20269E-01        -0.17400E-01         0.00000E+00
    0.19839E-01        -0.16909E-01         0.00000E+00
    0.19403E-01        -0.16419E-01         0.00000E+00
    0.18960E-01        -0.15930E-01         0.00000E+00
    0.18510E-01        -0.15442E-01         0.00000E+00
    0.18054E-01        -0.14955E-01         0.00000E+00
    0.17591E-01        -0.14469E-01         0.00000E+00
    0.17121E-01        -0.13983E-01         0.00000E+00
    0.16645E-01        -0.13499E-01         0.00000E+00
    0.16162E-01        -0.13015E-01         0.00000E+00
    0.15672E-01        -0.12533E-01         0.00000E+00
    0.15176E-01        -0.12052E-01         0.00000E+00
    0.14674E-01        -0.11572E-01         0.00000E+00
    0.14164E-01        -0.11092E-01         0.00000E+00
    0.13649E-01        -0.10614E-01         0.00000E+00
    0.13126E-01        -0.10137E-01         0.00000E+00
    0.12598E-01        -0.96617E-02         0.00000E+00
    0.12062E-01        -0.91872E-02         0.00000E+00
    0.11521E-01        -0.87139E-02         0.00000E+00
    0.10973E-01        -0.82419E-02         0.00000E+00
    0.10418E-01        -0.77711E-02         0.00000E+00
    0.98567E-02        -0.73017E-02         0.00000E+00
    0.92891E-02        -0.68336E-02         0.00000E+00
    0.87150E-02        -0.63669E-02         0.00000E+00
    0.81344E-02        -0.59016E-02         0.00000E+00
    0.75474E-02        -0.54378E-02         0.00000E+00
    0.69540E-02        -0.49755E-02         0.00000E+00
    0.63540E-02        -0.45147E-02         0.00000E+00
    0.57477E-02        -0.40555E-02         0.00000E+00
    0.51349E-02        -0.35978E-02         0.00000E+00
    0.45156E-02        -0.31419E-02         0.00000E+00
    0.38899E-02        -0.26876E-02         0.00000E+00
    0.32577E-02        -0.22351E-02         0.00000E+00
    0.26191E-02        -0.17843E-02         0.00000E+00
    0.19740E-02        -0.13354E-02         0.00000E+00
    0.13224E-02        -0.88830E-03         0.00000E+00
    0.66445E-03        -0.44317E-03         0.00000E+00
    0.00000E+00         0.00000E+00         0.00000E+00
    0.25928E-01        -0.25569E-01         0.00000E+00
    0.25574E-01        -0.25034E-01         0.00000E+00
    0.25213E-01        -0.24499E-01         0.00000E+00
    0.24846E-01        -0.23965E-01         0.00000E+00
    0.24471E-01        -0.23432E-01         0.00000E+00
    0.24089E-01        -0.22900E-01         0.00000E+00
    0.23701E-01        -0.22369E-01         0.00000E+00
    0.23305E-01        -0.21838E-01         0.00000E+00
    0.22903E-01        -0.21308E-01         0.00000E+00
    0.22494E-01        -0.20779E-01         0.00000E+00
    0.22078E-01        -0.20251E-01         0.00000E+00
    0.21655E-01        -0.19723E-01         0.00000E+00
    0.21225E-01        -0.19197E-01         0.00000E+00
    0.20789E-01        -0.18671E-01         0.00000E+00
    0.20346E-01        -0.18146E-01         0.00000E+00
    0.19896E-01        -0.17622E-01         0.00000E+00
    0.19439E-01        -0.17099E-01         0.00000E+00
    0.18976E-01        -0.16577E-01         0.00000E+00
    0.18506E-01        -0.16055E-01         0.00000E+00
    0.18030E-01        -0.15535E-01         0.00000E+00
    0.17547E-01        -0.15015E-01         0.00000E+00
    0.17057E-01        -0.14497E-01         0.00000E+00
    0.16561E-01        -0.13979E-01         0.00000E+00
    0.16058E-01        -0.13463E-01         0.00000E+00
    0.15549E-01        -0.12947E-01         0.00000E+00
    0.15033E-01        -0.12433E-01         0.00000E+00
    0.14510E-01        -0.11919E-01         0.00000E+00
    0.13981E-01        -0.11407E-01         0.00000E+00
    0.13446E-01        -0.10896E-01         0.00000E+00
    0.12903E-01        -0.10386E-01         0.00000E+00
    0.12355E-01        -0.98773E-02         0.00000E+00
    0.11799E-01        -0.93697E-02         0.00000E+00
    0.11237E-01        -0.88633E-02         0.00000E+00
    0.10669E-01        -0.83582E-02         0.00000E+00
    0.10094E-01        -0.78544E-02         0.00000E+00
    0.95124E-02        -0.73520E-02         0.00000E+00
    0.89243E-02        -0.68509E-02         0.00000E+00
    0.83297E-02        -0.63511E-02         0.00000E+00
    0.77285E-02        -0.58529E-02         0.00000E+00
    0.71208E-02        -0.53561E-02         0.00000E+00
    0.65064E-02        -0.48608E-02         0.00000E+00
    0.58855E-02        -0.43670E-02         0.00000E+00
    0.52580E-02        -0.38749E-02         0.00000E+00
    0.46239E-02        -0.33843E-02         0.00000E+00
    0.39832E-02        -0.28955E-02         0.00000E+00
    0.33359E-02        -0.24083E-02         0.00000E+00
    0.26820E-02        -0.19229E-02         0.00000E+00
    0.20215E-02        -0.14394E-02         0.00000E+00
    0.13543E-02        -0.95766E-03         0.00000E+00
    0.68048E-03        -0.47785E-03         0.00000E+00
    0.00000E+00         0.00000E+00         0.00000E+00
    0.26630E-01        -0.27356E-01         0.00000E+00
    0.26262E-01        -0.26785E-01         0.00000E+00
    0.25887E-01        -0.26215E-01         0.00000E+00
    0.25504E-01        -0.25646E-01         0.00000E+00
    0.25115E-01        -0.25078E-01         0.00000E+00
    0.24719E-01        -0.24510E-01         0.00000E+00
    0.24316E-01        -0.23943E-01         0.00000E+00
    0.23906E-01        -0.23377E-01         0.00000E+00
    0.23490E-01        -0.22812E-01         0.00000E+00
    0.23067E-01        -0.22248E-01         0.00000E+00
    0.22637E-01        -0.21684E-01         0.00000E+00
    0.22200E-01        -0.21121E-01         0.00000E+00
    0.21757E-01        -0.20559E-01         0.00000E+00
    0.21306E-01        -0.19998E-01         0.00000E+00
    0.20850E-01        -0.19438E-01         0.00000E+00
    0.20386E-01        -0.18878E-01         0.00000E+00
    0.19916E-01        -0.18320E-01         0.00000E+00
    0.19440E-01        -0.17762E-01         0.00000E+00
    0.18956E-01        -0.17205E-01         0.00000E+00
    0.18467E-01        -0.16649E-01         0.00000E+00
    0.17970E-01        -0.16094E-01         0.00000E+00
    0.17467E-01        -0.15540E-01         0.00000E+00
    0.16957E-01        -0.14987E-01         0.00000E+00
    0.16441E-01        -0.14435E-01         0.00000E+00
    0.15919E-01        -0.13884E-01         0.00000E+00
    0.15389E-01        -0.13334E-01         0.00000E+00
    0.14853E-01        -0.12785E-01         0.00000E+00
    0.14311E-01        -0.12237E-01         0.00000E+00
    0.13762E-01        -0.11690E-01         0.00000E+00
    0.13206E-01        -0.11145E-01         0.00000E+00
    0.12644E-01        -0.10600E-01         0.00000E+00
    0.12075E-01        -0.10057E-01         0.00000E+00
    0.11499E-01        -0.95144E-02         0.00000E+00
    0.10917E-01        -0.89734E-02         0.00000E+00
    0.10329E-01        -0.84337E-02         0.00000E+00
    0.97334E-02        -0.78953E-02         0.00000E+00
    0.91315E-02        -0.73582E-02         0.00000E+00
    0.85229E-02        -0.68225E-02         0.00000E+00
    0.79077E-02        -0.62881E-02         0.00000E+00
    0.72858E-02        -0.57553E-02         0.00000E+00
    0.66572E-02        -0.52238E-02         0.00000E+00
    0.60219E-02        -0.46939E-02         0.00000E+00
    0.53799E-02        -0.41656E-02         0.00000E+00
    0.47311E-02        -0.36388E-02         0.00000E+00
    0.40756E-02        -0.31137E-02         0.00000E+00
    0.34134E-02        -0.25903E-02         0.00000E+00
    0.27443E-02        -0.20686E-02         0.00000E+00
    0.20685E-02        -0.15486E-02         0.00000E+00
    0.13858E-02        -0.10305E-02         0.00000E+00
    0.69634E-03        -0.51430E-03         0.00000E+00
    0.00000E+00         0.00000E+00         0.00000E+00
    0.27330E-01        -0.29219E-01         0.00000E+00
    0.26946E-01        -0.28611E-01         0.00000E+00
    0.26556E-01        -0.28005E-01         0.00000E+00
    0.26159E-01        -0.27399E-01         0.00000E+00
    0.25755E-01        -0.26794E-01         0.00000E+00
    0.25344E-01        -0.26189E-01         0.00000E+00
    0.24927E-01        -0.25586E-01         0.00000E+00
    0.24502E-01        -0.24983E-01         0.00000E+00
    0.24072E-01        -0.24381E-01         0.00000E+00
    0.23634E-01        -0.23780E-01         0.00000E+00
    0.23190E-01        -0.23180E-01         0.00000E+00
    0.22739E-01        -0.22580E-01         0.00000E+00
    0.22282E-01        -0.21981E-01         0.00000E+00
    0.21818E-01        -0.21383E-01         0.00000E+00
    0.21348E-01        -0.20786E-01         0.00000E+00
    0.20870E-01        -0.20190E-01         0.00000E+00
    0.20387E-01        -0.19595E-01         0.00000E+00
    0.19897E-01        -0.19000E-01         0.00000E+00
    0.19400E-01        -0.18406E-01         0.00000E+00
    0.18897E-01        -0.17814E-01         0.00000E+00
    0.18387E-01        -0.17222E-01         0.00000E+00
    0.17870E-01        -0.16631E-01         0.00000E+00
    0.17348E-01        -0.16041E-01         0.00000E+00
    0.16818E-01        -0.15452E-01         0.00000E+00
    0.16282E-01        -0.14864E-01         0.00000E+00
    0.15739E-01        -0.14276E-01         0.00000E+00
    0.15190E-01        -0.13690E-01         0.00000E+00
    0.14635E-01        -0.13105E-01         0.00000E+00
    0.14072E-01        -0.12521E-01         0.00000E+00
    0.13503E-01        -0.11938E-01         0.00000E+00
    0.12928E-01        -0.11356E-01         0.00000E+00
    0.12346E-01        -0.10776E-01         0.00000E+00
    0.11757E-01        -0.10196E-01         0.00000E+00
    0.11161E-01        -0.96176E-02         0.00000E+00
    0.10559E-01        -0.90404E-02         0.00000E+00
    0.99502E-02        -0.84644E-02         0.00000E+00
    0.93347E-02        -0.78897E-02         0.00000E+00
    0.87124E-02        -0.73164E-02         0.00000E+00
    0.80834E-02        -0.67444E-02         0.00000E+00
    0.74476E-02        -0.61737E-02         0.00000E+00
    0.68050E-02        -0.56045E-02         0.00000E+00
    0.61556E-02        -0.50368E-02         0.00000E+00
    0.54993E-02        -0.44705E-02         0.00000E+00
    0.48362E-02        -0.39058E-02         0.00000E+00
    0.41662E-02        -0.33427E-02         0.00000E+00
    0.34893E-02        -0.27813E-02         0.00000E+00
    0.28054E-02        -0.22214E-02         0.00000E+00
    0.21146E-02        -0.16634E-02         0.00000E+00
    0.14168E-02        -0.11071E-02         0.00000E+00
    0.71190E-03        -0.55260E-03         0.00000E+00
    0.00000E+00         0.00000E+00         0.00000E+00
    0.28022E-01        -0.31159E-01         0.00000E+00
    0.27623E-01        -0.30513E-01         0.00000E+00
    0.27217E-01        -0.29868E-01         0.00000E+00
    0.26804E-01        -0.29225E-01         0.00000E+00
    0.26385E-01        -0.28581E-01         0.00000E+00
    0.25960E-01        -0.27939E-01         0.00000E+00
    0.25527E-01        -0.27297E-01         0.00000E+00
    0.25089E-01        -0.26657E-01         0.00000E+00
    0.24643E-01        -0.26017E-01         0.00000E+00
    0.24191E-01        -0.25377E-01         0.00000E+00
    0.23733E-01        -0.24739E-01         0.00000E+00
    0.23268E-01        -0.24101E-01         0.00000E+00
    0.22797E-01        -0.23465E-01         0.00000E+00
    0.22319E-01        -0.22828E-01         0.00000E+00
    0.21835E-01        -0.22193E-01         0.00000E+00
    0.21344E-01        -0.21559E-01         0.00000E+00
    0.20847E-01        -0.20925E-01         0.00000E+00
    0.20343E-01        -0.20292E-01         0.00000E+00
    0.19833E-01        -0.19660E-01         0.00000E+00
    0.19317E-01        -0.19029E-01         0.00000E+00
    0.18793E-01        -0.18399E-01         0.00000E+00
    0.18264E-01        -0.17770E-01         0.00000E+00
    0.17728E-01        -0.17141E-01         0.00000E+00
    0.17185E-01        -0.16514E-01         0.00000E+00
    0.16636E-01        -0.15887E-01         0.00000E+00
    0.16081E-01        -0.15261E-01         0.00000E+00
    0.15518E-01        -0.14637E-01         0.00000E+00
    0.14950E-01        -0.14013E-01         0.00000E+00
    0.14374E-01        -0.13390E-01         0.00000E+00
    0.13792E-01        -0.12768E-01         0.00000E+00
    0.13204E-01        -0.12147E-01         0.00000E+00
    0.12609E-01        -0.11528E-01         0.00000E+00
    0.12007E-01        -0.10909E-01         0.00000E+00
    0.11398E-01        -0.10292E-01         0.00000E+00
    0.10783E-01        -0.96754E-02         0.00000E+00
    0.10161E-01        -0.90603E-02         0.00000E+00
    0.95319E-02        -0.84463E-02         0.00000E+00
    0.88963E-02        -0.78337E-02         0.00000E+00
    0.82539E-02        -0.72223E-02         0.00000E+00
    0.76046E-02        -0.66122E-02         0.00000E+00
    0.69484E-02        -0.60035E-02         0.00000E+00
    0.62853E-02        -0.53961E-02         0.00000E+00
    0.56152E-02        -0.47902E-02         0.00000E+00
    0.49382E-02        -0.41858E-02         0.00000E+00
    0.42541E-02        -0.35829E-02         0.00000E+00
    0.35630E-02        -0.29816E-02         0.00000E+00
    0.28647E-02        -0.23818E-02         0.00000E+00
    0.21593E-02        -0.17838E-02         0.00000E+00
    0.14468E-02        -0.11874E-02         0.00000E+00
    0.72701E-03        -0.59279E-03         0.00000E+00
    0.00000E+00         0.00000E+00         0.00000E+00
    0.28700E-01        -0.33178E-01         0.00000E+00
    0.28285E-01        -0.32493E-01         0.00000E+00
    0.27864E-01        -0.31809E-01         0.00000E+00
    0.27436E-01        -0.31126E-01         0.00000E+00
    0.27001E-01        -0.30443E-01         0.00000E+00
    0.26560E-01        -0.29761E-01         0.00000E+00
    0.26113E-01        -0.29080E-01         0.00000E+00
    0.25660E-01        -0.28400E-01         0.00000E+00
    0.25200E-01        -0.27721E-01         0.00000E+00
    0.24734E-01        -0.27042E-01         0.00000E+00
    0.24261E-01        -0.26364E-01         0.00000E+00
    0.23782E-01        -0.25687E-01         0.00000E+00
    0.23297E-01        -0.25011E-01         0.00000E+00
    0.22805E-01        -0.24335E-01         0.00000E+00
    0.22307E-01        -0.23660E-01         0.00000E+00
    0.21803E-01        -0.22986E-01         0.00000E+00
    0.21292E-01        -0.22313E-01         0.00000E+00
    0.20775E-01        -0.21640E-01         0.00000E+00
    0.20252E-01        -0.20969E-01         0.00000E+00
    0.19722E-01        -0.20298E-01         0.00000E+00
    0.19186E-01        -0.19628E-01         0.00000E+00
    0.18643E-01        -0.18959E-01         0.00000E+00
    0.18095E-01        -0.18290E-01         0.00000E+00
    0.17539E-01        -0.17622E-01         0.00000E+00
    0.16977E-01        -0.16956E-01         0.00000E+00
    0.16409E-01        -0.16290E-01         0.00000E+00
    0.15834E-01        -0.15625E-01         0.00000E+00
    0.15253E-01        -0.14961E-01         0.00000E+00
    0.14665E-01        -0.14298E-01         0.00000E+00
    0.14070E-01        -0.13636E-01         0.00000E+00
    0.13469E-01        -0.12974E-01         0.00000E+00
    0.12861E-01        -0.12314E-01         0.00000E+00
    0.12247E-01        -0.11655E-01         0.00000E+00
    0.11625E-01        -0.10997E-01         0.00000E+00
    0.10998E-01        -0.10340E-01         0.00000E+00
    0.10363E-01        -0.96836E-02         0.00000E+00
    0.97212E-02        -0.90287E-02         0.00000E+00
    0.90728E-02        -0.83750E-02         0.00000E+00
    0.84175E-02        -0.77225E-02         0.00000E+00
    0.77553E-02        -0.70712E-02         0.00000E+00
    0.70860E-02        -0.64212E-02         0.00000E+00
    0.64098E-02        -0.57725E-02         0.00000E+00
    0.57264E-02        -0.51251E-02         0.00000E+00
    0.50360E-02        -0.44791E-02         0.00000E+00
    0.43384E-02        -0.38346E-02         0.00000E+00
    0.36336E-02        -0.31915E-02         0.00000E+00
    0.29216E-02        -0.25500E-02         0.00000E+00
    0.22023E-02        -0.19100E-02         0.00000E+00
    0.14756E-02        -0.12716E-02         0.00000E+00
    0.74151E-03        -0.63496E-03         0.00000E+00
    0.00000E+00         0.00000E+00         0.00000E+00
    0.29359E-01        -0.35278E-01         0.00000E+00
    0.28928E-01        -0.34552E-01         0.00000E+00
    0.28491E-01        -0.33827E-01         0.00000E+00
    0.28047E-01        -0.33103E-01         0.00000E+00
    0.27597E-01        -0.32380E-01         0.00000E+00
    0.27141E-01        -0.31657E-01         0.00000E+00
    0.26679E-01        -0.30936E-01         0.00000E+00
    0.26211E-01        -0.30215E-01         0.00000E+00
    0.25736E-01        -0.29494E-01         0.00000E+00
    0.25255E-01        -0.28775E-01         0.00000E+00
    0.24769E-01        -0.28056E-01         0.00000E+00
    0.24276E-01        -0.27338E-01         0.00000E+00
    0.23776E-01        -0.26621E-01         0.00000E+00
    0.23271E-01        -0.25904E-01         0.00000E+00
    0.22760E-01        -0.25188E-01         0.00000E+00
    0.22242E-01        -0.24473E-01         0.00000E+00
    0.21718E-01        -0.23759E-01         0.00000E+00
    0.21188E-01        -0.23045E-01         0.00000E+00
    0.20652E-01        -0.22333E-01         0.00000E+00
    0.20109E-01        -0.21620E-01         0.00000E+00
    0.19560E-01        -0.20909E-01         0.00000E+00
    0.19005E-01        -0.20198E-01         0.00000E+00
    0.18444E-01        -0.19488E-01         0.00000E+00
    0.17876E-01        -0.18779E-01         0.00000E+00
    0.17302E-01        -0.18071E-01         0.00000E+00
    0.16721E-01        -0.17363E-01         0.00000E+00
    0.16134E-01        -0.16657E-01         0.00000E+00
    0.15540E-01        -0.15951E-01         0.00000E+00
    0.14940E-01        -0.15246E-01         0.00000E+00
    0.14334E-01        -0.14541E-01         0.00000E+00
    0.13720E-01        -0.13838E-01         0.00000E+00
    0.13101E-01        -0.13136E-01         0.00000E+00
    0.12474E-01        -0.12434E-01         0.00000E+00
    0.11841E-01        -0.11733E-01         0.00000E+00
    0.11201E-01        -0.11034E-01         0.00000E+00
    0.10554E-01        -0.10335E-01         0.00000E+00
    0.99004E-02        -0.96376E-02         0.00000E+00
    0.92398E-02        -0.89411E-02         0.00000E+00
    0.85723E-02        -0.82457E-02         0.00000E+00
    0.78978E-02        -0.75514E-02         0.00000E+00
    0.72162E-02        -0.68582E-02         0.00000E+00
    0.65275E-02        -0.61663E-02         0.00000E+00
    0.58316E-02        -0.54756E-02         0.00000E+00
    0.51285E-02        -0.47862E-02         0.00000E+00
    0.44182E-02        -0.40981E-02         0.00000E+00
    0.37005E-02        -0.34114E-02         0.00000E+00
    0.29754E-02        -0.27261E-02         0.00000E+00
    0.22429E-02        -0.20422E-02         0.00000E+00
    0.15028E-02        -0.13599E-02         0.00000E+00
    0.75524E-03        -0.67915E-03         0.00000E+00
    0.00000E+00         0.00000E+00         0.00000E+00
    0.29993E-01        -0.37460E-01         0.00000E+00
    0.29545E-01        -0.36692E-01         0.00000E+00
    0.29092E-01        -0.35925E-01         0.00000E+00
    0.28632E-01        -0.35159E-01         0.00000E+00
    0.28167E-01        -0.34393E-01         0.00000E+00
    0.27695E-01        -0.33629E-01         0.00000E+00
    0.27218E-01        -0.32865E-01         0.00000E+00
    0.26735E-01        -0.32102E-01         0.00000E+00
    0.26246E-01        -0.31339E-01         0.00000E+00
    0.25751E-01        -0.30577E-01         0.00000E+00
    0.25250E-01        -0.29816E-01         0.00000E+00
    0.24743E-01        -0.29056E-01         0.00000E+00
    0.24230E-01        -0.28297E-01         0.00000E+00
    0.23711E-01        -0.27538E-01         0.00000E+00
    0.23187E-01        -0.26779E-01         0.00000E+00
    0.22656E-01        -0.26022E-01         0.00000E+00
    0.22119E-01        -0.25265E-01         0.00000E+00
    0.21576E-01        -0.24509E-01         0.00000E+00
    0.21028E-01        -0.23753E-01         0.00000E+00
    0.20473E-01        -0.22998E-01         0.00000E+00
    0.19911E-01        -0.22244E-01         0.00000E+00
    0.19344E-01        -0.21490E-01         0.00000E+00
    0.18771E-01        -0.20737E-01         0.00000E+00
    0.18191E-01        -0.19985E-01         0.00000E+00
    0.17605E-01        -0.19233E-01         0.00000E+00
    0.17013E-01        -0.18483E-01         0.00000E+00
    0.16414E-01        -0.17732E-01         0.00000E+00
    0.15809E-01        -0.16983E-01         0.00000E+00
    0.15197E-01        -0.16234E-01         0.00000E+00
    0.14579E-01        -0.15486E-01         0.00000E+00
    0.13955E-01        -0.14739E-01         0.00000E+00
    0.13324E-01        -0.13993E-01         0.00000E+00
    0.12686E-01        -0.13247E-01         0.00000E+00
    0.12041E-01        -0.12503E-01         0.00000E+00
    0.11390E-01        -0.11759E-01         0.00000E+00
    0.10732E-01        -0.11016E-01         0.00000E+00
    0.10067E-01        -0.10274E-01         0.00000E+00
    0.93951E-02        -0.95326E-02         0.00000E+00
    0.87162E-02        -0.87924E-02         0.00000E+00
    0.80302E-02        -0.80532E-02         0.00000E+00
    0.73372E-02        -0.73151E-02         0.00000E+00
    0.66369E-02        -0.65781E-02         0.00000E+00
    0.59294E-02        -0.58421E-02         0.00000E+00
    0.52145E-02        -0.51074E-02         0.00000E+00
    0.44923E-02        -0.43738E-02         0.00000E+00
    0.37627E-02        -0.36414E-02         0.00000E+00
    0.30255E-02        -0.29104E-02         0.00000E+00
    0.22807E-02        -0.21807E-02         0.00000E+00
    0.15282E-02        -0.14523E-02         0.00000E+00
    0.76801E-03        -0.72542E-03         0.00000E+00
    0.00000E+00         0.00000E+00         0.00000E+00
    0.30594E-01        -0.39724E-01         0.00000E+00
    0.30129E-01        -0.38913E-01         0.00000E+00
    0.29660E-01        -0.38103E-01         0.00000E+00
    0.29184E-01        -0.37293E-01         0.00000E+00
    0.28703E-01        -0.36484E-01         0.00000E+00
    0.28217E-01        -0.35676E-01         0.00000E+00
    0.27724E-01        -0.34869E-01         0.00000E+00
    0.27227E-01        -0.34062E-01         0.00000E+00
    0.26723E-01        -0.33256E-01         0.00000E+00
    0.26214E-01        -0.32451E-01         0.00000E+00
    0.25699E-01        -0.31646E-01         0.00000E+00
    0.25179E-01        -0.30842E-01         0.00000E+00
    0.24653E-01        -0.30039E-01         0.00000E+00
    0.24121E-01        -0.29236E-01         0.00000E+00
    0.23583E-01        -0.28434E-01         0.00000E+00
    0.23040E-01        -0.27632E-01         0.00000E+00
    0.22490E-01        -0.26831E-01         0.00000E+00
    0.21935E-01        -0.26031E-01         0.00000E+00
    0.21374E-01        -0.25231E-01         0.00000E+00
    0.20807E-01        -0.24432E-01         0.00000E+00
    0.20235E-01        -0.23633E-01         0.00000E+00
    0.19656E-01        -0.22835E-01         0.00000E+00
    0.19071E-01        -0.22038E-01         0.00000E+00
    0.18480E-01        -0.21241E-01         0.00000E+00
    0.17883E-01        -0.20444E-01         0.00000E+00
    0.17280E-01        -0.19649E-01         0.00000E+00
    0.16670E-01        -0.18853E-01         0.00000E+00
    0.16054E-01        -0.18059E-01         0.00000E+00
    0.15432E-01        -0.17265E-01         0.00000E+00
    0.14804E-01        -0.16472E-01         0.00000E+00
    0.14169E-01        -0.15679E-01         0.00000E+00
    0.13527E-01        -0.14887E-01         0.00000E+00
    0.12879E-01        -0.14096E-01         0.00000E+00
    0.12224E-01        -0.13305E-01         0.00000E+00
    0.11562E-01        -0.12515E-01         0.00000E+00
    0.10894E-01        -0.11726E-01         0.00000E+00
    0.10219E-01        -0.10938E-01         0.00000E+00
    0.95363E-02        -0.10150E-01         0.00000E+00
    0.88471E-02        -0.93632E-02         0.00000E+00
    0.81507E-02        -0.85773E-02         0.00000E+00
    0.74472E-02        -0.77923E-02         0.00000E+00
    0.67364E-02        -0.70082E-02         0.00000E+00
    0.60183E-02        -0.62251E-02         0.00000E+00
    0.52928E-02        -0.54430E-02         0.00000E+00
    0.45598E-02        -0.46619E-02         0.00000E+00
    0.38192E-02        -0.38819E-02         0.00000E+00
    0.30710E-02        -0.31031E-02         0.00000E+00
    0.23150E-02        -0.23254E-02         0.00000E+00
    0.15513E-02        -0.15490E-02         0.00000E+00
    0.77964E-03        -0.77383E-03         0.00000E+00
    0.00000E+00         0.00000E+00         0.00000E+00
    0.31154E-01        -0.42073E-01         0.00000E+00
    0.30674E-01        -0.41217E-01         0.00000E+00
    0.30188E-01        -0.40362E-01         0.00000E+00
    0.29696E-01        -0.39507E-01         0.00000E+00
    0.29200E-01        -0.38654E-01         0.00000E+00
    0.28698E-01        -0.37801E-01         0.00000E+00
    0.28191E-01        -0.36949E-01         0.00000E+00
    0.27679E-01        -0.36097E-01         0.00000E+00
    0.27161E-01        -0.35246E-01         0.00000E+00
    0.26638E-01        -0.34396E-01         0.00000E+00
    0.26110E-01        -0.33546E-01         0.00000E+00
    0.25576E-01        -0.32697E-01         0.00000E+00
    0.25037E-01        -0.31848E-01         0.00000E+00
    0.24492E-01        -0.31000E-01         0.00000E+00
    0.23942E-01        -0.30153E-01         0.00000E+00
    0.23387E-01        -0.29306E-01         0.00000E+00
    0.22826E-01        -0.28459E-01         0.00000E+00
    0.22259E-01        -0.27613E-01         0.00000E+00
    0.21687E-01        -0.26768E-01         0.00000E+00
    0.21109E-01        -0.25923E-01         0.00000E+00
    0.20525E-01        -0.25078E-01         0.00000E+00
    0.19935E-01        -0.24234E-01         0.00000E+00
    0.19340E-01        -0.23391E-01         0.00000E+00
    0.18739E-01        -0.22547E-01         0.00000E+00
    0.18131E-01        -0.21705E-01         0.00000E+00
    0.17518E-01        -0.20862E-01         0.00000E+00
    0.16898E-01        -0.20020E-01         0.00000E+00
    0.16273E-01        -0.19179E-01         0.00000E+00
    0.15641E-01        -0.18338E-01         0.00000E+00
    0.15003E-01        -0.17498E-01         0.00000E+00
    0.14358E-01        -0.16658E-01         0.00000E+00
    0.13707E-01        -0.15819E-01         0.00000E+00
    0.13050E-01        -0.14980E-01         0.00000E+00
    0.12386E-01        -0.14141E-01         0.00000E+00
    0.11715E-01        -0.13304E-01         0.00000E+00
    0.11037E-01        -0.12466E-01         0.00000E+00
    0.10353E-01        -0.11630E-01         0.00000E+00
    0.96612E-02        -0.10794E-01         0.00000E+00
    0.89627E-02        -0.99587E-02         0.00000E+00
    0.82571E-02        -0.91241E-02         0.00000E+00
    0.75443E-02        -0.82902E-02         0.00000E+00
    0.68243E-02        -0.74571E-02         0.00000E+00
    0.60968E-02        -0.66248E-02         0.00000E+00
    0.53619E-02        -0.57934E-02         0.00000E+00
    0.46193E-02        -0.49628E-02         0.00000E+00
    0.38692E-02        -0.41331E-02         0.00000E+00
    0.31112E-02        -0.33044E-02         0.00000E+00
    0.23455E-02        -0.24767E-02         0.00000E+00
    0.15717E-02        -0.16500E-02         0.00000E+00
    0.78993E-03        -0.82442E-03         0.00000E+00
    0.00000E+00         0.00000E+00         0.00000E+00
    0.31667E-01        -0.44506E-01         0.00000E+00
    0.31170E-01        -0.43604E-01         0.00000E+00
    0.30668E-01        -0.42703E-01         0.00000E+00
    0.30161E-01        -0.41802E-01         0.00000E+00
    0.29649E-01        -0.40902E-01         0.00000E+00
    0.29132E-01        -0.40003E-01         0.00000E+00
    0.28610E-01        -0.39105E-01         0.00000E+00
    0.28084E-01        -0.38207E-01         0.00000E+00
    0.27552E-01        -0.37310E-01         0.00000E+00
    0.27016E-01        -0.36413E-01         0.00000E+00
    0.26474E-01        -0.35517E-01         0.00000E+00
    0.25928E-01        -0.34621E-01         0.00000E+00
    0.25376E-01        -0.33726E-01         0.00000E+00
    0.24820E-01        -0.32831E-01         0.00000E+00
    0.24258E-01        -0.31937E-01         0.00000E+00
    0.23691E-01        -0.31043E-01         0.00000E+00
    0.23119E-01        -0.30150E-01         0.00000E+00
    0.22541E-01        -0.29257E-01         0.00000E+00
    0.21958E-01        -0.28364E-01         0.00000E+00
    0.21370E-01        -0.27472E-01         0.00000E+00
    0.20776E-01        -0.26580E-01         0.00000E+00
    0.20177E-01        -0.25688E-01         0.00000E+00
    0.19572E-01        -0.24797E-01         0.00000E+00
    0.18961E-01        -0.23906E-01         0.00000E+00
    0.18345E-01        -0.23015E-01         0.00000E+00
    0.17722E-01        -0.22124E-01         0.00000E+00
    0.17094E-01        -0.21234E-01         0.00000E+00
    0.16460E-01        -0.20344E-01         0.00000E+00
    0.15819E-01        -0.19455E-01         0.00000E+00
    0.15173E-01        -0.18566E-01         0.00000E+00
    0.14520E-01        -0.17677E-01         0.00000E+00
    0.13861E-01        -0.16788E-01         0.00000E+00
    0.13195E-01        -0.15900E-01         0.00000E+00
    0.12523E-01        -0.15012E-01         0.00000E+00
    0.11844E-01        -0.14125E-01         0.00000E+00
    0.11159E-01        -0.13238E-01         0.00000E+00
    0.10466E-01        -0.12351E-01         0.00000E+00
    0.97670E-02        -0.11465E-01         0.00000E+00
    0.90607E-02        -0.10579E-01         0.00000E+00
    0.83473E-02        -0.96939E-02         0.00000E+00
    0.76267E-02        -0.88093E-02         0.00000E+00
    0.68987E-02        -0.79252E-02         0.00000E+00
    0.61633E-02        -0.70417E-02         0.00000E+00
    0.54204E-02        -0.61588E-02         0.00000E+00
    0.46699E-02        -0.52766E-02         0.00000E+00
    0.39116E-02        -0.43951E-02         0.00000E+00
    0.31454E-02        -0.35144E-02         0.00000E+00
    0.23713E-02        -0.26345E-02         0.00000E+00
    0.15891E-02        -0.17554E-02         0.00000E+00
    0.79869E-03        -0.87723E-03         0.00000E+00
    0.00000E+00         0.00000E+00         0.00000E+00
    0.32124E-01        -0.47023E-01         0.00000E+00
    0.31609E-01        -0.46074E-01         0.00000E+00
    0.31091E-01        -0.45125E-01         0.00000E+00
    0.30568E-01        -0.44177E-01         0.00000E+00
    0.30041E-01        -0.43230E-01         0.00000E+00
    0.29510E-01        -0.42284E-01         0.00000E+00
    0.28974E-01        -0.41338E-01         0.00000E+00
    0.28433E-01        -0.40392E-01         0.00000E+00
    0.27889E-01        -0.39447E-01         0.00000E+00
    0.27339E-01        -0.38503E-01         0.00000E+00
    0.26785E-01        -0.37559E-01         0.00000E+00
    0.26227E-01        -0.36616E-01         0.00000E+00
    0.25664E-01        -0.35672E-01         0.00000E+00
    0.25096E-01        -0.34730E-01         0.00000E+00
    0.24523E-01        -0.33787E-01         0.00000E+00
    0.23946E-01        -0.32845E-01         0.00000E+00
    0.23363E-01        -0.31903E-01         0.00000E+00
    0.22776E-01        -0.30962E-01         0.00000E+00
    0.22183E-01        -0.30020E-01         0.00000E+00
    0.21586E-01        -0.29079E-01         0.00000E+00
    0.20983E-01        -0.28138E-01         0.00000E+00
    0.20375E-01        -0.27197E-01         0.00000E+00
    0.19761E-01        -0.26256E-01         0.00000E+00
    0.19142E-01        -0.25316E-01         0.00000E+00
    0.18518E-01        -0.24375E-01         0.00000E+00
    0.17888E-01        -0.23435E-01         0.00000E+00
    0.17252E-01        -0.22495E-01         0.00000E+00
    0.16610E-01        -0.21555E-01         0.00000E+00
    0.15963E-01        -0.20615E-01         0.00000E+00
    0.15309E-01        -0.19675E-01         0.00000E+00
    0.14649E-01        -0.18736E-01         0.00000E+00
    0.13983E-01        -0.17796E-01         0.00000E+00
    0.13311E-01        -0.16857E-01         0.00000E+00
    0.12633E-01        -0.15918E-01         0.00000E+00
    0.11947E-01        -0.14979E-01         0.00000E+00
    0.11255E-01        -0.14040E-01         0.00000E+00
    0.10557E-01        -0.13101E-01         0.00000E+00
    0.98512E-02        -0.12163E-01         0.00000E+00
    0.91386E-02        -0.11225E-01         0.00000E+00
    0.84190E-02        -0.10287E-01         0.00000E+00
    0.76921E-02        -0.93497E-02         0.00000E+00
    0.69579E-02        -0.84126E-02         0.00000E+00
    0.62163E-02        -0.74758E-02         0.00000E+00
    0.54670E-02        -0.65395E-02         0.00000E+00
    0.47101E-02        -0.56036E-02         0.00000E+00
    0.39454E-02        -0.46682E-02         0.00000E+00
    0.31727E-02        -0.37333E-02         0.00000E+00
    0.23919E-02        -0.27990E-02         0.00000E+00
    0.16030E-02        -0.18653E-02         0.00000E+00
    0.80570E-03        -0.93230E-03         0.00000E+00
    0.00000E+00         0.00000E+00         0.00000E+00
    0.32514E-01        -0.49625E-01         0.00000E+00
    0.31983E-01        -0.48627E-01         0.00000E+00
    0.31449E-01        -0.47630E-01         0.00000E+00
    0.30911E-01        -0.46633E-01         0.00000E+00
    0.30369E-01        -0.45637E-01         0.00000E+00
    0.29823E-01        -0.44642E-01         0.00000E+00
    0.29273E-01        -0.43647E-01         0.00000E+00
    0.28720E-01        -0.42653E-01         0.00000E+00
    0.28162E-01        -0.41659E-01         0.00000E+00
    0.27601E-01        -0.40666E-01         0.00000E+00
    0.27035E-01        -0.39673E-01         0.00000E+00
    0.26465E-01        -0.38680E-01         0.00000E+00
    0.25891E-01        -0.37688E-01         0.00000E+00
    0.25313E-01        -0.36696E-01         0.00000E+00
    0.24730E-01        -0.35703E-01         0.00000E+00
    0.24143E-01        -0.34712E-01         0.00000E+00
    0.23551E-01        -0.33720E-01         0.00000E+00
    0.22955E-01        -0.32728E-01         0.00000E+00
    0.22354E-01        -0.31737E-01         0.00000E+00
    0.21749E-01        -0.30745E-01         0.00000E+00
    0.21138E-01        -0.29754E-01         0.00000E+00
    0.20523E-01        -0.28762E-01         0.00000E+00
    0.19902E-01        -0.27770E-01         0.00000E+00
    0.19276E-01        -0.26779E-01         0.00000E+00
    0.18645E-01        -0.25787E-01         0.00000E+00
    0.18009E-01        -0.24795E-01         0.00000E+00
    0.17367E-01        -0.23804E-01         0.00000E+00
    0.16720E-01        -0.22812E-01         0.00000E+00
    0.16067E-01        -0.21820E-01         0.00000E+00
    0.15408E-01        -0.20828E-01         0.00000E+00
    0.14743E-01        -0.19836E-01         0.00000E+00
    0.14072E-01        -0.18843E-01         0.00000E+00
    0.13394E-01        -0.17851E-01         0.00000E+00
    0.12711E-01        -0.16859E-01         0.00000E+00
    0.12021E-01        -0.15866E-01         0.00000E+00
    0.11324E-01        -0.14874E-01         0.00000E+00
    0.10621E-01        -0.13881E-01         0.00000E+00
    0.99109E-02        -0.12889E-01         0.00000E+00
    0.91939E-02        -0.11897E-01         0.00000E+00
    0.84699E-02        -0.10904E-01         0.00000E+00
    0.77386E-02        -0.99118E-02         0.00000E+00
    0.70000E-02        -0.89196E-02         0.00000E+00
    0.62539E-02        -0.79275E-02         0.00000E+00
    0.55002E-02        -0.69356E-02         0.00000E+00
    0.47388E-02        -0.59439E-02         0.00000E+00
    0.39695E-02        -0.49524E-02         0.00000E+00
    0.31922E-02        -0.39612E-02         0.00000E+00
    0.24067E-02        -0.29703E-02         0.00000E+00
    0.16129E-02        -0.19798E-02         0.00000E+00
    0.81076E-03        -0.98965E-03         0.00000E+00
    0.00000E+00         0.00000E+00         0.00000E+00
    0.32827E-01        -0.52310E-01         0.00000E+00
    0.32280E-01        -0.51262E-01         0.00000E+00
    0.31730E-01        -0.50215E-01         0.00000E+00
    0.31177E-01        -0.49169E-01         0.00000E+00
    0.30621E-01        -0.48123E-01         0.00000E+00
    0.30062E-01        -0.47078E-01         0.00000E+00
    0.29499E-01        -0.46033E-01         0.00000E+00
    0.28933E-01        -0.44989E-01         0.00000E+00
    0.28363E-01        -0.43945E-01         0.00000E+00
    0.27790E-01        -0.42901E-01         0.00000E+00
    0.27214E-01        -0.41858E-01         0.00000E+00
    0.26634E-01        -0.40815E-01         0.00000E+00
    0.26050E-01        -0.39772E-01         0.00000E+00
    0.25463E-01        -0.38729E-01         0.00000E+00
    0.24871E-01        -0.37686E-01         0.00000E+00
    0.24276E-01        -0.36643E-01         0.00000E+00
    0.23676E-01        -0.35600E-01         0.00000E+00
    0.23073E-01        -0.34557E-01         0.00000E+00
    0.22465E-01        -0.33514E-01         0.00000E+00
    0.21853E-01        -0.32470E-01         0.00000E+00
    0.21236E-01        -0.31427E-01         0.00000E+00
    0.20614E-01        -0.30383E-01         0.00000E+00
    0.19988E-01        -0.29339E-01         0.00000E+00
    0.19357E-01        -0.28295E-01         0.00000E+00
    0.18722E-01        -0.27250E-01         0.00000E+00
    0.18081E-01        -0.26205E-01         0.00000E+00
    0.17434E-01        -0.25160E-01         0.00000E+00
    0.16783E-01        -0.24115E-01         0.00000E+00
    0.16126E-01        -0.23069E-01         0.00000E+00
    0.15463E-01        -0.22023E-01         0.00000E+00
    0.14795E-01        -0.20976E-01         0.00000E+00
    0.14121E-01        -0.19930E-01         0.00000E+00
    0.13440E-01        -0.18883E-01         0.00000E+00
    0.12754E-01        -0.17835E-01         0.00000E+00
    0.12061E-01        -0.16787E-01         0.00000E+00
    0.11362E-01        -0.15739E-01         0.00000E+00
    0.10656E-01        -0.14691E-01         0.00000E+00
    0.99435E-02        -0.13643E-01         0.00000E+00
    0.92241E-02        -0.12594E-01         0.00000E+00
    0.84976E-02        -0.11545E-01         0.00000E+00
    0.77640E-02        -0.10496E-01         0.00000E+00
    0.70230E-02        -0.94464E-02         0.00000E+00
    0.62746E-02        -0.83968E-02         0.00000E+00
    0.55185E-02        -0.73472E-02         0.00000E+00
    0.47547E-02        -0.62975E-02         0.00000E+00
    0.39829E-02        -0.52478E-02         0.00000E+00
    0.32031E-02        -0.41981E-02         0.00000E+00
    0.24150E-02        -0.31484E-02         0.00000E+00
    0.16186E-02        -0.20988E-02         0.00000E+00
    0.81365E-03        -0.10493E-02         0.00000E+00
    0.00000E+00         0.00000E+00         0.00000E+00
    0.33053E-01        -0.55078E-01         0.00000E+00
    0.32491E-01        -0.53979E-01         0.00000E+00
    0.31925E-01        -0.52881E-01         0.00000E+00
    0.31358E-01        -0.51784E-01         0.00000E+00
    0.30788E-01        -0.50687E-01         0.00000E+00
    0.30216E-01        -0.49591E-01         0.00000E+00
    0.29640E-01        -0.48495E-01         0.00000E+00
    0.29063E-01        -0.47400E-01         0.00000E+00
    0.28482E-01        -0.46304E-01         0.00000E+00
    0.27899E-01        -0.45209E-01         0.00000E+00
    0.27313E-01        -0.44114E-01         0.00000E+00
    0.26724E-01        -0.43019E-01         0.00000E+00
    0.26132E-01        -0.41924E-01         0.00000E+00
    0.25536E-01        -0.40829E-01         0.00000E+00
    0.24937E-01        -0.39734E-01         0.00000E+00
    0.24335E-01        -0.38638E-01         0.00000E+00
    0.23729E-01        -0.37543E-01         0.00000E+00
    0.23120E-01        -0.36447E-01         0.00000E+00
    0.22507E-01        -0.35351E-01         0.00000E+00
    0.21890E-01        -0.34254E-01         0.00000E+00
    0.21268E-01        -0.33157E-01         0.00000E+00
    0.20643E-01        -0.32059E-01         0.00000E+00
    0.20013E-01        -0.30961E-01         0.00000E+00
    0.19379E-01        -0.29863E-01         0.00000E+00
    0.18740E-01        -0.28764E-01         0.00000E+00
    0.18097E-01        -0.27664E-01         0.00000E+00
    0.17448E-01        -0.26564E-01         0.00000E+00
    0.16794E-01        -0.25464E-01         0.00000E+00
    0.16136E-01        -0.24362E-01         0.00000E+00
    0.15472E-01        -0.23261E-01         0.00000E+00
    0.14802E-01        -0.22158E-01         0.00000E+00
    0.14126E-01        -0.21055E-01         0.00000E+00
    0.13445E-01        -0.19951E-01         0.00000E+00
    0.12758E-01        -0.18847E-01         0.00000E+00
    0.12065E-01        -0.17742E-01         0.00000E+00
    0.11365E-01        -0.16637E-01         0.00000E+00
    0.10659E-01        -0.15531E-01         0.00000E+00
    0.99460E-02        -0.14424E-01         0.00000E+00
    0.92263E-02        -0.13317E-01         0.00000E+00
    0.84997E-02        -0.12210E-01         0.00000E+00
    0.77660E-02        -0.11101E-01         0.00000E+00
    0.70250E-02        -0.99929E-02         0.00000E+00
    0.62765E-02        -0.88839E-02         0.00000E+00
    0.55204E-02        -0.77744E-02         0.00000E+00
    0.47565E-02        -0.66646E-02         0.00000E+00
    0.39846E-02        -0.55545E-02         0.00000E+00
    0.32046E-02        -0.44440E-02         0.00000E+00
    0.24163E-02        -0.33333E-02         0.00000E+00
    0.16195E-02        -0.22224E-02         0.00000E+00
    0.81417E-03        -0.11112E-02         0.00000E+00
    0.00000E+00         0.00000E+00         0.00000E+00
    0.33180E-01        -0.57926E-01         0.00000E+00
    0.32601E-01        -0.56775E-01         0.00000E+00
    0.32022E-01        -0.55625E-01         0.00000E+00
    0.31440E-01        -0.54476E-01         0.00000E+00
    0.30858E-01        -0.53328E-01         0.00000E+00
    0.30273E-01        -0.52179E-01         0.00000E+00
    0.29687E-01        -0.51031E-01         0.00000E+00
    0.29099E-01        -0.49883E-01         0.00000E+00
    0.28508E-01        -0.48736E-01         0.00000E+00
    0.27916E-01        -0.47588E-01         0.00000E+00
    0.27322E-01        -0.46440E-01         0.00000E+00
    0.26725E-01        -0.45292E-01         0.00000E+00
    0.26126E-01        -0.44144E-01         0.00000E+00
    0.25524E-01        -0.42996E-01         0.00000E+00
    0.24920E-01        -0.41847E-01         0.00000E+00
    0.24312E-01        -0.40698E-01         0.00000E+00
    0.23702E-01        -0.39548E-01         0.00000E+00
    0.23089E-01        -0.38398E-01         0.00000E+00
    0.22472E-01        -0.37247E-01         0.00000E+00
    0.21852E-01        -0.36096E-01         0.00000E+00
    0.21228E-01        -0.34944E-01         0.00000E+00
    0.20601E-01        -0.33791E-01         0.00000E+00
    0.19970E-01        -0.32638E-01         0.00000E+00
    0.19334E-01        -0.31484E-01         0.00000E+00
    0.18695E-01        -0.30329E-01         0.00000E+00
    0.18051E-01        -0.29173E-01         0.00000E+00
    0.17402E-01        -0.28016E-01         0.00000E+00
    0.16749E-01        -0.26859E-01         0.00000E+00
    0.16091E-01        -0.25700E-01         0.00000E+00
    0.15427E-01        -0.24541E-01         0.00000E+00
    0.14759E-01        -0.23381E-01         0.00000E+00
    0.14085E-01        -0.22219E-01         0.00000E+00
    0.13405E-01        -0.21057E-01         0.00000E+00
    0.12719E-01        -0.19894E-01         0.00000E+00
    0.12028E-01        -0.18731E-01         0.00000E+00
    0.11330E-01        -0.17566E-01         0.00000E+00
    0.10626E-01        -0.16400E-01         0.00000E+00
    0.99155E-02        -0.15234E-01         0.00000E+00
    0.91982E-02        -0.14066E-01         0.00000E+00
    0.84739E-02        -0.12898E-01         0.00000E+00
    0.77426E-02        -0.11729E-01         0.00000E+00
    0.70040E-02        -0.10559E-01         0.00000E+00
    0.62580E-02        -0.93884E-02         0.00000E+00
    0.55044E-02        -0.82171E-02         0.00000E+00
    0.47429E-02        -0.70450E-02         0.00000E+00
    0.39735E-02        -0.58723E-02         0.00000E+00
    0.31958E-02        -0.46989E-02         0.00000E+00
    0.24098E-02        -0.35250E-02         0.00000E+00
    0.16153E-02        -0.23505E-02         0.00000E+00
    0.81211E-03        -0.11755E-02         0.00000E+00
    0.00000E+00         0.00000E+00         0.00000E+00
    0.33193E-01        -0.60852E-01         0.00000E+00
    0.32600E-01        -0.59649E-01         0.00000E+00
    0.32006E-01        -0.58446E-01         0.00000E+00
    0.31412E-01        -0.57244E-01         0.00000E+00
    0.30817E-01        -0.56042E-01         0.00000E+00
    0.30222E-01        -0.54841E-01         0.00000E+00
    0.29625E-01        -0.53640E-01         0.00000E+00
    0.29028E-01        -0.52438E-01         0.00000E+00
    0.28430E-01        -0.51237E-01         0.00000E+00
    0.27830E-01        -0.50036E-01         0.00000E+00
    0.27229E-01        -0.48834E-01         0.00000E+00
    0.26626E-01        -0.47632E-01         0.00000E+00
    0.26022E-01        -0.46430E-01         0.00000E+00
    0.25416E-01        -0.45227E-01         0.00000E+00
    0.24808E-01        -0.44023E-01         0.00000E+00
    0.24198E-01        -0.42819E-01         0.00000E+00
    0.23585E-01        -0.41614E-01         0.00000E+00
    0.22970E-01        -0.40409E-01         0.00000E+00
    0.22352E-01        -0.39202E-01         0.00000E+00
    0.21732E-01        -0.37995E-01         0.00000E+00
    0.21108E-01        -0.36787E-01         0.00000E+00
    0.20481E-01        -0.35577E-01         0.00000E+00
    0.19850E-01        -0.34367E-01         0.00000E+00
    0.19216E-01        -0.33156E-01         0.00000E+00
    0.18579E-01        -0.31943E-01         0.00000E+00
    0.17937E-01        -0.30729E-01         0.00000E+00
    0.17291E-01        -0.29515E-01         0.00000E+00
    0.16640E-01        -0.28299E-01         0.00000E+00
    0.15985E-01        -0.27081E-01         0.00000E+00
    0.15325E-01        -0.25863E-01         0.00000E+00
    0.14661E-01        -0.24643E-01         0.00000E+00
    0.13991E-01        -0.23422E-01         0.00000E+00
    0.13315E-01        -0.22200E-01         0.00000E+00
    0.12634E-01        -0.20976E-01         0.00000E+00
    0.11947E-01        -0.19752E-01         0.00000E+00
    0.11254E-01        -0.18526E-01         0.00000E+00
    0.10555E-01        -0.17299E-01         0.00000E+00
    0.98492E-02        -0.16070E-01         0.00000E+00
    0.91369E-02        -0.14840E-01         0.00000E+00
    0.84178E-02        -0.13610E-01         0.00000E+00
    0.76917E-02        -0.12378E-01         0.00000E+00
    0.69583E-02        -0.11145E-01         0.00000E+00
    0.62175E-02        -0.99103E-02         0.00000E+00
    0.54691E-02        -0.86749E-02         0.00000E+00
    0.47128E-02        -0.74385E-02         0.00000E+00
    0.39485E-02        -0.62011E-02         0.00000E+00
    0.31761E-02        -0.49627E-02         0.00000E+00
    0.23951E-02        -0.37233E-02         0.00000E+00
    0.16056E-02        -0.24831E-02         0.00000E+00
    0.80731E-03        -0.12419E-02         0.00000E+00
    0.00000E+00         0.00000E+00         0.00000E+00
    0.33077E-01        -0.63853E-01         0.00000E+00
    0.32470E-01        -0.62596E-01         0.00000E+00
    0.31864E-01        -0.61340E-01         0.00000E+00
    0.31258E-01        -0.60084E-01         0.00000E+00
    0.30653E-01        -0.58828E-01         0.00000E+00
    0.30048E-01        -0.57573E-01         0.00000E+00
    0.29443E-01        -0.56317E-01         0.00000E+00
    0.28839E-01        -0.55062E-01         0.00000E+00
    0.28234E-01        -0.53806E-01         0.00000E+00
    0.27629E-01        -0.52550E-01         0.00000E+00
    0.27023E-01        -0.51294E-01         0.00000E+00
    0.26417E-01        -0.50037E-01         0.00000E+00
    0.25809E-01        -0.48779E-01         0.00000E+00
    0.25201E-01        -0.47520E-01         0.00000E+00
    0.24592E-01        -0.46261E-01         0.00000E+00
    0.23981E-01        -0.45001E-01         0.00000E+00
    0.23369E-01        -0.43740E-01         0.00000E+00
    0.22754E-01        -0.42477E-01         0.00000E+00
    0.22138E-01        -0.41214E-01         0.00000E+00
    0.21519E-01        -0.39949E-01         0.00000E+00
    0.20898E-01        -0.38683E-01         0.00000E+00
    0.20275E-01        -0.37416E-01         0.00000E+00
    0.19648E-01        -0.36147E-01         0.00000E+00
    0.19018E-01        -0.34877E-01         0.00000E+00
    0.18385E-01        -0.33606E-01         0.00000E+00
    0.17748E-01        -0.32333E-01         0.00000E+00
    0.17108E-01        -0.31058E-01         0.00000E+00
    0.16463E-01        -0.29782E-01         0.00000E+00
    0.15814E-01        -0.28505E-01         0.00000E+00
    0.15161E-01        -0.27225E-01         0.00000E+00
    0.14503E-01        -0.25945E-01         0.00000E+00
    0.13840E-01        -0.24662E-01         0.00000E+00
    0.13171E-01        -0.23378E-01         0.00000E+00
    0.12498E-01        -0.22092E-01         0.00000E+00
    0.11818E-01        -0.20805E-01         0.00000E+00
    0.11133E-01        -0.19516E-01         0.00000E+00
    0.10442E-01        -0.18225E-01         0.00000E+00
    0.97442E-02        -0.16933E-01         0.00000E+00
    0.90400E-02        -0.15639E-01         0.00000E+00
    0.83290E-02        -0.14344E-01         0.00000E+00
    0.76111E-02        -0.13047E-01         0.00000E+00
    0.68859E-02        -0.11749E-01         0.00000E+00
    0.61534E-02        -0.10449E-01         0.00000E+00
    0.54132E-02        -0.91475E-02         0.00000E+00
    0.46651E-02        -0.78447E-02         0.00000E+00
    0.39089E-02        -0.65405E-02         0.00000E+00
    0.31445E-02        -0.52350E-02         0.00000E+00
    0.23716E-02        -0.39281E-02         0.00000E+00
    0.15901E-02        -0.26200E-02         0.00000E+00
    0.79957E-03        -0.13106E-02         0.00000E+00
    0.00000E+00         0.00000E+00         0.00000E+00
    0.32817E-01        -0.66923E-01         0.00000E+00
    0.32197E-01        -0.65612E-01         0.00000E+00
    0.31580E-01        -0.64301E-01         0.00000E+00
    0.30964E-01        -0.62991E-01         0.00000E+00
    0.30350E-01        -0.61681E-01         0.00000E+00
    0.29737E-01        -0.60371E-01         0.00000E+00
    0.29126E-01        -0.59061E-01         0.00000E+00
    0.28516E-01        -0.57750E-01         0.00000E+00
    0.27907E-01        -0.56439E-01         0.00000E+00
    0.27299E-01        -0.55128E-01         0.00000E+00
    0.26691E-01        -0.53815E-01         0.00000E+00
    0.26083E-01        -0.52502E-01         0.00000E+00
    0.25476E-01        -0.51188E-01         0.00000E+00
    0.24868E-01        -0.49873E-01         0.00000E+00
    0.24260E-01        -0.48557E-01         0.00000E+00
    0.23652E-01        -0.47240E-01         0.00000E+00
    0.23042E-01        -0.45921E-01         0.00000E+00
    0.22432E-01        -0.44601E-01         0.00000E+00
    0.21820E-01        -0.43279E-01         0.00000E+00
    0.21206E-01        -0.41956E-01         0.00000E+00
    0.20591E-01        -0.40631E-01         0.00000E+00
    0.19974E-01        -0.39305E-01         0.00000E+00
    0.19354E-01        -0.37976E-01         0.00000E+00
    0.18732E-01        -0.36646E-01         0.00000E+00
    0.18106E-01        -0.35314E-01         0.00000E+00
    0.17478E-01        -0.33981E-01         0.00000E+00
    0.16846E-01        -0.32645E-01         0.00000E+00
    0.16211E-01        -0.31307E-01         0.00000E+00
    0.15571E-01        -0.29968E-01         0.00000E+00
    0.14928E-01        -0.28626E-01         0.00000E+00
    0.14280E-01        -0.27283E-01         0.00000E+00
    0.13627E-01        -0.25937E-01         0.00000E+00
    0.12970E-01        -0.24590E-01         0.00000E+00
    0.12307E-01        -0.23240E-01         0.00000E+00
    0.11638E-01        -0.21888E-01         0.00000E+00
    0.10964E-01        -0.20535E-01         0.00000E+00
    0.10284E-01        -0.19179E-01         0.00000E+00
    0.95977E-02        -0.17821E-01         0.00000E+00
    0.89049E-02        -0.16462E-01         0.00000E+00
    0.82054E-02        -0.15100E-01         0.00000E+00
    0.74989E-02        -0.13736E-01         0.00000E+00
    0.67852E-02        -0.12371E-01         0.00000E+00
    0.60641E-02        -0.11003E-01         0.00000E+00
    0.53353E-02        -0.96340E-02         0.00000E+00
    0.45986E-02        -0.82629E-02         0.00000E+00
    0.38538E-02        -0.68900E-02         0.00000E+00
    0.31006E-02        -0.55154E-02         0.00000E+00
    0.23389E-02        -0.41390E-02         0.00000E+00
    0.15683E-02        -0.27609E-02         0.00000E+00
    0.78877E-03        -0.13813E-02         0.00000E+00
    0.00000E+00         0.00000E+00         0.00000E+00
    0.32394E-01        -0.70056E-01         0.00000E+00
    0.31763E-01        -0.68690E-01         0.00000E+00
    0.31136E-01        -0.67325E-01         0.00000E+00
    0.30512E-01        -0.65960E-01         0.00000E+00
    0.29891E-01        -0.64595E-01         0.00000E+00
    0.29273E-01        -0.63229E-01         0.00000E+00
    0.28658E-01        -0.61864E-01         0.00000E+00
    0.28045E-01        -0.60497E-01         0.00000E+00
    0.27434E-01        -0.59130E-01         0.00000E+00
    0.26825E-01        -0.57762E-01         0.00000E+00
    0.26218E-01        -0.56394E-01         0.00000E+00
    0.25612E-01        -0.55024E-01         0.00000E+00
    0.25008E-01        -0.53653E-01         0.00000E+00
    0.24404E-01        -0.52280E-01         0.00000E+00
    0.23801E-01        -0.50906E-01         0.00000E+00
    0.23198E-01        -0.49531E-01         0.00000E+00
    0.22595E-01        -0.48153E-01         0.00000E+00
    0.21992E-01        -0.46774E-01         0.00000E+00
    0.21388E-01        -0.45394E-01         0.00000E+00
    0.20783E-01        -0.44011E-01         0.00000E+00
    0.20177E-01        -0.42626E-01         0.00000E+00
    0.19570E-01        -0.41239E-01         0.00000E+00
    0.18961E-01        -0.39850E-01         0.00000E+00
    0.18349E-01        -0.38459E-01         0.00000E+00
    0.17736E-01        -0.37065E-01         0.00000E+00
    0.17119E-01        -0.35670E-01         0.00000E+00
    0.16500E-01        -0.34271E-01         0.00000E+00
    0.15878E-01        -0.32871E-01         0.00000E+00
    0.15251E-01        -0.31468E-01         0.00000E+00
    0.14621E-01        -0.30063E-01         0.00000E+00
    0.13987E-01        -0.28655E-01         0.00000E+00
    0.13349E-01        -0.27245E-01         0.00000E+00
    0.12705E-01        -0.25832E-01         0.00000E+00
    0.12057E-01        -0.24417E-01         0.00000E+00
    0.11403E-01        -0.23000E-01         0.00000E+00
    0.10744E-01        -0.21580E-01         0.00000E+00
    0.10079E-01        -0.20157E-01         0.00000E+00
    0.94071E-02        -0.18733E-01         0.00000E+00
    0.87293E-02        -0.17305E-01         0.00000E+00
    0.80448E-02        -0.15876E-01         0.00000E+00
    0.73533E-02        -0.14444E-01         0.00000E+00
    0.66545E-02        -0.13009E-01         0.00000E+00
    0.59483E-02        -0.11572E-01         0.00000E+00
    0.52344E-02        -0.10133E-01         0.00000E+00
    0.45125E-02        -0.86923E-02         0.00000E+00
    0.37823E-02        -0.72488E-02         0.00000E+00
    0.30437E-02        -0.58032E-02         0.00000E+00
    0.22964E-02        -0.43555E-02         0.00000E+00
    0.15402E-02        -0.29057E-02         0.00000E+00
    0.77476E-03        -0.14538E-02         0.00000E+00
    0.00000E+00         0.00000E+00         0.00000E+00
    0.31787E-01        -0.73244E-01         0.00000E+00
    0.31148E-01        -0.71823E-01         0.00000E+00
    0.30513E-01        -0.70403E-01         0.00000E+00
    0.29884E-01        -0.68982E-01         0.00000E+00
    0.29259E-01        -0.67561E-01         0.00000E+00
    0.28638E-01        -0.66140E-01         0.00000E+00
    0.28022E-01        -0.64718E-01         0.00000E+00
    0.27409E-01        -0.63296E-01         0.00000E+00
    0.26800E-01        -0.61872E-01         0.00000E+00
    0.26194E-01        -0.60448E-01         0.00000E+00
    0.25591E-01        -0.59022E-01         0.00000E+00
    0.24990E-01        -0.57594E-01         0.00000E+00
    0.24392E-01        -0.56165E-01         0.00000E+00
    0.23796E-01        -0.54735E-01         0.00000E+00
    0.23201E-01        -0.53302E-01         0.00000E+00
    0.22607E-01        -0.51868E-01         0.00000E+00
    0.22015E-01        -0.50431E-01         0.00000E+00
    0.21423E-01        -0.48992E-01         0.00000E+00
    0.20831E-01        -0.47551E-01         0.00000E+00
    0.20239E-01        -0.46108E-01         0.00000E+00
    0.19646E-01        -0.44662E-01         0.00000E+00
    0.19053E-01        -0.43214E-01         0.00000E+00
    0.18459E-01        -0.41763E-01         0.00000E+00
    0.17863E-01        -0.40309E-01         0.00000E+00
    0.17265E-01        -0.38853E-01         0.00000E+00
    0.16665E-01        -0.37394E-01         0.00000E+00
    0.16062E-01        -0.35933E-01         0.00000E+00
    0.15457E-01        -0.34468E-01         0.00000E+00
    0.14848E-01        -0.33001E-01         0.00000E+00
    0.14236E-01        -0.31530E-01         0.00000E+00
    0.13620E-01        -0.30057E-01         0.00000E+00
    0.12999E-01        -0.28581E-01         0.00000E+00
    0.12374E-01        -0.27102E-01         0.00000E+00
    0.11744E-01        -0.25621E-01         0.00000E+00
    0.11109E-01        -0.24136E-01         0.00000E+00
    0.10469E-01        -0.22648E-01         0.00000E+00
    0.98222E-02        -0.21158E-01         0.00000E+00
    0.91696E-02        -0.19664E-01         0.00000E+00
    0.85107E-02        -0.18168E-01         0.00000E+00
    0.78450E-02        -0.16669E-01         0.00000E+00
    0.71723E-02        -0.15167E-01         0.00000E+00
    0.64923E-02        -0.13662E-01         0.00000E+00
    0.58047E-02        -0.12155E-01         0.00000E+00
    0.51093E-02        -0.10644E-01         0.00000E+00
    0.44057E-02        -0.91314E-02         0.00000E+00
    0.36938E-02        -0.76158E-02         0.00000E+00
    0.29733E-02        -0.60977E-02         0.00000E+00
    0.22439E-02        -0.45770E-02         0.00000E+00
    0.15053E-02        -0.30538E-02         0.00000E+00
    0.75746E-03        -0.15281E-02         0.00000E+00
    0.00000E+00         0.00000E+00         0.00000E+00
    0.30975E-01        -0.76475E-01         0.00000E+00
    0.30329E-01        -0.74999E-01         0.00000E+00
    0.29690E-01        -0.73523E-01         0.00000E+00
    0.29058E-01        -0.72047E-01         0.00000E+00
    0.28432E-01        -0.70571E-01         0.00000E+00
    0.27813E-01        -0.69093E-01         0.00000E+00
    0.27198E-01        -0.67615E-01         0.00000E+00
    0.26590E-01        -0.66136E-01         0.00000E+00
    0.25986E-01        -0.64655E-01         0.00000E+00
    0.25387E-01        -0.63173E-01         0.00000E+00
    0.24792E-01        -0.61690E-01         0.00000E+00
    0.24201E-01        -0.60204E-01         0.00000E+00
    0.23614E-01        -0.58717E-01         0.00000E+00
    0.23029E-01        -0.57227E-01         0.00000E+00
    0.22447E-01        -0.55736E-01         0.00000E+00
    0.21868E-01        -0.54241E-01         0.00000E+00
    0.21290E-01        -0.52745E-01         0.00000E+00
    0.20713E-01        -0.51246E-01         0.00000E+00
    0.20138E-01        -0.49744E-01         0.00000E+00
    0.19564E-01        -0.48239E-01         0.00000E+00
    0.18989E-01        -0.46731E-01         0.00000E+00
    0.18415E-01        -0.45221E-01         0.00000E+00
    0.17840E-01        -0.43707E-01         0.00000E+00
    0.17264E-01        -0.42191E-01         0.00000E+00
    0.16686E-01        -0.40671E-01         0.00000E+00
    0.16107E-01        -0.39148E-01         0.00000E+00
    0.15526E-01        -0.37622E-01         0.00000E+00
    0.14942E-01        -0.36092E-01         0.00000E+00
    0.14355E-01        -0.34559E-01         0.00000E+00
    0.13765E-01        -0.33023E-01         0.00000E+00
    0.13171E-01        -0.31484E-01         0.00000E+00
    0.12574E-01        -0.29941E-01         0.00000E+00
    0.11972E-01        -0.28394E-01         0.00000E+00
    0.11365E-01        -0.26845E-01         0.00000E+00
    0.10753E-01        -0.25292E-01         0.00000E+00
    0.10135E-01        -0.23735E-01         0.00000E+00
    0.95119E-02        -0.22175E-01         0.00000E+00
    0.88825E-02        -0.20612E-01         0.00000E+00
    0.82466E-02        -0.19046E-01         0.00000E+00
    0.76039E-02        -0.17476E-01         0.00000E+00
    0.69541E-02        -0.15903E-01         0.00000E+00
    0.62969E-02        -0.14327E-01         0.00000E+00
    0.56319E-02        -0.12747E-01         0.00000E+00
    0.49589E-02        -0.11164E-01         0.00000E+00
    0.42776E-02        -0.95785E-02         0.00000E+00
    0.35876E-02        -0.79895E-02         0.00000E+00
    0.28889E-02        -0.63975E-02         0.00000E+00
    0.21810E-02        -0.48025E-02         0.00000E+00
    0.14637E-02        -0.32045E-02         0.00000E+00
    0.73677E-03        -0.16037E-02         0.00000E+00
    0.00000E+00         0.00000E+00         0.00000E+00
    0.29933E-01        -0.79735E-01         0.00000E+00
    0.29284E-01        -0.78204E-01         0.00000E+00
    0.28644E-01        -0.76672E-01         0.00000E+00
    0.28013E-01        -0.75141E-01         0.00000E+00
    0.27391E-01        -0.73608E-01         0.00000E+00
    0.26776E-01        -0.72075E-01         0.00000E+00
    0.26169E-01        -0.70540E-01         0.00000E+00
    0.25569E-01        -0.69004E-01         0.00000E+00
    0.24975E-01        -0.67466E-01         0.00000E+00
    0.24387E-01        -0.65926E-01         0.00000E+00
    0.23806E-01        -0.64385E-01         0.00000E+00
    0.23229E-01        -0.62841E-01         0.00000E+00
    0.22657E-01        -0.61294E-01         0.00000E+00
    0.22089E-01        -0.59746E-01         0.00000E+00
    0.21525E-01        -0.58194E-01         0.00000E+00
    0.20965E-01        -0.56640E-01         0.00000E+00
    0.20407E-01        -0.55083E-01         0.00000E+00
    0.19852E-01        -0.53523E-01         0.00000E+00
    0.19298E-01        -0.51959E-01         0.00000E+00
    0.18746E-01        -0.50393E-01         0.00000E+00
    0.18195E-01        -0.48823E-01         0.00000E+00
    0.17644E-01        -0.47249E-01         0.00000E+00
    0.17094E-01        -0.45673E-01         0.00000E+00
    0.16543E-01        -0.44092E-01         0.00000E+00
    0.15991E-01        -0.42508E-01         0.00000E+00
    0.15438E-01        -0.40920E-01         0.00000E+00
    0.14883E-01        -0.39329E-01         0.00000E+00
    0.14326E-01        -0.37734E-01         0.00000E+00
    0.13766E-01        -0.36135E-01         0.00000E+00
    0.13204E-01        -0.34532E-01         0.00000E+00
    0.12637E-01        -0.32926E-01         0.00000E+00
    0.12067E-01        -0.31315E-01         0.00000E+00
    0.11493E-01        -0.29701E-01         0.00000E+00
    0.10914E-01        -0.28083E-01         0.00000E+00
    0.10330E-01        -0.26461E-01         0.00000E+00
    0.97400E-02        -0.24835E-01         0.00000E+00
    0.91445E-02        -0.23205E-01         0.00000E+00
    0.85428E-02        -0.21572E-01         0.00000E+00
    0.79345E-02        -0.19934E-01         0.00000E+00
    0.73193E-02        -0.18293E-01         0.00000E+00
    0.66967E-02        -0.16648E-01         0.00000E+00
    0.60666E-02        -0.14999E-01         0.00000E+00
    0.54284E-02        -0.13347E-01         0.00000E+00
    0.47820E-02        -0.11691E-01         0.00000E+00
    0.41270E-02        -0.10031E-01         0.00000E+00
    0.34630E-02        -0.83678E-02         0.00000E+00
    0.27899E-02        -0.67010E-02         0.00000E+00
    0.21073E-02        -0.50308E-02         0.00000E+00
    0.14150E-02        -0.33572E-02         0.00000E+00
    0.71260E-03        -0.16802E-02         0.00000E+00
    0.00000E+00         0.00000E+00         0.00000E+00
    0.28633E-01        -0.83004E-01         0.00000E+00
    0.27986E-01        -0.81418E-01         0.00000E+00
    0.27350E-01        -0.79831E-01         0.00000E+00
    0.26725E-01        -0.78244E-01         0.00000E+00
    0.26111E-01        -0.76655E-01         0.00000E+00
    0.25506E-01        -0.75066E-01         0.00000E+00
    0.24911E-01        -0.73474E-01         0.00000E+00
    0.24325E-01        -0.71881E-01         0.00000E+00
    0.23747E-01        -0.70286E-01         0.00000E+00
    0.23177E-01        -0.68689E-01         0.00000E+00
    0.22613E-01        -0.67089E-01         0.00000E+00
    0.22057E-01        -0.65486E-01         0.00000E+00
    0.21506E-01        -0.63881E-01         0.00000E+00
    0.20961E-01        -0.62273E-01         0.00000E+00
    0.20421E-01        -0.60662E-01         0.00000E+00
    0.19885E-01        -0.59047E-01         0.00000E+00
    0.19353E-01        -0.57429E-01         0.00000E+00
    0.18825E-01        -0.55807E-01         0.00000E+00
    0.18299E-01        -0.54182E-01         0.00000E+00
    0.17775E-01        -0.52554E-01         0.00000E+00
    0.17253E-01        -0.50921E-01         0.00000E+00
    0.16732E-01        -0.49285E-01         0.00000E+00
    0.16212E-01        -0.47644E-01         0.00000E+00
    0.15692E-01        -0.46000E-01         0.00000E+00
    0.15171E-01        -0.44351E-01         0.00000E+00
    0.14650E-01        -0.42699E-01         0.00000E+00
    0.14127E-01        -0.41042E-01         0.00000E+00
    0.13602E-01        -0.39381E-01         0.00000E+00
    0.13075E-01        -0.37716E-01         0.00000E+00
    0.12545E-01        -0.36046E-01         0.00000E+00
    0.12011E-01        -0.34373E-01         0.00000E+00
    0.11474E-01        -0.32695E-01         0.00000E+00
    0.10933E-01        -0.31012E-01         0.00000E+00
    0.10387E-01        -0.29325E-01         0.00000E+00
    0.98354E-02        -0.27634E-01         0.00000E+00
    0.92787E-02        -0.25939E-01         0.00000E+00
    0.87161E-02        -0.24239E-01         0.00000E+00
    0.81471E-02        -0.22535E-01         0.00000E+00
    0.75713E-02        -0.20826E-01         0.00000E+00
    0.69883E-02        -0.19113E-01         0.00000E+00
    0.63978E-02        -0.17396E-01         0.00000E+00
    0.57993E-02        -0.15675E-01         0.00000E+00
    0.51926E-02        -0.13949E-01         0.00000E+00
    0.45772E-02        -0.12220E-01         0.00000E+00
    0.39528E-02        -0.10486E-01         0.00000E+00
    0.33191E-02        -0.87480E-02         0.00000E+00
    0.26757E-02        -0.70062E-02         0.00000E+00
    0.20224E-02        -0.52604E-02         0.00000E+00
    0.13589E-02        -0.35107E-02         0.00000E+00
    0.68483E-03        -0.17572E-02         0.00000E+00
    0.00000E+00         0.00000E+00         0.00000E+00
    0.27046E-01        -0.86257E-01         0.00000E+00
    0.26406E-01        -0.84617E-01         0.00000E+00
    0.25780E-01        -0.82975E-01         0.00000E+00
    0.25168E-01        -0.81333E-01         0.00000E+00
    0.24568E-01        -0.79689E-01         0.00000E+00
    0.23980E-01        -0.78043E-01         0.00000E+00
    0.23403E-01        -0.76395E-01         0.00000E+00
    0.22837E-01        -0.74745E-01         0.00000E+00
    0.22282E-01        -0.73093E-01         0.00000E+00
    0.21735E-01        -0.71438E-01         0.00000E+00
    0.21197E-01        -0.69780E-01         0.00000E+00
    0.20667E-01        -0.68119E-01         0.00000E+00
    0.20145E-01        -0.66454E-01         0.00000E+00
    0.19629E-01        -0.64787E-01         0.00000E+00
    0.19119E-01        -0.63115E-01         0.00000E+00
    0.18615E-01        -0.61440E-01         0.00000E+00
    0.18115E-01        -0.59761E-01         0.00000E+00
    0.17620E-01        -0.58079E-01         0.00000E+00
    0.17128E-01        -0.56392E-01         0.00000E+00
    0.16639E-01        -0.54701E-01         0.00000E+00
    0.16152E-01        -0.53006E-01         0.00000E+00
    0.15667E-01        -0.51307E-01         0.00000E+00
    0.15183E-01        -0.49603E-01         0.00000E+00
    0.14700E-01        -0.47895E-01         0.00000E+00
    0.14217E-01        -0.46182E-01         0.00000E+00
    0.13733E-01        -0.44465E-01         0.00000E+00
    0.13248E-01        -0.42744E-01         0.00000E+00
    0.12761E-01        -0.41017E-01         0.00000E+00
    0.12272E-01        -0.39286E-01         0.00000E+00
    0.11781E-01        -0.37550E-01         0.00000E+00
    0.11286E-01        -0.35810E-01         0.00000E+00
    0.10787E-01        -0.34065E-01         0.00000E+00
    0.10285E-01        -0.32314E-01         0.00000E+00
    0.97771E-02        -0.30560E-01         0.00000E+00
    0.92645E-02        -0.28800E-01         0.00000E+00
    0.87462E-02        -0.27035E-01         0.00000E+00
    0.82218E-02        -0.25266E-01         0.00000E+00
    0.76908E-02        -0.23492E-01         0.00000E+00
    0.71528E-02        -0.21713E-01         0.00000E+00
    0.66073E-02        -0.19929E-01         0.00000E+00
    0.60539E-02        -0.18140E-01         0.00000E+00
    0.54922E-02        -0.16347E-01         0.00000E+00
    0.49218E-02        -0.14549E-01         0.00000E+00
    0.43422E-02        -0.12746E-01         0.00000E+00
    0.37532E-02        -0.10939E-01         0.00000E+00
    0.31543E-02        -0.91267E-02         0.00000E+00
    0.25452E-02        -0.73101E-02         0.00000E+00
    0.19256E-02        -0.54891E-02         0.00000E+00
    0.12950E-02        -0.36637E-02         0.00000E+00
    0.65324E-03        -0.18340E-02         0.00000E+00
    0.00000E+00         0.00000E+00         0.00000E+00
    0.25142E-01        -0.89464E-01         0.00000E+00
    0.24516E-01        -0.87769E-01         0.00000E+00
    0.23907E-01        -0.86073E-01         0.00000E+00
    0.23314E-01        -0.84376E-01         0.00000E+00
    0.22736E-01        -0.82677E-01         0.00000E+00
    0.22173E-01        -0.80976E-01         0.00000E+00
    0.21622E-01        -0.79272E-01         0.00000E+00
    0.21084E-01        -0.77565E-01         0.00000E+00
    0.20558E-01        -0.75856E-01         0.00000E+00
    0.20043E-01        -0.74143E-01         0.00000E+00
    0.19538E-01        -0.72427E-01         0.00000E+00
    0.19043E-01        -0.70708E-01         0.00000E+00
    0.18556E-01        -0.68984E-01         0.00000E+00
    0.18077E-01        -0.67257E-01         0.00000E+00
    0.17605E-01        -0.65526E-01         0.00000E+00
    0.17139E-01        -0.63791E-01         0.00000E+00
    0.16679E-01        -0.62052E-01         0.00000E+00
    0.16224E-01        -0.60309E-01         0.00000E+00
    0.15773E-01        -0.58561E-01         0.00000E+00
    0.15325E-01        -0.56808E-01         0.00000E+00
    0.14881E-01        -0.55051E-01         0.00000E+00
    0.14438E-01        -0.53290E-01         0.00000E+00
    0.13997E-01        -0.51524E-01         0.00000E+00
    0.13557E-01        -0.49753E-01         0.00000E+00
    0.13118E-01        -0.47977E-01         0.00000E+00
    0.12678E-01        -0.46196E-01         0.00000E+00
    0.12237E-01        -0.44410E-01         0.00000E+00
    0.11794E-01        -0.42620E-01         0.00000E+00
    0.11350E-01        -0.40824E-01         0.00000E+00
    0.10903E-01        -0.39023E-01         0.00000E+00
    0.10453E-01        -0.37218E-01         0.00000E+00
    0.99988E-02        -0.35407E-01         0.00000E+00
    0.95407E-02        -0.33590E-01         0.00000E+00
    0.90777E-02        -0.31769E-01         0.00000E+00
    0.86095E-02        -0.29942E-01         0.00000E+00
    0.81354E-02        -0.28110E-01         0.00000E+00
    0.76550E-02        -0.26273E-01         0.00000E+00
    0.71678E-02        -0.24431E-01         0.00000E+00
    0.66733E-02        -0.22583E-01         0.00000E+00
    0.61709E-02        -0.20730E-01         0.00000E+00
    0.56602E-02        -0.18871E-01         0.00000E+00
    0.51408E-02        -0.17007E-01         0.00000E+00
    0.46122E-02        -0.15138E-01         0.00000E+00
    0.40739E-02        -0.13264E-01         0.00000E+00
    0.35255E-02        -0.11384E-01         0.00000E+00
    0.29665E-02        -0.94993E-02         0.00000E+00
    0.23966E-02        -0.76094E-02         0.00000E+00
    0.18154E-02        -0.57145E-02         0.00000E+00
    0.12225E-02        -0.38145E-02         0.00000E+00
    0.61743E-03        -0.19097E-02         0.00000E+00
    0.00000E+00         0.00000E+00         0.00000E+00
    0.22885E-01        -0.92583E-01         0.00000E+00
    0.22283E-01        -0.90835E-01         0.00000E+00
    0.21701E-01        -0.89086E-01         0.00000E+00
    0.21137E-01        -0.87335E-01         0.00000E+00
    0.20590E-01        -0.85581E-01         0.00000E+00
    0.20060E-01        -0.83824E-01         0.00000E+00
    0.19545E-01        -0.82065E-01         0.00000E+00
    0.19044E-01        -0.80302E-01         0.00000E+00
    0.18557E-01        -0.78536E-01         0.00000E+00
    0.18083E-01        -0.76766E-01         0.00000E+00
    0.17619E-01        -0.74992E-01         0.00000E+00
    0.17167E-01        -0.73215E-01         0.00000E+00
    0.16724E-01        -0.71433E-01         0.00000E+00
    0.16290E-01        -0.69647E-01         0.00000E+00
    0.15863E-01        -0.67857E-01         0.00000E+00
    0.15444E-01        -0.66063E-01         0.00000E+00
    0.15031E-01        -0.64264E-01         0.00000E+00
    0.14624E-01        -0.62460E-01         0.00000E+00
    0.14221E-01        -0.60652E-01         0.00000E+00
    0.13822E-01        -0.58839E-01         0.00000E+00
    0.13427E-01        -0.57022E-01         0.00000E+00
    0.13034E-01        -0.55199E-01         0.00000E+00
    0.12642E-01        -0.53372E-01         0.00000E+00
    0.12252E-01        -0.51540E-01         0.00000E+00
    0.11863E-01        -0.49703E-01         0.00000E+00
    0.11473E-01        -0.47860E-01         0.00000E+00
    0.11082E-01        -0.46013E-01         0.00000E+00
    0.10691E-01        -0.44160E-01         0.00000E+00
    0.10297E-01        -0.42302E-01         0.00000E+00
    0.99005E-02        -0.40439E-01         0.00000E+00
    0.95010E-02        -0.38571E-01         0.00000E+00
    0.90978E-02        -0.36697E-01         0.00000E+00
    0.86903E-02        -0.34817E-01         0.00000E+00
    0.82780E-02        -0.32932E-01         0.00000E+00
    0.78602E-02        -0.31042E-01         0.00000E+00
    0.74365E-02        -0.29145E-01         0.00000E+00
    0.70063E-02        -0.27243E-01         0.00000E+00
    0.65690E-02        -0.25335E-01         0.00000E+00
    0.61241E-02        -0.23422E-01         0.00000E+00
    0.56711E-02        -0.21502E-01         0.00000E+00
    0.52094E-02        -0.19577E-01         0.00000E+00
    0.47384E-02        -0.17645E-01         0.00000E+00
    0.42577E-02        -0.15708E-01         0.00000E+00
    0.37666E-02        -0.13765E-01         0.00000E+00
    0.32648E-02        -0.11816E-01         0.00000E+00
    0.27517E-02        -0.98606E-02         0.00000E+00
    0.22268E-02        -0.78998E-02         0.00000E+00
    0.16897E-02        -0.59333E-02         0.00000E+00
    0.11398E-02        -0.39611E-02         0.00000E+00
    0.57667E-03        -0.19833E-02         0.00000E+00
    0.00000E+00         0.00000E+00         0.00000E+00
    0.20242E-01        -0.95564E-01         0.00000E+00
    0.19675E-01        -0.93764E-01         0.00000E+00
    0.19130E-01        -0.91962E-01         0.00000E+00
    0.18607E-01        -0.90158E-01         0.00000E+00
    0.18103E-01        -0.88350E-01         0.00000E+00
    0.17617E-01        -0.86539E-01         0.00000E+00
    0.17149E-01        -0.84724E-01         0.00000E+00
    0.16697E-01        -0.82905E-01         0.00000E+00
    0.16259E-01        -0.81083E-01         0.00000E+00
    0.15835E-01        -0.79256E-01         0.00000E+00
    0.15424E-01        -0.77426E-01         0.00000E+00
    0.15024E-01        -0.75591E-01         0.00000E+00
    0.14634E-01        -0.73751E-01         0.00000E+00
    0.14254E-01        -0.71908E-01         0.00000E+00
    0.13882E-01        -0.70059E-01         0.00000E+00
    0.13517E-01        -0.68207E-01         0.00000E+00
    0.13160E-01        -0.66349E-01         0.00000E+00
    0.12808E-01        -0.64487E-01         0.00000E+00
    0.12460E-01        -0.62620E-01         0.00000E+00
    0.12117E-01        -0.60749E-01         0.00000E+00
    0.11778E-01        -0.58873E-01         0.00000E+00
    0.11441E-01        -0.56992E-01         0.00000E+00
    0.11106E-01        -0.55106E-01         0.00000E+00
    0.10772E-01        -0.53216E-01         0.00000E+00
    0.10438E-01        -0.51320E-01         0.00000E+00
    0.10105E-01        -0.49419E-01         0.00000E+00
    0.97708E-02        -0.47513E-01         0.00000E+00
    0.94355E-02        -0.45602E-01         0.00000E+00
    0.90982E-02        -0.43686E-01         0.00000E+00
    0.87585E-02        -0.41765E-01         0.00000E+00
    0.84157E-02        -0.39837E-01         0.00000E+00
    0.80692E-02        -0.37905E-01         0.00000E+00
    0.77185E-02        -0.35966E-01         0.00000E+00
    0.73629E-02        -0.34022E-01         0.00000E+00
    0.70020E-02        -0.32072E-01         0.00000E+00
    0.66350E-02        -0.30116E-01         0.00000E+00
    0.62615E-02        -0.28154E-01         0.00000E+00
    0.58808E-02        -0.26185E-01         0.00000E+00
    0.54923E-02        -0.24211E-01         0.00000E+00
    0.50955E-02        -0.22229E-01         0.00000E+00
    0.46896E-02        -0.20242E-01         0.00000E+00
    0.42741E-02        -0.18248E-01         0.00000E+00
    0.38484E-02        -0.16247E-01         0.00000E+00
    0.34118E-02        -0.14239E-01         0.00000E+00
    0.29637E-02        -0.12225E-01         0.00000E+00
    0.25035E-02        -0.10204E-01         0.00000E+00
    0.20306E-02        -0.81763E-02         0.00000E+00
    0.15444E-02        -0.61420E-02         0.00000E+00
    0.10443E-02        -0.41011E-02         0.00000E+00
    0.52968E-03        -0.20537E-02         0.00000E+00
    0.00000E+00         0.00000E+00         0.00000E+00
    0.17177E-01        -0.98343E-01         0.00000E+00
    0.16660E-01        -0.96492E-01         0.00000E+00
    0.16167E-01        -0.94638E-01         0.00000E+00
    0.15698E-01        -0.92781E-01         0.00000E+00
    0.15251E-01        -0.90920E-01         0.00000E+00
    0.14824E-01        -0.89054E-01         0.00000E+00
    0.14415E-01        -0.87185E-01         0.00000E+00
    0.14024E-01        -0.85311E-01         0.00000E+00
    0.13648E-01        -0.83433E-01         0.00000E+00
    0.13286E-01        -0.81551E-01         0.00000E+00
    0.12938E-01        -0.79663E-01         0.00000E+00
    0.12601E-01        -0.77772E-01         0.00000E+00
    0.12275E-01        -0.75876E-01         0.00000E+00
    0.11958E-01        -0.73975E-01         0.00000E+00
    0.11649E-01        -0.72070E-01         0.00000E+00
    0.11348E-01        -0.70161E-01         0.00000E+00
    0.11053E-01        -0.68247E-01         0.00000E+00
    0.10764E-01        -0.66329E-01         0.00000E+00
    0.10479E-01        -0.64407E-01         0.00000E+00
    0.10198E-01        -0.62480E-01         0.00000E+00
    0.99206E-02        -0.60548E-01         0.00000E+00
    0.96455E-02        -0.58613E-01         0.00000E+00
    0.93721E-02        -0.56672E-01         0.00000E+00
    0.90999E-02        -0.54728E-01         0.00000E+00
    0.88283E-02        -0.52778E-01         0.00000E+00
    0.85565E-02        -0.50824E-01         0.00000E+00
    0.82841E-02        -0.48865E-01         0.00000E+00
    0.80105E-02        -0.46901E-01         0.00000E+00
    0.77350E-02        -0.44932E-01         0.00000E+00
    0.74573E-02        -0.42958E-01         0.00000E+00
    0.71766E-02        -0.40978E-01         0.00000E+00
    0.68924E-02        -0.38993E-01         0.00000E+00
    0.66042E-02        -0.37002E-01         0.00000E+00
    0.63115E-02        -0.35005E-01         0.00000E+00
    0.60135E-02        -0.33003E-01         0.00000E+00
    0.57098E-02        -0.30994E-01         0.00000E+00
    0.53997E-02        -0.28978E-01         0.00000E+00
    0.50826E-02        -0.26956E-01         0.00000E+00
    0.47579E-02        -0.24928E-01         0.00000E+00
    0.44249E-02        -0.22892E-01         0.00000E+00
    0.40828E-02        -0.20849E-01         0.00000E+00
    0.37310E-02        -0.18799E-01         0.00000E+00
    0.33687E-02        -0.16741E-01         0.00000E+00
    0.29952E-02        -0.14675E-01         0.00000E+00
    0.26097E-02        -0.12602E-01         0.00000E+00
    0.22114E-02        -0.10521E-01         0.00000E+00
    0.17995E-02        -0.84327E-02         0.00000E+00
    0.13732E-02        -0.63361E-02         0.00000E+00
    0.93172E-03        -0.42318E-02         0.00000E+00
    0.47423E-03        -0.21197E-02         0.00000E+00
    0.00000E+00         0.00000E+00         0.00000E+00
    0.13654E-01        -0.10084E+00         0.00000E+00
    0.13205E-01        -0.98936E-01         0.00000E+00
    0.12784E-01        -0.97031E-01         0.00000E+00
    0.12387E-01        -0.95122E-01         0.00000E+00
    0.12014E-01        -0.93208E-01         0.00000E+00
    0.11662E-01        -0.91289E-01         0.00000E+00
    0.11330E-01        -0.89365E-01         0.00000E+00
    0.11014E-01        -0.87437E-01         0.00000E+00
    0.10714E-01        -0.85503E-01         0.00000E+00
    0.10428E-01        -0.83565E-01         0.00000E+00
    0.10155E-01        -0.81623E-01         0.00000E+00
    0.98919E-02        -0.79676E-01         0.00000E+00
    0.96388E-02        -0.77725E-01         0.00000E+00
    0.93941E-02        -0.75770E-01         0.00000E+00
    0.91569E-02        -0.73811E-01         0.00000E+00
    0.89261E-02        -0.71849E-01         0.00000E+00
    0.87008E-02        -0.69882E-01         0.00000E+00
    0.84803E-02        -0.67912E-01         0.00000E+00
    0.82637E-02        -0.65939E-01         0.00000E+00
    0.80505E-02        -0.63961E-01         0.00000E+00
    0.78398E-02        -0.61980E-01         0.00000E+00
    0.76311E-02        -0.59995E-01         0.00000E+00
    0.74239E-02        -0.58007E-01         0.00000E+00
    0.72176E-02        -0.56014E-01         0.00000E+00
    0.70116E-02        -0.54017E-01         0.00000E+00
    0.68055E-02        -0.52017E-01         0.00000E+00
    0.65988E-02        -0.50012E-01         0.00000E+00
    0.63910E-02        -0.48003E-01         0.00000E+00
    0.61815E-02        -0.45989E-01         0.00000E+00
    0.59700E-02        -0.43970E-01         0.00000E+00
    0.57560E-02        -0.41946E-01         0.00000E+00
    0.55389E-02        -0.39917E-01         0.00000E+00
    0.53183E-02        -0.37883E-01         0.00000E+00
    0.50937E-02        -0.35843E-01         0.00000E+00
    0.48646E-02        -0.33796E-01         0.00000E+00
    0.46304E-02        -0.31744E-01         0.00000E+00
    0.43904E-02        -0.29685E-01         0.00000E+00
    0.41442E-02        -0.27619E-01         0.00000E+00
    0.38910E-02        -0.25545E-01         0.00000E+00
    0.36302E-02        -0.23465E-01         0.00000E+00
    0.33610E-02        -0.21376E-01         0.00000E+00
    0.30825E-02        -0.19279E-01         0.00000E+00
    0.27939E-02        -0.17174E-01         0.00000E+00
    0.24943E-02        -0.15060E-01         0.00000E+00
    0.21827E-02        -0.12936E-01         0.00000E+00
    0.18580E-02        -0.10804E-01         0.00000E+00
    0.15191E-02        -0.86622E-02         0.00000E+00
    0.11650E-02        -0.65109E-02         0.00000E+00
    0.79458E-03        -0.43501E-02         0.00000E+00
    0.40671E-03        -0.21798E-02         0.00000E+00
    0.00000E+00         0.00000E+00         0.00000E+00
    0.96389E-02        -0.10294E+00         0.00000E+00
    0.92836E-02        -0.10099E+00         0.00000E+00
    0.89572E-02        -0.99032E-01         0.00000E+00
    0.86577E-02        -0.97071E-01         0.00000E+00
    0.83819E-02        -0.95104E-01         0.00000E+00
    0.81267E-02        -0.93132E-01         0.00000E+00
    0.78892E-02        -0.91154E-01         0.00000E+00
    0.76672E-02        -0.89171E-01         0.00000E+00
    0.74583E-02        -0.87183E-01         0.00000E+00
    0.72609E-02        -0.85192E-01         0.00000E+00
    0.70733E-02        -0.83196E-01         0.00000E+00
    0.68943E-02        -0.81198E-01         0.00000E+00
    0.67226E-02        -0.79197E-01         0.00000E+00
    0.65573E-02        -0.77192E-01         0.00000E+00
    0.63975E-02        -0.75185E-01         0.00000E+00
    0.62424E-02        -0.73175E-01         0.00000E+00
    0.60912E-02        -0.71163E-01         0.00000E+00
    0.59434E-02        -0.69149E-01         0.00000E+00
    0.57985E-02        -0.67132E-01         0.00000E+00
    0.56557E-02        -0.65112E-01         0.00000E+00
    0.55148E-02        -0.63090E-01         0.00000E+00
    0.53753E-02        -0.61065E-01         0.00000E+00
    0.52367E-02        -0.59037E-01         0.00000E+00
    0.50986E-02        -0.57006E-01         0.00000E+00
    0.49607E-02        -0.54972E-01         0.00000E+00
    0.48227E-02        -0.52935E-01         0.00000E+00
    0.46841E-02        -0.50894E-01         0.00000E+00
    0.45446E-02        -0.48850E-01         0.00000E+00
    0.44039E-02        -0.46801E-01         0.00000E+00
    0.42616E-02        -0.44748E-01         0.00000E+00
    0.41175E-02        -0.42691E-01         0.00000E+00
    0.39710E-02        -0.40629E-01         0.00000E+00
    0.38220E-02        -0.38562E-01         0.00000E+00
    0.36699E-02        -0.36489E-01         0.00000E+00
    0.35144E-02        -0.34411E-01         0.00000E+00
    0.33550E-02        -0.32326E-01         0.00000E+00
    0.31913E-02        -0.30235E-01         0.00000E+00
    0.30227E-02        -0.28137E-01         0.00000E+00
    0.28487E-02        -0.26031E-01         0.00000E+00
    0.26687E-02        -0.23917E-01         0.00000E+00
    0.24819E-02        -0.21795E-01         0.00000E+00
    0.22876E-02        -0.19664E-01         0.00000E+00
    0.20848E-02        -0.17524E-01         0.00000E+00
    0.18725E-02        -0.15374E-01         0.00000E+00
    0.16495E-02        -0.13213E-01         0.00000E+00
    0.14145E-02        -0.11040E-01         0.00000E+00
    0.11658E-02        -0.88567E-02         0.00000E+00
    0.90175E-03        -0.66609E-02         0.00000E+00
    0.62043E-03        -0.44528E-02         0.00000E+00
    0.32014E-03        -0.22323E-02         0.00000E+00
    0.00000E+00         0.00000E+00         0.00000E+00
    0.50960E-02        -0.10449E+00         0.00000E+00
    0.48719E-02        -0.10249E+00         0.00000E+00
    0.46812E-02        -0.10048E+00         0.00000E+00
    0.45146E-02        -0.98468E-01         0.00000E+00
    0.43662E-02        -0.96446E-01         0.00000E+00
    0.42319E-02        -0.94420E-01         0.00000E+00
    0.41089E-02        -0.92390E-01         0.00000E+00
    0.39951E-02        -0.90357E-01         0.00000E+00
    0.38889E-02        -0.88321E-01         0.00000E+00
    0.37891E-02        -0.86284E-01         0.00000E+00
    0.36947E-02        -0.84246E-01         0.00000E+00
    0.36049E-02        -0.82206E-01         0.00000E+00
    0.35189E-02        -0.80165E-01         0.00000E+00
    0.34362E-02        -0.78123E-01         0.00000E+00
    0.33564E-02        -0.76080E-01         0.00000E+00
    0.32789E-02        -0.74036E-01         0.00000E+00
    0.32035E-02        -0.71991E-01         0.00000E+00
    0.31297E-02        -0.69944E-01         0.00000E+00
    0.30574E-02        -0.67897E-01         0.00000E+00
    0.29861E-02        -0.65848E-01         0.00000E+00
    0.29158E-02        -0.63798E-01         0.00000E+00
    0.28461E-02        -0.61746E-01         0.00000E+00
    0.27769E-02        -0.59692E-01         0.00000E+00
    0.27078E-02        -0.57636E-01         0.00000E+00
    0.26389E-02        -0.55578E-01         0.00000E+00
    0.25698E-02        -0.53517E-01         0.00000E+00
    0.25004E-02        -0.51453E-01         0.00000E+00
    0.24305E-02        -0.49386E-01         0.00000E+00
    0.23599E-02        -0.47315E-01         0.00000E+00
    0.22885E-02        -0.45241E-01         0.00000E+00
    0.22160E-02        -0.43163E-01         0.00000E+00
    0.21424E-02        -0.41081E-01         0.00000E+00
    0.20673E-02        -0.38993E-01         0.00000E+00
    0.19906E-02        -0.36901E-01         0.00000E+00
    0.19120E-02        -0.34803E-01         0.00000E+00
    0.18313E-02        -0.32699E-01         0.00000E+00
    0.17483E-02        -0.30589E-01         0.00000E+00
    0.16626E-02        -0.28471E-01         0.00000E+00
    0.15740E-02        -0.26347E-01         0.00000E+00
    0.14819E-02        -0.24214E-01         0.00000E+00
    0.13861E-02        -0.22073E-01         0.00000E+00
    0.12859E-02        -0.19922E-01         0.00000E+00
    0.11807E-02        -0.17761E-01         0.00000E+00
    0.10698E-02        -0.15590E-01         0.00000E+00
    0.95222E-03        -0.13407E-01         0.00000E+00
    0.82678E-03        -0.11211E-01         0.00000E+00
    0.69192E-03        -0.90017E-02         0.00000E+00
    0.54553E-03        -0.67772E-02         0.00000E+00
    0.38469E-03        -0.45364E-02         0.00000E+00
    0.20508E-03        -0.22778E-02         0.00000E+00
    0.00000E+00         0.00000E+00         0.00000E+00
    0.00000E+00        -0.10519E+00         0.00000E+00
    0.00000E+00        -0.10314E+00         0.00000E+00
    0.00000E+00        -0.10108E+00         0.00000E+00
    0.00000E+00        -0.99027E-01         0.00000E+00
    0.00000E+00        -0.96969E-01         0.00000E+00
    0.00000E+00        -0.94911E-01         0.00000E+00
    0.00000E+00        -0.92852E-01         0.00000E+00
    0.00000E+00        -0.90794E-01         0.00000E+00
    0.00000E+00        -0.88736E-01         0.00000E+00
    0.00000E+00        -0.86678E-01         0.00000E+00
    0.00000E+00        -0.84621E-01         0.00000E+00
    0.00000E+00        -0.82564E-01         0.00000E+00
    0.00000E+00        -0.80507E-01         0.00000E+00
    0.00000E+00        -0.78450E-01         0.00000E+00
    0.00000E+00        -0.76393E-01         0.00000E+00
    0.00000E+00        -0.74336E-01         0.00000E+00
    0.00000E+00        -0.72278E-01         0.00000E+00
    0.00000E+00        -0.70221E-01         0.00000E+00
    0.00000E+00        -0.68162E-01         0.00000E+00
    0.00000E+00        -0.66103E-01         0.00000E+00
    0.00000E+00        -0.64042E-01         0.00000E+00
    0.00000E+00        -0.61981E-01         0.00000E+00
    0.00000E+00        -0.59917E-01         0.00000E+00
    0.00000E+00        -0.57852E-01         0.00000E+00
    0.00000E+00        -0.55785E-01         0.00000E+00
    0.00000E+00        -0.53716E-01         0.00000E+00
    0.00000E+00        -0.51644E-01         0.00000E+00
    0.00000E+00        -0.49570E-01         0.00000E+00
    0.00000E+00        -0.47492E-01         0.00000E+00
    0.00000E+00        -0.45410E-01         0.00000E+00
    0.00000E+00        -0.43325E-01         0.00000E+00
    0.00000E+00        -0.41236E-01         0.00000E+00
    0.00000E+00        -0.39142E-01         0.00000E+00
    0.00000E+00        -0.37043E-01         0.00000E+00
    0.00000E+00        -0.34938E-01         0.00000E+00
    0.00000E+00        -0.32828E-01         0.00000E+00
    0.00000E+00        -0.30711E-01         0.00000E+00
    0.00000E+00        -0.28588E-01         0.00000E+00
    0.00000E+00        -0.26457E-01         0.00000E+00
    0.00000E+00        -0.24318E-01         0.00000E+00
    0.00000E+00        -0.22171E-01         0.00000E+00
    0.00000E+00        -0.20014E-01         0.00000E+00
    0.00000E+00        -0.17847E-01         0.00000E+00
    0.00000E+00        -0.15670E-01         0.00000E+00
    0.00000E+00        -0.13480E-01         0.00000E+00
    0.00000E+00        -0.11277E-01         0.00000E+00
    0.00000E+00        -0.90593E-02         0.00000E+00
    0.00000E+00        -0.68254E-02         0.00000E+00
    0.00000E+00        -0.45731E-02         0.00000E+00
    0.00000E+00        -0.22993E-02         0.00000E+00
    0.00000E+00         0.00000E+00         0.00000E+00
CELL_DATA       5000
VECTORS vDarcy double 
    0.64174E-07         0.00000E+00         0.00000E+00
    0.64174E-07        -0.46566E-20         0.00000E+00
    0.64174E-07         0.00000E+00         0.00000E+00
    0.64174E-07        -0.88476E-20         0.00000E+00
    0.64174E-07        -0.10710E-19         0.00000E+00
    0.64174E-07        -0.51223E-20         0.00000E+00
    0.64174E-07        -0.69849E-20         0.00000E+00
    0.64174E-07        -0.74506E-20         0.00000E+00
    0.64174E-07        -0.69849E-20         0.00000E+00
    0.64174E-07         0.41910E-20         0.00000E+00
    0.64174E-07        -0.46566E-20         0.00000E+00
    0.64174E-07        -0.13970E-20         0.00000E+00
    0.64174E-07        -0.41910E-20         0.00000E+00
    0.64174E-07        -0.60536E-20         0.00000E+00
    0.64174E-07         0.46566E-21         0.00000E+00
    0.64174E-07        -0.69849E-20         0.00000E+00
    0.64174E-07        -0.23283E-20         0.00000E+00
    0.64174E-07        -0.69849E-20         0.00000E+00
    0.64174E-07        -0.74506E-20         0.00000E+00
    0.64174E-07        -0.23283E-20         0.00000E+00
    0.64174E-07         0.00000E+00         0.00000E+00
    0.64174E-07        -0.97789E-20         0.00000E+00
    0.64174E-07         0.27940E-20         0.00000E+00
    0.64174E-07        -0.83819E-20         0.00000E+00
    0.64174E-07        -0.23283E-21         0.00000E+00
    0.64174E-07        -0.27940E-20         0.00000E+00
    0.64174E-07        -0.55879E-20         0.00000E+00
    0.64174E-07        -0.46566E-20         0.00000E+00
    0.64174E-07         0.00000E+00         0.00000E+00
    0.64174E-07         0.00000E+00         0.00000E+00
    0.64174E-07        -0.74506E-20         0.00000E+00
    0.64174E-07        -0.88476E-20         0.00000E+00
    0.64174E-07         0.00000E+00         0.00000E+00
    0.64174E-07         0.00000E+00         0.00000E+00
    0.64174E-07         0.00000E+00         0.00000E+00
    0.64174E-07         0.00000E+00         0.00000E+00
    0.64174E-07        -0.74506E-20         0.00000E+00
    0.64174E-07        -0.88476E-20         0.00000E+00
    0.64174E-07        -0.69849E-20         0.00000E+00
    0.64174E-07        -0.14435E-19         0.00000E+00
    0.64174E-07        -0.51223E-20         0.00000E+00
    0.64174E-07        -0.65193E-20         0.00000E+00
    0.64174E-07         0.00000E+00         0.00000E+00
    0.64174E-07        -0.51223E-20         0.00000E+00
    0.64174E-07         0.00000E+00         0.00000E+00
    0.64174E-07         0.69849E-20         0.00000E+00
    0.64174E-07         0.46566E-21         0.00000E+00
    0.64174E-07         0.00000E+00         0.00000E+00
    0.64174E-07        -0.69849E-20         0.00000E+00
    0.64174E-07        -0.32596E-20         0.00000E+00
    0.64065E-07         0.46566E-20         0.00000E+00
    0.64065E-07        -0.13504E-19         0.00000E+00
    0.64065E-07        -0.14435E-19         0.00000E+00
    0.64065E-07        -0.20722E-19         0.00000E+00
    0.64065E-07        -0.19092E-19         0.00000E+00
    0.64065E-07        -0.46566E-21         0.00000E+00
    0.64065E-07        -0.37253E-20         0.00000E+00
    0.64065E-07        -0.74506E-20         0.00000E+00
    0.64065E-07        -0.14435E-19         0.00000E+00
    0.64065E-07        -0.26543E-19         0.00000E+00
    0.64065E-07        -0.12573E-19         0.00000E+00
    0.64065E-07        -0.93132E-21         0.00000E+00
    0.64065E-07        -0.93132E-20         0.00000E+00
    0.64065E-07         0.00000E+00         0.00000E+00
    0.64065E-07        -0.15367E-19         0.00000E+00
    0.64065E-07        -0.30734E-19         0.00000E+00
    0.64065E-07        -0.12573E-19         0.00000E+00
    0.64065E-07        -0.11642E-19         0.00000E+00
    0.64065E-07        -0.19092E-19         0.00000E+00
    0.64065E-07        -0.25146E-19         0.00000E+00
    0.64065E-07        -0.69849E-20         0.00000E+00
    0.64065E-07        -0.15367E-19         0.00000E+00
    0.64065E-07        -0.79162E-20         0.00000E+00
    0.64065E-07        -0.18626E-20         0.00000E+00
    0.64065E-07         0.00000E+00         0.00000E+00
    0.64065E-07        -0.55879E-20         0.00000E+00
    0.64065E-07        -0.15832E-19         0.00000E+00
    0.64065E-07        -0.15367E-19         0.00000E+00
    0.64065E-07        -0.14435E-19         0.00000E+00
    0.64065E-07        -0.12107E-19         0.00000E+00
    0.64065E-07        -0.27940E-20         0.00000E+00
    0.64065E-07        -0.16298E-19         0.00000E+00
    0.64065E-07        -0.97789E-20         0.00000E+00
    0.64065E-07        -0.97789E-20         0.00000E+00
    0.64065E-07         0.00000E+00         0.00000E+00
    0.64065E-07         0.00000E+00         0.00000E+00
    0.64065E-07        -0.46566E-21         0.00000E+00
    0.64065E-07        -0.19092E-19         0.00000E+00
    0.64065E-07        -0.33528E-19         0.00000E+00
    0.64065E-07        -0.28405E-19         0.00000E+00
    0.64065E-07        -0.20955E-19         0.00000E+00
    0.64065E-07        -0.13970E-19         0.00000E+00
    0.64065E-07        -0.69849E-20         0.00000E+00
    0.64065E-07        -0.93132E-20         0.00000E+00
    0.64065E-07        -0.23283E-20         0.00000E+00
    0.64065E-07         0.46566E-21         0.00000E+00
    0.64065E-07        -0.46566E-20         0.00000E+00
    0.64065E-07        -0.41910E-20         0.00000E+00
    0.64065E-07         0.41910E-20         0.00000E+00
    0.64065E-07         0.88476E-20         0.00000E+00
    0.63850E-07         0.37253E-20         0.00000E+00
    0.63850E-07        -0.22817E-19         0.00000E+00
    0.63850E-07        -0.24680E-19         0.00000E+00
    0.63850E-07        -0.23283E-19         0.00000E+00
    0.63850E-07        -0.16997E-19         0.00000E+00
    0.63850E-07        -0.16764E-19         0.00000E+00
    0.63850E-07        -0.15134E-19         0.00000E+00
    0.63850E-07        -0.13970E-19         0.00000E+00
    0.63850E-07        -0.79162E-20         0.00000E+00
    0.63850E-07        -0.23749E-19         0.00000E+00
    0.63850E-07        -0.33528E-19         0.00000E+00
    0.63850E-07        -0.16065E-19         0.00000E+00
    0.63850E-07        -0.36787E-19         0.00000E+00
    0.63850E-07        -0.34692E-19         0.00000E+00
    0.63850E-07        -0.22352E-19         0.00000E+00
    0.63850E-07        -0.33993E-19         0.00000E+00
    0.63850E-07        -0.16298E-19         0.00000E+00
    0.63850E-07        -0.17695E-19         0.00000E+00
    0.63850E-07        -0.25611E-19         0.00000E+00
    0.63850E-07        -0.20023E-19         0.00000E+00
    0.63850E-07        -0.19092E-19         0.00000E+00
    0.63850E-07        -0.18626E-19         0.00000E+00
    0.63850E-07        -0.15832E-19         0.00000E+00
    0.63850E-07        -0.23749E-19         0.00000E+00
    0.63850E-07        -0.13271E-19         0.00000E+00
    0.63850E-07        -0.12806E-19         0.00000E+00
    0.63850E-07        -0.12107E-19         0.00000E+00
    0.63850E-07        -0.25379E-19         0.00000E+00
    0.63850E-07        -0.16764E-19         0.00000E+00
    0.63850E-07        -0.65193E-20         0.00000E+00
    0.63850E-07        -0.10710E-19         0.00000E+00
    0.63850E-07        -0.30268E-20         0.00000E+00
    0.63850E-07        -0.18161E-19         0.00000E+00
    0.63850E-07        -0.46566E-20         0.00000E+00
    0.63850E-07        -0.88476E-20         0.00000E+00
    0.63850E-07        -0.69849E-20         0.00000E+00
    0.63850E-07         0.18626E-20         0.00000E+00
    0.63850E-07        -0.18161E-19         0.00000E+00
    0.63850E-07        -0.97789E-20         0.00000E+00
    0.63850E-07        -0.37253E-20         0.00000E+00
    0.63850E-07        -0.17695E-19         0.00000E+00
    0.63850E-07        -0.25146E-19         0.00000E+00
    0.63850E-07        -0.21886E-19         0.00000E+00
    0.63850E-07        -0.20955E-19         0.00000E+00
    0.63850E-07        -0.18394E-19         0.00000E+00
    0.63850E-07        -0.14435E-19         0.00000E+00
    0.63850E-07        -0.46566E-20         0.00000E+00
    0.63850E-07         0.60536E-20         0.00000E+00
    0.63850E-07         0.11176E-19         0.00000E+00
    0.63850E-07         0.32596E-20         0.00000E+00
    0.63528E-07        -0.74506E-20         0.00000E+00
    0.63528E-07        -0.20955E-19         0.00000E+00
    0.63528E-07        -0.11642E-19         0.00000E+00
    0.63528E-07         0.27940E-20         0.00000E+00
    0.63528E-07        -0.12107E-19         0.00000E+00
    0.63528E-07        -0.21420E-19         0.00000E+00
    0.63528E-07        -0.23283E-19         0.00000E+00
    0.63528E-07        -0.29337E-19         0.00000E+00
    0.63528E-07        -0.11642E-19         0.00000E+00
    0.63528E-07        -0.13504E-19         0.00000E+00
    0.63528E-07        -0.40047E-19         0.00000E+00
    0.63528E-07        -0.34459E-19         0.00000E+00
    0.63528E-07        -0.50757E-19         0.00000E+00
    0.63528E-07        -0.70315E-19         0.00000E+00
    0.63528E-07        -0.37253E-19         0.00000E+00
    0.63528E-07        -0.19092E-19         0.00000E+00
    0.63528E-07        -0.23749E-19         0.00000E+00
    0.63528E-07        -0.37719E-19         0.00000E+00
    0.63528E-07        -0.41910E-19         0.00000E+00
    0.63528E-07        -0.31199E-19         0.00000E+00
    0.63528E-07        -0.25611E-19         0.00000E+00
    0.63528E-07        -0.26077E-19         0.00000E+00
    0.63528E-07        -0.15367E-19         0.00000E+00
    0.63528E-07        -0.48429E-19         0.00000E+00
    0.63528E-07        -0.29337E-19         0.00000E+00
    0.63528E-07        -0.21420E-19         0.00000E+00
    0.63528E-07        -0.93132E-20         0.00000E+00
    0.63528E-07        -0.40978E-19         0.00000E+00
    0.63528E-07        -0.18626E-19         0.00000E+00
    0.63528E-07         0.93132E-21         0.00000E+00
    0.63528E-07        -0.12107E-19         0.00000E+00
    0.63528E-07        -0.55879E-20         0.00000E+00
    0.63528E-07        -0.21886E-19         0.00000E+00
    0.63528E-07        -0.26543E-19         0.00000E+00
    0.63528E-07        -0.20955E-19         0.00000E+00
    0.63528E-07        -0.23749E-19         0.00000E+00
    0.63528E-07        -0.21420E-19         0.00000E+00
    0.63528E-07        -0.11642E-19         0.00000E+00
    0.63528E-07         0.13970E-19         0.00000E+00
    0.63528E-07         0.14435E-19         0.00000E+00
    0.63528E-07         0.93132E-21         0.00000E+00
    0.63528E-07        -0.88476E-20         0.00000E+00
    0.63528E-07        -0.21886E-19         0.00000E+00
    0.63528E-07        -0.25146E-19         0.00000E+00
    0.63528E-07        -0.16298E-19         0.00000E+00
    0.63528E-07        -0.46566E-20         0.00000E+00
    0.63528E-07         0.18626E-20         0.00000E+00
    0.63528E-07         0.18626E-20         0.00000E+00
    0.63528E-07        -0.41910E-20         0.00000E+00
    0.63528E-07        -0.13039E-19         0.00000E+00
    0.63102E-07        -0.74506E-20         0.00000E+00
    0.63102E-07        -0.11642E-19         0.00000E+00
    0.63102E-07        -0.12107E-19         0.00000E+00
    0.63102E-07         0.18626E-20         0.00000E+00
    0.63102E-07        -0.14435E-19         0.00000E+00
    0.63102E-07        -0.60536E-20         0.00000E+00
    0.63102E-07        -0.88476E-20         0.00000E+00
    0.63102E-07        -0.19092E-19         0.00000E+00
    0.63102E-07        -0.22817E-19         0.00000E+00
    0.63102E-07        -0.34925E-19         0.00000E+00
    0.63102E-07        -0.33062E-19         0.00000E+00
    0.63102E-07        -0.45635E-19         0.00000E+00
    0.63102E-07        -0.31665E-19         0.00000E+00
    0.63102E-07        -0.43306E-19         0.00000E+00
    0.63102E-07        -0.46566E-19         0.00000E+00
    0.63102E-07        -0.37719E-19         0.00000E+00
    0.63102E-07        -0.42841E-19         0.00000E+00
    0.63102E-07        -0.44703E-19         0.00000E+00
    0.63102E-07        -0.52154E-19         0.00000E+00
    0.63102E-07        -0.54948E-19         0.00000E+00
    0.63102E-07        -0.33528E-19         0.00000E+00
    0.63102E-07        -0.38184E-19         0.00000E+00
    0.63102E-07        -0.35390E-19         0.00000E+00
    0.63102E-07        -0.39581E-19         0.00000E+00
    0.63102E-07        -0.29337E-19         0.00000E+00
    0.63102E-07        -0.22817E-19         0.00000E+00
    0.63102E-07        -0.18161E-19         0.00000E+00
    0.63102E-07        -0.40047E-19         0.00000E+00
    0.63102E-07        -0.37253E-19         0.00000E+00
    0.63102E-07        -0.20955E-19         0.00000E+00
    0.63102E-07        -0.32596E-20         0.00000E+00
    0.63102E-07        -0.24214E-19         0.00000E+00
    0.63102E-07        -0.27008E-19         0.00000E+00
    0.63102E-07        -0.43306E-19         0.00000E+00
    0.63102E-07        -0.39116E-19         0.00000E+00
    0.63102E-07        -0.28405E-19         0.00000E+00
    0.63102E-07        -0.30268E-19         0.00000E+00
    0.63102E-07        -0.13504E-19         0.00000E+00
    0.63102E-07        -0.19092E-19         0.00000E+00
    0.63102E-07         0.46566E-21         0.00000E+00
    0.63102E-07         0.37253E-20         0.00000E+00
    0.63102E-07         0.13970E-20         0.00000E+00
    0.63102E-07        -0.97789E-20         0.00000E+00
    0.63102E-07        -0.83819E-20         0.00000E+00
    0.63102E-07        -0.11642E-19         0.00000E+00
    0.63102E-07         0.37253E-20         0.00000E+00
    0.63102E-07         0.15832E-19         0.00000E+00
    0.63102E-07        -0.46566E-20         0.00000E+00
    0.63102E-07        -0.37253E-20         0.00000E+00
    0.63102E-07        -0.41910E-20         0.00000E+00
    0.62575E-07        -0.97789E-20         0.00000E+00
    0.62575E-07        -0.10245E-19         0.00000E+00
    0.62575E-07        -0.16298E-19         0.00000E+00
    0.62575E-07        -0.12107E-19         0.00000E+00
    0.62575E-07        -0.21420E-19         0.00000E+00
    0.62575E-07        -0.30268E-19         0.00000E+00
    0.62575E-07        -0.12573E-19         0.00000E+00
    0.62575E-07        -0.17229E-19         0.00000E+00
    0.62575E-07        -0.26543E-19         0.00000E+00
    0.62575E-07        -0.39116E-19         0.00000E+00
    0.62575E-07        -0.23516E-19         0.00000E+00
    0.62575E-07        -0.38184E-19         0.00000E+00
    0.62575E-07        -0.33062E-19         0.00000E+00
    0.62575E-07        -0.31199E-19         0.00000E+00
    0.62575E-07        -0.41211E-19         0.00000E+00
    0.62575E-07        -0.42375E-19         0.00000E+00
    0.62575E-07        -0.45169E-19         0.00000E+00
    0.62575E-07        -0.41910E-19         0.00000E+00
    0.62575E-07        -0.47032E-19         0.00000E+00
    0.62575E-07        -0.38650E-19         0.00000E+00
    0.62575E-07        -0.48429E-19         0.00000E+00
    0.62575E-07        -0.48894E-19         0.00000E+00
    0.62575E-07        -0.47963E-19         0.00000E+00
    0.62575E-07        -0.48429E-19         0.00000E+00
    0.62575E-07        -0.33528E-19         0.00000E+00
    0.62575E-07        -0.39581E-19         0.00000E+00
    0.62575E-07        -0.23283E-19         0.00000E+00
    0.62575E-07        -0.23749E-19         0.00000E+00
    0.62575E-07        -0.32596E-19         0.00000E+00
    0.62575E-07        -0.29337E-19         0.00000E+00
    0.62575E-07        -0.19558E-19         0.00000E+00
    0.62575E-07        -0.34226E-19         0.00000E+00
    0.62575E-07        -0.30035E-19         0.00000E+00
    0.62575E-07        -0.20955E-19         0.00000E+00
    0.62575E-07        -0.25611E-19         0.00000E+00
    0.62575E-07        -0.25146E-19         0.00000E+00
    0.62575E-07        -0.42375E-19         0.00000E+00
    0.62575E-07        -0.28871E-19         0.00000E+00
    0.62575E-07        -0.19558E-19         0.00000E+00
    0.62575E-07        -0.14435E-19         0.00000E+00
    0.62575E-07        -0.13737E-19         0.00000E+00
    0.62575E-07        -0.83819E-20         0.00000E+00
    0.62575E-07        -0.11176E-19         0.00000E+00
    0.62575E-07        -0.20023E-19         0.00000E+00
    0.62575E-07        -0.23516E-19         0.00000E+00
    0.62575E-07        -0.83819E-20         0.00000E+00
    0.62575E-07         0.93132E-21         0.00000E+00
    0.62575E-07         0.46566E-21         0.00000E+00
    0.62575E-07         0.93132E-21         0.00000E+00
    0.62575E-07        -0.16298E-20         0.00000E+00
    0.61950E-07        -0.90804E-20         0.00000E+00
    0.61950E-07        -0.60536E-20         0.00000E+00
    0.61950E-07        -0.16764E-19         0.00000E+00
    0.61950E-07        -0.24214E-19         0.00000E+00
    0.61950E-07        -0.30734E-19         0.00000E+00
    0.61950E-07        -0.31665E-19         0.00000E+00
    0.61950E-07        -0.20955E-19         0.00000E+00
    0.61950E-07        -0.21886E-19         0.00000E+00
    0.61950E-07        -0.31665E-19         0.00000E+00
    0.61950E-07        -0.37253E-19         0.00000E+00
    0.61950E-07        -0.25146E-19         0.00000E+00
    0.61950E-07        -0.32596E-19         0.00000E+00
    0.61950E-07        -0.37719E-19         0.00000E+00
    0.61950E-07        -0.12107E-19         0.00000E+00
    0.61950E-07        -0.36322E-19         0.00000E+00
    0.61950E-07        -0.49360E-19         0.00000E+00
    0.61950E-07        -0.54017E-19         0.00000E+00
    0.61950E-07        -0.55181E-19         0.00000E+00
    0.61950E-07        -0.41444E-19         0.00000E+00
    0.61950E-07        -0.40047E-19         0.00000E+00
    0.61950E-07        -0.51223E-19         0.00000E+00
    0.61950E-07        -0.40047E-19         0.00000E+00
    0.61950E-07        -0.39116E-19         0.00000E+00
    0.61950E-07        -0.53551E-19         0.00000E+00
    0.61950E-07        -0.38184E-19         0.00000E+00
    0.61950E-07        -0.36322E-19         0.00000E+00
    0.61950E-07        -0.42375E-19         0.00000E+00
    0.61950E-07        -0.37253E-19         0.00000E+00
    0.61950E-07        -0.39116E-19         0.00000E+00
    0.61950E-07        -0.25611E-19         0.00000E+00
    0.61950E-07        -0.19558E-19         0.00000E+00
    0.61950E-07        -0.35856E-19         0.00000E+00
    0.61950E-07        -0.31199E-19         0.00000E+00
    0.61950E-07        -0.24214E-19         0.00000E+00
    0.61950E-07        -0.97789E-20         0.00000E+00
    0.61950E-07        -0.13039E-19         0.00000E+00
    0.61950E-07        -0.19092E-19         0.00000E+00
    0.61950E-07        -0.15832E-19         0.00000E+00
    0.61950E-07        -0.65193E-20         0.00000E+00
    0.61950E-07        -0.25611E-19         0.00000E+00
    0.61950E-07        -0.22119E-19         0.00000E+00
    0.61950E-07        -0.20955E-19         0.00000E+00
    0.61950E-07        -0.13039E-19         0.00000E+00
    0.61950E-07        -0.28405E-19         0.00000E+00
    0.61950E-07        -0.13737E-19         0.00000E+00
    0.61950E-07        -0.69849E-20         0.00000E+00
    0.61950E-07        -0.55879E-20         0.00000E+00
    0.61950E-07        -0.10710E-19         0.00000E+00
    0.61950E-07         0.18626E-20         0.00000E+00
    0.61950E-07         0.41910E-20         0.00000E+00
    0.61230E-07        -0.34925E-20         0.00000E+00
    0.61230E-07        -0.14203E-19         0.00000E+00
    0.61230E-07        -0.32596E-19         0.00000E+00
    0.61230E-07        -0.29337E-19         0.00000E+00
    0.61230E-07        -0.35157E-19         0.00000E+00
    0.61230E-07        -0.25146E-19         0.00000E+00
    0.61230E-07        -0.16065E-19         0.00000E+00
    0.61230E-07        -0.23749E-19         0.00000E+00
    0.61230E-07        -0.30734E-19         0.00000E+00
    0.61230E-07        -0.32596E-19         0.00000E+00
    0.61230E-07        -0.30268E-19         0.00000E+00
    0.61230E-07        -0.37253E-19         0.00000E+00
    0.61230E-07        -0.33062E-19         0.00000E+00
    0.61230E-07        -0.10710E-19         0.00000E+00
    0.61230E-07        -0.31432E-19         0.00000E+00
    0.61230E-07        -0.57276E-19         0.00000E+00
    0.61230E-07        -0.45169E-19         0.00000E+00
    0.61230E-07        -0.35390E-19         0.00000E+00
    0.61230E-07        -0.55414E-19         0.00000E+00
    0.61230E-07        -0.39116E-19         0.00000E+00
    0.61230E-07        -0.55414E-19         0.00000E+00
    0.61230E-07        -0.53085E-19         0.00000E+00
    0.61230E-07        -0.35390E-19         0.00000E+00
    0.61230E-07        -0.44703E-19         0.00000E+00
    0.61230E-07        -0.33993E-19         0.00000E+00
    0.61230E-07        -0.25611E-19         0.00000E+00
    0.61230E-07        -0.45402E-19         0.00000E+00
    0.61230E-07        -0.47963E-19         0.00000E+00
    0.61230E-07        -0.44703E-19         0.00000E+00
    0.61230E-07        -0.42841E-19         0.00000E+00
    0.61230E-07        -0.19558E-19         0.00000E+00
    0.61230E-07        -0.18626E-19         0.00000E+00
    0.61230E-07        -0.28871E-19         0.00000E+00
    0.61230E-07        -0.26543E-19         0.00000E+00
    0.61230E-07        -0.22817E-19         0.00000E+00
    0.61230E-07        -0.69849E-20         0.00000E+00
    0.61230E-07        -0.11642E-19         0.00000E+00
    0.61230E-07        -0.12107E-19         0.00000E+00
    0.61230E-07        -0.20489E-19         0.00000E+00
    0.61230E-07        -0.25844E-19         0.00000E+00
    0.61230E-07        -0.30734E-19         0.00000E+00
    0.61230E-07        -0.30268E-19         0.00000E+00
    0.61230E-07        -0.15367E-19         0.00000E+00
    0.61230E-07        -0.13039E-19         0.00000E+00
    0.61230E-07        -0.48894E-20         0.00000E+00
    0.61230E-07        -0.46566E-21         0.00000E+00
    0.61230E-07         0.81491E-20         0.00000E+00
    0.61230E-07         0.88476E-20         0.00000E+00
    0.61230E-07         0.93132E-20         0.00000E+00
    0.61230E-07        -0.41910E-20         0.00000E+00
    0.60421E-07        -0.53551E-20         0.00000E+00
    0.60421E-07        -0.21420E-19         0.00000E+00
    0.60421E-07        -0.23283E-19         0.00000E+00
    0.60421E-07        -0.11176E-19         0.00000E+00
    0.60421E-07        -0.97789E-20         0.00000E+00
    0.60421E-07        -0.32596E-19         0.00000E+00
    0.60421E-07        -0.18161E-19         0.00000E+00
    0.60421E-07        -0.31199E-19         0.00000E+00
    0.60421E-07        -0.27474E-19         0.00000E+00
    0.60421E-07        -0.55879E-20         0.00000E+00
    0.60421E-07        -0.13504E-19         0.00000E+00
    0.60421E-07        -0.23516E-19         0.00000E+00
    0.60421E-07        -0.24214E-19         0.00000E+00
    0.60421E-07        -0.27241E-19         0.00000E+00
    0.60421E-07        -0.47032E-19         0.00000E+00
    0.60421E-07        -0.33528E-19         0.00000E+00
    0.60421E-07        -0.30734E-19         0.00000E+00
    0.60421E-07        -0.23283E-19         0.00000E+00
    0.60421E-07        -0.45169E-19         0.00000E+00
    0.60421E-07        -0.44703E-19         0.00000E+00
    0.60421E-07        -0.50291E-19         0.00000E+00
    0.60421E-07        -0.49826E-19         0.00000E+00
    0.60421E-07        -0.32596E-19         0.00000E+00
    0.60421E-07        -0.31665E-19         0.00000E+00
    0.60421E-07        -0.25146E-19         0.00000E+00
    0.60421E-07        -0.29337E-19         0.00000E+00
    0.60421E-07        -0.42841E-19         0.00000E+00
    0.60421E-07        -0.47497E-19         0.00000E+00
    0.60421E-07        -0.38184E-19         0.00000E+00
    0.60421E-07        -0.33528E-19         0.00000E+00
    0.60421E-07        -0.36787E-19         0.00000E+00
    0.60421E-07        -0.33993E-19         0.00000E+00
    0.60421E-07        -0.30035E-19         0.00000E+00
    0.60421E-07        -0.30268E-19         0.00000E+00
    0.60421E-07        -0.32131E-19         0.00000E+00
    0.60421E-07        -0.33528E-19         0.00000E+00
    0.60421E-07        -0.25611E-19         0.00000E+00
    0.60421E-07        -0.19558E-19         0.00000E+00
    0.60421E-07        -0.11642E-19         0.00000E+00
    0.60421E-07        -0.19092E-19         0.00000E+00
    0.60421E-07        -0.33295E-19         0.00000E+00
    0.60421E-07        -0.23749E-19         0.00000E+00
    0.60421E-07        -0.28173E-19         0.00000E+00
    0.60421E-07        -0.17462E-19         0.00000E+00
    0.60421E-07        -0.10710E-19         0.00000E+00
    0.60421E-07         0.17229E-19         0.00000E+00
    0.60421E-07         0.18626E-19         0.00000E+00
    0.60421E-07         0.15832E-19         0.00000E+00
    0.60421E-07         0.69849E-20         0.00000E+00
    0.60421E-07        -0.69849E-20         0.00000E+00
    0.59526E-07         0.39581E-20         0.00000E+00
    0.59526E-07         0.14435E-19         0.00000E+00
    0.59526E-07         0.12107E-19         0.00000E+00
    0.59526E-07         0.69849E-20         0.00000E+00
    0.59526E-07        -0.16298E-19         0.00000E+00
    0.59526E-07        -0.16298E-19         0.00000E+00
    0.59526E-07        -0.14203E-19         0.00000E+00
    0.59526E-07        -0.51223E-20         0.00000E+00
    0.59526E-07        -0.51223E-20         0.00000E+00
    0.59526E-07        -0.23283E-19         0.00000E+00
    0.59526E-07        -0.17695E-19         0.00000E+00
    0.59526E-07        -0.13970E-19         0.00000E+00
    0.59526E-07        -0.19092E-19         0.00000E+00
    0.59526E-07        -0.15832E-19         0.00000E+00
    0.59526E-07        -0.39581E-19         0.00000E+00
    0.59526E-07        -0.28405E-19         0.00000E+00
    0.59526E-07        -0.41910E-19         0.00000E+00
    0.59526E-07        -0.48894E-19         0.00000E+00
    0.59526E-07        -0.46100E-19         0.00000E+00
    0.59526E-07        -0.47032E-19         0.00000E+00
    0.59526E-07        -0.40047E-19         0.00000E+00
    0.59526E-07        -0.35390E-19         0.00000E+00
    0.59526E-07        -0.20023E-19         0.00000E+00
    0.59526E-07        -0.18161E-19         0.00000E+00
    0.59526E-07        -0.26543E-19         0.00000E+00
    0.59526E-07        -0.28173E-19         0.00000E+00
    0.59526E-07        -0.30734E-19         0.00000E+00
    0.59526E-07        -0.32596E-19         0.00000E+00
    0.59526E-07        -0.23749E-19         0.00000E+00
    0.59526E-07        -0.26077E-19         0.00000E+00
    0.59526E-07        -0.49360E-19         0.00000E+00
    0.59526E-07        -0.50757E-19         0.00000E+00
    0.59526E-07        -0.39348E-19         0.00000E+00
    0.59526E-07        -0.44703E-19         0.00000E+00
    0.59526E-07        -0.53551E-19         0.00000E+00
    0.59526E-07        -0.54948E-19         0.00000E+00
    0.59526E-07        -0.29104E-19         0.00000E+00
    0.59526E-07        -0.29802E-19         0.00000E+00
    0.59526E-07        -0.21653E-19         0.00000E+00
    0.59526E-07        -0.29802E-19         0.00000E+00
    0.59526E-07        -0.12340E-19         0.00000E+00
    0.59526E-07        -0.21420E-19         0.00000E+00
    0.59526E-07        -0.16065E-19         0.00000E+00
    0.59526E-07        -0.21653E-19         0.00000E+00
    0.59526E-07        -0.51223E-20         0.00000E+00
    0.59526E-07         0.23283E-19         0.00000E+00
    0.59526E-07         0.13970E-19         0.00000E+00
    0.59526E-07        -0.32596E-20         0.00000E+00
    0.59526E-07        -0.93132E-20         0.00000E+00
    0.59526E-07         0.00000E+00         0.00000E+00
    0.58552E-07         0.11176E-19         0.00000E+00
    0.58552E-07         0.28405E-19         0.00000E+00
    0.58552E-07         0.11409E-19         0.00000E+00
    0.58552E-07        -0.46566E-21         0.00000E+00
    0.58552E-07        -0.15367E-19         0.00000E+00
    0.58552E-07         0.23283E-20         0.00000E+00
    0.58552E-07         0.74506E-20         0.00000E+00
    0.58552E-07         0.37253E-20         0.00000E+00
    0.58552E-07         0.41910E-20         0.00000E+00
    0.58552E-07        -0.16764E-19         0.00000E+00
    0.58552E-07        -0.23283E-19         0.00000E+00
    0.58552E-07        -0.18161E-19         0.00000E+00
    0.58552E-07        -0.21420E-19         0.00000E+00
    0.58552E-07        -0.88476E-20         0.00000E+00
    0.58552E-07        -0.18161E-19         0.00000E+00
    0.58552E-07        -0.30734E-19         0.00000E+00
    0.58552E-07        -0.45635E-19         0.00000E+00
    0.58552E-07        -0.50757E-19         0.00000E+00
    0.58552E-07        -0.54250E-19         0.00000E+00
    0.58552E-07        -0.48894E-19         0.00000E+00
    0.58552E-07        -0.41444E-19         0.00000E+00
    0.58552E-07        -0.38650E-19         0.00000E+00
    0.58552E-07        -0.31665E-19         0.00000E+00
    0.58552E-07        -0.24214E-19         0.00000E+00
    0.58552E-07        -0.26776E-19         0.00000E+00
    0.58552E-07        -0.10710E-19         0.00000E+00
    0.58552E-07        -0.15367E-19         0.00000E+00
    0.58552E-07        -0.13970E-19         0.00000E+00
    0.58552E-07        -0.14901E-19         0.00000E+00
    0.58552E-07        -0.37951E-19         0.00000E+00
    0.58552E-07        -0.38417E-19         0.00000E+00
    0.58552E-07        -0.49826E-19         0.00000E+00
    0.58552E-07        -0.64261E-19         0.00000E+00
    0.58552E-07        -0.56345E-19         0.00000E+00
    0.58552E-07        -0.61933E-19         0.00000E+00
    0.58552E-07        -0.54948E-19         0.00000E+00
    0.58552E-07        -0.52853E-19         0.00000E+00
    0.58552E-07        -0.39581E-19         0.00000E+00
    0.58552E-07        -0.24214E-19         0.00000E+00
    0.58552E-07        -0.27940E-19         0.00000E+00
    0.58552E-07        -0.24214E-19         0.00000E+00
    0.58552E-07        -0.14435E-19         0.00000E+00
    0.58552E-07        -0.11642E-19         0.00000E+00
    0.58552E-07        -0.93132E-20         0.00000E+00
    0.58552E-07        -0.37253E-20         0.00000E+00
    0.58552E-07        -0.14901E-19         0.00000E+00
    0.58552E-07        -0.25611E-20         0.00000E+00
    0.58552E-07        -0.69849E-20         0.00000E+00
    0.58552E-07        -0.93132E-20         0.00000E+00
    0.58552E-07         0.69849E-21         0.00000E+00
    0.57504E-07         0.74506E-20         0.00000E+00
    0.57504E-07         0.23283E-20         0.00000E+00
    0.57504E-07         0.46566E-21         0.00000E+00
    0.57504E-07        -0.51223E-20         0.00000E+00
    0.57504E-07        -0.14901E-19         0.00000E+00
    0.57504E-07        -0.11642E-20         0.00000E+00
    0.57504E-07        -0.13970E-20         0.00000E+00
    0.57504E-07        -0.13970E-19         0.00000E+00
    0.57504E-07        -0.86147E-20         0.00000E+00
    0.57504E-07        -0.32596E-20         0.00000E+00
    0.57504E-07        -0.60536E-20         0.00000E+00
    0.57504E-07        -0.13737E-19         0.00000E+00
    0.57504E-07        -0.21420E-19         0.00000E+00
    0.57504E-07        -0.28405E-19         0.00000E+00
    0.57504E-07        -0.26543E-19         0.00000E+00
    0.57504E-07        -0.83819E-20         0.00000E+00
    0.57504E-07        -0.29802E-19         0.00000E+00
    0.57504E-07        -0.21886E-19         0.00000E+00
    0.57504E-07        -0.33062E-19         0.00000E+00
    0.57504E-07        -0.40513E-19         0.00000E+00
    0.57504E-07        -0.46566E-19         0.00000E+00
    0.57504E-07        -0.45635E-19         0.00000E+00
    0.57504E-07        -0.31432E-19         0.00000E+00
    0.57504E-07        -0.43306E-19         0.00000E+00
    0.57504E-07        -0.42841E-19         0.00000E+00
    0.57504E-07        -0.24680E-19         0.00000E+00
    0.57504E-07        -0.19092E-19         0.00000E+00
    0.57504E-07        -0.16298E-19         0.00000E+00
    0.57504E-07        -0.30734E-19         0.00000E+00
    0.57504E-07        -0.38417E-19         0.00000E+00
    0.57504E-07        -0.51223E-19         0.00000E+00
    0.57504E-07        -0.54250E-19         0.00000E+00
    0.57504E-07        -0.55414E-19         0.00000E+00
    0.57504E-07        -0.53085E-19         0.00000E+00
    0.57504E-07        -0.43306E-19         0.00000E+00
    0.57504E-07        -0.31665E-19         0.00000E+00
    0.57504E-07        -0.17695E-19         0.00000E+00
    0.57504E-07        -0.14203E-19         0.00000E+00
    0.57504E-07        -0.10012E-19         0.00000E+00
    0.57504E-07        -0.16764E-19         0.00000E+00
    0.57504E-07        -0.24913E-19         0.00000E+00
    0.57504E-07        -0.17695E-19         0.00000E+00
    0.57504E-07        -0.18626E-19         0.00000E+00
    0.57504E-07         0.27940E-20         0.00000E+00
    0.57504E-07        -0.12107E-19         0.00000E+00
    0.57504E-07        -0.23982E-19         0.00000E+00
    0.57504E-07        -0.25379E-19         0.00000E+00
    0.57504E-07        -0.11642E-19         0.00000E+00
    0.57504E-07        -0.72177E-20         0.00000E+00
    0.57504E-07         0.37253E-20         0.00000E+00
    0.56388E-07        -0.46566E-20         0.00000E+00
    0.56388E-07        -0.20955E-19         0.00000E+00
    0.56388E-07        -0.74506E-20         0.00000E+00
    0.56388E-07        -0.17229E-19         0.00000E+00
    0.56388E-07        -0.18626E-19         0.00000E+00
    0.56388E-07        -0.18161E-19         0.00000E+00
    0.56388E-07        -0.17695E-19         0.00000E+00
    0.56388E-07        -0.21886E-19         0.00000E+00
    0.56388E-07        -0.28871E-19         0.00000E+00
    0.56388E-07        -0.35390E-19         0.00000E+00
    0.56388E-07        -0.23283E-19         0.00000E+00
    0.56388E-07        -0.25146E-19         0.00000E+00
    0.56388E-07        -0.25844E-19         0.00000E+00
    0.56388E-07        -0.27008E-19         0.00000E+00
    0.56388E-07        -0.34459E-19         0.00000E+00
    0.56388E-07        -0.15367E-19         0.00000E+00
    0.56388E-07        -0.14435E-19         0.00000E+00
    0.56388E-07        -0.97789E-20         0.00000E+00
    0.56388E-07        -0.26776E-19         0.00000E+00
    0.56388E-07        -0.34459E-19         0.00000E+00
    0.56388E-07        -0.37719E-19         0.00000E+00
    0.56388E-07        -0.40513E-19         0.00000E+00
    0.56388E-07        -0.31199E-19         0.00000E+00
    0.56388E-07        -0.45169E-19         0.00000E+00
    0.56388E-07        -0.45169E-19         0.00000E+00
    0.56388E-07        -0.40047E-19         0.00000E+00
    0.56388E-07        -0.19092E-19         0.00000E+00
    0.56388E-07        -0.41910E-19         0.00000E+00
    0.56388E-07        -0.32131E-19         0.00000E+00
    0.56388E-07        -0.37719E-19         0.00000E+00
    0.56388E-07        -0.44703E-19         0.00000E+00
    0.56388E-07        -0.51688E-19         0.00000E+00
    0.56388E-07        -0.33528E-19         0.00000E+00
    0.56388E-07        -0.36787E-19         0.00000E+00
    0.56388E-07        -0.20489E-19         0.00000E+00
    0.56388E-07        -0.18626E-19         0.00000E+00
    0.56388E-07         0.13039E-19         0.00000E+00
    0.56388E-07        -0.55879E-20         0.00000E+00
    0.56388E-07        -0.13970E-19         0.00000E+00
    0.56388E-07        -0.14435E-19         0.00000E+00
    0.56388E-07        -0.74506E-20         0.00000E+00
    0.56388E-07        -0.12573E-19         0.00000E+00
    0.56388E-07        -0.12107E-19         0.00000E+00
    0.56388E-07        -0.13970E-20         0.00000E+00
    0.56388E-07        -0.15367E-19         0.00000E+00
    0.56388E-07        -0.46566E-20         0.00000E+00
    0.56388E-07        -0.13504E-19         0.00000E+00
    0.56388E-07        -0.11176E-19         0.00000E+00
    0.56388E-07         0.13970E-20         0.00000E+00
    0.56388E-07         0.18626E-20         0.00000E+00
    0.55211E-07        -0.13504E-19         0.00000E+00
    0.55211E-07        -0.20722E-19         0.00000E+00
    0.55211E-07        -0.23283E-19         0.00000E+00
    0.55211E-07        -0.20955E-19         0.00000E+00
    0.55211E-07        -0.13737E-19         0.00000E+00
    0.55211E-07        -0.21420E-19         0.00000E+00
    0.55211E-07        -0.60536E-20         0.00000E+00
    0.55211E-07        -0.33528E-19         0.00000E+00
    0.55211E-07        -0.27008E-19         0.00000E+00
    0.55211E-07        -0.26077E-19         0.00000E+00
    0.55211E-07        -0.34459E-19         0.00000E+00
    0.55211E-07        -0.29802E-19         0.00000E+00
    0.55211E-07        -0.26543E-19         0.00000E+00
    0.55211E-07        -0.18626E-19         0.00000E+00
    0.55211E-07        -0.32131E-19         0.00000E+00
    0.55211E-07        -0.37253E-19         0.00000E+00
    0.55211E-07        -0.37719E-19         0.00000E+00
    0.55211E-07        -0.33528E-19         0.00000E+00
    0.55211E-07        -0.33062E-19         0.00000E+00
    0.55211E-07        -0.32829E-19         0.00000E+00
    0.55211E-07        -0.29802E-19         0.00000E+00
    0.55211E-07        -0.19558E-19         0.00000E+00
    0.55211E-07        -0.44703E-19         0.00000E+00
    0.55211E-07        -0.27474E-19         0.00000E+00
    0.55211E-07        -0.27940E-19         0.00000E+00
    0.55211E-07        -0.28405E-19         0.00000E+00
    0.55211E-07        -0.30734E-19         0.00000E+00
    0.55211E-07        -0.41444E-19         0.00000E+00
    0.55211E-07        -0.28405E-19         0.00000E+00
    0.55211E-07        -0.37253E-19         0.00000E+00
    0.55211E-07        -0.16298E-19         0.00000E+00
    0.55211E-07        -0.38184E-19         0.00000E+00
    0.55211E-07        -0.24214E-19         0.00000E+00
    0.55211E-07        -0.23749E-19         0.00000E+00
    0.55211E-07        -0.16298E-19         0.00000E+00
    0.55211E-07        -0.16298E-19         0.00000E+00
    0.55211E-07        -0.12107E-19         0.00000E+00
    0.55211E-07        -0.14435E-19         0.00000E+00
    0.55211E-07         0.25611E-20         0.00000E+00
    0.55211E-07        -0.67521E-20         0.00000E+00
    0.55211E-07        -0.41910E-20         0.00000E+00
    0.55211E-07        -0.55879E-20         0.00000E+00
    0.55211E-07        -0.15367E-19         0.00000E+00
    0.55211E-07        -0.14435E-19         0.00000E+00
    0.55211E-07        -0.11642E-19         0.00000E+00
    0.55211E-07        -0.79162E-20         0.00000E+00
    0.55211E-07        -0.20955E-20         0.00000E+00
    0.55211E-07         0.39581E-20         0.00000E+00
    0.55211E-07         0.93132E-20         0.00000E+00
    0.55211E-07         0.46566E-20         0.00000E+00
    0.53979E-07        -0.86147E-20         0.00000E+00
    0.53979E-07        -0.12573E-19         0.00000E+00
    0.53979E-07        -0.72177E-20         0.00000E+00
    0.53979E-07        -0.13504E-19         0.00000E+00
    0.53979E-07        -0.27241E-19         0.00000E+00
    0.53979E-07        -0.28405E-19         0.00000E+00
    0.53979E-07        -0.20256E-19         0.00000E+00
    0.53979E-07        -0.18626E-19         0.00000E+00
    0.53979E-07        -0.16997E-19         0.00000E+00
    0.53979E-07        -0.14901E-19         0.00000E+00
    0.53979E-07        -0.11874E-19         0.00000E+00
    0.53979E-07        -0.24913E-19         0.00000E+00
    0.53979E-07        -0.25611E-19         0.00000E+00
    0.53979E-07        -0.21420E-19         0.00000E+00
    0.53979E-07        -0.17462E-19         0.00000E+00
    0.53979E-07        -0.31432E-19         0.00000E+00
    0.53979E-07        -0.34459E-19         0.00000E+00
    0.53979E-07        -0.46566E-19         0.00000E+00
    0.53979E-07        -0.32596E-19         0.00000E+00
    0.53979E-07        -0.19558E-19         0.00000E+00
    0.53979E-07        -0.37020E-19         0.00000E+00
    0.53979E-07        -0.23283E-19         0.00000E+00
    0.53979E-07        -0.21886E-19         0.00000E+00
    0.53979E-07        -0.33993E-19         0.00000E+00
    0.53979E-07        -0.33295E-19         0.00000E+00
    0.53979E-07        -0.26077E-19         0.00000E+00
    0.53979E-07        -0.27008E-19         0.00000E+00
    0.53979E-07        -0.20955E-19         0.00000E+00
    0.53979E-07        -0.37253E-19         0.00000E+00
    0.53979E-07        -0.36787E-19         0.00000E+00
    0.53979E-07        -0.16298E-19         0.00000E+00
    0.53979E-07        -0.13504E-19         0.00000E+00
    0.53979E-07        -0.26776E-19         0.00000E+00
    0.53979E-07        -0.33528E-19         0.00000E+00
    0.53979E-07        -0.23283E-19         0.00000E+00
    0.53979E-07        -0.17229E-19         0.00000E+00
    0.53979E-07        -0.20489E-19         0.00000E+00
    0.53979E-07        -0.21420E-19         0.00000E+00
    0.53979E-07        -0.51223E-20         0.00000E+00
    0.53979E-07        -0.15367E-19         0.00000E+00
    0.53979E-07        -0.32596E-20         0.00000E+00
    0.53979E-07        -0.12573E-19         0.00000E+00
    0.53979E-07        -0.22585E-19         0.00000E+00
    0.53979E-07        -0.14435E-19         0.00000E+00
    0.53979E-07        -0.41910E-20         0.00000E+00
    0.53979E-07        -0.88476E-20         0.00000E+00
    0.53979E-07        -0.12107E-19         0.00000E+00
    0.53979E-07        -0.55879E-20         0.00000E+00
    0.53979E-07        -0.23283E-20         0.00000E+00
    0.53979E-07         0.41910E-20         0.00000E+00
    0.52699E-07         0.46566E-20         0.00000E+00
    0.52699E-07        -0.51223E-20         0.00000E+00
    0.52699E-07         0.51223E-20         0.00000E+00
    0.52699E-07        -0.90804E-20         0.00000E+00
    0.52699E-07        -0.35856E-19         0.00000E+00
    0.52699E-07        -0.28638E-19         0.00000E+00
    0.52699E-07        -0.27241E-19         0.00000E+00
    0.52699E-07        -0.13970E-19         0.00000E+00
    0.52699E-07        -0.21653E-19         0.00000E+00
    0.52699E-07        -0.19558E-19         0.00000E+00
    0.52699E-07        -0.17695E-19         0.00000E+00
    0.52699E-07        -0.15134E-19         0.00000E+00
    0.52699E-07        -0.33295E-19         0.00000E+00
    0.52699E-07        -0.25146E-19         0.00000E+00
    0.52699E-07        -0.16531E-19         0.00000E+00
    0.52699E-07        -0.29802E-19         0.00000E+00
    0.52699E-07        -0.20023E-19         0.00000E+00
    0.52699E-07        -0.28638E-19         0.00000E+00
    0.52699E-07        -0.13039E-19         0.00000E+00
    0.52699E-07        -0.24680E-19         0.00000E+00
    0.52699E-07        -0.21886E-19         0.00000E+00
    0.52699E-07        -0.17695E-19         0.00000E+00
    0.52699E-07        -0.22352E-19         0.00000E+00
    0.52699E-07        -0.40513E-19         0.00000E+00
    0.52699E-07        -0.25844E-19         0.00000E+00
    0.52699E-07        -0.21420E-19         0.00000E+00
    0.52699E-07        -0.13504E-19         0.00000E+00
    0.52699E-07        -0.26077E-19         0.00000E+00
    0.52699E-07        -0.37253E-19         0.00000E+00
    0.52699E-07        -0.43772E-19         0.00000E+00
    0.52699E-07        -0.30268E-19         0.00000E+00
    0.52699E-07        -0.23749E-19         0.00000E+00
    0.52699E-07        -0.34925E-19         0.00000E+00
    0.52699E-07        -0.33062E-19         0.00000E+00
    0.52699E-07        -0.27474E-19         0.00000E+00
    0.52699E-07        -0.13970E-19         0.00000E+00
    0.52699E-07        -0.20955E-19         0.00000E+00
    0.52699E-07        -0.23283E-19         0.00000E+00
    0.52699E-07        -0.37253E-19         0.00000E+00
    0.52699E-07        -0.29104E-19         0.00000E+00
    0.52699E-07        -0.21886E-19         0.00000E+00
    0.52699E-07        -0.16298E-19         0.00000E+00
    0.52699E-07        -0.21420E-19         0.00000E+00
    0.52699E-07        -0.46566E-20         0.00000E+00
    0.52699E-07        -0.12573E-19         0.00000E+00
    0.52699E-07        -0.11642E-19         0.00000E+00
    0.52699E-07        -0.11176E-19         0.00000E+00
    0.52699E-07        -0.13970E-19         0.00000E+00
    0.52699E-07         0.00000E+00         0.00000E+00
    0.52699E-07         0.30268E-20         0.00000E+00
    0.51378E-07         0.55879E-20         0.00000E+00
    0.51378E-07        -0.83819E-20         0.00000E+00
    0.51378E-07        -0.86147E-20         0.00000E+00
    0.51378E-07         0.58208E-20         0.00000E+00
    0.51378E-07        -0.12107E-19         0.00000E+00
    0.51378E-07        -0.93132E-20         0.00000E+00
    0.51378E-07        -0.15367E-19         0.00000E+00
    0.51378E-07        -0.20023E-19         0.00000E+00
    0.51378E-07        -0.83819E-20         0.00000E+00
    0.51378E-07        -0.14901E-19         0.00000E+00
    0.51378E-07        -0.16764E-19         0.00000E+00
    0.51378E-07        -0.10943E-19         0.00000E+00
    0.51378E-07        -0.27008E-19         0.00000E+00
    0.51378E-07        -0.30268E-19         0.00000E+00
    0.51378E-07        -0.29104E-19         0.00000E+00
    0.51378E-07        -0.30035E-19         0.00000E+00
    0.51378E-07        -0.33760E-19         0.00000E+00
    0.51378E-07        -0.26310E-19         0.00000E+00
    0.51378E-07        -0.19092E-19         0.00000E+00
    0.51378E-07        -0.23516E-19         0.00000E+00
    0.51378E-07        -0.15367E-19         0.00000E+00
    0.51378E-07        -0.14901E-19         0.00000E+00
    0.51378E-07        -0.14203E-19         0.00000E+00
    0.51378E-07        -0.14668E-19         0.00000E+00
    0.51378E-07        -0.23283E-19         0.00000E+00
    0.51378E-07        -0.33295E-19         0.00000E+00
    0.51378E-07        -0.31665E-19         0.00000E+00
    0.51378E-07        -0.29104E-19         0.00000E+00
    0.51378E-07        -0.26077E-19         0.00000E+00
    0.51378E-07        -0.31432E-19         0.00000E+00
    0.51378E-07        -0.42608E-19         0.00000E+00
    0.51378E-07        -0.32363E-19         0.00000E+00
    0.51378E-07        -0.34925E-19         0.00000E+00
    0.51378E-07        -0.24680E-19         0.00000E+00
    0.51378E-07        -0.15367E-19         0.00000E+00
    0.51378E-07        -0.30268E-20         0.00000E+00
    0.51378E-07        -0.24680E-19         0.00000E+00
    0.51378E-07        -0.44703E-19         0.00000E+00
    0.51378E-07        -0.36787E-19         0.00000E+00
    0.51378E-07        -0.33528E-19         0.00000E+00
    0.51378E-07        -0.44471E-19         0.00000E+00
    0.51378E-07        -0.33528E-19         0.00000E+00
    0.51378E-07        -0.23283E-19         0.00000E+00
    0.51378E-07        -0.10710E-19         0.00000E+00
    0.51378E-07         0.25611E-20         0.00000E+00
    0.51378E-07        -0.88476E-20         0.00000E+00
    0.51378E-07        -0.27940E-20         0.00000E+00
    0.51378E-07        -0.11642E-20         0.00000E+00
    0.51378E-07         0.46566E-20         0.00000E+00
    0.51378E-07         0.32596E-20         0.00000E+00
    0.50023E-07        -0.30268E-20         0.00000E+00
    0.50023E-07        -0.25611E-20         0.00000E+00
    0.50023E-07         0.30268E-20         0.00000E+00
    0.50023E-07         0.10012E-19         0.00000E+00
    0.50023E-07         0.65193E-20         0.00000E+00
    0.50023E-07         0.41910E-20         0.00000E+00
    0.50023E-07        -0.51223E-20         0.00000E+00
    0.50023E-07        -0.32596E-20         0.00000E+00
    0.50023E-07         0.23283E-20         0.00000E+00
    0.50023E-07        -0.25611E-20         0.00000E+00
    0.50023E-07        -0.16764E-19         0.00000E+00
    0.50023E-07        -0.34459E-19         0.00000E+00
    0.50023E-07        -0.23982E-19         0.00000E+00
    0.50023E-07        -0.18626E-19         0.00000E+00
    0.50023E-07        -0.20955E-19         0.00000E+00
    0.50023E-07        -0.24447E-19         0.00000E+00
    0.50023E-07        -0.15367E-19         0.00000E+00
    0.50023E-07        -0.83819E-20         0.00000E+00
    0.50023E-07        -0.25611E-19         0.00000E+00
    0.50023E-07        -0.33062E-19         0.00000E+00
    0.50023E-07        -0.30734E-19         0.00000E+00
    0.50023E-07        -0.28638E-19         0.00000E+00
    0.50023E-07        -0.19325E-19         0.00000E+00
    0.50023E-07        -0.25146E-19         0.00000E+00
    0.50023E-07        -0.32596E-19         0.00000E+00
    0.50023E-07        -0.35856E-19         0.00000E+00
    0.50023E-07        -0.32829E-19         0.00000E+00
    0.50023E-07        -0.37253E-19         0.00000E+00
    0.50023E-07        -0.21420E-19         0.00000E+00
    0.50023E-07        -0.25611E-19         0.00000E+00
    0.50023E-07        -0.40047E-19         0.00000E+00
    0.50023E-07        -0.35157E-19         0.00000E+00
    0.50023E-07        -0.41910E-19         0.00000E+00
    0.50023E-07        -0.41444E-19         0.00000E+00
    0.50023E-07        -0.28173E-19         0.00000E+00
    0.50023E-07        -0.10245E-19         0.00000E+00
    0.50023E-07        -0.18161E-19         0.00000E+00
    0.50023E-07        -0.30268E-19         0.00000E+00
    0.50023E-07        -0.24680E-19         0.00000E+00
    0.50023E-07        -0.24214E-19         0.00000E+00
    0.50023E-07        -0.34226E-19         0.00000E+00
    0.50023E-07        -0.21420E-19         0.00000E+00
    0.50023E-07        -0.22585E-19         0.00000E+00
    0.50023E-07        -0.10943E-19         0.00000E+00
    0.50023E-07         0.27940E-20         0.00000E+00
    0.50023E-07        -0.46566E-21         0.00000E+00
    0.50023E-07        -0.27940E-20         0.00000E+00
    0.50023E-07        -0.76834E-20         0.00000E+00
    0.50023E-07         0.93132E-21         0.00000E+00
    0.50023E-07         0.00000E+00         0.00000E+00
    0.48641E-07         0.46566E-21         0.00000E+00
    0.48641E-07         0.41910E-20         0.00000E+00
    0.48641E-07         0.14901E-19         0.00000E+00
    0.48641E-07         0.12107E-19         0.00000E+00
    0.48641E-07         0.65193E-20         0.00000E+00
    0.48641E-07        -0.60536E-20         0.00000E+00
    0.48641E-07         0.69849E-20         0.00000E+00
    0.48641E-07         0.79162E-20         0.00000E+00
    0.48641E-07         0.13970E-20         0.00000E+00
    0.48641E-07         0.32596E-20         0.00000E+00
    0.48641E-07         0.60536E-20         0.00000E+00
    0.48641E-07        -0.13504E-19         0.00000E+00
    0.48641E-07        -0.93132E-20         0.00000E+00
    0.48641E-07        -0.16764E-19         0.00000E+00
    0.48641E-07        -0.15134E-19         0.00000E+00
    0.48641E-07        -0.13504E-19         0.00000E+00
    0.48641E-07        -0.32596E-20         0.00000E+00
    0.48641E-07        -0.23283E-20         0.00000E+00
    0.48641E-07        -0.33528E-19         0.00000E+00
    0.48641E-07        -0.32131E-19         0.00000E+00
    0.48641E-07        -0.32131E-19         0.00000E+00
    0.48641E-07        -0.29802E-19         0.00000E+00
    0.48641E-07        -0.31665E-19         0.00000E+00
    0.48641E-07        -0.33993E-19         0.00000E+00
    0.48641E-07        -0.33993E-19         0.00000E+00
    0.48641E-07        -0.33062E-19         0.00000E+00
    0.48641E-07        -0.28173E-19         0.00000E+00
    0.48641E-07        -0.45169E-19         0.00000E+00
    0.48641E-07        -0.44703E-19         0.00000E+00
    0.48641E-07        -0.50757E-19         0.00000E+00
    0.48641E-07        -0.44703E-19         0.00000E+00
    0.48641E-07        -0.40513E-19         0.00000E+00
    0.48641E-07        -0.45169E-19         0.00000E+00
    0.48641E-07        -0.42841E-19         0.00000E+00
    0.48641E-07        -0.40978E-19         0.00000E+00
    0.48641E-07        -0.20489E-19         0.00000E+00
    0.48641E-07        -0.20023E-19         0.00000E+00
    0.48641E-07        -0.20489E-19         0.00000E+00
    0.48641E-07        -0.40280E-19         0.00000E+00
    0.48641E-07        -0.23982E-19         0.00000E+00
    0.48641E-07        -0.21653E-19         0.00000E+00
    0.48641E-07        -0.72177E-20         0.00000E+00
    0.48641E-07        -0.17695E-19         0.00000E+00
    0.48641E-07        -0.13970E-19         0.00000E+00
    0.48641E-07        -0.10245E-19         0.00000E+00
    0.48641E-07         0.23283E-20         0.00000E+00
    0.48641E-07        -0.23283E-20         0.00000E+00
    0.48641E-07        -0.11642E-19         0.00000E+00
    0.48641E-07        -0.10245E-19         0.00000E+00
    0.48641E-07        -0.34925E-20         0.00000E+00
    0.47238E-07        -0.23283E-20         0.00000E+00
    0.47238E-07         0.13970E-20         0.00000E+00
    0.47238E-07         0.23283E-20         0.00000E+00
    0.47238E-07         0.16298E-19         0.00000E+00
    0.47238E-07         0.62864E-20         0.00000E+00
    0.47238E-07        -0.55879E-20         0.00000E+00
    0.47238E-07        -0.13970E-20         0.00000E+00
    0.47238E-07         0.18626E-20         0.00000E+00
    0.47238E-07         0.55879E-20         0.00000E+00
    0.47238E-07         0.11642E-19         0.00000E+00
    0.47238E-07         0.17695E-19         0.00000E+00
    0.47238E-07         0.16764E-19         0.00000E+00
    0.47238E-07         0.13504E-19         0.00000E+00
    0.47238E-07         0.11874E-19         0.00000E+00
    0.47238E-07        -0.60536E-20         0.00000E+00
    0.47238E-07        -0.97789E-20         0.00000E+00
    0.47238E-07        -0.10943E-19         0.00000E+00
    0.47238E-07        -0.18626E-19         0.00000E+00
    0.47238E-07        -0.28405E-19         0.00000E+00
    0.47238E-07        -0.25611E-19         0.00000E+00
    0.47238E-07        -0.28871E-19         0.00000E+00
    0.47238E-07        -0.30268E-19         0.00000E+00
    0.47238E-07        -0.16298E-19         0.00000E+00
    0.47238E-07        -0.30268E-19         0.00000E+00
    0.47238E-07        -0.37253E-19         0.00000E+00
    0.47238E-07        -0.49826E-19         0.00000E+00
    0.47238E-07        -0.45635E-19         0.00000E+00
    0.47238E-07        -0.39581E-19         0.00000E+00
    0.47238E-07        -0.49360E-19         0.00000E+00
    0.47238E-07        -0.49360E-19         0.00000E+00
    0.47238E-07        -0.49826E-19         0.00000E+00
    0.47238E-07        -0.35856E-19         0.00000E+00
    0.47238E-07        -0.32596E-19         0.00000E+00
    0.47238E-07        -0.37719E-19         0.00000E+00
    0.47238E-07        -0.27940E-19         0.00000E+00
    0.47238E-07        -0.34459E-19         0.00000E+00
    0.47238E-07        -0.32363E-19         0.00000E+00
    0.47238E-07        -0.28405E-19         0.00000E+00
    0.47238E-07        -0.34925E-19         0.00000E+00
    0.47238E-07        -0.28405E-19         0.00000E+00
    0.47238E-07        -0.19092E-19         0.00000E+00
    0.47238E-07        -0.83819E-20         0.00000E+00
    0.47238E-07         0.18626E-20         0.00000E+00
    0.47238E-07        -0.18626E-19         0.00000E+00
    0.47238E-07        -0.65193E-20         0.00000E+00
    0.47238E-07        -0.55879E-20         0.00000E+00
    0.47238E-07        -0.51223E-20         0.00000E+00
    0.47238E-07        -0.95461E-20         0.00000E+00
    0.47238E-07        -0.32596E-20         0.00000E+00
    0.47238E-07         0.48894E-20         0.00000E+00
    0.45823E-07         0.93132E-21         0.00000E+00
    0.45823E-07         0.41910E-20         0.00000E+00
    0.45823E-07        -0.10710E-19         0.00000E+00
    0.45823E-07         0.10710E-19         0.00000E+00
    0.45823E-07        -0.18626E-20         0.00000E+00
    0.45823E-07        -0.60536E-20         0.00000E+00
    0.45823E-07        -0.23283E-20         0.00000E+00
    0.45823E-07         0.97789E-20         0.00000E+00
    0.45823E-07         0.97789E-20         0.00000E+00
    0.45823E-07        -0.27940E-20         0.00000E+00
    0.45823E-07         0.00000E+00         0.00000E+00
    0.45823E-07         0.69849E-20         0.00000E+00
    0.45823E-07         0.10245E-19         0.00000E+00
    0.45823E-07         0.21420E-19         0.00000E+00
    0.45823E-07         0.93132E-21         0.00000E+00
    0.45823E-07         0.12573E-19         0.00000E+00
    0.45823E-07        -0.60536E-20         0.00000E+00
    0.45823E-07        -0.19092E-19         0.00000E+00
    0.45823E-07        -0.88476E-20         0.00000E+00
    0.45823E-07        -0.21886E-19         0.00000E+00
    0.45823E-07        -0.20489E-19         0.00000E+00
    0.45823E-07        -0.34925E-19         0.00000E+00
    0.45823E-07        -0.32131E-19         0.00000E+00
    0.45823E-07        -0.49360E-19         0.00000E+00
    0.45823E-07        -0.42375E-19         0.00000E+00
    0.45823E-07        -0.38650E-19         0.00000E+00
    0.45823E-07        -0.43772E-19         0.00000E+00
    0.45823E-07        -0.30268E-19         0.00000E+00
    0.45823E-07        -0.34925E-19         0.00000E+00
    0.45823E-07        -0.40513E-19         0.00000E+00
    0.45823E-07        -0.45635E-19         0.00000E+00
    0.45823E-07        -0.30734E-19         0.00000E+00
    0.45823E-07        -0.36787E-19         0.00000E+00
    0.45823E-07        -0.37253E-19         0.00000E+00
    0.45823E-07        -0.42375E-19         0.00000E+00
    0.45823E-07        -0.34925E-19         0.00000E+00
    0.45823E-07        -0.34459E-19         0.00000E+00
    0.45823E-07        -0.11176E-19         0.00000E+00
    0.45823E-07        -0.19558E-19         0.00000E+00
    0.45823E-07        -0.26543E-19         0.00000E+00
    0.45823E-07        -0.16764E-19         0.00000E+00
    0.45823E-07        -0.14901E-19         0.00000E+00
    0.45823E-07         0.41910E-20         0.00000E+00
    0.45823E-07         0.00000E+00         0.00000E+00
    0.45823E-07         0.41910E-20         0.00000E+00
    0.45823E-07        -0.23283E-20         0.00000E+00
    0.45823E-07        -0.25611E-20         0.00000E+00
    0.45823E-07        -0.23283E-20         0.00000E+00
    0.45823E-07        -0.83819E-20         0.00000E+00
    0.45823E-07        -0.55879E-20         0.00000E+00
    0.44401E-07         0.37253E-20         0.00000E+00
    0.44401E-07         0.10943E-19         0.00000E+00
    0.44401E-07         0.60536E-20         0.00000E+00
    0.44401E-07         0.25611E-20         0.00000E+00
    0.44401E-07        -0.39581E-20         0.00000E+00
    0.44401E-07         0.13970E-20         0.00000E+00
    0.44401E-07         0.10710E-19         0.00000E+00
    0.44401E-07         0.15600E-19         0.00000E+00
    0.44401E-07         0.41910E-20         0.00000E+00
    0.44401E-07         0.10710E-19         0.00000E+00
    0.44401E-07        -0.11642E-20         0.00000E+00
    0.44401E-07        -0.93132E-21         0.00000E+00
    0.44401E-07         0.32596E-20         0.00000E+00
    0.44401E-07         0.67521E-20         0.00000E+00
    0.44401E-07        -0.11409E-19         0.00000E+00
    0.44401E-07         0.79162E-20         0.00000E+00
    0.44401E-07         0.13970E-20         0.00000E+00
    0.44401E-07        -0.93132E-20         0.00000E+00
    0.44401E-07        -0.16298E-19         0.00000E+00
    0.44401E-07        -0.19325E-19         0.00000E+00
    0.44401E-07        -0.25611E-19         0.00000E+00
    0.44401E-07        -0.36322E-19         0.00000E+00
    0.44401E-07        -0.42375E-19         0.00000E+00
    0.44401E-07        -0.56112E-19         0.00000E+00
    0.44401E-07        -0.45169E-19         0.00000E+00
    0.44401E-07        -0.33062E-19         0.00000E+00
    0.44401E-07        -0.27474E-19         0.00000E+00
    0.44401E-07        -0.30734E-19         0.00000E+00
    0.44401E-07        -0.43772E-19         0.00000E+00
    0.44401E-07        -0.55414E-19         0.00000E+00
    0.44401E-07        -0.51921E-19         0.00000E+00
    0.44401E-07        -0.33062E-19         0.00000E+00
    0.44401E-07        -0.31199E-19         0.00000E+00
    0.44401E-07        -0.40047E-19         0.00000E+00
    0.44401E-07        -0.34459E-19         0.00000E+00
    0.44401E-07        -0.26543E-19         0.00000E+00
    0.44401E-07        -0.18626E-19         0.00000E+00
    0.44401E-07        -0.93132E-20         0.00000E+00
    0.44401E-07        -0.18859E-19         0.00000E+00
    0.44401E-07        -0.10943E-19         0.00000E+00
    0.44401E-07        -0.93132E-20         0.00000E+00
    0.44401E-07        -0.25611E-19         0.00000E+00
    0.44401E-07        -0.10245E-19         0.00000E+00
    0.44401E-07        -0.65193E-20         0.00000E+00
    0.44401E-07        -0.67521E-20         0.00000E+00
    0.44401E-07        -0.41910E-20         0.00000E+00
    0.44401E-07         0.37253E-20         0.00000E+00
    0.44401E-07         0.65193E-20         0.00000E+00
    0.44401E-07         0.13970E-20         0.00000E+00
    0.44401E-07        -0.10710E-19         0.00000E+00
    0.42979E-07        -0.13970E-20         0.00000E+00
    0.42979E-07        -0.39581E-20         0.00000E+00
    0.42979E-07         0.39581E-20         0.00000E+00
    0.42979E-07         0.83819E-20         0.00000E+00
    0.42979E-07        -0.10245E-19         0.00000E+00
    0.42979E-07         0.46566E-21         0.00000E+00
    0.42979E-07         0.17462E-19         0.00000E+00
    0.42979E-07         0.11874E-19         0.00000E+00
    0.42979E-07         0.46566E-20         0.00000E+00
    0.42979E-07         0.48894E-20         0.00000E+00
    0.42979E-07         0.37253E-20         0.00000E+00
    0.42979E-07         0.41910E-20         0.00000E+00
    0.42979E-07        -0.16298E-19         0.00000E+00
    0.42979E-07        -0.27008E-19         0.00000E+00
    0.42979E-07        -0.74506E-20         0.00000E+00
    0.42979E-07        -0.25844E-19         0.00000E+00
    0.42979E-07        -0.16764E-19         0.00000E+00
    0.42979E-07        -0.14435E-19         0.00000E+00
    0.42979E-07        -0.30268E-19         0.00000E+00
    0.42979E-07        -0.22817E-19         0.00000E+00
    0.42979E-07        -0.13504E-19         0.00000E+00
    0.42979E-07        -0.25146E-19         0.00000E+00
    0.42979E-07        -0.18161E-19         0.00000E+00
    0.42979E-07        -0.42375E-19         0.00000E+00
    0.42979E-07        -0.47032E-19         0.00000E+00
    0.42979E-07        -0.33528E-19         0.00000E+00
    0.42979E-07        -0.43306E-19         0.00000E+00
    0.42979E-07        -0.31665E-19         0.00000E+00
    0.42979E-07        -0.40047E-19         0.00000E+00
    0.42979E-07        -0.51223E-19         0.00000E+00
    0.42979E-07        -0.46566E-19         0.00000E+00
    0.42979E-07        -0.31432E-19         0.00000E+00
    0.42979E-07        -0.33528E-19         0.00000E+00
    0.42979E-07        -0.40047E-19         0.00000E+00
    0.42979E-07        -0.20023E-19         0.00000E+00
    0.42979E-07        -0.14435E-19         0.00000E+00
    0.42979E-07        -0.74506E-20         0.00000E+00
    0.42979E-07        -0.18859E-19         0.00000E+00
    0.42979E-07        -0.48894E-20         0.00000E+00
    0.42979E-07        -0.83819E-20         0.00000E+00
    0.42979E-07        -0.58208E-20         0.00000E+00
    0.42979E-07        -0.32596E-20         0.00000E+00
    0.42979E-07        -0.69849E-21         0.00000E+00
    0.42979E-07        -0.27940E-20         0.00000E+00
    0.42979E-07        -0.13039E-19         0.00000E+00
    0.42979E-07        -0.15832E-19         0.00000E+00
    0.42979E-07        -0.69849E-20         0.00000E+00
    0.42979E-07         0.23283E-20         0.00000E+00
    0.42979E-07         0.12107E-19         0.00000E+00
    0.42979E-07         0.44238E-20         0.00000E+00
    0.41565E-07         0.79162E-20         0.00000E+00
    0.41565E-07        -0.55879E-20         0.00000E+00
    0.41565E-07        -0.37253E-20         0.00000E+00
    0.41565E-07        -0.13970E-19         0.00000E+00
    0.41565E-07        -0.16298E-19         0.00000E+00
    0.41565E-07        -0.17695E-19         0.00000E+00
    0.41565E-07         0.41910E-20         0.00000E+00
    0.41565E-07         0.93132E-21         0.00000E+00
    0.41565E-07         0.13970E-20         0.00000E+00
    0.41565E-07        -0.51223E-20         0.00000E+00
    0.41565E-07        -0.14901E-19         0.00000E+00
    0.41565E-07        -0.12806E-19         0.00000E+00
    0.41565E-07        -0.24214E-19         0.00000E+00
    0.41565E-07        -0.22817E-19         0.00000E+00
    0.41565E-07        -0.11874E-19         0.00000E+00
    0.41565E-07        -0.17695E-19         0.00000E+00
    0.41565E-07        -0.30268E-19         0.00000E+00
    0.41565E-07        -0.29802E-19         0.00000E+00
    0.41565E-07        -0.28405E-19         0.00000E+00
    0.41565E-07        -0.18161E-19         0.00000E+00
    0.41565E-07        -0.16065E-19         0.00000E+00
    0.41565E-07        -0.20955E-19         0.00000E+00
    0.41565E-07        -0.16764E-19         0.00000E+00
    0.41565E-07        -0.93132E-20         0.00000E+00
    0.41565E-07        -0.15367E-19         0.00000E+00
    0.41565E-07        -0.22585E-19         0.00000E+00
    0.41565E-07        -0.33062E-19         0.00000E+00
    0.41565E-07        -0.79162E-20         0.00000E+00
    0.41565E-07        -0.11642E-19         0.00000E+00
    0.41565E-07        -0.21188E-19         0.00000E+00
    0.41565E-07        -0.28405E-19         0.00000E+00
    0.41565E-07        -0.34692E-19         0.00000E+00
    0.41565E-07        -0.38417E-19         0.00000E+00
    0.41565E-07        -0.32131E-19         0.00000E+00
    0.41565E-07        -0.29802E-19         0.00000E+00
    0.41565E-07        -0.22352E-19         0.00000E+00
    0.41565E-07        -0.88476E-20         0.00000E+00
    0.41565E-07        -0.86147E-20         0.00000E+00
    0.41565E-07        -0.41910E-20         0.00000E+00
    0.41565E-07        -0.13970E-19         0.00000E+00
    0.41565E-07        -0.23283E-21         0.00000E+00
    0.41565E-07         0.27940E-20         0.00000E+00
    0.41565E-07        -0.32596E-20         0.00000E+00
    0.41565E-07         0.93132E-21         0.00000E+00
    0.41565E-07         0.48894E-20         0.00000E+00
    0.41565E-07         0.69849E-21         0.00000E+00
    0.41565E-07         0.23283E-20         0.00000E+00
    0.41565E-07        -0.32596E-20         0.00000E+00
    0.41565E-07        -0.93132E-21         0.00000E+00
    0.41565E-07         0.25611E-20         0.00000E+00
    0.40163E-07        -0.23283E-20         0.00000E+00
    0.40163E-07        -0.16298E-20         0.00000E+00
    0.40163E-07        -0.76834E-20         0.00000E+00
    0.40163E-07        -0.83819E-20         0.00000E+00
    0.40163E-07         0.65193E-20         0.00000E+00
    0.40163E-07         0.41910E-20         0.00000E+00
    0.40163E-07        -0.19092E-19         0.00000E+00
    0.40163E-07        -0.11176E-19         0.00000E+00
    0.40163E-07        -0.11176E-19         0.00000E+00
    0.40163E-07        -0.95461E-20         0.00000E+00
    0.40163E-07        -0.17928E-19         0.00000E+00
    0.40163E-07        -0.28871E-19         0.00000E+00
    0.40163E-07        -0.18394E-19         0.00000E+00
    0.40163E-07        -0.16298E-19         0.00000E+00
    0.40163E-07        -0.17229E-19         0.00000E+00
    0.40163E-07        -0.16298E-19         0.00000E+00
    0.40163E-07        -0.13970E-19         0.00000E+00
    0.40163E-07        -0.14435E-19         0.00000E+00
    0.40163E-07        -0.28405E-19         0.00000E+00
    0.40163E-07        -0.21420E-19         0.00000E+00
    0.40163E-07        -0.27940E-19         0.00000E+00
    0.40163E-07        -0.18626E-20         0.00000E+00
    0.40163E-07        -0.21886E-19         0.00000E+00
    0.40163E-07        -0.32596E-20         0.00000E+00
    0.40163E-07        -0.65193E-20         0.00000E+00
    0.40163E-07        -0.24680E-19         0.00000E+00
    0.40163E-07        -0.10477E-19         0.00000E+00
    0.40163E-07        -0.51223E-20         0.00000E+00
    0.40163E-07         0.41910E-20         0.00000E+00
    0.40163E-07        -0.37253E-20         0.00000E+00
    0.40163E-07        -0.79162E-20         0.00000E+00
    0.40163E-07        -0.14435E-19         0.00000E+00
    0.40163E-07        -0.23283E-19         0.00000E+00
    0.40163E-07        -0.20489E-19         0.00000E+00
    0.40163E-07        -0.27707E-19         0.00000E+00
    0.40163E-07        -0.20023E-19         0.00000E+00
    0.40163E-07        -0.13970E-19         0.00000E+00
    0.40163E-07        -0.74506E-20         0.00000E+00
    0.40163E-07        -0.83819E-20         0.00000E+00
    0.40163E-07        -0.69849E-21         0.00000E+00
    0.40163E-07         0.30268E-20         0.00000E+00
    0.40163E-07        -0.18626E-20         0.00000E+00
    0.40163E-07         0.60536E-20         0.00000E+00
    0.40163E-07         0.00000E+00         0.00000E+00
    0.40163E-07         0.19092E-19         0.00000E+00
    0.40163E-07         0.37253E-20         0.00000E+00
    0.40163E-07         0.95461E-20         0.00000E+00
    0.40163E-07        -0.13970E-20         0.00000E+00
    0.40163E-07        -0.46566E-20         0.00000E+00
    0.40163E-07        -0.60536E-20         0.00000E+00
    0.38781E-07        -0.46566E-20         0.00000E+00
    0.38781E-07        -0.53551E-20         0.00000E+00
    0.38781E-07        -0.25611E-20         0.00000E+00
    0.38781E-07         0.10710E-19         0.00000E+00
    0.38781E-07         0.69849E-20         0.00000E+00
    0.38781E-07         0.00000E+00         0.00000E+00
    0.38781E-07        -0.16298E-19         0.00000E+00
    0.38781E-07        -0.21886E-19         0.00000E+00
    0.38781E-07        -0.20955E-19         0.00000E+00
    0.38781E-07        -0.19558E-19         0.00000E+00
    0.38781E-07        -0.90804E-20         0.00000E+00
    0.38781E-07        -0.15832E-19         0.00000E+00
    0.38781E-07        -0.21420E-19         0.00000E+00
    0.38781E-07        -0.16298E-19         0.00000E+00
    0.38781E-07        -0.83819E-20         0.00000E+00
    0.38781E-07        -0.20023E-19         0.00000E+00
    0.38781E-07        -0.11642E-19         0.00000E+00
    0.38781E-07        -0.32596E-20         0.00000E+00
    0.38781E-07        -0.69849E-20         0.00000E+00
    0.38781E-07        -0.93132E-20         0.00000E+00
    0.38781E-07         0.46566E-21         0.00000E+00
    0.38781E-07         0.93132E-20         0.00000E+00
    0.38781E-07        -0.93132E-20         0.00000E+00
    0.38781E-07        -0.12573E-19         0.00000E+00
    0.38781E-07        -0.18161E-19         0.00000E+00
    0.38781E-07        -0.24214E-19         0.00000E+00
    0.38781E-07        -0.22817E-19         0.00000E+00
    0.38781E-07        -0.19558E-19         0.00000E+00
    0.38781E-07        -0.17462E-19         0.00000E+00
    0.38781E-07        -0.23283E-20         0.00000E+00
    0.38781E-07        -0.23283E-20         0.00000E+00
    0.38781E-07        -0.14435E-19         0.00000E+00
    0.38781E-07        -0.14435E-19         0.00000E+00
    0.38781E-07        -0.41910E-20         0.00000E+00
    0.38781E-07        -0.69849E-21         0.00000E+00
    0.38781E-07        -0.97789E-20         0.00000E+00
    0.38781E-07        -0.13039E-19         0.00000E+00
    0.38781E-07        -0.19092E-19         0.00000E+00
    0.38781E-07        -0.18859E-19         0.00000E+00
    0.38781E-07        -0.11874E-19         0.00000E+00
    0.38781E-07        -0.18626E-20         0.00000E+00
    0.38781E-07         0.11642E-19         0.00000E+00
    0.38781E-07         0.13504E-19         0.00000E+00
    0.38781E-07         0.93132E-20         0.00000E+00
    0.38781E-07         0.18626E-19         0.00000E+00
    0.38781E-07         0.93132E-20         0.00000E+00
    0.38781E-07         0.69849E-20         0.00000E+00
    0.38781E-07         0.11176E-19         0.00000E+00
    0.38781E-07        -0.74506E-20         0.00000E+00
    0.38781E-07        -0.53551E-20         0.00000E+00
    0.37423E-07         0.00000E+00         0.00000E+00
    0.37423E-07        -0.93132E-21         0.00000E+00
    0.37423E-07        -0.18626E-20         0.00000E+00
    0.37423E-07        -0.79162E-20         0.00000E+00
    0.37423E-07        -0.10245E-19         0.00000E+00
    0.37423E-07        -0.16764E-19         0.00000E+00
    0.37423E-07        -0.97789E-20         0.00000E+00
    0.37423E-07        -0.11642E-19         0.00000E+00
    0.37423E-07        -0.13970E-19         0.00000E+00
    0.37423E-07        -0.83819E-20         0.00000E+00
    0.37423E-07        -0.60536E-20         0.00000E+00
    0.37423E-07        -0.60536E-20         0.00000E+00
    0.37423E-07        -0.11176E-19         0.00000E+00
    0.37423E-07        -0.55879E-20         0.00000E+00
    0.37423E-07         0.41910E-20         0.00000E+00
    0.37423E-07        -0.10710E-19         0.00000E+00
    0.37423E-07        -0.17229E-19         0.00000E+00
    0.37423E-07         0.46566E-21         0.00000E+00
    0.37423E-07         0.10012E-19         0.00000E+00
    0.37423E-07         0.18626E-20         0.00000E+00
    0.37423E-07         0.69849E-20         0.00000E+00
    0.37423E-07         0.23283E-20         0.00000E+00
    0.37423E-07         0.46566E-21         0.00000E+00
    0.37423E-07        -0.27940E-20         0.00000E+00
    0.37423E-07        -0.93132E-21         0.00000E+00
    0.37423E-07         0.00000E+00         0.00000E+00
    0.37423E-07        -0.12573E-19         0.00000E+00
    0.37423E-07        -0.16298E-19         0.00000E+00
    0.37423E-07        -0.21886E-19         0.00000E+00
    0.37423E-07        -0.15832E-19         0.00000E+00
    0.37423E-07        -0.16298E-19         0.00000E+00
    0.37423E-07        -0.24214E-19         0.00000E+00
    0.37423E-07        -0.17695E-19         0.00000E+00
    0.37423E-07        -0.14901E-19         0.00000E+00
    0.37423E-07        -0.12573E-19         0.00000E+00
    0.37423E-07        -0.13504E-19         0.00000E+00
    0.37423E-07        -0.97789E-20         0.00000E+00
    0.37423E-07        -0.12107E-19         0.00000E+00
    0.37423E-07        -0.15367E-19         0.00000E+00
    0.37423E-07        -0.23283E-19         0.00000E+00
    0.37423E-07         0.46566E-21         0.00000E+00
    0.37423E-07         0.46566E-20         0.00000E+00
    0.37423E-07         0.83819E-20         0.00000E+00
    0.37423E-07         0.13970E-19         0.00000E+00
    0.37423E-07         0.00000E+00         0.00000E+00
    0.37423E-07         0.93132E-20         0.00000E+00
    0.37423E-07         0.74506E-20         0.00000E+00
    0.37423E-07         0.19092E-19         0.00000E+00
    0.37423E-07         0.69849E-20         0.00000E+00
    0.37423E-07        -0.23283E-20         0.00000E+00
    0.36097E-07        -0.11642E-20         0.00000E+00
    0.36097E-07        -0.14668E-19         0.00000E+00
    0.36097E-07        -0.16764E-19         0.00000E+00
    0.36097E-07        -0.23283E-19         0.00000E+00
    0.36097E-07        -0.11176E-19         0.00000E+00
    0.36097E-07        -0.14901E-19         0.00000E+00
    0.36097E-07        -0.13504E-19         0.00000E+00
    0.36097E-07        -0.11642E-20         0.00000E+00
    0.36097E-07         0.93132E-21         0.00000E+00
    0.36097E-07         0.15367E-19         0.00000E+00
    0.36097E-07         0.14901E-19         0.00000E+00
    0.36097E-07         0.60536E-20         0.00000E+00
    0.36097E-07         0.23283E-20         0.00000E+00
    0.36097E-07         0.11642E-19         0.00000E+00
    0.36097E-07         0.93132E-20         0.00000E+00
    0.36097E-07         0.00000E+00         0.00000E+00
    0.36097E-07         0.13039E-19         0.00000E+00
    0.36097E-07         0.88476E-20         0.00000E+00
    0.36097E-07         0.46566E-20         0.00000E+00
    0.36097E-07         0.46566E-20         0.00000E+00
    0.36097E-07         0.55879E-20         0.00000E+00
    0.36097E-07         0.37253E-20         0.00000E+00
    0.36097E-07        -0.14435E-19         0.00000E+00
    0.36097E-07        -0.97789E-20         0.00000E+00
    0.36097E-07        -0.37253E-20         0.00000E+00
    0.36097E-07        -0.13970E-20         0.00000E+00
    0.36097E-07         0.18626E-20         0.00000E+00
    0.36097E-07        -0.74506E-20         0.00000E+00
    0.36097E-07        -0.55879E-20         0.00000E+00
    0.36097E-07        -0.12107E-19         0.00000E+00
    0.36097E-07        -0.74506E-20         0.00000E+00
    0.36097E-07        -0.14435E-19         0.00000E+00
    0.36097E-07        -0.27008E-19         0.00000E+00
    0.36097E-07        -0.20955E-19         0.00000E+00
    0.36097E-07        -0.30501E-19         0.00000E+00
    0.36097E-07        -0.17695E-19         0.00000E+00
    0.36097E-07        -0.18161E-19         0.00000E+00
    0.36097E-07        -0.18626E-19         0.00000E+00
    0.36097E-07        -0.20023E-19         0.00000E+00
    0.36097E-07        -0.20722E-19         0.00000E+00
    0.36097E-07        -0.97789E-20         0.00000E+00
    0.36097E-07        -0.74506E-20         0.00000E+00
    0.36097E-07        -0.32596E-20         0.00000E+00
    0.36097E-07         0.74506E-20         0.00000E+00
    0.36097E-07         0.18626E-20         0.00000E+00
    0.36097E-07         0.46566E-20         0.00000E+00
    0.36097E-07         0.67521E-20         0.00000E+00
    0.36097E-07         0.27940E-20         0.00000E+00
    0.36097E-07         0.62864E-20         0.00000E+00
    0.36097E-07        -0.18626E-20         0.00000E+00
    0.34806E-07        -0.13970E-20         0.00000E+00
    0.34806E-07        -0.37253E-20         0.00000E+00
    0.34806E-07         0.23283E-20         0.00000E+00
    0.34806E-07        -0.90804E-20         0.00000E+00
    0.34806E-07         0.25611E-20         0.00000E+00
    0.34806E-07         0.65193E-20         0.00000E+00
    0.34806E-07         0.16298E-20         0.00000E+00
    0.34806E-07         0.55879E-20         0.00000E+00
    0.34806E-07         0.18626E-20         0.00000E+00
    0.34806E-07         0.93132E-20         0.00000E+00
    0.34806E-07         0.18859E-19         0.00000E+00
    0.34806E-07         0.17695E-19         0.00000E+00
    0.34806E-07         0.15600E-19         0.00000E+00
    0.34806E-07         0.24913E-19         0.00000E+00
    0.34806E-07         0.00000E+00         0.00000E+00
    0.34806E-07         0.10710E-19         0.00000E+00
    0.34806E-07         0.30268E-19         0.00000E+00
    0.34806E-07         0.19558E-19         0.00000E+00
    0.34806E-07         0.12107E-19         0.00000E+00
    0.34806E-07         0.13970E-19         0.00000E+00
    0.34806E-07         0.21886E-19         0.00000E+00
    0.34806E-07         0.88476E-20         0.00000E+00
    0.34806E-07        -0.55879E-20         0.00000E+00
    0.34806E-07        -0.20023E-19         0.00000E+00
    0.34806E-07        -0.20955E-19         0.00000E+00
    0.34806E-07        -0.12573E-19         0.00000E+00
    0.34806E-07        -0.93132E-20         0.00000E+00
    0.34806E-07        -0.11642E-19         0.00000E+00
    0.34806E-07        -0.23283E-20         0.00000E+00
    0.34806E-07        -0.72177E-20         0.00000E+00
    0.34806E-07        -0.16764E-19         0.00000E+00
    0.34806E-07        -0.17229E-19         0.00000E+00
    0.34806E-07        -0.17229E-19         0.00000E+00
    0.34806E-07         0.51223E-20         0.00000E+00
    0.34806E-07        -0.19092E-19         0.00000E+00
    0.34806E-07        -0.16298E-19         0.00000E+00
    0.34806E-07        -0.17462E-19         0.00000E+00
    0.34806E-07        -0.14435E-19         0.00000E+00
    0.34806E-07        -0.65193E-20         0.00000E+00
    0.34806E-07        -0.16764E-19         0.00000E+00
    0.34806E-07         0.32596E-20         0.00000E+00
    0.34806E-07        -0.34925E-20         0.00000E+00
    0.34806E-07        -0.12573E-19         0.00000E+00
    0.34806E-07        -0.88476E-20         0.00000E+00
    0.34806E-07         0.00000E+00         0.00000E+00
    0.34806E-07         0.46566E-20         0.00000E+00
    0.34806E-07         0.62864E-20         0.00000E+00
    0.34806E-07         0.11642E-20         0.00000E+00
    0.34806E-07        -0.34925E-20         0.00000E+00
    0.34806E-07        -0.41910E-20         0.00000E+00
    0.33556E-07         0.95461E-20         0.00000E+00
    0.33556E-07         0.79162E-20         0.00000E+00
    0.33556E-07         0.15832E-19         0.00000E+00
    0.33556E-07         0.13271E-19         0.00000E+00
    0.33556E-07        -0.23283E-21         0.00000E+00
    0.33556E-07         0.16298E-19         0.00000E+00
    0.33556E-07         0.17695E-19         0.00000E+00
    0.33556E-07         0.16298E-19         0.00000E+00
    0.33556E-07         0.15832E-19         0.00000E+00
    0.33556E-07         0.93132E-21         0.00000E+00
    0.33556E-07         0.51223E-20         0.00000E+00
    0.33556E-07         0.22352E-19         0.00000E+00
    0.33556E-07         0.81491E-20         0.00000E+00
    0.33556E-07         0.79162E-20         0.00000E+00
    0.33556E-07         0.15134E-19         0.00000E+00
    0.33556E-07         0.10245E-19         0.00000E+00
    0.33556E-07         0.23283E-19         0.00000E+00
    0.33556E-07         0.27008E-19         0.00000E+00
    0.33556E-07         0.19558E-19         0.00000E+00
    0.33556E-07         0.10943E-19         0.00000E+00
    0.33556E-07         0.10477E-19         0.00000E+00
    0.33556E-07         0.51223E-20         0.00000E+00
    0.33556E-07         0.11642E-19         0.00000E+00
    0.33556E-07        -0.60536E-20         0.00000E+00
    0.33556E-07        -0.16298E-19         0.00000E+00
    0.33556E-07        -0.12340E-19         0.00000E+00
    0.33556E-07        -0.93132E-20         0.00000E+00
    0.33556E-07        -0.69849E-20         0.00000E+00
    0.33556E-07        -0.11874E-19         0.00000E+00
    0.33556E-07        -0.11874E-19         0.00000E+00
    0.33556E-07        -0.17928E-19         0.00000E+00
    0.33556E-07        -0.10710E-19         0.00000E+00
    0.33556E-07        -0.13970E-19         0.00000E+00
    0.33556E-07        -0.65193E-20         0.00000E+00
    0.33556E-07        -0.11176E-19         0.00000E+00
    0.33556E-07         0.83819E-20         0.00000E+00
    0.33556E-07        -0.23283E-21         0.00000E+00
    0.33556E-07         0.10477E-19         0.00000E+00
    0.33556E-07         0.13970E-19         0.00000E+00
    0.33556E-07         0.16065E-19         0.00000E+00
    0.33556E-07         0.12107E-19         0.00000E+00
    0.33556E-07         0.10012E-19         0.00000E+00
    0.33556E-07        -0.97789E-20         0.00000E+00
    0.33556E-07        -0.97789E-20         0.00000E+00
    0.33556E-07        -0.12806E-19         0.00000E+00
    0.33556E-07        -0.13970E-19         0.00000E+00
    0.33556E-07        -0.17229E-19         0.00000E+00
    0.33556E-07        -0.10477E-19         0.00000E+00
    0.33556E-07        -0.37253E-20         0.00000E+00
    0.33556E-07        -0.37253E-20         0.00000E+00
    0.32351E-07         0.51223E-20         0.00000E+00
    0.32351E-07         0.48894E-20         0.00000E+00
    0.32351E-07        -0.23283E-21         0.00000E+00
    0.32351E-07         0.93132E-20         0.00000E+00
    0.32351E-07         0.27940E-20         0.00000E+00
    0.32351E-07         0.69849E-20         0.00000E+00
    0.32351E-07         0.95461E-20         0.00000E+00
    0.32351E-07         0.10012E-19         0.00000E+00
    0.32351E-07         0.69849E-20         0.00000E+00
    0.32351E-07         0.23283E-20         0.00000E+00
    0.32351E-07         0.69849E-20         0.00000E+00
    0.32351E-07        -0.20955E-20         0.00000E+00
    0.32351E-07         0.83819E-20         0.00000E+00
    0.32351E-07         0.21420E-19         0.00000E+00
    0.32351E-07         0.24214E-19         0.00000E+00
    0.32351E-07         0.21420E-19         0.00000E+00
    0.32351E-07         0.27008E-19         0.00000E+00
    0.32351E-07         0.27707E-19         0.00000E+00
    0.32351E-07         0.17695E-19         0.00000E+00
    0.32351E-07         0.25611E-20         0.00000E+00
    0.32351E-07        -0.13970E-20         0.00000E+00
    0.32351E-07        -0.20722E-19         0.00000E+00
    0.32351E-07        -0.51223E-20         0.00000E+00
    0.32351E-07        -0.46566E-21         0.00000E+00
    0.32351E-07         0.46566E-20         0.00000E+00
    0.32351E-07         0.13970E-20         0.00000E+00
    0.32351E-07         0.69849E-20         0.00000E+00
    0.32351E-07         0.27940E-20         0.00000E+00
    0.32351E-07        -0.22817E-19         0.00000E+00
    0.32351E-07        -0.20489E-19         0.00000E+00
    0.32351E-07         0.32596E-20         0.00000E+00
    0.32351E-07         0.10477E-19         0.00000E+00
    0.32351E-07        -0.14668E-19         0.00000E+00
    0.32351E-07        -0.83819E-20         0.00000E+00
    0.32351E-07        -0.69849E-20         0.00000E+00
    0.32351E-07         0.69849E-20         0.00000E+00
    0.32351E-07        -0.32596E-20         0.00000E+00
    0.32351E-07         0.13039E-19         0.00000E+00
    0.32351E-07         0.14435E-19         0.00000E+00
    0.32351E-07         0.15134E-19         0.00000E+00
    0.32351E-07         0.60536E-20         0.00000E+00
    0.32351E-07         0.88476E-20         0.00000E+00
    0.32351E-07         0.93132E-20         0.00000E+00
    0.32351E-07         0.16764E-19         0.00000E+00
    0.32351E-07        -0.32596E-20         0.00000E+00
    0.32351E-07         0.12107E-19         0.00000E+00
    0.32351E-07        -0.12573E-19         0.00000E+00
    0.32351E-07        -0.10710E-19         0.00000E+00
    0.32351E-07        -0.27940E-20         0.00000E+00
    0.32351E-07        -0.65193E-20         0.00000E+00
    0.31197E-07        -0.41910E-20         0.00000E+00
    0.31197E-07         0.88476E-20         0.00000E+00
    0.31197E-07         0.60536E-20         0.00000E+00
    0.31197E-07        -0.37253E-20         0.00000E+00
    0.31197E-07         0.17928E-19         0.00000E+00
    0.31197E-07         0.14203E-19         0.00000E+00
    0.31197E-07         0.83819E-20         0.00000E+00
    0.31197E-07         0.53551E-20         0.00000E+00
    0.31197E-07         0.58208E-20         0.00000E+00
    0.31197E-07         0.79162E-20         0.00000E+00
    0.31197E-07         0.23283E-20         0.00000E+00
    0.31197E-07        -0.55879E-20         0.00000E+00
    0.31197E-07         0.17928E-19         0.00000E+00
    0.31197E-07         0.31898E-19         0.00000E+00
    0.31197E-07         0.13504E-19         0.00000E+00
    0.31197E-07         0.16997E-19         0.00000E+00
    0.31197E-07         0.83819E-20         0.00000E+00
    0.31197E-07         0.13970E-20         0.00000E+00
    0.31197E-07        -0.18626E-20         0.00000E+00
    0.31197E-07        -0.46566E-20         0.00000E+00
    0.31197E-07        -0.23283E-20         0.00000E+00
    0.31197E-07        -0.18626E-20         0.00000E+00
    0.31197E-07         0.23283E-20         0.00000E+00
    0.31197E-07        -0.93132E-21         0.00000E+00
    0.31197E-07         0.69849E-20         0.00000E+00
    0.31197E-07         0.88476E-20         0.00000E+00
    0.31197E-07         0.25611E-20         0.00000E+00
    0.31197E-07         0.23283E-21         0.00000E+00
    0.31197E-07        -0.41910E-20         0.00000E+00
    0.31197E-07        -0.46566E-20         0.00000E+00
    0.31197E-07         0.13504E-19         0.00000E+00
    0.31197E-07         0.10477E-19         0.00000E+00
    0.31197E-07         0.30268E-20         0.00000E+00
    0.31197E-07        -0.13970E-20         0.00000E+00
    0.31197E-07        -0.13504E-19         0.00000E+00
    0.31197E-07        -0.17695E-19         0.00000E+00
    0.31197E-07        -0.10710E-19         0.00000E+00
    0.31197E-07        -0.46566E-21         0.00000E+00
    0.31197E-07         0.27940E-20         0.00000E+00
    0.31197E-07         0.97789E-20         0.00000E+00
    0.31197E-07         0.79162E-20         0.00000E+00
    0.31197E-07        -0.41910E-20         0.00000E+00
    0.31197E-07         0.22817E-19         0.00000E+00
    0.31197E-07         0.25379E-19         0.00000E+00
    0.31197E-07         0.13039E-19         0.00000E+00
    0.31197E-07         0.24913E-19         0.00000E+00
    0.31197E-07         0.93132E-20         0.00000E+00
    0.31197E-07         0.16298E-20         0.00000E+00
    0.31197E-07        -0.32596E-20         0.00000E+00
    0.31197E-07        -0.65193E-20         0.00000E+00
    0.30096E-07        -0.23283E-20         0.00000E+00
    0.30096E-07         0.16298E-19         0.00000E+00
    0.30096E-07         0.23283E-20         0.00000E+00
    0.30096E-07        -0.41910E-20         0.00000E+00
    0.30096E-07         0.00000E+00         0.00000E+00
    0.30096E-07         0.58208E-20         0.00000E+00
    0.30096E-07         0.13970E-19         0.00000E+00
    0.30096E-07         0.11642E-19         0.00000E+00
    0.30096E-07         0.11176E-19         0.00000E+00
    0.30096E-07         0.12107E-19         0.00000E+00
    0.30096E-07         0.13970E-19         0.00000E+00
    0.30096E-07         0.18161E-19         0.00000E+00
    0.30096E-07         0.16764E-19         0.00000E+00
    0.30096E-07         0.10710E-19         0.00000E+00
    0.30096E-07         0.27940E-20         0.00000E+00
    0.30096E-07        -0.74506E-20         0.00000E+00
    0.30096E-07        -0.37253E-20         0.00000E+00
    0.30096E-07        -0.14435E-19         0.00000E+00
    0.30096E-07        -0.13970E-20         0.00000E+00
    0.30096E-07         0.93132E-20         0.00000E+00
    0.30096E-07         0.46566E-20         0.00000E+00
    0.30096E-07         0.21886E-19         0.00000E+00
    0.30096E-07         0.74506E-20         0.00000E+00
    0.30096E-07         0.13504E-19         0.00000E+00
    0.30096E-07         0.11409E-19         0.00000E+00
    0.30096E-07         0.86147E-20         0.00000E+00
    0.30096E-07         0.13970E-19         0.00000E+00
    0.30096E-07         0.74506E-20         0.00000E+00
    0.30096E-07         0.74506E-20         0.00000E+00
    0.30096E-07         0.93132E-21         0.00000E+00
    0.30096E-07         0.83819E-20         0.00000E+00
    0.30096E-07        -0.88476E-20         0.00000E+00
    0.30096E-07        -0.37253E-20         0.00000E+00
    0.30096E-07        -0.14901E-19         0.00000E+00
    0.30096E-07        -0.46566E-20         0.00000E+00
    0.30096E-07        -0.16298E-19         0.00000E+00
    0.30096E-07        -0.55879E-20         0.00000E+00
    0.30096E-07        -0.16298E-19         0.00000E+00
    0.30096E-07        -0.11642E-19         0.00000E+00
    0.30096E-07         0.16764E-19         0.00000E+00
    0.30096E-07         0.97789E-20         0.00000E+00
    0.30096E-07         0.41910E-20         0.00000E+00
    0.30096E-07         0.88476E-20         0.00000E+00
    0.30096E-07         0.16997E-19         0.00000E+00
    0.30096E-07         0.20489E-19         0.00000E+00
    0.30096E-07         0.16764E-19         0.00000E+00
    0.30096E-07         0.60536E-20         0.00000E+00
    0.30096E-07        -0.23283E-20         0.00000E+00
    0.30096E-07        -0.46566E-20         0.00000E+00
    0.30096E-07        -0.46566E-21         0.00000E+00
    0.29054E-07        -0.11642E-20         0.00000E+00
    0.29054E-07         0.81491E-20         0.00000E+00
    0.29054E-07        -0.13039E-19         0.00000E+00
    0.29054E-07        -0.46566E-20         0.00000E+00
    0.29054E-07        -0.13504E-19         0.00000E+00
    0.29054E-07        -0.17695E-19         0.00000E+00
    0.29054E-07         0.18626E-20         0.00000E+00
    0.29054E-07         0.11642E-19         0.00000E+00
    0.29054E-07         0.69849E-20         0.00000E+00
    0.29054E-07         0.55879E-20         0.00000E+00
    0.29054E-07         0.18626E-20         0.00000E+00
    0.29054E-07         0.12806E-19         0.00000E+00
    0.29054E-07         0.32596E-20         0.00000E+00
    0.29054E-07         0.16531E-19         0.00000E+00
    0.29054E-07         0.10012E-19         0.00000E+00
    0.29054E-07         0.83819E-20         0.00000E+00
    0.29054E-07         0.18161E-19         0.00000E+00
    0.29054E-07         0.19791E-19         0.00000E+00
    0.29054E-07         0.88476E-20         0.00000E+00
    0.29054E-07         0.46566E-20         0.00000E+00
    0.29054E-07         0.79162E-20         0.00000E+00
    0.29054E-07         0.41910E-20         0.00000E+00
    0.29054E-07         0.23283E-20         0.00000E+00
    0.29054E-07         0.13271E-19         0.00000E+00
    0.29054E-07         0.20955E-19         0.00000E+00
    0.29054E-07         0.17462E-19         0.00000E+00
    0.29054E-07         0.17462E-19         0.00000E+00
    0.29054E-07         0.41910E-20         0.00000E+00
    0.29054E-07        -0.41910E-20         0.00000E+00
    0.29054E-07        -0.46566E-20         0.00000E+00
    0.29054E-07        -0.65193E-20         0.00000E+00
    0.29054E-07        -0.20722E-19         0.00000E+00
    0.29054E-07        -0.15832E-19         0.00000E+00
    0.29054E-07         0.13970E-20         0.00000E+00
    0.29054E-07        -0.79162E-20         0.00000E+00
    0.29054E-07        -0.13504E-19         0.00000E+00
    0.29054E-07        -0.79162E-20         0.00000E+00
    0.29054E-07        -0.14901E-19         0.00000E+00
    0.29054E-07        -0.97789E-20         0.00000E+00
    0.29054E-07         0.60536E-20         0.00000E+00
    0.29054E-07         0.18161E-19         0.00000E+00
    0.29054E-07         0.39581E-20         0.00000E+00
    0.29054E-07         0.27940E-20         0.00000E+00
    0.29054E-07         0.51223E-20         0.00000E+00
    0.29054E-07         0.13504E-19         0.00000E+00
    0.29054E-07         0.14901E-19         0.00000E+00
    0.29054E-07         0.88476E-20         0.00000E+00
    0.29054E-07         0.55879E-20         0.00000E+00
    0.29054E-07        -0.46566E-21         0.00000E+00
    0.29054E-07         0.37253E-20         0.00000E+00
    0.28073E-07         0.00000E+00         0.00000E+00
    0.28073E-07        -0.18161E-19         0.00000E+00
    0.28073E-07        -0.62864E-20         0.00000E+00
    0.28073E-07        -0.10245E-19         0.00000E+00
    0.28073E-07        -0.13039E-19         0.00000E+00
    0.28073E-07        -0.83819E-20         0.00000E+00
    0.28073E-07        -0.27940E-20         0.00000E+00
    0.28073E-07        -0.51223E-20         0.00000E+00
    0.28073E-07         0.37253E-20         0.00000E+00
    0.28073E-07        -0.25611E-20         0.00000E+00
    0.28073E-07        -0.55879E-20         0.00000E+00
    0.28073E-07         0.46566E-21         0.00000E+00
    0.28073E-07        -0.74506E-20         0.00000E+00
    0.28073E-07         0.10710E-19         0.00000E+00
    0.28073E-07         0.27940E-20         0.00000E+00
    0.28073E-07         0.14203E-19         0.00000E+00
    0.28073E-07         0.23982E-19         0.00000E+00
    0.28073E-07         0.30268E-19         0.00000E+00
    0.28073E-07         0.17229E-19         0.00000E+00
    0.28073E-07         0.11176E-19         0.00000E+00
    0.28073E-07         0.14435E-19         0.00000E+00
    0.28073E-07        -0.79162E-20         0.00000E+00
    0.28073E-07        -0.32596E-20         0.00000E+00
    0.28073E-07        -0.23283E-21         0.00000E+00
    0.28073E-07         0.93132E-20         0.00000E+00
    0.28073E-07         0.13504E-19         0.00000E+00
    0.28073E-07         0.25611E-20         0.00000E+00
    0.28073E-07        -0.41910E-20         0.00000E+00
    0.28073E-07        -0.11176E-19         0.00000E+00
    0.28073E-07        -0.41910E-20         0.00000E+00
    0.28073E-07        -0.67521E-20         0.00000E+00
    0.28073E-07        -0.20256E-19         0.00000E+00
    0.28073E-07        -0.74506E-20         0.00000E+00
    0.28073E-07         0.46566E-21         0.00000E+00
    0.28073E-07         0.11642E-20         0.00000E+00
    0.28073E-07        -0.51223E-20         0.00000E+00
    0.28073E-07        -0.51223E-20         0.00000E+00
    0.28073E-07         0.46566E-20         0.00000E+00
    0.28073E-07        -0.13970E-19         0.00000E+00
    0.28073E-07        -0.65193E-20         0.00000E+00
    0.28073E-07         0.86147E-20         0.00000E+00
    0.28073E-07         0.30268E-20         0.00000E+00
    0.28073E-07         0.41910E-20         0.00000E+00
    0.28073E-07        -0.51223E-20         0.00000E+00
    0.28073E-07         0.27940E-20         0.00000E+00
    0.28073E-07        -0.46566E-20         0.00000E+00
    0.28073E-07         0.37253E-20         0.00000E+00
    0.28073E-07         0.25611E-20         0.00000E+00
    0.28073E-07         0.88476E-20         0.00000E+00
    0.28073E-07         0.00000E+00         0.00000E+00
    0.27158E-07         0.51223E-20         0.00000E+00
    0.27158E-07        -0.13970E-20         0.00000E+00
    0.27158E-07        -0.55879E-20         0.00000E+00
    0.27158E-07        -0.14435E-19         0.00000E+00
    0.27158E-07        -0.81491E-20         0.00000E+00
    0.27158E-07        -0.37253E-20         0.00000E+00
    0.27158E-07         0.18626E-20         0.00000E+00
    0.27158E-07        -0.93132E-21         0.00000E+00
    0.27158E-07        -0.83819E-20         0.00000E+00
    0.27158E-07        -0.72177E-20         0.00000E+00
    0.27158E-07         0.10245E-19         0.00000E+00
    0.27158E-07        -0.51223E-20         0.00000E+00
    0.27158E-07         0.37253E-20         0.00000E+00
    0.27158E-07         0.23283E-20         0.00000E+00
    0.27158E-07        -0.55879E-20         0.00000E+00
    0.27158E-07        -0.46566E-21         0.00000E+00
    0.27158E-07         0.97789E-20         0.00000E+00
    0.27158E-07         0.20023E-19         0.00000E+00
    0.27158E-07         0.11176E-19         0.00000E+00
    0.27158E-07         0.10710E-19         0.00000E+00
    0.27158E-07         0.37253E-20         0.00000E+00
    0.27158E-07        -0.12107E-19         0.00000E+00
    0.27158E-07         0.46566E-20         0.00000E+00
    0.27158E-07         0.55879E-20         0.00000E+00
    0.27158E-07         0.18626E-20         0.00000E+00
    0.27158E-07         0.41910E-20         0.00000E+00
    0.27158E-07        -0.30268E-20         0.00000E+00
    0.27158E-07        -0.51223E-20         0.00000E+00
    0.27158E-07        -0.93132E-20         0.00000E+00
    0.27158E-07        -0.25611E-19         0.00000E+00
    0.27158E-07        -0.15367E-19         0.00000E+00
    0.27158E-07        -0.86147E-20         0.00000E+00
    0.27158E-07        -0.18626E-20         0.00000E+00
    0.27158E-07        -0.69849E-21         0.00000E+00
    0.27158E-07         0.23283E-20         0.00000E+00
    0.27158E-07         0.69849E-20         0.00000E+00
    0.27158E-07         0.00000E+00         0.00000E+00
    0.27158E-07         0.32596E-20         0.00000E+00
    0.27158E-07        -0.13970E-19         0.00000E+00
    0.27158E-07        -0.55879E-20         0.00000E+00
    0.27158E-07        -0.11642E-20         0.00000E+00
    0.27158E-07         0.10710E-19         0.00000E+00
    0.27158E-07         0.10245E-19         0.00000E+00
    0.27158E-07         0.74506E-20         0.00000E+00
    0.27158E-07         0.11642E-20         0.00000E+00
    0.27158E-07         0.88476E-20         0.00000E+00
    0.27158E-07         0.95461E-20         0.00000E+00
    0.27158E-07        -0.51223E-20         0.00000E+00
    0.27158E-07         0.23283E-20         0.00000E+00
    0.27158E-07        -0.34925E-20         0.00000E+00
    0.26310E-07         0.60536E-20         0.00000E+00
    0.26310E-07         0.53551E-20         0.00000E+00
    0.26310E-07        -0.13970E-20         0.00000E+00
    0.26310E-07        -0.18626E-20         0.00000E+00
    0.26310E-07        -0.72177E-20         0.00000E+00
    0.26310E-07        -0.55879E-20         0.00000E+00
    0.26310E-07         0.74506E-20         0.00000E+00
    0.26310E-07        -0.93132E-21         0.00000E+00
    0.26310E-07        -0.60536E-20         0.00000E+00
    0.26310E-07        -0.93132E-20         0.00000E+00
    0.26310E-07        -0.13970E-20         0.00000E+00
    0.26310E-07         0.18626E-20         0.00000E+00
    0.26310E-07         0.46566E-21         0.00000E+00
    0.26310E-07         0.18626E-20         0.00000E+00
    0.26310E-07        -0.27940E-20         0.00000E+00
    0.26310E-07        -0.18626E-20         0.00000E+00
    0.26310E-07        -0.74506E-20         0.00000E+00
    0.26310E-07        -0.88476E-20         0.00000E+00
    0.26310E-07         0.00000E+00         0.00000E+00
    0.26310E-07         0.46566E-21         0.00000E+00
    0.26310E-07        -0.51223E-20         0.00000E+00
    0.26310E-07         0.37253E-20         0.00000E+00
    0.26310E-07         0.10245E-19         0.00000E+00
    0.26310E-07         0.41910E-20         0.00000E+00
    0.26310E-07         0.69849E-21         0.00000E+00
    0.26310E-07        -0.76834E-20         0.00000E+00
    0.26310E-07        -0.23283E-21         0.00000E+00
    0.26310E-07        -0.69849E-20         0.00000E+00
    0.26310E-07        -0.97789E-20         0.00000E+00
    0.26310E-07        -0.13039E-19         0.00000E+00
    0.26310E-07        -0.13504E-19         0.00000E+00
    0.26310E-07        -0.41910E-20         0.00000E+00
    0.26310E-07        -0.32596E-20         0.00000E+00
    0.26310E-07         0.32596E-20         0.00000E+00
    0.26310E-07        -0.18626E-20         0.00000E+00
    0.26310E-07         0.11642E-19         0.00000E+00
    0.26310E-07        -0.55879E-20         0.00000E+00
    0.26310E-07        -0.55879E-20         0.00000E+00
    0.26310E-07         0.55879E-20         0.00000E+00
    0.26310E-07         0.11642E-19         0.00000E+00
    0.26310E-07         0.10710E-19         0.00000E+00
    0.26310E-07         0.88476E-20         0.00000E+00
    0.26310E-07         0.46566E-21         0.00000E+00
    0.26310E-07         0.93132E-20         0.00000E+00
    0.26310E-07         0.65193E-20         0.00000E+00
    0.26310E-07         0.13504E-19         0.00000E+00
    0.26310E-07         0.16298E-19         0.00000E+00
    0.26310E-07         0.46566E-20         0.00000E+00
    0.26310E-07        -0.18626E-20         0.00000E+00
    0.26310E-07        -0.23283E-21         0.00000E+00
    0.25534E-07        -0.23283E-20         0.00000E+00
    0.25534E-07        -0.88476E-20         0.00000E+00
    0.25534E-07        -0.83819E-20         0.00000E+00
    0.25534E-07        -0.27940E-20         0.00000E+00
    0.25534E-07        -0.13970E-20         0.00000E+00
    0.25534E-07         0.51223E-20         0.00000E+00
    0.25534E-07         0.97789E-20         0.00000E+00
    0.25534E-07         0.37253E-20         0.00000E+00
    0.25534E-07        -0.41910E-20         0.00000E+00
    0.25534E-07         0.32596E-20         0.00000E+00
    0.25534E-07        -0.48894E-20         0.00000E+00
    0.25534E-07        -0.74506E-20         0.00000E+00
    0.25534E-07        -0.12107E-19         0.00000E+00
    0.25534E-07        -0.23283E-20         0.00000E+00
    0.25534E-07        -0.88476E-20         0.00000E+00
    0.25534E-07        -0.51223E-20         0.00000E+00
    0.25534E-07        -0.17229E-19         0.00000E+00
    0.25534E-07        -0.14435E-19         0.00000E+00
    0.25534E-07        -0.23283E-19         0.00000E+00
    0.25534E-07        -0.17229E-19         0.00000E+00
    0.25534E-07        -0.13970E-20         0.00000E+00
    0.25534E-07        -0.65193E-20         0.00000E+00
    0.25534E-07         0.41910E-20         0.00000E+00
    0.25534E-07         0.11642E-20         0.00000E+00
    0.25534E-07         0.79162E-20         0.00000E+00
    0.25534E-07        -0.16298E-20         0.00000E+00
    0.25534E-07         0.51223E-20         0.00000E+00
    0.25534E-07        -0.46566E-21         0.00000E+00
    0.25534E-07        -0.13970E-19         0.00000E+00
    0.25534E-07        -0.23283E-20         0.00000E+00
    0.25534E-07        -0.60536E-20         0.00000E+00
    0.25534E-07        -0.16764E-19         0.00000E+00
    0.25534E-07        -0.74506E-20         0.00000E+00
    0.25534E-07        -0.18626E-20         0.00000E+00
    0.25534E-07         0.30268E-20         0.00000E+00
    0.25534E-07         0.23283E-20         0.00000E+00
    0.25534E-07         0.48894E-20         0.00000E+00
    0.25534E-07         0.46566E-20         0.00000E+00
    0.25534E-07         0.19558E-19         0.00000E+00
    0.25534E-07         0.16298E-19         0.00000E+00
    0.25534E-07         0.10477E-19         0.00000E+00
    0.25534E-07        -0.69849E-20         0.00000E+00
    0.25534E-07        -0.48894E-20         0.00000E+00
    0.25534E-07         0.55879E-20         0.00000E+00
    0.25534E-07         0.60536E-20         0.00000E+00
    0.25534E-07         0.18626E-20         0.00000E+00
    0.25534E-07         0.51223E-20         0.00000E+00
    0.25534E-07         0.93132E-21         0.00000E+00
    0.25534E-07        -0.13970E-20         0.00000E+00
    0.25534E-07         0.74506E-20         0.00000E+00
    0.24831E-07        -0.69849E-20         0.00000E+00
    0.24831E-07        -0.12573E-19         0.00000E+00
    0.24831E-07        -0.10245E-19         0.00000E+00
    0.24831E-07        -0.88476E-20         0.00000E+00
    0.24831E-07         0.00000E+00         0.00000E+00
    0.24831E-07         0.41910E-20         0.00000E+00
    0.24831E-07         0.18626E-20         0.00000E+00
    0.24831E-07         0.51223E-20         0.00000E+00
    0.24831E-07         0.60536E-20         0.00000E+00
    0.24831E-07         0.51223E-20         0.00000E+00
    0.24831E-07         0.55879E-20         0.00000E+00
    0.24831E-07        -0.16764E-19         0.00000E+00
    0.24831E-07        -0.69849E-20         0.00000E+00
    0.24831E-07        -0.27940E-20         0.00000E+00
    0.24831E-07        -0.27940E-20         0.00000E+00
    0.24831E-07        -0.11176E-19         0.00000E+00
    0.24831E-07        -0.14901E-19         0.00000E+00
    0.24831E-07        -0.81491E-20         0.00000E+00
    0.24831E-07        -0.30501E-19         0.00000E+00
    0.24831E-07        -0.25146E-19         0.00000E+00
    0.24831E-07        -0.12107E-19         0.00000E+00
    0.24831E-07        -0.24214E-19         0.00000E+00
    0.24831E-07         0.65193E-20         0.00000E+00
    0.24831E-07         0.69849E-20         0.00000E+00
    0.24831E-07         0.74506E-20         0.00000E+00
    0.24831E-07         0.41910E-20         0.00000E+00
    0.24831E-07        -0.12573E-19         0.00000E+00
    0.24831E-07        -0.15832E-19         0.00000E+00
    0.24831E-07        -0.93132E-21         0.00000E+00
    0.24831E-07        -0.18626E-20         0.00000E+00
    0.24831E-07        -0.11176E-19         0.00000E+00
    0.24831E-07        -0.93132E-20         0.00000E+00
    0.24831E-07        -0.93132E-20         0.00000E+00
    0.24831E-07         0.46566E-20         0.00000E+00
    0.24831E-07        -0.53551E-20         0.00000E+00
    0.24831E-07         0.11642E-20         0.00000E+00
    0.24831E-07        -0.95461E-20         0.00000E+00
    0.24831E-07        -0.23283E-20         0.00000E+00
    0.24831E-07         0.86147E-20         0.00000E+00
    0.24831E-07        -0.37253E-20         0.00000E+00
    0.24831E-07        -0.46566E-20         0.00000E+00
    0.24831E-07        -0.74506E-20         0.00000E+00
    0.24831E-07         0.23283E-20         0.00000E+00
    0.24831E-07        -0.12107E-19         0.00000E+00
    0.24831E-07        -0.27940E-20         0.00000E+00
    0.24831E-07         0.23283E-20         0.00000E+00
    0.24831E-07        -0.51223E-20         0.00000E+00
    0.24831E-07        -0.14203E-19         0.00000E+00
    0.24831E-07         0.25611E-20         0.00000E+00
    0.24831E-07         0.65193E-20         0.00000E+00
    0.24205E-07        -0.55879E-20         0.00000E+00
    0.24205E-07        -0.19092E-19         0.00000E+00
    0.24205E-07        -0.16997E-19         0.00000E+00
    0.24205E-07         0.23283E-20         0.00000E+00
    0.24205E-07         0.41910E-20         0.00000E+00
    0.24205E-07         0.13970E-19         0.00000E+00
    0.24205E-07         0.41910E-20         0.00000E+00
    0.24205E-07         0.79162E-20         0.00000E+00
    0.24205E-07         0.12340E-19         0.00000E+00
    0.24205E-07         0.18626E-20         0.00000E+00
    0.24205E-07         0.90804E-20         0.00000E+00
    0.24205E-07        -0.74506E-20         0.00000E+00
    0.24205E-07         0.93132E-21         0.00000E+00
    0.24205E-07        -0.46566E-21         0.00000E+00
    0.24205E-07        -0.27940E-20         0.00000E+00
    0.24205E-07        -0.15832E-19         0.00000E+00
    0.24205E-07        -0.17695E-19         0.00000E+00
    0.24205E-07        -0.19791E-19         0.00000E+00
    0.24205E-07        -0.17695E-19         0.00000E+00
    0.24205E-07        -0.14901E-19         0.00000E+00
    0.24205E-07        -0.76834E-20         0.00000E+00
    0.24205E-07        -0.69849E-20         0.00000E+00
    0.24205E-07         0.23283E-21         0.00000E+00
    0.24205E-07         0.13970E-20         0.00000E+00
    0.24205E-07        -0.46566E-21         0.00000E+00
    0.24205E-07        -0.11874E-19         0.00000E+00
    0.24205E-07        -0.13271E-19         0.00000E+00
    0.24205E-07        -0.19092E-19         0.00000E+00
    0.24205E-07        -0.13970E-19         0.00000E+00
    0.24205E-07        -0.18626E-19         0.00000E+00
    0.24205E-07        -0.18161E-19         0.00000E+00
    0.24205E-07        -0.12573E-19         0.00000E+00
    0.24205E-07        -0.12573E-19         0.00000E+00
    0.24205E-07        -0.65193E-20         0.00000E+00
    0.24205E-07        -0.14668E-19         0.00000E+00
    0.24205E-07        -0.51223E-20         0.00000E+00
    0.24205E-07        -0.16764E-19         0.00000E+00
    0.24205E-07        -0.79162E-20         0.00000E+00
    0.24205E-07        -0.55879E-20         0.00000E+00
    0.24205E-07        -0.11176E-19         0.00000E+00
    0.24205E-07        -0.65193E-20         0.00000E+00
    0.24205E-07        -0.48894E-20         0.00000E+00
    0.24205E-07        -0.34925E-20         0.00000E+00
    0.24205E-07        -0.11176E-19         0.00000E+00
    0.24205E-07        -0.46566E-20         0.00000E+00
    0.24205E-07         0.18626E-20         0.00000E+00
    0.24205E-07        -0.86147E-20         0.00000E+00
    0.24205E-07        -0.93132E-21         0.00000E+00
    0.24205E-07         0.51223E-20         0.00000E+00
    0.24205E-07         0.18626E-20         0.00000E+00
    0.23657E-07         0.23283E-20         0.00000E+00
    0.23657E-07         0.00000E+00         0.00000E+00
    0.23657E-07        -0.51223E-20         0.00000E+00
    0.23657E-07         0.86147E-20         0.00000E+00
    0.23657E-07         0.23283E-20         0.00000E+00
    0.23657E-07         0.15832E-19         0.00000E+00
    0.23657E-07         0.37253E-20         0.00000E+00
    0.23657E-07         0.13504E-19         0.00000E+00
    0.23657E-07         0.13504E-19         0.00000E+00
    0.23657E-07         0.60536E-20         0.00000E+00
    0.23657E-07         0.14435E-19         0.00000E+00
    0.23657E-07         0.65193E-20         0.00000E+00
    0.23657E-07        -0.83819E-20         0.00000E+00
    0.23657E-07        -0.16298E-19         0.00000E+00
    0.23657E-07        -0.12340E-19         0.00000E+00
    0.23657E-07        -0.17462E-19         0.00000E+00
    0.23657E-07        -0.20489E-19         0.00000E+00
    0.23657E-07        -0.25611E-19         0.00000E+00
    0.23657E-07        -0.23283E-19         0.00000E+00
    0.23657E-07        -0.13970E-19         0.00000E+00
    0.23657E-07        -0.83819E-20         0.00000E+00
    0.23657E-07        -0.12107E-19         0.00000E+00
    0.23657E-07        -0.13039E-19         0.00000E+00
    0.23657E-07        -0.23516E-19         0.00000E+00
    0.23657E-07        -0.16764E-19         0.00000E+00
    0.23657E-07        -0.67521E-20         0.00000E+00
    0.23657E-07        -0.12573E-19         0.00000E+00
    0.23657E-07        -0.83819E-20         0.00000E+00
    0.23657E-07        -0.21420E-19         0.00000E+00
    0.23657E-07        -0.18626E-19         0.00000E+00
    0.23657E-07        -0.23749E-19         0.00000E+00
    0.23657E-07        -0.26543E-19         0.00000E+00
    0.23657E-07        -0.23982E-19         0.00000E+00
    0.23657E-07        -0.16298E-19         0.00000E+00
    0.23657E-07        -0.60536E-20         0.00000E+00
    0.23657E-07        -0.13737E-19         0.00000E+00
    0.23657E-07        -0.93132E-20         0.00000E+00
    0.23657E-07        -0.93132E-20         0.00000E+00
    0.23657E-07         0.90804E-20         0.00000E+00
    0.23657E-07         0.41910E-20         0.00000E+00
    0.23657E-07         0.37253E-20         0.00000E+00
    0.23657E-07        -0.90804E-20         0.00000E+00
    0.23657E-07        -0.10012E-19         0.00000E+00
    0.23657E-07         0.46566E-21         0.00000E+00
    0.23657E-07        -0.60536E-20         0.00000E+00
    0.23657E-07        -0.39581E-20         0.00000E+00
    0.23657E-07         0.00000E+00         0.00000E+00
    0.23657E-07         0.74506E-20         0.00000E+00
    0.23657E-07         0.90804E-20         0.00000E+00
    0.23657E-07        -0.27940E-20         0.00000E+00
    0.23189E-07        -0.55879E-20         0.00000E+00
    0.23189E-07         0.13970E-20         0.00000E+00
    0.23189E-07        -0.16298E-20         0.00000E+00
    0.23189E-07         0.51223E-20         0.00000E+00
    0.23189E-07         0.46566E-20         0.00000E+00
    0.23189E-07         0.88476E-20         0.00000E+00
    0.23189E-07         0.20023E-19         0.00000E+00
    0.23189E-07         0.19558E-19         0.00000E+00
    0.23189E-07         0.10012E-19         0.00000E+00
    0.23189E-07         0.37253E-20         0.00000E+00
    0.23189E-07        -0.60536E-20         0.00000E+00
    0.23189E-07         0.93132E-21         0.00000E+00
    0.23189E-07        -0.37253E-20         0.00000E+00
    0.23189E-07        -0.18626E-19         0.00000E+00
    0.23189E-07        -0.74506E-20         0.00000E+00
    0.23189E-07        -0.83819E-20         0.00000E+00
    0.23189E-07        -0.88476E-20         0.00000E+00
    0.23189E-07        -0.22352E-19         0.00000E+00
    0.23189E-07        -0.23283E-20         0.00000E+00
    0.23189E-07        -0.14435E-19         0.00000E+00
    0.23189E-07        -0.12340E-19         0.00000E+00
    0.23189E-07        -0.27008E-19         0.00000E+00
    0.23189E-07        -0.25611E-19         0.00000E+00
    0.23189E-07        -0.31199E-19         0.00000E+00
    0.23189E-07        -0.42375E-19         0.00000E+00
    0.23189E-07        -0.23749E-19         0.00000E+00
    0.23189E-07        -0.22817E-19         0.00000E+00
    0.23189E-07        -0.37253E-20         0.00000E+00
    0.23189E-07        -0.13039E-19         0.00000E+00
    0.23189E-07        -0.13970E-19         0.00000E+00
    0.23189E-07        -0.12573E-19         0.00000E+00
    0.23189E-07        -0.14435E-19         0.00000E+00
    0.23189E-07        -0.67521E-20         0.00000E+00
    0.23189E-07        -0.27940E-20         0.00000E+00
    0.23189E-07         0.00000E+00         0.00000E+00
    0.23189E-07        -0.10245E-19         0.00000E+00
    0.23189E-07        -0.12573E-19         0.00000E+00
    0.23189E-07        -0.13970E-19         0.00000E+00
    0.23189E-07        -0.44238E-20         0.00000E+00
    0.23189E-07        -0.11642E-19         0.00000E+00
    0.23189E-07         0.11642E-20         0.00000E+00
    0.23189E-07         0.37253E-20         0.00000E+00
    0.23189E-07        -0.69849E-20         0.00000E+00
    0.23189E-07        -0.93132E-21         0.00000E+00
    0.23189E-07        -0.27940E-20         0.00000E+00
    0.23189E-07        -0.18626E-20         0.00000E+00
    0.23189E-07        -0.20955E-20         0.00000E+00
    0.23189E-07        -0.46566E-21         0.00000E+00
    0.23189E-07        -0.18626E-19         0.00000E+00
    0.23189E-07        -0.55879E-20         0.00000E+00
    0.22804E-07        -0.46566E-20         0.00000E+00
    0.22804E-07        -0.13970E-20         0.00000E+00
    0.22804E-07        -0.74506E-20         0.00000E+00
    0.22804E-07         0.74506E-20         0.00000E+00
    0.22804E-07         0.13504E-19         0.00000E+00
    0.22804E-07         0.13271E-19         0.00000E+00
    0.22804E-07         0.18626E-19         0.00000E+00
    0.22804E-07         0.20955E-19         0.00000E+00
    0.22804E-07         0.10943E-19         0.00000E+00
    0.22804E-07        -0.23283E-20         0.00000E+00
    0.22804E-07        -0.13504E-19         0.00000E+00
    0.22804E-07        -0.11642E-19         0.00000E+00
    0.22804E-07         0.27940E-20         0.00000E+00
    0.22804E-07        -0.44238E-20         0.00000E+00
    0.22804E-07         0.16298E-20         0.00000E+00
    0.22804E-07        -0.79162E-20         0.00000E+00
    0.22804E-07         0.23283E-20         0.00000E+00
    0.22804E-07        -0.69849E-20         0.00000E+00
    0.22804E-07        -0.10012E-19         0.00000E+00
    0.22804E-07        -0.11409E-19         0.00000E+00
    0.22804E-07        -0.16764E-19         0.00000E+00
    0.22804E-07        -0.27008E-19         0.00000E+00
    0.22804E-07        -0.44703E-19         0.00000E+00
    0.22804E-07        -0.36089E-19         0.00000E+00
    0.22804E-07        -0.33993E-19         0.00000E+00
    0.22804E-07        -0.34925E-19         0.00000E+00
    0.22804E-07        -0.18161E-19         0.00000E+00
    0.22804E-07        -0.14435E-19         0.00000E+00
    0.22804E-07        -0.19558E-19         0.00000E+00
    0.22804E-07        -0.22352E-19         0.00000E+00
    0.22804E-07        -0.53551E-20         0.00000E+00
    0.22804E-07        -0.10245E-19         0.00000E+00
    0.22804E-07         0.11642E-20         0.00000E+00
    0.22804E-07         0.12107E-19         0.00000E+00
    0.22804E-07         0.23283E-20         0.00000E+00
    0.22804E-07        -0.13970E-19         0.00000E+00
    0.22804E-07        -0.10245E-19         0.00000E+00
    0.22804E-07        -0.15367E-19         0.00000E+00
    0.22804E-07        -0.10710E-19         0.00000E+00
    0.22804E-07        -0.11409E-19         0.00000E+00
    0.22804E-07        -0.97789E-20         0.00000E+00
    0.22804E-07        -0.23283E-20         0.00000E+00
    0.22804E-07         0.51223E-20         0.00000E+00
    0.22804E-07        -0.12806E-19         0.00000E+00
    0.22804E-07        -0.97789E-20         0.00000E+00
    0.22804E-07         0.23283E-20         0.00000E+00
    0.22804E-07         0.60536E-20         0.00000E+00
    0.22804E-07        -0.11642E-19         0.00000E+00
    0.22804E-07        -0.22352E-19         0.00000E+00
    0.22804E-07        -0.86147E-20         0.00000E+00
    0.22502E-07         0.10710E-19         0.00000E+00
    0.22502E-07         0.14435E-19         0.00000E+00
    0.22502E-07         0.41910E-20         0.00000E+00
    0.22502E-07         0.55879E-20         0.00000E+00
    0.22502E-07         0.12806E-19         0.00000E+00
    0.22502E-07         0.21653E-19         0.00000E+00
    0.22502E-07         0.93132E-20         0.00000E+00
    0.22502E-07         0.11176E-19         0.00000E+00
    0.22502E-07         0.72177E-20         0.00000E+00
    0.22502E-07         0.27940E-20         0.00000E+00
    0.22502E-07        -0.46566E-21         0.00000E+00
    0.22502E-07        -0.39581E-20         0.00000E+00
    0.22502E-07         0.55879E-20         0.00000E+00
    0.22502E-07         0.88476E-20         0.00000E+00
    0.22502E-07         0.10245E-19         0.00000E+00
    0.22502E-07        -0.53551E-20         0.00000E+00
    0.22502E-07        -0.72177E-20         0.00000E+00
    0.22502E-07        -0.25611E-20         0.00000E+00
    0.22502E-07        -0.13039E-19         0.00000E+00
    0.22502E-07        -0.46566E-20         0.00000E+00
    0.22502E-07        -0.23283E-19         0.00000E+00
    0.22502E-07        -0.25146E-19         0.00000E+00
    0.22502E-07        -0.33062E-19         0.00000E+00
    0.22502E-07        -0.39581E-19         0.00000E+00
    0.22502E-07        -0.20489E-19         0.00000E+00
    0.22502E-07        -0.26776E-19         0.00000E+00
    0.22502E-07        -0.20489E-19         0.00000E+00
    0.22502E-07        -0.33062E-19         0.00000E+00
    0.22502E-07        -0.19558E-19         0.00000E+00
    0.22502E-07        -0.17695E-19         0.00000E+00
    0.22502E-07        -0.88476E-20         0.00000E+00
    0.22502E-07        -0.72177E-20         0.00000E+00
    0.22502E-07        -0.10943E-19         0.00000E+00
    0.22502E-07         0.20955E-20         0.00000E+00
    0.22502E-07        -0.46566E-20         0.00000E+00
    0.22502E-07        -0.18161E-19         0.00000E+00
    0.22502E-07        -0.46566E-20         0.00000E+00
    0.22502E-07        -0.62864E-20         0.00000E+00
    0.22502E-07         0.46566E-20         0.00000E+00
    0.22502E-07         0.97789E-20         0.00000E+00
    0.22502E-07         0.93132E-21         0.00000E+00
    0.22502E-07        -0.60536E-20         0.00000E+00
    0.22502E-07        -0.10710E-19         0.00000E+00
    0.22502E-07        -0.46566E-20         0.00000E+00
    0.22502E-07        -0.16298E-20         0.00000E+00
    0.22502E-07        -0.20955E-20         0.00000E+00
    0.22502E-07        -0.14435E-19         0.00000E+00
    0.22502E-07        -0.90804E-20         0.00000E+00
    0.22502E-07         0.16298E-20         0.00000E+00
    0.22502E-07         0.46566E-20         0.00000E+00
    0.22286E-07        -0.46566E-21         0.00000E+00
    0.22286E-07         0.00000E+00         0.00000E+00
    0.22286E-07         0.79162E-20         0.00000E+00
    0.22286E-07         0.46566E-20         0.00000E+00
    0.22286E-07         0.13504E-19         0.00000E+00
    0.22286E-07         0.20023E-19         0.00000E+00
    0.22286E-07         0.65193E-20         0.00000E+00
    0.22286E-07         0.32596E-20         0.00000E+00
    0.22286E-07         0.23283E-20         0.00000E+00
    0.22286E-07         0.14435E-19         0.00000E+00
    0.22286E-07         0.14901E-19         0.00000E+00
    0.22286E-07         0.93132E-20         0.00000E+00
    0.22286E-07         0.76834E-20         0.00000E+00
    0.22286E-07         0.79162E-20         0.00000E+00
    0.22286E-07        -0.79162E-20         0.00000E+00
    0.22286E-07        -0.23283E-20         0.00000E+00
    0.22286E-07        -0.12107E-19         0.00000E+00
    0.22286E-07        -0.69849E-20         0.00000E+00
    0.22286E-07        -0.83819E-20         0.00000E+00
    0.22286E-07         0.41910E-20         0.00000E+00
    0.22286E-07        -0.51223E-20         0.00000E+00
    0.22286E-07        -0.13970E-19         0.00000E+00
    0.22286E-07        -0.16764E-19         0.00000E+00
    0.22286E-07        -0.29337E-19         0.00000E+00
    0.22286E-07        -0.19558E-19         0.00000E+00
    0.22286E-07        -0.13970E-19         0.00000E+00
    0.22286E-07        -0.13970E-19         0.00000E+00
    0.22286E-07        -0.13504E-19         0.00000E+00
    0.22286E-07        -0.97789E-20         0.00000E+00
    0.22286E-07        -0.10477E-19         0.00000E+00
    0.22286E-07        -0.69849E-20         0.00000E+00
    0.22286E-07        -0.18626E-20         0.00000E+00
    0.22286E-07        -0.20955E-20         0.00000E+00
    0.22286E-07        -0.83819E-20         0.00000E+00
    0.22286E-07        -0.10245E-19         0.00000E+00
    0.22286E-07        -0.13504E-19         0.00000E+00
    0.22286E-07        -0.17695E-19         0.00000E+00
    0.22286E-07        -0.32596E-20         0.00000E+00
    0.22286E-07        -0.81491E-20         0.00000E+00
    0.22286E-07        -0.79162E-20         0.00000E+00
    0.22286E-07        -0.67521E-20         0.00000E+00
    0.22286E-07         0.00000E+00         0.00000E+00
    0.22286E-07        -0.69849E-20         0.00000E+00
    0.22286E-07         0.72177E-20         0.00000E+00
    0.22286E-07         0.65193E-20         0.00000E+00
    0.22286E-07        -0.37253E-20         0.00000E+00
    0.22286E-07        -0.74506E-20         0.00000E+00
    0.22286E-07        -0.58208E-20         0.00000E+00
    0.22286E-07        -0.69849E-21         0.00000E+00
    0.22286E-07         0.25611E-20         0.00000E+00
    0.22158E-07        -0.30268E-20         0.00000E+00
    0.22158E-07         0.60536E-20         0.00000E+00
    0.22158E-07         0.18626E-20         0.00000E+00
    0.22158E-07         0.55879E-20         0.00000E+00
    0.22158E-07         0.69849E-21         0.00000E+00
    0.22158E-07         0.90804E-20         0.00000E+00
    0.22158E-07         0.41910E-20         0.00000E+00
    0.22158E-07         0.23283E-21         0.00000E+00
    0.22158E-07         0.41910E-20         0.00000E+00
    0.22158E-07         0.69849E-21         0.00000E+00
    0.22158E-07        -0.32596E-20         0.00000E+00
    0.22158E-07         0.55879E-20         0.00000E+00
    0.22158E-07         0.65193E-20         0.00000E+00
    0.22158E-07        -0.93132E-21         0.00000E+00
    0.22158E-07        -0.41910E-20         0.00000E+00
    0.22158E-07         0.46566E-20         0.00000E+00
    0.22158E-07        -0.16531E-19         0.00000E+00
    0.22158E-07        -0.37253E-20         0.00000E+00
    0.22158E-07        -0.83819E-20         0.00000E+00
    0.22158E-07         0.10710E-19         0.00000E+00
    0.22158E-07         0.14901E-19         0.00000E+00
    0.22158E-07        -0.13970E-20         0.00000E+00
    0.22158E-07        -0.37253E-20         0.00000E+00
    0.22158E-07        -0.65193E-20         0.00000E+00
    0.22158E-07        -0.69849E-20         0.00000E+00
    0.22158E-07         0.18626E-20         0.00000E+00
    0.22158E-07        -0.32596E-20         0.00000E+00
    0.22158E-07         0.00000E+00         0.00000E+00
    0.22158E-07         0.60536E-20         0.00000E+00
    0.22158E-07        -0.18626E-20         0.00000E+00
    0.22158E-07        -0.27940E-20         0.00000E+00
    0.22158E-07        -0.23283E-20         0.00000E+00
    0.22158E-07         0.00000E+00         0.00000E+00
    0.22158E-07         0.13970E-20         0.00000E+00
    0.22158E-07        -0.48894E-20         0.00000E+00
    0.22158E-07        -0.10012E-19         0.00000E+00
    0.22158E-07        -0.14435E-19         0.00000E+00
    0.22158E-07        -0.12573E-19         0.00000E+00
    0.22158E-07        -0.79162E-20         0.00000E+00
    0.22158E-07         0.18626E-20         0.00000E+00
    0.22158E-07        -0.13970E-20         0.00000E+00
    0.22158E-07        -0.20955E-20         0.00000E+00
    0.22158E-07         0.69849E-21         0.00000E+00
    0.22158E-07        -0.79162E-20         0.00000E+00
    0.22158E-07         0.46566E-21         0.00000E+00
    0.22158E-07        -0.44238E-20         0.00000E+00
    0.22158E-07         0.10710E-19         0.00000E+00
    0.22158E-07        -0.55879E-20         0.00000E+00
    0.22158E-07         0.51223E-20         0.00000E+00
    0.22158E-07         0.37253E-20         0.00000E+00
    0.22117E-07         0.48894E-20         0.00000E+00
    0.22117E-07        -0.23283E-20         0.00000E+00
    0.22117E-07         0.00000E+00         0.00000E+00
    0.22117E-07        -0.65193E-20         0.00000E+00
    0.22117E-07        -0.12107E-19         0.00000E+00
    0.22117E-07        -0.18626E-20         0.00000E+00
    0.22117E-07        -0.60536E-20         0.00000E+00
    0.22117E-07        -0.10710E-19         0.00000E+00
    0.22117E-07        -0.97789E-20         0.00000E+00
    0.22117E-07        -0.16298E-19         0.00000E+00
    0.22117E-07        -0.79162E-20         0.00000E+00
    0.22117E-07         0.00000E+00         0.00000E+00
    0.22117E-07         0.83819E-20         0.00000E+00
    0.22117E-07         0.12340E-19         0.00000E+00
    0.22117E-07         0.32596E-20         0.00000E+00
    0.22117E-07         0.60536E-20         0.00000E+00
    0.22117E-07        -0.27940E-20         0.00000E+00
    0.22117E-07        -0.37253E-20         0.00000E+00
    0.22117E-07         0.46566E-21         0.00000E+00
    0.22117E-07         0.55879E-20         0.00000E+00
    0.22117E-07         0.23283E-19         0.00000E+00
    0.22117E-07         0.18626E-20         0.00000E+00
    0.22117E-07        -0.23283E-21         0.00000E+00
    0.22117E-07         0.00000E+00         0.00000E+00
    0.22117E-07         0.72177E-20         0.00000E+00
    0.22117E-07         0.76834E-20         0.00000E+00
    0.22117E-07         0.30268E-20         0.00000E+00
    0.22117E-07        -0.16298E-20         0.00000E+00
    0.22117E-07         0.55879E-20         0.00000E+00
    0.22117E-07         0.14901E-19         0.00000E+00
    0.22117E-07         0.10477E-19         0.00000E+00
    0.22117E-07        -0.37253E-20         0.00000E+00
    0.22117E-07         0.23283E-20         0.00000E+00
    0.22117E-07        -0.69849E-21         0.00000E+00
    0.22117E-07        -0.10943E-19         0.00000E+00
    0.22117E-07         0.34925E-20         0.00000E+00
    0.22117E-07         0.97789E-20         0.00000E+00
    0.22117E-07         0.13970E-20         0.00000E+00
    0.22117E-07         0.11642E-20         0.00000E+00
    0.22117E-07         0.39581E-20         0.00000E+00
    0.22117E-07         0.17695E-19         0.00000E+00
    0.22117E-07         0.27940E-20         0.00000E+00
    0.22117E-07         0.16298E-20         0.00000E+00
    0.22117E-07        -0.46566E-20         0.00000E+00
    0.22117E-07         0.30268E-20         0.00000E+00
    0.22117E-07        -0.62864E-20         0.00000E+00
    0.22117E-07         0.18626E-20         0.00000E+00
    0.22117E-07         0.13970E-20         0.00000E+00
    0.22117E-07         0.10245E-19         0.00000E+00
    0.22117E-07         0.93132E-21         0.00000E+00
    0.22166E-07        -0.44238E-20         0.00000E+00
    0.22166E-07        -0.10710E-19         0.00000E+00
    0.22166E-07         0.90804E-20         0.00000E+00
    0.22166E-07        -0.46566E-21         0.00000E+00
    0.22166E-07        -0.41910E-20         0.00000E+00
    0.22166E-07        -0.12806E-19         0.00000E+00
    0.22166E-07        -0.24913E-19         0.00000E+00
    0.22166E-07        -0.27474E-19         0.00000E+00
    0.22166E-07        -0.23283E-19         0.00000E+00
    0.22166E-07        -0.19558E-19         0.00000E+00
    0.22166E-07         0.13970E-20         0.00000E+00
    0.22166E-07         0.62864E-20         0.00000E+00
    0.22166E-07         0.00000E+00         0.00000E+00
    0.22166E-07         0.51223E-20         0.00000E+00
    0.22166E-07         0.34925E-20         0.00000E+00
    0.22166E-07        -0.23283E-20         0.00000E+00
    0.22166E-07        -0.46566E-21         0.00000E+00
    0.22166E-07        -0.11642E-20         0.00000E+00
    0.22166E-07        -0.46566E-21         0.00000E+00
    0.22166E-07         0.00000E+00         0.00000E+00
    0.22166E-07         0.21188E-19         0.00000E+00
    0.22166E-07         0.51223E-20         0.00000E+00
    0.22166E-07        -0.23283E-20         0.00000E+00
    0.22166E-07        -0.72177E-20         0.00000E+00
    0.22166E-07         0.32596E-20         0.00000E+00
    0.22166E-07         0.62864E-20         0.00000E+00
    0.22166E-07         0.46566E-21         0.00000E+00
    0.22166E-07         0.37253E-20         0.00000E+00
    0.22166E-07         0.12806E-19         0.00000E+00
    0.22166E-07         0.17462E-19         0.00000E+00
    0.22166E-07         0.86147E-20         0.00000E+00
    0.22166E-07         0.25611E-20         0.00000E+00
    0.22166E-07         0.60536E-20         0.00000E+00
    0.22166E-07        -0.11642E-19         0.00000E+00
    0.22166E-07        -0.46566E-20         0.00000E+00
    0.22166E-07         0.17928E-19         0.00000E+00
    0.22166E-07         0.13970E-19         0.00000E+00
    0.22166E-07         0.22585E-19         0.00000E+00
    0.22166E-07         0.13970E-19         0.00000E+00
    0.22166E-07         0.46566E-20         0.00000E+00
    0.22166E-07         0.51223E-20         0.00000E+00
    0.22166E-07         0.44238E-20         0.00000E+00
    0.22166E-07         0.95461E-20         0.00000E+00
    0.22166E-07         0.14435E-19         0.00000E+00
    0.22166E-07         0.41910E-20         0.00000E+00
    0.22166E-07         0.74506E-20         0.00000E+00
    0.22166E-07         0.17229E-19         0.00000E+00
    0.22166E-07         0.93132E-20         0.00000E+00
    0.22166E-07         0.23283E-20         0.00000E+00
    0.22166E-07         0.69849E-20         0.00000E+00
    0.22306E-07         0.20955E-20         0.00000E+00
    0.22306E-07         0.60536E-20         0.00000E+00
    0.22306E-07        -0.23283E-20         0.00000E+00
    0.22306E-07         0.83819E-20         0.00000E+00
    0.22306E-07        -0.74506E-20         0.00000E+00
    0.22306E-07        -0.17229E-19         0.00000E+00
    0.22306E-07        -0.20955E-19         0.00000E+00
    0.22306E-07        -0.24680E-19         0.00000E+00
    0.22306E-07        -0.35390E-19         0.00000E+00
    0.22306E-07        -0.29802E-19         0.00000E+00
    0.22306E-07        -0.19092E-19         0.00000E+00
    0.22306E-07        -0.60536E-20         0.00000E+00
    0.22306E-07        -0.37253E-20         0.00000E+00
    0.22306E-07        -0.13970E-20         0.00000E+00
    0.22306E-07         0.12107E-19         0.00000E+00
    0.22306E-07         0.10477E-19         0.00000E+00
    0.22306E-07         0.23283E-20         0.00000E+00
    0.22306E-07        -0.46566E-20         0.00000E+00
    0.22306E-07         0.32596E-20         0.00000E+00
    0.22306E-07        -0.13970E-19         0.00000E+00
    0.22306E-07        -0.30268E-20         0.00000E+00
    0.22306E-07         0.32596E-20         0.00000E+00
    0.22306E-07        -0.13970E-20         0.00000E+00
    0.22306E-07        -0.51223E-20         0.00000E+00
    0.22306E-07        -0.88476E-20         0.00000E+00
    0.22306E-07        -0.69849E-20         0.00000E+00
    0.22306E-07        -0.88476E-20         0.00000E+00
    0.22306E-07         0.10245E-19         0.00000E+00
    0.22306E-07         0.12806E-19         0.00000E+00
    0.22306E-07         0.13504E-19         0.00000E+00
    0.22306E-07         0.19558E-19         0.00000E+00
    0.22306E-07         0.17462E-19         0.00000E+00
    0.22306E-07         0.13504E-19         0.00000E+00
    0.22306E-07         0.20955E-20         0.00000E+00
    0.22306E-07         0.14435E-19         0.00000E+00
    0.22306E-07         0.88476E-20         0.00000E+00
    0.22306E-07         0.10245E-19         0.00000E+00
    0.22306E-07         0.16531E-19         0.00000E+00
    0.22306E-07         0.15367E-19         0.00000E+00
    0.22306E-07         0.14668E-19         0.00000E+00
    0.22306E-07         0.76834E-20         0.00000E+00
    0.22306E-07         0.13504E-19         0.00000E+00
    0.22306E-07         0.65193E-20         0.00000E+00
    0.22306E-07         0.23050E-19         0.00000E+00
    0.22306E-07         0.13504E-19         0.00000E+00
    0.22306E-07         0.90804E-20         0.00000E+00
    0.22306E-07         0.23283E-19         0.00000E+00
    0.22306E-07         0.11874E-19         0.00000E+00
    0.22306E-07        -0.93132E-21         0.00000E+00
    0.22306E-07         0.25611E-20         0.00000E+00
    0.22536E-07         0.60536E-20         0.00000E+00
    0.22536E-07        -0.51223E-20         0.00000E+00
    0.22536E-07        -0.32596E-20         0.00000E+00
    0.22536E-07         0.72177E-20         0.00000E+00
    0.22536E-07        -0.46566E-20         0.00000E+00
    0.22536E-07        -0.79162E-20         0.00000E+00
    0.22536E-07        -0.25611E-19         0.00000E+00
    0.22536E-07        -0.33062E-19         0.00000E+00
    0.22536E-07        -0.26543E-19         0.00000E+00
    0.22536E-07        -0.20955E-19         0.00000E+00
    0.22536E-07        -0.46566E-20         0.00000E+00
    0.22536E-07        -0.10710E-19         0.00000E+00
    0.22536E-07         0.00000E+00         0.00000E+00
    0.22536E-07         0.93132E-21         0.00000E+00
    0.22536E-07         0.46566E-21         0.00000E+00
    0.22536E-07        -0.46566E-21         0.00000E+00
    0.22536E-07        -0.27940E-20         0.00000E+00
    0.22536E-07        -0.14435E-19         0.00000E+00
    0.22536E-07        -0.11409E-19         0.00000E+00
    0.22536E-07        -0.19092E-19         0.00000E+00
    0.22536E-07        -0.12107E-19         0.00000E+00
    0.22536E-07        -0.46566E-20         0.00000E+00
    0.22536E-07        -0.46566E-21         0.00000E+00
    0.22536E-07         0.00000E+00         0.00000E+00
    0.22536E-07        -0.41910E-20         0.00000E+00
    0.22536E-07         0.93132E-21         0.00000E+00
    0.22536E-07         0.37253E-20         0.00000E+00
    0.22536E-07         0.97789E-20         0.00000E+00
    0.22536E-07         0.11176E-19         0.00000E+00
    0.22536E-07         0.26543E-19         0.00000E+00
    0.22536E-07         0.25146E-19         0.00000E+00
    0.22536E-07         0.26776E-19         0.00000E+00
    0.22536E-07         0.23516E-19         0.00000E+00
    0.22536E-07         0.17695E-19         0.00000E+00
    0.22536E-07         0.21653E-19         0.00000E+00
    0.22536E-07         0.16764E-19         0.00000E+00
    0.22536E-07         0.13504E-19         0.00000E+00
    0.22536E-07         0.53551E-20         0.00000E+00
    0.22536E-07         0.58208E-20         0.00000E+00
    0.22536E-07         0.13504E-19         0.00000E+00
    0.22536E-07         0.10710E-19         0.00000E+00
    0.22536E-07         0.15832E-19         0.00000E+00
    0.22536E-07         0.11176E-19         0.00000E+00
    0.22536E-07         0.13039E-19         0.00000E+00
    0.22536E-07         0.93132E-20         0.00000E+00
    0.22536E-07         0.69849E-21         0.00000E+00
    0.22536E-07         0.00000E+00         0.00000E+00
    0.22536E-07        -0.13970E-20         0.00000E+00
    0.22536E-07        -0.69849E-20         0.00000E+00
    0.22536E-07        -0.83819E-20         0.00000E+00
    0.22859E-07         0.23283E-20         0.00000E+00
    0.22859E-07         0.65193E-20         0.00000E+00
    0.22859E-07         0.41910E-20         0.00000E+00
    0.22859E-07        -0.48894E-20         0.00000E+00
    0.22859E-07        -0.55879E-20         0.00000E+00
    0.22859E-07         0.23283E-21         0.00000E+00
    0.22859E-07        -0.12107E-19         0.00000E+00
    0.22859E-07        -0.51223E-20         0.00000E+00
    0.22859E-07        -0.48894E-20         0.00000E+00
    0.22859E-07        -0.69849E-21         0.00000E+00
    0.22859E-07        -0.93132E-21         0.00000E+00
    0.22859E-07        -0.23283E-20         0.00000E+00
    0.22859E-07        -0.25611E-20         0.00000E+00
    0.22859E-07        -0.11176E-19         0.00000E+00
    0.22859E-07        -0.12573E-19         0.00000E+00
    0.22859E-07        -0.48894E-20         0.00000E+00
    0.22859E-07        -0.20489E-19         0.00000E+00
    0.22859E-07        -0.14435E-19         0.00000E+00
    0.22859E-07        -0.14668E-19         0.00000E+00
    0.22859E-07        -0.10943E-19         0.00000E+00
    0.22859E-07        -0.79162E-20         0.00000E+00
    0.22859E-07         0.46566E-21         0.00000E+00
    0.22859E-07         0.27940E-20         0.00000E+00
    0.22859E-07         0.60536E-20         0.00000E+00
    0.22859E-07         0.32596E-20         0.00000E+00
    0.22859E-07         0.11176E-19         0.00000E+00
    0.22859E-07         0.23749E-19         0.00000E+00
    0.22859E-07         0.17229E-19         0.00000E+00
    0.22859E-07         0.19092E-19         0.00000E+00
    0.22859E-07         0.14435E-19         0.00000E+00
    0.22859E-07         0.17695E-19         0.00000E+00
    0.22859E-07         0.18626E-19         0.00000E+00
    0.22859E-07         0.17229E-19         0.00000E+00
    0.22859E-07         0.46566E-20         0.00000E+00
    0.22859E-07         0.14435E-19         0.00000E+00
    0.22859E-07         0.15832E-19         0.00000E+00
    0.22859E-07         0.23749E-19         0.00000E+00
    0.22859E-07         0.15367E-19         0.00000E+00
    0.22859E-07         0.19092E-19         0.00000E+00
    0.22859E-07         0.13970E-19         0.00000E+00
    0.22859E-07         0.11642E-19         0.00000E+00
    0.22859E-07         0.93132E-20         0.00000E+00
    0.22859E-07         0.12573E-19         0.00000E+00
    0.22859E-07         0.23283E-21         0.00000E+00
    0.22859E-07         0.74506E-20         0.00000E+00
    0.22859E-07         0.34925E-20         0.00000E+00
    0.22859E-07        -0.11409E-19         0.00000E+00
    0.22859E-07        -0.17928E-19         0.00000E+00
    0.22859E-07        -0.18161E-19         0.00000E+00
    0.22859E-07        -0.11642E-20         0.00000E+00
    0.23275E-07        -0.51223E-20         0.00000E+00
    0.23275E-07        -0.46566E-21         0.00000E+00
    0.23275E-07        -0.23283E-20         0.00000E+00
    0.23275E-07        -0.12107E-19         0.00000E+00
    0.23275E-07        -0.60536E-20         0.00000E+00
    0.23275E-07         0.11642E-19         0.00000E+00
    0.23275E-07         0.12107E-19         0.00000E+00
    0.23275E-07         0.15832E-19         0.00000E+00
    0.23275E-07        -0.46566E-21         0.00000E+00
    0.23275E-07         0.23283E-21         0.00000E+00
    0.23275E-07        -0.13970E-20         0.00000E+00
    0.23275E-07        -0.34925E-20         0.00000E+00
    0.23275E-07        -0.14901E-19         0.00000E+00
    0.23275E-07        -0.97789E-20         0.00000E+00
    0.23275E-07        -0.14901E-19         0.00000E+00
    0.23275E-07        -0.51223E-20         0.00000E+00
    0.23275E-07        -0.10245E-19         0.00000E+00
    0.23275E-07        -0.32596E-20         0.00000E+00
    0.23275E-07        -0.74506E-20         0.00000E+00
    0.23275E-07        -0.83819E-20         0.00000E+00
    0.23275E-07         0.55879E-20         0.00000E+00
    0.23275E-07         0.13039E-19         0.00000E+00
    0.23275E-07         0.97789E-20         0.00000E+00
    0.23275E-07         0.46566E-20         0.00000E+00
    0.23275E-07         0.13271E-19         0.00000E+00
    0.23275E-07         0.20955E-19         0.00000E+00
    0.23275E-07         0.21886E-19         0.00000E+00
    0.23275E-07         0.69849E-20         0.00000E+00
    0.23275E-07         0.20489E-19         0.00000E+00
    0.23275E-07         0.13039E-19         0.00000E+00
    0.23275E-07         0.14435E-19         0.00000E+00
    0.23275E-07         0.11874E-19         0.00000E+00
    0.23275E-07         0.93132E-21         0.00000E+00
    0.23275E-07         0.69849E-21         0.00000E+00
    0.23275E-07         0.65193E-20         0.00000E+00
    0.23275E-07         0.20722E-19         0.00000E+00
    0.23275E-07         0.15367E-19         0.00000E+00
    0.23275E-07         0.20489E-19         0.00000E+00
    0.23275E-07         0.18394E-19         0.00000E+00
    0.23275E-07         0.10477E-19         0.00000E+00
    0.23275E-07         0.20489E-19         0.00000E+00
    0.23275E-07         0.14435E-19         0.00000E+00
    0.23275E-07         0.10477E-19         0.00000E+00
    0.23275E-07         0.97789E-20         0.00000E+00
    0.23275E-07         0.51223E-20         0.00000E+00
    0.23275E-07         0.48894E-20         0.00000E+00
    0.23275E-07         0.69849E-20         0.00000E+00
    0.23275E-07         0.37253E-20         0.00000E+00
    0.23275E-07         0.88476E-20         0.00000E+00
    0.23275E-07         0.32596E-20         0.00000E+00
    0.23783E-07        -0.69849E-20         0.00000E+00
    0.23783E-07        -0.22817E-19         0.00000E+00
    0.23783E-07         0.00000E+00         0.00000E+00
    0.23783E-07         0.46566E-21         0.00000E+00
    0.23783E-07         0.79162E-20         0.00000E+00
    0.23783E-07         0.93132E-20         0.00000E+00
    0.23783E-07         0.15367E-19         0.00000E+00
    0.23783E-07         0.15367E-19         0.00000E+00
    0.23783E-07         0.13970E-20         0.00000E+00
    0.23783E-07        -0.76834E-20         0.00000E+00
    0.23783E-07        -0.14435E-19         0.00000E+00
    0.23783E-07        -0.10710E-19         0.00000E+00
    0.23783E-07        -0.22352E-19         0.00000E+00
    0.23783E-07        -0.15367E-19         0.00000E+00
    0.23783E-07        -0.12340E-19         0.00000E+00
    0.23783E-07         0.00000E+00         0.00000E+00
    0.23783E-07         0.46566E-21         0.00000E+00
    0.23783E-07         0.32596E-20         0.00000E+00
    0.23783E-07         0.30268E-20         0.00000E+00
    0.23783E-07         0.69849E-20         0.00000E+00
    0.23783E-07         0.21420E-19         0.00000E+00
    0.23783E-07         0.21420E-19         0.00000E+00
    0.23783E-07         0.11176E-19         0.00000E+00
    0.23783E-07         0.55879E-20         0.00000E+00
    0.23783E-07         0.13504E-19         0.00000E+00
    0.23783E-07         0.17695E-19         0.00000E+00
    0.23783E-07         0.17229E-19         0.00000E+00
    0.23783E-07         0.12107E-19         0.00000E+00
    0.23783E-07         0.21420E-19         0.00000E+00
    0.23783E-07         0.51223E-20         0.00000E+00
    0.23783E-07         0.46566E-20         0.00000E+00
    0.23783E-07         0.41910E-20         0.00000E+00
    0.23783E-07        -0.46566E-20         0.00000E+00
    0.23783E-07         0.93132E-20         0.00000E+00
    0.23783E-07         0.10245E-19         0.00000E+00
    0.23783E-07         0.25146E-19         0.00000E+00
    0.23783E-07         0.74506E-20         0.00000E+00
    0.23783E-07         0.10710E-19         0.00000E+00
    0.23783E-07         0.18626E-19         0.00000E+00
    0.23783E-07         0.23283E-19         0.00000E+00
    0.23783E-07         0.21420E-19         0.00000E+00
    0.23783E-07         0.16298E-19         0.00000E+00
    0.23783E-07         0.24214E-19         0.00000E+00
    0.23783E-07         0.19325E-19         0.00000E+00
    0.23783E-07         0.90804E-20         0.00000E+00
    0.23783E-07         0.18626E-19         0.00000E+00
    0.23783E-07         0.19092E-19         0.00000E+00
    0.23783E-07         0.24680E-19         0.00000E+00
    0.23783E-07         0.13970E-19         0.00000E+00
    0.23783E-07         0.13970E-20         0.00000E+00
    0.24385E-07         0.37253E-20         0.00000E+00
    0.24385E-07         0.79162E-20         0.00000E+00
    0.24385E-07         0.93132E-20         0.00000E+00
    0.24385E-07         0.13504E-19         0.00000E+00
    0.24385E-07         0.76834E-20         0.00000E+00
    0.24385E-07         0.10710E-19         0.00000E+00
    0.24385E-07         0.97789E-20         0.00000E+00
    0.24385E-07        -0.23283E-20         0.00000E+00
    0.24385E-07         0.46566E-21         0.00000E+00
    0.24385E-07        -0.12107E-19         0.00000E+00
    0.24385E-07        -0.19092E-19         0.00000E+00
    0.24385E-07        -0.13970E-19         0.00000E+00
    0.24385E-07        -0.74506E-20         0.00000E+00
    0.24385E-07        -0.41910E-20         0.00000E+00
    0.24385E-07         0.11642E-20         0.00000E+00
    0.24385E-07         0.93132E-20         0.00000E+00
    0.24385E-07        -0.23283E-20         0.00000E+00
    0.24385E-07        -0.93132E-21         0.00000E+00
    0.24385E-07         0.20489E-19         0.00000E+00
    0.24385E-07         0.17229E-19         0.00000E+00
    0.24385E-07         0.24680E-19         0.00000E+00
    0.24385E-07         0.13039E-19         0.00000E+00
    0.24385E-07         0.13970E-19         0.00000E+00
    0.24385E-07         0.93132E-20         0.00000E+00
    0.24385E-07         0.13970E-19         0.00000E+00
    0.24385E-07         0.11176E-19         0.00000E+00
    0.24385E-07         0.11176E-19         0.00000E+00
    0.24385E-07         0.79162E-20         0.00000E+00
    0.24385E-07        -0.13970E-20         0.00000E+00
    0.24385E-07        -0.37253E-20         0.00000E+00
    0.24385E-07         0.13504E-19         0.00000E+00
    0.24385E-07         0.12806E-19         0.00000E+00
    0.24385E-07         0.60536E-20         0.00000E+00
    0.24385E-07        -0.37253E-20         0.00000E+00
    0.24385E-07         0.88476E-20         0.00000E+00
    0.24385E-07         0.55879E-20         0.00000E+00
    0.24385E-07         0.11176E-19         0.00000E+00
    0.24385E-07         0.88476E-20         0.00000E+00
    0.24385E-07         0.35390E-19         0.00000E+00
    0.24385E-07         0.33062E-19         0.00000E+00
    0.24385E-07         0.32131E-19         0.00000E+00
    0.24385E-07         0.19092E-19         0.00000E+00
    0.24385E-07         0.32131E-19         0.00000E+00
    0.24385E-07         0.14435E-19         0.00000E+00
    0.24385E-07         0.14203E-19         0.00000E+00
    0.24385E-07         0.24214E-19         0.00000E+00
    0.24385E-07         0.60536E-20         0.00000E+00
    0.24385E-07         0.97789E-20         0.00000E+00
    0.24385E-07        -0.39581E-20         0.00000E+00
    0.24385E-07        -0.16298E-20         0.00000E+00
    0.25081E-07         0.51223E-20         0.00000E+00
    0.25081E-07         0.12107E-19         0.00000E+00
    0.25081E-07         0.93132E-20         0.00000E+00
    0.25081E-07         0.16298E-19         0.00000E+00
    0.25081E-07         0.15367E-19         0.00000E+00
    0.25081E-07         0.83819E-20         0.00000E+00
    0.25081E-07         0.13970E-20         0.00000E+00
    0.25081E-07        -0.12107E-19         0.00000E+00
    0.25081E-07        -0.11642E-19         0.00000E+00
    0.25081E-07         0.93132E-21         0.00000E+00
    0.25081E-07         0.46566E-21         0.00000E+00
    0.25081E-07         0.11176E-19         0.00000E+00
    0.25081E-07         0.13970E-19         0.00000E+00
    0.25081E-07         0.10245E-19         0.00000E+00
    0.25081E-07         0.12573E-19         0.00000E+00
    0.25081E-07         0.51223E-20         0.00000E+00
    0.25081E-07         0.97789E-20         0.00000E+00
    0.25081E-07         0.17695E-19         0.00000E+00
    0.25081E-07         0.15367E-19         0.00000E+00
    0.25081E-07         0.19558E-19         0.00000E+00
    0.25081E-07         0.21420E-19         0.00000E+00
    0.25081E-07         0.69849E-20         0.00000E+00
    0.25081E-07        -0.65193E-20         0.00000E+00
    0.25081E-07         0.93132E-20         0.00000E+00
    0.25081E-07         0.20955E-19         0.00000E+00
    0.25081E-07         0.10245E-19         0.00000E+00
    0.25081E-07         0.93132E-20         0.00000E+00
    0.25081E-07        -0.11642E-19         0.00000E+00
    0.25081E-07        -0.12573E-19         0.00000E+00
    0.25081E-07         0.12107E-19         0.00000E+00
    0.25081E-07         0.18626E-19         0.00000E+00
    0.25081E-07         0.41910E-20         0.00000E+00
    0.25081E-07         0.37253E-20         0.00000E+00
    0.25081E-07         0.32596E-20         0.00000E+00
    0.25081E-07         0.18626E-19         0.00000E+00
    0.25081E-07         0.65193E-20         0.00000E+00
    0.25081E-07         0.65193E-20         0.00000E+00
    0.25081E-07         0.74506E-20         0.00000E+00
    0.25081E-07         0.16298E-19         0.00000E+00
    0.25081E-07         0.27008E-19         0.00000E+00
    0.25081E-07         0.29104E-19         0.00000E+00
    0.25081E-07         0.31432E-19         0.00000E+00
    0.25081E-07         0.23749E-19         0.00000E+00
    0.25081E-07         0.12340E-19         0.00000E+00
    0.25081E-07         0.51223E-20         0.00000E+00
    0.25081E-07         0.65193E-20         0.00000E+00
    0.25081E-07         0.69849E-21         0.00000E+00
    0.25081E-07         0.69849E-20         0.00000E+00
    0.25081E-07         0.58208E-20         0.00000E+00
    0.25081E-07        -0.93132E-21         0.00000E+00
    0.25870E-07        -0.39581E-20         0.00000E+00
    0.25870E-07        -0.10710E-19         0.00000E+00
    0.25870E-07        -0.23283E-20         0.00000E+00
    0.25870E-07         0.83819E-20         0.00000E+00
    0.25870E-07         0.12573E-19         0.00000E+00
    0.25870E-07        -0.60536E-20         0.00000E+00
    0.25870E-07        -0.23283E-21         0.00000E+00
    0.25870E-07         0.39581E-20         0.00000E+00
    0.25870E-07        -0.51223E-20         0.00000E+00
    0.25870E-07        -0.83819E-20         0.00000E+00
    0.25870E-07         0.60536E-20         0.00000E+00
    0.25870E-07         0.10710E-19         0.00000E+00
    0.25870E-07         0.83819E-20         0.00000E+00
    0.25870E-07         0.21886E-19         0.00000E+00
    0.25870E-07         0.16764E-19         0.00000E+00
    0.25870E-07         0.15367E-19         0.00000E+00
    0.25870E-07         0.18161E-19         0.00000E+00
    0.25870E-07         0.21420E-19         0.00000E+00
    0.25870E-07         0.15367E-19         0.00000E+00
    0.25870E-07         0.18859E-19         0.00000E+00
    0.25870E-07         0.27008E-19         0.00000E+00
    0.25870E-07         0.14435E-19         0.00000E+00
    0.25870E-07         0.27940E-20         0.00000E+00
    0.25870E-07         0.46566E-20         0.00000E+00
    0.25870E-07         0.12107E-19         0.00000E+00
    0.25870E-07         0.17695E-19         0.00000E+00
    0.25870E-07         0.19092E-19         0.00000E+00
    0.25870E-07        -0.13970E-20         0.00000E+00
    0.25870E-07        -0.23283E-20         0.00000E+00
    0.25870E-07        -0.55879E-20         0.00000E+00
    0.25870E-07         0.46566E-21         0.00000E+00
    0.25870E-07         0.93132E-20         0.00000E+00
    0.25870E-07         0.69849E-20         0.00000E+00
    0.25870E-07         0.12107E-19         0.00000E+00
    0.25870E-07         0.11642E-19         0.00000E+00
    0.25870E-07         0.14901E-19         0.00000E+00
    0.25870E-07        -0.10710E-19         0.00000E+00
    0.25870E-07        -0.13970E-19         0.00000E+00
    0.25870E-07         0.86147E-20         0.00000E+00
    0.25870E-07         0.10245E-19         0.00000E+00
    0.25870E-07         0.15832E-19         0.00000E+00
    0.25870E-07         0.88476E-20         0.00000E+00
    0.25870E-07         0.10012E-19         0.00000E+00
    0.25870E-07         0.13039E-19         0.00000E+00
    0.25870E-07         0.32596E-20         0.00000E+00
    0.25870E-07        -0.93132E-21         0.00000E+00
    0.25870E-07         0.13970E-20         0.00000E+00
    0.25870E-07         0.20955E-20         0.00000E+00
    0.25870E-07         0.13970E-20         0.00000E+00
    0.25870E-07        -0.69849E-21         0.00000E+00
    0.26753E-07        -0.20955E-20         0.00000E+00
    0.26753E-07         0.41910E-20         0.00000E+00
    0.26753E-07        -0.37253E-20         0.00000E+00
    0.26753E-07        -0.32596E-20         0.00000E+00
    0.26753E-07        -0.39581E-20         0.00000E+00
    0.26753E-07        -0.13504E-19         0.00000E+00
    0.26753E-07        -0.30268E-20         0.00000E+00
    0.26753E-07        -0.13970E-20         0.00000E+00
    0.26753E-07         0.58208E-20         0.00000E+00
    0.26753E-07         0.00000E+00         0.00000E+00
    0.26753E-07         0.53551E-20         0.00000E+00
    0.26753E-07         0.10477E-19         0.00000E+00
    0.26753E-07         0.53551E-20         0.00000E+00
    0.26753E-07         0.74506E-20         0.00000E+00
    0.26753E-07         0.97789E-20         0.00000E+00
    0.26753E-07         0.93132E-20         0.00000E+00
    0.26753E-07         0.13039E-19         0.00000E+00
    0.26753E-07         0.19325E-19         0.00000E+00
    0.26753E-07         0.24680E-19         0.00000E+00
    0.26753E-07         0.17695E-19         0.00000E+00
    0.26753E-07         0.17695E-19         0.00000E+00
    0.26753E-07         0.19092E-19         0.00000E+00
    0.26753E-07         0.17695E-19         0.00000E+00
    0.26753E-07         0.21420E-19         0.00000E+00
    0.26753E-07         0.15367E-19         0.00000E+00
    0.26753E-07         0.60536E-20         0.00000E+00
    0.26753E-07         0.11642E-19         0.00000E+00
    0.26753E-07        -0.46566E-21         0.00000E+00
    0.26753E-07         0.23283E-20         0.00000E+00
    0.26753E-07         0.11642E-20         0.00000E+00
    0.26753E-07         0.39581E-20         0.00000E+00
    0.26753E-07         0.16764E-19         0.00000E+00
    0.26753E-07         0.74506E-20         0.00000E+00
    0.26753E-07         0.25611E-20         0.00000E+00
    0.26753E-07        -0.12107E-19         0.00000E+00
    0.26753E-07        -0.13039E-19         0.00000E+00
    0.26753E-07        -0.11642E-19         0.00000E+00
    0.26753E-07        -0.13039E-19         0.00000E+00
    0.26753E-07         0.11642E-20         0.00000E+00
    0.26753E-07        -0.23283E-20         0.00000E+00
    0.26753E-07         0.74506E-20         0.00000E+00
    0.26753E-07         0.55879E-20         0.00000E+00
    0.26753E-07         0.97789E-20         0.00000E+00
    0.26753E-07         0.90804E-20         0.00000E+00
    0.26753E-07        -0.23283E-20         0.00000E+00
    0.26753E-07        -0.27940E-20         0.00000E+00
    0.26753E-07        -0.34925E-20         0.00000E+00
    0.26753E-07        -0.58208E-20         0.00000E+00
    0.26753E-07        -0.60536E-20         0.00000E+00
    0.26753E-07        -0.46566E-20         0.00000E+00
    0.27728E-07         0.27940E-20         0.00000E+00
    0.27728E-07        -0.11874E-19         0.00000E+00
    0.27728E-07        -0.12107E-19         0.00000E+00
    0.27728E-07        -0.15600E-19         0.00000E+00
    0.27728E-07        -0.11874E-19         0.00000E+00
    0.27728E-07         0.93132E-21         0.00000E+00
    0.27728E-07         0.00000E+00         0.00000E+00
    0.27728E-07        -0.46566E-20         0.00000E+00
    0.27728E-07         0.13970E-19         0.00000E+00
    0.27728E-07         0.19092E-19         0.00000E+00
    0.27728E-07         0.10943E-19         0.00000E+00
    0.27728E-07         0.13737E-19         0.00000E+00
    0.27728E-07         0.13970E-20         0.00000E+00
    0.27728E-07        -0.81491E-20         0.00000E+00
    0.27728E-07        -0.23283E-20         0.00000E+00
    0.27728E-07         0.93132E-21         0.00000E+00
    0.27728E-07         0.15367E-19         0.00000E+00
    0.27728E-07         0.13039E-19         0.00000E+00
    0.27728E-07         0.13039E-19         0.00000E+00
    0.27728E-07         0.58208E-20         0.00000E+00
    0.27728E-07         0.32596E-20         0.00000E+00
    0.27728E-07         0.11176E-19         0.00000E+00
    0.27728E-07         0.13039E-19         0.00000E+00
    0.27728E-07         0.21886E-19         0.00000E+00
    0.27728E-07         0.19325E-19         0.00000E+00
    0.27728E-07         0.97789E-20         0.00000E+00
    0.27728E-07         0.18626E-20         0.00000E+00
    0.27728E-07        -0.18626E-20         0.00000E+00
    0.27728E-07         0.48894E-20         0.00000E+00
    0.27728E-07         0.55879E-20         0.00000E+00
    0.27728E-07        -0.18626E-20         0.00000E+00
    0.27728E-07        -0.32596E-20         0.00000E+00
    0.27728E-07        -0.10477E-19         0.00000E+00
    0.27728E-07        -0.55879E-20         0.00000E+00
    0.27728E-07         0.55879E-20         0.00000E+00
    0.27728E-07        -0.11176E-19         0.00000E+00
    0.27728E-07        -0.11874E-19         0.00000E+00
    0.27728E-07        -0.41910E-20         0.00000E+00
    0.27728E-07        -0.10943E-19         0.00000E+00
    0.27728E-07        -0.10012E-19         0.00000E+00
    0.27728E-07         0.44238E-20         0.00000E+00
    0.27728E-07         0.79162E-20         0.00000E+00
    0.27728E-07         0.41910E-20         0.00000E+00
    0.27728E-07        -0.58208E-20         0.00000E+00
    0.27728E-07        -0.23283E-21         0.00000E+00
    0.27728E-07         0.41910E-20         0.00000E+00
    0.27728E-07        -0.67521E-20         0.00000E+00
    0.27728E-07        -0.46566E-21         0.00000E+00
    0.27728E-07        -0.93132E-21         0.00000E+00
    0.27728E-07        -0.93132E-21         0.00000E+00
    0.28795E-07        -0.83819E-20         0.00000E+00
    0.28795E-07        -0.41910E-20         0.00000E+00
    0.28795E-07        -0.76834E-20         0.00000E+00
    0.28795E-07        -0.11409E-19         0.00000E+00
    0.28795E-07        -0.79162E-20         0.00000E+00
    0.28795E-07        -0.74506E-20         0.00000E+00
    0.28795E-07        -0.93132E-21         0.00000E+00
    0.28795E-07        -0.30268E-20         0.00000E+00
    0.28795E-07        -0.14435E-19         0.00000E+00
    0.28795E-07        -0.58208E-20         0.00000E+00
    0.28795E-07         0.46566E-21         0.00000E+00
    0.28795E-07        -0.39581E-20         0.00000E+00
    0.28795E-07         0.30268E-20         0.00000E+00
    0.28795E-07         0.76834E-20         0.00000E+00
    0.28795E-07         0.27940E-20         0.00000E+00
    0.28795E-07         0.13737E-19         0.00000E+00
    0.28795E-07        -0.18626E-20         0.00000E+00
    0.28795E-07         0.41910E-20         0.00000E+00
    0.28795E-07         0.97789E-20         0.00000E+00
    0.28795E-07         0.83819E-20         0.00000E+00
    0.28795E-07        -0.27940E-20         0.00000E+00
    0.28795E-07         0.46566E-20         0.00000E+00
    0.28795E-07         0.46566E-21         0.00000E+00
    0.28795E-07         0.93132E-20         0.00000E+00
    0.28795E-07         0.14435E-19         0.00000E+00
    0.28795E-07         0.21886E-19         0.00000E+00
    0.28795E-07         0.18626E-20         0.00000E+00
    0.28795E-07        -0.58208E-20         0.00000E+00
    0.28795E-07         0.37253E-20         0.00000E+00
    0.28795E-07        -0.48894E-20         0.00000E+00
    0.28795E-07        -0.67521E-20         0.00000E+00
    0.28795E-07        -0.23283E-20         0.00000E+00
    0.28795E-07        -0.13737E-19         0.00000E+00
    0.28795E-07        -0.97789E-20         0.00000E+00
    0.28795E-07         0.37253E-20         0.00000E+00
    0.28795E-07         0.32596E-20         0.00000E+00
    0.28795E-07         0.74506E-20         0.00000E+00
    0.28795E-07         0.18626E-20         0.00000E+00
    0.28795E-07         0.93132E-21         0.00000E+00
    0.28795E-07        -0.51223E-20         0.00000E+00
    0.28795E-07         0.13970E-20         0.00000E+00
    0.28795E-07        -0.41910E-20         0.00000E+00
    0.28795E-07         0.46566E-21         0.00000E+00
    0.28795E-07        -0.21420E-19         0.00000E+00
    0.28795E-07        -0.83819E-20         0.00000E+00
    0.28795E-07        -0.27940E-20         0.00000E+00
    0.28795E-07        -0.13039E-19         0.00000E+00
    0.28795E-07        -0.55879E-20         0.00000E+00
    0.28795E-07         0.00000E+00         0.00000E+00
    0.28795E-07        -0.20955E-20         0.00000E+00
    0.29954E-07         0.00000E+00         0.00000E+00
    0.29954E-07         0.69849E-20         0.00000E+00
    0.29954E-07         0.30268E-20         0.00000E+00
    0.29954E-07         0.13970E-20         0.00000E+00
    0.29954E-07        -0.74506E-20         0.00000E+00
    0.29954E-07        -0.23283E-19         0.00000E+00
    0.29954E-07        -0.11642E-19         0.00000E+00
    0.29954E-07        -0.95461E-20         0.00000E+00
    0.29954E-07        -0.10012E-19         0.00000E+00
    0.29954E-07        -0.13039E-19         0.00000E+00
    0.29954E-07        -0.11642E-19         0.00000E+00
    0.29954E-07        -0.90804E-20         0.00000E+00
    0.29954E-07        -0.13970E-20         0.00000E+00
    0.29954E-07         0.46566E-21         0.00000E+00
    0.29954E-07        -0.69849E-21         0.00000E+00
    0.29954E-07         0.62864E-20         0.00000E+00
    0.29954E-07        -0.25611E-20         0.00000E+00
    0.29954E-07        -0.12107E-19         0.00000E+00
    0.29954E-07         0.65193E-20         0.00000E+00
    0.29954E-07         0.10710E-19         0.00000E+00
    0.29954E-07         0.19092E-19         0.00000E+00
    0.29954E-07         0.62864E-20         0.00000E+00
    0.29954E-07         0.00000E+00         0.00000E+00
    0.29954E-07         0.46566E-20         0.00000E+00
    0.29954E-07         0.62864E-20         0.00000E+00
    0.29954E-07         0.19791E-19         0.00000E+00
    0.29954E-07         0.18626E-20         0.00000E+00
    0.29954E-07         0.76834E-20         0.00000E+00
    0.29954E-07         0.67521E-20         0.00000E+00
    0.29954E-07         0.11642E-19         0.00000E+00
    0.29954E-07        -0.93132E-21         0.00000E+00
    0.29954E-07        -0.10012E-19         0.00000E+00
    0.29954E-07        -0.79162E-20         0.00000E+00
    0.29954E-07        -0.18626E-20         0.00000E+00
    0.29954E-07        -0.18626E-20         0.00000E+00
    0.29954E-07         0.60536E-20         0.00000E+00
    0.29954E-07         0.27940E-20         0.00000E+00
    0.29954E-07        -0.90804E-20         0.00000E+00
    0.29954E-07         0.27940E-20         0.00000E+00
    0.29954E-07         0.13970E-20         0.00000E+00
    0.29954E-07        -0.34925E-20         0.00000E+00
    0.29954E-07        -0.11409E-19         0.00000E+00
    0.29954E-07        -0.55879E-20         0.00000E+00
    0.29954E-07        -0.28405E-19         0.00000E+00
    0.29954E-07        -0.18161E-19         0.00000E+00
    0.29954E-07        -0.15832E-19         0.00000E+00
    0.29954E-07        -0.12107E-19         0.00000E+00
    0.29954E-07        -0.27940E-20         0.00000E+00
    0.29954E-07        -0.11642E-20         0.00000E+00
    0.29954E-07        -0.46566E-20         0.00000E+00
    0.31203E-07        -0.23283E-20         0.00000E+00
    0.31203E-07        -0.13504E-19         0.00000E+00
    0.31203E-07        -0.18626E-20         0.00000E+00
    0.31203E-07        -0.27940E-20         0.00000E+00
    0.31203E-07        -0.46566E-20         0.00000E+00
    0.31203E-07        -0.25611E-20         0.00000E+00
    0.31203E-07        -0.11642E-19         0.00000E+00
    0.31203E-07        -0.13504E-19         0.00000E+00
    0.31203E-07         0.93132E-21         0.00000E+00
    0.31203E-07         0.18626E-20         0.00000E+00
    0.31203E-07        -0.46566E-21         0.00000E+00
    0.31203E-07         0.44238E-20         0.00000E+00
    0.31203E-07        -0.74506E-20         0.00000E+00
    0.31203E-07        -0.12340E-19         0.00000E+00
    0.31203E-07        -0.81491E-20         0.00000E+00
    0.31203E-07        -0.12573E-19         0.00000E+00
    0.31203E-07        -0.12107E-19         0.00000E+00
    0.31203E-07        -0.13970E-19         0.00000E+00
    0.31203E-07        -0.10012E-19         0.00000E+00
    0.31203E-07        -0.32596E-20         0.00000E+00
    0.31203E-07         0.14901E-19         0.00000E+00
    0.31203E-07         0.34925E-20         0.00000E+00
    0.31203E-07         0.97789E-20         0.00000E+00
    0.31203E-07         0.10012E-19         0.00000E+00
    0.31203E-07         0.14901E-19         0.00000E+00
    0.31203E-07         0.10710E-19         0.00000E+00
    0.31203E-07         0.69849E-20         0.00000E+00
    0.31203E-07         0.69849E-20         0.00000E+00
    0.31203E-07         0.13039E-19         0.00000E+00
    0.31203E-07         0.16531E-19         0.00000E+00
    0.31203E-07         0.60536E-20         0.00000E+00
    0.31203E-07        -0.23283E-21         0.00000E+00
    0.31203E-07        -0.65193E-20         0.00000E+00
    0.31203E-07        -0.41910E-20         0.00000E+00
    0.31203E-07         0.00000E+00         0.00000E+00
    0.31203E-07         0.46566E-21         0.00000E+00
    0.31203E-07        -0.60536E-20         0.00000E+00
    0.31203E-07        -0.18394E-19         0.00000E+00
    0.31203E-07        -0.51223E-20         0.00000E+00
    0.31203E-07        -0.53551E-20         0.00000E+00
    0.31203E-07        -0.46566E-20         0.00000E+00
    0.31203E-07        -0.17695E-19         0.00000E+00
    0.31203E-07        -0.15600E-19         0.00000E+00
    0.31203E-07        -0.21420E-19         0.00000E+00
    0.31203E-07        -0.13504E-19         0.00000E+00
    0.31203E-07        -0.18161E-19         0.00000E+00
    0.31203E-07        -0.13504E-19         0.00000E+00
    0.31203E-07        -0.55879E-20         0.00000E+00
    0.31203E-07        -0.23283E-20         0.00000E+00
    0.31203E-07         0.46566E-21         0.00000E+00
    0.32540E-07         0.46566E-21         0.00000E+00
    0.32540E-07         0.46566E-21         0.00000E+00
    0.32540E-07        -0.23283E-20         0.00000E+00
    0.32540E-07        -0.79162E-20         0.00000E+00
    0.32540E-07        -0.67521E-20         0.00000E+00
    0.32540E-07         0.46566E-21         0.00000E+00
    0.32540E-07         0.69849E-20         0.00000E+00
    0.32540E-07         0.25611E-20         0.00000E+00
    0.32540E-07         0.37253E-20         0.00000E+00
    0.32540E-07         0.74506E-20         0.00000E+00
    0.32540E-07        -0.93132E-21         0.00000E+00
    0.32540E-07         0.12107E-19         0.00000E+00
    0.32540E-07         0.46566E-20         0.00000E+00
    0.32540E-07         0.20955E-20         0.00000E+00
    0.32540E-07        -0.67521E-20         0.00000E+00
    0.32540E-07        -0.12107E-19         0.00000E+00
    0.32540E-07        -0.12107E-19         0.00000E+00
    0.32540E-07         0.00000E+00         0.00000E+00
    0.32540E-07         0.34925E-20         0.00000E+00
    0.32540E-07        -0.18626E-20         0.00000E+00
    0.32540E-07         0.00000E+00         0.00000E+00
    0.32540E-07        -0.25611E-20         0.00000E+00
    0.32540E-07         0.27940E-20         0.00000E+00
    0.32540E-07         0.93132E-20         0.00000E+00
    0.32540E-07         0.74506E-20         0.00000E+00
    0.32540E-07        -0.58208E-20         0.00000E+00
    0.32540E-07        -0.65193E-20         0.00000E+00
    0.32540E-07        -0.10710E-19         0.00000E+00
    0.32540E-07        -0.23283E-20         0.00000E+00
    0.32540E-07         0.23283E-20         0.00000E+00
    0.32540E-07         0.65193E-20         0.00000E+00
    0.32540E-07         0.12340E-19         0.00000E+00
    0.32540E-07         0.13504E-19         0.00000E+00
    0.32540E-07        -0.12107E-19         0.00000E+00
    0.32540E-07        -0.13970E-20         0.00000E+00
    0.32540E-07        -0.10012E-19         0.00000E+00
    0.32540E-07         0.34925E-20         0.00000E+00
    0.32540E-07        -0.41910E-20         0.00000E+00
    0.32540E-07        -0.14435E-19         0.00000E+00
    0.32540E-07        -0.16764E-19         0.00000E+00
    0.32540E-07        -0.48894E-20         0.00000E+00
    0.32540E-07        -0.88476E-20         0.00000E+00
    0.32540E-07        -0.10477E-19         0.00000E+00
    0.32540E-07        -0.15832E-19         0.00000E+00
    0.32540E-07        -0.81491E-20         0.00000E+00
    0.32540E-07        -0.97789E-20         0.00000E+00
    0.32540E-07        -0.14668E-19         0.00000E+00
    0.32540E-07        -0.17462E-19         0.00000E+00
    0.32540E-07        -0.11176E-19         0.00000E+00
    0.32540E-07        -0.74506E-20         0.00000E+00
    0.33964E-07         0.46566E-20         0.00000E+00
    0.33964E-07         0.11642E-19         0.00000E+00
    0.33964E-07        -0.18626E-20         0.00000E+00
    0.33964E-07        -0.32596E-20         0.00000E+00
    0.33964E-07        -0.51223E-20         0.00000E+00
    0.33964E-07         0.23283E-20         0.00000E+00
    0.33964E-07         0.13737E-19         0.00000E+00
    0.33964E-07         0.15134E-19         0.00000E+00
    0.33964E-07         0.69849E-20         0.00000E+00
    0.33964E-07         0.15367E-19         0.00000E+00
    0.33964E-07        -0.65193E-20         0.00000E+00
    0.33964E-07        -0.34925E-20         0.00000E+00
    0.33964E-07         0.37253E-20         0.00000E+00
    0.33964E-07         0.32596E-20         0.00000E+00
    0.33964E-07         0.60536E-20         0.00000E+00
    0.33964E-07        -0.37253E-20         0.00000E+00
    0.33964E-07        -0.46566E-21         0.00000E+00
    0.33964E-07         0.00000E+00         0.00000E+00
    0.33964E-07         0.37253E-20         0.00000E+00
    0.33964E-07        -0.46566E-21         0.00000E+00
    0.33964E-07         0.46566E-20         0.00000E+00
    0.33964E-07        -0.37253E-20         0.00000E+00
    0.33964E-07        -0.13970E-20         0.00000E+00
    0.33964E-07         0.13970E-20         0.00000E+00
    0.33964E-07        -0.65193E-20         0.00000E+00
    0.33964E-07        -0.10012E-19         0.00000E+00
    0.33964E-07        -0.22352E-19         0.00000E+00
    0.33964E-07        -0.16531E-19         0.00000E+00
    0.33964E-07        -0.13504E-19         0.00000E+00
    0.33964E-07        -0.60536E-20         0.00000E+00
    0.33964E-07         0.79162E-20         0.00000E+00
    0.33964E-07         0.14668E-19         0.00000E+00
    0.33964E-07         0.17928E-19         0.00000E+00
    0.33964E-07         0.69849E-21         0.00000E+00
    0.33964E-07         0.67521E-20         0.00000E+00
    0.33964E-07        -0.69849E-20         0.00000E+00
    0.33964E-07         0.18626E-20         0.00000E+00
    0.33964E-07        -0.27940E-20         0.00000E+00
    0.33964E-07        -0.79162E-20         0.00000E+00
    0.33964E-07        -0.18626E-19         0.00000E+00
    0.33964E-07        -0.11642E-19         0.00000E+00
    0.33964E-07        -0.93132E-20         0.00000E+00
    0.33964E-07        -0.13737E-19         0.00000E+00
    0.33964E-07        -0.88476E-20         0.00000E+00
    0.33964E-07        -0.48894E-20         0.00000E+00
    0.33964E-07        -0.93132E-21         0.00000E+00
    0.33964E-07        -0.30268E-20         0.00000E+00
    0.33964E-07        -0.32596E-20         0.00000E+00
    0.33964E-07        -0.27940E-20         0.00000E+00
    0.33964E-07        -0.41910E-20         0.00000E+00
    0.35473E-07        -0.46566E-21         0.00000E+00
    0.35473E-07         0.37253E-20         0.00000E+00
    0.35473E-07         0.69849E-20         0.00000E+00
    0.35473E-07         0.46566E-21         0.00000E+00
    0.35473E-07         0.27940E-20         0.00000E+00
    0.35473E-07         0.27940E-20         0.00000E+00
    0.35473E-07         0.13970E-20         0.00000E+00
    0.35473E-07        -0.93132E-21         0.00000E+00
    0.35473E-07         0.13970E-20         0.00000E+00
    0.35473E-07         0.37253E-20         0.00000E+00
    0.35473E-07        -0.13970E-20         0.00000E+00
    0.35473E-07        -0.93132E-21         0.00000E+00
    0.35473E-07         0.69849E-20         0.00000E+00
    0.35473E-07         0.18626E-20         0.00000E+00
    0.35473E-07         0.41910E-20         0.00000E+00
    0.35473E-07        -0.18626E-20         0.00000E+00
    0.35473E-07         0.46566E-21         0.00000E+00
    0.35473E-07         0.13970E-20         0.00000E+00
    0.35473E-07         0.51223E-20         0.00000E+00
    0.35473E-07        -0.18626E-20         0.00000E+00
    0.35473E-07        -0.27940E-20         0.00000E+00
    0.35473E-07         0.83819E-20         0.00000E+00
    0.35473E-07        -0.93132E-21         0.00000E+00
    0.35473E-07         0.51223E-20         0.00000E+00
    0.35473E-07        -0.23283E-20         0.00000E+00
    0.35473E-07        -0.60536E-20         0.00000E+00
    0.35473E-07        -0.13039E-19         0.00000E+00
    0.35473E-07        -0.74506E-20         0.00000E+00
    0.35473E-07        -0.37253E-20         0.00000E+00
    0.35473E-07         0.46566E-21         0.00000E+00
    0.35473E-07         0.11176E-19         0.00000E+00
    0.35473E-07         0.39581E-20         0.00000E+00
    0.35473E-07         0.97789E-20         0.00000E+00
    0.35473E-07         0.37253E-20         0.00000E+00
    0.35473E-07         0.18626E-20         0.00000E+00
    0.35473E-07        -0.46566E-21         0.00000E+00
    0.35473E-07         0.23283E-20         0.00000E+00
    0.35473E-07        -0.51223E-20         0.00000E+00
    0.35473E-07         0.46566E-21         0.00000E+00
    0.35473E-07        -0.11642E-19         0.00000E+00
    0.35473E-07        -0.11176E-19         0.00000E+00
    0.35473E-07        -0.44238E-20         0.00000E+00
    0.35473E-07        -0.88476E-20         0.00000E+00
    0.35473E-07        -0.27940E-20         0.00000E+00
    0.35473E-07        -0.13970E-20         0.00000E+00
    0.35473E-07         0.79162E-20         0.00000E+00
    0.35473E-07        -0.23283E-20         0.00000E+00
    0.35473E-07         0.18626E-20         0.00000E+00
    0.35473E-07         0.51223E-20         0.00000E+00
    0.35473E-07        -0.93132E-21         0.00000E+00
    0.37064E-07         0.51223E-20         0.00000E+00
    0.37064E-07        -0.46566E-20         0.00000E+00
    0.37064E-07         0.12573E-19         0.00000E+00
    0.37064E-07         0.11176E-19         0.00000E+00
    0.37064E-07         0.74506E-20         0.00000E+00
    0.37064E-07        -0.18626E-20         0.00000E+00
    0.37064E-07        -0.13970E-20         0.00000E+00
    0.37064E-07        -0.10710E-19         0.00000E+00
    0.37064E-07        -0.37253E-20         0.00000E+00
    0.37064E-07        -0.51223E-20         0.00000E+00
    0.37064E-07        -0.37253E-20         0.00000E+00
    0.37064E-07         0.93132E-21         0.00000E+00
    0.37064E-07         0.74506E-20         0.00000E+00
    0.37064E-07         0.12107E-19         0.00000E+00
    0.37064E-07        -0.23283E-20         0.00000E+00
    0.37064E-07         0.13970E-20         0.00000E+00
    0.37064E-07         0.58208E-20         0.00000E+00
    0.37064E-07         0.97789E-20         0.00000E+00
    0.37064E-07         0.32596E-20         0.00000E+00
    0.37064E-07         0.00000E+00         0.00000E+00
    0.37064E-07         0.13970E-20         0.00000E+00
    0.37064E-07         0.79162E-20         0.00000E+00
    0.37064E-07         0.69849E-20         0.00000E+00
    0.37064E-07        -0.69849E-21         0.00000E+00
    0.37064E-07        -0.69849E-21         0.00000E+00
    0.37064E-07        -0.11874E-19         0.00000E+00
    0.37064E-07         0.18626E-20         0.00000E+00
    0.37064E-07         0.37253E-20         0.00000E+00
    0.37064E-07         0.30268E-20         0.00000E+00
    0.37064E-07        -0.27940E-20         0.00000E+00
    0.37064E-07         0.93132E-20         0.00000E+00
    0.37064E-07         0.46566E-21         0.00000E+00
    0.37064E-07         0.65193E-20         0.00000E+00
    0.37064E-07         0.10245E-19         0.00000E+00
    0.37064E-07        -0.58208E-20         0.00000E+00
    0.37064E-07         0.00000E+00         0.00000E+00
    0.37064E-07         0.41910E-20         0.00000E+00
    0.37064E-07        -0.93132E-21         0.00000E+00
    0.37064E-07         0.13970E-20         0.00000E+00
    0.37064E-07        -0.13970E-20         0.00000E+00
    0.37064E-07         0.88476E-20         0.00000E+00
    0.37064E-07         0.60536E-20         0.00000E+00
    0.37064E-07        -0.23283E-20         0.00000E+00
    0.37064E-07        -0.46566E-21         0.00000E+00
    0.37064E-07        -0.23283E-21         0.00000E+00
    0.37064E-07         0.13039E-19         0.00000E+00
    0.37064E-07         0.83819E-20         0.00000E+00
    0.37064E-07         0.41910E-20         0.00000E+00
    0.37064E-07         0.11642E-19         0.00000E+00
    0.37064E-07        -0.13970E-20         0.00000E+00
    0.38734E-07         0.51223E-20         0.00000E+00
    0.38734E-07         0.55879E-20         0.00000E+00
    0.38734E-07         0.16764E-19         0.00000E+00
    0.38734E-07         0.93132E-20         0.00000E+00
    0.38734E-07         0.51223E-20         0.00000E+00
    0.38734E-07         0.23283E-20         0.00000E+00
    0.38734E-07         0.46566E-20         0.00000E+00
    0.38734E-07        -0.46566E-21         0.00000E+00
    0.38734E-07         0.74506E-20         0.00000E+00
    0.38734E-07         0.41910E-20         0.00000E+00
    0.38734E-07        -0.58208E-20         0.00000E+00
    0.38734E-07        -0.30268E-20         0.00000E+00
    0.38734E-07        -0.23283E-20         0.00000E+00
    0.38734E-07         0.10245E-19         0.00000E+00
    0.38734E-07         0.74506E-20         0.00000E+00
    0.38734E-07         0.11642E-19         0.00000E+00
    0.38734E-07         0.18626E-20         0.00000E+00
    0.38734E-07         0.10245E-19         0.00000E+00
    0.38734E-07        -0.46566E-21         0.00000E+00
    0.38734E-07         0.23283E-20         0.00000E+00
    0.38734E-07         0.27940E-20         0.00000E+00
    0.38734E-07        -0.32596E-20         0.00000E+00
    0.38734E-07        -0.16298E-19         0.00000E+00
    0.38734E-07        -0.34925E-20         0.00000E+00
    0.38734E-07        -0.11642E-20         0.00000E+00
    0.38734E-07        -0.69849E-21         0.00000E+00
    0.38734E-07         0.12573E-19         0.00000E+00
    0.38734E-07         0.69849E-20         0.00000E+00
    0.38734E-07         0.46566E-21         0.00000E+00
    0.38734E-07         0.60536E-20         0.00000E+00
    0.38734E-07         0.46566E-20         0.00000E+00
    0.38734E-07         0.15367E-19         0.00000E+00
    0.38734E-07         0.13970E-20         0.00000E+00
    0.38734E-07         0.60536E-20         0.00000E+00
    0.38734E-07         0.88476E-20         0.00000E+00
    0.38734E-07         0.81491E-20         0.00000E+00
    0.38734E-07         0.13970E-19         0.00000E+00
    0.38734E-07         0.13039E-19         0.00000E+00
    0.38734E-07         0.93132E-20         0.00000E+00
    0.38734E-07         0.20955E-20         0.00000E+00
    0.38734E-07         0.72177E-20         0.00000E+00
    0.38734E-07         0.51223E-20         0.00000E+00
    0.38734E-07         0.58208E-20         0.00000E+00
    0.38734E-07         0.69849E-20         0.00000E+00
    0.38734E-07         0.11409E-19         0.00000E+00
    0.38734E-07         0.79162E-20         0.00000E+00
    0.38734E-07         0.93132E-20         0.00000E+00
    0.38734E-07         0.22817E-19         0.00000E+00
    0.38734E-07         0.17928E-19         0.00000E+00
    0.38734E-07         0.93132E-21         0.00000E+00
    0.40480E-07        -0.18626E-20         0.00000E+00
    0.40480E-07         0.10245E-19         0.00000E+00
    0.40480E-07         0.83819E-20         0.00000E+00
    0.40480E-07        -0.23283E-20         0.00000E+00
    0.40480E-07         0.00000E+00         0.00000E+00
    0.40480E-07         0.18626E-20         0.00000E+00
    0.40480E-07         0.55879E-20         0.00000E+00
    0.40480E-07        -0.32596E-20         0.00000E+00
    0.40480E-07         0.18626E-20         0.00000E+00
    0.40480E-07        -0.27940E-20         0.00000E+00
    0.40480E-07         0.23283E-20         0.00000E+00
    0.40480E-07         0.41910E-20         0.00000E+00
    0.40480E-07         0.46566E-21         0.00000E+00
    0.40480E-07        -0.37253E-20         0.00000E+00
    0.40480E-07         0.18626E-20         0.00000E+00
    0.40480E-07         0.83819E-20         0.00000E+00
    0.40480E-07        -0.88476E-20         0.00000E+00
    0.40480E-07        -0.93132E-21         0.00000E+00
    0.40480E-07        -0.46566E-20         0.00000E+00
    0.40480E-07        -0.46566E-21         0.00000E+00
    0.40480E-07        -0.10710E-19         0.00000E+00
    0.40480E-07        -0.10245E-19         0.00000E+00
    0.40480E-07        -0.12573E-19         0.00000E+00
    0.40480E-07         0.93132E-21         0.00000E+00
    0.40480E-07         0.12340E-19         0.00000E+00
    0.40480E-07         0.24680E-19         0.00000E+00
    0.40480E-07         0.13039E-19         0.00000E+00
    0.40480E-07         0.32596E-20         0.00000E+00
    0.40480E-07         0.65193E-20         0.00000E+00
    0.40480E-07         0.11642E-19         0.00000E+00
    0.40480E-07         0.10710E-19         0.00000E+00
    0.40480E-07         0.20489E-19         0.00000E+00
    0.40480E-07         0.17229E-19         0.00000E+00
    0.40480E-07         0.15832E-19         0.00000E+00
    0.40480E-07         0.22817E-19         0.00000E+00
    0.40480E-07         0.19092E-19         0.00000E+00
    0.40480E-07         0.20489E-19         0.00000E+00
    0.40480E-07         0.28405E-19         0.00000E+00
    0.40480E-07         0.13504E-19         0.00000E+00
    0.40480E-07         0.12107E-19         0.00000E+00
    0.40480E-07         0.93132E-20         0.00000E+00
    0.40480E-07         0.88476E-20         0.00000E+00
    0.40480E-07         0.83819E-20         0.00000E+00
    0.40480E-07         0.41910E-20         0.00000E+00
    0.40480E-07         0.18161E-19         0.00000E+00
    0.40480E-07         0.13039E-19         0.00000E+00
    0.40480E-07         0.74506E-20         0.00000E+00
    0.40480E-07         0.13504E-19         0.00000E+00
    0.40480E-07         0.23283E-20         0.00000E+00
    0.40480E-07         0.13970E-20         0.00000E+00
    0.42298E-07        -0.18626E-20         0.00000E+00
    0.42298E-07        -0.41910E-20         0.00000E+00
    0.42298E-07        -0.13970E-20         0.00000E+00
    0.42298E-07        -0.46566E-20         0.00000E+00
    0.42298E-07         0.69849E-20         0.00000E+00
    0.42298E-07         0.32596E-20         0.00000E+00
    0.42298E-07         0.37253E-20         0.00000E+00
    0.42298E-07        -0.65193E-20         0.00000E+00
    0.42298E-07        -0.46566E-20         0.00000E+00
    0.42298E-07        -0.18626E-20         0.00000E+00
    0.42298E-07        -0.18626E-20         0.00000E+00
    0.42298E-07        -0.23283E-20         0.00000E+00
    0.42298E-07        -0.32596E-20         0.00000E+00
    0.42298E-07         0.46566E-20         0.00000E+00
    0.42298E-07        -0.41910E-20         0.00000E+00
    0.42298E-07        -0.79162E-20         0.00000E+00
    0.42298E-07        -0.93132E-20         0.00000E+00
    0.42298E-07        -0.79162E-20         0.00000E+00
    0.42298E-07        -0.55879E-20         0.00000E+00
    0.42298E-07         0.11176E-19         0.00000E+00
    0.42298E-07        -0.27940E-20         0.00000E+00
    0.42298E-07        -0.20955E-20         0.00000E+00
    0.42298E-07        -0.18626E-20         0.00000E+00
    0.42298E-07        -0.32596E-20         0.00000E+00
    0.42298E-07         0.17695E-19         0.00000E+00
    0.42298E-07         0.16531E-19         0.00000E+00
    0.42298E-07         0.76834E-20         0.00000E+00
    0.42298E-07         0.32596E-20         0.00000E+00
    0.42298E-07         0.11176E-19         0.00000E+00
    0.42298E-07         0.27940E-20         0.00000E+00
    0.42298E-07         0.13504E-19         0.00000E+00
    0.42298E-07         0.21886E-19         0.00000E+00
    0.42298E-07         0.25146E-19         0.00000E+00
    0.42298E-07         0.26543E-19         0.00000E+00
    0.42298E-07         0.30268E-19         0.00000E+00
    0.42298E-07         0.22817E-19         0.00000E+00
    0.42298E-07         0.17928E-19         0.00000E+00
    0.42298E-07         0.27241E-19         0.00000E+00
    0.42298E-07         0.24680E-19         0.00000E+00
    0.42298E-07         0.21886E-19         0.00000E+00
    0.42298E-07         0.12107E-19         0.00000E+00
    0.42298E-07         0.79162E-20         0.00000E+00
    0.42298E-07         0.10477E-19         0.00000E+00
    0.42298E-07        -0.44238E-20         0.00000E+00
    0.42298E-07         0.74506E-20         0.00000E+00
    0.42298E-07         0.13504E-19         0.00000E+00
    0.42298E-07         0.32596E-20         0.00000E+00
    0.42298E-07         0.67521E-20         0.00000E+00
    0.42298E-07         0.37253E-20         0.00000E+00
    0.42298E-07        -0.18626E-20         0.00000E+00
    0.44184E-07         0.93132E-21         0.00000E+00
    0.44184E-07        -0.44238E-20         0.00000E+00
    0.44184E-07        -0.18626E-20         0.00000E+00
    0.44184E-07         0.48894E-20         0.00000E+00
    0.44184E-07         0.14901E-19         0.00000E+00
    0.44184E-07         0.12573E-19         0.00000E+00
    0.44184E-07        -0.46566E-21         0.00000E+00
    0.44184E-07         0.95461E-20         0.00000E+00
    0.44184E-07         0.46566E-21         0.00000E+00
    0.44184E-07        -0.65193E-20         0.00000E+00
    0.44184E-07        -0.46566E-20         0.00000E+00
    0.44184E-07        -0.88476E-20         0.00000E+00
    0.44184E-07        -0.10943E-19         0.00000E+00
    0.44184E-07        -0.13970E-20         0.00000E+00
    0.44184E-07         0.93132E-21         0.00000E+00
    0.44184E-07         0.55879E-20         0.00000E+00
    0.44184E-07         0.51223E-20         0.00000E+00
    0.44184E-07        -0.18626E-20         0.00000E+00
    0.44184E-07        -0.46566E-21         0.00000E+00
    0.44184E-07         0.15832E-19         0.00000E+00
    0.44184E-07         0.46566E-20         0.00000E+00
    0.44184E-07        -0.93132E-21         0.00000E+00
    0.44184E-07        -0.90804E-20         0.00000E+00
    0.44184E-07        -0.93132E-21         0.00000E+00
    0.44184E-07         0.48894E-20         0.00000E+00
    0.44184E-07         0.44238E-20         0.00000E+00
    0.44184E-07         0.27940E-20         0.00000E+00
    0.44184E-07         0.13970E-20         0.00000E+00
    0.44184E-07         0.46566E-21         0.00000E+00
    0.44184E-07        -0.23283E-20         0.00000E+00
    0.44184E-07         0.11874E-19         0.00000E+00
    0.44184E-07         0.14901E-19         0.00000E+00
    0.44184E-07         0.16531E-19         0.00000E+00
    0.44184E-07         0.27474E-19         0.00000E+00
    0.44184E-07         0.26077E-19         0.00000E+00
    0.44184E-07         0.39348E-19         0.00000E+00
    0.44184E-07         0.25611E-19         0.00000E+00
    0.44184E-07         0.20489E-19         0.00000E+00
    0.44184E-07         0.25379E-19         0.00000E+00
    0.44184E-07         0.20256E-19         0.00000E+00
    0.44184E-07         0.10245E-19         0.00000E+00
    0.44184E-07         0.37253E-20         0.00000E+00
    0.44184E-07         0.10245E-19         0.00000E+00
    0.44184E-07         0.13504E-19         0.00000E+00
    0.44184E-07         0.83819E-20         0.00000E+00
    0.44184E-07         0.60536E-20         0.00000E+00
    0.44184E-07        -0.44238E-20         0.00000E+00
    0.44184E-07         0.27940E-20         0.00000E+00
    0.44184E-07        -0.46566E-21         0.00000E+00
    0.44184E-07        -0.44238E-20         0.00000E+00
    0.46133E-07         0.69849E-20         0.00000E+00
    0.46133E-07        -0.23283E-20         0.00000E+00
    0.46133E-07         0.37253E-20         0.00000E+00
    0.46133E-07         0.76834E-20         0.00000E+00
    0.46133E-07         0.97789E-20         0.00000E+00
    0.46133E-07         0.55879E-20         0.00000E+00
    0.46133E-07         0.00000E+00         0.00000E+00
    0.46133E-07         0.55879E-20         0.00000E+00
    0.46133E-07        -0.83819E-20         0.00000E+00
    0.46133E-07         0.00000E+00         0.00000E+00
    0.46133E-07         0.11642E-19         0.00000E+00
    0.46133E-07        -0.93132E-21         0.00000E+00
    0.46133E-07         0.93132E-21         0.00000E+00
    0.46133E-07        -0.39581E-20         0.00000E+00
    0.46133E-07        -0.18626E-20         0.00000E+00
    0.46133E-07         0.48894E-20         0.00000E+00
    0.46133E-07         0.11642E-19         0.00000E+00
    0.46133E-07         0.37253E-20         0.00000E+00
    0.46133E-07         0.74506E-20         0.00000E+00
    0.46133E-07        -0.74506E-20         0.00000E+00
    0.46133E-07         0.23283E-20         0.00000E+00
    0.46133E-07        -0.69849E-20         0.00000E+00
    0.46133E-07        -0.60536E-20         0.00000E+00
    0.46133E-07        -0.13271E-19         0.00000E+00
    0.46133E-07        -0.65193E-20         0.00000E+00
    0.46133E-07         0.46566E-21         0.00000E+00
    0.46133E-07         0.41910E-20         0.00000E+00
    0.46133E-07        -0.18626E-20         0.00000E+00
    0.46133E-07        -0.79162E-20         0.00000E+00
    0.46133E-07        -0.41910E-20         0.00000E+00
    0.46133E-07         0.16764E-19         0.00000E+00
    0.46133E-07         0.18626E-19         0.00000E+00
    0.46133E-07         0.32829E-19         0.00000E+00
    0.46133E-07         0.35856E-19         0.00000E+00
    0.46133E-07         0.27008E-19         0.00000E+00
    0.46133E-07         0.32596E-19         0.00000E+00
    0.46133E-07         0.23749E-19         0.00000E+00
    0.46133E-07         0.74506E-20         0.00000E+00
    0.46133E-07         0.10710E-19         0.00000E+00
    0.46133E-07         0.13039E-19         0.00000E+00
    0.46133E-07         0.97789E-20         0.00000E+00
    0.46133E-07         0.79162E-20         0.00000E+00
    0.46133E-07         0.79162E-20         0.00000E+00
    0.46133E-07         0.93132E-20         0.00000E+00
    0.46133E-07         0.65193E-20         0.00000E+00
    0.46133E-07         0.13970E-20         0.00000E+00
    0.46133E-07        -0.39581E-20         0.00000E+00
    0.46133E-07        -0.13970E-20         0.00000E+00
    0.46133E-07        -0.79162E-20         0.00000E+00
    0.46133E-07        -0.74506E-20         0.00000E+00
    0.48141E-07         0.41910E-20         0.00000E+00
    0.48141E-07         0.32596E-20         0.00000E+00
    0.48141E-07         0.88476E-20         0.00000E+00
    0.48141E-07        -0.25611E-20         0.00000E+00
    0.48141E-07        -0.27940E-20         0.00000E+00
    0.48141E-07        -0.46566E-20         0.00000E+00
    0.48141E-07        -0.97789E-20         0.00000E+00
    0.48141E-07        -0.48894E-20         0.00000E+00
    0.48141E-07        -0.41910E-20         0.00000E+00
    0.48141E-07         0.55879E-20         0.00000E+00
    0.48141E-07         0.41910E-20         0.00000E+00
    0.48141E-07         0.11176E-19         0.00000E+00
    0.48141E-07         0.95461E-20         0.00000E+00
    0.48141E-07        -0.32596E-20         0.00000E+00
    0.48141E-07        -0.13970E-20         0.00000E+00
    0.48141E-07        -0.97789E-20         0.00000E+00
    0.48141E-07         0.86147E-20         0.00000E+00
    0.48141E-07         0.55879E-20         0.00000E+00
    0.48141E-07         0.27940E-20         0.00000E+00
    0.48141E-07        -0.12107E-19         0.00000E+00
    0.48141E-07        -0.37253E-20         0.00000E+00
    0.48141E-07        -0.14435E-19         0.00000E+00
    0.48141E-07        -0.12573E-19         0.00000E+00
    0.48141E-07        -0.12573E-19         0.00000E+00
    0.48141E-07        -0.12573E-19         0.00000E+00
    0.48141E-07        -0.88476E-20         0.00000E+00
    0.48141E-07        -0.93132E-20         0.00000E+00
    0.48141E-07        -0.46566E-20         0.00000E+00
    0.48141E-07        -0.65193E-20         0.00000E+00
    0.48141E-07        -0.23283E-20         0.00000E+00
    0.48141E-07         0.10710E-19         0.00000E+00
    0.48141E-07         0.22585E-19         0.00000E+00
    0.48141E-07         0.27474E-19         0.00000E+00
    0.48141E-07         0.25146E-19         0.00000E+00
    0.48141E-07         0.20256E-19         0.00000E+00
    0.48141E-07         0.19558E-19         0.00000E+00
    0.48141E-07         0.12806E-19         0.00000E+00
    0.48141E-07         0.93132E-21         0.00000E+00
    0.48141E-07         0.13970E-19         0.00000E+00
    0.48141E-07         0.10477E-19         0.00000E+00
    0.48141E-07         0.10710E-19         0.00000E+00
    0.48141E-07         0.15134E-19         0.00000E+00
    0.48141E-07         0.65193E-20         0.00000E+00
    0.48141E-07        -0.93132E-20         0.00000E+00
    0.48141E-07        -0.20955E-20         0.00000E+00
    0.48141E-07        -0.65193E-20         0.00000E+00
    0.48141E-07        -0.18394E-19         0.00000E+00
    0.48141E-07        -0.13970E-19         0.00000E+00
    0.48141E-07        -0.23283E-20         0.00000E+00
    0.48141E-07        -0.32596E-20         0.00000E+00
    0.50202E-07        -0.23283E-20         0.00000E+00
    0.50202E-07         0.46566E-20         0.00000E+00
    0.50202E-07         0.69849E-20         0.00000E+00
    0.50202E-07        -0.93132E-21         0.00000E+00
    0.50202E-07        -0.65193E-20         0.00000E+00
    0.50202E-07        -0.37253E-20         0.00000E+00
    0.50202E-07        -0.13970E-19         0.00000E+00
    0.50202E-07        -0.11176E-19         0.00000E+00
    0.50202E-07        -0.13039E-19         0.00000E+00
    0.50202E-07         0.74506E-20         0.00000E+00
    0.50202E-07         0.93132E-21         0.00000E+00
    0.50202E-07         0.67521E-20         0.00000E+00
    0.50202E-07         0.18626E-20         0.00000E+00
    0.50202E-07         0.93132E-21         0.00000E+00
    0.50202E-07         0.25611E-20         0.00000E+00
    0.50202E-07        -0.32596E-20         0.00000E+00
    0.50202E-07        -0.60536E-20         0.00000E+00
    0.50202E-07        -0.74506E-20         0.00000E+00
    0.50202E-07        -0.15367E-19         0.00000E+00
    0.50202E-07        -0.97789E-20         0.00000E+00
    0.50202E-07        -0.17229E-19         0.00000E+00
    0.50202E-07        -0.11642E-19         0.00000E+00
    0.50202E-07        -0.13504E-19         0.00000E+00
    0.50202E-07        -0.16298E-19         0.00000E+00
    0.50202E-07        -0.22817E-19         0.00000E+00
    0.50202E-07        -0.20955E-19         0.00000E+00
    0.50202E-07        -0.16764E-19         0.00000E+00
    0.50202E-07        -0.20023E-19         0.00000E+00
    0.50202E-07        -0.10245E-19         0.00000E+00
    0.50202E-07        -0.18626E-20         0.00000E+00
    0.50202E-07         0.65193E-20         0.00000E+00
    0.50202E-07         0.69849E-20         0.00000E+00
    0.50202E-07         0.16997E-19         0.00000E+00
    0.50202E-07         0.17695E-19         0.00000E+00
    0.50202E-07         0.13271E-19         0.00000E+00
    0.50202E-07         0.21886E-19         0.00000E+00
    0.50202E-07         0.18161E-19         0.00000E+00
    0.50202E-07         0.62864E-20         0.00000E+00
    0.50202E-07         0.74506E-20         0.00000E+00
    0.50202E-07         0.14901E-19         0.00000E+00
    0.50202E-07         0.11642E-20         0.00000E+00
    0.50202E-07         0.18626E-20         0.00000E+00
    0.50202E-07        -0.93132E-21         0.00000E+00
    0.50202E-07        -0.79162E-20         0.00000E+00
    0.50202E-07        -0.11409E-19         0.00000E+00
    0.50202E-07        -0.11176E-19         0.00000E+00
    0.50202E-07        -0.24214E-19         0.00000E+00
    0.50202E-07        -0.14901E-19         0.00000E+00
    0.50202E-07        -0.18626E-20         0.00000E+00
    0.50202E-07         0.18626E-20         0.00000E+00
    0.52309E-07        -0.69849E-21         0.00000E+00
    0.52309E-07        -0.53551E-20         0.00000E+00
    0.52309E-07         0.79162E-20         0.00000E+00
    0.52309E-07        -0.60536E-20         0.00000E+00
    0.52309E-07        -0.69849E-20         0.00000E+00
    0.52309E-07        -0.32596E-20         0.00000E+00
    0.52309E-07        -0.41910E-20         0.00000E+00
    0.52309E-07        -0.12107E-19         0.00000E+00
    0.52309E-07        -0.11176E-19         0.00000E+00
    0.52309E-07         0.41910E-20         0.00000E+00
    0.52309E-07         0.74506E-20         0.00000E+00
    0.52309E-07         0.00000E+00         0.00000E+00
    0.52309E-07         0.51223E-20         0.00000E+00
    0.52309E-07         0.51223E-20         0.00000E+00
    0.52309E-07        -0.51223E-20         0.00000E+00
    0.52309E-07        -0.32596E-20         0.00000E+00
    0.52309E-07        -0.65193E-20         0.00000E+00
    0.52309E-07        -0.13737E-19         0.00000E+00
    0.52309E-07        -0.14901E-19         0.00000E+00
    0.52309E-07        -0.19092E-19         0.00000E+00
    0.52309E-07        -0.18161E-19         0.00000E+00
    0.52309E-07        -0.51223E-20         0.00000E+00
    0.52309E-07        -0.13504E-19         0.00000E+00
    0.52309E-07        -0.15367E-19         0.00000E+00
    0.52309E-07        -0.29569E-19         0.00000E+00
    0.52309E-07        -0.27474E-19         0.00000E+00
    0.52309E-07        -0.20955E-19         0.00000E+00
    0.52309E-07        -0.20023E-19         0.00000E+00
    0.52309E-07        -0.18626E-19         0.00000E+00
    0.52309E-07        -0.69849E-20         0.00000E+00
    0.52309E-07         0.93132E-21         0.00000E+00
    0.52309E-07         0.30268E-20         0.00000E+00
    0.52309E-07         0.86147E-20         0.00000E+00
    0.52309E-07         0.15367E-19         0.00000E+00
    0.52309E-07         0.90804E-20         0.00000E+00
    0.52309E-07         0.15367E-19         0.00000E+00
    0.52309E-07         0.11176E-19         0.00000E+00
    0.52309E-07         0.41910E-20         0.00000E+00
    0.52309E-07         0.41910E-20         0.00000E+00
    0.52309E-07         0.41910E-20         0.00000E+00
    0.52309E-07        -0.37253E-20         0.00000E+00
    0.52309E-07        -0.74506E-20         0.00000E+00
    0.52309E-07        -0.83819E-20         0.00000E+00
    0.52309E-07        -0.15832E-19         0.00000E+00
    0.52309E-07        -0.24214E-19         0.00000E+00
    0.52309E-07        -0.15832E-19         0.00000E+00
    0.52309E-07        -0.13271E-19         0.00000E+00
    0.52309E-07        -0.55879E-20         0.00000E+00
    0.52309E-07         0.37253E-20         0.00000E+00
    0.52309E-07         0.27940E-20         0.00000E+00
    0.54457E-07         0.69849E-21         0.00000E+00
    0.54457E-07        -0.27940E-20         0.00000E+00
    0.54457E-07        -0.51223E-20         0.00000E+00
    0.54457E-07        -0.10245E-19         0.00000E+00
    0.54457E-07        -0.25611E-20         0.00000E+00
    0.54457E-07        -0.18626E-20         0.00000E+00
    0.54457E-07         0.46566E-20         0.00000E+00
    0.54457E-07        -0.46566E-21         0.00000E+00
    0.54457E-07        -0.74506E-20         0.00000E+00
    0.54457E-07        -0.23283E-20         0.00000E+00
    0.54457E-07        -0.60536E-20         0.00000E+00
    0.54457E-07         0.46566E-21         0.00000E+00
    0.54457E-07         0.90804E-20         0.00000E+00
    0.54457E-07         0.18626E-20         0.00000E+00
    0.54457E-07        -0.23283E-20         0.00000E+00
    0.54457E-07        -0.23283E-20         0.00000E+00
    0.54457E-07        -0.32596E-20         0.00000E+00
    0.54457E-07        -0.13039E-19         0.00000E+00
    0.54457E-07        -0.12573E-19         0.00000E+00
    0.54457E-07        -0.20489E-19         0.00000E+00
    0.54457E-07        -0.20023E-19         0.00000E+00
    0.54457E-07        -0.13504E-19         0.00000E+00
    0.54457E-07        -0.17229E-19         0.00000E+00
    0.54457E-07        -0.93132E-20         0.00000E+00
    0.54457E-07        -0.21886E-19         0.00000E+00
    0.54457E-07        -0.32596E-19         0.00000E+00
    0.54457E-07        -0.31665E-19         0.00000E+00
    0.54457E-07        -0.13039E-19         0.00000E+00
    0.54457E-07        -0.16298E-19         0.00000E+00
    0.54457E-07        -0.11642E-19         0.00000E+00
    0.54457E-07        -0.93132E-20         0.00000E+00
    0.54457E-07        -0.46566E-20         0.00000E+00
    0.54457E-07        -0.58208E-20         0.00000E+00
    0.54457E-07         0.79162E-20         0.00000E+00
    0.54457E-07        -0.37253E-20         0.00000E+00
    0.54457E-07         0.97789E-20         0.00000E+00
    0.54457E-07         0.11176E-19         0.00000E+00
    0.54457E-07         0.46566E-20         0.00000E+00
    0.54457E-07         0.65193E-20         0.00000E+00
    0.54457E-07         0.18626E-20         0.00000E+00
    0.54457E-07        -0.18626E-20         0.00000E+00
    0.54457E-07        -0.18626E-20         0.00000E+00
    0.54457E-07        -0.65193E-20         0.00000E+00
    0.54457E-07        -0.14901E-19         0.00000E+00
    0.54457E-07        -0.20489E-19         0.00000E+00
    0.54457E-07        -0.97789E-20         0.00000E+00
    0.54457E-07        -0.13970E-19         0.00000E+00
    0.54457E-07        -0.14435E-19         0.00000E+00
    0.54457E-07        -0.23283E-20         0.00000E+00
    0.54457E-07         0.48894E-20         0.00000E+00
    0.56637E-07        -0.93132E-21         0.00000E+00
    0.56637E-07         0.55879E-20         0.00000E+00
    0.56637E-07        -0.46566E-20         0.00000E+00
    0.56637E-07        -0.53551E-20         0.00000E+00
    0.56637E-07        -0.55879E-20         0.00000E+00
    0.56637E-07        -0.13970E-20         0.00000E+00
    0.56637E-07         0.14901E-19         0.00000E+00
    0.56637E-07         0.69849E-20         0.00000E+00
    0.56637E-07        -0.13970E-20         0.00000E+00
    0.56637E-07         0.27940E-20         0.00000E+00
    0.56637E-07        -0.46566E-20         0.00000E+00
    0.56637E-07         0.00000E+00         0.00000E+00
    0.56637E-07         0.46566E-20         0.00000E+00
    0.56637E-07         0.00000E+00         0.00000E+00
    0.56637E-07         0.46566E-21         0.00000E+00
    0.56637E-07         0.18626E-20         0.00000E+00
    0.56637E-07        -0.15367E-19         0.00000E+00
    0.56637E-07        -0.13504E-19         0.00000E+00
    0.56637E-07        -0.11642E-19         0.00000E+00
    0.56637E-07        -0.21886E-19         0.00000E+00
    0.56637E-07        -0.28405E-19         0.00000E+00
    0.56637E-07        -0.27474E-19         0.00000E+00
    0.56637E-07        -0.13504E-19         0.00000E+00
    0.56637E-07        -0.17695E-19         0.00000E+00
    0.56637E-07        -0.24680E-19         0.00000E+00
    0.56637E-07        -0.33528E-19         0.00000E+00
    0.56637E-07        -0.29802E-19         0.00000E+00
    0.56637E-07        -0.15367E-19         0.00000E+00
    0.56637E-07        -0.11176E-19         0.00000E+00
    0.56637E-07        -0.46566E-20         0.00000E+00
    0.56637E-07        -0.37253E-20         0.00000E+00
    0.56637E-07        -0.10245E-19         0.00000E+00
    0.56637E-07        -0.27940E-20         0.00000E+00
    0.56637E-07         0.93132E-21         0.00000E+00
    0.56637E-07        -0.93132E-20         0.00000E+00
    0.56637E-07        -0.16298E-20         0.00000E+00
    0.56637E-07         0.69849E-20         0.00000E+00
    0.56637E-07         0.46566E-21         0.00000E+00
    0.56637E-07         0.60536E-20         0.00000E+00
    0.56637E-07         0.88476E-20         0.00000E+00
    0.56637E-07        -0.46566E-21         0.00000E+00
    0.56637E-07         0.51223E-20         0.00000E+00
    0.56637E-07         0.55879E-20         0.00000E+00
    0.56637E-07         0.00000E+00         0.00000E+00
    0.56637E-07        -0.79162E-20         0.00000E+00
    0.56637E-07        -0.69849E-20         0.00000E+00
    0.56637E-07        -0.88476E-20         0.00000E+00
    0.56637E-07        -0.15367E-19         0.00000E+00
    0.56637E-07        -0.97789E-20         0.00000E+00
    0.56637E-07         0.32596E-20         0.00000E+00
    0.58843E-07         0.27940E-20         0.00000E+00
    0.58843E-07         0.13970E-20         0.00000E+00
    0.58843E-07         0.46566E-21         0.00000E+00
    0.58843E-07         0.32596E-20         0.00000E+00
    0.58843E-07        -0.32596E-20         0.00000E+00
    0.58843E-07         0.65193E-20         0.00000E+00
    0.58843E-07         0.13039E-19         0.00000E+00
    0.58843E-07         0.37253E-20         0.00000E+00
    0.58843E-07        -0.32596E-20         0.00000E+00
    0.58843E-07        -0.88476E-20         0.00000E+00
    0.58843E-07        -0.60536E-20         0.00000E+00
    0.58843E-07        -0.46566E-20         0.00000E+00
    0.58843E-07         0.74506E-20         0.00000E+00
    0.58843E-07         0.32596E-20         0.00000E+00
    0.58843E-07         0.93132E-21         0.00000E+00
    0.58843E-07         0.97789E-20         0.00000E+00
    0.58843E-07        -0.12573E-19         0.00000E+00
    0.58843E-07        -0.18161E-19         0.00000E+00
    0.58843E-07        -0.24214E-19         0.00000E+00
    0.58843E-07        -0.25146E-19         0.00000E+00
    0.58843E-07        -0.24214E-19         0.00000E+00
    0.58843E-07        -0.18626E-19         0.00000E+00
    0.58843E-07        -0.12573E-19         0.00000E+00
    0.58843E-07        -0.18626E-19         0.00000E+00
    0.58843E-07        -0.29802E-19         0.00000E+00
    0.58843E-07        -0.23283E-19         0.00000E+00
    0.58843E-07        -0.20023E-19         0.00000E+00
    0.58843E-07        -0.20023E-19         0.00000E+00
    0.58843E-07        -0.83819E-20         0.00000E+00
    0.58843E-07        -0.37253E-20         0.00000E+00
    0.58843E-07         0.18626E-20         0.00000E+00
    0.58843E-07        -0.74506E-20         0.00000E+00
    0.58843E-07        -0.55879E-20         0.00000E+00
    0.58843E-07        -0.93132E-21         0.00000E+00
    0.58843E-07        -0.62864E-20         0.00000E+00
    0.58843E-07        -0.79162E-20         0.00000E+00
    0.58843E-07        -0.37253E-20         0.00000E+00
    0.58843E-07         0.46566E-21         0.00000E+00
    0.58843E-07         0.37253E-20         0.00000E+00
    0.58843E-07         0.32596E-20         0.00000E+00
    0.58843E-07        -0.39581E-20         0.00000E+00
    0.58843E-07         0.55879E-20         0.00000E+00
    0.58843E-07         0.93132E-21         0.00000E+00
    0.58843E-07         0.60536E-20         0.00000E+00
    0.58843E-07        -0.23283E-20         0.00000E+00
    0.58843E-07         0.27940E-20         0.00000E+00
    0.58843E-07        -0.83819E-20         0.00000E+00
    0.58843E-07        -0.13504E-19         0.00000E+00
    0.58843E-07        -0.65193E-20         0.00000E+00
    0.58843E-07        -0.93132E-21         0.00000E+00
    0.61068E-07         0.00000E+00         0.00000E+00
    0.61068E-07        -0.86147E-20         0.00000E+00
    0.61068E-07        -0.47730E-20         0.00000E+00
    0.61068E-07         0.11642E-21         0.00000E+00
    0.61068E-07         0.18626E-20         0.00000E+00
    0.61068E-07         0.74506E-20         0.00000E+00
    0.61068E-07         0.74506E-20         0.00000E+00
    0.61068E-07         0.27940E-20         0.00000E+00
    0.61068E-07        -0.16997E-19         0.00000E+00
    0.61068E-07        -0.13271E-19         0.00000E+00
    0.61068E-07        -0.55879E-20         0.00000E+00
    0.61068E-07        -0.76834E-20         0.00000E+00
    0.61068E-07         0.31432E-20         0.00000E+00
    0.61068E-07        -0.46566E-21         0.00000E+00
    0.61068E-07        -0.69849E-21         0.00000E+00
    0.61068E-07         0.76834E-20         0.00000E+00
    0.61068E-07        -0.65193E-20         0.00000E+00
    0.61068E-07        -0.76834E-20         0.00000E+00
    0.61068E-07        -0.19325E-19         0.00000E+00
    0.61068E-07        -0.18859E-19         0.00000E+00
    0.61068E-07        -0.22352E-19         0.00000E+00
    0.61068E-07        -0.19791E-19         0.00000E+00
    0.61068E-07        -0.17928E-19         0.00000E+00
    0.61068E-07        -0.23283E-19         0.00000E+00
    0.61068E-07        -0.28173E-19         0.00000E+00
    0.61068E-07        -0.17229E-19         0.00000E+00
    0.61068E-07        -0.12573E-19         0.00000E+00
    0.61068E-07        -0.19325E-19         0.00000E+00
    0.61068E-07        -0.60536E-20         0.00000E+00
    0.61068E-07        -0.60536E-20         0.00000E+00
    0.61068E-07         0.44238E-20         0.00000E+00
    0.61068E-07        -0.16298E-20         0.00000E+00
    0.61068E-07        -0.90804E-20         0.00000E+00
    0.61068E-07         0.11642E-20         0.00000E+00
    0.61068E-07        -0.79162E-20         0.00000E+00
    0.61068E-07        -0.23283E-20         0.00000E+00
    0.61068E-07        -0.74506E-20         0.00000E+00
    0.61068E-07        -0.53551E-20         0.00000E+00
    0.61068E-07         0.46566E-20         0.00000E+00
    0.61068E-07        -0.23283E-21         0.00000E+00
    0.61068E-07        -0.11874E-19         0.00000E+00
    0.61068E-07        -0.18626E-20         0.00000E+00
    0.61068E-07        -0.72177E-20         0.00000E+00
    0.61068E-07         0.13970E-20         0.00000E+00
    0.61068E-07        -0.59372E-20         0.00000E+00
    0.61068E-07         0.66357E-20         0.00000E+00
    0.61068E-07        -0.36089E-20         0.00000E+00
    0.61068E-07        -0.11059E-19         0.00000E+00
    0.61068E-07        -0.23283E-21         0.00000E+00
    0.61068E-07         0.27940E-20         0.00000E+00
    0.63301E-07         0.13970E-20         0.00000E+00
    0.63301E-07        -0.79162E-20         0.00000E+00
    0.63301E-07        -0.72177E-20         0.00000E+00
    0.63301E-07        -0.34925E-20         0.00000E+00
    0.63301E-07        -0.93132E-21         0.00000E+00
    0.63301E-07         0.32596E-20         0.00000E+00
    0.63301E-07        -0.19791E-20         0.00000E+00
    0.63301E-07        -0.59372E-20         0.00000E+00
    0.63301E-07        -0.83819E-20         0.00000E+00
    0.63301E-07        -0.32596E-20         0.00000E+00
    0.63301E-07        -0.11642E-20         0.00000E+00
    0.63301E-07        -0.16298E-20         0.00000E+00
    0.63301E-07        -0.27940E-20         0.00000E+00
    0.63301E-07        -0.38417E-20         0.00000E+00
    0.63301E-07        -0.59372E-20         0.00000E+00
    0.63301E-07         0.13970E-20         0.00000E+00
    0.63301E-07        -0.34925E-20         0.00000E+00
    0.63301E-07        -0.20955E-20         0.00000E+00
    0.63301E-07        -0.95461E-20         0.00000E+00
    0.63301E-07        -0.76834E-20         0.00000E+00
    0.63301E-07        -0.34226E-19         0.00000E+00
    0.63301E-07        -0.29104E-19         0.00000E+00
    0.63301E-07        -0.16298E-19         0.00000E+00
    0.63301E-07        -0.24680E-19         0.00000E+00
    0.63301E-07        -0.27940E-19         0.00000E+00
    0.63301E-07        -0.15134E-19         0.00000E+00
    0.63301E-07        -0.88476E-20         0.00000E+00
    0.63301E-07        -0.10710E-19         0.00000E+00
    0.63301E-07        -0.55879E-20         0.00000E+00
    0.63301E-07        -0.27940E-20         0.00000E+00
    0.63301E-07         0.51223E-20         0.00000E+00
    0.63301E-07        -0.13970E-20         0.00000E+00
    0.63301E-07        -0.74506E-20         0.00000E+00
    0.63301E-07         0.00000E+00         0.00000E+00
    0.63301E-07         0.11642E-20         0.00000E+00
    0.63301E-07        -0.23283E-20         0.00000E+00
    0.63301E-07        -0.51223E-20         0.00000E+00
    0.63301E-07        -0.51223E-20         0.00000E+00
    0.63301E-07        -0.93132E-21         0.00000E+00
    0.63301E-07         0.46566E-20         0.00000E+00
    0.63301E-07        -0.90804E-20         0.00000E+00
    0.63301E-07        -0.68685E-20         0.00000E+00
    0.63301E-07        -0.65193E-20         0.00000E+00
    0.63301E-07        -0.13970E-20         0.00000E+00
    0.63301E-07        -0.93132E-21         0.00000E+00
    0.63301E-07        -0.83819E-20         0.00000E+00
    0.63301E-07        -0.37253E-20         0.00000E+00
    0.63301E-07        -0.51223E-20         0.00000E+00
    0.63301E-07         0.32596E-20         0.00000E+00
    0.63301E-07         0.65193E-20         0.00000E+00
    0.65536E-07        -0.81491E-21         0.00000E+00
    0.65536E-07        -0.13970E-20         0.00000E+00
    0.65536E-07        -0.74506E-20         0.00000E+00
    0.65536E-07        -0.51223E-20         0.00000E+00
    0.65536E-07        -0.19791E-20         0.00000E+00
    0.65536E-07         0.17462E-20         0.00000E+00
    0.65536E-07        -0.33760E-20         0.00000E+00
    0.65536E-07        -0.50059E-20         0.00000E+00
    0.65536E-07        -0.24447E-20         0.00000E+00
    0.65536E-07         0.18626E-20         0.00000E+00
    0.65536E-07        -0.93132E-21         0.00000E+00
    0.65536E-07         0.55879E-20         0.00000E+00
    0.65536E-07         0.00000E+00         0.00000E+00
    0.65536E-07         0.00000E+00         0.00000E+00
    0.65536E-07        -0.23283E-20         0.00000E+00
    0.65536E-07        -0.75670E-20         0.00000E+00
    0.65536E-07        -0.19092E-19         0.00000E+00
    0.65536E-07        -0.18626E-19         0.00000E+00
    0.65536E-07        -0.11409E-19         0.00000E+00
    0.65536E-07        -0.10710E-19         0.00000E+00
    0.65536E-07        -0.26077E-19         0.00000E+00
    0.65536E-07        -0.21653E-19         0.00000E+00
    0.65536E-07        -0.14668E-19         0.00000E+00
    0.65536E-07        -0.15832E-19         0.00000E+00
    0.65536E-07        -0.20256E-19         0.00000E+00
    0.65536E-07        -0.10477E-19         0.00000E+00
    0.65536E-07        -0.67521E-20         0.00000E+00
    0.65536E-07        -0.10012E-19         0.00000E+00
    0.65536E-07         0.00000E+00         0.00000E+00
    0.65536E-07        -0.58208E-20         0.00000E+00
    0.65536E-07        -0.46566E-21         0.00000E+00
    0.65536E-07        -0.53551E-20         0.00000E+00
    0.65536E-07        -0.60536E-20         0.00000E+00
    0.65536E-07        -0.23283E-20         0.00000E+00
    0.65536E-07         0.72177E-20         0.00000E+00
    0.65536E-07         0.61700E-20         0.00000E+00
    0.65536E-07         0.52387E-20         0.00000E+00
    0.65536E-07         0.76834E-20         0.00000E+00
    0.65536E-07         0.69849E-21         0.00000E+00
    0.65536E-07         0.46566E-20         0.00000E+00
    0.65536E-07        -0.86147E-20         0.00000E+00
    0.65536E-07        -0.10477E-19         0.00000E+00
    0.65536E-07        -0.12806E-19         0.00000E+00
    0.65536E-07         0.34925E-21         0.00000E+00
    0.65536E-07         0.13970E-20         0.00000E+00
    0.65536E-07        -0.31432E-20         0.00000E+00
    0.65536E-07        -0.76834E-20         0.00000E+00
    0.65536E-07        -0.11642E-19         0.00000E+00
    0.65536E-07        -0.93132E-21         0.00000E+00
    0.65536E-07         0.52387E-20         0.00000E+00
    0.67762E-07        -0.53551E-20         0.00000E+00
    0.67762E-07        -0.32596E-20         0.00000E+00
    0.67762E-07        -0.20955E-20         0.00000E+00
    0.67762E-07        -0.25611E-20         0.00000E+00
    0.67762E-07        -0.48894E-20         0.00000E+00
    0.67762E-07        -0.30268E-20         0.00000E+00
    0.67762E-07        -0.18626E-20         0.00000E+00
    0.67762E-07        -0.48894E-20         0.00000E+00
    0.67762E-07        -0.53551E-20         0.00000E+00
    0.67762E-07         0.44238E-20         0.00000E+00
    0.67762E-07        -0.34925E-20         0.00000E+00
    0.67762E-07         0.23283E-20         0.00000E+00
    0.67762E-07        -0.23283E-21         0.00000E+00
    0.67762E-07         0.20955E-20         0.00000E+00
    0.67762E-07        -0.98953E-20         0.00000E+00
    0.67762E-07        -0.48894E-20         0.00000E+00
    0.67762E-07        -0.18161E-19         0.00000E+00
    0.67762E-07        -0.20256E-19         0.00000E+00
    0.67762E-07        -0.15600E-19         0.00000E+00
    0.67762E-07        -0.13737E-19         0.00000E+00
    0.67762E-07        -0.21420E-19         0.00000E+00
    0.67762E-07        -0.20955E-19         0.00000E+00
    0.67762E-07        -0.95461E-20         0.00000E+00
    0.67762E-07        -0.13271E-19         0.00000E+00
    0.67762E-07        -0.14203E-19         0.00000E+00
    0.67762E-07        -0.79162E-20         0.00000E+00
    0.67762E-07        -0.46566E-20         0.00000E+00
    0.67762E-07        -0.53551E-20         0.00000E+00
    0.67762E-07        -0.34925E-20         0.00000E+00
    0.67762E-07        -0.90804E-20         0.00000E+00
    0.67762E-07        -0.62864E-20         0.00000E+00
    0.67762E-07        -0.72177E-20         0.00000E+00
    0.67762E-07        -0.46566E-21         0.00000E+00
    0.67762E-07        -0.46566E-21         0.00000E+00
    0.67762E-07         0.74506E-20         0.00000E+00
    0.67762E-07         0.12107E-19         0.00000E+00
    0.67762E-07         0.10710E-19         0.00000E+00
    0.67762E-07         0.67521E-20         0.00000E+00
    0.67762E-07         0.18626E-20         0.00000E+00
    0.67762E-07         0.41910E-20         0.00000E+00
    0.67762E-07        -0.10012E-19         0.00000E+00
    0.67762E-07        -0.74506E-20         0.00000E+00
    0.67762E-07        -0.83819E-20         0.00000E+00
    0.67762E-07        -0.76834E-20         0.00000E+00
    0.67762E-07        -0.11642E-20         0.00000E+00
    0.67762E-07        -0.32596E-20         0.00000E+00
    0.67762E-07        -0.77998E-20         0.00000E+00
    0.67762E-07        -0.13271E-19         0.00000E+00
    0.67762E-07         0.23283E-21         0.00000E+00
    0.67762E-07         0.58208E-20         0.00000E+00
    0.69970E-07        -0.27940E-20         0.00000E+00
    0.69970E-07        -0.26776E-20         0.00000E+00
    0.69970E-07        -0.24447E-20         0.00000E+00
    0.69970E-07        -0.37253E-20         0.00000E+00
    0.69970E-07        -0.15367E-19         0.00000E+00
    0.69970E-07        -0.65193E-20         0.00000E+00
    0.69970E-07        -0.13155E-19         0.00000E+00
    0.69970E-07        -0.12806E-19         0.00000E+00
    0.69970E-07        -0.11874E-19         0.00000E+00
    0.69970E-07         0.16298E-20         0.00000E+00
    0.69970E-07        -0.41910E-20         0.00000E+00
    0.69970E-07        -0.18626E-20         0.00000E+00
    0.69970E-07         0.25611E-20         0.00000E+00
    0.69970E-07        -0.19791E-20         0.00000E+00
    0.69970E-07        -0.13737E-19         0.00000E+00
    0.69970E-07        -0.13271E-19         0.00000E+00
    0.69970E-07        -0.12573E-19         0.00000E+00
    0.69970E-07        -0.11874E-19         0.00000E+00
    0.69970E-07        -0.12573E-19         0.00000E+00
    0.69970E-07        -0.11642E-19         0.00000E+00
    0.69970E-07        -0.28405E-19         0.00000E+00
    0.69970E-07        -0.23283E-19         0.00000E+00
    0.69970E-07        -0.12340E-19         0.00000E+00
    0.69970E-07        -0.12806E-19         0.00000E+00
    0.69970E-07        -0.11409E-19         0.00000E+00
    0.69970E-07        -0.18626E-20         0.00000E+00
    0.69970E-07         0.13970E-20         0.00000E+00
    0.69970E-07         0.53551E-20         0.00000E+00
    0.69970E-07        -0.23283E-21         0.00000E+00
    0.69970E-07        -0.23283E-20         0.00000E+00
    0.69970E-07        -0.58208E-21         0.00000E+00
    0.69970E-07        -0.32596E-20         0.00000E+00
    0.69970E-07         0.74506E-20         0.00000E+00
    0.69970E-07         0.44238E-20         0.00000E+00
    0.69970E-07         0.95461E-20         0.00000E+00
    0.69970E-07         0.64028E-20         0.00000E+00
    0.69970E-07         0.64028E-20         0.00000E+00
    0.69970E-07         0.45402E-20         0.00000E+00
    0.69970E-07         0.18626E-20         0.00000E+00
    0.69970E-07        -0.22119E-20         0.00000E+00
    0.69970E-07        -0.13271E-19         0.00000E+00
    0.69970E-07        -0.13155E-19         0.00000E+00
    0.69970E-07        -0.58208E-20         0.00000E+00
    0.69970E-07        -0.16298E-20         0.00000E+00
    0.69970E-07        -0.39581E-20         0.00000E+00
    0.69970E-07        -0.51223E-20         0.00000E+00
    0.69970E-07        -0.15483E-19         0.00000E+00
    0.69970E-07        -0.83819E-20         0.00000E+00
    0.69970E-07        -0.23283E-21         0.00000E+00
    0.69970E-07         0.38417E-20         0.00000E+00
    0.72152E-07         0.46566E-21         0.00000E+00
    0.72152E-07         0.34925E-20         0.00000E+00
    0.72152E-07        -0.93132E-21         0.00000E+00
    0.72152E-07        -0.95461E-20         0.00000E+00
    0.72152E-07        -0.15600E-19         0.00000E+00
    0.72152E-07        -0.11292E-19         0.00000E+00
    0.72152E-07        -0.11642E-19         0.00000E+00
    0.72152E-07        -0.15832E-19         0.00000E+00
    0.72152E-07        -0.13970E-19         0.00000E+00
    0.72152E-07        -0.32596E-20         0.00000E+00
    0.72152E-07        -0.46566E-20         0.00000E+00
    0.72152E-07         0.46566E-21         0.00000E+00
    0.72152E-07        -0.58208E-20         0.00000E+00
    0.72152E-07        -0.13970E-20         0.00000E+00
    0.72152E-07        -0.79162E-20         0.00000E+00
    0.72152E-07        -0.15134E-19         0.00000E+00
    0.72152E-07        -0.12573E-19         0.00000E+00
    0.72152E-07        -0.10012E-19         0.00000E+00
    0.72152E-07        -0.10477E-19         0.00000E+00
    0.72152E-07        -0.13737E-19         0.00000E+00
    0.72152E-07        -0.29104E-19         0.00000E+00
    0.72152E-07        -0.15134E-19         0.00000E+00
    0.72152E-07        -0.76834E-20         0.00000E+00
    0.72152E-07        -0.81491E-20         0.00000E+00
    0.72152E-07        -0.12806E-19         0.00000E+00
    0.72152E-07        -0.34925E-20         0.00000E+00
    0.72152E-07         0.32596E-20         0.00000E+00
    0.72152E-07         0.48894E-20         0.00000E+00
    0.72152E-07         0.72177E-20         0.00000E+00
    0.72152E-07        -0.27940E-20         0.00000E+00
    0.72152E-07         0.37253E-20         0.00000E+00
    0.72152E-07         0.23283E-20         0.00000E+00
    0.72152E-07         0.90804E-20         0.00000E+00
    0.72152E-07         0.86147E-20         0.00000E+00
    0.72152E-07         0.10943E-19         0.00000E+00
    0.72152E-07         0.10012E-19         0.00000E+00
    0.72152E-07         0.76834E-20         0.00000E+00
    0.72152E-07         0.60536E-20         0.00000E+00
    0.72152E-07         0.18626E-20         0.00000E+00
    0.72152E-07         0.30268E-20         0.00000E+00
    0.72152E-07        -0.88476E-20         0.00000E+00
    0.72152E-07        -0.16997E-19         0.00000E+00
    0.72152E-07        -0.97789E-20         0.00000E+00
    0.72152E-07         0.00000E+00         0.00000E+00
    0.72152E-07        -0.48894E-20         0.00000E+00
    0.72152E-07        -0.62864E-20         0.00000E+00
    0.72152E-07        -0.12806E-19         0.00000E+00
    0.72152E-07        -0.11642E-19         0.00000E+00
    0.72152E-07        -0.27940E-20         0.00000E+00
    0.72152E-07        -0.23283E-21         0.00000E+00
    0.74296E-07        -0.19791E-20         0.00000E+00
    0.74296E-07         0.44238E-20         0.00000E+00
    0.74296E-07         0.20955E-20         0.00000E+00
    0.74296E-07        -0.12922E-19         0.00000E+00
    0.74296E-07        -0.14901E-19         0.00000E+00
    0.74296E-07        -0.95461E-20         0.00000E+00
    0.74296E-07        -0.11874E-19         0.00000E+00
    0.74296E-07        -0.15600E-19         0.00000E+00
    0.74296E-07        -0.10943E-19         0.00000E+00
    0.74296E-07        -0.19791E-20         0.00000E+00
    0.74296E-07        -0.93132E-20         0.00000E+00
    0.74296E-07         0.13970E-20         0.00000E+00
    0.74296E-07        -0.97789E-20         0.00000E+00
    0.74296E-07        -0.69849E-21         0.00000E+00
    0.74296E-07        -0.12107E-19         0.00000E+00
    0.74296E-07        -0.59372E-20         0.00000E+00
    0.74296E-07        -0.11409E-19         0.00000E+00
    0.74296E-07        -0.10361E-19         0.00000E+00
    0.74296E-07        -0.95461E-20         0.00000E+00
    0.74296E-07        -0.18626E-19         0.00000E+00
    0.74296E-07        -0.26543E-19         0.00000E+00
    0.74296E-07        -0.12806E-19         0.00000E+00
    0.74296E-07        -0.55879E-20         0.00000E+00
    0.74296E-07        -0.51223E-20         0.00000E+00
    0.74296E-07        -0.95461E-20         0.00000E+00
    0.74296E-07        -0.73342E-20         0.00000E+00
    0.74296E-07         0.18626E-20         0.00000E+00
    0.74296E-07        -0.62864E-20         0.00000E+00
    0.74296E-07         0.37253E-20         0.00000E+00
    0.74296E-07        -0.37253E-20         0.00000E+00
    0.74296E-07         0.58208E-20         0.00000E+00
    0.74296E-07         0.51223E-20         0.00000E+00
    0.74296E-07         0.11874E-19         0.00000E+00
    0.74296E-07         0.90804E-20         0.00000E+00
    0.74296E-07         0.17695E-19         0.00000E+00
    0.74296E-07         0.10710E-19         0.00000E+00
    0.74296E-07         0.88476E-20         0.00000E+00
    0.74296E-07         0.60536E-20         0.00000E+00
    0.74296E-07         0.20955E-20         0.00000E+00
    0.74296E-07         0.67521E-20         0.00000E+00
    0.74296E-07        -0.13970E-20         0.00000E+00
    0.74296E-07        -0.10477E-19         0.00000E+00
    0.74296E-07        -0.14203E-19         0.00000E+00
    0.74296E-07        -0.74506E-20         0.00000E+00
    0.74296E-07        -0.44238E-20         0.00000E+00
    0.74296E-07        -0.74506E-20         0.00000E+00
    0.74296E-07        -0.13271E-19         0.00000E+00
    0.74296E-07        -0.14668E-19         0.00000E+00
    0.74296E-07        -0.72177E-20         0.00000E+00
    0.74296E-07         0.00000E+00         0.00000E+00
    0.76393E-07        -0.23283E-20         0.00000E+00
    0.76393E-07         0.23283E-21         0.00000E+00
    0.76393E-07         0.27940E-20         0.00000E+00
    0.76393E-07        -0.16065E-19         0.00000E+00
    0.76393E-07        -0.18394E-19         0.00000E+00
    0.76393E-07        -0.55879E-20         0.00000E+00
    0.76393E-07        -0.72177E-20         0.00000E+00
    0.76393E-07        -0.15250E-19         0.00000E+00
    0.76393E-07        -0.11059E-19         0.00000E+00
    0.76393E-07        -0.72177E-20         0.00000E+00
    0.76393E-07        -0.10361E-19         0.00000E+00
    0.76393E-07        -0.23283E-21         0.00000E+00
    0.76393E-07        -0.32596E-20         0.00000E+00
    0.76393E-07        -0.61700E-20         0.00000E+00
    0.76393E-07        -0.16764E-19         0.00000E+00
    0.76393E-07        -0.11525E-19         0.00000E+00
    0.76393E-07        -0.12806E-19         0.00000E+00
    0.76393E-07        -0.11409E-19         0.00000E+00
    0.76393E-07        -0.11642E-19         0.00000E+00
    0.76393E-07        -0.17113E-19         0.00000E+00
    0.76393E-07        -0.28871E-19         0.00000E+00
    0.76393E-07        -0.14901E-19         0.00000E+00
    0.76393E-07        -0.11176E-19         0.00000E+00
    0.76393E-07        -0.74506E-20         0.00000E+00
    0.76393E-07        -0.13737E-19         0.00000E+00
    0.76393E-07         0.58208E-21         0.00000E+00
    0.76393E-07         0.00000E+00         0.00000E+00
    0.76393E-07        -0.83819E-20         0.00000E+00
    0.76393E-07         0.00000E+00         0.00000E+00
    0.76393E-07         0.13970E-20         0.00000E+00
    0.76393E-07         0.72177E-20         0.00000E+00
    0.76393E-07         0.20955E-20         0.00000E+00
    0.76393E-07         0.12340E-19         0.00000E+00
    0.76393E-07         0.86147E-20         0.00000E+00
    0.76393E-07         0.14668E-19         0.00000E+00
    0.76393E-07         0.74506E-20         0.00000E+00
    0.76393E-07         0.12573E-19         0.00000E+00
    0.76393E-07         0.52387E-20         0.00000E+00
    0.76393E-07         0.53551E-20         0.00000E+00
    0.76393E-07         0.55879E-20         0.00000E+00
    0.76393E-07        -0.69849E-20         0.00000E+00
    0.76393E-07        -0.12456E-19         0.00000E+00
    0.76393E-07        -0.10827E-19         0.00000E+00
    0.76393E-07        -0.51223E-20         0.00000E+00
    0.76393E-07        -0.58208E-20         0.00000E+00
    0.76393E-07        -0.37253E-20         0.00000E+00
    0.76393E-07        -0.26776E-20         0.00000E+00
    0.76393E-07        -0.15832E-19         0.00000E+00
    0.76393E-07        -0.60536E-20         0.00000E+00
    0.76393E-07         0.20955E-20         0.00000E+00
    0.78432E-07        -0.39581E-20         0.00000E+00
    0.78432E-07         0.53551E-20         0.00000E+00
    0.78432E-07         0.18626E-20         0.00000E+00
    0.78432E-07        -0.11874E-19         0.00000E+00
    0.78432E-07        -0.12107E-19         0.00000E+00
    0.78432E-07        -0.10477E-19         0.00000E+00
    0.78432E-07        -0.96625E-20         0.00000E+00
    0.78432E-07        -0.13039E-19         0.00000E+00
    0.78432E-07        -0.17229E-19         0.00000E+00
    0.78432E-07        -0.11176E-19         0.00000E+00
    0.78432E-07        -0.13271E-19         0.00000E+00
    0.78432E-07        -0.11176E-19         0.00000E+00
    0.78432E-07        -0.88476E-20         0.00000E+00
    0.78432E-07        -0.67521E-20         0.00000E+00
    0.78432E-07        -0.13504E-19         0.00000E+00
    0.78432E-07        -0.13504E-19         0.00000E+00
    0.78432E-07        -0.60536E-20         0.00000E+00
    0.78432E-07        -0.62864E-20         0.00000E+00
    0.78432E-07        -0.86147E-20         0.00000E+00
    0.78432E-07        -0.15367E-19         0.00000E+00
    0.78432E-07        -0.27008E-19         0.00000E+00
    0.78432E-07        -0.19791E-19         0.00000E+00
    0.78432E-07        -0.15367E-19         0.00000E+00
    0.78432E-07        -0.15832E-19         0.00000E+00
    0.78432E-07        -0.17812E-19         0.00000E+00
    0.78432E-07         0.31432E-20         0.00000E+00
    0.78432E-07         0.00000E+00         0.00000E+00
    0.78432E-07        -0.23283E-20         0.00000E+00
    0.78432E-07         0.69849E-21         0.00000E+00
    0.78432E-07        -0.16298E-20         0.00000E+00
    0.78432E-07        -0.23283E-21         0.00000E+00
    0.78432E-07        -0.20955E-20         0.00000E+00
    0.78432E-07         0.25611E-20         0.00000E+00
    0.78432E-07         0.18626E-20         0.00000E+00
    0.78432E-07         0.73342E-20         0.00000E+00
    0.78432E-07         0.37253E-20         0.00000E+00
    0.78432E-07         0.64028E-20         0.00000E+00
    0.78432E-07         0.53551E-20         0.00000E+00
    0.78432E-07         0.74506E-20         0.00000E+00
    0.78432E-07         0.30268E-20         0.00000E+00
    0.78432E-07        -0.83819E-20         0.00000E+00
    0.78432E-07        -0.74506E-20         0.00000E+00
    0.78432E-07        -0.53551E-20         0.00000E+00
    0.78432E-07        -0.27940E-20         0.00000E+00
    0.78432E-07        -0.38417E-20         0.00000E+00
    0.78432E-07         0.41910E-20         0.00000E+00
    0.78432E-07         0.32596E-20         0.00000E+00
    0.78432E-07        -0.88476E-20         0.00000E+00
    0.78432E-07         0.32596E-20         0.00000E+00
    0.78432E-07         0.69849E-20         0.00000E+00
    0.80405E-07        -0.30268E-20         0.00000E+00
    0.80405E-07         0.75670E-20         0.00000E+00
    0.80405E-07         0.53551E-20         0.00000E+00
    0.80405E-07        -0.77998E-20         0.00000E+00
    0.80405E-07        -0.13271E-19         0.00000E+00
    0.80405E-07        -0.76834E-20         0.00000E+00
    0.80405E-07        -0.15600E-19         0.00000E+00
    0.80405E-07        -0.12806E-19         0.00000E+00
    0.80405E-07        -0.11758E-19         0.00000E+00
    0.80405E-07        -0.72177E-20         0.00000E+00
    0.80405E-07        -0.13388E-19         0.00000E+00
    0.80405E-07        -0.11176E-19         0.00000E+00
    0.80405E-07        -0.10594E-19         0.00000E+00
    0.80405E-07        -0.86147E-20         0.00000E+00
    0.80405E-07        -0.14668E-19         0.00000E+00
    0.80405E-07        -0.95461E-20         0.00000E+00
    0.80405E-07        -0.14785E-19         0.00000E+00
    0.80405E-07        -0.12340E-19         0.00000E+00
    0.80405E-07        -0.93132E-20         0.00000E+00
    0.80405E-07        -0.13737E-19         0.00000E+00
    0.80405E-07        -0.22119E-19         0.00000E+00
    0.80405E-07        -0.19325E-19         0.00000E+00
    0.80405E-07        -0.14785E-19         0.00000E+00
    0.80405E-07        -0.12806E-19         0.00000E+00
    0.80405E-07        -0.13271E-19         0.00000E+00
    0.80405E-07        -0.18626E-20         0.00000E+00
    0.80405E-07        -0.46566E-21         0.00000E+00
    0.80405E-07        -0.30268E-20         0.00000E+00
    0.80405E-07         0.18626E-20         0.00000E+00
    0.80405E-07        -0.54715E-20         0.00000E+00
    0.80405E-07        -0.76834E-20         0.00000E+00
    0.80405E-07        -0.79162E-20         0.00000E+00
    0.80405E-07        -0.41910E-20         0.00000E+00
    0.80405E-07        -0.20955E-20         0.00000E+00
    0.80405E-07         0.58208E-20         0.00000E+00
    0.80405E-07         0.11642E-20         0.00000E+00
    0.80405E-07        -0.11642E-20         0.00000E+00
    0.80405E-07        -0.39581E-20         0.00000E+00
    0.80405E-07         0.13970E-20         0.00000E+00
    0.80405E-07         0.47730E-20         0.00000E+00
    0.80405E-07        -0.51223E-20         0.00000E+00
    0.80405E-07        -0.33760E-20         0.00000E+00
    0.80405E-07        -0.48894E-20         0.00000E+00
    0.80405E-07        -0.34925E-20         0.00000E+00
    0.80405E-07        -0.34925E-20         0.00000E+00
    0.80405E-07         0.23283E-21         0.00000E+00
    0.80405E-07         0.16298E-20         0.00000E+00
    0.80405E-07        -0.39581E-20         0.00000E+00
    0.80405E-07         0.72177E-20         0.00000E+00
    0.80405E-07         0.64028E-20         0.00000E+00
    0.82301E-07        -0.23283E-20         0.00000E+00
    0.82301E-07         0.46566E-20         0.00000E+00
    0.82301E-07         0.25611E-20         0.00000E+00
    0.82301E-07        -0.12340E-19         0.00000E+00
    0.82301E-07        -0.81491E-20         0.00000E+00
    0.82301E-07        -0.23283E-20         0.00000E+00
    0.82301E-07        -0.10710E-19         0.00000E+00
    0.82301E-07        -0.12224E-19         0.00000E+00
    0.82301E-07        -0.94296E-20         0.00000E+00
    0.82301E-07        -0.27940E-20         0.00000E+00
    0.82301E-07        -0.53551E-20         0.00000E+00
    0.82301E-07        -0.17462E-20         0.00000E+00
    0.82301E-07        -0.76834E-20         0.00000E+00
    0.82301E-07        -0.66357E-20         0.00000E+00
    0.82301E-07        -0.18161E-19         0.00000E+00
    0.82301E-07        -0.14203E-19         0.00000E+00
    0.82301E-07        -0.16647E-19         0.00000E+00
    0.82301E-07        -0.18277E-19         0.00000E+00
    0.82301E-07        -0.16880E-19         0.00000E+00
    0.82301E-07        -0.13039E-19         0.00000E+00
    0.82301E-07        -0.21653E-19         0.00000E+00
    0.82301E-07        -0.14668E-19         0.00000E+00
    0.82301E-07        -0.13155E-19         0.00000E+00
    0.82301E-07        -0.98953E-20         0.00000E+00
    0.82301E-07        -0.10245E-19         0.00000E+00
    0.82301E-07        -0.44238E-20         0.00000E+00
    0.82301E-07        -0.32596E-20         0.00000E+00
    0.82301E-07        -0.45402E-20         0.00000E+00
    0.82301E-07         0.00000E+00         0.00000E+00
    0.82301E-07        -0.18626E-20         0.00000E+00
    0.82301E-07        -0.39581E-20         0.00000E+00
    0.82301E-07        -0.93132E-20         0.00000E+00
    0.82301E-07        -0.15134E-20         0.00000E+00
    0.82301E-07         0.25611E-20         0.00000E+00
    0.82301E-07        -0.30268E-20         0.00000E+00
    0.82301E-07        -0.39581E-20         0.00000E+00
    0.82301E-07        -0.23283E-20         0.00000E+00
    0.82301E-07        -0.60536E-20         0.00000E+00
    0.82301E-07        -0.37253E-20         0.00000E+00
    0.82301E-07        -0.25611E-20         0.00000E+00
    0.82301E-07        -0.62864E-20         0.00000E+00
    0.82301E-07        -0.98953E-20         0.00000E+00
    0.82301E-07        -0.51223E-20         0.00000E+00
    0.82301E-07        -0.27940E-20         0.00000E+00
    0.82301E-07        -0.37253E-20         0.00000E+00
    0.82301E-07        -0.51223E-20         0.00000E+00
    0.82301E-07         0.00000E+00         0.00000E+00
    0.82301E-07        -0.53551E-20         0.00000E+00
    0.82301E-07         0.52387E-20         0.00000E+00
    0.82301E-07         0.69849E-20         0.00000E+00
    0.84109E-07        -0.20955E-20         0.00000E+00
    0.84109E-07         0.37253E-20         0.00000E+00
    0.84109E-07         0.34925E-20         0.00000E+00
    0.84109E-07        -0.74506E-20         0.00000E+00
    0.84109E-07        -0.17462E-20         0.00000E+00
    0.84109E-07        -0.45402E-20         0.00000E+00
    0.84109E-07        -0.88476E-20         0.00000E+00
    0.84109E-07        -0.10245E-19         0.00000E+00
    0.84109E-07        -0.10128E-19         0.00000E+00
    0.84109E-07        -0.93132E-21         0.00000E+00
    0.84109E-07        -0.46566E-21         0.00000E+00
    0.84109E-07        -0.67521E-20         0.00000E+00
    0.84109E-07        -0.79162E-20         0.00000E+00
    0.84109E-07        -0.82655E-20         0.00000E+00
    0.84109E-07        -0.16065E-19         0.00000E+00
    0.84109E-07        -0.18859E-19         0.00000E+00
    0.84109E-07        -0.15832E-19         0.00000E+00
    0.84109E-07        -0.15832E-19         0.00000E+00
    0.84109E-07        -0.20023E-19         0.00000E+00
    0.84109E-07        -0.14086E-19         0.00000E+00
    0.84109E-07        -0.22119E-19         0.00000E+00
    0.84109E-07        -0.14552E-19         0.00000E+00
    0.84109E-07        -0.10710E-19         0.00000E+00
    0.84109E-07        -0.81491E-20         0.00000E+00
    0.84109E-07        -0.13271E-19         0.00000E+00
    0.84109E-07        -0.68685E-20         0.00000E+00
    0.84109E-07        -0.57044E-20         0.00000E+00
    0.84109E-07        -0.11758E-19         0.00000E+00
    0.84109E-07        -0.60536E-20         0.00000E+00
    0.84109E-07        -0.60536E-20         0.00000E+00
    0.84109E-07        -0.93132E-21         0.00000E+00
    0.84109E-07        -0.19791E-20         0.00000E+00
    0.84109E-07         0.38417E-20         0.00000E+00
    0.84109E-07         0.55879E-20         0.00000E+00
    0.84109E-07        -0.62864E-20         0.00000E+00
    0.84109E-07        -0.58208E-20         0.00000E+00
    0.84109E-07        -0.33760E-20         0.00000E+00
    0.84109E-07        -0.12806E-20         0.00000E+00
    0.84109E-07        -0.51223E-20         0.00000E+00
    0.84109E-07        -0.17462E-20         0.00000E+00
    0.84109E-07        -0.10012E-19         0.00000E+00
    0.84109E-07        -0.97789E-20         0.00000E+00
    0.84109E-07        -0.88476E-20         0.00000E+00
    0.84109E-07         0.69849E-21         0.00000E+00
    0.84109E-07        -0.93132E-21         0.00000E+00
    0.84109E-07         0.31432E-20         0.00000E+00
    0.84109E-07         0.00000E+00         0.00000E+00
    0.84109E-07        -0.43074E-20         0.00000E+00
    0.84109E-07         0.30268E-20         0.00000E+00
    0.84109E-07         0.55879E-20         0.00000E+00
    0.85821E-07        -0.23283E-20         0.00000E+00
    0.85821E-07         0.62864E-20         0.00000E+00
    0.85821E-07         0.86147E-20         0.00000E+00
    0.85821E-07        -0.46566E-20         0.00000E+00
    0.85821E-07        -0.33760E-20         0.00000E+00
    0.85821E-07        -0.47730E-20         0.00000E+00
    0.85821E-07        -0.69849E-20         0.00000E+00
    0.85821E-07        -0.11059E-19         0.00000E+00
    0.85821E-07        -0.12224E-19         0.00000E+00
    0.85821E-07        -0.23283E-20         0.00000E+00
    0.85821E-07        -0.64028E-20         0.00000E+00
    0.85821E-07        -0.10128E-19         0.00000E+00
    0.85821E-07        -0.93132E-20         0.00000E+00
    0.85821E-07        -0.11409E-19         0.00000E+00
    0.85821E-07        -0.18626E-19         0.00000E+00
    0.85821E-07        -0.15600E-19         0.00000E+00
    0.85821E-07        -0.18277E-19         0.00000E+00
    0.85821E-07        -0.16764E-19         0.00000E+00
    0.85821E-07        -0.17695E-19         0.00000E+00
    0.85821E-07        -0.16647E-19         0.00000E+00
    0.85821E-07        -0.21537E-19         0.00000E+00
    0.85821E-07        -0.20023E-19         0.00000E+00
    0.85821E-07        -0.11525E-19         0.00000E+00
    0.85821E-07        -0.76834E-20         0.00000E+00
    0.85821E-07        -0.14668E-19         0.00000E+00
    0.85821E-07        -0.58208E-20         0.00000E+00
    0.85821E-07        -0.46566E-21         0.00000E+00
    0.85821E-07        -0.67521E-20         0.00000E+00
    0.85821E-07        -0.69849E-20         0.00000E+00
    0.85821E-07        -0.11176E-19         0.00000E+00
    0.85821E-07        -0.34925E-20         0.00000E+00
    0.85821E-07         0.00000E+00         0.00000E+00
    0.85821E-07         0.30268E-20         0.00000E+00
    0.85821E-07         0.13970E-20         0.00000E+00
    0.85821E-07        -0.93132E-21         0.00000E+00
    0.85821E-07        -0.64028E-20         0.00000E+00
    0.85821E-07        -0.31432E-20         0.00000E+00
    0.85821E-07        -0.51223E-20         0.00000E+00
    0.85821E-07         0.58208E-21         0.00000E+00
    0.85821E-07         0.65193E-20         0.00000E+00
    0.85821E-07        -0.87311E-20         0.00000E+00
    0.85821E-07        -0.97789E-20         0.00000E+00
    0.85821E-07        -0.39581E-20         0.00000E+00
    0.85821E-07         0.51223E-20         0.00000E+00
    0.85821E-07         0.23283E-20         0.00000E+00
    0.85821E-07         0.58208E-20         0.00000E+00
    0.85821E-07         0.23283E-20         0.00000E+00
    0.85821E-07        -0.93132E-21         0.00000E+00
    0.85821E-07         0.66357E-20         0.00000E+00
    0.85821E-07         0.54715E-20         0.00000E+00
    0.87427E-07        -0.41910E-20         0.00000E+00
    0.87427E-07         0.41910E-20         0.00000E+00
    0.87427E-07         0.69849E-20         0.00000E+00
    0.87427E-07        -0.46566E-20         0.00000E+00
    0.87427E-07        -0.30268E-20         0.00000E+00
    0.87427E-07        -0.30268E-20         0.00000E+00
    0.87427E-07        -0.37253E-20         0.00000E+00
    0.87427E-07        -0.95461E-20         0.00000E+00
    0.87427E-07        -0.10477E-19         0.00000E+00
    0.87427E-07        -0.73342E-20         0.00000E+00
    0.87427E-07        -0.10477E-19         0.00000E+00
    0.87427E-07        -0.11874E-19         0.00000E+00
    0.87427E-07        -0.11409E-19         0.00000E+00
    0.87427E-07        -0.81491E-20         0.00000E+00
    0.87427E-07        -0.17695E-19         0.00000E+00
    0.87427E-07        -0.17462E-19         0.00000E+00
    0.87427E-07        -0.18626E-19         0.00000E+00
    0.87427E-07        -0.14435E-19         0.00000E+00
    0.87427E-07        -0.15250E-19         0.00000E+00
    0.87427E-07        -0.18743E-19         0.00000E+00
    0.87427E-07        -0.25495E-19         0.00000E+00
    0.87427E-07        -0.21188E-19         0.00000E+00
    0.87427E-07        -0.11525E-19         0.00000E+00
    0.87427E-07        -0.10245E-19         0.00000E+00
    0.87427E-07        -0.10012E-19         0.00000E+00
    0.87427E-07        -0.23283E-21         0.00000E+00
    0.87427E-07        -0.18626E-20         0.00000E+00
    0.87427E-07        -0.44238E-20         0.00000E+00
    0.87427E-07        -0.38417E-20         0.00000E+00
    0.87427E-07        -0.10477E-19         0.00000E+00
    0.87427E-07        -0.76834E-20         0.00000E+00
    0.87427E-07        -0.69849E-21         0.00000E+00
    0.87427E-07         0.23283E-20         0.00000E+00
    0.87427E-07        -0.19791E-20         0.00000E+00
    0.87427E-07        -0.23283E-21         0.00000E+00
    0.87427E-07        -0.88476E-20         0.00000E+00
    0.87427E-07        -0.19791E-20         0.00000E+00
    0.87427E-07        -0.23283E-21         0.00000E+00
    0.87427E-07         0.65193E-20         0.00000E+00
    0.87427E-07         0.60536E-20         0.00000E+00
    0.87427E-07        -0.40745E-20         0.00000E+00
    0.87427E-07        -0.82655E-20         0.00000E+00
    0.87427E-07        -0.46566E-21         0.00000E+00
    0.87427E-07         0.18626E-20         0.00000E+00
    0.87427E-07         0.69849E-21         0.00000E+00
    0.87427E-07         0.10477E-20         0.00000E+00
    0.87427E-07         0.46566E-21         0.00000E+00
    0.87427E-07         0.11642E-20         0.00000E+00
    0.87427E-07         0.59372E-20         0.00000E+00
    0.87427E-07         0.41910E-20         0.00000E+00
    0.88918E-07        -0.39581E-20         0.00000E+00
    0.88918E-07         0.32596E-20         0.00000E+00
    0.88918E-07         0.69849E-20         0.00000E+00
    0.88918E-07        -0.48894E-20         0.00000E+00
    0.88918E-07        -0.81491E-20         0.00000E+00
    0.88918E-07        -0.46566E-20         0.00000E+00
    0.88918E-07        -0.37253E-20         0.00000E+00
    0.88918E-07        -0.60536E-20         0.00000E+00
    0.88918E-07        -0.67521E-20         0.00000E+00
    0.88918E-07        -0.46566E-20         0.00000E+00
    0.88918E-07        -0.93132E-20         0.00000E+00
    0.88918E-07        -0.11642E-19         0.00000E+00
    0.88918E-07        -0.95461E-20         0.00000E+00
    0.88918E-07        -0.44238E-20         0.00000E+00
    0.88918E-07        -0.10477E-19         0.00000E+00
    0.88918E-07        -0.20023E-19         0.00000E+00
    0.88918E-07        -0.18510E-19         0.00000E+00
    0.88918E-07        -0.19325E-19         0.00000E+00
    0.88918E-07        -0.14435E-19         0.00000E+00
    0.88918E-07        -0.18626E-19         0.00000E+00
    0.88918E-07        -0.31199E-19         0.00000E+00
    0.88918E-07        -0.18859E-19         0.00000E+00
    0.88918E-07        -0.97789E-20         0.00000E+00
    0.88918E-07        -0.10710E-19         0.00000E+00
    0.88918E-07        -0.13271E-19         0.00000E+00
    0.88918E-07        -0.46566E-20         0.00000E+00
    0.88918E-07        -0.23283E-20         0.00000E+00
    0.88918E-07        -0.48894E-20         0.00000E+00
    0.88918E-07        -0.23283E-21         0.00000E+00
    0.88918E-07        -0.81491E-20         0.00000E+00
    0.88918E-07        -0.55879E-20         0.00000E+00
    0.88918E-07        -0.44238E-20         0.00000E+00
    0.88918E-07         0.16298E-20         0.00000E+00
    0.88918E-07         0.46566E-20         0.00000E+00
    0.88918E-07         0.93132E-21         0.00000E+00
    0.88918E-07         0.23283E-21         0.00000E+00
    0.88918E-07        -0.23283E-21         0.00000E+00
    0.88918E-07         0.39581E-20         0.00000E+00
    0.88918E-07         0.58208E-21         0.00000E+00
    0.88918E-07         0.18626E-20         0.00000E+00
    0.88918E-07        -0.16298E-20         0.00000E+00
    0.88918E-07        -0.76834E-20         0.00000E+00
    0.88918E-07        -0.17462E-20         0.00000E+00
    0.88918E-07        -0.11642E-20         0.00000E+00
    0.88918E-07         0.16298E-20         0.00000E+00
    0.88918E-07         0.00000E+00         0.00000E+00
    0.88918E-07        -0.13970E-20         0.00000E+00
    0.88918E-07        -0.41910E-20         0.00000E+00
    0.88918E-07         0.76834E-20         0.00000E+00
    0.88918E-07         0.46566E-20         0.00000E+00
    0.90286E-07        -0.17462E-20         0.00000E+00
    0.90286E-07         0.60536E-20         0.00000E+00
    0.90286E-07         0.62864E-20         0.00000E+00
    0.90286E-07        -0.58208E-20         0.00000E+00
    0.90286E-07        -0.46566E-20         0.00000E+00
    0.90286E-07        -0.69849E-20         0.00000E+00
    0.90286E-07        -0.65193E-20         0.00000E+00
    0.90286E-07        -0.94296E-20         0.00000E+00
    0.90286E-07        -0.12340E-19         0.00000E+00
    0.90286E-07        -0.48894E-20         0.00000E+00
    0.90286E-07        -0.46566E-20         0.00000E+00
    0.90286E-07        -0.51223E-20         0.00000E+00
    0.90286E-07        -0.60536E-20         0.00000E+00
    0.90286E-07        -0.34925E-21         0.00000E+00
    0.90286E-07        -0.11409E-19         0.00000E+00
    0.90286E-07        -0.12340E-19         0.00000E+00
    0.90286E-07        -0.19092E-19         0.00000E+00
    0.90286E-07        -0.18044E-19         0.00000E+00
    0.90286E-07        -0.16531E-19         0.00000E+00
    0.90286E-07        -0.19791E-19         0.00000E+00
    0.90286E-07        -0.29104E-19         0.00000E+00
    0.90286E-07        -0.21188E-19         0.00000E+00
    0.90286E-07        -0.11409E-19         0.00000E+00
    0.90286E-07        -0.11176E-19         0.00000E+00
    0.90286E-07        -0.11409E-19         0.00000E+00
    0.90286E-07        -0.45402E-20         0.00000E+00
    0.90286E-07        -0.81491E-21         0.00000E+00
    0.90286E-07        -0.44238E-20         0.00000E+00
    0.90286E-07        -0.34925E-21         0.00000E+00
    0.90286E-07        -0.65193E-20         0.00000E+00
    0.90286E-07        -0.30268E-20         0.00000E+00
    0.90286E-07        -0.13970E-20         0.00000E+00
    0.90286E-07         0.32596E-20         0.00000E+00
    0.90286E-07         0.64028E-20         0.00000E+00
    0.90286E-07         0.58208E-20         0.00000E+00
    0.90286E-07        -0.34925E-21         0.00000E+00
    0.90286E-07         0.47730E-20         0.00000E+00
    0.90286E-07         0.22119E-20         0.00000E+00
    0.90286E-07        -0.69849E-21         0.00000E+00
    0.90286E-07         0.17462E-20         0.00000E+00
    0.90286E-07        -0.33760E-20         0.00000E+00
    0.90286E-07        -0.89640E-20         0.00000E+00
    0.90286E-07        -0.58208E-20         0.00000E+00
    0.90286E-07        -0.46566E-20         0.00000E+00
    0.90286E-07        -0.39581E-20         0.00000E+00
    0.90286E-07         0.12806E-20         0.00000E+00
    0.90286E-07         0.41910E-20         0.00000E+00
    0.90286E-07        -0.69849E-21         0.00000E+00
    0.90286E-07         0.58208E-20         0.00000E+00
    0.90286E-07         0.13970E-20         0.00000E+00
    0.91523E-07        -0.11642E-20         0.00000E+00
    0.91523E-07         0.45402E-20         0.00000E+00
    0.91523E-07         0.51223E-20         0.00000E+00
    0.91523E-07        -0.23283E-20         0.00000E+00
    0.91523E-07        -0.46566E-20         0.00000E+00
    0.91523E-07        -0.48894E-20         0.00000E+00
    0.91523E-07        -0.88476E-20         0.00000E+00
    0.91523E-07        -0.11874E-19         0.00000E+00
    0.91523E-07        -0.84983E-20         0.00000E+00
    0.91523E-07        -0.77998E-20         0.00000E+00
    0.91523E-07        -0.66357E-20         0.00000E+00
    0.91523E-07        -0.26776E-20         0.00000E+00
    0.91523E-07        -0.47730E-20         0.00000E+00
    0.91523E-07        -0.23283E-20         0.00000E+00
    0.91523E-07        -0.14435E-19         0.00000E+00
    0.91523E-07        -0.12689E-19         0.00000E+00
    0.91523E-07        -0.17928E-19         0.00000E+00
    0.91523E-07        -0.14203E-19         0.00000E+00
    0.91523E-07        -0.15600E-19         0.00000E+00
    0.91523E-07        -0.16997E-19         0.00000E+00
    0.91523E-07        -0.23283E-19         0.00000E+00
    0.91523E-07        -0.19092E-19         0.00000E+00
    0.91523E-07        -0.12107E-19         0.00000E+00
    0.91523E-07        -0.10710E-19         0.00000E+00
    0.91523E-07        -0.12689E-19         0.00000E+00
    0.91523E-07        -0.23283E-20         0.00000E+00
    0.91523E-07         0.20955E-20         0.00000E+00
    0.91523E-07        -0.30268E-20         0.00000E+00
    0.91523E-07         0.37253E-20         0.00000E+00
    0.91523E-07        -0.46566E-20         0.00000E+00
    0.91523E-07        -0.23283E-21         0.00000E+00
    0.91523E-07         0.11642E-20         0.00000E+00
    0.91523E-07         0.53551E-20         0.00000E+00
    0.91523E-07         0.51223E-20         0.00000E+00
    0.91523E-07        -0.11642E-20         0.00000E+00
    0.91523E-07        -0.53551E-20         0.00000E+00
    0.91523E-07        -0.16298E-20         0.00000E+00
    0.91523E-07         0.13970E-20         0.00000E+00
    0.91523E-07         0.16298E-20         0.00000E+00
    0.91523E-07         0.24447E-20         0.00000E+00
    0.91523E-07        -0.22119E-20         0.00000E+00
    0.91523E-07        -0.46566E-20         0.00000E+00
    0.91523E-07        -0.69849E-20         0.00000E+00
    0.91523E-07        -0.69849E-20         0.00000E+00
    0.91523E-07        -0.71013E-20         0.00000E+00
    0.91523E-07         0.69849E-21         0.00000E+00
    0.91523E-07        -0.30268E-20         0.00000E+00
    0.91523E-07        -0.13970E-20         0.00000E+00
    0.91523E-07         0.46566E-20         0.00000E+00
    0.91523E-07         0.23283E-21         0.00000E+00
    0.92622E-07        -0.23283E-20         0.00000E+00
    0.92622E-07         0.16298E-20         0.00000E+00
    0.92622E-07        -0.81491E-21         0.00000E+00
    0.92622E-07        -0.76834E-20         0.00000E+00
    0.92622E-07        -0.72177E-20         0.00000E+00
    0.92622E-07        -0.62864E-20         0.00000E+00
    0.92622E-07        -0.11409E-19         0.00000E+00
    0.92622E-07        -0.11059E-19         0.00000E+00
    0.92622E-07        -0.10245E-19         0.00000E+00
    0.92622E-07        -0.39581E-20         0.00000E+00
    0.92622E-07        -0.51223E-20         0.00000E+00
    0.92622E-07        -0.30268E-20         0.00000E+00
    0.92622E-07        -0.69849E-20         0.00000E+00
    0.92622E-07        -0.50059E-20         0.00000E+00
    0.92622E-07        -0.16647E-19         0.00000E+00
    0.92622E-07        -0.13621E-19         0.00000E+00
    0.92622E-07        -0.17113E-19         0.00000E+00
    0.92622E-07        -0.16065E-19         0.00000E+00
    0.92622E-07        -0.17695E-19         0.00000E+00
    0.92622E-07        -0.13970E-19         0.00000E+00
    0.92622E-07        -0.21304E-19         0.00000E+00
    0.92622E-07        -0.16764E-19         0.00000E+00
    0.92622E-07        -0.84983E-20         0.00000E+00
    0.92622E-07        -0.65193E-20         0.00000E+00
    0.92622E-07        -0.10710E-19         0.00000E+00
    0.92622E-07        -0.37253E-20         0.00000E+00
    0.92622E-07         0.46566E-21         0.00000E+00
    0.92622E-07         0.34925E-21         0.00000E+00
    0.92622E-07         0.69849E-20         0.00000E+00
    0.92622E-07        -0.23283E-20         0.00000E+00
    0.92622E-07         0.13970E-20         0.00000E+00
    0.92622E-07        -0.23283E-20         0.00000E+00
    0.92622E-07         0.61700E-20         0.00000E+00
    0.92622E-07         0.50059E-20         0.00000E+00
    0.92622E-07         0.93132E-21         0.00000E+00
    0.92622E-07        -0.59372E-20         0.00000E+00
    0.92622E-07        -0.37253E-20         0.00000E+00
    0.92622E-07        -0.47730E-20         0.00000E+00
    0.92622E-07         0.20955E-20         0.00000E+00
    0.92622E-07        -0.13970E-20         0.00000E+00
    0.92622E-07        -0.83819E-20         0.00000E+00
    0.92622E-07        -0.65193E-20         0.00000E+00
    0.92622E-07        -0.72177E-20         0.00000E+00
    0.92622E-07        -0.39581E-20         0.00000E+00
    0.92622E-07        -0.43074E-20         0.00000E+00
    0.92622E-07        -0.45402E-20         0.00000E+00
    0.92622E-07        -0.48894E-20         0.00000E+00
    0.92622E-07        -0.48894E-20         0.00000E+00
    0.92622E-07         0.25611E-20         0.00000E+00
    0.92622E-07         0.45402E-20         0.00000E+00
    0.93577E-07        -0.18626E-20         0.00000E+00
    0.93577E-07        -0.27940E-20         0.00000E+00
    0.93577E-07        -0.30268E-20         0.00000E+00
    0.93577E-07        -0.93132E-20         0.00000E+00
    0.93577E-07        -0.67521E-20         0.00000E+00
    0.93577E-07        -0.81491E-20         0.00000E+00
    0.93577E-07        -0.10710E-19         0.00000E+00
    0.93577E-07        -0.12340E-19         0.00000E+00
    0.93577E-07        -0.13039E-19         0.00000E+00
    0.93577E-07        -0.81491E-20         0.00000E+00
    0.93577E-07        -0.52387E-20         0.00000E+00
    0.93577E-07        -0.65193E-20         0.00000E+00
    0.93577E-07        -0.65193E-20         0.00000E+00
    0.93577E-07        -0.89640E-20         0.00000E+00
    0.93577E-07        -0.13970E-19         0.00000E+00
    0.93577E-07        -0.13853E-19         0.00000E+00
    0.93577E-07        -0.14203E-19         0.00000E+00
    0.93577E-07        -0.13155E-19         0.00000E+00
    0.93577E-07        -0.15134E-19         0.00000E+00
    0.93577E-07        -0.17928E-19         0.00000E+00
    0.93577E-07        -0.17462E-19         0.00000E+00
    0.93577E-07        -0.15600E-19         0.00000E+00
    0.93577E-07        -0.84983E-20         0.00000E+00
    0.93577E-07        -0.55879E-20         0.00000E+00
    0.93577E-07        -0.93132E-20         0.00000E+00
    0.93577E-07         0.00000E+00         0.00000E+00
    0.93577E-07         0.16298E-20         0.00000E+00
    0.93577E-07         0.23283E-21         0.00000E+00
    0.93577E-07         0.12806E-20         0.00000E+00
    0.93577E-07        -0.24447E-20         0.00000E+00
    0.93577E-07         0.00000E+00         0.00000E+00
    0.93577E-07         0.29104E-20         0.00000E+00
    0.93577E-07         0.50059E-20         0.00000E+00
    0.93577E-07         0.13970E-20         0.00000E+00
    0.93577E-07         0.60536E-20         0.00000E+00
    0.93577E-07         0.00000E+00         0.00000E+00
    0.93577E-07        -0.11642E-20         0.00000E+00
    0.93577E-07        -0.62864E-20         0.00000E+00
    0.93577E-07        -0.37253E-20         0.00000E+00
    0.93577E-07        -0.11642E-20         0.00000E+00
    0.93577E-07        -0.97789E-20         0.00000E+00
    0.93577E-07        -0.10245E-19         0.00000E+00
    0.93577E-07        -0.81491E-20         0.00000E+00
    0.93577E-07        -0.37253E-20         0.00000E+00
    0.93577E-07        -0.37253E-20         0.00000E+00
    0.93577E-07        -0.20955E-20         0.00000E+00
    0.93577E-07        -0.93132E-21         0.00000E+00
    0.93577E-07        -0.12806E-20         0.00000E+00
    0.93577E-07         0.55879E-20         0.00000E+00
    0.93577E-07         0.53551E-20         0.00000E+00
    0.94381E-07        -0.39581E-20         0.00000E+00
    0.94381E-07         0.25611E-20         0.00000E+00
    0.94381E-07         0.69849E-21         0.00000E+00
    0.94381E-07        -0.83819E-20         0.00000E+00
    0.94381E-07        -0.10245E-19         0.00000E+00
    0.94381E-07        -0.12573E-19         0.00000E+00
    0.94381E-07        -0.11059E-19         0.00000E+00
    0.94381E-07        -0.10361E-19         0.00000E+00
    0.94381E-07        -0.11758E-19         0.00000E+00
    0.94381E-07        -0.95461E-20         0.00000E+00
    0.94381E-07        -0.11409E-19         0.00000E+00
    0.94381E-07        -0.88476E-20         0.00000E+00
    0.94381E-07        -0.65193E-20         0.00000E+00
    0.94381E-07        -0.11176E-19         0.00000E+00
    0.94381E-07        -0.15250E-19         0.00000E+00
    0.94381E-07        -0.14901E-19         0.00000E+00
    0.94381E-07        -0.10477E-19         0.00000E+00
    0.94381E-07        -0.12107E-19         0.00000E+00
    0.94381E-07        -0.93132E-20         0.00000E+00
    0.94381E-07        -0.13039E-19         0.00000E+00
    0.94381E-07        -0.15832E-19         0.00000E+00
    0.94381E-07        -0.13504E-19         0.00000E+00
    0.94381E-07        -0.11874E-19         0.00000E+00
    0.94381E-07        -0.62864E-20         0.00000E+00
    0.94381E-07        -0.81491E-20         0.00000E+00
    0.94381E-07        -0.34925E-21         0.00000E+00
    0.94381E-07         0.34925E-21         0.00000E+00
    0.94381E-07        -0.48894E-20         0.00000E+00
    0.94381E-07        -0.34925E-21         0.00000E+00
    0.94381E-07        -0.22119E-20         0.00000E+00
    0.94381E-07         0.16298E-20         0.00000E+00
    0.94381E-07         0.44238E-20         0.00000E+00
    0.94381E-07         0.16298E-20         0.00000E+00
    0.94381E-07         0.25611E-20         0.00000E+00
    0.94381E-07         0.41910E-20         0.00000E+00
    0.94381E-07         0.15134E-20         0.00000E+00
    0.94381E-07         0.40745E-20         0.00000E+00
    0.94381E-07         0.58208E-21         0.00000E+00
    0.94381E-07        -0.23283E-21         0.00000E+00
    0.94381E-07        -0.17462E-20         0.00000E+00
    0.94381E-07        -0.86147E-20         0.00000E+00
    0.94381E-07        -0.89640E-20         0.00000E+00
    0.94381E-07        -0.39581E-20         0.00000E+00
    0.94381E-07        -0.69849E-21         0.00000E+00
    0.94381E-07        -0.16298E-20         0.00000E+00
    0.94381E-07        -0.58208E-21         0.00000E+00
    0.94381E-07         0.12806E-20         0.00000E+00
    0.94381E-07         0.11642E-20         0.00000E+00
    0.94381E-07         0.50059E-20         0.00000E+00
    0.94381E-07         0.50059E-20         0.00000E+00
    0.95031E-07        -0.12806E-20         0.00000E+00
    0.95031E-07         0.34925E-20         0.00000E+00
    0.95031E-07         0.19791E-20         0.00000E+00
    0.95031E-07        -0.10477E-19         0.00000E+00
    0.95031E-07        -0.12922E-19         0.00000E+00
    0.95031E-07        -0.14552E-19         0.00000E+00
    0.95031E-07        -0.10710E-19         0.00000E+00
    0.95031E-07        -0.12573E-19         0.00000E+00
    0.95031E-07        -0.13388E-19         0.00000E+00
    0.95031E-07        -0.10710E-19         0.00000E+00
    0.95031E-07        -0.10710E-19         0.00000E+00
    0.95031E-07        -0.10827E-19         0.00000E+00
    0.95031E-07        -0.73342E-20         0.00000E+00
    0.95031E-07        -0.81491E-20         0.00000E+00
    0.95031E-07        -0.13388E-19         0.00000E+00
    0.95031E-07        -0.11758E-19         0.00000E+00
    0.95031E-07        -0.13970E-19         0.00000E+00
    0.95031E-07        -0.90804E-20         0.00000E+00
    0.95031E-07        -0.10477E-19         0.00000E+00
    0.95031E-07        -0.95461E-20         0.00000E+00
    0.95031E-07        -0.15600E-19         0.00000E+00
    0.95031E-07        -0.10245E-19         0.00000E+00
    0.95031E-07        -0.44238E-20         0.00000E+00
    0.95031E-07        -0.40745E-20         0.00000E+00
    0.95031E-07        -0.32596E-20         0.00000E+00
    0.95031E-07        -0.30268E-20         0.00000E+00
    0.95031E-07        -0.20955E-20         0.00000E+00
    0.95031E-07        -0.90804E-20         0.00000E+00
    0.95031E-07         0.11642E-20         0.00000E+00
    0.95031E-07        -0.93132E-21         0.00000E+00
    0.95031E-07         0.16298E-20         0.00000E+00
    0.95031E-07         0.69849E-21         0.00000E+00
    0.95031E-07         0.23283E-20         0.00000E+00
    0.95031E-07         0.41910E-20         0.00000E+00
    0.95031E-07         0.76834E-20         0.00000E+00
    0.95031E-07         0.25611E-20         0.00000E+00
    0.95031E-07         0.39581E-20         0.00000E+00
    0.95031E-07         0.27940E-20         0.00000E+00
    0.95031E-07         0.32596E-20         0.00000E+00
    0.95031E-07         0.20955E-20         0.00000E+00
    0.95031E-07        -0.32596E-20         0.00000E+00
    0.95031E-07        -0.37253E-20         0.00000E+00
    0.95031E-07        -0.30268E-20         0.00000E+00
    0.95031E-07         0.69849E-21         0.00000E+00
    0.95031E-07         0.69849E-21         0.00000E+00
    0.95031E-07        -0.20955E-20         0.00000E+00
    0.95031E-07         0.27940E-20         0.00000E+00
    0.95031E-07        -0.55879E-20         0.00000E+00
    0.95031E-07        -0.13970E-20         0.00000E+00
    0.95031E-07         0.55879E-20         0.00000E+00
    0.95521E-07         0.23283E-21         0.00000E+00
    0.95521E-07        -0.16298E-20         0.00000E+00
    0.95521E-07        -0.39581E-20         0.00000E+00
    0.95521E-07        -0.11642E-19         0.00000E+00
    0.95521E-07        -0.88476E-20         0.00000E+00
    0.95521E-07        -0.87311E-20         0.00000E+00
    0.95521E-07        -0.95461E-20         0.00000E+00
    0.95521E-07        -0.12340E-19         0.00000E+00
    0.95521E-07        -0.12107E-19         0.00000E+00
    0.95521E-07        -0.10012E-19         0.00000E+00
    0.95521E-07        -0.74506E-20         0.00000E+00
    0.95521E-07        -0.88476E-20         0.00000E+00
    0.95521E-07        -0.74506E-20         0.00000E+00
    0.95521E-07        -0.76834E-20         0.00000E+00
    0.95521E-07        -0.14668E-19         0.00000E+00
    0.95521E-07        -0.14785E-19         0.00000E+00
    0.95521E-07        -0.14668E-19         0.00000E+00
    0.95521E-07        -0.82655E-20         0.00000E+00
    0.95521E-07        -0.10477E-19         0.00000E+00
    0.95521E-07        -0.11409E-19         0.00000E+00
    0.95521E-07        -0.15600E-19         0.00000E+00
    0.95521E-07        -0.72177E-20         0.00000E+00
    0.95521E-07         0.93132E-21         0.00000E+00
    0.95521E-07         0.13970E-20         0.00000E+00
    0.95521E-07         0.00000E+00         0.00000E+00
    0.95521E-07         0.47730E-20         0.00000E+00
    0.95521E-07         0.48894E-20         0.00000E+00
    0.95521E-07        -0.23283E-21         0.00000E+00
    0.95521E-07         0.20955E-20         0.00000E+00
    0.95521E-07        -0.93132E-21         0.00000E+00
    0.95521E-07         0.11642E-20         0.00000E+00
    0.95521E-07        -0.16298E-20         0.00000E+00
    0.95521E-07         0.33760E-20         0.00000E+00
    0.95521E-07         0.66357E-20         0.00000E+00
    0.95521E-07         0.40745E-20         0.00000E+00
    0.95521E-07         0.13970E-20         0.00000E+00
    0.95521E-07         0.44238E-20         0.00000E+00
    0.95521E-07         0.17462E-20         0.00000E+00
    0.95521E-07         0.26776E-20         0.00000E+00
    0.95521E-07         0.46566E-20         0.00000E+00
    0.95521E-07         0.39581E-20         0.00000E+00
    0.95521E-07         0.93132E-21         0.00000E+00
    0.95521E-07        -0.16298E-20         0.00000E+00
    0.95521E-07        -0.20955E-20         0.00000E+00
    0.95521E-07        -0.30268E-20         0.00000E+00
    0.95521E-07        -0.16298E-20         0.00000E+00
    0.95521E-07        -0.17462E-20         0.00000E+00
    0.95521E-07        -0.25611E-20         0.00000E+00
    0.95521E-07         0.27940E-20         0.00000E+00
    0.95521E-07         0.34925E-20         0.00000E+00
    0.95850E-07        -0.22119E-20         0.00000E+00
    0.95850E-07        -0.46566E-21         0.00000E+00
    0.95850E-07        -0.69849E-21         0.00000E+00
    0.95850E-07        -0.10827E-19         0.00000E+00
    0.95850E-07        -0.95461E-20         0.00000E+00
    0.95850E-07        -0.68685E-20         0.00000E+00
    0.95850E-07        -0.52387E-20         0.00000E+00
    0.95850E-07        -0.60536E-20         0.00000E+00
    0.95850E-07        -0.55879E-20         0.00000E+00
    0.95850E-07         0.23283E-21         0.00000E+00
    0.95850E-07        -0.39581E-20         0.00000E+00
    0.95850E-07        -0.51223E-20         0.00000E+00
    0.95850E-07        -0.39581E-20         0.00000E+00
    0.95850E-07        -0.55879E-20         0.00000E+00
    0.95850E-07        -0.10827E-19         0.00000E+00
    0.95850E-07        -0.60536E-20         0.00000E+00
    0.95850E-07        -0.88476E-20         0.00000E+00
    0.95850E-07        -0.95461E-20         0.00000E+00
    0.95850E-07        -0.69849E-20         0.00000E+00
    0.95850E-07        -0.10943E-19         0.00000E+00
    0.95850E-07        -0.13737E-19         0.00000E+00
    0.95850E-07        -0.72177E-20         0.00000E+00
    0.95850E-07         0.93132E-21         0.00000E+00
    0.95850E-07         0.53551E-20         0.00000E+00
    0.95850E-07         0.11642E-20         0.00000E+00
    0.95850E-07         0.90804E-20         0.00000E+00
    0.95850E-07         0.53551E-20         0.00000E+00
    0.95850E-07         0.30268E-20         0.00000E+00
    0.95850E-07         0.34925E-20         0.00000E+00
    0.95850E-07        -0.11642E-20         0.00000E+00
    0.95850E-07         0.37253E-20         0.00000E+00
    0.95850E-07         0.23283E-21         0.00000E+00
    0.95850E-07         0.41910E-20         0.00000E+00
    0.95850E-07         0.39581E-20         0.00000E+00
    0.95850E-07         0.19791E-20         0.00000E+00
    0.95850E-07         0.93132E-21         0.00000E+00
    0.95850E-07         0.44238E-20         0.00000E+00
    0.95850E-07        -0.34925E-21         0.00000E+00
    0.95850E-07         0.46566E-20         0.00000E+00
    0.95850E-07         0.55879E-20         0.00000E+00
    0.95850E-07        -0.22119E-20         0.00000E+00
    0.95850E-07        -0.16298E-20         0.00000E+00
    0.95850E-07         0.93132E-21         0.00000E+00
    0.95850E-07        -0.69849E-21         0.00000E+00
    0.95850E-07        -0.44238E-20         0.00000E+00
    0.95850E-07        -0.22119E-20         0.00000E+00
    0.95850E-07        -0.23283E-20         0.00000E+00
    0.95850E-07        -0.23283E-21         0.00000E+00
    0.95850E-07         0.43074E-20         0.00000E+00
    0.95850E-07         0.11642E-20         0.00000E+00
    0.96015E-07        -0.18626E-20         0.00000E+00
    0.96015E-07         0.00000E+00         0.00000E+00
    0.96015E-07         0.18626E-20         0.00000E+00
    0.96015E-07        -0.55879E-20         0.00000E+00
    0.96015E-07        -0.65193E-20         0.00000E+00
    0.96015E-07        -0.32596E-20         0.00000E+00
    0.96015E-07         0.17462E-20         0.00000E+00
    0.96015E-07        -0.93132E-21         0.00000E+00
    0.96015E-07        -0.13970E-20         0.00000E+00
    0.96015E-07        -0.20955E-20         0.00000E+00
    0.96015E-07         0.10477E-20         0.00000E+00
    0.96015E-07        -0.23283E-20         0.00000E+00
    0.96015E-07         0.93132E-21         0.00000E+00
    0.96015E-07         0.00000E+00         0.00000E+00
    0.96015E-07        -0.27940E-20         0.00000E+00
    0.96015E-07         0.00000E+00         0.00000E+00
    0.96015E-07        -0.37253E-20         0.00000E+00
    0.96015E-07        -0.30268E-20         0.00000E+00
    0.96015E-07        -0.55879E-20         0.00000E+00
    0.96015E-07        -0.55879E-20         0.00000E+00
    0.96015E-07        -0.55879E-20         0.00000E+00
    0.96015E-07        -0.46566E-20         0.00000E+00
    0.96015E-07         0.46566E-21         0.00000E+00
    0.96015E-07         0.27940E-20         0.00000E+00
    0.96015E-07         0.93132E-21         0.00000E+00
    0.96015E-07         0.37253E-20         0.00000E+00
    0.96015E-07         0.27940E-20         0.00000E+00
    0.96015E-07         0.13970E-20         0.00000E+00
    0.96015E-07         0.93132E-21         0.00000E+00
    0.96015E-07        -0.13970E-20         0.00000E+00
    0.96015E-07         0.00000E+00         0.00000E+00
    0.96015E-07        -0.58208E-21         0.00000E+00
    0.96015E-07         0.36089E-20         0.00000E+00
    0.96015E-07         0.27940E-20         0.00000E+00
    0.96015E-07         0.32596E-20         0.00000E+00
    0.96015E-07         0.18626E-20         0.00000E+00
    0.96015E-07         0.13970E-20         0.00000E+00
    0.96015E-07        -0.23283E-20         0.00000E+00
    0.96015E-07         0.00000E+00         0.00000E+00
    0.96015E-07        -0.15134E-20         0.00000E+00
    0.96015E-07        -0.18626E-20         0.00000E+00
    0.96015E-07         0.16298E-20         0.00000E+00
    0.96015E-07         0.00000E+00         0.00000E+00
    0.96015E-07         0.00000E+00         0.00000E+00
    0.96015E-07        -0.27940E-20         0.00000E+00
    0.96015E-07        -0.13970E-20         0.00000E+00
    0.96015E-07         0.00000E+00         0.00000E+00
    0.96015E-07         0.18626E-20         0.00000E+00
    0.96015E-07        -0.16298E-20         0.00000E+00
    0.96015E-07         0.48894E-20         0.00000E+00
POINT_DATA       5151
VECTORS vDarcyNodal double 
    0.64174E-07         0.00000E+00         0.00000E+00
    0.64174E-07         0.00000E+00         0.00000E+00
    0.64174E-07         0.00000E+00         0.00000E+00
    0.64174E-07         0.00000E+00         0.00000E+00
    0.64174E-07         0.00000E+00         0.00000E+00
    0.64174E-07         0.00000E+00         0.00000E+00
    0.64174E-07         0.00000E+00         0.00000E+00
    0.64174E-07         0.00000E+00         0.00000E+00
    0.64174E-07         0.00000E+00         0.00000E+00
    0.64174E-07         0.00000E+00         0.00000E+00
    0.64174E-07         0.00000E+00         0.00000E+00
    0.64174E-07         0.00000E+00         0.00000E+00
    0.64174E-07         0.00000E+00         0.00000E+00
    0.64174E-07         0.00000E+00         0.00000E+00
    0.64174E-07         0.00000E+00         0.00000E+00
    0.64174E-07         0.00000E+00         0.00000E+00
    0.64174E-07         0.00000E+00         0.00000E+00
    0.64174E-07         0.00000E+00         0.00000E+00
    0.64174E-07         0.00000E+00         0.00000E+00
    0.64174E-07         0.00000E+00         0.00000E+00
    0.64174E-07         0.00000E+00         0.00000E+00
    0.64174E-07         0.00000E+00         0.00000E+00
    0.64174E-07         0.00000E+00         0.00000E+00
    0.64174E-07         0.00000E+00         0.00000E+00
    0.64174E-07         0.00000E+00         0.00000E+00
    0.64174E-07         0.00000E+00         0.00000E+00
    0.64174E-07         0.00000E+00         0.00000E+00
    0.64174E-07         0.00000E+00         0.00000E+00
    0.64174E-07         0.00000E+00         0.00000E+00
    0.64174E-07         0.00000E+00         0.00000E+00
    0.64174E-07         0.00000E+00         0.00000E+00
    0.64174E-07         0.00000E+00         0.00000E+00
    0.64174E-07         0.00000E+00         0.00000E+00
    0.64174E-07         0.00000E+00         0.00000E+00
    0.64174E-07         0.00000E+00         0.00000E+00
    0.64174E-07         0.00000E+00         0.00000E+00
    0.64174E-07         0.00000E+00         0.00000E+00
    0.64174E-07         0.00000E+00         0.00000E+00
    0.64174E-07         0.00000E+00         0.00000E+00
    0.64174E-07         0.00000E+00         0.00000E+00
    0.64174E-07         0.00000E+00         0.00000E+00
    0.64174E-07         0.00000E+00         0.00000E+00
    0.64174E-07         0.00000E+00         0.00000E+00
    0.64174E-07         0.00000E+00         0.00000E+00
    0.64174E-07         0.00000E+00         0.00000E+00
    0.64174E-07         0.00000E+00         0.00000E+00
    0.64174E-07         0.00000E+00         0.00000E+00
    0.64174E-07         0.00000E+00         0.00000E+00
    0.64174E-07         0.00000E+00         0.00000E+00
    0.64174E-07         0.00000E+00         0.00000E+00
    0.64174E-07         0.00000E+00         0.00000E+00
    0.64120E-07         0.00000E+00         0.00000E+00
    0.64120E-07        -0.37253E-20         0.00000E+00
    0.64120E-07        -0.37253E-20         0.00000E+00
    0.64120E-07        -0.77874E-20         0.00000E+00
    0.64120E-07        -0.18626E-19         0.00000E+00
    0.64120E-07        -0.14228E-19         0.00000E+00
    0.64120E-07        -0.11176E-19         0.00000E+00
    0.64120E-07        -0.15238E-19         0.00000E+00
    0.64120E-07        -0.14901E-19         0.00000E+00
    0.64120E-07        -0.37253E-20         0.00000E+00
    0.64120E-07         0.00000E+00         0.00000E+00
    0.64120E-07        -0.40621E-20         0.00000E+00
    0.64120E-07        -0.37253E-20         0.00000E+00
    0.64120E-07        -0.74506E-20         0.00000E+00
    0.64120E-07        -0.37253E-20         0.00000E+00
    0.64120E-07        -0.71138E-20         0.00000E+00
    0.64120E-07        -0.11176E-19         0.00000E+00
    0.64120E-07        -0.11176E-19         0.00000E+00
    0.64120E-07        -0.14901E-19         0.00000E+00
    0.64120E-07        -0.11176E-19         0.00000E+00
    0.64120E-07        -0.37253E-20         0.00000E+00
    0.64120E-07        -0.11176E-19         0.00000E+00
    0.64120E-07        -0.74506E-20         0.00000E+00
    0.64120E-07        -0.40621E-20         0.00000E+00
    0.64120E-07        -0.71138E-20         0.00000E+00
    0.64120E-07        -0.55879E-20         0.00000E+00
    0.64120E-07        -0.96500E-20         0.00000E+00
    0.64120E-07        -0.10839E-19         0.00000E+00
    0.64120E-07        -0.37253E-20         0.00000E+00
    0.64120E-07         0.00000E+00         0.00000E+00
    0.64120E-07        -0.74506E-20         0.00000E+00
    0.64120E-07        -0.14901E-19         0.00000E+00
    0.64120E-07        -0.74506E-20         0.00000E+00
    0.64120E-07         0.00000E+00         0.00000E+00
    0.64120E-07         0.00000E+00         0.00000E+00
    0.64120E-07         0.00000E+00         0.00000E+00
    0.64120E-07        -0.74506E-20         0.00000E+00
    0.64120E-07        -0.14901E-19         0.00000E+00
    0.64120E-07        -0.14901E-19         0.00000E+00
    0.64120E-07        -0.22352E-19         0.00000E+00
    0.64120E-07        -0.18290E-19         0.00000E+00
    0.64120E-07        -0.11176E-19         0.00000E+00
    0.64120E-07        -0.77874E-20         0.00000E+00
    0.64120E-07        -0.33885E-20         0.00000E+00
    0.64120E-07        -0.21995E-20         0.00000E+00
    0.64120E-07         0.49143E-20         0.00000E+00
    0.64120E-07         0.77874E-20         0.00000E+00
    0.64120E-07         0.33681E-21         0.00000E+00
    0.64120E-07        -0.74506E-20         0.00000E+00
    0.64120E-07        -0.10839E-19         0.00000E+00
    0.64120E-07        -0.67770E-20         0.00000E+00
    0.63958E-07         0.74506E-20         0.00000E+00
    0.63958E-07        -0.74506E-20         0.00000E+00
    0.63958E-07        -0.26077E-19         0.00000E+00
    0.63958E-07        -0.30504E-19         0.00000E+00
    0.63958E-07        -0.24214E-19         0.00000E+00
    0.63958E-07        -0.45870E-21         0.00000E+00
    0.63958E-07         0.74506E-20         0.00000E+00
    0.63958E-07         0.30233E-20         0.00000E+00
    0.63958E-07        -0.74506E-20         0.00000E+00
    0.63958E-07        -0.37253E-19         0.00000E+00
    0.63958E-07        -0.37253E-19         0.00000E+00
    0.63958E-07        -0.81526E-20         0.00000E+00
    0.63958E-07        -0.37253E-20         0.00000E+00
    0.63958E-07         0.00000E+00         0.00000E+00
    0.63958E-07        -0.11176E-19         0.00000E+00
    0.63958E-07        -0.36551E-19         0.00000E+00
    0.63958E-07        -0.29802E-19         0.00000E+00
    0.63958E-07        -0.11176E-19         0.00000E+00
    0.63958E-07        -0.14901E-19         0.00000E+00
    0.63958E-07        -0.33528E-19         0.00000E+00
    0.63958E-07        -0.29802E-19         0.00000E+00
    0.63958E-07        -0.11176E-19         0.00000E+00
    0.63958E-07        -0.14901E-19         0.00000E+00
    0.63958E-07        -0.81526E-20         0.00000E+00
    0.63958E-07         0.25646E-20         0.00000E+00
    0.63958E-07        -0.22287E-34         0.00000E+00
    0.63958E-07        -0.62899E-20         0.00000E+00
    0.63958E-07        -0.17924E-19         0.00000E+00
    0.63958E-07        -0.26077E-19         0.00000E+00
    0.63958E-07        -0.26077E-19         0.00000E+00
    0.63958E-07        -0.74506E-20         0.00000E+00
    0.63958E-07        -0.37253E-20         0.00000E+00
    0.63958E-07        -0.18626E-19         0.00000E+00
    0.63958E-07        -0.22352E-19         0.00000E+00
    0.63958E-07        -0.11176E-19         0.00000E+00
    0.63958E-07         0.00000E+00         0.00000E+00
    0.63958E-07         0.74506E-20         0.00000E+00
    0.63958E-07        -0.37253E-20         0.00000E+00
    0.63958E-07        -0.37253E-19         0.00000E+00
    0.63958E-07        -0.37253E-19         0.00000E+00
    0.63958E-07        -0.25375E-19         0.00000E+00
    0.63958E-07        -0.20489E-19         0.00000E+00
    0.63958E-07        -0.17466E-19         0.00000E+00
    0.63958E-07        -0.86113E-20         0.00000E+00
    0.63958E-07        -0.81526E-20         0.00000E+00
    0.63958E-07        -0.10717E-19         0.00000E+00
    0.63958E-07        -0.12337E-19         0.00000E+00
    0.63958E-07        -0.48860E-20         0.00000E+00
    0.63958E-07         0.74506E-20         0.00000E+00
    0.63958E-07         0.24916E-19         0.00000E+00
    0.63958E-07         0.20030E-19         0.00000E+00
    0.63689E-07         0.00000E+00         0.00000E+00
    0.63689E-07        -0.11906E-19         0.00000E+00
    0.63689E-07        -0.22352E-19         0.00000E+00
    0.63689E-07        -0.17896E-19         0.00000E+00
    0.63689E-07        -0.18626E-19         0.00000E+00
    0.63689E-07        -0.30533E-19         0.00000E+00
    0.63689E-07        -0.37253E-19         0.00000E+00
    0.63689E-07        -0.33528E-19         0.00000E+00
    0.63689E-07        -0.14901E-19         0.00000E+00
    0.63689E-07         0.37253E-20         0.00000E+00
    0.63689E-07        -0.23082E-19         0.00000E+00
    0.63689E-07        -0.38385E-19         0.00000E+00
    0.63689E-07        -0.49159E-19         0.00000E+00
    0.63689E-07        -0.69648E-19         0.00000E+00
    0.63689E-07        -0.43243E-19         0.00000E+00
    0.63689E-07        -0.17896E-19         0.00000E+00
    0.63689E-07        -0.18626E-19         0.00000E+00
    0.63689E-07        -0.21622E-19         0.00000E+00
    0.63689E-07        -0.27940E-19         0.00000E+00
    0.63689E-07        -0.13769E-19         0.00000E+00
    0.63689E-07        -0.81808E-20         0.00000E+00
    0.63689E-07        -0.30533E-19         0.00000E+00
    0.63689E-07        -0.21622E-19         0.00000E+00
    0.63689E-07        -0.27940E-19         0.00000E+00
    0.63689E-07        -0.39116E-19         0.00000E+00
    0.63689E-07        -0.26077E-19         0.00000E+00
    0.63689E-07        -0.18626E-19         0.00000E+00
    0.63689E-07        -0.18626E-19         0.00000E+00
    0.63689E-07        -0.15631E-19         0.00000E+00
    0.63689E-07         0.44555E-20         0.00000E+00
    0.63689E-07        -0.10446E-19         0.00000E+00
    0.63689E-07        -0.11906E-19         0.00000E+00
    0.63689E-07        -0.37253E-20         0.00000E+00
    0.63689E-07        -0.29951E-20         0.00000E+00
    0.63689E-07        -0.37253E-20         0.00000E+00
    0.63689E-07        -0.14901E-19         0.00000E+00
    0.63689E-07        -0.15631E-19         0.00000E+00
    0.63689E-07        -0.13039E-19         0.00000E+00
    0.63689E-07         0.55879E-20         0.00000E+00
    0.63689E-07         0.21622E-19         0.00000E+00
    0.63689E-07         0.63181E-20         0.00000E+00
    0.63689E-07        -0.23484E-19         0.00000E+00
    0.63689E-07        -0.33528E-19         0.00000E+00
    0.63689E-07        -0.29802E-19         0.00000E+00
    0.63689E-07        -0.29802E-19         0.00000E+00
    0.63689E-07        -0.21219E-19         0.00000E+00
    0.63689E-07        -0.14901E-19         0.00000E+00
    0.63689E-07         0.11176E-19         0.00000E+00
    0.63689E-07         0.11176E-19         0.00000E+00
    0.63689E-07        -0.85830E-20         0.00000E+00
    0.63689E-07        -0.14901E-19         0.00000E+00
    0.63315E-07        -0.14901E-19         0.00000E+00
    0.63315E-07        -0.18626E-19         0.00000E+00
    0.63315E-07        -0.14901E-19         0.00000E+00
    0.63315E-07         0.40715E-20         0.00000E+00
    0.63315E-07         0.74506E-20         0.00000E+00
    0.63315E-07        -0.69247E-21         0.00000E+00
    0.63315E-07        -0.74506E-20         0.00000E+00
    0.63315E-07        -0.22006E-19         0.00000E+00
    0.63315E-07        -0.26077E-19         0.00000E+00
    0.63315E-07        -0.29802E-19         0.00000E+00
    0.63315E-07        -0.33528E-19         0.00000E+00
    0.63315E-07        -0.33181E-19         0.00000E+00
    0.63315E-07        -0.33528E-19         0.00000E+00
    0.63315E-07        -0.44703E-19         0.00000E+00
    0.63315E-07        -0.59605E-19         0.00000E+00
    0.63315E-07        -0.41324E-19         0.00000E+00
    0.63315E-07        -0.26077E-19         0.00000E+00
    0.63315E-07        -0.40978E-19         0.00000E+00
    0.63315E-07        -0.52154E-19         0.00000E+00
    0.63315E-07        -0.59605E-19         0.00000E+00
    0.63315E-07        -0.48429E-19         0.00000E+00
    0.63315E-07        -0.22352E-19         0.00000E+00
    0.63315E-07        -0.18626E-19         0.00000E+00
    0.63315E-07        -0.33181E-19         0.00000E+00
    0.63315E-07        -0.43187E-19         0.00000E+00
    0.63315E-07        -0.31665E-19         0.00000E+00
    0.63315E-07        -0.10830E-19         0.00000E+00
    0.63315E-07        -0.30149E-19         0.00000E+00
    0.63315E-07        -0.44703E-19         0.00000E+00
    0.63315E-07        -0.22352E-19         0.00000E+00
    0.63315E-07         0.00000E+00         0.00000E+00
    0.63315E-07        -0.37253E-20         0.00000E+00
    0.63315E-07        -0.22352E-19         0.00000E+00
    0.63315E-07        -0.44703E-19         0.00000E+00
    0.63315E-07        -0.40978E-19         0.00000E+00
    0.63315E-07        -0.26077E-19         0.00000E+00
    0.63315E-07        -0.29802E-19         0.00000E+00
    0.63315E-07        -0.18626E-19         0.00000E+00
    0.63315E-07        -0.74506E-20         0.00000E+00
    0.63315E-07         0.37253E-20         0.00000E+00
    0.63315E-07         0.14555E-19         0.00000E+00
    0.63315E-07         0.14901E-19         0.00000E+00
    0.63315E-07         0.34623E-21         0.00000E+00
    0.63315E-07        -0.15247E-19         0.00000E+00
    0.63315E-07        -0.52417E-20         0.00000E+00
    0.63315E-07         0.25551E-20         0.00000E+00
    0.63315E-07         0.52417E-20         0.00000E+00
    0.63315E-07        -0.22089E-20         0.00000E+00
    0.63315E-07        -0.11176E-19         0.00000E+00
    0.63315E-07        -0.77968E-20         0.00000E+00
    0.63315E-07        -0.81430E-20         0.00000E+00
    0.62839E-07         0.00000E+00         0.00000E+00
    0.62839E-07        -0.18626E-20         0.00000E+00
    0.62839E-07        -0.11467E-19         0.00000E+00
    0.62839E-07        -0.16764E-19         0.00000E+00
    0.62839E-07        -0.22061E-19         0.00000E+00
    0.62839E-07        -0.22352E-19         0.00000E+00
    0.62839E-07        -0.74506E-20         0.00000E+00
    0.62839E-07        -0.37253E-20         0.00000E+00
    0.62839E-07        -0.14901E-19         0.00000E+00
    0.62839E-07        -0.26077E-19         0.00000E+00
    0.62839E-07        -0.33818E-19         0.00000E+00
    0.62839E-07        -0.44703E-19         0.00000E+00
    0.62839E-07        -0.40688E-19         0.00000E+00
    0.62839E-07        -0.26077E-19         0.00000E+00
    0.62839E-07        -0.27940E-19         0.00000E+00
    0.62839E-07        -0.44703E-19         0.00000E+00
    0.62839E-07        -0.54017E-19         0.00000E+00
    0.62839E-07        -0.44703E-19         0.00000E+00
    0.62839E-07        -0.44703E-19         0.00000E+00
    0.62839E-07        -0.48429E-19         0.00000E+00
    0.62839E-07        -0.40978E-19         0.00000E+00
    0.62839E-07        -0.48429E-19         0.00000E+00
    0.62839E-07        -0.55879E-19         0.00000E+00
    0.62839E-07        -0.44703E-19         0.00000E+00
    0.62839E-07        -0.29802E-19         0.00000E+00
    0.62839E-07        -0.26077E-19         0.00000E+00
    0.62839E-07        -0.27940E-19         0.00000E+00
    0.62839E-07        -0.26077E-19         0.00000E+00
    0.62839E-07        -0.31665E-19         0.00000E+00
    0.62839E-07        -0.37253E-19         0.00000E+00
    0.62839E-07        -0.26077E-19         0.00000E+00
    0.62839E-07        -0.24214E-19         0.00000E+00
    0.62839E-07        -0.29802E-19         0.00000E+00
    0.62839E-07        -0.24214E-19         0.00000E+00
    0.62839E-07        -0.39116E-19         0.00000E+00
    0.62839E-07        -0.40978E-19         0.00000E+00
    0.62839E-07        -0.28230E-19         0.00000E+00
    0.62839E-07        -0.26368E-19         0.00000E+00
    0.62839E-07        -0.25786E-19         0.00000E+00
    0.62839E-07        -0.22061E-19         0.00000E+00
    0.62839E-07        -0.13039E-19         0.00000E+00
    0.62839E-07        -0.93132E-20         0.00000E+00
    0.62839E-07        -0.74506E-20         0.00000E+00
    0.62839E-07        -0.55879E-20         0.00000E+00
    0.62839E-07        -0.13329E-19         0.00000E+00
    0.62839E-07        -0.11467E-19         0.00000E+00
    0.62839E-07         0.11467E-19         0.00000E+00
    0.62839E-07         0.15192E-19         0.00000E+00
    0.62839E-07         0.37253E-20         0.00000E+00
    0.62839E-07        -0.40159E-20         0.00000E+00
    0.62839E-07        -0.80319E-20         0.00000E+00
    0.62262E-07        -0.18626E-19         0.00000E+00
    0.62262E-07        -0.18391E-19         0.00000E+00
    0.62262E-07        -0.16764E-19         0.00000E+00
    0.62262E-07        -0.13274E-19         0.00000E+00
    0.62262E-07        -0.11176E-19         0.00000E+00
    0.62262E-07        -0.29567E-19         0.00000E+00
    0.62262E-07        -0.35390E-19         0.00000E+00
    0.62262E-07        -0.26077E-19         0.00000E+00
    0.62262E-07        -0.29802E-19         0.00000E+00
    0.62262E-07        -0.37253E-19         0.00000E+00
    0.62262E-07        -0.25841E-19         0.00000E+00
    0.62262E-07        -0.15137E-19         0.00000E+00
    0.62262E-07        -0.28635E-19         0.00000E+00
    0.62262E-07        -0.37949E-19         0.00000E+00
    0.62262E-07        -0.45175E-19         0.00000E+00
    0.62262E-07        -0.39351E-19         0.00000E+00
    0.62262E-07        -0.35390E-19         0.00000E+00
    0.62262E-07        -0.42145E-19         0.00000E+00
    0.62262E-07        -0.44703E-19         0.00000E+00
    0.62262E-07        -0.36086E-19         0.00000E+00
    0.62262E-07        -0.46330E-19         0.00000E+00
    0.62262E-07        -0.48193E-19         0.00000E+00
    0.62262E-07        -0.39351E-19         0.00000E+00
    0.62262E-07        -0.52154E-19         0.00000E+00
    0.62262E-07        -0.54948E-19         0.00000E+00
    0.62262E-07        -0.44703E-19         0.00000E+00
    0.62262E-07        -0.32596E-19         0.00000E+00
    0.62262E-07        -0.19558E-19         0.00000E+00
    0.62262E-07        -0.23047E-19         0.00000E+00
    0.62262E-07        -0.25381E-19         0.00000E+00
    0.62262E-07        -0.23519E-19         0.00000E+00
    0.62262E-07        -0.28635E-19         0.00000E+00
    0.62262E-07        -0.32596E-19         0.00000E+00
    0.62262E-07        -0.26313E-19         0.00000E+00
    0.62262E-07        -0.93132E-20         0.00000E+00
    0.62262E-07        -0.11176E-19         0.00000E+00
    0.62262E-07        -0.37949E-19         0.00000E+00
    0.62262E-07        -0.45635E-19         0.00000E+00
    0.62262E-07        -0.22352E-19         0.00000E+00
    0.62262E-07        -0.10940E-19         0.00000E+00
    0.62262E-07        -0.15137E-19         0.00000E+00
    0.62262E-07        -0.11412E-19         0.00000E+00
    0.62262E-07        -0.11176E-19         0.00000E+00
    0.62262E-07        -0.24214E-19         0.00000E+00
    0.62262E-07        -0.29802E-19         0.00000E+00
    0.62262E-07        -0.22116E-19         0.00000E+00
    0.62262E-07        -0.18626E-19         0.00000E+00
    0.62262E-07        -0.13039E-19         0.00000E+00
    0.62262E-07        -0.18626E-20         0.00000E+00
    0.62262E-07         0.34897E-20         0.00000E+00
    0.62262E-07         0.37253E-20         0.00000E+00
    0.61590E-07        -0.72500E-21         0.00000E+00
    0.61590E-07         0.18626E-20         0.00000E+00
    0.61590E-07        -0.33628E-20         0.00000E+00
    0.61590E-07        -0.27940E-19         0.00000E+00
    0.61590E-07        -0.46929E-19         0.00000E+00
    0.61590E-07        -0.37615E-19         0.00000E+00
    0.61590E-07        -0.14539E-19         0.00000E+00
    0.61590E-07        -0.16401E-19         0.00000E+00
    0.61590E-07        -0.26077E-19         0.00000E+00
    0.61590E-07        -0.35390E-19         0.00000E+00
    0.61590E-07        -0.37253E-19         0.00000E+00
    0.61590E-07        -0.42841E-19         0.00000E+00
    0.61590E-07        -0.42841E-19         0.00000E+00
    0.61590E-07        -0.14901E-19         0.00000E+00
    0.61590E-07        -0.74506E-20         0.00000E+00
    0.61590E-07        -0.44703E-19         0.00000E+00
    0.61590E-07        -0.67055E-19         0.00000E+00
    0.61590E-07        -0.67055E-19         0.00000E+00
    0.61590E-07        -0.52154E-19         0.00000E+00
    0.61590E-07        -0.42841E-19         0.00000E+00
    0.61590E-07        -0.44703E-19         0.00000E+00
    0.61590E-07        -0.44703E-19         0.00000E+00
    0.61590E-07        -0.40978E-19         0.00000E+00
    0.61590E-07        -0.42841E-19         0.00000E+00
    0.61590E-07        -0.39116E-19         0.00000E+00
    0.61590E-07        -0.27940E-19         0.00000E+00
    0.61590E-07        -0.44703E-19         0.00000E+00
    0.61590E-07        -0.57742E-19         0.00000E+00
    0.61590E-07        -0.52154E-19         0.00000E+00
    0.61590E-07        -0.42841E-19         0.00000E+00
    0.61590E-07        -0.22352E-19         0.00000E+00
    0.61590E-07        -0.24214E-19         0.00000E+00
    0.61590E-07        -0.33528E-19         0.00000E+00
    0.61590E-07        -0.29802E-19         0.00000E+00
    0.61590E-07        -0.26077E-19         0.00000E+00
    0.61590E-07        -0.11176E-19         0.00000E+00
    0.61590E-07         0.74506E-20         0.00000E+00
    0.61590E-07         0.11176E-19         0.00000E+00
    0.61590E-07         0.00000E+00         0.00000E+00
    0.61590E-07        -0.22714E-19         0.00000E+00
    0.61590E-07        -0.29802E-19         0.00000E+00
    0.61590E-07        -0.33165E-19         0.00000E+00
    0.61590E-07        -0.24214E-19         0.00000E+00
    0.61590E-07        -0.16764E-19         0.00000E+00
    0.61590E-07        -0.14901E-19         0.00000E+00
    0.61590E-07        -0.18626E-20         0.00000E+00
    0.61590E-07         0.33628E-20         0.00000E+00
    0.61590E-07         0.67708E-35         0.00000E+00
    0.61590E-07        -0.52254E-20         0.00000E+00
    0.61590E-07         0.18626E-20         0.00000E+00
    0.61590E-07         0.37253E-20         0.00000E+00
    0.60825E-07        -0.74506E-20         0.00000E+00
    0.60825E-07        -0.22352E-19         0.00000E+00
    0.60825E-07        -0.40978E-19         0.00000E+00
    0.60825E-07        -0.30478E-19         0.00000E+00
    0.60825E-07        -0.12107E-19         0.00000E+00
    0.60825E-07        -0.25656E-19         0.00000E+00
    0.60825E-07        -0.27940E-19         0.00000E+00
    0.60825E-07        -0.23028E-19         0.00000E+00
    0.60825E-07        -0.27940E-19         0.00000E+00
    0.60825E-07        -0.26077E-19         0.00000E+00
    0.60825E-07        -0.24214E-19         0.00000E+00
    0.60825E-07        -0.26753E-19         0.00000E+00
    0.60825E-07        -0.27008E-19         0.00000E+00
    0.60825E-07        -0.30734E-19         0.00000E+00
    0.60825E-07        -0.36322E-19         0.00000E+00
    0.60825E-07        -0.44959E-19         0.00000E+00
    0.60825E-07        -0.33528E-19         0.00000E+00
    0.60825E-07        -0.11176E-19         0.00000E+00
    0.60825E-07        -0.35390E-19         0.00000E+00
    0.60825E-07        -0.52154E-19         0.00000E+00
    0.60825E-07        -0.52154E-19         0.00000E+00
    0.60825E-07        -0.63330E-19         0.00000E+00
    0.60825E-07        -0.46566E-19         0.00000E+00
    0.60825E-07        -0.36998E-19         0.00000E+00
    0.60825E-07        -0.40302E-19         0.00000E+00
    0.60825E-07        -0.29802E-19         0.00000E+00
    0.60825E-07        -0.25822E-19         0.00000E+00
    0.60825E-07        -0.36577E-19         0.00000E+00
    0.60825E-07        -0.40978E-19         0.00000E+00
    0.60825E-07        -0.44703E-19         0.00000E+00
    0.60825E-07        -0.37253E-19         0.00000E+00
    0.60825E-07        -0.11176E-19         0.00000E+00
    0.60825E-07        -0.14901E-19         0.00000E+00
    0.60825E-07        -0.26077E-19         0.00000E+00
    0.60825E-07        -0.22352E-19         0.00000E+00
    0.60825E-07        -0.18626E-19         0.00000E+00
    0.60825E-07        -0.26077E-19         0.00000E+00
    0.60825E-07        -0.33528E-19         0.00000E+00
    0.60825E-07        -0.33528E-19         0.00000E+00
    0.60825E-07        -0.26077E-19         0.00000E+00
    0.60825E-07        -0.24470E-19         0.00000E+00
    0.60825E-07        -0.29802E-19         0.00000E+00
    0.60825E-07        -0.23959E-19         0.00000E+00
    0.60825E-07        -0.14225E-19         0.00000E+00
    0.60825E-07        -0.44014E-20         0.00000E+00
    0.60825E-07        -0.50776E-20         0.00000E+00
    0.60825E-07         0.44014E-20         0.00000E+00
    0.60825E-07         0.17440E-19         0.00000E+00
    0.60825E-07         0.20489E-19         0.00000E+00
    0.60825E-07         0.44014E-20         0.00000E+00
    0.60825E-07        -0.98236E-20         0.00000E+00
    0.59973E-07         0.29886E-21         0.00000E+00
    0.59973E-07        -0.37253E-20         0.00000E+00
    0.59973E-07        -0.27940E-20         0.00000E+00
    0.59973E-07        -0.27940E-20         0.00000E+00
    0.59973E-07        -0.74506E-20         0.00000E+00
    0.59973E-07        -0.18626E-19         0.00000E+00
    0.59973E-07        -0.25146E-19         0.00000E+00
    0.59973E-07        -0.24996E-19         0.00000E+00
    0.59973E-07        -0.29802E-19         0.00000E+00
    0.59973E-07        -0.94627E-20         0.00000E+00
    0.59973E-07         0.35759E-20         0.00000E+00
    0.59973E-07        -0.93132E-20         0.00000E+00
    0.59973E-07        -0.18626E-19         0.00000E+00
    0.59973E-07        -0.22352E-19         0.00000E+00
    0.59973E-07        -0.37253E-19         0.00000E+00
    0.59973E-07        -0.35390E-19         0.00000E+00
    0.59973E-07        -0.29802E-19         0.00000E+00
    0.59973E-07        -0.40978E-19         0.00000E+00
    0.59973E-07        -0.31665E-19         0.00000E+00
    0.59973E-07        -0.39116E-19         0.00000E+00
    0.59973E-07        -0.44703E-19         0.00000E+00
    0.59973E-07        -0.33528E-19         0.00000E+00
    0.59973E-07        -0.29802E-19         0.00000E+00
    0.59973E-07        -0.24214E-19         0.00000E+00
    0.59973E-07        -0.16764E-19         0.00000E+00
    0.59973E-07        -0.22202E-19         0.00000E+00
    0.59973E-07        -0.44703E-19         0.00000E+00
    0.59973E-07        -0.50441E-19         0.00000E+00
    0.59973E-07        -0.42841E-19         0.00000E+00
    0.59973E-07        -0.27940E-19         0.00000E+00
    0.59973E-07        -0.31665E-19         0.00000E+00
    0.59973E-07        -0.57593E-19         0.00000E+00
    0.59973E-07        -0.49360E-19         0.00000E+00
    0.59973E-07        -0.36471E-19         0.00000E+00
    0.59973E-07        -0.39116E-19         0.00000E+00
    0.59973E-07        -0.46566E-19         0.00000E+00
    0.59973E-07        -0.33528E-19         0.00000E+00
    0.59973E-07        -0.11176E-19         0.00000E+00
    0.59973E-07         0.37253E-20         0.00000E+00
    0.59973E-07        -0.35759E-20         0.00000E+00
    0.59973E-07        -0.26077E-19         0.00000E+00
    0.59973E-07        -0.26077E-19         0.00000E+00
    0.59973E-07        -0.27940E-19         0.00000E+00
    0.59973E-07        -0.31665E-19         0.00000E+00
    0.59973E-07        -0.24214E-19         0.00000E+00
    0.59973E-07         0.91638E-20         0.00000E+00
    0.59973E-07         0.29802E-19         0.00000E+00
    0.59973E-07         0.16764E-19         0.00000E+00
    0.59973E-07         0.37253E-20         0.00000E+00
    0.59973E-07        -0.38747E-20         0.00000E+00
    0.59973E-07        -0.40242E-20         0.00000E+00
    0.59039E-07         0.74506E-20         0.00000E+00
    0.59039E-07         0.20489E-19         0.00000E+00
    0.59039E-07         0.28826E-19         0.00000E+00
    0.59039E-07         0.22352E-19         0.00000E+00
    0.59039E-07        -0.46112E-20         0.00000E+00
    0.59039E-07        -0.16764E-19         0.00000E+00
    0.59039E-07        -0.74506E-20         0.00000E+00
    0.59039E-07         0.93132E-20         0.00000E+00
    0.59039E-07         0.20489E-19         0.00000E+00
    0.59039E-07        -0.20489E-19         0.00000E+00
    0.59039E-07        -0.45680E-19         0.00000E+00
    0.59039E-07        -0.22352E-19         0.00000E+00
    0.59039E-07        -0.15787E-19         0.00000E+00
    0.59039E-07        -0.13039E-19         0.00000E+00
    0.59039E-07        -0.14901E-19         0.00000E+00
    0.59039E-07        -0.29802E-19         0.00000E+00
    0.59039E-07        -0.40978E-19         0.00000E+00
    0.59039E-07        -0.52154E-19         0.00000E+00
    0.59039E-07        -0.63330E-19         0.00000E+00
    0.59039E-07        -0.52154E-19         0.00000E+00
    0.59039E-07        -0.40978E-19         0.00000E+00
    0.59039E-07        -0.40978E-19         0.00000E+00
    0.59039E-07        -0.24214E-19         0.00000E+00
    0.59039E-07        -0.13039E-19         0.00000E+00
    0.59039E-07        -0.27940E-19         0.00000E+00
    0.59039E-07        -0.31665E-19         0.00000E+00
    0.59039E-07        -0.14901E-19         0.00000E+00
    0.59039E-07        -0.14901E-19         0.00000E+00
    0.59039E-07        -0.16764E-19         0.00000E+00
    0.59039E-07        -0.24214E-19         0.00000E+00
    0.59039E-07        -0.40978E-19         0.00000E+00
    0.59039E-07        -0.39116E-19         0.00000E+00
    0.59039E-07        -0.39116E-19         0.00000E+00
    0.59039E-07        -0.48429E-19         0.00000E+00
    0.59039E-07        -0.59605E-19         0.00000E+00
    0.59039E-07        -0.63330E-19         0.00000E+00
    0.59039E-07        -0.53131E-19         0.00000E+00
    0.59039E-07        -0.49406E-19         0.00000E+00
    0.59039E-07        -0.54903E-19         0.00000E+00
    0.59039E-07        -0.47452E-19         0.00000E+00
    0.59039E-07        -0.14901E-19         0.00000E+00
    0.59039E-07        -0.55879E-20         0.00000E+00
    0.59039E-07        -0.93132E-20         0.00000E+00
    0.59039E-07        -0.55879E-20         0.00000E+00
    0.59039E-07        -0.97675E-21         0.00000E+00
    0.59039E-07         0.64738E-20         0.00000E+00
    0.59039E-07         0.74960E-20         0.00000E+00
    0.59039E-07        -0.36799E-20         0.00000E+00
    0.59039E-07        -0.14901E-19         0.00000E+00
    0.59039E-07        -0.56334E-20         0.00000E+00
    0.59039E-07         0.36344E-20         0.00000E+00
    0.58028E-07         0.14901E-19         0.00000E+00
    0.58028E-07         0.20489E-19         0.00000E+00
    0.58028E-07         0.93132E-20         0.00000E+00
    0.58028E-07        -0.11176E-19         0.00000E+00
    0.58028E-07        -0.10301E-19         0.00000E+00
    0.58028E-07         0.28507E-20         0.00000E+00
    0.58028E-07         0.15015E-19         0.00000E+00
    0.58028E-07         0.18059E-20         0.00000E+00
    0.58028E-07        -0.11233E-19         0.00000E+00
    0.58028E-07         0.84386E-20         0.00000E+00
    0.58028E-07         0.27940E-20         0.00000E+00
    0.58028E-07        -0.20546E-19         0.00000E+00
    0.58028E-07        -0.22352E-19         0.00000E+00
    0.58028E-07        -0.16764E-19         0.00000E+00
    0.58028E-07        -0.11176E-19         0.00000E+00
    0.58028E-07        -0.17638E-19         0.00000E+00
    0.58028E-07        -0.36378E-19         0.00000E+00
    0.58028E-07        -0.42898E-19         0.00000E+00
    0.58028E-07        -0.41796E-19         0.00000E+00
    0.58028E-07        -0.52211E-19         0.00000E+00
    0.58028E-07        -0.48485E-19         0.00000E+00
    0.58028E-07        -0.41853E-19         0.00000E+00
    0.58028E-07        -0.47554E-19         0.00000E+00
    0.58028E-07        -0.43829E-19         0.00000E+00
    0.58028E-07        -0.23170E-19         0.00000E+00
    0.58028E-07        -0.65193E-20         0.00000E+00
    0.58028E-07        -0.93700E-20         0.00000E+00
    0.58028E-07        -0.14844E-19         0.00000E+00
    0.58028E-07        -0.11176E-19         0.00000E+00
    0.58028E-07        -0.27883E-19         0.00000E+00
    0.58028E-07        -0.36378E-19         0.00000E+00
    0.58028E-07        -0.47611E-19         0.00000E+00
    0.58028E-07        -0.71655E-19         0.00000E+00
    0.58028E-07        -0.69792E-19         0.00000E+00
    0.58028E-07        -0.59661E-19         0.00000E+00
    0.58028E-07        -0.52154E-19         0.00000E+00
    0.58028E-07        -0.52154E-19         0.00000E+00
    0.58028E-07        -0.40978E-19         0.00000E+00
    0.58028E-07        -0.65193E-20         0.00000E+00
    0.58028E-07        -0.65760E-20         0.00000E+00
    0.58028E-07        -0.37196E-19         0.00000E+00
    0.58028E-07        -0.33471E-19         0.00000E+00
    0.58028E-07        -0.16821E-19         0.00000E+00
    0.58028E-07        -0.13039E-19         0.00000E+00
    0.58028E-07        -0.11119E-19         0.00000E+00
    0.58028E-07        -0.26077E-19         0.00000E+00
    0.58028E-07        -0.24214E-19         0.00000E+00
    0.58028E-07        -0.55879E-20         0.00000E+00
    0.58028E-07        -0.56725E-22         0.00000E+00
    0.58028E-07        -0.27372E-20         0.00000E+00
    0.58028E-07         0.20895E-20         0.00000E+00
    0.56946E-07         0.00000E+00         0.00000E+00
    0.56946E-07        -0.76075E-20         0.00000E+00
    0.56946E-07        -0.46566E-20         0.00000E+00
    0.56946E-07         0.29509E-20         0.00000E+00
    0.56946E-07        -0.74506E-20         0.00000E+00
    0.56946E-07        -0.20646E-19         0.00000E+00
    0.56946E-07        -0.21420E-19         0.00000E+00
    0.56946E-07        -0.18626E-19         0.00000E+00
    0.56946E-07        -0.13039E-19         0.00000E+00
    0.56946E-07        -0.22352E-19         0.00000E+00
    0.56946E-07        -0.14127E-19         0.00000E+00
    0.56946E-07         0.10882E-20         0.00000E+00
    0.56946E-07        -0.15989E-19         0.00000E+00
    0.56946E-07        -0.34616E-19         0.00000E+00
    0.56946E-07        -0.45321E-19         0.00000E+00
    0.56946E-07        -0.16607E-19         0.00000E+00
    0.56946E-07        -0.37253E-20         0.00000E+00
    0.56946E-07        -0.10088E-19         0.00000E+00
    0.56946E-07        -0.15832E-19         0.00000E+00
    0.56946E-07        -0.22509E-19         0.00000E+00
    0.56946E-07        -0.36478E-19         0.00000E+00
    0.56946E-07        -0.49517E-19         0.00000E+00
    0.56946E-07        -0.28714E-19         0.00000E+00
    0.56946E-07        -0.32596E-19         0.00000E+00
    0.56946E-07        -0.59605E-19         0.00000E+00
    0.56946E-07        -0.58673E-19         0.00000E+00
    0.56946E-07        -0.35390E-19         0.00000E+00
    0.56946E-07        -0.22352E-19         0.00000E+00
    0.56946E-07        -0.34616E-19         0.00000E+00
    0.56946E-07        -0.39890E-19         0.00000E+00
    0.56946E-07        -0.54791E-19         0.00000E+00
    0.56946E-07        -0.54174E-19         0.00000E+00
    0.56946E-07        -0.32596E-19         0.00000E+00
    0.56946E-07        -0.38027E-19         0.00000E+00
    0.56946E-07        -0.33528E-19         0.00000E+00
    0.56946E-07        -0.18626E-19         0.00000E+00
    0.56946E-07         0.54310E-20         0.00000E+00
    0.56946E-07         0.74506E-20         0.00000E+00
    0.56946E-07        -0.17695E-19         0.00000E+00
    0.56946E-07        -0.21577E-19         0.00000E+00
    0.56946E-07        -0.54310E-20         0.00000E+00
    0.56946E-07        -0.11019E-19         0.00000E+00
    0.56946E-07        -0.20489E-19         0.00000E+00
    0.56946E-07        -0.18626E-20         0.00000E+00
    0.56946E-07         0.18626E-20         0.00000E+00
    0.56946E-07        -0.11333E-19         0.00000E+00
    0.56946E-07        -0.25146E-19         0.00000E+00
    0.56946E-07        -0.30734E-19         0.00000E+00
    0.56946E-07        -0.18626E-19         0.00000E+00
    0.56946E-07        -0.54310E-20         0.00000E+00
    0.56946E-07         0.37253E-20         0.00000E+00
    0.55800E-07        -0.74506E-20         0.00000E+00
    0.55800E-07        -0.14901E-19         0.00000E+00
    0.55800E-07        -0.20489E-19         0.00000E+00
    0.55800E-07        -0.27940E-19         0.00000E+00
    0.55800E-07        -0.27940E-19         0.00000E+00
    0.55800E-07        -0.16764E-19         0.00000E+00
    0.55800E-07        -0.11176E-19         0.00000E+00
    0.55800E-07        -0.18626E-19         0.00000E+00
    0.55800E-07        -0.37253E-19         0.00000E+00
    0.55800E-07        -0.40978E-19         0.00000E+00
    0.55800E-07        -0.48429E-19         0.00000E+00
    0.55800E-07        -0.52154E-19         0.00000E+00
    0.55800E-07        -0.37253E-19         0.00000E+00
    0.55800E-07        -0.16764E-19         0.00000E+00
    0.55800E-07        -0.14901E-19         0.00000E+00
    0.55800E-07        -0.31665E-19         0.00000E+00
    0.55800E-07        -0.26077E-19         0.00000E+00
    0.55800E-07        -0.14901E-19         0.00000E+00
    0.55800E-07        -0.21842E-19         0.00000E+00
    0.55800E-07        -0.39116E-19         0.00000E+00
    0.55800E-07        -0.37763E-19         0.00000E+00
    0.55800E-07        -0.27940E-19         0.00000E+00
    0.55800E-07        -0.39116E-19         0.00000E+00
    0.55800E-07        -0.44703E-19         0.00000E+00
    0.55800E-07        -0.31665E-19         0.00000E+00
    0.55800E-07        -0.26077E-19         0.00000E+00
    0.55800E-07        -0.26077E-19         0.00000E+00
    0.55800E-07        -0.40978E-19         0.00000E+00
    0.55800E-07        -0.39116E-19         0.00000E+00
    0.55800E-07        -0.27940E-19         0.00000E+00
    0.55800E-07        -0.27940E-19         0.00000E+00
    0.55800E-07        -0.42841E-19         0.00000E+00
    0.55800E-07        -0.50291E-19         0.00000E+00
    0.55800E-07        -0.33528E-19         0.00000E+00
    0.55800E-07        -0.26077E-19         0.00000E+00
    0.55800E-07        -0.18626E-19         0.00000E+00
    0.55800E-07        -0.93132E-20         0.00000E+00
    0.55800E-07         0.00000E+00         0.00000E+00
    0.55800E-07         0.00000E+00         0.00000E+00
    0.55800E-07        -0.74506E-20         0.00000E+00
    0.55800E-07        -0.16764E-19         0.00000E+00
    0.55800E-07        -0.74506E-20         0.00000E+00
    0.55800E-07        -0.18626E-20         0.00000E+00
    0.55800E-07        -0.11176E-19         0.00000E+00
    0.55800E-07        -0.18626E-19         0.00000E+00
    0.55800E-07        -0.74506E-20         0.00000E+00
    0.55800E-07         0.93132E-20         0.00000E+00
    0.55800E-07         0.55879E-20         0.00000E+00
    0.55800E-07         0.74506E-20         0.00000E+00
    0.55800E-07         0.74506E-20         0.00000E+00
    0.55800E-07         0.00000E+00         0.00000E+00
    0.54595E-07        -0.17223E-19         0.00000E+00
    0.54595E-07        -0.20489E-19         0.00000E+00
    0.54595E-07        -0.24916E-19         0.00000E+00
    0.54595E-07        -0.14901E-19         0.00000E+00
    0.54595E-07        -0.67489E-20         0.00000E+00
    0.54595E-07        -0.17925E-19         0.00000E+00
    0.54595E-07        -0.17466E-19         0.00000E+00
    0.54595E-07        -0.23053E-19         0.00000E+00
    0.54595E-07        -0.22352E-19         0.00000E+00
    0.54595E-07        -0.11176E-19         0.00000E+00
    0.54595E-07        -0.11176E-19         0.00000E+00
    0.54595E-07        -0.13039E-19         0.00000E+00
    0.54595E-07        -0.20489E-19         0.00000E+00
    0.54595E-07        -0.27940E-19         0.00000E+00
    0.54595E-07        -0.35390E-19         0.00000E+00
    0.54595E-07        -0.37253E-19         0.00000E+00
    0.54595E-07        -0.48429E-19         0.00000E+00
    0.54595E-07        -0.55879E-19         0.00000E+00
    0.54595E-07        -0.44703E-19         0.00000E+00
    0.54595E-07        -0.26077E-19         0.00000E+00
    0.54595E-07        -0.26077E-19         0.00000E+00
    0.54595E-07        -0.22352E-19         0.00000E+00
    0.54595E-07        -0.22352E-19         0.00000E+00
    0.54595E-07        -0.26077E-19         0.00000E+00
    0.54595E-07        -0.26077E-19         0.00000E+00
    0.54595E-07        -0.29802E-19         0.00000E+00
    0.54595E-07        -0.33528E-19         0.00000E+00
    0.54595E-07        -0.33528E-19         0.00000E+00
    0.54595E-07        -0.29802E-19         0.00000E+00
    0.54595E-07        -0.37253E-19         0.00000E+00
    0.54595E-07        -0.26077E-19         0.00000E+00
    0.54595E-07        -0.11176E-19         0.00000E+00
    0.54595E-07        -0.11176E-19         0.00000E+00
    0.54595E-07        -0.14901E-19         0.00000E+00
    0.54595E-07        -0.14901E-19         0.00000E+00
    0.54595E-07        -0.13039E-19         0.00000E+00
    0.54595E-07        -0.18626E-19         0.00000E+00
    0.54595E-07        -0.27940E-19         0.00000E+00
    0.54595E-07        -0.11176E-19         0.00000E+00
    0.54595E-07         0.44270E-20         0.00000E+00
    0.54595E-07         0.27940E-20         0.00000E+00
    0.54595E-07        -0.34957E-20         0.00000E+00
    0.54595E-07        -0.18626E-19         0.00000E+00
    0.54595E-07        -0.16764E-19         0.00000E+00
    0.54595E-07        -0.74506E-20         0.00000E+00
    0.54595E-07        -0.13039E-19         0.00000E+00
    0.54595E-07        -0.16993E-19         0.00000E+00
    0.54595E-07        -0.46566E-20         0.00000E+00
    0.54595E-07         0.30236E-20         0.00000E+00
    0.54595E-07         0.55879E-20         0.00000E+00
    0.54595E-07         0.11176E-19         0.00000E+00
    0.53339E-07         0.00000E+00         0.00000E+00
    0.53339E-07        -0.18202E-20         0.00000E+00
    0.53339E-07         0.65193E-20         0.00000E+00
    0.53339E-07        -0.46990E-20         0.00000E+00
    0.53339E-07        -0.33528E-19         0.00000E+00
    0.53339E-07        -0.38142E-19         0.00000E+00
    0.53339E-07        -0.34417E-19         0.00000E+00
    0.53339E-07        -0.16764E-19         0.00000E+00
    0.53339E-07        -0.13081E-19         0.00000E+00
    0.53339E-07        -0.20531E-19         0.00000E+00
    0.53339E-07        -0.16721E-19         0.00000E+00
    0.53339E-07        -0.24214E-19         0.00000E+00
    0.53339E-07        -0.29845E-19         0.00000E+00
    0.53339E-07        -0.20447E-19         0.00000E+00
    0.53339E-07        -0.37253E-20         0.00000E+00
    0.53339E-07        -0.12107E-19         0.00000E+00
    0.53339E-07        -0.15790E-19         0.00000E+00
    0.53339E-07        -0.25188E-19         0.00000E+00
    0.53339E-07        -0.32639E-19         0.00000E+00
    0.53339E-07        -0.26077E-19         0.00000E+00
    0.53339E-07        -0.31623E-19         0.00000E+00
    0.53339E-07        -0.40936E-19         0.00000E+00
    0.53339E-07        -0.27940E-19         0.00000E+00
    0.53339E-07        -0.33528E-19         0.00000E+00
    0.53339E-07        -0.42883E-19         0.00000E+00
    0.53339E-07        -0.29802E-19         0.00000E+00
    0.53339E-07        -0.20447E-19         0.00000E+00
    0.53339E-07        -0.14901E-19         0.00000E+00
    0.53339E-07        -0.27940E-19         0.00000E+00
    0.53339E-07        -0.37295E-19         0.00000E+00
    0.53339E-07        -0.26077E-19         0.00000E+00
    0.53339E-07        -0.18584E-19         0.00000E+00
    0.53339E-07        -0.29845E-19         0.00000E+00
    0.53339E-07        -0.44746E-19         0.00000E+00
    0.53339E-07        -0.40978E-19         0.00000E+00
    0.53339E-07        -0.26077E-19         0.00000E+00
    0.53339E-07        -0.20489E-19         0.00000E+00
    0.53339E-07        -0.15790E-19         0.00000E+00
    0.53339E-07        -0.12065E-19         0.00000E+00
    0.53339E-07        -0.22394E-19         0.00000E+00
    0.53339E-07        -0.22394E-19         0.00000E+00
    0.53339E-07        -0.13039E-19         0.00000E+00
    0.53339E-07        -0.17653E-19         0.00000E+00
    0.53339E-07        -0.15790E-19         0.00000E+00
    0.53339E-07        -0.93132E-20         0.00000E+00
    0.53339E-07        -0.18626E-20         0.00000E+00
    0.53339E-07        -0.37677E-20         0.00000E+00
    0.53339E-07        -0.14944E-19         0.00000E+00
    0.53339E-07        -0.11176E-19         0.00000E+00
    0.53339E-07         0.00000E+00         0.00000E+00
    0.53339E-07         0.37253E-20         0.00000E+00
    0.52039E-07         0.74506E-20         0.00000E+00
    0.52039E-07         0.18626E-20         0.00000E+00
    0.52039E-07        -0.37253E-20         0.00000E+00
    0.52039E-07         0.26538E-20         0.00000E+00
    0.52039E-07        -0.13039E-19         0.00000E+00
    0.52039E-07        -0.26728E-19         0.00000E+00
    0.52039E-07        -0.24214E-19         0.00000E+00
    0.52039E-07        -0.24355E-19         0.00000E+00
    0.52039E-07        -0.22352E-19         0.00000E+00
    0.52039E-07        -0.22352E-19         0.00000E+00
    0.52039E-07        -0.20489E-19         0.00000E+00
    0.52039E-07        -0.66594E-20         0.00000E+00
    0.52039E-07        -0.22352E-19         0.00000E+00
    0.52039E-07        -0.40047E-19         0.00000E+00
    0.52039E-07        -0.38184E-19         0.00000E+00
    0.52039E-07        -0.36181E-19         0.00000E+00
    0.52039E-07        -0.33528E-19         0.00000E+00
    0.52039E-07        -0.24214E-19         0.00000E+00
    0.52039E-07        -0.74506E-20         0.00000E+00
    0.52039E-07        -0.11176E-19         0.00000E+00
    0.52039E-07        -0.13039E-19         0.00000E+00
    0.52039E-07         0.37253E-20         0.00000E+00
    0.52039E-07        -0.13039E-19         0.00000E+00
    0.52039E-07        -0.30874E-19         0.00000E+00
    0.52039E-07        -0.20349E-19         0.00000E+00
    0.52039E-07        -0.20489E-19         0.00000E+00
    0.52039E-07        -0.15973E-19         0.00000E+00
    0.52039E-07        -0.25937E-19         0.00000E+00
    0.52039E-07        -0.35390E-19         0.00000E+00
    0.52039E-07        -0.44703E-19         0.00000E+00
    0.52039E-07        -0.50291E-19         0.00000E+00
    0.52039E-07        -0.39116E-19         0.00000E+00
    0.52039E-07        -0.31665E-19         0.00000E+00
    0.52039E-07        -0.24214E-19         0.00000E+00
    0.52039E-07        -0.22352E-19         0.00000E+00
    0.52039E-07        -0.18626E-19         0.00000E+00
    0.52039E-07        -0.14901E-19         0.00000E+00
    0.52039E-07        -0.27940E-19         0.00000E+00
    0.52039E-07        -0.44703E-19         0.00000E+00
    0.52039E-07        -0.42841E-19         0.00000E+00
    0.52039E-07        -0.29662E-19         0.00000E+00
    0.52039E-07        -0.25146E-19         0.00000E+00
    0.52039E-07        -0.21561E-19         0.00000E+00
    0.52039E-07        -0.63791E-20         0.00000E+00
    0.52039E-07        -0.75907E-20         0.00000E+00
    0.52039E-07        -0.17975E-19         0.00000E+00
    0.52039E-07        -0.15692E-19         0.00000E+00
    0.52039E-07        -0.10104E-19         0.00000E+00
    0.52039E-07        -0.18626E-20         0.00000E+00
    0.52039E-07         0.47967E-20         0.00000E+00
    0.52039E-07         0.21429E-20         0.00000E+00
    0.50700E-07         0.00000E+00         0.00000E+00
    0.50700E-07        -0.71327E-20         0.00000E+00
    0.50700E-07        -0.13039E-19         0.00000E+00
    0.50700E-07        -0.40431E-20         0.00000E+00
    0.50700E-07         0.55879E-20         0.00000E+00
    0.50700E-07         0.55879E-20         0.00000E+00
    0.50700E-07        -0.37253E-20         0.00000E+00
    0.50700E-07        -0.13039E-19         0.00000E+00
    0.50700E-07        -0.71327E-20         0.00000E+00
    0.50700E-07         0.00000E+00         0.00000E+00
    0.50700E-07        -0.96311E-20         0.00000E+00
    0.50700E-07        -0.20489E-19         0.00000E+00
    0.50700E-07        -0.20171E-19         0.00000E+00
    0.50700E-07        -0.16764E-19         0.00000E+00
    0.50700E-07        -0.17082E-19         0.00000E+00
    0.50700E-07        -0.22034E-19         0.00000E+00
    0.50700E-07        -0.27940E-19         0.00000E+00
    0.50700E-07        -0.33528E-19         0.00000E+00
    0.50700E-07        -0.36935E-19         0.00000E+00
    0.50700E-07        -0.31051E-19         0.00000E+00
    0.50700E-07        -0.25146E-19         0.00000E+00
    0.50700E-07        -0.33528E-19         0.00000E+00
    0.50700E-07        -0.14901E-19         0.00000E+00
    0.50700E-07         0.31785E-21         0.00000E+00
    0.50700E-07        -0.14901E-19         0.00000E+00
    0.50700E-07        -0.37253E-19         0.00000E+00
    0.50700E-07        -0.45953E-19         0.00000E+00
    0.50700E-07        -0.34459E-19         0.00000E+00
    0.50700E-07        -0.22034E-19         0.00000E+00
    0.50700E-07        -0.12425E-19         0.00000E+00
    0.50700E-07        -0.26077E-19         0.00000E+00
    0.50700E-07        -0.36322E-19         0.00000E+00
    0.50700E-07        -0.33845E-19         0.00000E+00
    0.50700E-07        -0.35072E-19         0.00000E+00
    0.50700E-07        -0.16764E-19         0.00000E+00
    0.50700E-07         0.18626E-20         0.00000E+00
    0.50700E-07        -0.12721E-19         0.00000E+00
    0.50700E-07        -0.39116E-19         0.00000E+00
    0.50700E-07        -0.33845E-19         0.00000E+00
    0.50700E-07        -0.26395E-19         0.00000E+00
    0.50700E-07        -0.46248E-19         0.00000E+00
    0.50700E-07        -0.48429E-19         0.00000E+00
    0.50700E-07        -0.35708E-19         0.00000E+00
    0.50700E-07        -0.26077E-19         0.00000E+00
    0.50700E-07         0.00000E+00         0.00000E+00
    0.50700E-07         0.14901E-19         0.00000E+00
    0.50700E-07         0.74506E-20         0.00000E+00
    0.50700E-07         0.40431E-20         0.00000E+00
    0.50700E-07         0.46566E-20         0.00000E+00
    0.50700E-07         0.27940E-20         0.00000E+00
    0.50700E-07         0.63570E-21         0.00000E+00
    0.49332E-07        -0.47066E-20         0.00000E+00
    0.49332E-07         0.18626E-20         0.00000E+00
    0.49332E-07         0.14901E-19         0.00000E+00
    0.49332E-07         0.18626E-19         0.00000E+00
    0.49332E-07         0.11176E-19         0.00000E+00
    0.49332E-07         0.55879E-20         0.00000E+00
    0.49332E-07         0.37253E-20         0.00000E+00
    0.49332E-07         0.50973E-20         0.00000E+00
    0.49332E-07         0.74506E-20         0.00000E+00
    0.49332E-07         0.49066E-21         0.00000E+00
    0.49332E-07        -0.10685E-19         0.00000E+00
    0.49332E-07        -0.29802E-19         0.00000E+00
    0.49332E-07        -0.37253E-19         0.00000E+00
    0.49332E-07        -0.26077E-19         0.00000E+00
    0.49332E-07        -0.22352E-19         0.00000E+00
    0.49332E-07        -0.18626E-19         0.00000E+00
    0.49332E-07        -0.74506E-20         0.00000E+00
    0.49332E-07         0.11176E-19         0.00000E+00
    0.49332E-07         0.37253E-20         0.00000E+00
    0.49332E-07        -0.29802E-19         0.00000E+00
    0.49332E-07        -0.37253E-19         0.00000E+00
    0.49332E-07        -0.26077E-19         0.00000E+00
    0.49332E-07        -0.33528E-19         0.00000E+00
    0.49332E-07        -0.44703E-19         0.00000E+00
    0.49332E-07        -0.44703E-19         0.00000E+00
    0.49332E-07        -0.30293E-19         0.00000E+00
    0.49332E-07        -0.22352E-19         0.00000E+00
    0.49332E-07        -0.38625E-19         0.00000E+00
    0.49332E-07        -0.37253E-19         0.00000E+00
    0.49332E-07        -0.35390E-19         0.00000E+00
    0.49332E-07        -0.40978E-19         0.00000E+00
    0.49332E-07        -0.34018E-19         0.00000E+00
    0.49332E-07        -0.40978E-19         0.00000E+00
    0.49332E-07        -0.47938E-19         0.00000E+00
    0.49332E-07        -0.52154E-19         0.00000E+00
    0.49332E-07        -0.40978E-19         0.00000E+00
    0.49332E-07        -0.18626E-19         0.00000E+00
    0.49332E-07        -0.11176E-19         0.00000E+00
    0.49332E-07        -0.22352E-19         0.00000E+00
    0.49332E-07        -0.24705E-19         0.00000E+00
    0.49332E-07        -0.14901E-19         0.00000E+00
    0.49332E-07        -0.74506E-20         0.00000E+00
    0.49332E-07        -0.74506E-20         0.00000E+00
    0.49332E-07        -0.74506E-20         0.00000E+00
    0.49332E-07        -0.74506E-20         0.00000E+00
    0.49332E-07        -0.12548E-19         0.00000E+00
    0.49332E-07        -0.74506E-20         0.00000E+00
    0.49332E-07        -0.11176E-19         0.00000E+00
    0.49332E-07        -0.11176E-19         0.00000E+00
    0.49332E-07        -0.50973E-20         0.00000E+00
    0.49332E-07        -0.27440E-20         0.00000E+00
    0.47939E-07         0.00000E+00         0.00000E+00
    0.47939E-07         0.37253E-20         0.00000E+00
    0.47939E-07         0.74506E-20         0.00000E+00
    0.47939E-07         0.93132E-20         0.00000E+00
    0.47939E-07         0.86547E-20         0.00000E+00
    0.47939E-07        -0.55879E-20         0.00000E+00
    0.47939E-07        -0.30668E-20         0.00000E+00
    0.47939E-07         0.74506E-20         0.00000E+00
    0.47939E-07         0.00000E+00         0.00000E+00
    0.47939E-07         0.55879E-20         0.00000E+00
    0.47939E-07         0.21693E-19         0.00000E+00
    0.47939E-07         0.22352E-19         0.00000E+00
    0.47939E-07         0.15560E-19         0.00000E+00
    0.47939E-07         0.30668E-20         0.00000E+00
    0.47939E-07        -0.93132E-20         0.00000E+00
    0.47939E-07        -0.98589E-20         0.00000E+00
    0.47939E-07        -0.74506E-20         0.00000E+00
    0.47939E-07        -0.13697E-19         0.00000E+00
    0.47939E-07        -0.37253E-19         0.00000E+00
    0.47939E-07        -0.37253E-19         0.00000E+00
    0.47939E-07        -0.29802E-19         0.00000E+00
    0.47939E-07        -0.37253E-19         0.00000E+00
    0.47939E-07        -0.27940E-19         0.00000E+00
    0.47939E-07        -0.20489E-19         0.00000E+00
    0.47939E-07        -0.20489E-19         0.00000E+00
    0.47939E-07        -0.35390E-19         0.00000E+00
    0.47939E-07        -0.39116E-19         0.00000E+00
    0.47939E-07        -0.33528E-19         0.00000E+00
    0.47939E-07        -0.54017E-19         0.00000E+00
    0.47939E-07        -0.63330E-19         0.00000E+00
    0.47939E-07        -0.55879E-19         0.00000E+00
    0.47939E-07        -0.52154E-19         0.00000E+00
    0.47939E-07        -0.44703E-19         0.00000E+00
    0.47939E-07        -0.37253E-19         0.00000E+00
    0.47939E-07        -0.27940E-19         0.00000E+00
    0.47939E-07        -0.21693E-19         0.00000E+00
    0.47939E-07        -0.24214E-19         0.00000E+00
    0.47939E-07        -0.28598E-19         0.00000E+00
    0.47939E-07        -0.39116E-19         0.00000E+00
    0.47939E-07        -0.39116E-19         0.00000E+00
    0.47939E-07        -0.28598E-19         0.00000E+00
    0.47939E-07        -0.22352E-19         0.00000E+00
    0.47939E-07        -0.17968E-19         0.00000E+00
    0.47939E-07        -0.26077E-19         0.00000E+00
    0.47939E-07        -0.18626E-19         0.00000E+00
    0.47939E-07         0.37253E-20         0.00000E+00
    0.47939E-07         0.49295E-20         0.00000E+00
    0.47939E-07        -0.37253E-20         0.00000E+00
    0.47939E-07        -0.10517E-19         0.00000E+00
    0.47939E-07        -0.67921E-20         0.00000E+00
    0.47939E-07        -0.24083E-20         0.00000E+00
    0.46530E-07        -0.37253E-20         0.00000E+00
    0.46530E-07        -0.37253E-20         0.00000E+00
    0.46530E-07        -0.56980E-20         0.00000E+00
    0.46530E-07         0.74506E-20         0.00000E+00
    0.46530E-07         0.11286E-19         0.00000E+00
    0.46530E-07         0.37253E-20         0.00000E+00
    0.46530E-07        -0.37253E-20         0.00000E+00
    0.46530E-07        -0.74506E-20         0.00000E+00
    0.46530E-07         0.74506E-20         0.00000E+00
    0.46530E-07         0.93132E-20         0.00000E+00
    0.46530E-07         0.26839E-20         0.00000E+00
    0.46530E-07         0.13970E-19         0.00000E+00
    0.46530E-07         0.15011E-19         0.00000E+00
    0.46530E-07         0.16764E-19         0.00000E+00
    0.46530E-07         0.14901E-19         0.00000E+00
    0.46530E-07        -0.18626E-20         0.00000E+00
    0.46530E-07        -0.14901E-19         0.00000E+00
    0.46530E-07        -0.20489E-19         0.00000E+00
    0.46530E-07        -0.11176E-19         0.00000E+00
    0.46530E-07        -0.16764E-19         0.00000E+00
    0.46530E-07        -0.26077E-19         0.00000E+00
    0.46530E-07        -0.22352E-19         0.00000E+00
    0.46530E-07        -0.18626E-19         0.00000E+00
    0.46530E-07        -0.26077E-19         0.00000E+00
    0.46530E-07        -0.46566E-19         0.00000E+00
    0.46530E-07        -0.52154E-19         0.00000E+00
    0.46530E-07        -0.55879E-19         0.00000E+00
    0.46530E-07        -0.50291E-19         0.00000E+00
    0.46530E-07        -0.31665E-19         0.00000E+00
    0.46530E-07        -0.35390E-19         0.00000E+00
    0.46530E-07        -0.46566E-19         0.00000E+00
    0.46530E-07        -0.35390E-19         0.00000E+00
    0.46530E-07        -0.24214E-19         0.00000E+00
    0.46530E-07        -0.31665E-19         0.00000E+00
    0.46530E-07        -0.37253E-19         0.00000E+00
    0.46530E-07        -0.37253E-19         0.00000E+00
    0.46530E-07        -0.41088E-19         0.00000E+00
    0.46530E-07        -0.33638E-19         0.00000E+00
    0.46530E-07        -0.22242E-19         0.00000E+00
    0.46530E-07        -0.22242E-19         0.00000E+00
    0.46530E-07        -0.22352E-19         0.00000E+00
    0.46530E-07        -0.74506E-20         0.00000E+00
    0.46530E-07         0.13039E-19         0.00000E+00
    0.46530E-07         0.93132E-20         0.00000E+00
    0.46530E-07        -0.56980E-20         0.00000E+00
    0.46530E-07        -0.15011E-19         0.00000E+00
    0.46530E-07        -0.14791E-19         0.00000E+00
    0.46530E-07        -0.73405E-20         0.00000E+00
    0.46530E-07         0.18626E-20         0.00000E+00
    0.46530E-07         0.73405E-20         0.00000E+00
    0.46530E-07         0.72305E-20         0.00000E+00
    0.45112E-07         0.74506E-20         0.00000E+00
    0.45112E-07         0.10197E-19         0.00000E+00
    0.45112E-07         0.46089E-20         0.00000E+00
    0.45112E-07        -0.55402E-20         0.00000E+00
    0.45112E-07        -0.37253E-20         0.00000E+00
    0.45112E-07        -0.11224E-19         0.00000E+00
    0.45112E-07        -0.37253E-20         0.00000E+00
    0.45112E-07         0.15880E-19         0.00000E+00
    0.45112E-07         0.10292E-19         0.00000E+00
    0.45112E-07        -0.97902E-21         0.00000E+00
    0.45112E-07        -0.93132E-20         0.00000E+00
    0.45112E-07        -0.64716E-20         0.00000E+00
    0.45112E-07         0.18626E-20         0.00000E+00
    0.45112E-07         0.14853E-19         0.00000E+00
    0.45112E-07         0.74506E-20         0.00000E+00
    0.45112E-07         0.13970E-19         0.00000E+00
    0.45112E-07         0.23235E-19         0.00000E+00
    0.45112E-07        -0.37253E-20         0.00000E+00
    0.45112E-07        -0.16668E-19         0.00000E+00
    0.45112E-07        -0.13039E-19         0.00000E+00
    0.45112E-07        -0.14997E-19         0.00000E+00
    0.45112E-07        -0.31665E-19         0.00000E+00
    0.45112E-07        -0.48381E-19         0.00000E+00
    0.45112E-07        -0.56811E-19         0.00000E+00
    0.45112E-07        -0.45683E-19         0.00000E+00
    0.45112E-07        -0.31665E-19         0.00000E+00
    0.45112E-07        -0.27940E-19         0.00000E+00
    0.45112E-07        -0.24214E-19         0.00000E+00
    0.45112E-07        -0.33528E-19         0.00000E+00
    0.45112E-07        -0.43724E-19         0.00000E+00
    0.45112E-07        -0.40047E-19         0.00000E+00
    0.45112E-07        -0.41026E-19         0.00000E+00
    0.45112E-07        -0.44703E-19         0.00000E+00
    0.45112E-07        -0.42841E-19         0.00000E+00
    0.45112E-07        -0.42841E-19         0.00000E+00
    0.45112E-07        -0.39116E-19         0.00000E+00
    0.45112E-07        -0.26077E-19         0.00000E+00
    0.45112E-07        -0.11176E-19         0.00000E+00
    0.45112E-07        -0.12059E-19         0.00000E+00
    0.45112E-07        -0.24214E-19         0.00000E+00
    0.45112E-07        -0.21468E-19         0.00000E+00
    0.45112E-07        -0.28823E-19         0.00000E+00
    0.45112E-07        -0.24214E-19         0.00000E+00
    0.45112E-07        -0.47043E-20         0.00000E+00
    0.45112E-07         0.65670E-20         0.00000E+00
    0.45112E-07         0.14018E-19         0.00000E+00
    0.45112E-07         0.93132E-20         0.00000E+00
    0.45112E-07         0.18626E-20         0.00000E+00
    0.45112E-07        -0.14901E-19         0.00000E+00
    0.45112E-07        -0.20489E-19         0.00000E+00
    0.45112E-07        -0.14901E-19         0.00000E+00
    0.43690E-07         0.00000E+00         0.00000E+00
    0.43690E-07         0.18626E-20         0.00000E+00
    0.43690E-07         0.13039E-19         0.00000E+00
    0.43690E-07         0.14901E-19         0.00000E+00
    0.43690E-07         0.16623E-20         0.00000E+00
    0.43690E-07         0.67196E-20         0.00000E+00
    0.43690E-07         0.16233E-19         0.00000E+00
    0.43690E-07         0.12838E-19         0.00000E+00
    0.43690E-07         0.91128E-20         0.00000E+00
    0.43690E-07         0.13239E-19         0.00000E+00
    0.43690E-07         0.14901E-19         0.00000E+00
    0.43690E-07         0.72502E-20         0.00000E+00
    0.43690E-07         0.18626E-20         0.00000E+00
    0.43690E-07        -0.55879E-20         0.00000E+00
    0.43690E-07        -0.13039E-19         0.00000E+00
    0.43690E-07        -0.20289E-19         0.00000E+00
    0.43690E-07        -0.13239E-19         0.00000E+00
    0.43690E-07        -0.20630E-20         0.00000E+00
    0.43690E-07        -0.89124E-20         0.00000E+00
    0.43690E-07        -0.24415E-19         0.00000E+00
    0.43690E-07        -0.28140E-19         0.00000E+00
    0.43690E-07        -0.29602E-19         0.00000E+00
    0.43690E-07        -0.29071E-19         0.00000E+00
    0.43690E-07        -0.42110E-19         0.00000E+00
    0.43690E-07        -0.59204E-19         0.00000E+00
    0.43690E-07        -0.47497E-19         0.00000E+00
    0.43690E-07        -0.32797E-19         0.00000E+00
    0.43690E-07        -0.37053E-19         0.00000E+00
    0.43690E-07        -0.44703E-19         0.00000E+00
    0.43690E-07        -0.60336E-19         0.00000E+00
    0.43690E-07        -0.67256E-19         0.00000E+00
    0.43690E-07        -0.44173E-19         0.00000E+00
    0.43690E-07        -0.23083E-19         0.00000E+00
    0.43690E-07        -0.28671E-19         0.00000E+00
    0.43690E-07        -0.32797E-19         0.00000E+00
    0.43690E-07        -0.16764E-19         0.00000E+00
    0.43690E-07        -0.16764E-19         0.00000E+00
    0.43690E-07        -0.17695E-19         0.00000E+00
    0.43690E-07        -0.15832E-19         0.00000E+00
    0.43690E-07        -0.48570E-20         0.00000E+00
    0.43690E-07        -0.73093E-21         0.00000E+00
    0.43690E-07        -0.44562E-20         0.00000E+00
    0.43690E-07        -0.11376E-19         0.00000E+00
    0.43690E-07        -0.11176E-19         0.00000E+00
    0.43690E-07        -0.18426E-19         0.00000E+00
    0.43690E-07        -0.24214E-19         0.00000E+00
    0.43690E-07        -0.11176E-19         0.00000E+00
    0.43690E-07         0.93132E-20         0.00000E+00
    0.43690E-07         0.24014E-19         0.00000E+00
    0.43690E-07         0.10445E-19         0.00000E+00
    0.43690E-07        -0.47864E-20         0.00000E+00
    0.42272E-07        -0.69612E-21         0.00000E+00
    0.42272E-07        -0.74506E-20         0.00000E+00
    0.42272E-07        -0.13039E-19         0.00000E+00
    0.42272E-07        -0.37253E-20         0.00000E+00
    0.42272E-07        -0.46566E-20         0.00000E+00
    0.42272E-07        -0.18278E-19         0.00000E+00
    0.42272E-07         0.59360E-20         0.00000E+00
    0.42272E-07         0.16764E-19         0.00000E+00
    0.42272E-07         0.68673E-20         0.00000E+00
    0.42272E-07         0.00000E+00         0.00000E+00
    0.42272E-07        -0.22107E-20         0.00000E+00
    0.42272E-07         0.33772E-20         0.00000E+00
    0.42272E-07        -0.13039E-19         0.00000E+00
    0.42272E-07        -0.35738E-19         0.00000E+00
    0.42272E-07        -0.21072E-19         0.00000E+00
    0.42272E-07        -0.11759E-19         0.00000E+00
    0.42272E-07        -0.29802E-19         0.00000E+00
    0.42272E-07        -0.31317E-19         0.00000E+00
    0.42272E-07        -0.35738E-19         0.00000E+00
    0.42272E-07        -0.32013E-19         0.00000E+00
    0.42272E-07        -0.77986E-20         0.00000E+00
    0.42272E-07        -0.77986E-20         0.00000E+00
    0.42272E-07        -0.14553E-19         0.00000E+00
    0.42272E-07        -0.16764E-19         0.00000E+00
    0.42272E-07        -0.32248E-19         0.00000E+00
    0.42272E-07        -0.33528E-19         0.00000E+00
    0.42272E-07        -0.44120E-19         0.00000E+00
    0.42272E-07        -0.40282E-19         0.00000E+00
    0.42272E-07        -0.27940E-19         0.00000E+00
    0.42272E-07        -0.33528E-19         0.00000E+00
    0.42272E-07        -0.31665E-19         0.00000E+00
    0.42272E-07        -0.30498E-19         0.00000E+00
    0.42272E-07        -0.41326E-19         0.00000E+00
    0.42272E-07        -0.44355E-19         0.00000E+00
    0.42272E-07        -0.28871E-19         0.00000E+00
    0.42272E-07        -0.15484E-19         0.00000E+00
    0.42272E-07        -0.67545E-20         0.00000E+00
    0.42272E-07        -0.10593E-19         0.00000E+00
    0.42272E-07        -0.10245E-19         0.00000E+00
    0.42272E-07        -0.93132E-20         0.00000E+00
    0.42272E-07        -0.14901E-19         0.00000E+00
    0.42272E-07        -0.37253E-20         0.00000E+00
    0.42272E-07         0.74506E-20         0.00000E+00
    0.42272E-07         0.43086E-20         0.00000E+00
    0.42272E-07        -0.34806E-21         0.00000E+00
    0.42272E-07        -0.61712E-20         0.00000E+00
    0.42272E-07        -0.11176E-19         0.00000E+00
    0.42272E-07        -0.13039E-19         0.00000E+00
    0.42272E-07        -0.11176E-19         0.00000E+00
    0.42272E-07         0.22107E-20         0.00000E+00
    0.42272E-07         0.11872E-19         0.00000E+00
    0.40864E-07         0.11176E-19         0.00000E+00
    0.40864E-07         0.88225E-20         0.00000E+00
    0.40864E-07         0.55879E-20         0.00000E+00
    0.40864E-07        -0.12548E-19         0.00000E+00
    0.40864E-07        -0.24214E-19         0.00000E+00
    0.40864E-07        -0.15392E-19         0.00000E+00
    0.40864E-07        -0.14901E-19         0.00000E+00
    0.40864E-07        -0.11176E-19         0.00000E+00
    0.40864E-07        -0.55879E-20         0.00000E+00
    0.40864E-07        -0.37253E-20         0.00000E+00
    0.40864E-07        -0.17255E-19         0.00000E+00
    0.40864E-07        -0.31174E-19         0.00000E+00
    0.40864E-07        -0.22842E-19         0.00000E+00
    0.40864E-07        -0.11667E-19         0.00000E+00
    0.40864E-07        -0.15782E-19         0.00000E+00
    0.40864E-07        -0.18136E-19         0.00000E+00
    0.40864E-07        -0.18626E-19         0.00000E+00
    0.40864E-07        -0.29312E-19         0.00000E+00
    0.40864E-07        -0.24214E-19         0.00000E+00
    0.40864E-07        -0.13529E-19         0.00000E+00
    0.40864E-07        -0.24705E-19         0.00000E+00
    0.40864E-07        -0.30293E-19         0.00000E+00
    0.40864E-07        -0.23724E-19         0.00000E+00
    0.40864E-07        -0.93132E-20         0.00000E+00
    0.40864E-07         0.74506E-20         0.00000E+00
    0.40864E-07        -0.37253E-20         0.00000E+00
    0.40864E-07        -0.93132E-20         0.00000E+00
    0.40864E-07        -0.72787E-34         0.00000E+00
    0.40864E-07         0.50972E-20         0.00000E+00
    0.40864E-07         0.49075E-21         0.00000E+00
    0.40864E-07        -0.18136E-19         0.00000E+00
    0.40864E-07        -0.34018E-19         0.00000E+00
    0.40864E-07        -0.29802E-19         0.00000E+00
    0.40864E-07        -0.23724E-19         0.00000E+00
    0.40864E-07        -0.33528E-19         0.00000E+00
    0.40864E-07        -0.35390E-19         0.00000E+00
    0.40864E-07        -0.23774E-19         0.00000E+00
    0.40864E-07        -0.83819E-20         0.00000E+00
    0.40864E-07        -0.27940E-20         0.00000E+00
    0.40864E-07        -0.10735E-19         0.00000E+00
    0.40864E-07        -0.44057E-21         0.00000E+00
    0.40864E-07         0.70100E-20         0.00000E+00
    0.40864E-07        -0.55879E-20         0.00000E+00
    0.40864E-07        -0.18626E-20         0.00000E+00
    0.40864E-07         0.93132E-20         0.00000E+00
    0.40864E-07         0.12548E-19         0.00000E+00
    0.40864E-07         0.13039E-19         0.00000E+00
    0.40864E-07         0.83819E-20         0.00000E+00
    0.40864E-07         0.74506E-20         0.00000E+00
    0.40864E-07         0.49075E-21         0.00000E+00
    0.40864E-07        -0.74506E-20         0.00000E+00
    0.39472E-07        -0.18626E-19         0.00000E+00
    0.39472E-07        -0.14273E-19         0.00000E+00
    0.39472E-07        -0.13039E-19         0.00000E+00
    0.39472E-07        -0.21884E-20         0.00000E+00
    0.39472E-07         0.23283E-19         0.00000E+00
    0.39472E-07         0.26706E-19         0.00000E+00
    0.39472E-07         0.18626E-20         0.00000E+00
    0.39472E-07        -0.16764E-19         0.00000E+00
    0.39472E-07        -0.16764E-19         0.00000E+00
    0.39472E-07        -0.17392E-19         0.00000E+00
    0.39472E-07        -0.11176E-19         0.00000E+00
    0.39472E-07        -0.16135E-19         0.00000E+00
    0.39472E-07        -0.26077E-19         0.00000E+00
    0.39472E-07        -0.22352E-19         0.00000E+00
    0.39472E-07        -0.13039E-19         0.00000E+00
    0.39472E-07        -0.14598E-19         0.00000E+00
    0.39472E-07        -0.12736E-19         0.00000E+00
    0.39472E-07        -0.30968E-20         0.00000E+00
    0.39472E-07        -0.19861E-19         0.00000E+00
    0.39472E-07        -0.35390E-19         0.00000E+00
    0.39472E-07        -0.24214E-19         0.00000E+00
    0.39472E-07         0.12341E-20         0.00000E+00
    0.39472E-07         0.30968E-20         0.00000E+00
    0.39472E-07        -0.14901E-19         0.00000E+00
    0.39472E-07        -0.17998E-19         0.00000E+00
    0.39472E-07        -0.29174E-19         0.00000E+00
    0.39472E-07        -0.26706E-19         0.00000E+00
    0.39472E-07        -0.15530E-19         0.00000E+00
    0.39472E-07        -0.68221E-20         0.00000E+00
    0.39472E-07         0.62852E-21         0.00000E+00
    0.39472E-07         0.74506E-20         0.00000E+00
    0.39472E-07         0.93132E-20         0.00000E+00
    0.39472E-07        -0.99418E-20         0.00000E+00
    0.39472E-07        -0.21118E-19         0.00000E+00
    0.39472E-07        -0.18929E-19         0.00000E+00
    0.39472E-07        -0.13341E-19         0.00000E+00
    0.39472E-07        -0.93132E-20         0.00000E+00
    0.39472E-07        -0.13039E-19         0.00000E+00
    0.39472E-07        -0.13039E-19         0.00000E+00
    0.39472E-07         0.40281E-20         0.00000E+00
    0.39472E-07        -0.69213E-34         0.00000E+00
    0.39472E-07        -0.40281E-20         0.00000E+00
    0.39472E-07         0.93132E-20         0.00000E+00
    0.39472E-07         0.93132E-20         0.00000E+00
    0.39472E-07         0.11176E-19         0.00000E+00
    0.39472E-07         0.86847E-20         0.00000E+00
    0.39472E-07         0.27940E-20         0.00000E+00
    0.39472E-07        -0.12341E-20         0.00000E+00
    0.39472E-07        -0.11176E-19         0.00000E+00
    0.39472E-07        -0.86847E-20         0.00000E+00
    0.39472E-07        -0.61935E-20         0.00000E+00
    0.38102E-07         0.74506E-20         0.00000E+00
    0.38102E-07         0.37253E-20         0.00000E+00
    0.38102E-07         0.55879E-20         0.00000E+00
    0.38102E-07         0.74506E-20         0.00000E+00
    0.38102E-07        -0.37253E-20         0.00000E+00
    0.38102E-07        -0.14901E-19         0.00000E+00
    0.38102E-07        -0.16764E-19         0.00000E+00
    0.38102E-07        -0.22352E-19         0.00000E+00
    0.38102E-07        -0.26077E-19         0.00000E+00
    0.38102E-07        -0.24214E-19         0.00000E+00
    0.38102E-07        -0.16764E-19         0.00000E+00
    0.38102E-07        -0.74506E-20         0.00000E+00
    0.38102E-07        -0.14901E-19         0.00000E+00
    0.38102E-07        -0.16764E-19         0.00000E+00
    0.38102E-07        -0.11176E-19         0.00000E+00
    0.38102E-07        -0.16764E-19         0.00000E+00
    0.38102E-07        -0.20489E-19         0.00000E+00
    0.38102E-07        -0.13039E-19         0.00000E+00
    0.38102E-07         0.61796E-20         0.00000E+00
    0.38102E-07         0.19558E-19         0.00000E+00
    0.38102E-07         0.18966E-19         0.00000E+00
    0.38102E-07         0.74506E-20         0.00000E+00
    0.38102E-07        -0.37253E-20         0.00000E+00
    0.38102E-07        -0.55879E-20         0.00000E+00
    0.38102E-07        -0.11176E-19         0.00000E+00
    0.38102E-07        -0.13039E-19         0.00000E+00
    0.38102E-07        -0.22352E-19         0.00000E+00
    0.38102E-07        -0.27940E-19         0.00000E+00
    0.38102E-07        -0.29802E-19         0.00000E+00
    0.38102E-07        -0.18626E-19         0.00000E+00
    0.38102E-07        -0.11176E-19         0.00000E+00
    0.38102E-07        -0.24214E-19         0.00000E+00
    0.38102E-07        -0.20489E-19         0.00000E+00
    0.38102E-07         0.00000E+00         0.00000E+00
    0.38102E-07         0.14901E-19         0.00000E+00
    0.38102E-07         0.74506E-20         0.00000E+00
    0.38102E-07        -0.11176E-19         0.00000E+00
    0.38102E-07        -0.18626E-19         0.00000E+00
    0.38102E-07        -0.24214E-19         0.00000E+00
    0.38102E-07        -0.35390E-19         0.00000E+00
    0.38102E-07        -0.16764E-19         0.00000E+00
    0.38102E-07         0.14901E-19         0.00000E+00
    0.38102E-07         0.14901E-19         0.00000E+00
    0.38102E-07         0.13039E-19         0.00000E+00
    0.38102E-07         0.16764E-19         0.00000E+00
    0.38102E-07         0.16764E-19         0.00000E+00
    0.38102E-07         0.14901E-19         0.00000E+00
    0.38102E-07         0.22352E-19         0.00000E+00
    0.38102E-07         0.16764E-19         0.00000E+00
    0.38102E-07         0.00000E+00         0.00000E+00
    0.38102E-07         0.00000E+00         0.00000E+00
    0.36760E-07        -0.57543E-20         0.00000E+00
    0.36760E-07        -0.46566E-20         0.00000E+00
    0.36760E-07        -0.73674E-20         0.00000E+00
    0.36760E-07        -0.16764E-19         0.00000E+00
    0.36760E-07        -0.14901E-19         0.00000E+00
    0.36760E-07        -0.13039E-19         0.00000E+00
    0.36760E-07        -0.93132E-20         0.00000E+00
    0.36760E-07         0.84812E-21         0.00000E+00
    0.36760E-07         0.93132E-21         0.00000E+00
    0.36760E-07         0.38085E-20         0.00000E+00
    0.36760E-07         0.00000E+00         0.00000E+00
    0.36760E-07        -0.74506E-20         0.00000E+00
    0.36760E-07        -0.37253E-20         0.00000E+00
    0.36760E-07         0.00000E+00         0.00000E+00
    0.36760E-07         0.11176E-19         0.00000E+00
    0.36760E-07         0.10161E-19         0.00000E+00
    0.36760E-07        -0.83819E-20         0.00000E+00
    0.36760E-07        -0.36421E-20         0.00000E+00
    0.36760E-07         0.00000E+00         0.00000E+00
    0.36760E-07        -0.93132E-20         0.00000E+00
    0.36760E-07        -0.11176E-19         0.00000E+00
    0.36760E-07         0.00000E+00         0.00000E+00
    0.36760E-07         0.55879E-20         0.00000E+00
    0.36760E-07         0.55879E-20         0.00000E+00
    0.36760E-07         0.93132E-20         0.00000E+00
    0.36760E-07         0.13039E-19         0.00000E+00
    0.36760E-07         0.93132E-20         0.00000E+00
    0.36760E-07        -0.37253E-20         0.00000E+00
    0.36760E-07        -0.11176E-19         0.00000E+00
    0.36760E-07        -0.18626E-19         0.00000E+00
    0.36760E-07        -0.20489E-19         0.00000E+00
    0.36760E-07        -0.16764E-19         0.00000E+00
    0.36760E-07        -0.22352E-19         0.00000E+00
    0.36760E-07        -0.31665E-19         0.00000E+00
    0.36760E-07        -0.40978E-19         0.00000E+00
    0.36760E-07        -0.33528E-19         0.00000E+00
    0.36760E-07        -0.13039E-19         0.00000E+00
    0.36760E-07        -0.55879E-20         0.00000E+00
    0.36760E-07        -0.55879E-20         0.00000E+00
    0.36760E-07        -0.56711E-20         0.00000E+00
    0.36760E-07        -0.74506E-20         0.00000E+00
    0.36760E-07        -0.92300E-20         0.00000E+00
    0.36760E-07        -0.18626E-20         0.00000E+00
    0.36760E-07         0.93132E-20         0.00000E+00
    0.36760E-07        -0.18626E-20         0.00000E+00
    0.36760E-07        -0.74506E-20         0.00000E+00
    0.36760E-07         0.00000E+00         0.00000E+00
    0.36760E-07        -0.83204E-22         0.00000E+00
    0.36760E-07         0.93132E-20         0.00000E+00
    0.36760E-07         0.75338E-20         0.00000E+00
    0.36760E-07        -0.37253E-20         0.00000E+00
    0.35451E-07        -0.15344E-20         0.00000E+00
    0.35451E-07        -0.13039E-19         0.00000E+00
    0.35451E-07        -0.21585E-19         0.00000E+00
    0.35451E-07        -0.22352E-19         0.00000E+00
    0.35451E-07        -0.21256E-19         0.00000E+00
    0.35451E-07        -0.13806E-19         0.00000E+00
    0.35451E-07        -0.17859E-19         0.00000E+00
    0.35451E-07        -0.12271E-19         0.00000E+00
    0.35451E-07        -0.18626E-20         0.00000E+00
    0.35451E-07         0.13039E-19         0.00000E+00
    0.35451E-07         0.27940E-19         0.00000E+00
    0.35451E-07         0.27940E-19         0.00000E+00
    0.35451E-07         0.13039E-19         0.00000E+00
    0.35451E-07         0.13039E-19         0.00000E+00
    0.35451E-07         0.11176E-19         0.00000E+00
    0.35451E-07         0.18626E-20         0.00000E+00
    0.35451E-07         0.22352E-19         0.00000E+00
    0.35451E-07         0.27940E-19         0.00000E+00
    0.35451E-07         0.13039E-19         0.00000E+00
    0.35451E-07         0.18626E-19         0.00000E+00
    0.35451E-07         0.22352E-19         0.00000E+00
    0.35451E-07         0.11176E-19         0.00000E+00
    0.35451E-07        -0.13039E-19         0.00000E+00
    0.35451E-07        -0.27940E-19         0.00000E+00
    0.35451E-07        -0.22352E-19         0.00000E+00
    0.35451E-07        -0.16764E-19         0.00000E+00
    0.35451E-07        -0.74506E-20         0.00000E+00
    0.35451E-07         0.00000E+00         0.00000E+00
    0.35451E-07         0.00000E+00         0.00000E+00
    0.35451E-07         0.37253E-20         0.00000E+00
    0.35451E-07         0.37253E-20         0.00000E+00
    0.35451E-07        -0.55879E-20         0.00000E+00
    0.35451E-07        -0.18626E-19         0.00000E+00
    0.35451E-07        -0.14901E-19         0.00000E+00
    0.35451E-07        -0.93132E-20         0.00000E+00
    0.35451E-07        -0.13039E-19         0.00000E+00
    0.35451E-07        -0.22352E-19         0.00000E+00
    0.35451E-07        -0.33528E-19         0.00000E+00
    0.35451E-07        -0.33528E-19         0.00000E+00
    0.35451E-07        -0.36157E-19         0.00000E+00
    0.35451E-07        -0.22352E-19         0.00000E+00
    0.35451E-07        -0.48207E-20         0.00000E+00
    0.35451E-07        -0.93132E-20         0.00000E+00
    0.35451E-07        -0.74506E-20         0.00000E+00
    0.35451E-07         0.93132E-20         0.00000E+00
    0.35451E-07         0.13039E-19         0.00000E+00
    0.35451E-07         0.94773E-20         0.00000E+00
    0.35451E-07         0.10245E-19         0.00000E+00
    0.35451E-07         0.76722E-21         0.00000E+00
    0.35451E-07        -0.18626E-20         0.00000E+00
    0.35451E-07         0.00000E+00         0.00000E+00
    0.34181E-07        -0.80506E-21         0.00000E+00
    0.34181E-07         0.74506E-20         0.00000E+00
    0.34181E-07         0.19029E-19         0.00000E+00
    0.34181E-07         0.17293E-19         0.00000E+00
    0.34181E-07         0.13039E-19         0.00000E+00
    0.34181E-07         0.25548E-19         0.00000E+00
    0.34181E-07         0.25675E-19         0.00000E+00
    0.34181E-07         0.20087E-19         0.00000E+00
    0.34181E-07         0.97158E-20         0.00000E+00
    0.34181E-07        -0.93132E-21         0.00000E+00
    0.34181E-07        -0.93132E-21         0.00000E+00
    0.34181E-07         0.93132E-20         0.00000E+00
    0.34181E-07         0.20489E-19         0.00000E+00
    0.34181E-07         0.27940E-19         0.00000E+00
    0.34181E-07         0.14499E-19         0.00000E+00
    0.34181E-07         0.78531E-20         0.00000E+00
    0.34181E-07         0.19029E-19         0.00000E+00
    0.34181E-07         0.24214E-19         0.00000E+00
    0.34181E-07         0.18626E-19         0.00000E+00
    0.34181E-07         0.42541E-20         0.00000E+00
    0.34181E-07         0.15430E-19         0.00000E+00
    0.34181E-07         0.22352E-19         0.00000E+00
    0.34181E-07         0.16764E-19         0.00000E+00
    0.34181E-07         0.37253E-20         0.00000E+00
    0.34181E-07        -0.16764E-19         0.00000E+00
    0.34181E-07        -0.16764E-19         0.00000E+00
    0.34181E-07        -0.14901E-19         0.00000E+00
    0.34181E-07        -0.20489E-19         0.00000E+00
    0.34181E-07        -0.12636E-19         0.00000E+00
    0.34181E-07        -0.11176E-19         0.00000E+00
    0.34181E-07        -0.26480E-19         0.00000E+00
    0.34181E-07        -0.29802E-19         0.00000E+00
    0.34181E-07        -0.14901E-19         0.00000E+00
    0.34181E-07         0.37253E-20         0.00000E+00
    0.34181E-07        -0.55879E-20         0.00000E+00
    0.34181E-07        -0.22881E-19         0.00000E+00
    0.34181E-07        -0.10245E-19         0.00000E+00
    0.34181E-07         0.14601E-20         0.00000E+00
    0.34181E-07         0.11578E-19         0.00000E+00
    0.34181E-07         0.11578E-19         0.00000E+00
    0.34181E-07         0.74506E-20         0.00000E+00
    0.34181E-07         0.51854E-20         0.00000E+00
    0.34181E-07        -0.55879E-20         0.00000E+00
    0.34181E-07        -0.12636E-19         0.00000E+00
    0.34181E-07        -0.19029E-19         0.00000E+00
    0.34181E-07        -0.78531E-20         0.00000E+00
    0.34181E-07        -0.14601E-20         0.00000E+00
    0.34181E-07         0.27940E-20         0.00000E+00
    0.34181E-07        -0.50591E-20         0.00000E+00
    0.34181E-07        -0.74506E-20         0.00000E+00
    0.34181E-07        -0.74506E-20         0.00000E+00
    0.32953E-07         0.18626E-19         0.00000E+00
    0.32953E-07         0.96121E-20         0.00000E+00
    0.32953E-07         0.55879E-20         0.00000E+00
    0.32953E-07         0.14602E-19         0.00000E+00
    0.32953E-07         0.00000E+00         0.00000E+00
    0.32953E-07        -0.71517E-20         0.00000E+00
    0.32953E-07         0.11475E-19         0.00000E+00
    0.32953E-07         0.13039E-19         0.00000E+00
    0.32953E-07         0.18328E-19         0.00000E+00
    0.32953E-07         0.18328E-19         0.00000E+00
    0.32953E-07         0.10543E-19         0.00000E+00
    0.32953E-07         0.19558E-19         0.00000E+00
    0.32953E-07         0.10877E-19         0.00000E+00
    0.32953E-07        -0.10877E-19         0.00000E+00
    0.32953E-07         0.74506E-20         0.00000E+00
    0.32953E-07         0.16764E-19         0.00000E+00
    0.32953E-07         0.17063E-19         0.00000E+00
    0.32953E-07         0.24847E-19         0.00000E+00
    0.32953E-07         0.26709E-19         0.00000E+00
    0.32953E-07         0.26077E-19         0.00000E+00
    0.32953E-07         0.77495E-20         0.00000E+00
    0.32953E-07        -0.34264E-20         0.00000E+00
    0.32953E-07         0.00000E+00         0.00000E+00
    0.32953E-07         0.00000E+00         0.00000E+00
    0.32953E-07        -0.96121E-20         0.00000E+00
    0.32953E-07        -0.11176E-19         0.00000E+00
    0.32953E-07        -0.34264E-20         0.00000E+00
    0.32953E-07         0.37253E-20         0.00000E+00
    0.32953E-07        -0.74506E-20         0.00000E+00
    0.32953E-07        -0.15200E-19         0.00000E+00
    0.32953E-07        -0.37253E-20         0.00000E+00
    0.32953E-07         0.40242E-20         0.00000E+00
    0.32953E-07        -0.11475E-19         0.00000E+00
    0.32953E-07        -0.26376E-19         0.00000E+00
    0.32953E-07        -0.13039E-19         0.00000E+00
    0.32953E-07         0.18626E-19         0.00000E+00
    0.32953E-07         0.20489E-19         0.00000E+00
    0.32953E-07         0.11475E-19         0.00000E+00
    0.32953E-07         0.17063E-19         0.00000E+00
    0.32953E-07         0.18328E-19         0.00000E+00
    0.32953E-07         0.18328E-19         0.00000E+00
    0.32953E-07         0.14901E-19         0.00000E+00
    0.32953E-07         0.77495E-20         0.00000E+00
    0.32953E-07        -0.34264E-20         0.00000E+00
    0.32953E-07        -0.55879E-20         0.00000E+00
    0.32953E-07        -0.16764E-19         0.00000E+00
    0.32953E-07        -0.32895E-19         0.00000E+00
    0.32953E-07        -0.31033E-19         0.00000E+00
    0.32953E-07        -0.11176E-19         0.00000E+00
    0.32953E-07         0.00000E+00         0.00000E+00
    0.32953E-07         0.00000E+00         0.00000E+00
    0.31774E-07        -0.74506E-20         0.00000E+00
    0.31774E-07         0.00000E+00         0.00000E+00
    0.31774E-07         0.00000E+00         0.00000E+00
    0.31774E-07        -0.37253E-20         0.00000E+00
    0.31774E-07         0.13039E-19         0.00000E+00
    0.31774E-07         0.14978E-19         0.00000E+00
    0.31774E-07         0.83046E-20         0.00000E+00
    0.31774E-07         0.83046E-20         0.00000E+00
    0.31774E-07        -0.18626E-20         0.00000E+00
    0.31774E-07        -0.74506E-20         0.00000E+00
    0.31774E-07         0.77258E-22         0.00000E+00
    0.31774E-07        -0.16764E-19         0.00000E+00
    0.31774E-07        -0.37253E-20         0.00000E+00
    0.31774E-07         0.40978E-19         0.00000E+00
    0.31774E-07         0.39116E-19         0.00000E+00
    0.31774E-07         0.28017E-19         0.00000E+00
    0.31774E-07         0.31742E-19         0.00000E+00
    0.31774E-07         0.27862E-19         0.00000E+00
    0.31774E-07         0.18472E-19         0.00000E+00
    0.31774E-07        -0.55879E-20         0.00000E+00
    0.31774E-07        -0.73733E-20         0.00000E+00
    0.31774E-07        -0.18549E-19         0.00000E+00
    0.31774E-07        -0.24137E-19         0.00000E+00
    0.31774E-07        -0.75278E-20         0.00000E+00
    0.31774E-07         0.12961E-19         0.00000E+00
    0.31774E-07         0.16841E-19         0.00000E+00
    0.31774E-07         0.13116E-19         0.00000E+00
    0.31774E-07         0.36480E-20         0.00000E+00
    0.31774E-07        -0.11253E-19         0.00000E+00
    0.31774E-07        -0.26077E-19         0.00000E+00
    0.31774E-07        -0.11176E-19         0.00000E+00
    0.31774E-07         0.93905E-20         0.00000E+00
    0.31774E-07         0.74506E-20         0.00000E+00
    0.31774E-07         0.55107E-20         0.00000E+00
    0.31774E-07        -0.37253E-20         0.00000E+00
    0.31774E-07        -0.18626E-19         0.00000E+00
    0.31774E-07        -0.16764E-19         0.00000E+00
    0.31774E-07        -0.37253E-20         0.00000E+00
    0.31774E-07         0.93132E-20         0.00000E+00
    0.31774E-07         0.74506E-20         0.00000E+00
    0.31774E-07         0.37253E-20         0.00000E+00
    0.31774E-07         0.18626E-20         0.00000E+00
    0.31774E-07         0.93132E-20         0.00000E+00
    0.31774E-07         0.28017E-19         0.00000E+00
    0.31774E-07         0.20566E-19         0.00000E+00
    0.31774E-07         0.27862E-19         0.00000E+00
    0.31774E-07         0.33528E-19         0.00000E+00
    0.31774E-07         0.83819E-20         0.00000E+00
    0.31774E-07        -0.19399E-20         0.00000E+00
    0.31774E-07        -0.93132E-20         0.00000E+00
    0.31774E-07        -0.11176E-19         0.00000E+00
    0.30646E-07        -0.37253E-20         0.00000E+00
    0.30646E-07         0.37253E-20         0.00000E+00
    0.30646E-07         0.16764E-19         0.00000E+00
    0.30646E-07         0.82453E-20         0.00000E+00
    0.30646E-07         0.27940E-20         0.00000E+00
    0.30646E-07         0.12380E-19         0.00000E+00
    0.30646E-07         0.13970E-19         0.00000E+00
    0.30646E-07         0.54513E-20         0.00000E+00
    0.30646E-07         0.13039E-19         0.00000E+00
    0.30646E-07         0.20489E-19         0.00000E+00
    0.30646E-07         0.11176E-19         0.00000E+00
    0.30646E-07         0.11971E-19         0.00000E+00
    0.30646E-07         0.14901E-19         0.00000E+00
    0.30646E-07         0.74506E-20         0.00000E+00
    0.30646E-07         0.37253E-20         0.00000E+00
    0.30646E-07         0.10679E-20         0.00000E+00
    0.30646E-07        -0.37253E-20         0.00000E+00
    0.30646E-07        -0.18626E-19         0.00000E+00
    0.30646E-07        -0.18626E-19         0.00000E+00
    0.30646E-07         0.00000E+00         0.00000E+00
    0.30646E-07         0.18626E-20         0.00000E+00
    0.30646E-07         0.14901E-19         0.00000E+00
    0.30646E-07         0.26077E-19         0.00000E+00
    0.30646E-07         0.10108E-19         0.00000E+00
    0.30646E-07         0.19992E-20         0.00000E+00
    0.30646E-07         0.00000E+00         0.00000E+00
    0.30646E-07        -0.38619E-20         0.00000E+00
    0.30646E-07        -0.45200E-20         0.00000E+00
    0.30646E-07         0.55879E-20         0.00000E+00
    0.30646E-07         0.20489E-19         0.00000E+00
    0.30646E-07         0.24214E-19         0.00000E+00
    0.30646E-07         0.14901E-19         0.00000E+00
    0.30646E-07         0.55879E-20         0.00000E+00
    0.30646E-07        -0.37253E-20         0.00000E+00
    0.30646E-07        -0.93132E-20         0.00000E+00
    0.30646E-07        -0.93132E-20         0.00000E+00
    0.30646E-07        -0.11176E-19         0.00000E+00
    0.30646E-07        -0.74506E-20         0.00000E+00
    0.30646E-07        -0.74506E-20         0.00000E+00
    0.30646E-07         0.55879E-20         0.00000E+00
    0.30646E-07         0.14106E-19         0.00000E+00
    0.30646E-07         0.37253E-20         0.00000E+00
    0.30646E-07         0.11971E-19         0.00000E+00
    0.30646E-07         0.15038E-19         0.00000E+00
    0.30646E-07         0.13833E-19         0.00000E+00
    0.30646E-07         0.99714E-20         0.00000E+00
    0.30646E-07        -0.17261E-20         0.00000E+00
    0.30646E-07        -0.17261E-20         0.00000E+00
    0.30646E-07         0.18626E-20         0.00000E+00
    0.30646E-07         0.13659E-21         0.00000E+00
    0.30646E-07        -0.34521E-20         0.00000E+00
    0.29575E-07        -0.30392E-20         0.00000E+00
    0.29575E-07         0.93132E-20         0.00000E+00
    0.29575E-07         0.33823E-20         0.00000E+00
    0.29575E-07        -0.93132E-20         0.00000E+00
    0.29575E-07        -0.55879E-20         0.00000E+00
    0.29575E-07        -0.55879E-20         0.00000E+00
    0.29575E-07         0.77936E-20         0.00000E+00
    0.29575E-07         0.18969E-19         0.00000E+00
    0.29575E-07         0.89702E-20         0.00000E+00
    0.29575E-07         0.33823E-20         0.00000E+00
    0.29575E-07         0.17107E-19         0.00000E+00
    0.29575E-07         0.20489E-19         0.00000E+00
    0.29575E-07         0.20146E-19         0.00000E+00
    0.29575E-07         0.22009E-19         0.00000E+00
    0.29575E-07         0.10245E-19         0.00000E+00
    0.29575E-07        -0.43136E-20         0.00000E+00
    0.29575E-07        -0.74506E-20         0.00000E+00
    0.29575E-07         0.22057E-20         0.00000E+00
    0.29575E-07         0.40683E-20         0.00000E+00
    0.29575E-07         0.89702E-20         0.00000E+00
    0.29575E-07         0.10833E-19         0.00000E+00
    0.29575E-07         0.93132E-20         0.00000E+00
    0.29575E-07         0.55879E-20         0.00000E+00
    0.29575E-07         0.10833E-19         0.00000E+00
    0.29575E-07         0.22695E-19         0.00000E+00
    0.29575E-07         0.20489E-19         0.00000E+00
    0.29575E-07         0.23871E-19         0.00000E+00
    0.29575E-07         0.24557E-19         0.00000E+00
    0.29575E-07         0.93132E-20         0.00000E+00
    0.29575E-07        -0.13039E-19         0.00000E+00
    0.29575E-07        -0.16764E-19         0.00000E+00
    0.29575E-07        -0.15244E-19         0.00000E+00
    0.29575E-07        -0.18626E-19         0.00000E+00
    0.29575E-07        -0.14558E-19         0.00000E+00
    0.29575E-07        -0.11176E-19         0.00000E+00
    0.29575E-07        -0.14558E-19         0.00000E+00
    0.29575E-07        -0.11176E-19         0.00000E+00
    0.29575E-07        -0.15244E-19         0.00000E+00
    0.29575E-07        -0.22009E-19         0.00000E+00
    0.29575E-07         0.55879E-20         0.00000E+00
    0.29575E-07         0.16421E-19         0.00000E+00
    0.29575E-07         0.96563E-20         0.00000E+00
    0.29575E-07         0.34303E-21         0.00000E+00
    0.29575E-07         0.12695E-19         0.00000E+00
    0.29575E-07         0.25734E-19         0.00000E+00
    0.29575E-07         0.27940E-19         0.00000E+00
    0.29575E-07         0.22695E-19         0.00000E+00
    0.29575E-07         0.18626E-20         0.00000E+00
    0.29575E-07        -0.65193E-20         0.00000E+00
    0.29575E-07        -0.33823E-20         0.00000E+00
    0.29575E-07         0.37253E-20         0.00000E+00
    0.28564E-07         0.00000E+00         0.00000E+00
    0.28564E-07        -0.41141E-20         0.00000E+00
    0.28564E-07        -0.55879E-20         0.00000E+00
    0.28564E-07        -0.51991E-20         0.00000E+00
    0.28564E-07        -0.14901E-19         0.00000E+00
    0.28564E-07        -0.26077E-19         0.00000E+00
    0.28564E-07        -0.22352E-19         0.00000E+00
    0.28564E-07        -0.55879E-20         0.00000E+00
    0.28564E-07         0.89244E-20         0.00000E+00
    0.28564E-07         0.11176E-19         0.00000E+00
    0.28564E-07        -0.70618E-20         0.00000E+00
    0.28564E-07        -0.55879E-20         0.00000E+00
    0.28564E-07        -0.59768E-20         0.00000E+00
    0.28564E-07        -0.18626E-20         0.00000E+00
    0.28564E-07         0.19015E-19         0.00000E+00
    0.28564E-07         0.23826E-19         0.00000E+00
    0.28564E-07         0.33528E-19         0.00000E+00
    0.28564E-07         0.36322E-19         0.00000E+00
    0.28564E-07         0.24757E-19         0.00000E+00
    0.28564E-07         0.41141E-20         0.00000E+00
    0.28564E-07         0.18626E-20         0.00000E+00
    0.28564E-07         0.37253E-20         0.00000E+00
    0.28564E-07         0.00000E+00         0.00000E+00
    0.28564E-07         0.51991E-20         0.00000E+00
    0.28564E-07         0.13039E-19         0.00000E+00
    0.28564E-07         0.18626E-19         0.00000E+00
    0.28564E-07         0.97020E-20         0.00000E+00
    0.28564E-07        -0.37253E-20         0.00000E+00
    0.28564E-07        -0.78394E-20         0.00000E+00
    0.28564E-07         0.31828E-20         0.00000E+00
    0.28564E-07         0.27940E-20         0.00000E+00
    0.28564E-07        -0.12107E-19         0.00000E+00
    0.28564E-07        -0.13581E-19         0.00000E+00
    0.28564E-07        -0.38882E-21         0.00000E+00
    0.28564E-07         0.27940E-20         0.00000E+00
    0.28564E-07        -0.55879E-20         0.00000E+00
    0.28564E-07        -0.10633E-19         0.00000E+00
    0.28564E-07        -0.74506E-20         0.00000E+00
    0.28564E-07        -0.51991E-20         0.00000E+00
    0.28564E-07        -0.70618E-20         0.00000E+00
    0.28564E-07         0.24051E-20         0.00000E+00
    0.28564E-07         0.12107E-19         0.00000E+00
    0.28564E-07         0.78394E-20         0.00000E+00
    0.28564E-07        -0.37253E-20         0.00000E+00
    0.28564E-07        -0.55879E-20         0.00000E+00
    0.28564E-07         0.00000E+00         0.00000E+00
    0.28564E-07         0.18626E-20         0.00000E+00
    0.28564E-07         0.79931E-20         0.00000E+00
    0.28564E-07         0.13039E-19         0.00000E+00
    0.28564E-07         0.55879E-20         0.00000E+00
    0.28564E-07         0.10850E-20         0.00000E+00
    0.27616E-07         0.00000E+00         0.00000E+00
    0.27616E-07        -0.13039E-19         0.00000E+00
    0.27616E-07        -0.18822E-19         0.00000E+00
    0.27616E-07        -0.76464E-20         0.00000E+00
    0.27616E-07        -0.53921E-20         0.00000E+00
    0.27616E-07         0.39211E-20         0.00000E+00
    0.27616E-07         0.72547E-20         0.00000E+00
    0.27616E-07        -0.19585E-21         0.00000E+00
    0.27616E-07        -0.11176E-19         0.00000E+00
    0.27616E-07        -0.10980E-19         0.00000E+00
    0.27616E-07         0.00000E+00         0.00000E+00
    0.27616E-07        -0.19585E-21         0.00000E+00
    0.27616E-07        -0.18626E-20         0.00000E+00
    0.27616E-07         0.39211E-20         0.00000E+00
    0.27616E-07        -0.37253E-20         0.00000E+00
    0.27616E-07        -0.74506E-20         0.00000E+00
    0.27616E-07         0.74506E-20         0.00000E+00
    0.27616E-07         0.22156E-19         0.00000E+00
    0.27616E-07         0.26077E-19         0.00000E+00
    0.27616E-07         0.26077E-19         0.00000E+00
    0.27616E-07         0.26077E-19         0.00000E+00
    0.27616E-07         0.37253E-20         0.00000E+00
    0.27616E-07        -0.93132E-20         0.00000E+00
    0.27616E-07        -0.53921E-20         0.00000E+00
    0.27616E-07        -0.53621E-33         0.00000E+00
    0.27616E-07         0.35294E-20         0.00000E+00
    0.27616E-07         0.37253E-20         0.00000E+00
    0.27616E-07         0.18626E-20         0.00000E+00
    0.27616E-07        -0.74506E-20         0.00000E+00
    0.27616E-07        -0.22156E-19         0.00000E+00
    0.27616E-07        -0.16764E-19         0.00000E+00
    0.27616E-07        -0.15097E-19         0.00000E+00
    0.27616E-07        -0.11176E-19         0.00000E+00
    0.27616E-07        -0.72547E-20         0.00000E+00
    0.27616E-07        -0.18626E-20         0.00000E+00
    0.27616E-07         0.35294E-20         0.00000E+00
    0.27616E-07         0.00000E+00         0.00000E+00
    0.27616E-07         0.74506E-20         0.00000E+00
    0.27616E-07        -0.37253E-20         0.00000E+00
    0.27616E-07        -0.14705E-19         0.00000E+00
    0.27616E-07        -0.35294E-20         0.00000E+00
    0.27616E-07         0.73547E-21         0.00000E+00
    0.27616E-07         0.00000E+00         0.00000E+00
    0.27616E-07         0.29898E-20         0.00000E+00
    0.27616E-07         0.35294E-20         0.00000E+00
    0.27616E-07        -0.20585E-20         0.00000E+00
    0.27616E-07        -0.37253E-20         0.00000E+00
    0.27616E-07        -0.44608E-20         0.00000E+00
    0.27616E-07        -0.25981E-20         0.00000E+00
    0.27616E-07         0.25981E-20         0.00000E+00
    0.27616E-07         0.14709E-20         0.00000E+00
    0.26734E-07         0.93310E-20         0.00000E+00
    0.26734E-07         0.16764E-19         0.00000E+00
    0.26734E-07         0.11176E-19         0.00000E+00
    0.26734E-07        -0.11176E-19         0.00000E+00
    0.26734E-07        -0.17695E-19         0.00000E+00
    0.26734E-07        -0.14901E-19         0.00000E+00
    0.26734E-07        -0.74506E-20         0.00000E+00
    0.26734E-07         0.37342E-20         0.00000E+00
    0.26734E-07         0.00000E+00         0.00000E+00
    0.26734E-07        -0.74595E-20         0.00000E+00
    0.26734E-07         0.18537E-20         0.00000E+00
    0.26734E-07         0.74506E-20         0.00000E+00
    0.26734E-07         0.18626E-20         0.00000E+00
    0.26734E-07         0.18626E-20         0.00000E+00
    0.26734E-07         0.37253E-20         0.00000E+00
    0.26734E-07         0.00000E+00         0.00000E+00
    0.26734E-07         0.00000E+00         0.00000E+00
    0.26734E-07         0.74506E-20         0.00000E+00
    0.26734E-07         0.55879E-20         0.00000E+00
    0.26734E-07        -0.37253E-20         0.00000E+00
    0.26734E-07        -0.11176E-19         0.00000E+00
    0.26734E-07        -0.13039E-19         0.00000E+00
    0.26734E-07         0.00000E+00         0.00000E+00
    0.26734E-07         0.13039E-19         0.00000E+00
    0.26734E-07         0.93132E-20         0.00000E+00
    0.26734E-07         0.28029E-20         0.00000E+00
    0.26734E-07        -0.37253E-20         0.00000E+00
    0.26734E-07        -0.12116E-19         0.00000E+00
    0.26734E-07        -0.74506E-20         0.00000E+00
    0.26734E-07        -0.14901E-19         0.00000E+00
    0.26734E-07        -0.26077E-19         0.00000E+00
    0.26734E-07        -0.83730E-20         0.00000E+00
    0.26734E-07         0.13241E-33         0.00000E+00
    0.26734E-07         0.27851E-20         0.00000E+00
    0.26734E-07         0.37253E-20         0.00000E+00
    0.26734E-07         0.55879E-20         0.00000E+00
    0.26734E-07         0.74506E-20         0.00000E+00
    0.26734E-07        -0.37253E-20         0.00000E+00
    0.26734E-07        -0.74506E-20         0.00000E+00
    0.26734E-07        -0.46477E-20         0.00000E+00
    0.26734E-07        -0.18626E-20         0.00000E+00
    0.26734E-07         0.93132E-20         0.00000E+00
    0.26734E-07         0.20489E-19         0.00000E+00
    0.26734E-07         0.13039E-19         0.00000E+00
    0.26734E-07         0.55879E-20         0.00000E+00
    0.26734E-07         0.13961E-19         0.00000E+00
    0.26734E-07         0.20489E-19         0.00000E+00
    0.26734E-07         0.11176E-19         0.00000E+00
    0.26734E-07         0.37253E-20         0.00000E+00
    0.26734E-07        -0.28029E-20         0.00000E+00
    0.26734E-07        -0.56057E-20         0.00000E+00
    0.25922E-07         0.00000E+00         0.00000E+00
    0.25922E-07        -0.66918E-20         0.00000E+00
    0.25922E-07        -0.74506E-20         0.00000E+00
    0.25922E-07         0.85544E-20         0.00000E+00
    0.25922E-07         0.91407E-20         0.00000E+00
    0.25922E-07        -0.53603E-33         0.00000E+00
    0.25922E-07         0.76231E-20         0.00000E+00
    0.25922E-07         0.18626E-20         0.00000E+00
    0.25922E-07        -0.74506E-20         0.00000E+00
    0.25922E-07        -0.55879E-20         0.00000E+00
    0.25922E-07        -0.11176E-19         0.00000E+00
    0.25922E-07        -0.74506E-20         0.00000E+00
    0.25922E-07         0.18626E-20         0.00000E+00
    0.25922E-07         0.18626E-20         0.00000E+00
    0.25922E-07        -0.37253E-20         0.00000E+00
    0.25922E-07        -0.37253E-20         0.00000E+00
    0.25922E-07        -0.93132E-20         0.00000E+00
    0.25922E-07        -0.24214E-19         0.00000E+00
    0.25922E-07        -0.14901E-19         0.00000E+00
    0.25922E-07         0.18626E-20         0.00000E+00
    0.25922E-07         0.55879E-20         0.00000E+00
    0.25922E-07         0.11176E-19         0.00000E+00
    0.25922E-07         0.11176E-19         0.00000E+00
    0.25922E-07         0.75880E-21         0.00000E+00
    0.25922E-07        -0.37253E-20         0.00000E+00
    0.25922E-07        -0.11176E-19         0.00000E+00
    0.25922E-07        -0.55879E-20         0.00000E+00
    0.25922E-07         0.66918E-20         0.00000E+00
    0.25922E-07        -0.74506E-20         0.00000E+00
    0.25922E-07        -0.93132E-20         0.00000E+00
    0.25922E-07        -0.37253E-20         0.00000E+00
    0.25922E-07        -0.11176E-19         0.00000E+00
    0.25922E-07        -0.74506E-20         0.00000E+00
    0.25922E-07        -0.18626E-20         0.00000E+00
    0.25922E-07        -0.37253E-20         0.00000E+00
    0.25922E-07         0.18626E-20         0.00000E+00
    0.25922E-07        -0.17253E-21         0.00000E+00
    0.25922E-07        -0.38978E-20         0.00000E+00
    0.25922E-07         0.66918E-20         0.00000E+00
    0.25922E-07         0.19730E-19         0.00000E+00
    0.25922E-07         0.22352E-19         0.00000E+00
    0.25922E-07         0.93132E-20         0.00000E+00
    0.25922E-07        -0.93132E-20         0.00000E+00
    0.25922E-07        -0.37253E-20         0.00000E+00
    0.25922E-07         0.74506E-20         0.00000E+00
    0.25922E-07         0.55879E-20         0.00000E+00
    0.25922E-07         0.93132E-20         0.00000E+00
    0.25922E-07         0.11003E-19         0.00000E+00
    0.25922E-07         0.16901E-20         0.00000E+00
    0.25922E-07         0.31390E-20         0.00000E+00
    0.25922E-07         0.62780E-20         0.00000E+00
    0.25183E-07        -0.37253E-20         0.00000E+00
    0.25183E-07        -0.74506E-20         0.00000E+00
    0.25183E-07        -0.11176E-19         0.00000E+00
    0.25183E-07        -0.18626E-19         0.00000E+00
    0.25183E-07        -0.14319E-19         0.00000E+00
    0.25183E-07         0.55879E-20         0.00000E+00
    0.25183E-07         0.50056E-20         0.00000E+00
    0.25183E-07         0.93132E-20         0.00000E+00
    0.25183E-07         0.55879E-20         0.00000E+00
    0.25183E-07         0.55879E-20         0.00000E+00
    0.25183E-07         0.10827E-19         0.00000E+00
    0.25183E-07        -0.55879E-20         0.00000E+00
    0.25183E-07        -0.22003E-19         0.00000E+00
    0.25183E-07        -0.15250E-19         0.00000E+00
    0.25183E-07        -0.83819E-20         0.00000E+00
    0.25183E-07        -0.14203E-19         0.00000E+00
    0.25183E-07        -0.12107E-19         0.00000E+00
    0.25183E-07        -0.59369E-20         0.00000E+00
    0.25183E-07        -0.20489E-19         0.00000E+00
    0.25183E-07        -0.40978E-19         0.00000E+00
    0.25183E-07        -0.24214E-19         0.00000E+00
    0.25183E-07        -0.20489E-19         0.00000E+00
    0.25183E-07        -0.13039E-19         0.00000E+00
    0.25183E-07         0.37253E-20         0.00000E+00
    0.25183E-07         0.11176E-19         0.00000E+00
    0.25183E-07         0.16764E-19         0.00000E+00
    0.25183E-07         0.93132E-20         0.00000E+00
    0.25183E-07         0.00000E+00         0.00000E+00
    0.25183E-07        -0.74506E-20         0.00000E+00
    0.25183E-07        -0.74506E-20         0.00000E+00
    0.25183E-07        -0.37253E-20         0.00000E+00
    0.25183E-07        -0.11176E-19         0.00000E+00
    0.25183E-07        -0.16764E-19         0.00000E+00
    0.25183E-07        -0.74506E-20         0.00000E+00
    0.25183E-07         0.55879E-20         0.00000E+00
    0.25183E-07         0.40743E-20         0.00000E+00
    0.25183E-07         0.37253E-20         0.00000E+00
    0.25183E-07         0.12690E-19         0.00000E+00
    0.25183E-07         0.14901E-19         0.00000E+00
    0.25183E-07         0.16764E-19         0.00000E+00
    0.25183E-07         0.71016E-20         0.00000E+00
    0.25183E-07        -0.55879E-20         0.00000E+00
    0.25183E-07        -0.33763E-20         0.00000E+00
    0.25183E-07         0.55879E-20         0.00000E+00
    0.25183E-07         0.37253E-20         0.00000E+00
    0.25183E-07         0.18626E-20         0.00000E+00
    0.25183E-07        -0.22116E-20         0.00000E+00
    0.25183E-07        -0.55879E-20         0.00000E+00
    0.25183E-07        -0.15137E-20         0.00000E+00
    0.25183E-07         0.40743E-20         0.00000E+00
    0.25183E-07         0.44232E-20         0.00000E+00
    0.24518E-07        -0.11176E-19         0.00000E+00
    0.24518E-07        -0.11176E-19         0.00000E+00
    0.24518E-07        -0.11176E-19         0.00000E+00
    0.24518E-07        -0.37253E-20         0.00000E+00
    0.24518E-07         0.18626E-20         0.00000E+00
    0.24518E-07         0.00000E+00         0.00000E+00
    0.24518E-07         0.00000E+00         0.00000E+00
    0.24518E-07        -0.18626E-20         0.00000E+00
    0.24518E-07         0.41357E-20         0.00000E+00
    0.24518E-07         0.55879E-20         0.00000E+00
    0.24518E-07         0.14523E-20         0.00000E+00
    0.24518E-07        -0.37253E-20         0.00000E+00
    0.24518E-07        -0.41037E-21         0.00000E+00
    0.24518E-07         0.55879E-20         0.00000E+00
    0.24518E-07         0.59983E-20         0.00000E+00
    0.24518E-07         0.18626E-20         0.00000E+00
    0.24518E-07        -0.93132E-20         0.00000E+00
    0.24518E-07        -0.15312E-19         0.00000E+00
    0.24518E-07        -0.14901E-19         0.00000E+00
    0.24518E-07        -0.10765E-19         0.00000E+00
    0.24518E-07        -0.93132E-20         0.00000E+00
    0.24518E-07        -0.13039E-19         0.00000E+00
    0.24518E-07        -0.55879E-20         0.00000E+00
    0.24518E-07         0.93132E-20         0.00000E+00
    0.24518E-07         0.37253E-20         0.00000E+00
    0.24518E-07        -0.74506E-20         0.00000E+00
    0.24518E-07        -0.20489E-19         0.00000E+00
    0.24518E-07        -0.29802E-19         0.00000E+00
    0.24518E-07        -0.11176E-19         0.00000E+00
    0.24518E-07         0.37253E-20         0.00000E+00
    0.24518E-07        -0.93132E-20         0.00000E+00
    0.24518E-07        -0.93132E-20         0.00000E+00
    0.24518E-07         0.00000E+00         0.00000E+00
    0.24518E-07         0.33149E-20         0.00000E+00
    0.24518E-07        -0.74506E-20         0.00000E+00
    0.24518E-07        -0.83819E-20         0.00000E+00
    0.24518E-07        -0.14901E-19         0.00000E+00
    0.24518E-07        -0.21010E-19         0.00000E+00
    0.24518E-07        -0.11176E-19         0.00000E+00
    0.24518E-07        -0.13039E-19         0.00000E+00
    0.24518E-07        -0.14901E-19         0.00000E+00
    0.24518E-07        -0.37253E-20         0.00000E+00
    0.24518E-07         0.00000E+00         0.00000E+00
    0.24518E-07        -0.14901E-19         0.00000E+00
    0.24518E-07        -0.16764E-19         0.00000E+00
    0.24518E-07        -0.18626E-20         0.00000E+00
    0.24518E-07        -0.18626E-20         0.00000E+00
    0.24518E-07        -0.13039E-19         0.00000E+00
    0.24518E-07        -0.69296E-20         0.00000E+00
    0.24518E-07         0.79715E-20         0.00000E+00
    0.24518E-07         0.11176E-19         0.00000E+00
    0.23931E-07         0.00000E+00         0.00000E+00
    0.23931E-07        -0.11176E-19         0.00000E+00
    0.23931E-07        -0.22594E-19         0.00000E+00
    0.23931E-07        -0.76929E-20         0.00000E+00
    0.23931E-07         0.58302E-20         0.00000E+00
    0.23931E-07         0.15143E-19         0.00000E+00
    0.23931E-07         0.16764E-19         0.00000E+00
    0.23931E-07         0.14901E-19         0.00000E+00
    0.23931E-07         0.16764E-19         0.00000E+00
    0.23931E-07         0.93132E-20         0.00000E+00
    0.23931E-07         0.90709E-20         0.00000E+00
    0.23931E-07         0.72083E-20         0.00000E+00
    0.23931E-07        -0.37253E-20         0.00000E+00
    0.23931E-07        -0.53457E-20         0.00000E+00
    0.23931E-07        -0.10691E-19         0.00000E+00
    0.23931E-07        -0.22352E-19         0.00000E+00
    0.23931E-07        -0.24457E-19         0.00000E+00
    0.23931E-07        -0.23525E-19         0.00000E+00
    0.23931E-07        -0.23525E-19         0.00000E+00
    0.23931E-07        -0.20489E-19         0.00000E+00
    0.23931E-07        -0.12796E-19         0.00000E+00
    0.23931E-07         0.24228E-21         0.00000E+00
    0.23931E-07        -0.11736E-20         0.00000E+00
    0.23931E-07        -0.12107E-19         0.00000E+00
    0.23931E-07        -0.46566E-20         0.00000E+00
    0.23931E-07        -0.44143E-20         0.00000E+00
    0.23931E-07        -0.55879E-20         0.00000E+00
    0.23931E-07        -0.48456E-21         0.00000E+00
    0.23931E-07        -0.20247E-19         0.00000E+00
    0.23931E-07        -0.33285E-19         0.00000E+00
    0.23931E-07        -0.26319E-19         0.00000E+00
    0.23931E-07        -0.19558E-19         0.00000E+00
    0.23931E-07        -0.27455E-19         0.00000E+00
    0.23931E-07        -0.26766E-19         0.00000E+00
    0.23931E-07        -0.18180E-19         0.00000E+00
    0.23931E-07        -0.12592E-19         0.00000E+00
    0.23931E-07        -0.74506E-20         0.00000E+00
    0.23931E-07        -0.18626E-20         0.00000E+00
    0.23931E-07        -0.53457E-20         0.00000E+00
    0.23931E-07        -0.34830E-20         0.00000E+00
    0.23931E-07        -0.55879E-20         0.00000E+00
    0.23931E-07        -0.11418E-19         0.00000E+00
    0.23931E-07        -0.83819E-20         0.00000E+00
    0.23931E-07        -0.68904E-21         0.00000E+00
    0.23931E-07        -0.24228E-21         0.00000E+00
    0.23931E-07        -0.24228E-21         0.00000E+00
    0.23931E-07        -0.53457E-20         0.00000E+00
    0.23931E-07         0.21049E-20         0.00000E+00
    0.23931E-07         0.11176E-19         0.00000E+00
    0.23931E-07        -0.24228E-21         0.00000E+00
    0.23931E-07        -0.79351E-20         0.00000E+00
    0.23423E-07         0.37253E-20         0.00000E+00
    0.23423E-07         0.12961E-19         0.00000E+00
    0.23423E-07         0.17695E-19         0.00000E+00
    0.23423E-07         0.12107E-19         0.00000E+00
    0.23423E-07         0.37253E-20         0.00000E+00
    0.23423E-07         0.18626E-20         0.00000E+00
    0.23423E-07         0.37253E-20         0.00000E+00
    0.23423E-07         0.18626E-20         0.00000E+00
    0.23423E-07         0.83819E-20         0.00000E+00
    0.23423E-07         0.14047E-19         0.00000E+00
    0.23423E-07         0.11176E-19         0.00000E+00
    0.23423E-07         0.13039E-19         0.00000E+00
    0.23423E-07         0.18626E-20         0.00000E+00
    0.23423E-07        -0.18626E-19         0.00000E+00
    0.23423E-07        -0.19635E-19         0.00000E+00
    0.23423E-07        -0.84594E-20         0.00000E+00
    0.23423E-07        -0.14901E-19         0.00000E+00
    0.23423E-07        -0.24214E-19         0.00000E+00
    0.23423E-07        -0.27940E-19         0.00000E+00
    0.23423E-07        -0.18626E-19         0.00000E+00
    0.23423E-07        -0.11176E-19         0.00000E+00
    0.23423E-07        -0.18626E-19         0.00000E+00
    0.23423E-07        -0.22352E-19         0.00000E+00
    0.23423E-07        -0.26000E-19         0.00000E+00
    0.23423E-07        -0.35390E-19         0.00000E+00
    0.23423E-07        -0.18704E-19         0.00000E+00
    0.23423E-07        -0.13039E-19         0.00000E+00
    0.23423E-07        -0.18626E-19         0.00000E+00
    0.23423E-07        -0.93132E-20         0.00000E+00
    0.23423E-07        -0.37253E-20         0.00000E+00
    0.23423E-07        -0.15755E-19         0.00000E+00
    0.23423E-07        -0.25068E-19         0.00000E+00
    0.23423E-07        -0.21498E-19         0.00000E+00
    0.23423E-07        -0.17773E-19         0.00000E+00
    0.23423E-07        -0.55879E-20         0.00000E+00
    0.23423E-07        -0.45791E-20         0.00000E+00
    0.23423E-07        -0.13892E-19         0.00000E+00
    0.23423E-07        -0.16764E-19         0.00000E+00
    0.23423E-07        -0.10088E-20         0.00000E+00
    0.23423E-07         0.16764E-19         0.00000E+00
    0.23423E-07         0.14901E-19         0.00000E+00
    0.23423E-07         0.55879E-20         0.00000E+00
    0.23423E-07        -0.11176E-19         0.00000E+00
    0.23423E-07        -0.93132E-20         0.00000E+00
    0.23423E-07        -0.37253E-20         0.00000E+00
    0.23423E-07        -0.74506E-20         0.00000E+00
    0.23423E-07         0.00000E+00         0.00000E+00
    0.23423E-07         0.45791E-20         0.00000E+00
    0.23423E-07         0.47341E-20         0.00000E+00
    0.23423E-07         0.74506E-20         0.00000E+00
    0.23423E-07         0.54329E-20         0.00000E+00
    0.22996E-07        -0.14901E-19         0.00000E+00
    0.22996E-07        -0.17780E-19         0.00000E+00
    0.22996E-07        -0.17780E-19         0.00000E+00
    0.22996E-07        -0.10160E-19         0.00000E+00
    0.22996E-07         0.55879E-20         0.00000E+00
    0.22996E-07         0.11176E-19         0.00000E+00
    0.22996E-07         0.25230E-19         0.00000E+00
    0.22996E-07         0.37253E-19         0.00000E+00
    0.22996E-07         0.20489E-19         0.00000E+00
    0.22996E-07         0.18626E-20         0.00000E+00
    0.22996E-07        -0.13039E-19         0.00000E+00
    0.22996E-07        -0.16764E-19         0.00000E+00
    0.22996E-07        -0.37253E-20         0.00000E+00
    0.22996E-07        -0.19472E-20         0.00000E+00
    0.22996E-07        -0.83819E-20         0.00000E+00
    0.22996E-07        -0.10160E-19         0.00000E+00
    0.22996E-07        -0.66038E-20         0.00000E+00
    0.22996E-07        -0.84664E-20         0.00000E+00
    0.22996E-07        -0.17781E-20         0.00000E+00
    0.22996E-07        -0.93132E-21         0.00000E+00
    0.22996E-07        -0.14901E-19         0.00000E+00
    0.22996E-07        -0.19473E-19         0.00000E+00
    0.22996E-07        -0.29802E-19         0.00000E+00
    0.22996E-07        -0.30818E-19         0.00000E+00
    0.22996E-07        -0.37253E-19         0.00000E+00
    0.22996E-07        -0.47413E-19         0.00000E+00
    0.22996E-07        -0.35390E-19         0.00000E+00
    0.22996E-07        -0.11176E-19         0.00000E+00
    0.22996E-07        -0.74506E-20         0.00000E+00
    0.22996E-07        -0.22352E-19         0.00000E+00
    0.22996E-07        -0.13039E-19         0.00000E+00
    0.22996E-07        -0.29630E-20         0.00000E+00
    0.22996E-07        -0.93132E-21         0.00000E+00
    0.22996E-07         0.94823E-20         0.00000E+00
    0.22996E-07         0.37253E-20         0.00000E+00
    0.22996E-07        -0.55879E-20         0.00000E+00
    0.22996E-07        -0.11176E-19         0.00000E+00
    0.22996E-07        -0.93132E-20         0.00000E+00
    0.22996E-07        -0.18626E-19         0.00000E+00
    0.22996E-07        -0.34543E-19         0.00000E+00
    0.22996E-07        -0.25230E-19         0.00000E+00
    0.22996E-07        -0.17781E-20         0.00000E+00
    0.22996E-07         0.83819E-20         0.00000E+00
    0.22996E-07         0.45721E-20         0.00000E+00
    0.22996E-07         0.84514E-22         0.00000E+00
    0.22996E-07         0.84514E-22         0.00000E+00
    0.22996E-07        -0.37253E-20         0.00000E+00
    0.22996E-07        -0.55879E-20         0.00000E+00
    0.22996E-07        -0.24214E-19         0.00000E+00
    0.22996E-07        -0.32512E-19         0.00000E+00
    0.22996E-07        -0.16595E-19         0.00000E+00
    0.22653E-07         0.74506E-20         0.00000E+00
    0.22653E-07         0.11176E-19         0.00000E+00
    0.22653E-07         0.10000E-19         0.00000E+00
    0.22653E-07         0.93132E-20         0.00000E+00
    0.22653E-07         0.14214E-19         0.00000E+00
    0.22653E-07         0.16764E-19         0.00000E+00
    0.22653E-07         0.93132E-20         0.00000E+00
    0.22653E-07         0.18626E-20         0.00000E+00
    0.22653E-07         0.11863E-19         0.00000E+00
    0.22653E-07         0.10000E-19         0.00000E+00
    0.22653E-07        -0.44122E-20         0.00000E+00
    0.22653E-07        -0.93132E-20         0.00000E+00
    0.22653E-07        -0.55879E-20         0.00000E+00
    0.22653E-07         0.18626E-20         0.00000E+00
    0.22653E-07         0.81375E-20         0.00000E+00
    0.22653E-07         0.55879E-20         0.00000E+00
    0.22653E-07        -0.68692E-21         0.00000E+00
    0.22653E-07         0.74506E-20         0.00000E+00
    0.22653E-07        -0.15588E-19         0.00000E+00
    0.22653E-07        -0.22352E-19         0.00000E+00
    0.22653E-07        -0.13527E-19         0.00000E+00
    0.22653E-07        -0.22352E-19         0.00000E+00
    0.22653E-07        -0.42596E-19         0.00000E+00
    0.22653E-07        -0.53085E-19         0.00000E+00
    0.22653E-07        -0.31665E-19         0.00000E+00
    0.22653E-07        -0.19558E-19         0.00000E+00
    0.22653E-07        -0.17695E-19         0.00000E+00
    0.22653E-07        -0.23039E-19         0.00000E+00
    0.22653E-07        -0.26077E-19         0.00000E+00
    0.22653E-07        -0.20733E-19         0.00000E+00
    0.22653E-07        -0.11863E-19         0.00000E+00
    0.22653E-07        -0.13970E-19         0.00000E+00
    0.22653E-07        -0.98020E-20         0.00000E+00
    0.22653E-07         0.11757E-20         0.00000E+00
    0.22653E-07         0.86263E-20         0.00000E+00
    0.22653E-07        -0.37253E-20         0.00000E+00
    0.22653E-07        -0.11176E-19         0.00000E+00
    0.22653E-07        -0.16077E-19         0.00000E+00
    0.22653E-07        -0.46566E-20         0.00000E+00
    0.22653E-07         0.11420E-19         0.00000E+00
    0.22653E-07         0.55879E-20         0.00000E+00
    0.22653E-07        -0.76950E-20         0.00000E+00
    0.22653E-07        -0.39697E-20         0.00000E+00
    0.22653E-07        -0.88244E-20         0.00000E+00
    0.22653E-07        -0.20245E-19         0.00000E+00
    0.22653E-07        -0.58323E-20         0.00000E+00
    0.22653E-07         0.13039E-19         0.00000E+00
    0.22653E-07        -0.18626E-20         0.00000E+00
    0.22653E-07        -0.95576E-20         0.00000E+00
    0.22653E-07         0.18626E-20         0.00000E+00
    0.22653E-07         0.48880E-21         0.00000E+00
    0.22394E-07         0.11176E-19         0.00000E+00
    0.22394E-07         0.13039E-19         0.00000E+00
    0.22394E-07         0.11176E-19         0.00000E+00
    0.22394E-07         0.18626E-20         0.00000E+00
    0.22394E-07         0.33225E-20         0.00000E+00
    0.22394E-07         0.16764E-19         0.00000E+00
    0.22394E-07         0.20892E-19         0.00000E+00
    0.22394E-07         0.20086E-19         0.00000E+00
    0.22394E-07         0.55879E-20         0.00000E+00
    0.22394E-07         0.40276E-21         0.00000E+00
    0.22394E-07         0.70478E-20         0.00000E+00
    0.22394E-07         0.69220E-20         0.00000E+00
    0.22394E-07         0.69220E-20         0.00000E+00
    0.22394E-07         0.14096E-19         0.00000E+00
    0.22394E-07         0.14498E-19         0.00000E+00
    0.22394E-07         0.80551E-21         0.00000E+00
    0.22394E-07        -0.11176E-19         0.00000E+00
    0.22394E-07        -0.14901E-19         0.00000E+00
    0.22394E-07        -0.10571E-20         0.00000E+00
    0.22394E-07         0.51852E-20         0.00000E+00
    0.22394E-07        -0.13441E-19         0.00000E+00
    0.22394E-07        -0.26077E-19         0.00000E+00
    0.22394E-07        -0.17167E-19         0.00000E+00
    0.22394E-07        -0.20892E-19         0.00000E+00
    0.22394E-07        -0.27134E-19         0.00000E+00
    0.22394E-07        -0.27940E-19         0.00000E+00
    0.22394E-07        -0.30205E-19         0.00000E+00
    0.22394E-07        -0.27537E-19         0.00000E+00
    0.22394E-07        -0.25674E-19         0.00000E+00
    0.22394E-07        -0.20892E-19         0.00000E+00
    0.22394E-07        -0.11981E-19         0.00000E+00
    0.22394E-07        -0.18626E-20         0.00000E+00
    0.22394E-07        -0.66451E-20         0.00000E+00
    0.22394E-07        -0.11176E-19         0.00000E+00
    0.22394E-07        -0.11579E-19         0.00000E+00
    0.22394E-07        -0.19684E-19         0.00000E+00
    0.22394E-07        -0.13970E-19         0.00000E+00
    0.22394E-07         0.42539E-20         0.00000E+00
    0.22394E-07         0.55879E-20         0.00000E+00
    0.22394E-07         0.22654E-20         0.00000E+00
    0.22394E-07         0.37253E-20         0.00000E+00
    0.22394E-07         0.33225E-20         0.00000E+00
    0.22394E-07        -0.12636E-19         0.00000E+00
    0.22394E-07        -0.93132E-20         0.00000E+00
    0.22394E-07         0.10773E-19         0.00000E+00
    0.22394E-07         0.50594E-20         0.00000E+00
    0.22394E-07        -0.25674E-19         0.00000E+00
    0.22394E-07        -0.22226E-19         0.00000E+00
    0.22394E-07         0.52857E-21         0.00000E+00
    0.22394E-07         0.63934E-20         0.00000E+00
    0.22394E-07         0.82561E-20         0.00000E+00
    0.22222E-07        -0.18626E-19         0.00000E+00
    0.22222E-07        -0.18626E-19         0.00000E+00
    0.22222E-07        -0.59591E-20         0.00000E+00
    0.22222E-07         0.10805E-19         0.00000E+00
    0.22222E-07         0.14712E-19         0.00000E+00
    0.22222E-07         0.16575E-19         0.00000E+00
    0.22222E-07         0.33542E-20         0.00000E+00
    0.22222E-07        -0.96844E-20         0.00000E+00
    0.22222E-07         0.00000E+00         0.00000E+00
    0.22222E-07         0.14530E-19         0.00000E+00
    0.22222E-07         0.21981E-19         0.00000E+00
    0.22222E-07         0.17135E-19         0.00000E+00
    0.22222E-07         0.96844E-20         0.00000E+00
    0.22222E-07         0.00000E+00         0.00000E+00
    0.22222E-07        -0.15461E-19         0.00000E+00
    0.22222E-07        -0.12107E-19         0.00000E+00
    0.22222E-07        -0.74225E-21         0.00000E+00
    0.22222E-07        -0.59591E-20         0.00000E+00
    0.22222E-07        -0.16393E-19         0.00000E+00
    0.22222E-07        -0.93132E-20         0.00000E+00
    0.22222E-07         0.16393E-19         0.00000E+00
    0.22222E-07         0.74506E-20         0.00000E+00
    0.22222E-07        -0.16393E-19         0.00000E+00
    0.22222E-07        -0.23472E-19         0.00000E+00
    0.22222E-07        -0.18066E-19         0.00000E+00
    0.22222E-07        -0.37253E-20         0.00000E+00
    0.22222E-07         0.18626E-20         0.00000E+00
    0.22222E-07        -0.13024E-20         0.00000E+00
    0.22222E-07         0.26049E-20         0.00000E+00
    0.22222E-07         0.40964E-20         0.00000E+00
    0.22222E-07        -0.50277E-20         0.00000E+00
    0.22222E-07        -0.83819E-20         0.00000E+00
    0.22222E-07         0.42855E-20         0.00000E+00
    0.22222E-07         0.20517E-20         0.00000E+00
    0.22222E-07        -0.52168E-20         0.00000E+00
    0.22222E-07        -0.18626E-20         0.00000E+00
    0.22222E-07        -0.13599E-19         0.00000E+00
    0.22222E-07        -0.22541E-19         0.00000E+00
    0.22222E-07        -0.18998E-19         0.00000E+00
    0.22222E-07        -0.19369E-19         0.00000E+00
    0.22222E-07        -0.18998E-19         0.00000E+00
    0.22222E-07        -0.13039E-19         0.00000E+00
    0.22222E-07         0.22338E-20         0.00000E+00
    0.22222E-07         0.78217E-20         0.00000E+00
    0.22222E-07        -0.18626E-20         0.00000E+00
    0.22222E-07        -0.33542E-20         0.00000E+00
    0.22222E-07         0.14901E-19         0.00000E+00
    0.22222E-07         0.11736E-19         0.00000E+00
    0.22222E-07        -0.59591E-20         0.00000E+00
    0.22222E-07        -0.37113E-21         0.00000E+00
    0.22222E-07         0.00000E+00         0.00000E+00
    0.22137E-07         0.11604E-19         0.00000E+00
    0.22137E-07         0.22352E-19         0.00000E+00
    0.22137E-07         0.14901E-19         0.00000E+00
    0.22137E-07         0.00000E+00         0.00000E+00
    0.22137E-07        -0.76646E-20         0.00000E+00
    0.22137E-07        -0.85959E-20         0.00000E+00
    0.22137E-07         0.65193E-20         0.00000E+00
    0.22137E-07         0.13039E-19         0.00000E+00
    0.22137E-07         0.18626E-20         0.00000E+00
    0.22137E-07        -0.13039E-19         0.00000E+00
    0.22137E-07        -0.23283E-19         0.00000E+00
    0.22137E-07        -0.15619E-19         0.00000E+00
    0.22137E-07         0.37253E-20         0.00000E+00
    0.22137E-07         0.58019E-20         0.00000E+00
    0.22137E-07         0.11390E-19         0.00000E+00
    0.22137E-07         0.10962E-19         0.00000E+00
    0.22137E-07        -0.93132E-20         0.00000E+00
    0.22137E-07        -0.14184E-19         0.00000E+00
    0.22137E-07         0.42287E-20         0.00000E+00
    0.22137E-07         0.11176E-19         0.00000E+00
    0.22137E-07         0.76646E-20         0.00000E+00
    0.22137E-07         0.58019E-20         0.00000E+00
    0.22137E-07         0.93132E-20         0.00000E+00
    0.22137E-07         0.12321E-19         0.00000E+00
    0.22137E-07         0.35113E-20         0.00000E+00
    0.22137E-07        -0.18626E-20         0.00000E+00
    0.22137E-07        -0.18626E-20         0.00000E+00
    0.22137E-07        -0.37253E-20         0.00000E+00
    0.22137E-07         0.30079E-20         0.00000E+00
    0.22137E-07         0.18626E-20         0.00000E+00
    0.22137E-07        -0.13222E-33         0.00000E+00
    0.22137E-07         0.35113E-20         0.00000E+00
    0.22137E-07        -0.74506E-20         0.00000E+00
    0.22137E-07        -0.39393E-20         0.00000E+00
    0.22137E-07         0.66204E-34         0.00000E+00
    0.22137E-07        -0.13039E-19         0.00000E+00
    0.22137E-07        -0.93132E-20         0.00000E+00
    0.22137E-07        -0.37253E-20         0.00000E+00
    0.22137E-07        -0.18626E-20         0.00000E+00
    0.22137E-07         0.13039E-19         0.00000E+00
    0.22137E-07         0.20489E-19         0.00000E+00
    0.22137E-07         0.11176E-19         0.00000E+00
    0.22137E-07        -0.39393E-20         0.00000E+00
    0.22137E-07        -0.14901E-19         0.00000E+00
    0.22137E-07        -0.60913E-20         0.00000E+00
    0.22137E-07        -0.25800E-20         0.00000E+00
    0.22137E-07        -0.76646E-20         0.00000E+00
    0.22137E-07        -0.55879E-20         0.00000E+00
    0.22137E-07         0.37253E-20         0.00000E+00
    0.22137E-07         0.72366E-20         0.00000E+00
    0.22137E-07         0.70226E-20         0.00000E+00
    0.22142E-07        -0.94262E-20         0.00000E+00
    0.22142E-07        -0.18626E-19         0.00000E+00
    0.22142E-07        -0.13913E-19         0.00000E+00
    0.22142E-07        -0.55879E-20         0.00000E+00
    0.22142E-07        -0.93132E-20         0.00000E+00
    0.22142E-07        -0.56444E-20         0.00000E+00
    0.22142E-07        -0.14958E-19         0.00000E+00
    0.22142E-07        -0.28815E-19         0.00000E+00
    0.22142E-07        -0.22352E-19         0.00000E+00
    0.22142E-07        -0.12164E-19         0.00000E+00
    0.22142E-07         0.37818E-20         0.00000E+00
    0.22142E-07         0.93697E-20         0.00000E+00
    0.22142E-07         0.27375E-20         0.00000E+00
    0.22142E-07         0.13039E-19         0.00000E+00
    0.22142E-07         0.84949E-20         0.00000E+00
    0.22142E-07         0.56476E-22         0.00000E+00
    0.22142E-07         0.10188E-19         0.00000E+00
    0.22142E-07         0.73376E-20         0.00000E+00
    0.22142E-07        -0.65757E-20         0.00000E+00
    0.22142E-07        -0.55879E-20         0.00000E+00
    0.22142E-07         0.18626E-19         0.00000E+00
    0.22142E-07         0.18626E-19         0.00000E+00
    0.22142E-07        -0.64628E-20         0.00000E+00
    0.22142E-07        -0.12051E-19         0.00000E+00
    0.22142E-07         0.87485E-21         0.00000E+00
    0.22142E-07         0.16764E-19         0.00000E+00
    0.22142E-07         0.12164E-19         0.00000E+00
    0.22142E-07         0.27375E-20         0.00000E+00
    0.22142E-07         0.87485E-21         0.00000E+00
    0.22142E-07         0.15945E-19         0.00000E+00
    0.22142E-07         0.21477E-19         0.00000E+00
    0.22142E-07         0.55879E-20         0.00000E+00
    0.22142E-07         0.65193E-20         0.00000E+00
    0.22142E-07         0.64628E-20         0.00000E+00
    0.22142E-07        -0.11176E-19         0.00000E+00
    0.22142E-07         0.46001E-20         0.00000E+00
    0.22142E-07         0.23227E-19         0.00000E+00
    0.22142E-07         0.14026E-19         0.00000E+00
    0.22142E-07         0.37253E-20         0.00000E+00
    0.22142E-07        -0.84384E-20         0.00000E+00
    0.22142E-07         0.18626E-20         0.00000E+00
    0.22142E-07         0.93132E-20         0.00000E+00
    0.22142E-07         0.84384E-20         0.00000E+00
    0.22142E-07         0.12164E-19         0.00000E+00
    0.22142E-07         0.27375E-20         0.00000E+00
    0.22142E-07        -0.33102E-34         0.00000E+00
    0.22142E-07         0.84384E-20         0.00000E+00
    0.22142E-07         0.83254E-20         0.00000E+00
    0.22142E-07         0.64628E-20         0.00000E+00
    0.22142E-07         0.18626E-20         0.00000E+00
    0.22142E-07        -0.37253E-20         0.00000E+00
    0.22236E-07        -0.37253E-20         0.00000E+00
    0.22236E-07         0.26920E-20         0.00000E+00
    0.22236E-07         0.13039E-19         0.00000E+00
    0.22236E-07         0.15934E-19         0.00000E+00
    0.22236E-07         0.82799E-20         0.00000E+00
    0.22236E-07        -0.84839E-20         0.00000E+00
    0.22236E-07        -0.25044E-19         0.00000E+00
    0.22236E-07        -0.24214E-19         0.00000E+00
    0.22236E-07        -0.27940E-19         0.00000E+00
    0.22236E-07        -0.28769E-19         0.00000E+00
    0.22236E-07        -0.20489E-19         0.00000E+00
    0.22236E-07        -0.10333E-20         0.00000E+00
    0.22236E-07         0.45546E-20         0.00000E+00
    0.22236E-07        -0.10143E-19         0.00000E+00
    0.22236E-07         0.36233E-20         0.00000E+00
    0.22236E-07         0.46566E-20         0.00000E+00
    0.22236E-07        -0.10972E-19         0.00000E+00
    0.22236E-07        -0.93132E-20         0.00000E+00
    0.22236E-07         0.55879E-20         0.00000E+00
    0.22236E-07         0.55879E-20         0.00000E+00
    0.22236E-07         0.26920E-20         0.00000E+00
    0.22236E-07         0.10143E-19         0.00000E+00
    0.22236E-07         0.66213E-20         0.00000E+00
    0.22236E-07         0.46566E-20         0.00000E+00
    0.22236E-07        -0.46566E-20         0.00000E+00
    0.22236E-07        -0.64172E-20         0.00000E+00
    0.22236E-07        -0.74506E-20         0.00000E+00
    0.22236E-07        -0.28960E-20         0.00000E+00
    0.22236E-07         0.14901E-19         0.00000E+00
    0.22236E-07         0.14072E-19         0.00000E+00
    0.22236E-07         0.74506E-20         0.00000E+00
    0.22236E-07         0.74506E-20         0.00000E+00
    0.22236E-07         0.00000E+00         0.00000E+00
    0.22236E-07        -0.11176E-19         0.00000E+00
    0.22236E-07        -0.55879E-20         0.00000E+00
    0.22236E-07         0.55879E-20         0.00000E+00
    0.22236E-07         0.55879E-20         0.00000E+00
    0.22236E-07         0.16764E-19         0.00000E+00
    0.22236E-07         0.31461E-19         0.00000E+00
    0.22236E-07         0.29802E-19         0.00000E+00
    0.22236E-07         0.95173E-20         0.00000E+00
    0.22236E-07         0.82931E-21         0.00000E+00
    0.22236E-07         0.55879E-20         0.00000E+00
    0.22236E-07         0.13039E-19         0.00000E+00
    0.22236E-07         0.14901E-19         0.00000E+00
    0.22236E-07         0.12209E-19         0.00000E+00
    0.22236E-07         0.16764E-19         0.00000E+00
    0.22236E-07         0.16662E-19         0.00000E+00
    0.22236E-07         0.46566E-20         0.00000E+00
    0.22236E-07         0.66213E-20         0.00000E+00
    0.22236E-07         0.14901E-19         0.00000E+00
    0.22421E-07         0.10652E-19         0.00000E+00
    0.22421E-07         0.37253E-20         0.00000E+00
    0.22421E-07        -0.12776E-19         0.00000E+00
    0.22421E-07        -0.11438E-19         0.00000E+00
    0.22421E-07        -0.77127E-20         0.00000E+00
    0.22421E-07        -0.14639E-19         0.00000E+00
    0.22421E-07        -0.14639E-19         0.00000E+00
    0.22421E-07        -0.22352E-19         0.00000E+00
    0.22421E-07        -0.33265E-19         0.00000E+00
    0.22421E-07        -0.36322E-19         0.00000E+00
    0.22421E-07        -0.30996E-19         0.00000E+00
    0.22421E-07        -0.26077E-19         0.00000E+00
    0.22421E-07        -0.14901E-19         0.00000E+00
    0.22421E-07         0.55879E-20         0.00000E+00
    0.22421E-07         0.11176E-19         0.00000E+00
    0.22421E-07         0.14901E-19         0.00000E+00
    0.22421E-07         0.20489E-19         0.00000E+00
    0.22421E-07         0.55879E-20         0.00000E+00
    0.22421E-07        -0.74506E-20         0.00000E+00
    0.22421E-07        -0.14901E-19         0.00000E+00
    0.22421E-07        -0.18626E-19         0.00000E+00
    0.22421E-07        -0.74506E-20         0.00000E+00
    0.22421E-07        -0.37253E-20         0.00000E+00
    0.22421E-07        -0.93132E-20         0.00000E+00
    0.22421E-07        -0.93132E-20         0.00000E+00
    0.22421E-07        -0.74506E-20         0.00000E+00
    0.22421E-07        -0.11176E-19         0.00000E+00
    0.22421E-07         0.00000E+00         0.00000E+00
    0.22421E-07         0.74506E-20         0.00000E+00
    0.22421E-07         0.13039E-19         0.00000E+00
    0.22421E-07         0.24214E-19         0.00000E+00
    0.22421E-07         0.29540E-19         0.00000E+00
    0.22421E-07         0.31665E-19         0.00000E+00
    0.22421E-07         0.26077E-19         0.00000E+00
    0.22421E-07         0.19558E-19         0.00000E+00
    0.22421E-07         0.17957E-19         0.00000E+00
    0.22421E-07         0.11176E-19         0.00000E+00
    0.22421E-07         0.62571E-20         0.00000E+00
    0.22421E-07         0.27940E-20         0.00000E+00
    0.22421E-07         0.26214E-21         0.00000E+00
    0.22421E-07         0.11845E-19         0.00000E+00
    0.22421E-07         0.21420E-19         0.00000E+00
    0.22421E-07         0.13301E-19         0.00000E+00
    0.22421E-07         0.16764E-19         0.00000E+00
    0.22421E-07         0.22352E-19         0.00000E+00
    0.22421E-07         0.11845E-19         0.00000E+00
    0.22421E-07         0.16764E-19         0.00000E+00
    0.22421E-07         0.17957E-19         0.00000E+00
    0.22421E-07         0.43945E-20         0.00000E+00
    0.22421E-07        -0.34631E-20         0.00000E+00
    0.22421E-07        -0.82646E-20         0.00000E+00
    0.22698E-07         0.00000E+00         0.00000E+00
    0.22698E-07        -0.33007E-20         0.00000E+00
    0.22698E-07         0.37253E-20         0.00000E+00
    0.22698E-07         0.12614E-19         0.00000E+00
    0.22698E-07         0.98200E-20         0.00000E+00
    0.22698E-07         0.27940E-20         0.00000E+00
    0.22698E-07        -0.16339E-19         0.00000E+00
    0.22698E-07        -0.33528E-19         0.00000E+00
    0.22698E-07        -0.26077E-19         0.00000E+00
    0.22698E-07        -0.11176E-19         0.00000E+00
    0.22698E-07         0.37253E-20         0.00000E+00
    0.22698E-07         0.93132E-20         0.00000E+00
    0.22698E-07         0.37253E-20         0.00000E+00
    0.22698E-07        -0.41499E-20         0.00000E+00
    0.22698E-07        -0.93132E-20         0.00000E+00
    0.22698E-07        -0.14477E-19         0.00000E+00
    0.22698E-07        -0.22352E-19         0.00000E+00
    0.22698E-07        -0.20489E-19         0.00000E+00
    0.22698E-07        -0.18202E-19         0.00000E+00
    0.22698E-07        -0.16764E-19         0.00000E+00
    0.22698E-07        -0.11600E-19         0.00000E+00
    0.22698E-07        -0.97378E-20         0.00000E+00
    0.22698E-07        -0.55879E-20         0.00000E+00
    0.22698E-07         0.37253E-20         0.00000E+00
    0.22698E-07         0.74506E-20         0.00000E+00
    0.22698E-07         0.41499E-20         0.00000E+00
    0.22698E-07         0.14901E-19         0.00000E+00
    0.22698E-07         0.12614E-19         0.00000E+00
    0.22698E-07         0.13039E-19         0.00000E+00
    0.22698E-07         0.28364E-19         0.00000E+00
    0.22698E-07         0.31665E-19         0.00000E+00
    0.22698E-07         0.22352E-19         0.00000E+00
    0.22698E-07         0.16764E-19         0.00000E+00
    0.22698E-07         0.14901E-19         0.00000E+00
    0.22698E-07         0.18626E-19         0.00000E+00
    0.22698E-07         0.20489E-19         0.00000E+00
    0.22698E-07         0.20489E-19         0.00000E+00
    0.22698E-07         0.13039E-19         0.00000E+00
    0.22698E-07         0.93132E-20         0.00000E+00
    0.22698E-07         0.18626E-19         0.00000E+00
    0.22698E-07         0.11176E-19         0.00000E+00
    0.22698E-07         0.74506E-20         0.00000E+00
    0.22698E-07         0.16764E-19         0.00000E+00
    0.22698E-07         0.93132E-20         0.00000E+00
    0.22698E-07         0.00000E+00         0.00000E+00
    0.22698E-07        -0.37253E-20         0.00000E+00
    0.22698E-07        -0.14901E-19         0.00000E+00
    0.22698E-07        -0.18626E-19         0.00000E+00
    0.22698E-07        -0.16764E-19         0.00000E+00
    0.22698E-07        -0.13545E-19         0.00000E+00
    0.22698E-07        -0.47388E-20         0.00000E+00
    0.23067E-07         0.37253E-20         0.00000E+00
    0.23067E-07         0.11176E-19         0.00000E+00
    0.23067E-07         0.59293E-20         0.00000E+00
    0.23067E-07        -0.13039E-19         0.00000E+00
    0.23067E-07        -0.18626E-19         0.00000E+00
    0.23067E-07        -0.74506E-20         0.00000E+00
    0.23067E-07         0.71092E-20         0.00000E+00
    0.23067E-07         0.16764E-19         0.00000E+00
    0.23067E-07         0.15243E-19         0.00000E+00
    0.23067E-07         0.65193E-20         0.00000E+00
    0.23067E-07        -0.49980E-20         0.00000E+00
    0.23067E-07        -0.13380E-19         0.00000E+00
    0.23067E-07        -0.83819E-20         0.00000E+00
    0.23067E-07        -0.99032E-20         0.00000E+00
    0.23067E-07        -0.13039E-19         0.00000E+00
    0.23067E-07        -0.31353E-20         0.00000E+00
    0.23067E-07        -0.65193E-20         0.00000E+00
    0.23067E-07        -0.13970E-19         0.00000E+00
    0.23067E-07        -0.11176E-19         0.00000E+00
    0.23067E-07        -0.80405E-20         0.00000E+00
    0.23067E-07        -0.74506E-20         0.00000E+00
    0.23067E-07         0.00000E+00         0.00000E+00
    0.23067E-07         0.93132E-20         0.00000E+00
    0.23067E-07         0.49980E-20         0.00000E+00
    0.23067E-07         0.37253E-20         0.00000E+00
    0.23067E-07         0.15491E-19         0.00000E+00
    0.23067E-07         0.22352E-19         0.00000E+00
    0.23067E-07         0.26077E-19         0.00000E+00
    0.23067E-07         0.22352E-19         0.00000E+00
    0.23067E-07         0.93132E-20         0.00000E+00
    0.23067E-07         0.37253E-20         0.00000E+00
    0.23067E-07         0.14901E-19         0.00000E+00
    0.23067E-07         0.18626E-19         0.00000E+00
    0.23067E-07         0.33839E-20         0.00000E+00
    0.23067E-07        -0.18626E-20         0.00000E+00
    0.23067E-07         0.11766E-19         0.00000E+00
    0.23067E-07         0.18626E-19         0.00000E+00
    0.23067E-07         0.23966E-19         0.00000E+00
    0.23067E-07         0.24556E-19         0.00000E+00
    0.23067E-07         0.14901E-19         0.00000E+00
    0.23067E-07         0.14560E-19         0.00000E+00
    0.23067E-07         0.11176E-19         0.00000E+00
    0.23067E-07         0.22040E-20         0.00000E+00
    0.23067E-07         0.37253E-20         0.00000E+00
    0.23067E-07         0.93132E-20         0.00000E+00
    0.23067E-07         0.15832E-19         0.00000E+00
    0.23067E-07         0.37253E-20         0.00000E+00
    0.23067E-07        -0.11176E-19         0.00000E+00
    0.23067E-07        -0.17105E-19         0.00000E+00
    0.23067E-07        -0.59293E-20         0.00000E+00
    0.23067E-07         0.67678E-20         0.00000E+00
    0.23529E-07        -0.14901E-19         0.00000E+00
    0.23529E-07        -0.18626E-19         0.00000E+00
    0.23529E-07        -0.11176E-19         0.00000E+00
    0.23529E-07        -0.18626E-20         0.00000E+00
    0.23529E-07         0.18626E-20         0.00000E+00
    0.23529E-07         0.14901E-19         0.00000E+00
    0.23529E-07         0.16764E-19         0.00000E+00
    0.23529E-07         0.93132E-20         0.00000E+00
    0.23529E-07        -0.18626E-20         0.00000E+00
    0.23529E-07        -0.55879E-20         0.00000E+00
    0.23529E-07         0.18626E-20         0.00000E+00
    0.23529E-07         0.55879E-20         0.00000E+00
    0.23529E-07        -0.93132E-20         0.00000E+00
    0.23529E-07        -0.16764E-19         0.00000E+00
    0.23529E-07        -0.11176E-19         0.00000E+00
    0.23529E-07        -0.16764E-19         0.00000E+00
    0.23529E-07        -0.11176E-19         0.00000E+00
    0.23529E-07         0.37253E-20         0.00000E+00
    0.23529E-07         0.18626E-20         0.00000E+00
    0.23529E-07        -0.74506E-20         0.00000E+00
    0.23529E-07         0.37253E-20         0.00000E+00
    0.23529E-07         0.14901E-19         0.00000E+00
    0.23529E-07         0.11176E-19         0.00000E+00
    0.23529E-07         0.93132E-20         0.00000E+00
    0.23529E-07         0.14901E-19         0.00000E+00
    0.23529E-07         0.22352E-19         0.00000E+00
    0.23529E-07         0.18626E-19         0.00000E+00
    0.23529E-07         0.37253E-20         0.00000E+00
    0.23529E-07         0.74506E-20         0.00000E+00
    0.23529E-07         0.24801E-19         0.00000E+00
    0.23529E-07         0.22938E-19         0.00000E+00
    0.23529E-07         0.10003E-19         0.00000E+00
    0.23529E-07        -0.43118E-20         0.00000E+00
    0.23529E-07         0.58655E-21         0.00000E+00
    0.23529E-07         0.93132E-20         0.00000E+00
    0.23529E-07         0.14901E-19         0.00000E+00
    0.23529E-07         0.16764E-19         0.00000E+00
    0.23529E-07         0.11176E-19         0.00000E+00
    0.23529E-07         0.11176E-19         0.00000E+00
    0.23529E-07         0.13039E-19         0.00000E+00
    0.23529E-07         0.18626E-19         0.00000E+00
    0.23529E-07         0.24214E-19         0.00000E+00
    0.23529E-07         0.20489E-19         0.00000E+00
    0.23529E-07         0.17350E-19         0.00000E+00
    0.23529E-07         0.83819E-20         0.00000E+00
    0.23529E-07        -0.15179E-20         0.00000E+00
    0.23529E-07         0.74506E-20         0.00000E+00
    0.23529E-07         0.20489E-19         0.00000E+00
    0.23529E-07         0.29802E-19         0.00000E+00
    0.23529E-07         0.18626E-19         0.00000E+00
    0.23529E-07         0.37253E-20         0.00000E+00
    0.24084E-07         0.37253E-20         0.00000E+00
    0.24084E-07        -0.93132E-20         0.00000E+00
    0.24084E-07        -0.11176E-19         0.00000E+00
    0.24084E-07         0.18626E-20         0.00000E+00
    0.24084E-07         0.37253E-20         0.00000E+00
    0.24084E-07         0.18626E-20         0.00000E+00
    0.24084E-07         0.11176E-19         0.00000E+00
    0.24084E-07         0.22352E-19         0.00000E+00
    0.24084E-07         0.16764E-19         0.00000E+00
    0.24084E-07         0.17636E-23         0.00000E+00
    0.24084E-07        -0.25146E-19         0.00000E+00
    0.24084E-07        -0.32598E-19         0.00000E+00
    0.24084E-07        -0.20487E-19         0.00000E+00
    0.24084E-07        -0.16766E-19         0.00000E+00
    0.24084E-07        -0.13972E-19         0.00000E+00
    0.24084E-07         0.65210E-20         0.00000E+00
    0.24084E-07         0.11176E-19         0.00000E+00
    0.24084E-07         0.00000E+00         0.00000E+00
    0.24084E-07         0.65210E-20         0.00000E+00
    0.24084E-07         0.15834E-19         0.00000E+00
    0.24084E-07         0.19556E-19         0.00000E+00
    0.24084E-07         0.25144E-19         0.00000E+00
    0.24084E-07         0.22352E-19         0.00000E+00
    0.24084E-07         0.93132E-20         0.00000E+00
    0.24084E-07         0.37253E-20         0.00000E+00
    0.24084E-07         0.74506E-20         0.00000E+00
    0.24084E-07         0.14901E-19         0.00000E+00
    0.24084E-07         0.26077E-19         0.00000E+00
    0.24084E-07         0.27940E-19         0.00000E+00
    0.24084E-07         0.27957E-20         0.00000E+00
    0.24084E-07        -0.15831E-19         0.00000E+00
    0.24084E-07        -0.18662E-20         0.00000E+00
    0.24084E-07         0.55879E-20         0.00000E+00
    0.24084E-07         0.27957E-20         0.00000E+00
    0.24084E-07         0.10243E-19         0.00000E+00
    0.24084E-07         0.21422E-19         0.00000E+00
    0.24084E-07         0.14901E-19         0.00000E+00
    0.24084E-07         0.46548E-20         0.00000E+00
    0.24084E-07         0.18626E-19         0.00000E+00
    0.24084E-07         0.29802E-19         0.00000E+00
    0.24084E-07         0.24214E-19         0.00000E+00
    0.24084E-07         0.15834E-19         0.00000E+00
    0.24084E-07         0.22352E-19         0.00000E+00
    0.24084E-07         0.25144E-19         0.00000E+00
    0.24084E-07         0.20489E-19         0.00000E+00
    0.24084E-07         0.31665E-19         0.00000E+00
    0.24084E-07         0.29802E-19         0.00000E+00
    0.24084E-07         0.20489E-19         0.00000E+00
    0.24084E-07         0.55879E-20         0.00000E+00
    0.24084E-07        -0.55879E-20         0.00000E+00
    0.24084E-07        -0.37253E-20         0.00000E+00
    0.24733E-07         0.44417E-20         0.00000E+00
    0.24733E-07         0.21420E-19         0.00000E+00
    0.24733E-07         0.26650E-19         0.00000E+00
    0.24733E-07         0.20489E-19         0.00000E+00
    0.24733E-07         0.17122E-19         0.00000E+00
    0.24733E-07         0.15832E-19         0.00000E+00
    0.24733E-07         0.98864E-20         0.00000E+00
    0.24733E-07        -0.11176E-19         0.00000E+00
    0.24733E-07        -0.20489E-19         0.00000E+00
    0.24733E-07        -0.11176E-19         0.00000E+00
    0.24733E-07        -0.55879E-20         0.00000E+00
    0.24733E-07         0.18626E-20         0.00000E+00
    0.24733E-07         0.37253E-20         0.00000E+00
    0.24733E-07         0.55879E-20         0.00000E+00
    0.24733E-07         0.11176E-19         0.00000E+00
    0.24733E-07         0.55879E-20         0.00000E+00
    0.24733E-07        -0.18626E-20         0.00000E+00
    0.24733E-07        -0.57314E-21         0.00000E+00
    0.24733E-07         0.16191E-19         0.00000E+00
    0.24733E-07         0.21994E-19         0.00000E+00
    0.24733E-07         0.20131E-19         0.00000E+00
    0.24733E-07         0.11176E-19         0.00000E+00
    0.24733E-07         0.55879E-20         0.00000E+00
    0.24733E-07         0.14901E-19         0.00000E+00
    0.24733E-07         0.20489E-19         0.00000E+00
    0.24733E-07         0.18626E-19         0.00000E+00
    0.24733E-07         0.74506E-20         0.00000E+00
    0.24733E-07        -0.74506E-20         0.00000E+00
    0.24733E-07        -0.22352E-19         0.00000E+00
    0.24733E-07        -0.74506E-20         0.00000E+00
    0.24733E-07         0.26077E-19         0.00000E+00
    0.24733E-07         0.29802E-19         0.00000E+00
    0.24733E-07         0.14901E-19         0.00000E+00
    0.24733E-07         0.00000E+00         0.00000E+00
    0.24733E-07        -0.55879E-20         0.00000E+00
    0.24733E-07        -0.55879E-20         0.00000E+00
    0.24733E-07         0.55879E-20         0.00000E+00
    0.24733E-07         0.16764E-19         0.00000E+00
    0.24733E-07         0.26077E-19         0.00000E+00
    0.24733E-07         0.40978E-19         0.00000E+00
    0.24733E-07         0.42841E-19         0.00000E+00
    0.24733E-07         0.35748E-19         0.00000E+00
    0.24733E-07         0.29802E-19         0.00000E+00
    0.24733E-07         0.21994E-19         0.00000E+00
    0.24733E-07         0.87401E-20         0.00000E+00
    0.24733E-07         0.55879E-20         0.00000E+00
    0.24733E-07        -0.12895E-20         0.00000E+00
    0.24733E-07        -0.37253E-20         0.00000E+00
    0.24733E-07         0.31522E-20         0.00000E+00
    0.24733E-07        -0.18626E-20         0.00000E+00
    0.24733E-07         0.11463E-20         0.00000E+00
    0.25476E-07         0.74506E-20         0.00000E+00
    0.25476E-07        -0.18626E-20         0.00000E+00
    0.25476E-07        -0.55879E-20         0.00000E+00
    0.25476E-07         0.55879E-20         0.00000E+00
    0.25476E-07         0.13764E-19         0.00000E+00
    0.25476E-07         0.74506E-20         0.00000E+00
    0.25476E-07        -0.25885E-20         0.00000E+00
    0.25476E-07         0.18626E-20         0.00000E+00
    0.25476E-07         0.18626E-20         0.00000E+00
    0.25476E-07         0.18626E-20         0.00000E+00
    0.25476E-07         0.55879E-20         0.00000E+00
    0.25476E-07         0.11176E-19         0.00000E+00
    0.25476E-07         0.24214E-19         0.00000E+00
    0.25476E-07         0.20489E-19         0.00000E+00
    0.25476E-07         0.11176E-19         0.00000E+00
    0.25476E-07         0.11176E-19         0.00000E+00
    0.25476E-07         0.16764E-19         0.00000E+00
    0.25476E-07         0.26077E-19         0.00000E+00
    0.25476E-07         0.16764E-19         0.00000E+00
    0.25476E-07         0.13039E-19         0.00000E+00
    0.25476E-07         0.24214E-19         0.00000E+00
    0.25476E-07         0.20489E-19         0.00000E+00
    0.25476E-07        -0.55879E-20         0.00000E+00
    0.25476E-07        -0.13039E-19         0.00000E+00
    0.25476E-07         0.93132E-20         0.00000E+00
    0.25476E-07         0.13039E-19         0.00000E+00
    0.25476E-07         0.11176E-19         0.00000E+00
    0.25476E-07         0.55879E-20         0.00000E+00
    0.25476E-07         0.00000E+00         0.00000E+00
    0.25476E-07         0.74506E-20         0.00000E+00
    0.25476E-07         0.55879E-20         0.00000E+00
    0.25476E-07        -0.74506E-20         0.00000E+00
    0.25476E-07        -0.74506E-20         0.00000E+00
    0.25476E-07         0.74506E-20         0.00000E+00
    0.25476E-07         0.26077E-19         0.00000E+00
    0.25476E-07         0.31665E-19         0.00000E+00
    0.25476E-07         0.93132E-20         0.00000E+00
    0.25476E-07        -0.37253E-20         0.00000E+00
    0.25476E-07        -0.18626E-20         0.00000E+00
    0.25476E-07         0.18626E-20         0.00000E+00
    0.25476E-07         0.13039E-19         0.00000E+00
    0.25476E-07         0.22352E-19         0.00000E+00
    0.25476E-07         0.22352E-19         0.00000E+00
    0.25476E-07         0.14696E-19         0.00000E+00
    0.25476E-07         0.93132E-20         0.00000E+00
    0.25476E-07         0.76561E-20         0.00000E+00
    0.25476E-07         0.10970E-19         0.00000E+00
    0.25476E-07         0.16558E-19         0.00000E+00
    0.25476E-07         0.11176E-19         0.00000E+00
    0.25476E-07         0.20681E-20         0.00000E+00
    0.25476E-07         0.41100E-21         0.00000E+00
    0.26311E-07        -0.16414E-19         0.00000E+00
    0.26311E-07        -0.13039E-19         0.00000E+00
    0.26311E-07        -0.85566E-20         0.00000E+00
    0.26311E-07         0.00000E+00         0.00000E+00
    0.26311E-07         0.85566E-20         0.00000E+00
    0.26311E-07        -0.18626E-20         0.00000E+00
    0.26311E-07        -0.55879E-20         0.00000E+00
    0.26311E-07        -0.97940E-33         0.00000E+00
    0.26311E-07        -0.55879E-20         0.00000E+00
    0.26311E-07        -0.14901E-19         0.00000E+00
    0.26311E-07        -0.74506E-20         0.00000E+00
    0.26311E-07         0.37253E-20         0.00000E+00
    0.26311E-07        -0.29686E-20         0.00000E+00
    0.26311E-07         0.13039E-19         0.00000E+00
    0.26311E-07         0.26077E-19         0.00000E+00
    0.26311E-07         0.20489E-19         0.00000E+00
    0.26311E-07         0.16764E-19         0.00000E+00
    0.26311E-07         0.11176E-19         0.00000E+00
    0.26311E-07         0.17870E-19         0.00000E+00
    0.26311E-07         0.20489E-19         0.00000E+00
    0.26311E-07         0.21246E-19         0.00000E+00
    0.26311E-07         0.20489E-19         0.00000E+00
    0.26311E-07         0.20489E-19         0.00000E+00
    0.26311E-07         0.18626E-19         0.00000E+00
    0.26311E-07         0.11176E-19         0.00000E+00
    0.26311E-07         0.18626E-19         0.00000E+00
    0.26311E-07         0.24214E-19         0.00000E+00
    0.26311E-07         0.13039E-19         0.00000E+00
    0.26311E-07        -0.18626E-20         0.00000E+00
    0.26311E-07        -0.13039E-19         0.00000E+00
    0.26311E-07        -0.74506E-20         0.00000E+00
    0.26311E-07         0.18626E-19         0.00000E+00
    0.26311E-07         0.24214E-19         0.00000E+00
    0.26311E-07         0.13039E-19         0.00000E+00
    0.26311E-07        -0.18626E-20         0.00000E+00
    0.26311E-07        -0.55879E-20         0.00000E+00
    0.26311E-07        -0.55879E-20         0.00000E+00
    0.26311E-07        -0.20489E-19         0.00000E+00
    0.26311E-07        -0.37253E-20         0.00000E+00
    0.26311E-07         0.14901E-19         0.00000E+00
    0.26311E-07         0.11176E-19         0.00000E+00
    0.26311E-07         0.37253E-20         0.00000E+00
    0.26311E-07        -0.75664E-21         0.00000E+00
    0.26311E-07         0.74506E-20         0.00000E+00
    0.26311E-07         0.63446E-20         0.00000E+00
    0.26311E-07        -0.37253E-20         0.00000E+00
    0.26311E-07        -0.82072E-20         0.00000E+00
    0.26311E-07        -0.93132E-20         0.00000E+00
    0.26311E-07        -0.66939E-20         0.00000E+00
    0.26311E-07        -0.18626E-20         0.00000E+00
    0.26311E-07         0.00000E+00         0.00000E+00
    0.27240E-07         0.16039E-19         0.00000E+00
    0.27240E-07         0.15470E-19         0.00000E+00
    0.27240E-07         0.74506E-20         0.00000E+00
    0.27240E-07        -0.80193E-20         0.00000E+00
    0.27240E-07        -0.16764E-19         0.00000E+00
    0.27240E-07        -0.17695E-19         0.00000E+00
    0.27240E-07        -0.12107E-19         0.00000E+00
    0.27240E-07        -0.68819E-20         0.00000E+00
    0.27240E-07         0.87445E-20         0.00000E+00
    0.27240E-07         0.19920E-19         0.00000E+00
    0.27240E-07         0.13039E-19         0.00000E+00
    0.27240E-07         0.11745E-19         0.00000E+00
    0.27240E-07         0.14901E-19         0.00000E+00
    0.27240E-07        -0.24314E-20         0.00000E+00
    0.27240E-07        -0.74506E-20         0.00000E+00
    0.27240E-07         0.24314E-20         0.00000E+00
    0.27240E-07         0.93132E-20         0.00000E+00
    0.27240E-07         0.22352E-19         0.00000E+00
    0.27240E-07         0.28508E-19         0.00000E+00
    0.27240E-07         0.23646E-19         0.00000E+00
    0.27240E-07         0.14332E-19         0.00000E+00
    0.27240E-07         0.16764E-19         0.00000E+00
    0.27240E-07         0.14901E-19         0.00000E+00
    0.27240E-07         0.16764E-19         0.00000E+00
    0.27240E-07         0.24214E-19         0.00000E+00
    0.27240E-07         0.55879E-20         0.00000E+00
    0.27240E-07        -0.37253E-20         0.00000E+00
    0.27240E-07         0.00000E+00         0.00000E+00
    0.27240E-07         0.15000E-20         0.00000E+00
    0.27240E-07         0.13970E-19         0.00000E+00
    0.27240E-07         0.11176E-19         0.00000E+00
    0.27240E-07         0.27940E-20         0.00000E+00
    0.27240E-07        -0.93132E-21         0.00000E+00
    0.27240E-07        -0.18626E-20         0.00000E+00
    0.27240E-07        -0.80193E-20         0.00000E+00
    0.27240E-07        -0.22714E-19         0.00000E+00
    0.27240E-07        -0.18989E-19         0.00000E+00
    0.27240E-07        -0.37253E-20         0.00000E+00
    0.27240E-07        -0.80193E-20         0.00000E+00
    0.27240E-07        -0.19195E-19         0.00000E+00
    0.27240E-07        -0.11176E-19         0.00000E+00
    0.27240E-07         0.74506E-20         0.00000E+00
    0.27240E-07         0.18626E-19         0.00000E+00
    0.27240E-07         0.14901E-19         0.00000E+00
    0.27240E-07         0.18626E-20         0.00000E+00
    0.27240E-07        -0.12939E-20         0.00000E+00
    0.27240E-07         0.27940E-20         0.00000E+00
    0.27240E-07        -0.93132E-21         0.00000E+00
    0.27240E-07        -0.40879E-20         0.00000E+00
    0.27240E-07        -0.10813E-19         0.00000E+00
    0.27240E-07        -0.10451E-19         0.00000E+00
    0.28262E-07        -0.13132E-19         0.00000E+00
    0.28262E-07        -0.24214E-19         0.00000E+00
    0.28262E-07        -0.28824E-19         0.00000E+00
    0.28262E-07        -0.19604E-19         0.00000E+00
    0.28262E-07        -0.11176E-19         0.00000E+00
    0.28262E-07         0.65659E-20         0.00000E+00
    0.28262E-07         0.13039E-19         0.00000E+00
    0.28262E-07        -0.18626E-20         0.00000E+00
    0.28262E-07        -0.28406E-20         0.00000E+00
    0.28262E-07         0.12061E-19         0.00000E+00
    0.28262E-07         0.19604E-19         0.00000E+00
    0.28262E-07         0.14901E-19         0.00000E+00
    0.28262E-07        -0.47659E-33         0.00000E+00
    0.28262E-07        -0.55879E-20         0.00000E+00
    0.28262E-07        -0.28406E-20         0.00000E+00
    0.28262E-07        -0.18626E-20         0.00000E+00
    0.28262E-07         0.74506E-20         0.00000E+00
    0.28262E-07         0.84285E-20         0.00000E+00
    0.28262E-07        -0.88472E-21         0.00000E+00
    0.28262E-07        -0.55879E-20         0.00000E+00
    0.28262E-07        -0.84285E-20         0.00000E+00
    0.28262E-07        -0.47032E-20         0.00000E+00
    0.28262E-07         0.74506E-20         0.00000E+00
    0.28262E-07         0.14901E-19         0.00000E+00
    0.28262E-07         0.17742E-19         0.00000E+00
    0.28262E-07         0.22352E-19         0.00000E+00
    0.28262E-07         0.12061E-19         0.00000E+00
    0.28262E-07         0.00000E+00         0.00000E+00
    0.28262E-07         0.00000E+00         0.00000E+00
    0.28262E-07        -0.37253E-20         0.00000E+00
    0.28262E-07        -0.93132E-20         0.00000E+00
    0.28262E-07        -0.74506E-20         0.00000E+00
    0.28262E-07        -0.13039E-19         0.00000E+00
    0.28262E-07        -0.12061E-19         0.00000E+00
    0.28262E-07         0.93132E-20         0.00000E+00
    0.28262E-07         0.15786E-19         0.00000E+00
    0.28262E-07         0.97793E-21         0.00000E+00
    0.28262E-07        -0.93132E-20         0.00000E+00
    0.28262E-07        -0.55879E-20         0.00000E+00
    0.28262E-07        -0.18626E-20         0.00000E+00
    0.28262E-07         0.55879E-20         0.00000E+00
    0.28262E-07         0.55879E-20         0.00000E+00
    0.28262E-07        -0.65659E-20         0.00000E+00
    0.28262E-07        -0.12061E-19         0.00000E+00
    0.28262E-07        -0.55879E-20         0.00000E+00
    0.28262E-07         0.27474E-20         0.00000E+00
    0.28262E-07        -0.46100E-20         0.00000E+00
    0.28262E-07        -0.74506E-20         0.00000E+00
    0.28262E-07         0.27474E-20         0.00000E+00
    0.28262E-07         0.10291E-19         0.00000E+00
    0.28262E-07         0.13132E-19         0.00000E+00
    0.29375E-07         0.00000E+00         0.00000E+00
    0.29375E-07         0.14429E-19         0.00000E+00
    0.29375E-07         0.18626E-19         0.00000E+00
    0.29375E-07         0.23349E-20         0.00000E+00
    0.29375E-07        -0.74506E-20         0.00000E+00
    0.29375E-07        -0.22352E-19         0.00000E+00
    0.29375E-07        -0.20489E-19         0.00000E+00
    0.29375E-07        -0.23349E-20         0.00000E+00
    0.29375E-07        -0.16764E-19         0.00000E+00
    0.29375E-07        -0.33528E-19         0.00000E+00
    0.29375E-07        -0.24687E-19         0.00000E+00
    0.29375E-07        -0.14901E-19         0.00000E+00
    0.29375E-07         0.00000E+00         0.00000E+00
    0.29375E-07         0.14901E-19         0.00000E+00
    0.29375E-07         0.15373E-19         0.00000E+00
    0.29375E-07         0.16764E-19         0.00000E+00
    0.29375E-07         0.37253E-20         0.00000E+00
    0.29375E-07        -0.51157E-20         0.00000E+00
    0.29375E-07         0.13039E-19         0.00000E+00
    0.29375E-07         0.24214E-19         0.00000E+00
    0.29375E-07         0.18154E-19         0.00000E+00
    0.29375E-07         0.88409E-20         0.00000E+00
    0.29375E-07        -0.37253E-20         0.00000E+00
    0.29375E-07        -0.55879E-20         0.00000E+00
    0.29375E-07         0.32662E-20         0.00000E+00
    0.29375E-07         0.13970E-19         0.00000E+00
    0.29375E-07         0.12566E-19         0.00000E+00
    0.29375E-07        -0.32530E-20         0.00000E+00
    0.29375E-07        -0.18626E-20         0.00000E+00
    0.29375E-07         0.46566E-20         0.00000E+00
    0.29375E-07        -0.27940E-20         0.00000E+00
    0.29375E-07        -0.41976E-20         0.00000E+00
    0.29375E-07        -0.32530E-20         0.00000E+00
    0.29375E-07        -0.93132E-20         0.00000E+00
    0.29375E-07        -0.13511E-19         0.00000E+00
    0.29375E-07        -0.79096E-20         0.00000E+00
    0.29375E-07         0.12107E-19         0.00000E+00
    0.29375E-07         0.19558E-19         0.00000E+00
    0.29375E-07         0.51289E-20         0.00000E+00
    0.29375E-07        -0.47228E-21         0.00000E+00
    0.29375E-07        -0.65193E-20         0.00000E+00
    0.29375E-07        -0.97723E-20         0.00000E+00
    0.29375E-07         0.18626E-20         0.00000E+00
    0.29375E-07        -0.10717E-19         0.00000E+00
    0.29375E-07        -0.23755E-19         0.00000E+00
    0.29375E-07        -0.11176E-19         0.00000E+00
    0.29375E-07        -0.13498E-19         0.00000E+00
    0.29375E-07        -0.11176E-19         0.00000E+00
    0.29375E-07        -0.37253E-20         0.00000E+00
    0.29375E-07        -0.13498E-19         0.00000E+00
    0.29375E-07        -0.18626E-19         0.00000E+00
    0.30579E-07         0.00000E+00         0.00000E+00
    0.30579E-07        -0.74506E-20         0.00000E+00
    0.30579E-07        -0.10229E-19         0.00000E+00
    0.30579E-07         0.00000E+00         0.00000E+00
    0.30579E-07         0.91570E-21         0.00000E+00
    0.30579E-07        -0.74506E-20         0.00000E+00
    0.30579E-07        -0.14901E-19         0.00000E+00
    0.30579E-07        -0.20489E-19         0.00000E+00
    0.30579E-07        -0.55879E-20         0.00000E+00
    0.30579E-07         0.93132E-20         0.00000E+00
    0.30579E-07         0.15623E-22         0.00000E+00
    0.30579E-07        -0.37253E-20         0.00000E+00
    0.30579E-07        -0.11191E-19         0.00000E+00
    0.30579E-07        -0.17680E-19         0.00000E+00
    0.30579E-07        -0.17695E-19         0.00000E+00
    0.30579E-07        -0.13970E-19         0.00000E+00
    0.30579E-07        -0.27783E-20         0.00000E+00
    0.30579E-07        -0.11191E-19         0.00000E+00
    0.30579E-07        -0.16779E-19         0.00000E+00
    0.30579E-07        -0.74506E-20         0.00000E+00
    0.30579E-07         0.13039E-19         0.00000E+00
    0.30579E-07         0.17711E-19         0.00000E+00
    0.30579E-07         0.10260E-19         0.00000E+00
    0.30579E-07         0.13039E-19         0.00000E+00
    0.30579E-07         0.83663E-20         0.00000E+00
    0.30579E-07         0.13039E-19         0.00000E+00
    0.30579E-07         0.10260E-19         0.00000E+00
    0.30579E-07         0.11176E-19         0.00000E+00
    0.30579E-07         0.16764E-19         0.00000E+00
    0.30579E-07         0.15817E-19         0.00000E+00
    0.30579E-07         0.13954E-19         0.00000E+00
    0.30579E-07        -0.55723E-20         0.00000E+00
    0.30579E-07        -0.13970E-19         0.00000E+00
    0.30579E-07        -0.11887E-33         0.00000E+00
    0.30579E-07         0.11176E-19         0.00000E+00
    0.30579E-07         0.10229E-19         0.00000E+00
    0.30579E-07        -0.37253E-20         0.00000E+00
    0.30579E-07        -0.24199E-19         0.00000E+00
    0.30579E-07        -0.13023E-19         0.00000E+00
    0.30579E-07         0.65036E-20         0.00000E+00
    0.30579E-07         0.46410E-20         0.00000E+00
    0.30579E-07        -0.92976E-20         0.00000E+00
    0.30579E-07        -0.18611E-19         0.00000E+00
    0.30579E-07        -0.20489E-19         0.00000E+00
    0.30579E-07        -0.21436E-19         0.00000E+00
    0.30579E-07        -0.21436E-19         0.00000E+00
    0.30579E-07        -0.14901E-19         0.00000E+00
    0.30579E-07        -0.37253E-20         0.00000E+00
    0.30579E-07         0.00000E+00         0.00000E+00
    0.30579E-07         0.55879E-20         0.00000E+00
    0.30579E-07         0.11176E-19         0.00000E+00
    0.31872E-07        -0.74506E-20         0.00000E+00
    0.31872E-07        -0.97600E-20         0.00000E+00
    0.31872E-07        -0.60347E-20         0.00000E+00
    0.31872E-07        -0.70038E-20         0.00000E+00
    0.31872E-07        -0.10729E-19         0.00000E+00
    0.31872E-07        -0.23094E-20         0.00000E+00
    0.31872E-07        -0.44680E-21         0.00000E+00
    0.31872E-07        -0.14158E-20         0.00000E+00
    0.31872E-07        -0.51411E-20         0.00000E+00
    0.31872E-07        -0.55879E-20         0.00000E+00
    0.31872E-07         0.18626E-20         0.00000E+00
    0.31872E-07         0.93132E-20         0.00000E+00
    0.31872E-07         0.74506E-20         0.00000E+00
    0.31872E-07        -0.18626E-20         0.00000E+00
    0.31872E-07         0.00000E+00         0.00000E+00
    0.31872E-07        -0.55879E-20         0.00000E+00
    0.31872E-07        -0.20489E-19         0.00000E+00
    0.31872E-07        -0.13039E-19         0.00000E+00
    0.31872E-07        -0.32785E-20         0.00000E+00
    0.31872E-07        -0.55879E-20         0.00000E+00
    0.31872E-07        -0.23094E-20         0.00000E+00
    0.31872E-07         0.18626E-20         0.00000E+00
    0.31872E-07         0.37253E-20         0.00000E+00
    0.31872E-07         0.51411E-20         0.00000E+00
    0.31872E-07         0.14901E-19         0.00000E+00
    0.31872E-07         0.13485E-19         0.00000E+00
    0.31872E-07         0.74506E-20         0.00000E+00
    0.31872E-07         0.37253E-20         0.00000E+00
    0.31872E-07         0.74506E-20         0.00000E+00
    0.31872E-07         0.16764E-19         0.00000E+00
    0.31872E-07         0.93132E-20         0.00000E+00
    0.31872E-07         0.93132E-20         0.00000E+00
    0.31872E-07         0.74506E-20         0.00000E+00
    0.31872E-07        -0.11176E-19         0.00000E+00
    0.31872E-07        -0.14901E-19         0.00000E+00
    0.31872E-07        -0.70038E-20         0.00000E+00
    0.31872E-07        -0.18626E-20         0.00000E+00
    0.31872E-07        -0.23094E-20         0.00000E+00
    0.31872E-07        -0.11176E-19         0.00000E+00
    0.31872E-07        -0.14901E-19         0.00000E+00
    0.31872E-07        -0.12592E-19         0.00000E+00
    0.31872E-07        -0.11176E-19         0.00000E+00
    0.31872E-07        -0.12069E-19         0.00000E+00
    0.31872E-07        -0.16764E-19         0.00000E+00
    0.31872E-07        -0.12592E-19         0.00000E+00
    0.31872E-07        -0.93132E-20         0.00000E+00
    0.31872E-07        -0.20005E-19         0.00000E+00
    0.31872E-07        -0.15832E-19         0.00000E+00
    0.31872E-07        -0.70038E-20         0.00000E+00
    0.31872E-07        -0.74506E-20         0.00000E+00
    0.31872E-07        -0.11176E-19         0.00000E+00
    0.33252E-07         0.37253E-20         0.00000E+00
    0.33252E-07         0.93132E-20         0.00000E+00
    0.33252E-07         0.55879E-20         0.00000E+00
    0.33252E-07        -0.27921E-20         0.00000E+00
    0.33252E-07        -0.37253E-20         0.00000E+00
    0.33252E-07        -0.27958E-20         0.00000E+00
    0.33252E-07         0.10243E-19         0.00000E+00
    0.33252E-07         0.14901E-19         0.00000E+00
    0.33252E-07         0.13972E-19         0.00000E+00
    0.33252E-07         0.16764E-19         0.00000E+00
    0.33252E-07         0.37253E-20         0.00000E+00
    0.33252E-07         0.00000E+00         0.00000E+00
    0.33252E-07         0.74506E-20         0.00000E+00
    0.33252E-07         0.65211E-20         0.00000E+00
    0.33252E-07        -0.37253E-20         0.00000E+00
    0.33252E-07        -0.10246E-19         0.00000E+00
    0.33252E-07         0.00000E+00         0.00000E+00
    0.33252E-07         0.37253E-20         0.00000E+00
    0.33252E-07         0.37253E-20         0.00000E+00
    0.33252E-07         0.74506E-20         0.00000E+00
    0.33252E-07         0.37253E-20         0.00000E+00
    0.33252E-07        -0.65174E-20         0.00000E+00
    0.33252E-07        -0.37253E-20         0.00000E+00
    0.33252E-07         0.74506E-20         0.00000E+00
    0.33252E-07        -0.46343E-33         0.00000E+00
    0.33252E-07        -0.13039E-19         0.00000E+00
    0.33252E-07        -0.21419E-19         0.00000E+00
    0.33252E-07        -0.21422E-19         0.00000E+00
    0.33252E-07        -0.19560E-19         0.00000E+00
    0.33252E-07        -0.16764E-19         0.00000E+00
    0.33252E-07         0.00000E+00         0.00000E+00
    0.33252E-07         0.83838E-20         0.00000E+00
    0.33252E-07         0.15834E-19         0.00000E+00
    0.33252E-07         0.12105E-19         0.00000E+00
    0.33252E-07         0.92947E-21         0.00000E+00
    0.33252E-07        -0.55879E-20         0.00000E+00
    0.33252E-07        -0.55879E-20         0.00000E+00
    0.33252E-07        -0.18626E-20         0.00000E+00
    0.33252E-07        -0.93132E-20         0.00000E+00
    0.33252E-07        -0.14901E-19         0.00000E+00
    0.33252E-07        -0.93132E-20         0.00000E+00
    0.33252E-07        -0.37253E-20         0.00000E+00
    0.33252E-07        -0.74524E-20         0.00000E+00
    0.33252E-07        -0.74487E-20         0.00000E+00
    0.33252E-07        -0.10243E-19         0.00000E+00
    0.33252E-07        -0.65211E-20         0.00000E+00
    0.33252E-07        -0.55861E-20         0.00000E+00
    0.33252E-07        -0.14901E-19         0.00000E+00
    0.33252E-07        -0.18628E-19         0.00000E+00
    0.33252E-07        -0.93132E-20         0.00000E+00
    0.33252E-07        -0.37253E-20         0.00000E+00
    0.34719E-07         0.74506E-20         0.00000E+00
    0.34719E-07         0.74506E-20         0.00000E+00
    0.34719E-07         0.37253E-20         0.00000E+00
    0.34719E-07        -0.18626E-20         0.00000E+00
    0.34719E-07        -0.37253E-20         0.00000E+00
    0.34719E-07         0.00000E+00         0.00000E+00
    0.34719E-07         0.55879E-20         0.00000E+00
    0.34719E-07         0.15403E-19         0.00000E+00
    0.34719E-07         0.55879E-20         0.00000E+00
    0.34719E-07         0.55148E-20         0.00000E+00
    0.34719E-07         0.41544E-20         0.00000E+00
    0.34719E-07        -0.97423E-20         0.00000E+00
    0.34719E-07        -0.60170E-20         0.00000E+00
    0.34719E-07         0.18626E-20         0.00000E+00
    0.34719E-07         0.13039E-19         0.00000E+00
    0.34719E-07         0.13039E-19         0.00000E+00
    0.34719E-07         0.00000E+00         0.00000E+00
    0.34719E-07        -0.18626E-20         0.00000E+00
    0.34719E-07         0.00000E+00         0.00000E+00
    0.34719E-07        -0.18626E-20         0.00000E+00
    0.34719E-07         0.18626E-20         0.00000E+00
    0.34719E-07         0.74506E-20         0.00000E+00
    0.34719E-07        -0.18626E-20         0.00000E+00
    0.34719E-07        -0.74506E-20         0.00000E+00
    0.34719E-07        -0.41544E-20         0.00000E+00
    0.34719E-07        -0.37253E-20         0.00000E+00
    0.34719E-07        -0.10747E-19         0.00000E+00
    0.34719E-07        -0.16764E-19         0.00000E+00
    0.34719E-07        -0.11176E-19         0.00000E+00
    0.34719E-07        -0.55879E-20         0.00000E+00
    0.34719E-07         0.00000E+00         0.00000E+00
    0.34719E-07         0.11605E-19         0.00000E+00
    0.34719E-07         0.16764E-19         0.00000E+00
    0.34719E-07         0.70215E-20         0.00000E+00
    0.34719E-07         0.55879E-20         0.00000E+00
    0.34719E-07         0.74506E-20         0.00000E+00
    0.34719E-07         0.18626E-20         0.00000E+00
    0.34719E-07         0.00000E+00         0.00000E+00
    0.34719E-07        -0.18626E-20         0.00000E+00
    0.34719E-07        -0.11176E-19         0.00000E+00
    0.34719E-07        -0.20489E-19         0.00000E+00
    0.34719E-07        -0.17193E-19         0.00000E+00
    0.34719E-07        -0.14901E-19         0.00000E+00
    0.34719E-07        -0.12609E-19         0.00000E+00
    0.34719E-07        -0.37253E-20         0.00000E+00
    0.34719E-07         0.00000E+00         0.00000E+00
    0.34719E-07        -0.18626E-20         0.00000E+00
    0.34719E-07         0.55879E-20         0.00000E+00
    0.34719E-07         0.13039E-19         0.00000E+00
    0.34719E-07         0.60902E-20         0.00000E+00
    0.34719E-07        -0.27208E-20         0.00000E+00
    0.36269E-07        -0.37253E-20         0.00000E+00
    0.36269E-07        -0.37253E-20         0.00000E+00
    0.36269E-07         0.55879E-20         0.00000E+00
    0.36269E-07         0.93132E-20         0.00000E+00
    0.36269E-07         0.66169E-20         0.00000E+00
    0.36269E-07         0.37253E-20         0.00000E+00
    0.36269E-07        -0.28916E-20         0.00000E+00
    0.36269E-07        -0.12205E-19         0.00000E+00
    0.36269E-07        -0.65193E-20         0.00000E+00
    0.36269E-07        -0.18626E-20         0.00000E+00
    0.36269E-07        -0.37253E-20         0.00000E+00
    0.36269E-07         0.94109E-20         0.00000E+00
    0.36269E-07         0.11176E-19         0.00000E+00
    0.36269E-07         0.55879E-20         0.00000E+00
    0.36269E-07        -0.55879E-20         0.00000E+00
    0.36269E-07        -0.92156E-20         0.00000E+00
    0.36269E-07         0.18626E-20         0.00000E+00
    0.36269E-07         0.37253E-20         0.00000E+00
    0.36269E-07         0.65193E-20         0.00000E+00
    0.36269E-07         0.26963E-20         0.00000E+00
    0.36269E-07        -0.37253E-20         0.00000E+00
    0.36269E-07         0.00000E+00         0.00000E+00
    0.36269E-07         0.93132E-20         0.00000E+00
    0.36269E-07         0.11176E-19         0.00000E+00
    0.36269E-07         0.47542E-20         0.00000E+00
    0.36269E-07        -0.38229E-20         0.00000E+00
    0.36269E-07        -0.75482E-20         0.00000E+00
    0.36269E-07        -0.26963E-20         0.00000E+00
    0.36269E-07         0.00000E+00         0.00000E+00
    0.36269E-07         0.18626E-20         0.00000E+00
    0.36269E-07         0.11176E-19         0.00000E+00
    0.36269E-07         0.55879E-20         0.00000E+00
    0.36269E-07        -0.18626E-20         0.00000E+00
    0.36269E-07         0.66169E-20         0.00000E+00
    0.36269E-07         0.00000E+00         0.00000E+00
    0.36269E-07        -0.66169E-20         0.00000E+00
    0.36269E-07         0.00000E+00         0.00000E+00
    0.36269E-07        -0.37253E-20         0.00000E+00
    0.36269E-07        -0.37253E-20         0.00000E+00
    0.36269E-07         0.00000E+00         0.00000E+00
    0.36269E-07        -0.18626E-20         0.00000E+00
    0.36269E-07         0.37253E-20         0.00000E+00
    0.36269E-07         0.37253E-20         0.00000E+00
    0.36269E-07         0.19603E-20         0.00000E+00
    0.36269E-07        -0.18626E-20         0.00000E+00
    0.36269E-07         0.16674E-20         0.00000E+00
    0.36269E-07         0.65193E-20         0.00000E+00
    0.36269E-07        -0.92156E-20         0.00000E+00
    0.36269E-07        -0.93132E-20         0.00000E+00
    0.36269E-07         0.97634E-22         0.00000E+00
    0.36269E-07         0.19527E-21         0.00000E+00
    0.37899E-07         0.11176E-19         0.00000E+00
    0.37899E-07         0.18626E-20         0.00000E+00
    0.37899E-07         0.25107E-20         0.00000E+00
    0.37899E-07         0.15549E-19         0.00000E+00
    0.37899E-07         0.13039E-19         0.00000E+00
    0.37899E-07         0.37253E-20         0.00000E+00
    0.37899E-07        -0.64808E-21         0.00000E+00
    0.37899E-07        -0.31588E-20         0.00000E+00
    0.37899E-07        -0.62360E-20         0.00000E+00
    0.37899E-07        -0.49399E-20         0.00000E+00
    0.37899E-07        -0.49399E-20         0.00000E+00
    0.37899E-07        -0.74506E-20         0.00000E+00
    0.37899E-07        -0.37253E-20         0.00000E+00
    0.37899E-07         0.12390E-19         0.00000E+00
    0.37899E-07         0.16764E-19         0.00000E+00
    0.37899E-07         0.62360E-20         0.00000E+00
    0.37899E-07         0.37253E-20         0.00000E+00
    0.37899E-07         0.10893E-19         0.00000E+00
    0.37899E-07         0.74506E-20         0.00000E+00
    0.37899E-07         0.21459E-20         0.00000E+00
    0.37899E-07         0.74506E-20         0.00000E+00
    0.37899E-07         0.11176E-19         0.00000E+00
    0.37899E-07         0.34420E-20         0.00000E+00
    0.37899E-07        -0.46566E-20         0.00000E+00
    0.37899E-07        -0.74506E-20         0.00000E+00
    0.37899E-07        -0.99613E-20         0.00000E+00
    0.37899E-07        -0.43734E-20         0.00000E+00
    0.37899E-07         0.10609E-19         0.00000E+00
    0.37899E-07         0.46566E-20         0.00000E+00
    0.37899E-07        -0.15794E-20         0.00000E+00
    0.37899E-07        -0.37253E-20         0.00000E+00
    0.37899E-07         0.37253E-20         0.00000E+00
    0.37899E-07         0.74506E-20         0.00000E+00
    0.37899E-07         0.74506E-20         0.00000E+00
    0.37899E-07         0.37253E-20         0.00000E+00
    0.37899E-07         0.00000E+00         0.00000E+00
    0.37899E-07         0.18626E-20         0.00000E+00
    0.37899E-07         0.55879E-20         0.00000E+00
    0.37899E-07         0.18626E-20         0.00000E+00
    0.37899E-07         0.00000E+00         0.00000E+00
    0.37899E-07         0.93132E-20         0.00000E+00
    0.37899E-07         0.95965E-20         0.00000E+00
    0.37899E-07         0.18626E-20         0.00000E+00
    0.37899E-07        -0.21459E-20         0.00000E+00
    0.37899E-07        -0.28325E-21         0.00000E+00
    0.37899E-07         0.71673E-20         0.00000E+00
    0.37899E-07         0.13039E-19         0.00000E+00
    0.37899E-07         0.22635E-19         0.00000E+00
    0.37899E-07         0.22635E-19         0.00000E+00
    0.37899E-07         0.10893E-19         0.00000E+00
    0.37899E-07        -0.42918E-20         0.00000E+00
    0.39607E-07         0.24467E-20         0.00000E+00
    0.39607E-07         0.74506E-20         0.00000E+00
    0.39607E-07         0.15540E-19         0.00000E+00
    0.39607E-07         0.93132E-20         0.00000E+00
    0.39607E-07         0.12233E-20         0.00000E+00
    0.39607E-07         0.18626E-20         0.00000E+00
    0.39607E-07         0.62273E-20         0.00000E+00
    0.39607E-07         0.93132E-20         0.00000E+00
    0.39607E-07         0.16124E-19         0.00000E+00
    0.39607E-07         0.14901E-19         0.00000E+00
    0.39607E-07         0.37253E-20         0.00000E+00
    0.39607E-07         0.18626E-20         0.00000E+00
    0.39607E-07        -0.12233E-20         0.00000E+00
    0.39607E-07        -0.55879E-20         0.00000E+00
    0.39607E-07         0.00000E+00         0.00000E+00
    0.39607E-07         0.14901E-19         0.00000E+00
    0.39607E-07         0.11176E-19         0.00000E+00
    0.39607E-07         0.37253E-20         0.00000E+00
    0.39607E-07         0.49486E-20         0.00000E+00
    0.39607E-07         0.18626E-20         0.00000E+00
    0.39607E-07        -0.30860E-20         0.00000E+00
    0.39607E-07        -0.93132E-20         0.00000E+00
    0.39607E-07        -0.20489E-19         0.00000E+00
    0.39607E-07        -0.12399E-19         0.00000E+00
    0.39607E-07         0.58799E-20         0.00000E+00
    0.39607E-07         0.93132E-20         0.00000E+00
    0.39607E-07         0.12747E-19         0.00000E+00
    0.39607E-07         0.12399E-19         0.00000E+00
    0.39607E-07         0.74506E-20         0.00000E+00
    0.39607E-07         0.13039E-19         0.00000E+00
    0.39607E-07         0.14901E-19         0.00000E+00
    0.39607E-07         0.14901E-19         0.00000E+00
    0.39607E-07         0.93132E-20         0.00000E+00
    0.39607E-07         0.00000E+00         0.00000E+00
    0.39607E-07         0.93132E-20         0.00000E+00
    0.39607E-07         0.17987E-19         0.00000E+00
    0.39607E-07         0.20489E-19         0.00000E+00
    0.39607E-07         0.19266E-19         0.00000E+00
    0.39607E-07         0.21712E-19         0.00000E+00
    0.39607E-07         0.11176E-19         0.00000E+00
    0.39607E-07         0.00000E+00         0.00000E+00
    0.39607E-07         0.37253E-20         0.00000E+00
    0.39607E-07         0.62273E-20         0.00000E+00
    0.39607E-07         0.11176E-19         0.00000E+00
    0.39607E-07         0.19850E-19         0.00000E+00
    0.39607E-07         0.16764E-19         0.00000E+00
    0.39607E-07         0.43646E-20         0.00000E+00
    0.39607E-07         0.11176E-19         0.00000E+00
    0.39607E-07         0.19850E-19         0.00000E+00
    0.39607E-07         0.12399E-19         0.00000E+00
    0.39607E-07         0.74506E-20         0.00000E+00
    0.41389E-07        -0.37253E-20         0.00000E+00
    0.41389E-07         0.18626E-20         0.00000E+00
    0.41389E-07         0.27557E-20         0.00000E+00
    0.41389E-07        -0.28322E-20         0.00000E+00
    0.41389E-07        -0.18626E-20         0.00000E+00
    0.41389E-07         0.38228E-22         0.00000E+00
    0.41389E-07        -0.18626E-20         0.00000E+00
    0.41389E-07        -0.55879E-20         0.00000E+00
    0.41389E-07        -0.18588E-19         0.00000E+00
    0.41389E-07        -0.13039E-19         0.00000E+00
    0.41389E-07         0.00000E+00         0.00000E+00
    0.41389E-07         0.55879E-20         0.00000E+00
    0.41389E-07         0.37253E-20         0.00000E+00
    0.41389E-07         0.18626E-20         0.00000E+00
    0.41389E-07         0.00000E+00         0.00000E+00
    0.41389E-07        -0.37253E-20         0.00000E+00
    0.41389E-07        -0.11176E-19         0.00000E+00
    0.41389E-07        -0.13077E-19         0.00000E+00
    0.41389E-07        -0.93515E-20         0.00000E+00
    0.41389E-07        -0.92750E-20         0.00000E+00
    0.41389E-07        -0.74506E-20         0.00000E+00
    0.41389E-07        -0.11214E-19         0.00000E+00
    0.41389E-07         0.00000E+00         0.00000E+00
    0.41389E-07         0.76455E-22         0.00000E+00
    0.41389E-07         0.93132E-20         0.00000E+00
    0.41389E-07         0.30695E-19         0.00000E+00
    0.41389E-07         0.24214E-19         0.00000E+00
    0.41389E-07         0.46184E-20         0.00000E+00
    0.41389E-07         0.96955E-21         0.00000E+00
    0.41389E-07         0.46948E-20         0.00000E+00
    0.41389E-07         0.93132E-20         0.00000E+00
    0.41389E-07         0.16764E-19         0.00000E+00
    0.41389E-07         0.29802E-19         0.00000E+00
    0.41389E-07         0.33528E-19         0.00000E+00
    0.41389E-07         0.26077E-19         0.00000E+00
    0.41389E-07         0.24176E-19         0.00000E+00
    0.41389E-07         0.22352E-19         0.00000E+00
    0.41389E-07         0.26115E-19         0.00000E+00
    0.41389E-07         0.22352E-19         0.00000E+00
    0.41389E-07         0.16764E-19         0.00000E+00
    0.41389E-07         0.22352E-19         0.00000E+00
    0.41389E-07         0.16764E-19         0.00000E+00
    0.41389E-07         0.14863E-19         0.00000E+00
    0.41389E-07        -0.53038E-34         0.00000E+00
    0.41389E-07         0.46566E-20         0.00000E+00
    0.41389E-07         0.17657E-19         0.00000E+00
    0.41389E-07         0.16764E-19         0.00000E+00
    0.41389E-07         0.11214E-19         0.00000E+00
    0.41389E-07        -0.36871E-20         0.00000E+00
    0.41389E-07        -0.56262E-20         0.00000E+00
    0.41389E-07        -0.38017E-20         0.00000E+00
    0.43241E-07         0.00000E+00         0.00000E+00
    0.43241E-07        -0.59296E-20         0.00000E+00
    0.43241E-07        -0.74506E-20         0.00000E+00
    0.43241E-07        -0.52463E-20         0.00000E+00
    0.43241E-07         0.33836E-20         0.00000E+00
    0.43241E-07         0.12697E-19         0.00000E+00
    0.43241E-07         0.77922E-20         0.00000E+00
    0.43241E-07         0.55879E-20         0.00000E+00
    0.43241E-07         0.89716E-20         0.00000E+00
    0.43241E-07         0.59296E-20         0.00000E+00
    0.43241E-07        -0.37253E-20         0.00000E+00
    0.43241E-07        -0.59296E-20         0.00000E+00
    0.43241E-07        -0.89716E-20         0.00000E+00
    0.43241E-07        -0.33836E-20         0.00000E+00
    0.43241E-07         0.00000E+00         0.00000E+00
    0.43241E-07        -0.59296E-20         0.00000E+00
    0.43241E-07        -0.22043E-20         0.00000E+00
    0.43241E-07        -0.18626E-20         0.00000E+00
    0.43241E-07         0.00000E+00         0.00000E+00
    0.43241E-07         0.15243E-19         0.00000E+00
    0.43241E-07         0.18626E-19         0.00000E+00
    0.43241E-07         0.37253E-20         0.00000E+00
    0.43241E-07        -0.55879E-20         0.00000E+00
    0.43241E-07        -0.22043E-20         0.00000E+00
    0.43241E-07         0.74506E-20         0.00000E+00
    0.43241E-07         0.37253E-20         0.00000E+00
    0.43241E-07         0.00000E+00         0.00000E+00
    0.43241E-07         0.74506E-20         0.00000E+00
    0.43241E-07         0.13039E-19         0.00000E+00
    0.43241E-07         0.77922E-20         0.00000E+00
    0.43241E-07         0.74506E-20         0.00000E+00
    0.43241E-07         0.16764E-19         0.00000E+00
    0.43241E-07         0.14901E-19         0.00000E+00
    0.43241E-07         0.16422E-19         0.00000E+00
    0.43241E-07         0.26419E-19         0.00000E+00
    0.43241E-07         0.25146E-19         0.00000E+00
    0.43241E-07         0.20489E-19         0.00000E+00
    0.43241E-07         0.22352E-19         0.00000E+00
    0.43241E-07         0.30392E-19         0.00000E+00
    0.43241E-07         0.26419E-19         0.00000E+00
    0.43241E-07         0.11176E-19         0.00000E+00
    0.43241E-07         0.71089E-20         0.00000E+00
    0.43241E-07         0.40669E-20         0.00000E+00
    0.43241E-07         0.59296E-20         0.00000E+00
    0.43241E-07         0.43150E-20         0.00000E+00
    0.43241E-07         0.93132E-21         0.00000E+00
    0.43241E-07        -0.15210E-20         0.00000E+00
    0.43241E-07         0.15210E-20         0.00000E+00
    0.43241E-07         0.12107E-19         0.00000E+00
    0.43241E-07         0.83819E-20         0.00000E+00
    0.43241E-07        -0.68332E-21         0.00000E+00
    0.45159E-07         0.80785E-20         0.00000E+00
    0.45159E-07         0.46566E-20         0.00000E+00
    0.45159E-07         0.24800E-20         0.00000E+00
    0.45159E-07         0.86958E-20         0.00000E+00
    0.45159E-07         0.16146E-19         0.00000E+00
    0.45159E-07         0.13039E-19         0.00000E+00
    0.45159E-07         0.24800E-20         0.00000E+00
    0.45159E-07         0.46566E-20         0.00000E+00
    0.45159E-07         0.93132E-21         0.00000E+00
    0.45159E-07        -0.10558E-19         0.00000E+00
    0.45159E-07        -0.55879E-20         0.00000E+00
    0.45159E-07        -0.43427E-20         0.00000E+00
    0.45159E-07        -0.62053E-20         0.00000E+00
    0.45159E-07        -0.68332E-20         0.00000E+00
    0.45159E-07        -0.12453E-20         0.00000E+00
    0.45159E-07         0.12421E-19         0.00000E+00
    0.45159E-07         0.14284E-19         0.00000E+00
    0.45159E-07         0.55879E-20         0.00000E+00
    0.45159E-07        -0.18626E-20         0.00000E+00
    0.45159E-07         0.18626E-20         0.00000E+00
    0.45159E-07         0.37253E-20         0.00000E+00
    0.45159E-07         0.00000E+00         0.00000E+00
    0.45159E-07        -0.37253E-20         0.00000E+00
    0.45159E-07        -0.68332E-20         0.00000E+00
    0.45159E-07        -0.37253E-20         0.00000E+00
    0.45159E-07         0.37253E-20         0.00000E+00
    0.45159E-07         0.74506E-20         0.00000E+00
    0.45159E-07        -0.61738E-21         0.00000E+00
    0.45159E-07        -0.11176E-19         0.00000E+00
    0.45159E-07        -0.10558E-19         0.00000E+00
    0.45159E-07         0.18626E-20         0.00000E+00
    0.45159E-07         0.93132E-20         0.00000E+00
    0.45159E-07         0.16764E-19         0.00000E+00
    0.45159E-07         0.29185E-19         0.00000E+00
    0.45159E-07         0.29802E-19         0.00000E+00
    0.45159E-07         0.40978E-19         0.00000E+00
    0.45159E-07         0.46566E-19         0.00000E+00
    0.45159E-07         0.27940E-19         0.00000E+00
    0.45159E-07         0.11793E-19         0.00000E+00
    0.45159E-07         0.15519E-19         0.00000E+00
    0.45159E-07         0.16764E-19         0.00000E+00
    0.45159E-07         0.68332E-20         0.00000E+00
    0.45159E-07         0.93132E-20         0.00000E+00
    0.45159E-07         0.17381E-19         0.00000E+00
    0.45159E-07         0.19872E-19         0.00000E+00
    0.45159E-07         0.12421E-19         0.00000E+00
    0.45159E-07         0.24800E-20         0.00000E+00
    0.45159E-07        -0.31079E-20         0.00000E+00
    0.45159E-07        -0.99306E-20         0.00000E+00
    0.45159E-07        -0.11793E-19         0.00000E+00
    0.45159E-07        -0.74506E-20         0.00000E+00
    0.47137E-07         0.54544E-20         0.00000E+00
    0.47137E-07        -0.99807E-21         0.00000E+00
    0.47137E-07         0.99807E-21         0.00000E+00
    0.47137E-07         0.28607E-20         0.00000E+00
    0.47137E-07         0.00000E+00         0.00000E+00
    0.47137E-07         0.18626E-20         0.00000E+00
    0.47137E-07         0.27272E-20         0.00000E+00
    0.47137E-07         0.18626E-20         0.00000E+00
    0.47137E-07        -0.27272E-20         0.00000E+00
    0.47137E-07         0.45899E-20         0.00000E+00
    0.47137E-07         0.17628E-19         0.00000E+00
    0.47137E-07         0.13039E-19         0.00000E+00
    0.47137E-07         0.65860E-20         0.00000E+00
    0.47137E-07         0.55879E-20         0.00000E+00
    0.47137E-07        -0.55879E-20         0.00000E+00
    0.47137E-07        -0.12040E-19         0.00000E+00
    0.47137E-07         0.86458E-21         0.00000E+00
    0.47137E-07         0.12107E-19         0.00000E+00
    0.47137E-07         0.11243E-19         0.00000E+00
    0.47137E-07        -0.18626E-20         0.00000E+00
    0.47137E-07        -0.55879E-20         0.00000E+00
    0.47137E-07        -0.37253E-20         0.00000E+00
    0.47137E-07        -0.11176E-19         0.00000E+00
    0.47137E-07        -0.12174E-19         0.00000E+00
    0.47137E-07        -0.13970E-19         0.00000E+00
    0.47137E-07        -0.11109E-19         0.00000E+00
    0.47137E-07        -0.37253E-20         0.00000E+00
    0.47137E-07         0.00000E+00         0.00000E+00
    0.47137E-07        -0.18626E-20         0.00000E+00
    0.47137E-07        -0.18626E-20         0.00000E+00
    0.47137E-07         0.11176E-19         0.00000E+00
    0.47137E-07         0.24148E-19         0.00000E+00
    0.47137E-07         0.37253E-19         0.00000E+00
    0.47137E-07         0.38184E-19         0.00000E+00
    0.47137E-07         0.31665E-19         0.00000E+00
    0.47137E-07         0.19625E-19         0.00000E+00
    0.47137E-07         0.92465E-20         0.00000E+00
    0.47137E-07         0.36585E-20         0.00000E+00
    0.47137E-07         0.74506E-20         0.00000E+00
    0.47137E-07         0.93132E-20         0.00000E+00
    0.47137E-07         0.75173E-20         0.00000E+00
    0.47137E-07         0.93800E-20         0.00000E+00
    0.47137E-07         0.74506E-20         0.00000E+00
    0.47137E-07         0.37253E-20         0.00000E+00
    0.47137E-07        -0.18626E-20         0.00000E+00
    0.47137E-07        -0.37253E-20         0.00000E+00
    0.47137E-07        -0.55879E-20         0.00000E+00
    0.47137E-07        -0.19294E-20         0.00000E+00
    0.47137E-07        -0.66744E-22         0.00000E+00
    0.47137E-07        -0.17959E-20         0.00000E+00
    0.47137E-07        -0.73171E-20         0.00000E+00
    0.49172E-07         0.37253E-20         0.00000E+00
    0.49172E-07         0.74506E-20         0.00000E+00
    0.49172E-07         0.85331E-20         0.00000E+00
    0.49172E-07         0.27940E-20         0.00000E+00
    0.49172E-07        -0.20138E-20         0.00000E+00
    0.49172E-07        -0.93132E-20         0.00000E+00
    0.49172E-07        -0.16764E-19         0.00000E+00
    0.49172E-07        -0.16764E-19         0.00000E+00
    0.49172E-07        -0.93132E-20         0.00000E+00
    0.49172E-07        -0.37253E-20         0.00000E+00
    0.49172E-07        -0.55879E-20         0.00000E+00
    0.49172E-07         0.20138E-20         0.00000E+00
    0.49172E-07         0.94644E-20         0.00000E+00
    0.49172E-07         0.00000E+00         0.00000E+00
    0.49172E-07         0.45054E-20         0.00000E+00
    0.49172E-07         0.26428E-20         0.00000E+00
    0.49172E-07         0.00000E+00         0.00000E+00
    0.49172E-07         0.18626E-20         0.00000E+00
    0.49172E-07        -0.37253E-20         0.00000E+00
    0.49172E-07        -0.74506E-20         0.00000E+00
    0.49172E-07        -0.11176E-19         0.00000E+00
    0.49172E-07        -0.14901E-19         0.00000E+00
    0.49172E-07        -0.14901E-19         0.00000E+00
    0.49172E-07        -0.93132E-20         0.00000E+00
    0.49172E-07        -0.93132E-20         0.00000E+00
    0.49172E-07        -0.14901E-19         0.00000E+00
    0.49172E-07        -0.16764E-19         0.00000E+00
    0.49172E-07        -0.13039E-19         0.00000E+00
    0.49172E-07        -0.93132E-20         0.00000E+00
    0.49172E-07        -0.74506E-20         0.00000E+00
    0.49172E-07        -0.37253E-20         0.00000E+00
    0.49172E-07         0.48078E-20         0.00000E+00
    0.49172E-07         0.13970E-19         0.00000E+00
    0.49172E-07         0.14750E-19         0.00000E+00
    0.49172E-07         0.16764E-19         0.00000E+00
    0.49172E-07         0.20489E-19         0.00000E+00
    0.49172E-07         0.20489E-19         0.00000E+00
    0.49172E-07         0.11176E-19         0.00000E+00
    0.49172E-07         0.74506E-20         0.00000E+00
    0.49172E-07         0.13190E-19         0.00000E+00
    0.49172E-07         0.14901E-19         0.00000E+00
    0.49172E-07         0.14901E-19         0.00000E+00
    0.49172E-07         0.13190E-19         0.00000E+00
    0.49172E-07        -0.37253E-20         0.00000E+00
    0.49172E-07        -0.76017E-20         0.00000E+00
    0.49172E-07        -0.57391E-20         0.00000E+00
    0.49172E-07        -0.22201E-19         0.00000E+00
    0.49172E-07        -0.28871E-19         0.00000E+00
    0.49172E-07        -0.15984E-19         0.00000E+00
    0.49172E-07        -0.20138E-20         0.00000E+00
    0.49172E-07        -0.30234E-21         0.00000E+00
    0.51255E-07        -0.74506E-20         0.00000E+00
    0.51255E-07        -0.37253E-20         0.00000E+00
    0.51255E-07         0.55879E-20         0.00000E+00
    0.51255E-07         0.18626E-20         0.00000E+00
    0.51255E-07        -0.93132E-20         0.00000E+00
    0.51255E-07        -0.52488E-20         0.00000E+00
    0.51255E-07        -0.18626E-20         0.00000E+00
    0.51255E-07        -0.93132E-20         0.00000E+00
    0.51255E-07        -0.14901E-19         0.00000E+00
    0.51255E-07        -0.33913E-21         0.00000E+00
    0.51255E-07         0.14901E-19         0.00000E+00
    0.51255E-07         0.74506E-20         0.00000E+00
    0.51255E-07         0.00000E+00         0.00000E+00
    0.51255E-07         0.22018E-20         0.00000E+00
    0.51255E-07        -0.84692E-33         0.00000E+00
    0.51255E-07        -0.40644E-20         0.00000E+00
    0.51255E-07        -0.10837E-19         0.00000E+00
    0.51255E-07        -0.14901E-19         0.00000E+00
    0.51255E-07        -0.17103E-19         0.00000E+00
    0.51255E-07        -0.18626E-19         0.00000E+00
    0.51255E-07        -0.16764E-19         0.00000E+00
    0.51255E-07        -0.13039E-19         0.00000E+00
    0.51255E-07        -0.11176E-19         0.00000E+00
    0.51255E-07        -0.22352E-19         0.00000E+00
    0.51255E-07        -0.29802E-19         0.00000E+00
    0.51255E-07        -0.29463E-19         0.00000E+00
    0.51255E-07        -0.20489E-19         0.00000E+00
    0.51255E-07        -0.20828E-19         0.00000E+00
    0.51255E-07        -0.20489E-19         0.00000E+00
    0.51255E-07        -0.55879E-20         0.00000E+00
    0.51255E-07         0.74506E-20         0.00000E+00
    0.51255E-07         0.74506E-20         0.00000E+00
    0.51255E-07         0.11176E-19         0.00000E+00
    0.51255E-07         0.20489E-19         0.00000E+00
    0.51255E-07         0.14901E-19         0.00000E+00
    0.51255E-07         0.13039E-19         0.00000E+00
    0.51255E-07         0.18626E-19         0.00000E+00
    0.51255E-07         0.14901E-19         0.00000E+00
    0.51255E-07         0.93132E-20         0.00000E+00
    0.51255E-07         0.11176E-19         0.00000E+00
    0.51255E-07         0.22018E-20         0.00000E+00
    0.51255E-07        -0.10837E-19         0.00000E+00
    0.51255E-07        -0.11515E-19         0.00000E+00
    0.51255E-07        -0.55879E-20         0.00000E+00
    0.51255E-07        -0.13039E-19         0.00000E+00
    0.51255E-07        -0.18626E-19         0.00000E+00
    0.51255E-07        -0.15832E-19         0.00000E+00
    0.51255E-07        -0.96524E-20         0.00000E+00
    0.51255E-07        -0.18626E-20         0.00000E+00
    0.51255E-07         0.33862E-20         0.00000E+00
    0.51255E-07         0.67723E-20         0.00000E+00
    0.53383E-07         0.47185E-20         0.00000E+00
    0.53383E-07        -0.18626E-20         0.00000E+00
    0.53383E-07        -0.23592E-20         0.00000E+00
    0.53383E-07         0.00000E+00         0.00000E+00
    0.53383E-07        -0.37253E-20         0.00000E+00
    0.53383E-07        -0.55879E-20         0.00000E+00
    0.53383E-07        -0.55879E-20         0.00000E+00
    0.53383E-07        -0.55879E-20         0.00000E+00
    0.53383E-07        -0.74506E-20         0.00000E+00
    0.53383E-07        -0.74506E-20         0.00000E+00
    0.53383E-07        -0.37253E-20         0.00000E+00
    0.53383E-07         0.00000E+00         0.00000E+00
    0.53383E-07         0.55879E-20         0.00000E+00
    0.53383E-07         0.93132E-20         0.00000E+00
    0.53383E-07         0.00000E+00         0.00000E+00
    0.53383E-07        -0.55879E-20         0.00000E+00
    0.53383E-07         0.18626E-20         0.00000E+00
    0.53383E-07        -0.37253E-20         0.00000E+00
    0.53383E-07        -0.13039E-19         0.00000E+00
    0.53383E-07        -0.16764E-19         0.00000E+00
    0.53383E-07        -0.20489E-19         0.00000E+00
    0.53383E-07        -0.11176E-19         0.00000E+00
    0.53383E-07        -0.74506E-20         0.00000E+00
    0.53383E-07        -0.69540E-20         0.00000E+00
    0.53383E-07        -0.14901E-19         0.00000E+00
    0.53383E-07        -0.26077E-19         0.00000E+00
    0.53383E-07        -0.27940E-19         0.00000E+00
    0.53383E-07        -0.20986E-19         0.00000E+00
    0.53383E-07        -0.18626E-19         0.00000E+00
    0.53383E-07        -0.20489E-19         0.00000E+00
    0.53383E-07        -0.13039E-19         0.00000E+00
    0.53383E-07        -0.32287E-20         0.00000E+00
    0.53383E-07         0.19861E-33         0.00000E+00
    0.53383E-07         0.50914E-20         0.00000E+00
    0.53383E-07         0.11176E-19         0.00000E+00
    0.53383E-07         0.11176E-19         0.00000E+00
    0.53383E-07         0.93132E-20         0.00000E+00
    0.53383E-07         0.18626E-20         0.00000E+00
    0.53383E-07        -0.18626E-20         0.00000E+00
    0.53383E-07        -0.37253E-20         0.00000E+00
    0.53383E-07        -0.18626E-20         0.00000E+00
    0.53383E-07         0.00000E+00         0.00000E+00
    0.53383E-07        -0.55879E-20         0.00000E+00
    0.53383E-07        -0.18626E-19         0.00000E+00
    0.53383E-07        -0.26077E-19         0.00000E+00
    0.53383E-07        -0.21855E-19         0.00000E+00
    0.53383E-07        -0.15832E-19         0.00000E+00
    0.53383E-07        -0.88785E-20         0.00000E+00
    0.53383E-07         0.00000E+00         0.00000E+00
    0.53383E-07         0.50914E-20         0.00000E+00
    0.53383E-07         0.27321E-20         0.00000E+00
    0.55547E-07        -0.37253E-20         0.00000E+00
    0.55547E-07        -0.12396E-20         0.00000E+00
    0.55547E-07        -0.55879E-20         0.00000E+00
    0.55547E-07        -0.16764E-19         0.00000E+00
    0.55547E-07        -0.93132E-20         0.00000E+00
    0.55547E-07         0.31022E-20         0.00000E+00
    0.55547E-07         0.93132E-20         0.00000E+00
    0.55547E-07         0.11176E-19         0.00000E+00
    0.55547E-07         0.00000E+00         0.00000E+00
    0.55547E-07        -0.18626E-20         0.00000E+00
    0.55547E-07        -0.37253E-20         0.00000E+00
    0.55547E-07        -0.68275E-20         0.00000E+00
    0.55547E-07         0.40336E-20         0.00000E+00
    0.55547E-07         0.40336E-20         0.00000E+00
    0.55547E-07         0.62304E-21         0.00000E+00
    0.55547E-07         0.00000E+00         0.00000E+00
    0.55547E-07        -0.93132E-20         0.00000E+00
    0.55547E-07        -0.13039E-19         0.00000E+00
    0.55547E-07        -0.11176E-19         0.00000E+00
    0.55547E-07        -0.14901E-19         0.00000E+00
    0.55547E-07        -0.20489E-19         0.00000E+00
    0.55547E-07        -0.22352E-19         0.00000E+00
    0.55547E-07        -0.22352E-19         0.00000E+00
    0.55547E-07        -0.19866E-19         0.00000E+00
    0.55547E-07        -0.14901E-19         0.00000E+00
    0.55547E-07        -0.26077E-19         0.00000E+00
    0.55547E-07        -0.35390E-19         0.00000E+00
    0.55547E-07        -0.22975E-19         0.00000E+00
    0.55547E-07        -0.11176E-19         0.00000E+00
    0.55547E-07        -0.93132E-20         0.00000E+00
    0.55547E-07        -0.93132E-20         0.00000E+00
    0.55547E-07        -0.93132E-20         0.00000E+00
    0.55547E-07        -0.93132E-20         0.00000E+00
    0.55547E-07        -0.18626E-20         0.00000E+00
    0.55547E-07        -0.55879E-20         0.00000E+00
    0.55547E-07        -0.34170E-20         0.00000E+00
    0.55547E-07         0.11176E-19         0.00000E+00
    0.55547E-07         0.10868E-19         0.00000E+00
    0.55547E-07         0.11176E-19         0.00000E+00
    0.55547E-07         0.11176E-19         0.00000E+00
    0.55547E-07        -0.30828E-21         0.00000E+00
    0.55547E-07        -0.27940E-20         0.00000E+00
    0.55547E-07        -0.62304E-21         0.00000E+00
    0.55547E-07        -0.31022E-20         0.00000E+00
    0.55547E-07        -0.10245E-19         0.00000E+00
    0.55547E-07        -0.52797E-20         0.00000E+00
    0.55547E-07        -0.90049E-20         0.00000E+00
    0.55547E-07        -0.19866E-19         0.00000E+00
    0.55547E-07        -0.18312E-19         0.00000E+00
    0.55547E-07         0.15479E-20         0.00000E+00
    0.55547E-07         0.14272E-19         0.00000E+00
    0.57740E-07         0.37253E-20         0.00000E+00
    0.57740E-07         0.55879E-20         0.00000E+00
    0.57740E-07         0.76638E-20         0.00000E+00
    0.57740E-07         0.74506E-20         0.00000E+00
    0.57740E-07        -0.20758E-20         0.00000E+00
    0.57740E-07        -0.74506E-20         0.00000E+00
    0.57740E-07         0.35121E-20         0.00000E+00
    0.57740E-07         0.10245E-19         0.00000E+00
    0.57740E-07         0.85951E-20         0.00000E+00
    0.57740E-07         0.18626E-20         0.00000E+00
    0.57740E-07         0.00000E+00         0.00000E+00
    0.57740E-07         0.00000E+00         0.00000E+00
    0.57740E-07         0.00000E+00         0.00000E+00
    0.57740E-07        -0.11445E-20         0.00000E+00
    0.57740E-07         0.18626E-20         0.00000E+00
    0.57740E-07         0.93132E-21         0.00000E+00
    0.57740E-07        -0.37253E-20         0.00000E+00
    0.57740E-07        -0.12825E-19         0.00000E+00
    0.57740E-07        -0.14901E-19         0.00000E+00
    0.57740E-07        -0.18626E-19         0.00000E+00
    0.57740E-07        -0.29802E-19         0.00000E+00
    0.57740E-07        -0.33528E-19         0.00000E+00
    0.57740E-07        -0.16764E-19         0.00000E+00
    0.57740E-07        -0.11176E-19         0.00000E+00
    0.57740E-07        -0.26077E-19         0.00000E+00
    0.57740E-07        -0.31665E-19         0.00000E+00
    0.57740E-07        -0.27940E-19         0.00000E+00
    0.57740E-07        -0.20489E-19         0.00000E+00
    0.57740E-07        -0.14901E-19         0.00000E+00
    0.57740E-07        -0.74506E-20         0.00000E+00
    0.57740E-07         0.00000E+00         0.00000E+00
    0.57740E-07        -0.37253E-20         0.00000E+00
    0.57740E-07        -0.37253E-20         0.00000E+00
    0.57740E-07         0.00000E+00         0.00000E+00
    0.57740E-07        -0.18626E-20         0.00000E+00
    0.57740E-07        -0.74506E-20         0.00000E+00
    0.57740E-07        -0.67324E-20         0.00000E+00
    0.57740E-07        -0.48698E-20         0.00000E+00
    0.57740E-07        -0.25808E-20         0.00000E+00
    0.57740E-07         0.67324E-20         0.00000E+00
    0.57740E-07         0.74506E-20         0.00000E+00
    0.57740E-07         0.74506E-20         0.00000E+00
    0.57740E-07         0.11176E-19         0.00000E+00
    0.57740E-07         0.74506E-20         0.00000E+00
    0.57740E-07         0.00000E+00         0.00000E+00
    0.57740E-07        -0.93132E-20         0.00000E+00
    0.57740E-07        -0.93132E-20         0.00000E+00
    0.57740E-07        -0.37253E-20         0.00000E+00
    0.57740E-07        -0.55879E-20         0.00000E+00
    0.57740E-07        -0.63061E-20         0.00000E+00
    0.57740E-07        -0.14363E-20         0.00000E+00
    0.59955E-07         0.00000E+00         0.00000E+00
    0.59955E-07        -0.18626E-20         0.00000E+00
    0.59955E-07        -0.57376E-20         0.00000E+00
    0.59955E-07        -0.37253E-20         0.00000E+00
    0.59955E-07         0.20123E-20         0.00000E+00
    0.59955E-07         0.93132E-20         0.00000E+00
    0.59955E-07         0.13039E-19         0.00000E+00
    0.59955E-07         0.55879E-20         0.00000E+00
    0.59955E-07        -0.76003E-20         0.00000E+00
    0.59955E-07        -0.14901E-19         0.00000E+00
    0.59955E-07        -0.12889E-19         0.00000E+00
    0.59955E-07        -0.91636E-20         0.00000E+00
    0.59955E-07         0.18626E-20         0.00000E+00
    0.59955E-07         0.73009E-20         0.00000E+00
    0.59955E-07         0.55879E-20         0.00000E+00
    0.59955E-07         0.93132E-20         0.00000E+00
    0.59955E-07         0.00000E+00         0.00000E+00
    0.59955E-07        -0.16764E-19         0.00000E+00
    0.59955E-07        -0.27940E-19         0.00000E+00
    0.59955E-07        -0.29802E-19         0.00000E+00
    0.59955E-07        -0.18626E-19         0.00000E+00
    0.59955E-07        -0.11176E-19         0.00000E+00
    0.59955E-07        -0.16764E-19         0.00000E+00
    0.59955E-07        -0.20489E-19         0.00000E+00
    0.59955E-07        -0.22352E-19         0.00000E+00
    0.59955E-07        -0.20489E-19         0.00000E+00
    0.59955E-07        -0.13039E-19         0.00000E+00
    0.59955E-07        -0.16764E-19         0.00000E+00
    0.59955E-07        -0.11176E-19         0.00000E+00
    0.59955E-07        -0.37253E-20         0.00000E+00
    0.59955E-07        -0.18626E-20         0.00000E+00
    0.59955E-07        -0.18626E-20         0.00000E+00
    0.59955E-07        -0.93132E-20         0.00000E+00
    0.59955E-07        -0.54383E-20         0.00000E+00
    0.59955E-07        -0.55879E-20         0.00000E+00
    0.59955E-07        -0.76003E-20         0.00000E+00
    0.59955E-07        -0.55879E-20         0.00000E+00
    0.59955E-07        -0.18626E-20         0.00000E+00
    0.59955E-07         0.74506E-20         0.00000E+00
    0.59955E-07         0.18626E-20         0.00000E+00
    0.59955E-07        -0.93132E-20         0.00000E+00
    0.59955E-07        -0.74506E-20         0.00000E+00
    0.59955E-07        -0.85316E-20         0.00000E+00
    0.59955E-07         0.00000E+00         0.00000E+00
    0.59955E-07         0.66689E-20         0.00000E+00
    0.59955E-07         0.93132E-20         0.00000E+00
    0.59955E-07         0.78165E-21         0.00000E+00
    0.59955E-07        -0.18626E-19         0.00000E+00
    0.59955E-07        -0.13820E-19         0.00000E+00
    0.59955E-07        -0.26443E-20         0.00000E+00
    0.59955E-07         0.58873E-20         0.00000E+00
    0.62184E-07         0.00000E+00         0.00000E+00
    0.62184E-07        -0.55879E-20         0.00000E+00
    0.62184E-07        -0.55879E-20         0.00000E+00
    0.62184E-07         0.00000E+00         0.00000E+00
    0.62184E-07         0.00000E+00         0.00000E+00
    0.62184E-07         0.00000E+00         0.00000E+00
    0.62184E-07         0.29119E-20         0.00000E+00
    0.62184E-07         0.27940E-20         0.00000E+00
    0.62184E-07        -0.75685E-20         0.00000E+00
    0.62184E-07        -0.14901E-19         0.00000E+00
    0.62184E-07        -0.55879E-20         0.00000E+00
    0.62184E-07        -0.37253E-20         0.00000E+00
    0.62184E-07        -0.55879E-20         0.00000E+00
    0.62184E-07        -0.47745E-20         0.00000E+00
    0.62184E-07        -0.74506E-20         0.00000E+00
    0.62184E-07        -0.26761E-20         0.00000E+00
    0.62184E-07         0.18626E-20         0.00000E+00
    0.62184E-07         0.37253E-20         0.00000E+00
    0.62184E-07         0.00000E+00         0.00000E+00
    0.62184E-07        -0.93132E-20         0.00000E+00
    0.62184E-07        -0.22352E-19         0.00000E+00
    0.62184E-07        -0.31665E-19         0.00000E+00
    0.62184E-07        -0.20489E-19         0.00000E+00
    0.62184E-07        -0.18626E-19         0.00000E+00
    0.62184E-07        -0.27940E-19         0.00000E+00
    0.62184E-07        -0.26077E-19         0.00000E+00
    0.62184E-07        -0.18626E-19         0.00000E+00
    0.62184E-07        -0.14901E-19         0.00000E+00
    0.62184E-07        -0.13039E-19         0.00000E+00
    0.62184E-07        -0.74506E-20         0.00000E+00
    0.62184E-07         0.18626E-20         0.00000E+00
    0.62184E-07         0.55879E-20         0.00000E+00
    0.62184E-07        -0.18626E-20         0.00000E+00
    0.62184E-07        -0.37253E-20         0.00000E+00
    0.62184E-07        -0.18626E-20         0.00000E+00
    0.62184E-07        -0.37253E-20         0.00000E+00
    0.62184E-07        -0.55879E-20         0.00000E+00
    0.62184E-07        -0.11176E-19         0.00000E+00
    0.62184E-07        -0.74506E-20         0.00000E+00
    0.62184E-07         0.37253E-20         0.00000E+00
    0.62184E-07        -0.18626E-20         0.00000E+00
    0.62184E-07        -0.55879E-20         0.00000E+00
    0.62184E-07        -0.17447E-20         0.00000E+00
    0.62184E-07        -0.65193E-20         0.00000E+00
    0.62184E-07        -0.84998E-20         0.00000E+00
    0.62184E-07        -0.10362E-19         0.00000E+00
    0.62184E-07         0.93132E-21         0.00000E+00
    0.62184E-07         0.38432E-20         0.00000E+00
    0.62184E-07         0.37253E-20         0.00000E+00
    0.62184E-07         0.47745E-20         0.00000E+00
    0.62184E-07         0.58238E-20         0.00000E+00
    0.64418E-07         0.37253E-20         0.00000E+00
    0.64418E-07         0.00000E+00         0.00000E+00
    0.64418E-07        -0.93132E-20         0.00000E+00
    0.64418E-07        -0.11176E-19         0.00000E+00
    0.64418E-07        -0.36074E-20         0.00000E+00
    0.64418E-07         0.93132E-21         0.00000E+00
    0.64418E-07        -0.29119E-20         0.00000E+00
    0.64418E-07        -0.11989E-19         0.00000E+00
    0.64418E-07        -0.93132E-20         0.00000E+00
    0.64418E-07         0.26761E-20         0.00000E+00
    0.64418E-07         0.00000E+00         0.00000E+00
    0.64418E-07         0.00000E+00         0.00000E+00
    0.64418E-07         0.18626E-20         0.00000E+00
    0.64418E-07         0.00000E+00         0.00000E+00
    0.64418E-07        -0.18626E-20         0.00000E+00
    0.64418E-07        -0.37253E-20         0.00000E+00
    0.64418E-07        -0.55879E-20         0.00000E+00
    0.64418E-07        -0.93132E-20         0.00000E+00
    0.64418E-07        -0.11176E-19         0.00000E+00
    0.64418E-07        -0.74506E-20         0.00000E+00
    0.64418E-07        -0.18626E-19         0.00000E+00
    0.64418E-07        -0.31665E-19         0.00000E+00
    0.64418E-07        -0.26077E-19         0.00000E+00
    0.64418E-07        -0.22352E-19         0.00000E+00
    0.64418E-07        -0.24214E-19         0.00000E+00
    0.64418E-07        -0.18626E-19         0.00000E+00
    0.64418E-07        -0.74506E-20         0.00000E+00
    0.64418E-07        -0.37253E-20         0.00000E+00
    0.64418E-07        -0.18626E-20         0.00000E+00
    0.64418E-07         0.00000E+00         0.00000E+00
    0.64418E-07         0.18626E-20         0.00000E+00
    0.64418E-07         0.00000E+00         0.00000E+00
    0.64418E-07        -0.55879E-20         0.00000E+00
    0.64418E-07        -0.37253E-20         0.00000E+00
    0.64418E-07         0.18626E-20         0.00000E+00
    0.64418E-07         0.19806E-20         0.00000E+00
    0.64418E-07        -0.27940E-20         0.00000E+00
    0.64418E-07         0.81341E-21         0.00000E+00
    0.64418E-07         0.19806E-20         0.00000E+00
    0.64418E-07         0.93132E-21         0.00000E+00
    0.64418E-07        -0.47745E-20         0.00000E+00
    0.64418E-07        -0.91953E-20         0.00000E+00
    0.64418E-07        -0.11058E-19         0.00000E+00
    0.64418E-07        -0.29119E-20         0.00000E+00
    0.64418E-07         0.45387E-20         0.00000E+00
    0.64418E-07         0.11791E-21         0.00000E+00
    0.64418E-07        -0.12107E-19         0.00000E+00
    0.64418E-07        -0.12225E-19         0.00000E+00
    0.64418E-07        -0.64013E-20         0.00000E+00
    0.64418E-07         0.47745E-20         0.00000E+00
    0.64418E-07         0.74506E-20         0.00000E+00
    0.66649E-07        -0.34262E-20         0.00000E+00
    0.66649E-07        -0.18626E-20         0.00000E+00
    0.66649E-07        -0.14954E-21         0.00000E+00
    0.66649E-07        -0.20122E-20         0.00000E+00
    0.66649E-07        -0.26444E-20         0.00000E+00
    0.66649E-07        -0.24949E-20         0.00000E+00
    0.66649E-07         0.17131E-20         0.00000E+00
    0.66649E-07         0.35758E-20         0.00000E+00
    0.66649E-07         0.00000E+00         0.00000E+00
    0.66649E-07        -0.18626E-20         0.00000E+00
    0.66649E-07         0.00000E+00         0.00000E+00
    0.66649E-07         0.37253E-20         0.00000E+00
    0.66649E-07         0.37253E-20         0.00000E+00
    0.66649E-07         0.00000E+00         0.00000E+00
    0.66649E-07        -0.20122E-20         0.00000E+00
    0.66649E-07        -0.63697E-20         0.00000E+00
    0.66649E-07        -0.21121E-19         0.00000E+00
    0.66649E-07        -0.27940E-19         0.00000E+00
    0.66649E-07        -0.19707E-19         0.00000E+00
    0.66649E-07        -0.15982E-19         0.00000E+00
    0.66649E-07        -0.16764E-19         0.00000E+00
    0.66649E-07        -0.14901E-19         0.00000E+00
    0.66649E-07        -0.93132E-20         0.00000E+00
    0.66649E-07        -0.74506E-20         0.00000E+00
    0.66649E-07        -0.11176E-19         0.00000E+00
    0.66649E-07        -0.13039E-19         0.00000E+00
    0.66649E-07        -0.11176E-19         0.00000E+00
    0.66649E-07        -0.13039E-19         0.00000E+00
    0.66649E-07        -0.74506E-20         0.00000E+00
    0.66649E-07        -0.55879E-20         0.00000E+00
    0.66649E-07        -0.74506E-20         0.00000E+00
    0.66649E-07        -0.55879E-20         0.00000E+00
    0.66649E-07        -0.55879E-20         0.00000E+00
    0.66649E-07        -0.37253E-20         0.00000E+00
    0.66649E-07         0.18626E-20         0.00000E+00
    0.66649E-07         0.94628E-20         0.00000E+00
    0.66649E-07         0.13188E-19         0.00000E+00
    0.66649E-07         0.13039E-19         0.00000E+00
    0.66649E-07         0.54384E-20         0.00000E+00
    0.66649E-07         0.55879E-20         0.00000E+00
    0.66649E-07         0.00000E+00         0.00000E+00
    0.66649E-07        -0.11325E-19         0.00000E+00
    0.66649E-07        -0.13039E-19         0.00000E+00
    0.66649E-07        -0.93132E-20         0.00000E+00
    0.66649E-07        -0.35758E-20         0.00000E+00
    0.66649E-07        -0.27940E-20         0.00000E+00
    0.66649E-07        -0.93132E-21         0.00000E+00
    0.66649E-07        -0.54384E-20         0.00000E+00
    0.66649E-07        -0.77497E-20         0.00000E+00
    0.66649E-07         0.18626E-20         0.00000E+00
    0.66649E-07         0.43234E-20         0.00000E+00
    0.68866E-07        -0.74506E-20         0.00000E+00
    0.68866E-07        -0.55879E-20         0.00000E+00
    0.68866E-07        -0.35127E-20         0.00000E+00
    0.68866E-07        -0.16501E-20         0.00000E+00
    0.68866E-07        -0.37253E-20         0.00000E+00
    0.68866E-07        -0.76631E-20         0.00000E+00
    0.68866E-07        -0.76631E-20         0.00000E+00
    0.68866E-07        -0.93132E-20         0.00000E+00
    0.68866E-07        -0.93132E-20         0.00000E+00
    0.68866E-07         0.00000E+00         0.00000E+00
    0.68866E-07         0.00000E+00         0.00000E+00
    0.68866E-07        -0.55879E-20         0.00000E+00
    0.68866E-07        -0.16501E-20         0.00000E+00
    0.68866E-07         0.93132E-21         0.00000E+00
    0.68866E-07        -0.50817E-20         0.00000E+00
    0.68866E-07        -0.83819E-20         0.00000E+00
    0.68866E-07        -0.44441E-20         0.00000E+00
    0.68866E-07        -0.93132E-20         0.00000E+00
    0.68866E-07        -0.14689E-19         0.00000E+00
    0.68866E-07        -0.14901E-19         0.00000E+00
    0.68866E-07        -0.20702E-19         0.00000E+00
    0.68866E-07        -0.27940E-19         0.00000E+00
    0.68866E-07        -0.20489E-19         0.00000E+00
    0.68866E-07        -0.14901E-19         0.00000E+00
    0.68866E-07        -0.14901E-19         0.00000E+00
    0.68866E-07        -0.74506E-20         0.00000E+00
    0.68866E-07        -0.18626E-20         0.00000E+00
    0.68866E-07         0.18626E-20         0.00000E+00
    0.68866E-07        -0.18626E-20         0.00000E+00
    0.68866E-07        -0.74506E-20         0.00000E+00
    0.68866E-07        -0.74506E-20         0.00000E+00
    0.68866E-07        -0.74506E-20         0.00000E+00
    0.68866E-07        -0.18626E-20         0.00000E+00
    0.68866E-07         0.37253E-20         0.00000E+00
    0.68866E-07         0.55879E-20         0.00000E+00
    0.68866E-07         0.93132E-20         0.00000E+00
    0.68866E-07         0.74506E-20         0.00000E+00
    0.68866E-07         0.37253E-20         0.00000E+00
    0.68866E-07         0.37253E-20         0.00000E+00
    0.68866E-07         0.21255E-21         0.00000E+00
    0.68866E-07        -0.53754E-20         0.00000E+00
    0.68866E-07        -0.48692E-20         0.00000E+00
    0.68866E-07        -0.30065E-20         0.00000E+00
    0.68866E-07        -0.63067E-20         0.00000E+00
    0.68866E-07        -0.44441E-20         0.00000E+00
    0.68866E-07        -0.37253E-20         0.00000E+00
    0.68866E-07        -0.13251E-19         0.00000E+00
    0.68866E-07        -0.15114E-19         0.00000E+00
    0.68866E-07        -0.37253E-20         0.00000E+00
    0.68866E-07         0.67318E-20         0.00000E+00
    0.68866E-07         0.60130E-20         0.00000E+00
    0.71061E-07         0.24758E-20         0.00000E+00
    0.71061E-07         0.00000E+00         0.00000E+00
    0.71061E-07        -0.31005E-20         0.00000E+00
    0.71061E-07        -0.55879E-20         0.00000E+00
    0.71061E-07        -0.14595E-19         0.00000E+00
    0.71061E-07        -0.15832E-19         0.00000E+00
    0.71061E-07        -0.11176E-19         0.00000E+00
    0.71061E-07        -0.17695E-19         0.00000E+00
    0.71061E-07        -0.15208E-19         0.00000E+00
    0.71061E-07        -0.93132E-20         0.00000E+00
    0.71061E-07        -0.15561E-20         0.00000E+00
    0.71061E-07         0.30657E-21         0.00000E+00
    0.71061E-07         0.62476E-21         0.00000E+00
    0.71061E-07        -0.12379E-20         0.00000E+00
    0.71061E-07        -0.93132E-20         0.00000E+00
    0.71061E-07        -0.16764E-19         0.00000E+00
    0.71061E-07        -0.22352E-19         0.00000E+00
    0.71061E-07        -0.14901E-19         0.00000E+00
    0.71061E-07        -0.99380E-20         0.00000E+00
    0.71061E-07        -0.83819E-20         0.00000E+00
    0.71061E-07        -0.18933E-19         0.00000E+00
    0.71061E-07        -0.24214E-19         0.00000E+00
    0.71061E-07        -0.14901E-19         0.00000E+00
    0.71061E-07        -0.93132E-20         0.00000E+00
    0.71061E-07        -0.93132E-20         0.00000E+00
    0.71061E-07        -0.55879E-20         0.00000E+00
    0.71061E-07         0.18626E-20         0.00000E+00
    0.71061E-07         0.55879E-20         0.00000E+00
    0.71061E-07         0.74506E-20         0.00000E+00
    0.71061E-07         0.55879E-20         0.00000E+00
    0.71061E-07         0.58945E-20         0.00000E+00
    0.71061E-07         0.27940E-20         0.00000E+00
    0.71061E-07         0.43500E-20         0.00000E+00
    0.71061E-07         0.77571E-20         0.00000E+00
    0.71061E-07         0.93132E-20         0.00000E+00
    0.71061E-07         0.83819E-20         0.00000E+00
    0.71061E-07         0.46566E-20         0.00000E+00
    0.71061E-07         0.52814E-20         0.00000E+00
    0.71061E-07         0.18626E-20         0.00000E+00
    0.71061E-07        -0.62476E-21         0.00000E+00
    0.71061E-07        -0.80753E-20         0.00000E+00
    0.71061E-07        -0.21727E-19         0.00000E+00
    0.71061E-07        -0.16139E-19         0.00000E+00
    0.71061E-07        -0.18626E-20         0.00000E+00
    0.71061E-07         0.30657E-21         0.00000E+00
    0.71061E-07        -0.55879E-20         0.00000E+00
    0.71061E-07        -0.74506E-20         0.00000E+00
    0.71061E-07        -0.83819E-20         0.00000E+00
    0.71061E-07        -0.68258E-20         0.00000E+00
    0.71061E-07        -0.62476E-21         0.00000E+00
    0.71061E-07        -0.12495E-20         0.00000E+00
    0.73224E-07         0.86209E-21         0.00000E+00
    0.73224E-07         0.60190E-20         0.00000E+00
    0.73224E-07         0.55879E-20         0.00000E+00
    0.73224E-07        -0.55879E-20         0.00000E+00
    0.73224E-07        -0.11176E-19         0.00000E+00
    0.73224E-07        -0.15332E-19         0.00000E+00
    0.73224E-07        -0.11176E-19         0.00000E+00
    0.73224E-07        -0.10245E-19         0.00000E+00
    0.73224E-07        -0.16764E-19         0.00000E+00
    0.73224E-07        -0.74506E-20         0.00000E+00
    0.73224E-07        -0.83819E-20         0.00000E+00
    0.73224E-07        -0.55879E-20         0.00000E+00
    0.73224E-07        -0.97443E-20         0.00000E+00
    0.73224E-07        -0.55879E-20         0.00000E+00
    0.73224E-07         0.00000E+00         0.00000E+00
    0.73224E-07        -0.32942E-20         0.00000E+00
    0.73224E-07        -0.46566E-20         0.00000E+00
    0.73224E-07        -0.93132E-20         0.00000E+00
    0.73224E-07        -0.93132E-20         0.00000E+00
    0.73224E-07        -0.18126E-19         0.00000E+00
    0.73224E-07        -0.24214E-19         0.00000E+00
    0.73224E-07        -0.20489E-19         0.00000E+00
    0.73224E-07        -0.74506E-20         0.00000E+00
    0.73224E-07        -0.55879E-20         0.00000E+00
    0.73224E-07        -0.11176E-19         0.00000E+00
    0.73224E-07        -0.11176E-19         0.00000E+00
    0.73224E-07        -0.18626E-20         0.00000E+00
    0.73224E-07         0.37253E-20         0.00000E+00
    0.73224E-07         0.55879E-20         0.00000E+00
    0.73224E-07         0.00000E+00         0.00000E+00
    0.73224E-07        -0.37253E-20         0.00000E+00
    0.73224E-07         0.18626E-20         0.00000E+00
    0.73224E-07         0.97443E-20         0.00000E+00
    0.73224E-07         0.11176E-19         0.00000E+00
    0.73224E-07         0.88822E-20         0.00000E+00
    0.73224E-07         0.13039E-19         0.00000E+00
    0.73224E-07         0.11176E-19         0.00000E+00
    0.73224E-07         0.88130E-20         0.00000E+00
    0.73224E-07         0.55879E-20         0.00000E+00
    0.73224E-07         0.46566E-20         0.00000E+00
    0.73224E-07         0.93132E-21         0.00000E+00
    0.73224E-07        -0.46566E-20         0.00000E+00
    0.73224E-07        -0.10245E-19         0.00000E+00
    0.73224E-07        -0.65193E-20         0.00000E+00
    0.73224E-07        -0.32942E-20         0.00000E+00
    0.73224E-07        -0.88130E-20         0.00000E+00
    0.73224E-07        -0.93132E-20         0.00000E+00
    0.73224E-07        -0.16764E-19         0.00000E+00
    0.73224E-07        -0.88130E-20         0.00000E+00
    0.73224E-07         0.32250E-20         0.00000E+00
    0.73224E-07         0.27247E-20         0.00000E+00
    0.75344E-07        -0.30333E-20         0.00000E+00
    0.75344E-07        -0.27940E-20         0.00000E+00
    0.75344E-07         0.24480E-20         0.00000E+00
    0.75344E-07        -0.80359E-20         0.00000E+00
    0.75344E-07        -0.16764E-19         0.00000E+00
    0.75344E-07        -0.87279E-20         0.00000E+00
    0.75344E-07        -0.12693E-19         0.00000E+00
    0.75344E-07        -0.16418E-19         0.00000E+00
    0.75344E-07        -0.87279E-20         0.00000E+00
    0.75344E-07        -0.27940E-20         0.00000E+00
    0.75344E-07        -0.71046E-20         0.00000E+00
    0.75344E-07         0.58533E-21         0.00000E+00
    0.75344E-07         0.93132E-21         0.00000E+00
    0.75344E-07        -0.89672E-20         0.00000E+00
    0.75344E-07        -0.13039E-19         0.00000E+00
    0.75344E-07        -0.96592E-20         0.00000E+00
    0.75344E-07        -0.93132E-20         0.00000E+00
    0.75344E-07        -0.14901E-19         0.00000E+00
    0.75344E-07        -0.13039E-19         0.00000E+00
    0.75344E-07        -0.16418E-19         0.00000E+00
    0.75344E-07        -0.20489E-19         0.00000E+00
    0.75344E-07        -0.18626E-19         0.00000E+00
    0.75344E-07        -0.11176E-19         0.00000E+00
    0.75344E-07        -0.55879E-20         0.00000E+00
    0.75344E-07        -0.12773E-20         0.00000E+00
    0.75344E-07        -0.55879E-20         0.00000E+00
    0.75344E-07        -0.61733E-20         0.00000E+00
    0.75344E-07        -0.74506E-20         0.00000E+00
    0.75344E-07        -0.74506E-20         0.00000E+00
    0.75344E-07         0.00000E+00         0.00000E+00
    0.75344E-07         0.55879E-20         0.00000E+00
    0.75344E-07         0.74506E-20         0.00000E+00
    0.75344E-07         0.11761E-19         0.00000E+00
    0.75344E-07         0.10245E-19         0.00000E+00
    0.75344E-07         0.16764E-19         0.00000E+00
    0.75344E-07         0.19797E-19         0.00000E+00
    0.75344E-07         0.96592E-20         0.00000E+00
    0.75344E-07         0.77966E-20         0.00000E+00
    0.75344E-07         0.52419E-20         0.00000E+00
    0.75344E-07         0.74506E-20         0.00000E+00
    0.75344E-07         0.37253E-20         0.00000E+00
    0.75344E-07        -0.74506E-20         0.00000E+00
    0.75344E-07        -0.14901E-19         0.00000E+00
    0.75344E-07        -0.13039E-19         0.00000E+00
    0.75344E-07        -0.74506E-20         0.00000E+00
    0.75344E-07        -0.74506E-20         0.00000E+00
    0.75344E-07        -0.93132E-20         0.00000E+00
    0.75344E-07        -0.13039E-19         0.00000E+00
    0.75344E-07        -0.14901E-19         0.00000E+00
    0.75344E-07        -0.74506E-20         0.00000E+00
    0.75344E-07         0.00000E+00         0.00000E+00
    0.77413E-07        -0.37253E-20         0.00000E+00
    0.77413E-07        -0.76860E-21         0.00000E+00
    0.77413E-07         0.10940E-20         0.00000E+00
    0.77413E-07        -0.93132E-20         0.00000E+00
    0.77413E-07        -0.17858E-19         0.00000E+00
    0.77413E-07        -0.12270E-19         0.00000E+00
    0.77413E-07        -0.44939E-20         0.00000E+00
    0.77413E-07        -0.74506E-20         0.00000E+00
    0.77413E-07        -0.14901E-19         0.00000E+00
    0.77413E-07        -0.15670E-19         0.00000E+00
    0.77413E-07        -0.12270E-19         0.00000E+00
    0.77413E-07        -0.74506E-20         0.00000E+00
    0.77413E-07        -0.44939E-20         0.00000E+00
    0.77413E-07        -0.63565E-20         0.00000E+00
    0.77413E-07        -0.93132E-20         0.00000E+00
    0.77413E-07        -0.13364E-19         0.00000E+00
    0.77413E-07        -0.12270E-19         0.00000E+00
    0.77413E-07        -0.93132E-20         0.00000E+00
    0.77413E-07        -0.10407E-19         0.00000E+00
    0.77413E-07        -0.12876E-19         0.00000E+00
    0.77413E-07        -0.24983E-19         0.00000E+00
    0.77413E-07        -0.22352E-19         0.00000E+00
    0.77413E-07        -0.15832E-19         0.00000E+00
    0.77413E-07        -0.12107E-19         0.00000E+00
    0.77413E-07        -0.17695E-19         0.00000E+00
    0.77413E-07        -0.83819E-20         0.00000E+00
    0.77413E-07         0.38880E-20         0.00000E+00
    0.77413E-07         0.00000E+00         0.00000E+00
    0.77413E-07         0.00000E+00         0.00000E+00
    0.77413E-07         0.18626E-20         0.00000E+00
    0.77413E-07         0.35626E-20         0.00000E+00
    0.77413E-07         0.27940E-20         0.00000E+00
    0.77413E-07         0.48193E-20         0.00000E+00
    0.77413E-07         0.11176E-19         0.00000E+00
    0.77413E-07         0.82192E-20         0.00000E+00
    0.77413E-07         0.63565E-20         0.00000E+00
    0.77413E-07         0.10407E-19         0.00000E+00
    0.77413E-07         0.11176E-19         0.00000E+00
    0.77413E-07         0.82192E-20         0.00000E+00
    0.77413E-07         0.37253E-20         0.00000E+00
    0.77413E-07        -0.63565E-20         0.00000E+00
    0.77413E-07        -0.13039E-19         0.00000E+00
    0.77413E-07        -0.93132E-20         0.00000E+00
    0.77413E-07        -0.44939E-20         0.00000E+00
    0.77413E-07        -0.29567E-20         0.00000E+00
    0.77413E-07        -0.10940E-20         0.00000E+00
    0.77413E-07         0.16272E-21         0.00000E+00
    0.77413E-07        -0.46566E-20         0.00000E+00
    0.77413E-07        -0.48193E-20         0.00000E+00
    0.77413E-07         0.44939E-20         0.00000E+00
    0.77413E-07         0.52625E-20         0.00000E+00
    0.79419E-07        -0.37253E-20         0.00000E+00
    0.79419E-07         0.13484E-20         0.00000E+00
    0.79419E-07         0.55879E-20         0.00000E+00
    0.79419E-07        -0.41708E-21         0.00000E+00
    0.79419E-07        -0.55879E-20         0.00000E+00
    0.79419E-07        -0.98275E-20         0.00000E+00
    0.79419E-07        -0.15415E-19         0.00000E+00
    0.79419E-07        -0.14387E-19         0.00000E+00
    0.79419E-07        -0.15318E-19         0.00000E+00
    0.79419E-07        -0.13553E-19         0.00000E+00
    0.79419E-07        -0.11690E-19         0.00000E+00
    0.79419E-07        -0.16250E-19         0.00000E+00
    0.79419E-07        -0.15318E-19         0.00000E+00
    0.79419E-07        -0.12107E-19         0.00000E+00
    0.79419E-07        -0.12621E-19         0.00000E+00
    0.79419E-07        -0.11690E-19         0.00000E+00
    0.79419E-07        -0.65193E-20         0.00000E+00
    0.79419E-07        -0.22797E-20         0.00000E+00
    0.79419E-07        -0.41424E-20         0.00000E+00
    0.79419E-07        -0.11690E-19         0.00000E+00
    0.79419E-07        -0.18626E-19         0.00000E+00
    0.79419E-07        -0.22769E-19         0.00000E+00
    0.79419E-07        -0.21003E-19         0.00000E+00
    0.79419E-07        -0.18209E-19         0.00000E+00
    0.79419E-07        -0.16250E-19         0.00000E+00
    0.79419E-07        -0.74506E-20         0.00000E+00
    0.79419E-07        -0.51424E-21         0.00000E+00
    0.79419E-07        -0.27940E-20         0.00000E+00
    0.79419E-07        -0.13484E-20         0.00000E+00
    0.79419E-07        -0.18626E-20         0.00000E+00
    0.79419E-07        -0.61022E-20         0.00000E+00
    0.79419E-07        -0.37253E-20         0.00000E+00
    0.79419E-07        -0.27940E-20         0.00000E+00
    0.79419E-07        -0.41424E-20         0.00000E+00
    0.79419E-07         0.14456E-20         0.00000E+00
    0.79419E-07         0.37253E-20         0.00000E+00
    0.79419E-07        -0.51424E-21         0.00000E+00
    0.79419E-07         0.41708E-21         0.00000E+00
    0.79419E-07         0.46566E-20         0.00000E+00
    0.79419E-07         0.70335E-20         0.00000E+00
    0.79419E-07         0.93132E-21         0.00000E+00
    0.79419E-07        -0.18626E-20         0.00000E+00
    0.79419E-07        -0.22797E-20         0.00000E+00
    0.79419E-07        -0.37253E-20         0.00000E+00
    0.79419E-07        -0.37253E-20         0.00000E+00
    0.79419E-07         0.88275E-21         0.00000E+00
    0.79419E-07         0.64707E-20         0.00000E+00
    0.79419E-07         0.00000E+00         0.00000E+00
    0.79419E-07         0.51424E-21         0.00000E+00
    0.79419E-07         0.66164E-20         0.00000E+00
    0.79419E-07         0.84791E-20         0.00000E+00
    0.81353E-07        -0.18626E-20         0.00000E+00
    0.81353E-07         0.37253E-20         0.00000E+00
    0.81353E-07         0.80951E-20         0.00000E+00
    0.81353E-07        -0.18626E-20         0.00000E+00
    0.81353E-07        -0.14614E-19         0.00000E+00
    0.81353E-07        -0.10245E-19         0.00000E+00
    0.81353E-07        -0.83819E-20         0.00000E+00
    0.81353E-07        -0.14901E-19         0.00000E+00
    0.81353E-07        -0.10066E-19         0.00000E+00
    0.81353E-07        -0.63404E-20         0.00000E+00
    0.81353E-07        -0.80951E-20         0.00000E+00
    0.81353E-07        -0.79162E-20         0.00000E+00
    0.81353E-07        -0.74506E-20         0.00000E+00
    0.81353E-07        -0.65193E-20         0.00000E+00
    0.81353E-07        -0.11928E-19         0.00000E+00
    0.81353E-07        -0.13039E-19         0.00000E+00
    0.81353E-07        -0.17408E-19         0.00000E+00
    0.81353E-07        -0.24214E-19         0.00000E+00
    0.81353E-07        -0.18340E-19         0.00000E+00
    0.81353E-07        -0.12107E-19         0.00000E+00
    0.81353E-07        -0.18269E-19         0.00000E+00
    0.81353E-07        -0.19558E-19         0.00000E+00
    0.81353E-07        -0.13217E-19         0.00000E+00
    0.81353E-07        -0.88476E-20         0.00000E+00
    0.81353E-07        -0.97789E-20         0.00000E+00
    0.81353E-07        -0.83819E-20         0.00000E+00
    0.81353E-07        -0.46566E-21         0.00000E+00
    0.81353E-07        -0.64451E-21         0.00000E+00
    0.81353E-07        -0.93132E-21         0.00000E+00
    0.81353E-07        -0.16838E-20         0.00000E+00
    0.81353E-07        -0.57668E-20         0.00000E+00
    0.81353E-07        -0.12107E-19         0.00000E+00
    0.81353E-07        -0.89555E-20         0.00000E+00
    0.81353E-07        -0.11102E-20         0.00000E+00
    0.81353E-07         0.75248E-21         0.00000E+00
    0.81353E-07         0.18626E-20         0.00000E+00
    0.81353E-07         0.00000E+00         0.00000E+00
    0.81353E-07        -0.72717E-20         0.00000E+00
    0.81353E-07        -0.69849E-20         0.00000E+00
    0.81353E-07        -0.64451E-21         0.00000E+00
    0.81353E-07        -0.18626E-20         0.00000E+00
    0.81353E-07        -0.63404E-20         0.00000E+00
    0.81353E-07        -0.44778E-20         0.00000E+00
    0.81353E-07        -0.40830E-20         0.00000E+00
    0.81353E-07        -0.48355E-20         0.00000E+00
    0.81353E-07        -0.35464E-20         0.00000E+00
    0.81353E-07        -0.37253E-20         0.00000E+00
    0.81353E-07        -0.27940E-20         0.00000E+00
    0.81353E-07         0.29728E-20         0.00000E+00
    0.81353E-07         0.65193E-20         0.00000E+00
    0.81353E-07         0.33676E-20         0.00000E+00
    0.83205E-07        -0.37253E-20         0.00000E+00
    0.83205E-07        -0.18626E-20         0.00000E+00
    0.83205E-07        -0.93132E-21         0.00000E+00
    0.83205E-07        -0.83819E-20         0.00000E+00
    0.83205E-07        -0.65193E-20         0.00000E+00
    0.83205E-07        -0.93132E-21         0.00000E+00
    0.83205E-07        -0.46566E-20         0.00000E+00
    0.83205E-07        -0.80013E-20         0.00000E+00
    0.83205E-07        -0.12107E-19         0.00000E+00
    0.83205E-07        -0.78312E-20         0.00000E+00
    0.83205E-07        -0.13119E-20         0.00000E+00
    0.83205E-07         0.93132E-21         0.00000E+00
    0.83205E-07        -0.27940E-20         0.00000E+00
    0.83205E-07        -0.56730E-20         0.00000E+00
    0.83205E-07        -0.13674E-19         0.00000E+00
    0.83205E-07        -0.19007E-19         0.00000E+00
    0.83205E-07        -0.13970E-19         0.00000E+00
    0.83205E-07        -0.12953E-19         0.00000E+00
    0.83205E-07        -0.18541E-19         0.00000E+00
    0.83205E-07        -0.17865E-19         0.00000E+00
    0.83205E-07        -0.16383E-19         0.00000E+00
    0.83205E-07        -0.16213E-19         0.00000E+00
    0.83205E-07        -0.14350E-19         0.00000E+00
    0.83205E-07        -0.12107E-19         0.00000E+00
    0.83205E-07        -0.93132E-20         0.00000E+00
    0.83205E-07        -0.70700E-20         0.00000E+00
    0.83205E-07        -0.55879E-20         0.00000E+00
    0.83205E-07        -0.74506E-20         0.00000E+00
    0.83205E-07        -0.42760E-20         0.00000E+00
    0.83205E-07         0.00000E+00         0.00000E+00
    0.83205E-07        -0.13119E-20         0.00000E+00
    0.83205E-07        -0.27940E-20         0.00000E+00
    0.83205E-07         0.15216E-33         0.00000E+00
    0.83205E-07         0.27940E-20         0.00000E+00
    0.83205E-07        -0.18626E-20         0.00000E+00
    0.83205E-07        -0.87625E-20         0.00000E+00
    0.83205E-07        -0.74506E-20         0.00000E+00
    0.83205E-07        -0.13119E-20         0.00000E+00
    0.83205E-07        -0.18626E-20         0.00000E+00
    0.83205E-07        -0.61387E-20         0.00000E+00
    0.83205E-07        -0.80013E-20         0.00000E+00
    0.83205E-07        -0.11176E-19         0.00000E+00
    0.83205E-07        -0.11176E-19         0.00000E+00
    0.83205E-07        -0.74506E-20         0.00000E+00
    0.83205E-07        -0.50372E-20         0.00000E+00
    0.83205E-07        -0.37253E-20         0.00000E+00
    0.83205E-07        -0.18626E-20         0.00000E+00
    0.83205E-07        -0.27940E-20         0.00000E+00
    0.83205E-07        -0.18626E-20         0.00000E+00
    0.83205E-07         0.55879E-20         0.00000E+00
    0.83205E-07         0.93132E-20         0.00000E+00
    0.84965E-07        -0.18626E-20         0.00000E+00
    0.84965E-07         0.27940E-20         0.00000E+00
    0.84965E-07         0.74506E-20         0.00000E+00
    0.84965E-07         0.37253E-20         0.00000E+00
    0.84965E-07        -0.31673E-20         0.00000E+00
    0.84965E-07        -0.60536E-20         0.00000E+00
    0.84965E-07        -0.84742E-20         0.00000E+00
    0.84965E-07        -0.11549E-19         0.00000E+00
    0.84965E-07        -0.88476E-20         0.00000E+00
    0.84965E-07        -0.28863E-20         0.00000E+00
    0.84965E-07         0.55797E-21         0.00000E+00
    0.84965E-07        -0.80085E-20         0.00000E+00
    0.84965E-07        -0.13131E-19         0.00000E+00
    0.84965E-07        -0.10526E-19         0.00000E+00
    0.84965E-07        -0.11549E-19         0.00000E+00
    0.84965E-07        -0.15086E-19         0.00000E+00
    0.84965E-07        -0.18626E-19         0.00000E+00
    0.84965E-07        -0.18626E-19         0.00000E+00
    0.84965E-07        -0.18811E-19         0.00000E+00
    0.84965E-07        -0.14809E-19         0.00000E+00
    0.84965E-07        -0.20397E-19         0.00000E+00
    0.84965E-07        -0.20489E-19         0.00000E+00
    0.84965E-07        -0.12015E-19         0.00000E+00
    0.84965E-07        -0.73583E-20         0.00000E+00
    0.84965E-07        -0.12292E-19         0.00000E+00
    0.84965E-07        -0.13039E-19         0.00000E+00
    0.84965E-07        -0.68926E-20         0.00000E+00
    0.84965E-07        -0.89399E-20         0.00000E+00
    0.84965E-07        -0.11734E-19         0.00000E+00
    0.84965E-07        -0.10152E-19         0.00000E+00
    0.84965E-07        -0.49377E-20         0.00000E+00
    0.84965E-07         0.00000E+00         0.00000E+00
    0.84965E-07         0.35407E-20         0.00000E+00
    0.84965E-07         0.74506E-20         0.00000E+00
    0.84965E-07         0.10236E-20         0.00000E+00
    0.84965E-07        -0.29786E-20         0.00000E+00
    0.84965E-07        -0.18626E-20         0.00000E+00
    0.84965E-07        -0.45643E-20         0.00000E+00
    0.84965E-07        -0.37253E-20         0.00000E+00
    0.84965E-07         0.37336E-21         0.00000E+00
    0.84965E-07        -0.27940E-20         0.00000E+00
    0.84965E-07        -0.96866E-20         0.00000E+00
    0.84965E-07        -0.94055E-20         0.00000E+00
    0.84965E-07        -0.18626E-20         0.00000E+00
    0.84965E-07         0.38176E-20         0.00000E+00
    0.84965E-07         0.54956E-20         0.00000E+00
    0.84965E-07         0.54956E-20         0.00000E+00
    0.84965E-07        -0.16780E-20         0.00000E+00
    0.84965E-07         0.19550E-20         0.00000E+00
    0.84965E-07         0.35407E-20         0.00000E+00
    0.84965E-07         0.16780E-20         0.00000E+00
    0.86624E-07        -0.37253E-20         0.00000E+00
    0.86624E-07         0.93132E-21         0.00000E+00
    0.86624E-07         0.74506E-20         0.00000E+00
    0.86624E-07         0.00000E+00         0.00000E+00
    0.86624E-07        -0.44097E-20         0.00000E+00
    0.86624E-07        -0.11782E-20         0.00000E+00
    0.86624E-07        -0.51504E-20         0.00000E+00
    0.86624E-07        -0.72037E-20         0.00000E+00
    0.86624E-07        -0.15586E-19         0.00000E+00
    0.86624E-07        -0.13039E-19         0.00000E+00
    0.86624E-07        -0.83819E-20         0.00000E+00
    0.86624E-07        -0.72037E-20         0.00000E+00
    0.86624E-07        -0.72037E-20         0.00000E+00
    0.86624E-07        -0.10245E-19         0.00000E+00
    0.86624E-07        -0.17695E-19         0.00000E+00
    0.86624E-07        -0.18626E-19         0.00000E+00
    0.86624E-07        -0.13285E-19         0.00000E+00
    0.86624E-07        -0.13998E-19         0.00000E+00
    0.86624E-07        -0.16545E-19         0.00000E+00
    0.86624E-07        -0.18626E-19         0.00000E+00
    0.86624E-07        -0.18133E-19         0.00000E+00
    0.86624E-07        -0.21174E-19         0.00000E+00
    0.86624E-07        -0.19805E-19         0.00000E+00
    0.86624E-07        -0.11860E-19         0.00000E+00
    0.86624E-07        -0.10491E-19         0.00000E+00
    0.86624E-07        -0.67661E-20         0.00000E+00
    0.86624E-07         0.21095E-20         0.00000E+00
    0.86624E-07         0.00000E+00         0.00000E+00
    0.86624E-07        -0.34784E-20         0.00000E+00
    0.86624E-07        -0.90663E-20         0.00000E+00
    0.86624E-07        -0.10245E-19         0.00000E+00
    0.86624E-07        -0.37253E-20         0.00000E+00
    0.86624E-07         0.93132E-21         0.00000E+00
    0.86624E-07         0.68444E-21         0.00000E+00
    0.86624E-07         0.68444E-21         0.00000E+00
    0.86624E-07        -0.58348E-20         0.00000E+00
    0.86624E-07        -0.79162E-20         0.00000E+00
    0.86624E-07        -0.30127E-20         0.00000E+00
    0.86624E-07         0.68444E-21         0.00000E+00
    0.86624E-07         0.72037E-20         0.00000E+00
    0.86624E-07         0.24688E-21         0.00000E+00
    0.86624E-07        -0.92851E-20         0.00000E+00
    0.86624E-07        -0.41910E-20         0.00000E+00
    0.86624E-07         0.34784E-20         0.00000E+00
    0.86624E-07         0.46566E-20         0.00000E+00
    0.86624E-07         0.18626E-20         0.00000E+00
    0.86624E-07         0.18626E-20         0.00000E+00
    0.86624E-07         0.46566E-20         0.00000E+00
    0.86624E-07         0.65193E-20         0.00000E+00
    0.86624E-07         0.72037E-20         0.00000E+00
    0.86624E-07         0.69568E-20         0.00000E+00
    0.88172E-07        -0.37253E-20         0.00000E+00
    0.88172E-07         0.00000E+00         0.00000E+00
    0.88172E-07         0.70703E-20         0.00000E+00
    0.88172E-07         0.52077E-20         0.00000E+00
    0.88172E-07        -0.52931E-20         0.00000E+00
    0.88172E-07        -0.71557E-20         0.00000E+00
    0.88172E-07        -0.22429E-20         0.00000E+00
    0.88172E-07        -0.50369E-20         0.00000E+00
    0.88172E-07        -0.46566E-20         0.00000E+00
    0.88172E-07        -0.22429E-20         0.00000E+00
    0.88172E-07        -0.68995E-20         0.00000E+00
    0.88172E-07        -0.17315E-19         0.00000E+00
    0.88172E-07        -0.17315E-19         0.00000E+00
    0.88172E-07        -0.93132E-20         0.00000E+00
    0.88172E-07        -0.89330E-20         0.00000E+00
    0.88172E-07        -0.16764E-19         0.00000E+00
    0.88172E-07        -0.20318E-19         0.00000E+00
    0.88172E-07        -0.17144E-19         0.00000E+00
    0.88172E-07        -0.17315E-19         0.00000E+00
    0.88172E-07        -0.15832E-19         0.00000E+00
    0.88172E-07        -0.21801E-19         0.00000E+00
    0.88172E-07        -0.24214E-19         0.00000E+00
    0.88172E-07        -0.15452E-19         0.00000E+00
    0.88172E-07        -0.11347E-19         0.00000E+00
    0.88172E-07        -0.92278E-20         0.00000E+00
    0.88172E-07        -0.74506E-20         0.00000E+00
    0.88172E-07        -0.27940E-20         0.00000E+00
    0.88172E-07        -0.64339E-20         0.00000E+00
    0.88172E-07        -0.76214E-20         0.00000E+00
    0.88172E-07        -0.61390E-20         0.00000E+00
    0.88172E-07        -0.78308E-20         0.00000E+00
    0.88172E-07        -0.46566E-20         0.00000E+00
    0.88172E-07         0.38107E-20         0.00000E+00
    0.88172E-07         0.24991E-20         0.00000E+00
    0.88172E-07        -0.52077E-20         0.00000E+00
    0.88172E-07        -0.27940E-20         0.00000E+00
    0.88172E-07        -0.19480E-20         0.00000E+00
    0.88172E-07         0.29487E-21         0.00000E+00
    0.88172E-07         0.70703E-20         0.00000E+00
    0.88172E-07         0.85527E-20         0.00000E+00
    0.88172E-07         0.52077E-20         0.00000E+00
    0.88172E-07        -0.18626E-20         0.00000E+00
    0.88172E-07        -0.61390E-20         0.00000E+00
    0.88172E-07        -0.42763E-20         0.00000E+00
    0.88172E-07        -0.93132E-21         0.00000E+00
    0.88172E-07        -0.55106E-21         0.00000E+00
    0.88172E-07        -0.93132E-21         0.00000E+00
    0.88172E-07        -0.41056E-20         0.00000E+00
    0.88172E-07         0.14824E-20         0.00000E+00
    0.88172E-07         0.52077E-20         0.00000E+00
    0.88172E-07         0.18626E-20         0.00000E+00
    0.89602E-07         0.87423E-21         0.00000E+00
    0.89602E-07         0.93132E-21         0.00000E+00
    0.89602E-07         0.65193E-20         0.00000E+00
    0.89602E-07        -0.46566E-21         0.00000E+00
    0.89602E-07        -0.10653E-19         0.00000E+00
    0.89602E-07        -0.74506E-20         0.00000E+00
    0.89602E-07        -0.51508E-20         0.00000E+00
    0.89602E-07        -0.28225E-20         0.00000E+00
    0.89602E-07        -0.74220E-20         0.00000E+00
    0.89602E-07        -0.74506E-20         0.00000E+00
    0.89602E-07        -0.65478E-20         0.00000E+00
    0.89602E-07        -0.92847E-20         0.00000E+00
    0.89602E-07        -0.74506E-20         0.00000E+00
    0.89602E-07        -0.23569E-20         0.00000E+00
    0.89602E-07        -0.41624E-20         0.00000E+00
    0.89602E-07        -0.17638E-19         0.00000E+00
    0.89602E-07        -0.14027E-19         0.00000E+00
    0.89602E-07        -0.19586E-19         0.00000E+00
    0.89602E-07        -0.18626E-19         0.00000E+00
    0.89602E-07        -0.13998E-19         0.00000E+00
    0.89602E-07        -0.28842E-19         0.00000E+00
    0.89602E-07        -0.28842E-19         0.00000E+00
    0.89602E-07        -0.15832E-19         0.00000E+00
    0.89602E-07        -0.12079E-19         0.00000E+00
    0.89602E-07        -0.84105E-20         0.00000E+00
    0.89602E-07        -0.93132E-20         0.00000E+00
    0.89602E-07        -0.74220E-20         0.00000E+00
    0.89602E-07        -0.28225E-20         0.00000E+00
    0.89602E-07         0.13684E-20         0.00000E+00
    0.89602E-07        -0.13684E-20         0.00000E+00
    0.89602E-07        -0.65193E-20         0.00000E+00
    0.89602E-07        -0.65193E-20         0.00000E+00
    0.89602E-07        -0.64907E-20         0.00000E+00
    0.89602E-07         0.60536E-20         0.00000E+00
    0.89602E-07         0.97789E-20         0.00000E+00
    0.89602E-07         0.87905E-20         0.00000E+00
    0.89602E-07         0.27940E-20         0.00000E+00
    0.89602E-07         0.93132E-21         0.00000E+00
    0.89602E-07        -0.13970E-20         0.00000E+00
    0.89602E-07        -0.23283E-20         0.00000E+00
    0.89602E-07        -0.27940E-20         0.00000E+00
    0.89602E-07        -0.97503E-20         0.00000E+00
    0.89602E-07        -0.37253E-20         0.00000E+00
    0.89602E-07         0.00000E+00         0.00000E+00
    0.89602E-07        -0.43711E-21         0.00000E+00
    0.89602E-07         0.32311E-20         0.00000E+00
    0.89602E-07        -0.14255E-20         0.00000E+00
    0.89602E-07        -0.32311E-20         0.00000E+00
    0.89602E-07         0.27940E-20         0.00000E+00
    0.89602E-07         0.10682E-19         0.00000E+00
    0.89602E-07         0.13913E-19         0.00000E+00
    0.90905E-07        -0.53381E-20         0.00000E+00
    0.90905E-07         0.27940E-20         0.00000E+00
    0.90905E-07         0.55879E-20         0.00000E+00
    0.90905E-07         0.18626E-20         0.00000E+00
    0.90905E-07         0.80641E-21         0.00000E+00
    0.90905E-07        -0.47815E-20         0.00000E+00
    0.90905E-07        -0.74506E-20         0.00000E+00
    0.90905E-07        -0.88476E-20         0.00000E+00
    0.90905E-07        -0.13039E-19         0.00000E+00
    0.90905E-07        -0.10245E-19         0.00000E+00
    0.90905E-07        -0.60536E-20         0.00000E+00
    0.90905E-07        -0.26691E-20         0.00000E+00
    0.90905E-07        -0.37253E-20         0.00000E+00
    0.90905E-07        -0.40660E-20         0.00000E+00
    0.90905E-07        -0.87227E-20         0.00000E+00
    0.90905E-07        -0.57128E-20         0.00000E+00
    0.90905E-07        -0.13970E-19         0.00000E+00
    0.90905E-07        -0.18751E-19         0.00000E+00
    0.90905E-07        -0.12357E-19         0.00000E+00
    0.90905E-07        -0.17695E-19         0.00000E+00
    0.90905E-07        -0.22692E-19         0.00000E+00
    0.90905E-07        -0.24555E-19         0.00000E+00
    0.90905E-07        -0.16764E-19         0.00000E+00
    0.90905E-07        -0.14311E-19         0.00000E+00
    0.90905E-07        -0.15492E-19         0.00000E+00
    0.90905E-07        -0.88476E-20         0.00000E+00
    0.90905E-07        -0.93132E-21         0.00000E+00
    0.90905E-07        -0.18626E-20         0.00000E+00
    0.90905E-07        -0.31347E-20         0.00000E+00
    0.90905E-07        -0.32596E-20         0.00000E+00
    0.90905E-07        -0.41910E-20         0.00000E+00
    0.90905E-07         0.36004E-20         0.00000E+00
    0.90905E-07         0.46566E-20         0.00000E+00
    0.90905E-07         0.26691E-20         0.00000E+00
    0.90905E-07         0.27940E-20         0.00000E+00
    0.90905E-07        -0.46566E-21         0.00000E+00
    0.90905E-07         0.13970E-20         0.00000E+00
    0.90905E-07         0.65193E-20         0.00000E+00
    0.90905E-07         0.27940E-20         0.00000E+00
    0.90905E-07         0.27940E-20         0.00000E+00
    0.90905E-07         0.93132E-21         0.00000E+00
    0.90905E-07        -0.55879E-20         0.00000E+00
    0.90905E-07        -0.94381E-20         0.00000E+00
    0.90905E-07        -0.93132E-20         0.00000E+00
    0.90905E-07        -0.10460E-19         0.00000E+00
    0.90905E-07        -0.31347E-20         0.00000E+00
    0.90905E-07         0.73257E-20         0.00000E+00
    0.90905E-07         0.37253E-20         0.00000E+00
    0.90905E-07         0.18626E-20         0.00000E+00
    0.90905E-07        -0.59057E-21         0.00000E+00
    0.90905E-07        -0.11811E-20         0.00000E+00
    0.92073E-07        -0.18626E-20         0.00000E+00
    0.92073E-07         0.72567E-21         0.00000E+00
    0.92073E-07         0.37253E-20         0.00000E+00
    0.92073E-07         0.20565E-21         0.00000E+00
    0.92073E-07        -0.55879E-20         0.00000E+00
    0.92073E-07        -0.55879E-20         0.00000E+00
    0.92073E-07        -0.76562E-20         0.00000E+00
    0.92073E-07        -0.11382E-19         0.00000E+00
    0.92073E-07        -0.74506E-20         0.00000E+00
    0.92073E-07        -0.46566E-20         0.00000E+00
    0.92073E-07        -0.93132E-20         0.00000E+00
    0.92073E-07        -0.93676E-20         0.00000E+00
    0.92073E-07        -0.46566E-20         0.00000E+00
    0.92073E-07        -0.36709E-20         0.00000E+00
    0.92073E-07        -0.12162E-19         0.00000E+00
    0.92073E-07        -0.18626E-19         0.00000E+00
    0.92073E-07        -0.15572E-19         0.00000E+00
    0.92073E-07        -0.16764E-19         0.00000E+00
    0.92073E-07        -0.17901E-19         0.00000E+00
    0.92073E-07        -0.13970E-19         0.00000E+00
    0.92073E-07        -0.15627E-19         0.00000E+00
    0.92073E-07        -0.17489E-19         0.00000E+00
    0.92073E-07        -0.14175E-19         0.00000E+00
    0.92073E-07        -0.11176E-19         0.00000E+00
    0.92073E-07        -0.11176E-19         0.00000E+00
    0.92073E-07        -0.74506E-20         0.00000E+00
    0.92073E-07         0.20683E-20         0.00000E+00
    0.92073E-07         0.44510E-20         0.00000E+00
    0.92073E-07         0.63136E-20         0.00000E+00
    0.92073E-07         0.18083E-20         0.00000E+00
    0.92073E-07        -0.93132E-21         0.00000E+00
    0.92073E-07         0.11913E-20         0.00000E+00
    0.92073E-07         0.18626E-20         0.00000E+00
    0.92073E-07         0.83819E-20         0.00000E+00
    0.92073E-07         0.29996E-20         0.00000E+00
    0.92073E-07        -0.57936E-20         0.00000E+00
    0.92073E-07        -0.76562E-20         0.00000E+00
    0.92073E-07        -0.53823E-20         0.00000E+00
    0.92073E-07         0.11370E-20         0.00000E+00
    0.92073E-07         0.72567E-21         0.00000E+00
    0.92073E-07        -0.93132E-21         0.00000E+00
    0.92073E-07        -0.93132E-21         0.00000E+00
    0.92073E-07        -0.29996E-20         0.00000E+00
    0.92073E-07        -0.46566E-20         0.00000E+00
    0.92073E-07        -0.27940E-20         0.00000E+00
    0.92073E-07        -0.93132E-21         0.00000E+00
    0.92073E-07        -0.63136E-20         0.00000E+00
    0.92073E-07        -0.81763E-20         0.00000E+00
    0.92073E-07         0.93132E-21         0.00000E+00
    0.92073E-07         0.53823E-20         0.00000E+00
    0.92073E-07         0.33140E-20         0.00000E+00
    0.93100E-07        -0.24083E-20         0.00000E+00
    0.93100E-07        -0.93132E-21         0.00000E+00
    0.93100E-07        -0.15898E-20         0.00000E+00
    0.93100E-07        -0.74506E-20         0.00000E+00
    0.93100E-07        -0.93132E-20         0.00000E+00
    0.93100E-07        -0.77234E-20         0.00000E+00
    0.93100E-07        -0.95861E-20         0.00000E+00
    0.93100E-07        -0.10903E-19         0.00000E+00
    0.93100E-07        -0.13039E-19         0.00000E+00
    0.93100E-07        -0.86547E-20         0.00000E+00
    0.93100E-07         0.27283E-21         0.00000E+00
    0.93100E-07        -0.15898E-20         0.00000E+00
    0.93100E-07        -0.86547E-20         0.00000E+00
    0.93100E-07        -0.83819E-20         0.00000E+00
    0.93100E-07        -0.69049E-20         0.00000E+00
    0.93100E-07        -0.90404E-20         0.00000E+00
    0.93100E-07        -0.14243E-19         0.00000E+00
    0.93100E-07        -0.16378E-19         0.00000E+00
    0.93100E-07        -0.16105E-19         0.00000E+00
    0.93100E-07        -0.17695E-19         0.00000E+00
    0.93100E-07        -0.18626E-19         0.00000E+00
    0.93100E-07        -0.18626E-19         0.00000E+00
    0.93100E-07        -0.10437E-19         0.00000E+00
    0.93100E-07        -0.29868E-20         0.00000E+00
    0.93100E-07        -0.53951E-20         0.00000E+00
    0.93100E-07        -0.69849E-20         0.00000E+00
    0.93100E-07        -0.43838E-20         0.00000E+00
    0.93100E-07        -0.39981E-20         0.00000E+00
    0.93100E-07        -0.27283E-21         0.00000E+00
    0.93100E-07         0.42709E-20         0.00000E+00
    0.93100E-07         0.16698E-20         0.00000E+00
    0.93100E-07         0.93132E-21         0.00000E+00
    0.93100E-07         0.23283E-20         0.00000E+00
    0.93100E-07         0.25211E-20         0.00000E+00
    0.93100E-07         0.27940E-20         0.00000E+00
    0.93100E-07         0.65850E-21         0.00000E+00
    0.93100E-07        -0.30668E-20         0.00000E+00
    0.93100E-07        -0.34525E-20         0.00000E+00
    0.93100E-07        -0.37253E-20         0.00000E+00
    0.93100E-07        -0.27283E-21         0.00000E+00
    0.93100E-07        -0.65193E-20         0.00000E+00
    0.93100E-07        -0.13039E-19         0.00000E+00
    0.93100E-07        -0.10903E-19         0.00000E+00
    0.93100E-07        -0.53151E-20         0.00000E+00
    0.93100E-07        -0.49294E-20         0.00000E+00
    0.93100E-07        -0.74506E-20         0.00000E+00
    0.93100E-07        -0.25211E-20         0.00000E+00
    0.93100E-07        -0.12041E-20         0.00000E+00
    0.93100E-07        -0.30668E-20         0.00000E+00
    0.93100E-07         0.93132E-21         0.00000E+00
    0.93100E-07         0.37253E-20         0.00000E+00
    0.93979E-07        -0.37253E-20         0.00000E+00
    0.93979E-07        -0.35882E-20         0.00000E+00
    0.93979E-07        -0.35882E-20         0.00000E+00
    0.93979E-07        -0.46566E-20         0.00000E+00
    0.93979E-07        -0.66563E-20         0.00000E+00
    0.93979E-07        -0.88476E-20         0.00000E+00
    0.93979E-07        -0.97789E-20         0.00000E+00
    0.93979E-07        -0.10382E-19         0.00000E+00
    0.93979E-07        -0.12107E-19         0.00000E+00
    0.93979E-07        -0.13367E-19         0.00000E+00
    0.93979E-07        -0.13367E-19         0.00000E+00
    0.93979E-07        -0.93132E-20         0.00000E+00
    0.93979E-07        -0.55879E-20         0.00000E+00
    0.93979E-07        -0.63278E-20         0.00000E+00
    0.93979E-07        -0.13778E-19         0.00000E+00
    0.93979E-07        -0.16955E-19         0.00000E+00
    0.93979E-07        -0.14161E-19         0.00000E+00
    0.93979E-07        -0.11176E-19         0.00000E+00
    0.93979E-07        -0.12107E-19         0.00000E+00
    0.93979E-07        -0.14901E-19         0.00000E+00
    0.93979E-07        -0.16764E-19         0.00000E+00
    0.93979E-07        -0.15038E-19         0.00000E+00
    0.93979E-07        -0.14107E-19         0.00000E+00
    0.93979E-07        -0.93132E-20         0.00000E+00
    0.93979E-07        -0.96418E-20         0.00000E+00
    0.93979E-07        -0.27940E-20         0.00000E+00
    0.93979E-07         0.69849E-20         0.00000E+00
    0.93979E-07         0.37253E-20         0.00000E+00
    0.93979E-07         0.65714E-21         0.00000E+00
    0.93979E-07        -0.12599E-20         0.00000E+00
    0.93979E-07        -0.48481E-20         0.00000E+00
    0.93979E-07         0.21912E-20         0.00000E+00
    0.93979E-07         0.51223E-20         0.00000E+00
    0.93979E-07         0.29311E-20         0.00000E+00
    0.93979E-07         0.46566E-20         0.00000E+00
    0.93979E-07         0.40539E-20         0.00000E+00
    0.93979E-07         0.23283E-20         0.00000E+00
    0.93979E-07        -0.26569E-20         0.00000E+00
    0.93979E-07        -0.55879E-20         0.00000E+00
    0.93979E-07        -0.55879E-20         0.00000E+00
    0.93979E-07        -0.37253E-20         0.00000E+00
    0.93979E-07        -0.61907E-20         0.00000E+00
    0.93979E-07        -0.61907E-20         0.00000E+00
    0.93979E-07        -0.40539E-20         0.00000E+00
    0.93979E-07        -0.40539E-20         0.00000E+00
    0.93979E-07        -0.13709E-21         0.00000E+00
    0.93979E-07         0.46566E-21         0.00000E+00
    0.93979E-07        -0.12599E-20         0.00000E+00
    0.93979E-07         0.77792E-20         0.00000E+00
    0.93979E-07         0.10245E-19         0.00000E+00
    0.93979E-07         0.67934E-20         0.00000E+00
    0.94706E-07        -0.37253E-20         0.00000E+00
    0.94706E-07         0.31691E-20         0.00000E+00
    0.94706E-07         0.69849E-20         0.00000E+00
    0.94706E-07        -0.84075E-21         0.00000E+00
    0.94706E-07        -0.10335E-19         0.00000E+00
    0.94706E-07        -0.14060E-19         0.00000E+00
    0.94706E-07        -0.14811E-19         0.00000E+00
    0.94706E-07        -0.11642E-19         0.00000E+00
    0.94706E-07        -0.10710E-19         0.00000E+00
    0.94706E-07        -0.73600E-20         0.00000E+00
    0.94706E-07        -0.74506E-20         0.00000E+00
    0.94706E-07        -0.10801E-19         0.00000E+00
    0.94706E-07        -0.10801E-19         0.00000E+00
    0.94706E-07        -0.11551E-19         0.00000E+00
    0.94706E-07        -0.11732E-19         0.00000E+00
    0.94706E-07        -0.13039E-19         0.00000E+00
    0.94706E-07        -0.12857E-19         0.00000E+00
    0.94706E-07        -0.10245E-19         0.00000E+00
    0.94706E-07        -0.93132E-20         0.00000E+00
    0.94706E-07        -0.83819E-20         0.00000E+00
    0.94706E-07        -0.12663E-19         0.00000E+00
    0.94706E-07        -0.13595E-19         0.00000E+00
    0.94706E-07        -0.11085E-19         0.00000E+00
    0.94706E-07        -0.83819E-20         0.00000E+00
    0.94706E-07        -0.65193E-20         0.00000E+00
    0.94706E-07        -0.64287E-20         0.00000E+00
    0.94706E-07        -0.65193E-20         0.00000E+00
    0.94706E-07        -0.98695E-20         0.00000E+00
    0.94706E-07        -0.37253E-20         0.00000E+00
    0.94706E-07         0.55624E-21         0.00000E+00
    0.94706E-07         0.27940E-20         0.00000E+00
    0.94706E-07         0.46566E-20         0.00000E+00
    0.94706E-07         0.18626E-20         0.00000E+00
    0.94706E-07        -0.93132E-21         0.00000E+00
    0.94706E-07         0.93132E-21         0.00000E+00
    0.94706E-07         0.93132E-21         0.00000E+00
    0.94706E-07         0.18626E-20         0.00000E+00
    0.94706E-07         0.55879E-20         0.00000E+00
    0.94706E-07         0.86664E-20         0.00000E+00
    0.94706E-07         0.37253E-20         0.00000E+00
    0.94706E-07        -0.86664E-20         0.00000E+00
    0.94706E-07        -0.11266E-19         0.00000E+00
    0.94706E-07        -0.69849E-20         0.00000E+00
    0.94706E-07         0.93132E-21         0.00000E+00
    0.94706E-07         0.23283E-20         0.00000E+00
    0.94706E-07        -0.84075E-21         0.00000E+00
    0.94706E-07         0.93132E-21         0.00000E+00
    0.94706E-07         0.13064E-20         0.00000E+00
    0.94706E-07        -0.27940E-20         0.00000E+00
    0.94706E-07        -0.37509E-21         0.00000E+00
    0.94706E-07         0.18626E-20         0.00000E+00
    0.95276E-07        -0.10206E-21         0.00000E+00
    0.95276E-07        -0.18626E-20         0.00000E+00
    0.95276E-07        -0.27940E-20         0.00000E+00
    0.95276E-07        -0.74506E-20         0.00000E+00
    0.95276E-07        -0.12573E-19         0.00000E+00
    0.95276E-07        -0.11642E-19         0.00000E+00
    0.95276E-07        -0.97789E-20         0.00000E+00
    0.95276E-07        -0.11642E-19         0.00000E+00
    0.95276E-07        -0.15367E-19         0.00000E+00
    0.95276E-07        -0.15367E-19         0.00000E+00
    0.95276E-07        -0.13970E-19         0.00000E+00
    0.95276E-07        -0.11176E-19         0.00000E+00
    0.95276E-07        -0.88476E-20         0.00000E+00
    0.95276E-07        -0.42420E-20         0.00000E+00
    0.95276E-07        -0.83819E-20         0.00000E+00
    0.95276E-07        -0.14384E-19         0.00000E+00
    0.95276E-07        -0.18626E-19         0.00000E+00
    0.95276E-07        -0.13039E-19         0.00000E+00
    0.95276E-07        -0.10659E-19         0.00000E+00
    0.95276E-07        -0.11176E-19         0.00000E+00
    0.95276E-07        -0.13039E-19         0.00000E+00
    0.95276E-07        -0.12107E-19         0.00000E+00
    0.95276E-07        -0.37253E-20         0.00000E+00
    0.95276E-07         0.00000E+00         0.00000E+00
    0.95276E-07        -0.93132E-21         0.00000E+00
    0.95276E-07        -0.51669E-21         0.00000E+00
    0.95276E-07         0.27940E-20         0.00000E+00
    0.95276E-07        -0.13460E-20         0.00000E+00
    0.95276E-07        -0.27940E-20         0.00000E+00
    0.95276E-07        -0.93132E-21         0.00000E+00
    0.95276E-07        -0.23793E-20         0.00000E+00
    0.95276E-07        -0.33107E-20         0.00000E+00
    0.95276E-07         0.93132E-21         0.00000E+00
    0.95276E-07         0.70360E-20         0.00000E+00
    0.95276E-07         0.11693E-19         0.00000E+00
    0.95276E-07         0.83819E-20         0.00000E+00
    0.95276E-07         0.37253E-20         0.00000E+00
    0.95276E-07         0.93132E-21         0.00000E+00
    0.95276E-07        -0.14480E-20         0.00000E+00
    0.95276E-07        -0.46566E-21         0.00000E+00
    0.95276E-07         0.32596E-20         0.00000E+00
    0.95276E-07         0.51223E-20         0.00000E+00
    0.95276E-07        -0.88029E-21         0.00000E+00
    0.95276E-07        -0.27940E-20         0.00000E+00
    0.95276E-07        -0.27940E-20         0.00000E+00
    0.95276E-07        -0.27940E-20         0.00000E+00
    0.95276E-07        -0.93132E-21         0.00000E+00
    0.95276E-07        -0.37253E-20         0.00000E+00
    0.95276E-07        -0.37253E-20         0.00000E+00
    0.95276E-07         0.79673E-20         0.00000E+00
    0.95276E-07         0.14072E-19         0.00000E+00
    0.95686E-07        -0.96364E-21         0.00000E+00
    0.95686E-07         0.93132E-21         0.00000E+00
    0.95686E-07        -0.32435E-20         0.00000E+00
    0.95686E-07        -0.74667E-20         0.00000E+00
    0.95686E-07        -0.74667E-20         0.00000E+00
    0.95686E-07        -0.51061E-20         0.00000E+00
    0.95686E-07        -0.88314E-20         0.00000E+00
    0.95686E-07        -0.11176E-19         0.00000E+00
    0.95686E-07        -0.69688E-20         0.00000E+00
    0.95686E-07        -0.65193E-20         0.00000E+00
    0.95686E-07        -0.51384E-20         0.00000E+00
    0.95686E-07        -0.46566E-20         0.00000E+00
    0.95686E-07        -0.74506E-20         0.00000E+00
    0.95686E-07        -0.10245E-19         0.00000E+00
    0.95686E-07        -0.13970E-19         0.00000E+00
    0.95686E-07        -0.14901E-19         0.00000E+00
    0.95686E-07        -0.12107E-19         0.00000E+00
    0.95686E-07        -0.93132E-20         0.00000E+00
    0.95686E-07        -0.93132E-20         0.00000E+00
    0.95686E-07        -0.11176E-19         0.00000E+00
    0.95686E-07        -0.13039E-19         0.00000E+00
    0.95686E-07        -0.10245E-19         0.00000E+00
    0.95686E-07        -0.27940E-20         0.00000E+00
    0.95686E-07         0.18626E-20         0.00000E+00
    0.95686E-07         0.18626E-20         0.00000E+00
    0.95686E-07         0.46566E-20         0.00000E+00
    0.95686E-07         0.74506E-20         0.00000E+00
    0.95686E-07         0.55879E-20         0.00000E+00
    0.95686E-07         0.46566E-20         0.00000E+00
    0.95686E-07         0.18626E-20         0.00000E+00
    0.95686E-07         0.37253E-20         0.00000E+00
    0.95686E-07         0.27778E-20         0.00000E+00
    0.95686E-07         0.18626E-20         0.00000E+00
    0.95686E-07         0.41910E-20         0.00000E+00
    0.95686E-07        -0.93132E-21         0.00000E+00
    0.95686E-07        -0.23121E-20         0.00000E+00
    0.95686E-07         0.18626E-20         0.00000E+00
    0.95686E-07         0.60374E-20         0.00000E+00
    0.95686E-07         0.51223E-20         0.00000E+00
    0.95686E-07         0.83981E-20         0.00000E+00
    0.95686E-07         0.51061E-20         0.00000E+00
    0.95686E-07        -0.93132E-21         0.00000E+00
    0.95686E-07        -0.44950E-21         0.00000E+00
    0.95686E-07         0.00000E+00         0.00000E+00
    0.95686E-07        -0.27940E-20         0.00000E+00
    0.95686E-07        -0.23445E-20         0.00000E+00
    0.95686E-07        -0.27940E-20         0.00000E+00
    0.95686E-07        -0.13808E-20         0.00000E+00
    0.95686E-07         0.41748E-20         0.00000E+00
    0.95686E-07         0.37414E-20         0.00000E+00
    0.95686E-07         0.47212E-20         0.00000E+00
    0.95932E-07        -0.37253E-20         0.00000E+00
    0.95932E-07        -0.46402E-20         0.00000E+00
    0.95932E-07         0.18626E-20         0.00000E+00
    0.95932E-07        -0.94769E-21         0.00000E+00
    0.95932E-07        -0.14885E-19         0.00000E+00
    0.95932E-07        -0.13022E-19         0.00000E+00
    0.95932E-07        -0.14297E-20         0.00000E+00
    0.95932E-07         0.44929E-21         0.00000E+00
    0.95932E-07        -0.27776E-20         0.00000E+00
    0.95932E-07        -0.93132E-21         0.00000E+00
    0.95932E-07        -0.93132E-21         0.00000E+00
    0.95932E-07        -0.37253E-20         0.00000E+00
    0.95932E-07        -0.93132E-21         0.00000E+00
    0.95932E-07        -0.18463E-20         0.00000E+00
    0.95932E-07        -0.27940E-20         0.00000E+00
    0.95932E-07        -0.16371E-22         0.00000E+00
    0.95932E-07        -0.37253E-20         0.00000E+00
    0.95932E-07        -0.93132E-20         0.00000E+00
    0.95932E-07        -0.83819E-20         0.00000E+00
    0.95932E-07        -0.83819E-20         0.00000E+00
    0.95932E-07        -0.11176E-19         0.00000E+00
    0.95932E-07        -0.10245E-19         0.00000E+00
    0.95932E-07        -0.37253E-20         0.00000E+00
    0.95932E-07         0.37253E-20         0.00000E+00
    0.95932E-07         0.37253E-20         0.00000E+00
    0.95932E-07         0.46566E-20         0.00000E+00
    0.95932E-07         0.65193E-20         0.00000E+00
    0.95932E-07         0.37253E-20         0.00000E+00
    0.95932E-07         0.18626E-20         0.00000E+00
    0.95932E-07         0.00000E+00         0.00000E+00
    0.95932E-07        -0.93132E-21         0.00000E+00
    0.95932E-07        -0.43292E-21         0.00000E+00
    0.95932E-07         0.27940E-20         0.00000E+00
    0.95932E-07         0.60209E-20         0.00000E+00
    0.95932E-07         0.55879E-20         0.00000E+00
    0.95932E-07         0.46566E-20         0.00000E+00
    0.95932E-07         0.27940E-20         0.00000E+00
    0.95932E-07        -0.93132E-21         0.00000E+00
    0.95932E-07        -0.18626E-20         0.00000E+00
    0.95932E-07         0.93132E-21         0.00000E+00
    0.95932E-07        -0.93132E-21         0.00000E+00
    0.95932E-07        -0.27940E-20         0.00000E+00
    0.95932E-07        -0.93132E-21         0.00000E+00
    0.95932E-07        -0.27776E-20         0.00000E+00
    0.95932E-07        -0.27940E-20         0.00000E+00
    0.95932E-07        -0.94769E-21         0.00000E+00
    0.95932E-07        -0.37089E-20         0.00000E+00
    0.95932E-07        -0.37089E-20         0.00000E+00
    0.95932E-07         0.32433E-20         0.00000E+00
    0.95932E-07         0.50895E-20         0.00000E+00
    0.95932E-07         0.36925E-20         0.00000E+00
    0.96015E-07         0.00000E+00         0.00000E+00
    0.96015E-07         0.00000E+00         0.00000E+00
    0.96015E-07         0.00000E+00         0.00000E+00
    0.96015E-07         0.00000E+00         0.00000E+00
    0.96015E-07         0.00000E+00         0.00000E+00
    0.96015E-07         0.00000E+00         0.00000E+00
    0.96015E-07         0.00000E+00         0.00000E+00
    0.96015E-07         0.00000E+00         0.00000E+00
    0.96015E-07         0.00000E+00         0.00000E+00
    0.96015E-07        -0.27940E-20         0.00000E+00
    0.96015E-07         0.00000E+00         0.00000E+00
    0.96015E-07         0.27940E-20         0.00000E+00
    0.96015E-07         0.00000E+00         0.00000E+00
    0.96015E-07         0.00000E+00         0.00000E+00
    0.96015E-07         0.00000E+00         0.00000E+00
    0.96015E-07         0.00000E+00         0.00000E+00
    0.96015E-07         0.00000E+00         0.00000E+00
    0.96015E-07         0.27940E-20         0.00000E+00
    0.96015E-07         0.00000E+00         0.00000E+00
    0.96015E-07        -0.27940E-20         0.00000E+00
    0.96015E-07         0.00000E+00         0.00000E+00
    0.96015E-07         0.00000E+00         0.00000E+00
    0.96015E-07         0.00000E+00         0.00000E+00
    0.96015E-07         0.00000E+00         0.00000E+00
    0.96015E-07         0.00000E+00         0.00000E+00
    0.96015E-07         0.00000E+00         0.00000E+00
    0.96015E-07         0.00000E+00         0.00000E+00
    0.96015E-07         0.00000E+00         0.00000E+00
    0.96015E-07         0.00000E+00         0.00000E+00
    0.96015E-07         0.00000E+00         0.00000E+00
    0.96015E-07         0.00000E+00         0.00000E+00
    0.96015E-07         0.00000E+00         0.00000E+00
    0.96015E-07         0.00000E+00         0.00000E+00
    0.96015E-07         0.00000E+00         0.00000E+00
    0.96015E-07         0.00000E+00         0.00000E+00
    0.96015E-07         0.00000E+00         0.00000E+00
    0.96015E-07         0.00000E+00         0.00000E+00
    0.96015E-07         0.00000E+00         0.00000E+00
    0.96015E-07         0.00000E+00         0.00000E+00
    0.96015E-07        -0.37253E-20         0.00000E+00
    0.96015E-07        -0.27940E-20         0.00000E+00
    0.96015E-07         0.27940E-20         0.00000E+00
    0.96015E-07         0.27940E-20         0.00000E+00
    0.96015E-07         0.00000E+00         0.00000E+00
    0.96015E-07         0.00000E+00         0.00000E+00
    0.96015E-07         0.00000E+00         0.00000E+00
    0.96015E-07         0.00000E+00         0.00000E+00
    0.96015E-07         0.27940E-20         0.00000E+00
    0.96015E-07         0.93132E-21         0.00000E+00
    0.96015E-07         0.00000E+00         0.00000E+00
    0.96015E-07         0.55879E-20         0.00000E+00
CELL_DATA       5000
TENSORS stressef double 
    0.12979E+08        -0.69951E+05         0.00000E+00
   -0.69951E+05         0.19686E+08         0.00000E+00
    0.00000E+00         0.00000E+00         0.94018E+07
 
    0.12964E+08        -0.69871E+05         0.00000E+00
   -0.69871E+05         0.19674E+08         0.00000E+00
    0.00000E+00         0.00000E+00         0.87726E+07
 
    0.12857E+08        -0.84927E+05         0.00000E+00
   -0.84927E+05         0.19657E+08         0.00000E+00
    0.00000E+00         0.00000E+00         0.82104E+07
 
    0.12705E+08        -0.10471E+06         0.00000E+00
   -0.10471E+06         0.19633E+08         0.00000E+00
    0.00000E+00         0.00000E+00         0.77074E+07
 
    0.12518E+08        -0.13213E+06         0.00000E+00
   -0.13213E+06         0.19584E+08         0.00000E+00
    0.00000E+00         0.00000E+00         0.73137E+07
 
    0.12309E+08        -0.15727E+06         0.00000E+00
   -0.15727E+06         0.19521E+08         0.00000E+00
    0.00000E+00         0.00000E+00         0.71296E+07
 
    0.12086E+08        -0.17219E+06         0.00000E+00
   -0.17219E+06         0.19458E+08         0.00000E+00
    0.00000E+00         0.00000E+00         0.70116E+07
 
    0.11857E+08        -0.17767E+06         0.00000E+00
   -0.17767E+06         0.19394E+08         0.00000E+00
    0.00000E+00         0.00000E+00         0.68943E+07
 
    0.11630E+08        -0.17520E+06         0.00000E+00
   -0.17520E+06         0.19330E+08         0.00000E+00
    0.00000E+00         0.00000E+00         0.67792E+07
 
    0.11414E+08        -0.16903E+06         0.00000E+00
   -0.16903E+06         0.19268E+08         0.00000E+00
    0.00000E+00         0.00000E+00         0.66691E+07
 
    0.11210E+08        -0.16087E+06         0.00000E+00
   -0.16087E+06         0.19207E+08         0.00000E+00
    0.00000E+00         0.00000E+00         0.65643E+07
 
    0.11019E+08        -0.15219E+06         0.00000E+00
   -0.15219E+06         0.19148E+08         0.00000E+00
    0.00000E+00         0.00000E+00         0.64653E+07
 
    0.10839E+08        -0.14363E+06         0.00000E+00
   -0.14363E+06         0.19092E+08         0.00000E+00
    0.00000E+00         0.00000E+00         0.63723E+07
 
    0.10669E+08        -0.13544E+06         0.00000E+00
   -0.13544E+06         0.19039E+08         0.00000E+00
    0.00000E+00         0.00000E+00         0.62850E+07
 
    0.10507E+08        -0.12770E+06         0.00000E+00
   -0.12770E+06         0.18989E+08         0.00000E+00
    0.00000E+00         0.00000E+00         0.62034E+07
 
    0.10351E+08        -0.12031E+06         0.00000E+00
   -0.12031E+06         0.18941E+08         0.00000E+00
    0.00000E+00         0.00000E+00         0.61274E+07
 
    0.10200E+08        -0.11322E+06         0.00000E+00
   -0.11322E+06         0.18895E+08         0.00000E+00
    0.00000E+00         0.00000E+00         0.60568E+07
 
    0.10053E+08        -0.10629E+06         0.00000E+00
   -0.10629E+06         0.18852E+08         0.00000E+00
    0.00000E+00         0.00000E+00         0.59916E+07
 
    0.99088E+07        -0.99394E+05         0.00000E+00
   -0.99394E+05         0.18812E+08         0.00000E+00
    0.00000E+00         0.00000E+00         0.59321E+07
 
    0.97672E+07        -0.92441E+05         0.00000E+00
   -0.92441E+05         0.18774E+08         0.00000E+00
    0.00000E+00         0.00000E+00         0.58783E+07
 
    0.96275E+07        -0.85329E+05         0.00000E+00
   -0.85329E+05         0.18739E+08         0.00000E+00
    0.00000E+00         0.00000E+00         0.58305E+07
 
    0.94895E+07        -0.77847E+05         0.00000E+00
   -0.77847E+05         0.18707E+08         0.00000E+00
    0.00000E+00         0.00000E+00         0.57890E+07
 
    0.93527E+07        -0.69907E+05         0.00000E+00
   -0.69907E+05         0.18678E+08         0.00000E+00
    0.00000E+00         0.00000E+00         0.57544E+07
 
    0.92175E+07        -0.61516E+05         0.00000E+00
   -0.61516E+05         0.18651E+08         0.00000E+00
    0.00000E+00         0.00000E+00         0.57271E+07
 
    0.90841E+07        -0.52657E+05         0.00000E+00
   -0.52657E+05         0.18628E+08         0.00000E+00
    0.00000E+00         0.00000E+00         0.57078E+07
 
    0.89532E+07        -0.43451E+05         0.00000E+00
   -0.43451E+05         0.18608E+08         0.00000E+00
    0.00000E+00         0.00000E+00         0.56969E+07
 
    0.88257E+07        -0.34168E+05         0.00000E+00
   -0.34168E+05         0.18592E+08         0.00000E+00
    0.00000E+00         0.00000E+00         0.56949E+07
 
    0.87027E+07        -0.25175E+05         0.00000E+00
   -0.25175E+05         0.18580E+08         0.00000E+00
    0.00000E+00         0.00000E+00         0.57017E+07
 
    0.85853E+07        -0.16631E+05         0.00000E+00
   -0.16631E+05         0.18571E+08         0.00000E+00
    0.00000E+00         0.00000E+00         0.57167E+07
 
    0.84741E+07        -0.84623E+04         0.00000E+00
   -0.84623E+04         0.18566E+08         0.00000E+00
    0.00000E+00         0.00000E+00         0.57398E+07
 
    0.83697E+07        -0.89083E+03         0.00000E+00
   -0.89083E+03         0.18564E+08         0.00000E+00
    0.00000E+00         0.00000E+00         0.57703E+07
 
    0.82729E+07         0.57349E+04         0.00000E+00
    0.57349E+04         0.18565E+08         0.00000E+00
    0.00000E+00         0.00000E+00         0.58074E+07
 
    0.81838E+07         0.11617E+05         0.00000E+00
    0.11617E+05         0.18569E+08         0.00000E+00
    0.00000E+00         0.00000E+00         0.58498E+07
 
    0.81018E+07         0.17146E+05         0.00000E+00
    0.17146E+05         0.18575E+08         0.00000E+00
    0.00000E+00         0.00000E+00         0.58973E+07
 
    0.80267E+07         0.22081E+05         0.00000E+00
    0.22081E+05         0.18583E+08         0.00000E+00
    0.00000E+00         0.00000E+00         0.59492E+07
 
    0.79584E+07         0.26748E+05         0.00000E+00
    0.26748E+05         0.18594E+08         0.00000E+00
    0.00000E+00         0.00000E+00         0.60048E+07
 
    0.78962E+07         0.31386E+05         0.00000E+00
    0.31386E+05         0.18606E+08         0.00000E+00
    0.00000E+00         0.00000E+00         0.60643E+07
 
    0.78385E+07         0.35838E+05         0.00000E+00
    0.35838E+05         0.18619E+08         0.00000E+00
    0.00000E+00         0.00000E+00         0.61279E+07
 
    0.77864E+07         0.40401E+05         0.00000E+00
    0.40401E+05         0.18635E+08         0.00000E+00
    0.00000E+00         0.00000E+00         0.61952E+07
 
    0.77388E+07         0.45326E+05         0.00000E+00
    0.45326E+05         0.18653E+08         0.00000E+00
    0.00000E+00         0.00000E+00         0.62667E+07
 
    0.76940E+07         0.50662E+05         0.00000E+00
    0.50662E+05         0.18672E+08         0.00000E+00
    0.00000E+00         0.00000E+00         0.63441E+07
 
    0.76542E+07         0.56645E+05         0.00000E+00
    0.56645E+05         0.18694E+08         0.00000E+00
    0.00000E+00         0.00000E+00         0.64267E+07
 
    0.76180E+07         0.63258E+05         0.00000E+00
    0.63258E+05         0.18718E+08         0.00000E+00
    0.00000E+00         0.00000E+00         0.65159E+07
 
    0.75835E+07         0.70721E+05         0.00000E+00
    0.70721E+05         0.18745E+08         0.00000E+00
    0.00000E+00         0.00000E+00         0.66140E+07
 
    0.75542E+07         0.79516E+05         0.00000E+00
    0.79516E+05         0.18776E+08         0.00000E+00
    0.00000E+00         0.00000E+00         0.67199E+07
 
    0.75290E+07         0.89750E+05         0.00000E+00
    0.89750E+05         0.18809E+08         0.00000E+00
    0.00000E+00         0.00000E+00         0.68358E+07
 
    0.75059E+07         0.10236E+06         0.00000E+00
    0.10236E+06         0.18847E+08         0.00000E+00
    0.00000E+00         0.00000E+00         0.69651E+07
 
    0.74921E+07         0.11756E+06         0.00000E+00
    0.11756E+06         0.18888E+08         0.00000E+00
    0.00000E+00         0.00000E+00         0.71040E+07
 
    0.74824E+07         0.13686E+06         0.00000E+00
    0.13686E+06         0.18935E+08         0.00000E+00
    0.00000E+00         0.00000E+00         0.72568E+07
 
    0.74817E+07         0.16380E+06         0.00000E+00
    0.16380E+06         0.18983E+08         0.00000E+00
    0.00000E+00         0.00000E+00         0.74153E+07
 
    0.12186E+08        -0.25466E+05         0.00000E+00
   -0.25466E+05         0.19062E+08         0.00000E+00
    0.00000E+00         0.00000E+00         0.63966E+07
 
    0.12110E+08        -0.10336E+06         0.00000E+00
   -0.10336E+06         0.19062E+08         0.00000E+00
    0.00000E+00         0.00000E+00         0.63880E+07
 
    0.11990E+08        -0.17368E+06         0.00000E+00
   -0.17368E+06         0.19048E+08         0.00000E+00
    0.00000E+00         0.00000E+00         0.63558E+07
 
    0.11840E+08        -0.23738E+06         0.00000E+00
   -0.23738E+06         0.19025E+08         0.00000E+00
    0.00000E+00         0.00000E+00         0.63088E+07
 
    0.11678E+08        -0.28963E+06         0.00000E+00
   -0.28963E+06         0.19018E+08         0.00000E+00
    0.00000E+00         0.00000E+00         0.62874E+07
 
    0.11508E+08        -0.32797E+06         0.00000E+00
   -0.32797E+06         0.19018E+08         0.00000E+00
    0.00000E+00         0.00000E+00         0.62786E+07
 
    0.11331E+08        -0.35659E+06         0.00000E+00
   -0.35659E+06         0.19008E+08         0.00000E+00
    0.00000E+00         0.00000E+00         0.62562E+07
 
    0.11149E+08        -0.37695E+06         0.00000E+00
   -0.37695E+06         0.18990E+08         0.00000E+00
    0.00000E+00         0.00000E+00         0.62241E+07
 
    0.10964E+08        -0.38846E+06         0.00000E+00
   -0.38846E+06         0.18968E+08         0.00000E+00
    0.00000E+00         0.00000E+00         0.61850E+07
 
    0.10778E+08        -0.39181E+06         0.00000E+00
   -0.39181E+06         0.18940E+08         0.00000E+00
    0.00000E+00         0.00000E+00         0.61392E+07
 
    0.10596E+08        -0.38879E+06         0.00000E+00
   -0.38879E+06         0.18909E+08         0.00000E+00
    0.00000E+00         0.00000E+00         0.60892E+07
 
    0.10418E+08        -0.38108E+06         0.00000E+00
   -0.38108E+06         0.18876E+08         0.00000E+00
    0.00000E+00         0.00000E+00         0.60366E+07
 
    0.10246E+08        -0.37028E+06         0.00000E+00
   -0.37028E+06         0.18841E+08         0.00000E+00
    0.00000E+00         0.00000E+00         0.59826E+07
 
    0.10080E+08        -0.35752E+06         0.00000E+00
   -0.35752E+06         0.18805E+08         0.00000E+00
    0.00000E+00         0.00000E+00         0.59286E+07
 
    0.99199E+07        -0.34354E+06         0.00000E+00
   -0.34354E+06         0.18769E+08         0.00000E+00
    0.00000E+00         0.00000E+00         0.58753E+07
 
    0.97650E+07        -0.32884E+06         0.00000E+00
   -0.32884E+06         0.18733E+08         0.00000E+00
    0.00000E+00         0.00000E+00         0.58235E+07
 
    0.96148E+07        -0.31363E+06         0.00000E+00
   -0.31363E+06         0.18698E+08         0.00000E+00
    0.00000E+00         0.00000E+00         0.57736E+07
 
    0.94689E+07        -0.29804E+06         0.00000E+00
   -0.29804E+06         0.18663E+08         0.00000E+00
    0.00000E+00         0.00000E+00         0.57266E+07
 
    0.93265E+07        -0.28200E+06         0.00000E+00
   -0.28200E+06         0.18629E+08         0.00000E+00
    0.00000E+00         0.00000E+00         0.56821E+07
 
    0.91870E+07        -0.26535E+06         0.00000E+00
   -0.26535E+06         0.18597E+08         0.00000E+00
    0.00000E+00         0.00000E+00         0.56406E+07
 
    0.90503E+07        -0.24790E+06         0.00000E+00
   -0.24790E+06         0.18565E+08         0.00000E+00
    0.00000E+00         0.00000E+00         0.56026E+07
 
    0.89162E+07        -0.22953E+06         0.00000E+00
   -0.22953E+06         0.18535E+08         0.00000E+00
    0.00000E+00         0.00000E+00         0.55689E+07
 
    0.87837E+07        -0.20995E+06         0.00000E+00
   -0.20995E+06         0.18506E+08         0.00000E+00
    0.00000E+00         0.00000E+00         0.55384E+07
 
    0.86530E+07        -0.18894E+06         0.00000E+00
   -0.18894E+06         0.18479E+08         0.00000E+00
    0.00000E+00         0.00000E+00         0.55125E+07
 
    0.85240E+07        -0.16640E+06         0.00000E+00
   -0.16640E+06         0.18454E+08         0.00000E+00
    0.00000E+00         0.00000E+00         0.54915E+07
 
    0.83963E+07        -0.14234E+06         0.00000E+00
   -0.14234E+06         0.18430E+08         0.00000E+00
    0.00000E+00         0.00000E+00         0.54760E+07
 
    0.82703E+07        -0.11698E+06         0.00000E+00
   -0.11698E+06         0.18409E+08         0.00000E+00
    0.00000E+00         0.00000E+00         0.54667E+07
 
    0.81464E+07        -0.90850E+05         0.00000E+00
   -0.90850E+05         0.18390E+08         0.00000E+00
    0.00000E+00         0.00000E+00         0.54647E+07
 
    0.80265E+07        -0.64654E+05         0.00000E+00
   -0.64654E+05         0.18376E+08         0.00000E+00
    0.00000E+00         0.00000E+00         0.54725E+07
 
    0.79113E+07        -0.39407E+05         0.00000E+00
   -0.39407E+05         0.18364E+08         0.00000E+00
    0.00000E+00         0.00000E+00         0.54893E+07
 
    0.78013E+07        -0.15788E+05         0.00000E+00
   -0.15788E+05         0.18356E+08         0.00000E+00
    0.00000E+00         0.00000E+00         0.55142E+07
 
    0.76980E+07         0.63481E+04         0.00000E+00
    0.63481E+04         0.18352E+08         0.00000E+00
    0.00000E+00         0.00000E+00         0.55471E+07
 
    0.76030E+07         0.26513E+05         0.00000E+00
    0.26513E+05         0.18351E+08         0.00000E+00
    0.00000E+00         0.00000E+00         0.55890E+07
 
    0.75161E+07         0.44389E+05         0.00000E+00
    0.44389E+05         0.18354E+08         0.00000E+00
    0.00000E+00         0.00000E+00         0.56374E+07
 
    0.74369E+07         0.60921E+05         0.00000E+00
    0.60921E+05         0.18360E+08         0.00000E+00
    0.00000E+00         0.00000E+00         0.56913E+07
 
    0.73658E+07         0.76105E+05         0.00000E+00
    0.76105E+05         0.18368E+08         0.00000E+00
    0.00000E+00         0.00000E+00         0.57505E+07
 
    0.73019E+07         0.90067E+05         0.00000E+00
    0.90067E+05         0.18378E+08         0.00000E+00
    0.00000E+00         0.00000E+00         0.58128E+07
 
    0.72449E+07         0.10396E+06         0.00000E+00
    0.10396E+06         0.18390E+08         0.00000E+00
    0.00000E+00         0.00000E+00         0.58789E+07
 
    0.71946E+07         0.11826E+06         0.00000E+00
    0.11826E+06         0.18405E+08         0.00000E+00
    0.00000E+00         0.00000E+00         0.59489E+07
 
    0.71503E+07         0.13334E+06         0.00000E+00
    0.13334E+06         0.18421E+08         0.00000E+00
    0.00000E+00         0.00000E+00         0.60227E+07
 
    0.71114E+07         0.14983E+06         0.00000E+00
    0.14983E+06         0.18439E+08         0.00000E+00
    0.00000E+00         0.00000E+00         0.61010E+07
 
    0.70774E+07         0.16782E+06         0.00000E+00
    0.16782E+06         0.18460E+08         0.00000E+00
    0.00000E+00         0.00000E+00         0.61842E+07
 
    0.70491E+07         0.18778E+06         0.00000E+00
    0.18778E+06         0.18483E+08         0.00000E+00
    0.00000E+00         0.00000E+00         0.62725E+07
 
    0.70263E+07         0.21063E+06         0.00000E+00
    0.21063E+06         0.18509E+08         0.00000E+00
    0.00000E+00         0.00000E+00         0.63670E+07
 
    0.70096E+07         0.23644E+06         0.00000E+00
    0.23644E+06         0.18537E+08         0.00000E+00
    0.00000E+00         0.00000E+00         0.64685E+07
 
    0.70014E+07         0.26635E+06         0.00000E+00
    0.26635E+06         0.18569E+08         0.00000E+00
    0.00000E+00         0.00000E+00         0.65762E+07
 
    0.70010E+07         0.30100E+06         0.00000E+00
    0.30100E+06         0.18605E+08         0.00000E+00
    0.00000E+00         0.00000E+00         0.66919E+07
 
    0.70125E+07         0.34173E+06         0.00000E+00
    0.34173E+06         0.18644E+08         0.00000E+00
    0.00000E+00         0.00000E+00         0.68128E+07
 
    0.70425E+07         0.38923E+06         0.00000E+00
    0.38923E+06         0.18689E+08         0.00000E+00
    0.00000E+00         0.00000E+00         0.69402E+07
 
    0.71025E+07         0.44260E+06         0.00000E+00
    0.44260E+06         0.18744E+08         0.00000E+00
    0.00000E+00         0.00000E+00         0.70754E+07
 
    0.11239E+08        -0.18112E+05         0.00000E+00
   -0.18112E+05         0.18376E+08         0.00000E+00
    0.00000E+00         0.00000E+00         0.59231E+07
 
    0.11140E+08        -0.82801E+05         0.00000E+00
   -0.82801E+05         0.18378E+08         0.00000E+00
    0.00000E+00         0.00000E+00         0.59036E+07
 
    0.11033E+08        -0.14937E+06         0.00000E+00
   -0.14937E+06         0.18387E+08         0.00000E+00
    0.00000E+00         0.00000E+00         0.58841E+07
 
    0.10917E+08        -0.21092E+06         0.00000E+00
   -0.21092E+06         0.18402E+08         0.00000E+00
    0.00000E+00         0.00000E+00         0.58638E+07
 
    0.10793E+08        -0.26634E+06         0.00000E+00
   -0.26634E+06         0.18412E+08         0.00000E+00
    0.00000E+00         0.00000E+00         0.58411E+07
 
    0.10662E+08        -0.31694E+06         0.00000E+00
   -0.31694E+06         0.18420E+08         0.00000E+00
    0.00000E+00         0.00000E+00         0.58164E+07
 
    0.10525E+08        -0.36154E+06         0.00000E+00
   -0.36154E+06         0.18428E+08         0.00000E+00
    0.00000E+00         0.00000E+00         0.57906E+07
 
    0.10382E+08        -0.39900E+06         0.00000E+00
   -0.39900E+06         0.18436E+08         0.00000E+00
    0.00000E+00         0.00000E+00         0.57636E+07
 
    0.10236E+08        -0.42925E+06         0.00000E+00
   -0.42925E+06         0.18441E+08         0.00000E+00
    0.00000E+00         0.00000E+00         0.57354E+07
 
    0.10086E+08        -0.45228E+06         0.00000E+00
   -0.45228E+06         0.18445E+08         0.00000E+00
    0.00000E+00         0.00000E+00         0.57061E+07
 
    0.99345E+07        -0.46824E+06         0.00000E+00
   -0.46824E+06         0.18444E+08         0.00000E+00
    0.00000E+00         0.00000E+00         0.56758E+07
 
    0.97825E+07        -0.47766E+06         0.00000E+00
   -0.47766E+06         0.18441E+08         0.00000E+00
    0.00000E+00         0.00000E+00         0.56447E+07
 
    0.96312E+07        -0.48125E+06         0.00000E+00
   -0.48125E+06         0.18434E+08         0.00000E+00
    0.00000E+00         0.00000E+00         0.56130E+07
 
    0.94816E+07        -0.47986E+06         0.00000E+00
   -0.47986E+06         0.18423E+08         0.00000E+00
    0.00000E+00         0.00000E+00         0.55810E+07
 
    0.93342E+07        -0.47423E+06         0.00000E+00
   -0.47423E+06         0.18410E+08         0.00000E+00
    0.00000E+00         0.00000E+00         0.55489E+07
 
    0.91896E+07        -0.46504E+06         0.00000E+00
   -0.46504E+06         0.18395E+08         0.00000E+00
    0.00000E+00         0.00000E+00         0.55171E+07
 
    0.90479E+07        -0.45290E+06         0.00000E+00
   -0.45290E+06         0.18378E+08         0.00000E+00
    0.00000E+00         0.00000E+00         0.54857E+07
 
    0.89094E+07        -0.43819E+06         0.00000E+00
   -0.43819E+06         0.18360E+08         0.00000E+00
    0.00000E+00         0.00000E+00         0.54554E+07
 
    0.87739E+07        -0.42125E+06         0.00000E+00
   -0.42125E+06         0.18342E+08         0.00000E+00
    0.00000E+00         0.00000E+00         0.54255E+07
 
    0.86412E+07        -0.40232E+06         0.00000E+00
   -0.40232E+06         0.18323E+08         0.00000E+00
    0.00000E+00         0.00000E+00         0.53964E+07
 
    0.85115E+07        -0.38156E+06         0.00000E+00
   -0.38156E+06         0.18305E+08         0.00000E+00
    0.00000E+00         0.00000E+00         0.53682E+07
 
    0.83848E+07        -0.35895E+06         0.00000E+00
   -0.35895E+06         0.18288E+08         0.00000E+00
    0.00000E+00         0.00000E+00         0.53419E+07
 
    0.82603E+07        -0.33454E+06         0.00000E+00
   -0.33454E+06         0.18270E+08         0.00000E+00
    0.00000E+00         0.00000E+00         0.53159E+07
 
    0.81381E+07        -0.30831E+06         0.00000E+00
   -0.30831E+06         0.18254E+08         0.00000E+00
    0.00000E+00         0.00000E+00         0.52914E+07
 
    0.80179E+07        -0.28015E+06         0.00000E+00
   -0.28015E+06         0.18238E+08         0.00000E+00
    0.00000E+00         0.00000E+00         0.52684E+07
 
    0.78991E+07        -0.24987E+06         0.00000E+00
   -0.24987E+06         0.18224E+08         0.00000E+00
    0.00000E+00         0.00000E+00         0.52469E+07
 
    0.77811E+07        -0.21724E+06         0.00000E+00
   -0.21724E+06         0.18210E+08         0.00000E+00
    0.00000E+00         0.00000E+00         0.52273E+07
 
    0.76628E+07        -0.18197E+06         0.00000E+00
   -0.18197E+06         0.18196E+08         0.00000E+00
    0.00000E+00         0.00000E+00         0.52099E+07
 
    0.75480E+07        -0.14393E+06         0.00000E+00
   -0.14393E+06         0.18176E+08         0.00000E+00
    0.00000E+00         0.00000E+00         0.52056E+07
 
    0.74316E+07        -0.10332E+06         0.00000E+00
   -0.10332E+06         0.18156E+08         0.00000E+00
    0.00000E+00         0.00000E+00         0.52052E+07
 
    0.73181E+07        -0.61076E+05         0.00000E+00
   -0.61076E+05         0.18141E+08         0.00000E+00
    0.00000E+00         0.00000E+00         0.52166E+07
 
    0.72089E+07        -0.19073E+05         0.00000E+00
   -0.19073E+05         0.18130E+08         0.00000E+00
    0.00000E+00         0.00000E+00         0.52414E+07
 
    0.71018E+07         0.21028E+05         0.00000E+00
    0.21028E+05         0.18122E+08         0.00000E+00
    0.00000E+00         0.00000E+00         0.52745E+07
 
    0.70025E+07         0.58015E+05         0.00000E+00
    0.58015E+05         0.18119E+08         0.00000E+00
    0.00000E+00         0.00000E+00         0.53209E+07
 
    0.69135E+07         0.90355E+05         0.00000E+00
    0.90355E+05         0.18122E+08         0.00000E+00
    0.00000E+00         0.00000E+00         0.53789E+07
 
    0.68328E+07         0.11929E+06         0.00000E+00
    0.11929E+06         0.18128E+08         0.00000E+00
    0.00000E+00         0.00000E+00         0.54414E+07
 
    0.67649E+07         0.14682E+06         0.00000E+00
    0.14682E+06         0.18138E+08         0.00000E+00
    0.00000E+00         0.00000E+00         0.55129E+07
 
    0.67073E+07         0.17317E+06         0.00000E+00
    0.17317E+06         0.18152E+08         0.00000E+00
    0.00000E+00         0.00000E+00         0.55894E+07
 
    0.66595E+07         0.19929E+06         0.00000E+00
    0.19929E+06         0.18168E+08         0.00000E+00
    0.00000E+00         0.00000E+00         0.56704E+07
 
    0.66203E+07         0.22557E+06         0.00000E+00
    0.22557E+06         0.18187E+08         0.00000E+00
    0.00000E+00         0.00000E+00         0.57548E+07
 
    0.65895E+07         0.25291E+06         0.00000E+00
    0.25291E+06         0.18208E+08         0.00000E+00
    0.00000E+00         0.00000E+00         0.58414E+07
 
    0.65672E+07         0.28253E+06         0.00000E+00
    0.28253E+06         0.18231E+08         0.00000E+00
    0.00000E+00         0.00000E+00         0.59308E+07
 
    0.65531E+07         0.31539E+06         0.00000E+00
    0.31539E+06         0.18256E+08         0.00000E+00
    0.00000E+00         0.00000E+00         0.60232E+07
 
    0.65477E+07         0.35181E+06         0.00000E+00
    0.35181E+06         0.18284E+08         0.00000E+00
    0.00000E+00         0.00000E+00         0.61186E+07
 
    0.65507E+07         0.39234E+06         0.00000E+00
    0.39234E+06         0.18314E+08         0.00000E+00
    0.00000E+00         0.00000E+00         0.62168E+07
 
    0.65634E+07         0.43679E+06         0.00000E+00
    0.43679E+06         0.18346E+08         0.00000E+00
    0.00000E+00         0.00000E+00         0.63174E+07
 
    0.65875E+07         0.48562E+06         0.00000E+00
    0.48562E+06         0.18380E+08         0.00000E+00
    0.00000E+00         0.00000E+00         0.64191E+07
 
    0.66242E+07         0.53740E+06         0.00000E+00
    0.53740E+06         0.18418E+08         0.00000E+00
    0.00000E+00         0.00000E+00         0.65214E+07
 
    0.66709E+07         0.59218E+06         0.00000E+00
    0.59218E+06         0.18456E+08         0.00000E+00
    0.00000E+00         0.00000E+00         0.66204E+07
 
    0.67240E+07         0.64863E+06         0.00000E+00
    0.64863E+06         0.18492E+08         0.00000E+00
    0.00000E+00         0.00000E+00         0.67105E+07
 
    0.10314E+08        -0.36605E+05         0.00000E+00
   -0.36605E+05         0.17766E+08         0.00000E+00
    0.00000E+00         0.00000E+00         0.56160E+07
 
    0.10211E+08        -0.92375E+05         0.00000E+00
   -0.92375E+05         0.17763E+08         0.00000E+00
    0.00000E+00         0.00000E+00         0.55947E+07
 
    0.10111E+08        -0.14582E+06         0.00000E+00
   -0.14582E+06         0.17759E+08         0.00000E+00
    0.00000E+00         0.00000E+00         0.55739E+07
 
    0.10010E+08        -0.19771E+06         0.00000E+00
   -0.19771E+06         0.17757E+08         0.00000E+00
    0.00000E+00         0.00000E+00         0.55533E+07
 
    0.99063E+07        -0.24715E+06         0.00000E+00
   -0.24715E+06         0.17758E+08         0.00000E+00
    0.00000E+00         0.00000E+00         0.55328E+07
 
    0.97996E+07        -0.29264E+06         0.00000E+00
   -0.29264E+06         0.17761E+08         0.00000E+00
    0.00000E+00         0.00000E+00         0.55121E+07
 
    0.96894E+07        -0.33375E+06         0.00000E+00
   -0.33375E+06         0.17765E+08         0.00000E+00
    0.00000E+00         0.00000E+00         0.54909E+07
 
    0.95757E+07        -0.37030E+06         0.00000E+00
   -0.37030E+06         0.17770E+08         0.00000E+00
    0.00000E+00         0.00000E+00         0.54692E+07
 
    0.94589E+07        -0.40196E+06         0.00000E+00
   -0.40196E+06         0.17777E+08         0.00000E+00
    0.00000E+00         0.00000E+00         0.54471E+07
 
    0.93392E+07        -0.42852E+06         0.00000E+00
   -0.42852E+06         0.17784E+08         0.00000E+00
    0.00000E+00         0.00000E+00         0.54246E+07
 
    0.92171E+07        -0.44991E+06         0.00000E+00
   -0.44991E+06         0.17792E+08         0.00000E+00
    0.00000E+00         0.00000E+00         0.54018E+07
 
    0.90933E+07        -0.46608E+06         0.00000E+00
   -0.46608E+06         0.17799E+08         0.00000E+00
    0.00000E+00         0.00000E+00         0.53785E+07
 
    0.89681E+07        -0.47709E+06         0.00000E+00
   -0.47709E+06         0.17807E+08         0.00000E+00
    0.00000E+00         0.00000E+00         0.53550E+07
 
    0.88423E+07        -0.48309E+06         0.00000E+00
   -0.48309E+06         0.17814E+08         0.00000E+00
    0.00000E+00         0.00000E+00         0.53313E+07
 
    0.87164E+07        -0.48433E+06         0.00000E+00
   -0.48433E+06         0.17821E+08         0.00000E+00
    0.00000E+00         0.00000E+00         0.53075E+07
 
    0.85910E+07        -0.48112E+06         0.00000E+00
   -0.48112E+06         0.17827E+08         0.00000E+00
    0.00000E+00         0.00000E+00         0.52837E+07
 
    0.84664E+07        -0.47376E+06         0.00000E+00
   -0.47376E+06         0.17833E+08         0.00000E+00
    0.00000E+00         0.00000E+00         0.52599E+07
 
    0.83431E+07        -0.46264E+06         0.00000E+00
   -0.46264E+06         0.17838E+08         0.00000E+00
    0.00000E+00         0.00000E+00         0.52362E+07
 
    0.82213E+07        -0.44811E+06         0.00000E+00
   -0.44811E+06         0.17842E+08         0.00000E+00
    0.00000E+00         0.00000E+00         0.52127E+07
 
    0.81012E+07        -0.43046E+06         0.00000E+00
   -0.43046E+06         0.17846E+08         0.00000E+00
    0.00000E+00         0.00000E+00         0.51895E+07
 
    0.79830E+07        -0.40998E+06         0.00000E+00
   -0.40998E+06         0.17850E+08         0.00000E+00
    0.00000E+00         0.00000E+00         0.51666E+07
 
    0.78667E+07        -0.38701E+06         0.00000E+00
   -0.38701E+06         0.17853E+08         0.00000E+00
    0.00000E+00         0.00000E+00         0.51440E+07
 
    0.77524E+07        -0.36181E+06         0.00000E+00
   -0.36181E+06         0.17856E+08         0.00000E+00
    0.00000E+00         0.00000E+00         0.51217E+07
 
    0.76399E+07        -0.33457E+06         0.00000E+00
   -0.33457E+06         0.17859E+08         0.00000E+00
    0.00000E+00         0.00000E+00         0.50998E+07
 
    0.75293E+07        -0.30554E+06         0.00000E+00
   -0.30554E+06         0.17862E+08         0.00000E+00
    0.00000E+00         0.00000E+00         0.50783E+07
 
    0.74203E+07        -0.27496E+06         0.00000E+00
   -0.27496E+06         0.17865E+08         0.00000E+00
    0.00000E+00         0.00000E+00         0.50570E+07
 
    0.73125E+07        -0.24301E+06         0.00000E+00
   -0.24301E+06         0.17867E+08         0.00000E+00
    0.00000E+00         0.00000E+00         0.50358E+07
 
    0.72056E+07        -0.20983E+06         0.00000E+00
   -0.20983E+06         0.17869E+08         0.00000E+00
    0.00000E+00         0.00000E+00         0.50149E+07
 
    0.71007E+07        -0.17534E+06         0.00000E+00
   -0.17534E+06         0.17879E+08         0.00000E+00
    0.00000E+00         0.00000E+00         0.49959E+07
 
    0.69944E+07        -0.13921E+06         0.00000E+00
   -0.13921E+06         0.17888E+08         0.00000E+00
    0.00000E+00         0.00000E+00         0.49765E+07
 
    0.68905E+07        -0.10050E+06         0.00000E+00
   -0.10050E+06         0.17896E+08         0.00000E+00
    0.00000E+00         0.00000E+00         0.49662E+07
 
    0.67884E+07        -0.57536E+05         0.00000E+00
   -0.57536E+05         0.17901E+08         0.00000E+00
    0.00000E+00         0.00000E+00         0.49654E+07
 
    0.66813E+07        -0.95253E+04         0.00000E+00
   -0.95253E+04         0.17906E+08         0.00000E+00
    0.00000E+00         0.00000E+00         0.49657E+07
 
    0.65803E+07         0.43033E+05         0.00000E+00
    0.43033E+05         0.17897E+08         0.00000E+00
    0.00000E+00         0.00000E+00         0.49876E+07
 
    0.64775E+07         0.99083E+05         0.00000E+00
    0.99083E+05         0.17885E+08         0.00000E+00
    0.00000E+00         0.00000E+00         0.50184E+07
 
    0.63919E+07         0.15486E+06         0.00000E+00
    0.15486E+06         0.17887E+08         0.00000E+00
    0.00000E+00         0.00000E+00         0.50810E+07
 
    0.63112E+07         0.20627E+06         0.00000E+00
    0.20627E+06         0.17893E+08         0.00000E+00
    0.00000E+00         0.00000E+00         0.51538E+07
 
    0.62449E+07         0.25232E+06         0.00000E+00
    0.25232E+06         0.17906E+08         0.00000E+00
    0.00000E+00         0.00000E+00         0.52413E+07
 
    0.61916E+07         0.29357E+06         0.00000E+00
    0.29357E+06         0.17923E+08         0.00000E+00
    0.00000E+00         0.00000E+00         0.53348E+07
 
    0.61523E+07         0.33288E+06         0.00000E+00
    0.33288E+06         0.17944E+08         0.00000E+00
    0.00000E+00         0.00000E+00         0.54322E+07
 
    0.61284E+07         0.37225E+06         0.00000E+00
    0.37225E+06         0.17970E+08         0.00000E+00
    0.00000E+00         0.00000E+00         0.55332E+07
 
    0.61168E+07         0.41307E+06         0.00000E+00
    0.41307E+06         0.17997E+08         0.00000E+00
    0.00000E+00         0.00000E+00         0.56354E+07
 
    0.61172E+07         0.45533E+06         0.00000E+00
    0.45533E+06         0.18027E+08         0.00000E+00
    0.00000E+00         0.00000E+00         0.57376E+07
 
    0.61269E+07         0.49943E+06         0.00000E+00
    0.49943E+06         0.18058E+08         0.00000E+00
    0.00000E+00         0.00000E+00         0.58368E+07
 
    0.61468E+07         0.54659E+06         0.00000E+00
    0.54659E+06         0.18089E+08         0.00000E+00
    0.00000E+00         0.00000E+00         0.59334E+07
 
    0.61759E+07         0.59707E+06         0.00000E+00
    0.59707E+06         0.18121E+08         0.00000E+00
    0.00000E+00         0.00000E+00         0.60268E+07
 
    0.62133E+07         0.64951E+06         0.00000E+00
    0.64951E+06         0.18153E+08         0.00000E+00
    0.00000E+00         0.00000E+00         0.61167E+07
 
    0.62575E+07         0.70464E+06         0.00000E+00
    0.70464E+06         0.18185E+08         0.00000E+00
    0.00000E+00         0.00000E+00         0.62024E+07
 
    0.63093E+07         0.76016E+06         0.00000E+00
    0.76016E+06         0.18217E+08         0.00000E+00
    0.00000E+00         0.00000E+00         0.62838E+07
 
    0.63681E+07         0.81442E+06         0.00000E+00
    0.81442E+06         0.18249E+08         0.00000E+00
    0.00000E+00         0.00000E+00         0.63613E+07
 
    0.93784E+07        -0.34365E+05         0.00000E+00
   -0.34365E+05         0.17127E+08         0.00000E+00
    0.00000E+00         0.00000E+00         0.53010E+07
 
    0.93015E+07        -0.91640E+05         0.00000E+00
   -0.91640E+05         0.17129E+08         0.00000E+00
    0.00000E+00         0.00000E+00         0.52860E+07
 
    0.92216E+07        -0.14333E+06         0.00000E+00
   -0.14333E+06         0.17131E+08         0.00000E+00
    0.00000E+00         0.00000E+00         0.52705E+07
 
    0.91394E+07        -0.18998E+06         0.00000E+00
   -0.18998E+06         0.17134E+08         0.00000E+00
    0.00000E+00         0.00000E+00         0.52547E+07
 
    0.90551E+07        -0.23215E+06         0.00000E+00
   -0.23215E+06         0.17138E+08         0.00000E+00
    0.00000E+00         0.00000E+00         0.52386E+07
 
    0.89685E+07        -0.27030E+06         0.00000E+00
   -0.27030E+06         0.17143E+08         0.00000E+00
    0.00000E+00         0.00000E+00         0.52223E+07
 
    0.88794E+07        -0.30443E+06         0.00000E+00
   -0.30443E+06         0.17150E+08         0.00000E+00
    0.00000E+00         0.00000E+00         0.52059E+07
 
    0.87877E+07        -0.33447E+06         0.00000E+00
   -0.33447E+06         0.17158E+08         0.00000E+00
    0.00000E+00         0.00000E+00         0.51892E+07
 
    0.86936E+07        -0.36037E+06         0.00000E+00
   -0.36037E+06         0.17168E+08         0.00000E+00
    0.00000E+00         0.00000E+00         0.51723E+07
 
    0.85970E+07        -0.38209E+06         0.00000E+00
   -0.38209E+06         0.17179E+08         0.00000E+00
    0.00000E+00         0.00000E+00         0.51551E+07
 
    0.84983E+07        -0.39961E+06         0.00000E+00
   -0.39961E+06         0.17191E+08         0.00000E+00
    0.00000E+00         0.00000E+00         0.51378E+07
 
    0.83976E+07        -0.41292E+06         0.00000E+00
   -0.41292E+06         0.17204E+08         0.00000E+00
    0.00000E+00         0.00000E+00         0.51202E+07
 
    0.82953E+07        -0.42206E+06         0.00000E+00
   -0.42206E+06         0.17217E+08         0.00000E+00
    0.00000E+00         0.00000E+00         0.51025E+07
 
    0.81917E+07        -0.42708E+06         0.00000E+00
   -0.42708E+06         0.17232E+08         0.00000E+00
    0.00000E+00         0.00000E+00         0.50847E+07
 
    0.80872E+07        -0.42807E+06         0.00000E+00
   -0.42807E+06         0.17247E+08         0.00000E+00
    0.00000E+00         0.00000E+00         0.50668E+07
 
    0.79819E+07        -0.42516E+06         0.00000E+00
   -0.42516E+06         0.17262E+08         0.00000E+00
    0.00000E+00         0.00000E+00         0.50489E+07
 
    0.78764E+07        -0.41851E+06         0.00000E+00
   -0.41851E+06         0.17278E+08         0.00000E+00
    0.00000E+00         0.00000E+00         0.50309E+07
 
    0.77707E+07        -0.40829E+06         0.00000E+00
   -0.40829E+06         0.17294E+08         0.00000E+00
    0.00000E+00         0.00000E+00         0.50130E+07
 
    0.76653E+07        -0.39469E+06         0.00000E+00
   -0.39469E+06         0.17310E+08         0.00000E+00
    0.00000E+00         0.00000E+00         0.49951E+07
 
    0.75603E+07        -0.37793E+06         0.00000E+00
   -0.37793E+06         0.17327E+08         0.00000E+00
    0.00000E+00         0.00000E+00         0.49774E+07
 
    0.74559E+07        -0.35822E+06         0.00000E+00
   -0.35822E+06         0.17343E+08         0.00000E+00
    0.00000E+00         0.00000E+00         0.49598E+07
 
    0.73524E+07        -0.33574E+06         0.00000E+00
   -0.33574E+06         0.17360E+08         0.00000E+00
    0.00000E+00         0.00000E+00         0.49424E+07
 
    0.72496E+07        -0.31070E+06         0.00000E+00
   -0.31070E+06         0.17376E+08         0.00000E+00
    0.00000E+00         0.00000E+00         0.49251E+07
 
    0.71479E+07        -0.28326E+06         0.00000E+00
   -0.28326E+06         0.17393E+08         0.00000E+00
    0.00000E+00         0.00000E+00         0.49081E+07
 
    0.70472E+07        -0.25356E+06         0.00000E+00
   -0.25356E+06         0.17410E+08         0.00000E+00
    0.00000E+00         0.00000E+00         0.48914E+07
 
    0.69475E+07        -0.22167E+06         0.00000E+00
   -0.22167E+06         0.17427E+08         0.00000E+00
    0.00000E+00         0.00000E+00         0.48750E+07
 
    0.68490E+07        -0.18758E+06         0.00000E+00
   -0.18758E+06         0.17445E+08         0.00000E+00
    0.00000E+00         0.00000E+00         0.48589E+07
 
    0.67520E+07        -0.15123E+06         0.00000E+00
   -0.15123E+06         0.17464E+08         0.00000E+00
    0.00000E+00         0.00000E+00         0.48432E+07
 
    0.66562E+07        -0.11285E+06         0.00000E+00
   -0.11285E+06         0.17481E+08         0.00000E+00
    0.00000E+00         0.00000E+00         0.48275E+07
 
    0.65625E+07        -0.72550E+05         0.00000E+00
   -0.72550E+05         0.17500E+08         0.00000E+00
    0.00000E+00         0.00000E+00         0.48125E+07
 
    0.64708E+07        -0.30607E+05         0.00000E+00
   -0.30607E+05         0.17518E+08         0.00000E+00
    0.00000E+00         0.00000E+00         0.47977E+07
 
    0.63803E+07         0.11814E+05         0.00000E+00
    0.11814E+05         0.17535E+08         0.00000E+00
    0.00000E+00         0.00000E+00         0.47831E+07
 
    0.62894E+07         0.54437E+05         0.00000E+00
    0.54437E+05         0.17552E+08         0.00000E+00
    0.00000E+00         0.00000E+00         0.47683E+07
 
    0.61999E+07         0.98204E+05         0.00000E+00
    0.98204E+05         0.17584E+08         0.00000E+00
    0.00000E+00         0.00000E+00         0.47568E+07
 
    0.61049E+07         0.14389E+06         0.00000E+00
    0.14389E+06         0.17619E+08         0.00000E+00
    0.00000E+00         0.00000E+00         0.47451E+07
 
    0.60253E+07         0.19491E+06         0.00000E+00
    0.19491E+06         0.17646E+08         0.00000E+00
    0.00000E+00         0.00000E+00         0.47665E+07
 
    0.59407E+07         0.25383E+06         0.00000E+00
    0.25383E+06         0.17667E+08         0.00000E+00
    0.00000E+00         0.00000E+00         0.47931E+07
 
    0.58687E+07         0.31847E+06         0.00000E+00
    0.31847E+06         0.17666E+08         0.00000E+00
    0.00000E+00         0.00000E+00         0.48496E+07
 
    0.58069E+07         0.38597E+06         0.00000E+00
    0.38597E+06         0.17672E+08         0.00000E+00
    0.00000E+00         0.00000E+00         0.49267E+07
 
    0.57624E+07         0.45083E+06         0.00000E+00
    0.45083E+06         0.17690E+08         0.00000E+00
    0.00000E+00         0.00000E+00         0.50272E+07
 
    0.57316E+07         0.50996E+06         0.00000E+00
    0.50996E+06         0.17714E+08         0.00000E+00
    0.00000E+00         0.00000E+00         0.51388E+07
 
    0.57181E+07         0.56206E+06         0.00000E+00
    0.56206E+06         0.17744E+08         0.00000E+00
    0.00000E+00         0.00000E+00         0.52569E+07
 
    0.57164E+07         0.61025E+06         0.00000E+00
    0.61025E+06         0.17774E+08         0.00000E+00
    0.00000E+00         0.00000E+00         0.53693E+07
 
    0.57334E+07         0.65826E+06         0.00000E+00
    0.65826E+06         0.17809E+08         0.00000E+00
    0.00000E+00         0.00000E+00         0.54819E+07
 
    0.57622E+07         0.70603E+06         0.00000E+00
    0.70603E+06         0.17845E+08         0.00000E+00
    0.00000E+00         0.00000E+00         0.55885E+07
 
    0.58004E+07         0.75472E+06         0.00000E+00
    0.75472E+06         0.17880E+08         0.00000E+00
    0.00000E+00         0.00000E+00         0.56878E+07
 
    0.58455E+07         0.80503E+06         0.00000E+00
    0.80503E+06         0.17913E+08         0.00000E+00
    0.00000E+00         0.00000E+00         0.57796E+07
 
    0.58953E+07         0.85581E+06         0.00000E+00
    0.85581E+06         0.17945E+08         0.00000E+00
    0.00000E+00         0.00000E+00         0.58616E+07
 
    0.59502E+07         0.90850E+06         0.00000E+00
    0.90850E+06         0.17974E+08         0.00000E+00
    0.00000E+00         0.00000E+00         0.59375E+07
 
    0.60104E+07         0.96195E+06         0.00000E+00
    0.96195E+06         0.18004E+08         0.00000E+00
    0.00000E+00         0.00000E+00         0.60085E+07
 
    0.84710E+07        -0.30883E+05         0.00000E+00
   -0.30883E+05         0.16500E+08         0.00000E+00
    0.00000E+00         0.00000E+00         0.49941E+07
 
    0.84194E+07        -0.79876E+05         0.00000E+00
   -0.79876E+05         0.16501E+08         0.00000E+00
    0.00000E+00         0.00000E+00         0.49842E+07
 
    0.83640E+07        -0.12420E+06         0.00000E+00
   -0.12420E+06         0.16505E+08         0.00000E+00
    0.00000E+00         0.00000E+00         0.49739E+07
 
    0.83051E+07        -0.16397E+06         0.00000E+00
   -0.16397E+06         0.16511E+08         0.00000E+00
    0.00000E+00         0.00000E+00         0.49632E+07
 
    0.82426E+07        -0.19932E+06         0.00000E+00
   -0.19932E+06         0.16518E+08         0.00000E+00
    0.00000E+00         0.00000E+00         0.49522E+07
 
    0.81769E+07        -0.23038E+06         0.00000E+00
   -0.23038E+06         0.16527E+08         0.00000E+00
    0.00000E+00         0.00000E+00         0.49409E+07
 
    0.81082E+07        -0.25733E+06         0.00000E+00
   -0.25733E+06         0.16538E+08         0.00000E+00
    0.00000E+00         0.00000E+00         0.49292E+07
 
    0.80366E+07        -0.28034E+06         0.00000E+00
   -0.28034E+06         0.16550E+08         0.00000E+00
    0.00000E+00         0.00000E+00         0.49173E+07
 
    0.79624E+07        -0.29947E+06         0.00000E+00
   -0.29947E+06         0.16563E+08         0.00000E+00
    0.00000E+00         0.00000E+00         0.49051E+07
 
    0.78857E+07        -0.31482E+06         0.00000E+00
   -0.31482E+06         0.16578E+08         0.00000E+00
    0.00000E+00         0.00000E+00         0.48927E+07
 
    0.78067E+07        -0.32645E+06         0.00000E+00
   -0.32645E+06         0.16594E+08         0.00000E+00
    0.00000E+00         0.00000E+00         0.48802E+07
 
    0.77256E+07        -0.33439E+06         0.00000E+00
   -0.33439E+06         0.16611E+08         0.00000E+00
    0.00000E+00         0.00000E+00         0.48674E+07
 
    0.76426E+07        -0.33872E+06         0.00000E+00
   -0.33872E+06         0.16630E+08         0.00000E+00
    0.00000E+00         0.00000E+00         0.48545E+07
 
    0.75579E+07        -0.33949E+06         0.00000E+00
   -0.33949E+06         0.16649E+08         0.00000E+00
    0.00000E+00         0.00000E+00         0.48415E+07
 
    0.74717E+07        -0.33678E+06         0.00000E+00
   -0.33678E+06         0.16670E+08         0.00000E+00
    0.00000E+00         0.00000E+00         0.48283E+07
 
    0.73844E+07        -0.33067E+06         0.00000E+00
   -0.33067E+06         0.16691E+08         0.00000E+00
    0.00000E+00         0.00000E+00         0.48151E+07
 
    0.72960E+07        -0.32124E+06         0.00000E+00
   -0.32124E+06         0.16714E+08         0.00000E+00
    0.00000E+00         0.00000E+00         0.48019E+07
 
    0.72069E+07        -0.30860E+06         0.00000E+00
   -0.30860E+06         0.16736E+08         0.00000E+00
    0.00000E+00         0.00000E+00         0.47887E+07
 
    0.71173E+07        -0.29287E+06         0.00000E+00
   -0.29287E+06         0.16760E+08         0.00000E+00
    0.00000E+00         0.00000E+00         0.47755E+07
 
    0.70273E+07        -0.27414E+06         0.00000E+00
   -0.27414E+06         0.16784E+08         0.00000E+00
    0.00000E+00         0.00000E+00         0.47623E+07
 
    0.69371E+07        -0.25254E+06         0.00000E+00
   -0.25254E+06         0.16809E+08         0.00000E+00
    0.00000E+00         0.00000E+00         0.47493E+07
 
    0.68469E+07        -0.22820E+06         0.00000E+00
   -0.22820E+06         0.16835E+08         0.00000E+00
    0.00000E+00         0.00000E+00         0.47363E+07
 
    0.67570E+07        -0.20121E+06         0.00000E+00
   -0.20121E+06         0.16861E+08         0.00000E+00
    0.00000E+00         0.00000E+00         0.47236E+07
 
    0.66673E+07        -0.17169E+06         0.00000E+00
   -0.17169E+06         0.16888E+08         0.00000E+00
    0.00000E+00         0.00000E+00         0.47110E+07
 
    0.65782E+07        -0.13975E+06         0.00000E+00
   -0.13975E+06         0.16915E+08         0.00000E+00
    0.00000E+00         0.00000E+00         0.46986E+07
 
    0.64897E+07        -0.10549E+06         0.00000E+00
   -0.10549E+06         0.16943E+08         0.00000E+00
    0.00000E+00         0.00000E+00         0.46865E+07
 
    0.64020E+07        -0.69025E+05         0.00000E+00
   -0.69025E+05         0.16971E+08         0.00000E+00
    0.00000E+00         0.00000E+00         0.46746E+07
 
    0.63152E+07        -0.30518E+05         0.00000E+00
   -0.30518E+05         0.17000E+08         0.00000E+00
    0.00000E+00         0.00000E+00         0.46631E+07
 
    0.62295E+07         0.10033E+05         0.00000E+00
    0.10033E+05         0.17030E+08         0.00000E+00
    0.00000E+00         0.00000E+00         0.46519E+07
 
    0.61448E+07         0.52551E+05         0.00000E+00
    0.52551E+05         0.17061E+08         0.00000E+00
    0.00000E+00         0.00000E+00         0.46411E+07
 
    0.60612E+07         0.96955E+05         0.00000E+00
    0.96955E+05         0.17092E+08         0.00000E+00
    0.00000E+00         0.00000E+00         0.46306E+07
 
    0.59791E+07         0.14355E+06         0.00000E+00
    0.14355E+06         0.17124E+08         0.00000E+00
    0.00000E+00         0.00000E+00         0.46207E+07
 
    0.58992E+07         0.19268E+06         0.00000E+00
    0.19268E+06         0.17158E+08         0.00000E+00
    0.00000E+00         0.00000E+00         0.46115E+07
 
    0.58214E+07         0.24397E+06         0.00000E+00
    0.24397E+06         0.17190E+08         0.00000E+00
    0.00000E+00         0.00000E+00         0.46022E+07
 
    0.57477E+07         0.29750E+06         0.00000E+00
    0.29750E+06         0.17222E+08         0.00000E+00
    0.00000E+00         0.00000E+00         0.45940E+07
 
    0.56768E+07         0.35080E+06         0.00000E+00
    0.35080E+06         0.17251E+08         0.00000E+00
    0.00000E+00         0.00000E+00         0.45855E+07
 
    0.56076E+07         0.40198E+06         0.00000E+00
    0.40198E+06         0.17284E+08         0.00000E+00
    0.00000E+00         0.00000E+00         0.45784E+07
 
    0.55397E+07         0.45339E+06         0.00000E+00
    0.45339E+06         0.17342E+08         0.00000E+00
    0.00000E+00         0.00000E+00         0.45764E+07
 
    0.54797E+07         0.50718E+06         0.00000E+00
    0.50718E+06         0.17395E+08         0.00000E+00
    0.00000E+00         0.00000E+00         0.45943E+07
 
    0.54288E+07         0.56761E+06         0.00000E+00
    0.56761E+06         0.17440E+08         0.00000E+00
    0.00000E+00         0.00000E+00         0.46347E+07
 
    0.53923E+07         0.63389E+06         0.00000E+00
    0.63389E+06         0.17459E+08         0.00000E+00
    0.00000E+00         0.00000E+00         0.47038E+07
 
    0.53588E+07         0.70399E+06         0.00000E+00
    0.70399E+06         0.17466E+08         0.00000E+00
    0.00000E+00         0.00000E+00         0.47832E+07
 
    0.53563E+07         0.77365E+06         0.00000E+00
    0.77365E+06         0.17494E+08         0.00000E+00
    0.00000E+00         0.00000E+00         0.49007E+07
 
    0.53582E+07         0.83500E+06         0.00000E+00
    0.83500E+06         0.17523E+08         0.00000E+00
    0.00000E+00         0.00000E+00         0.50195E+07
 
    0.53780E+07         0.88811E+06         0.00000E+00
    0.88811E+06         0.17559E+08         0.00000E+00
    0.00000E+00         0.00000E+00         0.51451E+07
 
    0.54116E+07         0.93282E+06         0.00000E+00
    0.93282E+06         0.17599E+08         0.00000E+00
    0.00000E+00         0.00000E+00         0.52665E+07
 
    0.54547E+07         0.97317E+06         0.00000E+00
    0.97317E+06         0.17638E+08         0.00000E+00
    0.00000E+00         0.00000E+00         0.53741E+07
 
    0.55124E+07         0.10148E+07         0.00000E+00
    0.10148E+07         0.17677E+08         0.00000E+00
    0.00000E+00         0.00000E+00         0.54749E+07
 
    0.55751E+07         0.10574E+07         0.00000E+00
    0.10574E+07         0.17713E+08         0.00000E+00
    0.00000E+00         0.00000E+00         0.55627E+07
 
    0.56377E+07         0.11061E+07         0.00000E+00
    0.11061E+07         0.17744E+08         0.00000E+00
    0.00000E+00         0.00000E+00         0.56358E+07
 
    0.76170E+07        -0.24153E+05         0.00000E+00
   -0.24153E+05         0.15876E+08         0.00000E+00
    0.00000E+00         0.00000E+00         0.46987E+07
 
    0.75886E+07        -0.62495E+05         0.00000E+00
   -0.62495E+05         0.15879E+08         0.00000E+00
    0.00000E+00         0.00000E+00         0.46936E+07
 
    0.75553E+07        -0.96657E+05         0.00000E+00
   -0.96657E+05         0.15884E+08         0.00000E+00
    0.00000E+00         0.00000E+00         0.46879E+07
 
    0.75174E+07        -0.12682E+06         0.00000E+00
   -0.12682E+06         0.15892E+08         0.00000E+00
    0.00000E+00         0.00000E+00         0.46818E+07
 
    0.74754E+07        -0.15311E+06         0.00000E+00
   -0.15311E+06         0.15901E+08         0.00000E+00
    0.00000E+00         0.00000E+00         0.46752E+07
 
    0.74295E+07        -0.17565E+06         0.00000E+00
   -0.17565E+06         0.15912E+08         0.00000E+00
    0.00000E+00         0.00000E+00         0.46683E+07
 
    0.73801E+07        -0.19451E+06         0.00000E+00
   -0.19451E+06         0.15925E+08         0.00000E+00
    0.00000E+00         0.00000E+00         0.46609E+07
 
    0.73272E+07        -0.20978E+06         0.00000E+00
   -0.20978E+06         0.15939E+08         0.00000E+00
    0.00000E+00         0.00000E+00         0.46533E+07
 
    0.72713E+07        -0.22153E+06         0.00000E+00
   -0.22153E+06         0.15955E+08         0.00000E+00
    0.00000E+00         0.00000E+00         0.46453E+07
 
    0.72125E+07        -0.22985E+06         0.00000E+00
   -0.22985E+06         0.15973E+08         0.00000E+00
    0.00000E+00         0.00000E+00         0.46371E+07
 
    0.71511E+07        -0.23480E+06         0.00000E+00
   -0.23480E+06         0.15992E+08         0.00000E+00
    0.00000E+00         0.00000E+00         0.46286E+07
 
    0.70873E+07        -0.23644E+06         0.00000E+00
   -0.23644E+06         0.16012E+08         0.00000E+00
    0.00000E+00         0.00000E+00         0.46199E+07
 
    0.70213E+07        -0.23483E+06         0.00000E+00
   -0.23483E+06         0.16034E+08         0.00000E+00
    0.00000E+00         0.00000E+00         0.46110E+07
 
    0.69533E+07        -0.23003E+06         0.00000E+00
   -0.23003E+06         0.16057E+08         0.00000E+00
    0.00000E+00         0.00000E+00         0.46020E+07
 
    0.68835E+07        -0.22209E+06         0.00000E+00
   -0.22209E+06         0.16081E+08         0.00000E+00
    0.00000E+00         0.00000E+00         0.45929E+07
 
    0.68122E+07        -0.21108E+06         0.00000E+00
   -0.21108E+06         0.16106E+08         0.00000E+00
    0.00000E+00         0.00000E+00         0.45836E+07
 
    0.67394E+07        -0.19705E+06         0.00000E+00
   -0.19705E+06         0.16132E+08         0.00000E+00
    0.00000E+00         0.00000E+00         0.45743E+07
 
    0.66655E+07        -0.18007E+06         0.00000E+00
   -0.18007E+06         0.16159E+08         0.00000E+00
    0.00000E+00         0.00000E+00         0.45650E+07
 
    0.65906E+07        -0.16020E+06         0.00000E+00
   -0.16020E+06         0.16187E+08         0.00000E+00
    0.00000E+00         0.00000E+00         0.45556E+07
 
    0.65148E+07        -0.13752E+06         0.00000E+00
   -0.13752E+06         0.16216E+08         0.00000E+00
    0.00000E+00         0.00000E+00         0.45463E+07
 
    0.64384E+07        -0.11209E+06         0.00000E+00
   -0.11209E+06         0.16246E+08         0.00000E+00
    0.00000E+00         0.00000E+00         0.45370E+07
 
    0.63616E+07        -0.83987E+05         0.00000E+00
   -0.83987E+05         0.16277E+08         0.00000E+00
    0.00000E+00         0.00000E+00         0.45278E+07
 
    0.62845E+07        -0.53288E+05         0.00000E+00
   -0.53288E+05         0.16309E+08         0.00000E+00
    0.00000E+00         0.00000E+00         0.45187E+07
 
    0.62073E+07        -0.20067E+05         0.00000E+00
   -0.20067E+05         0.16341E+08         0.00000E+00
    0.00000E+00         0.00000E+00         0.45097E+07
 
    0.61301E+07         0.15600E+05         0.00000E+00
    0.15600E+05         0.16375E+08         0.00000E+00
    0.00000E+00         0.00000E+00         0.45010E+07
 
    0.60531E+07         0.53637E+05         0.00000E+00
    0.53637E+05         0.16409E+08         0.00000E+00
    0.00000E+00         0.00000E+00         0.44924E+07
 
    0.59765E+07         0.93976E+05         0.00000E+00
    0.93976E+05         0.16444E+08         0.00000E+00
    0.00000E+00         0.00000E+00         0.44841E+07
 
    0.59004E+07         0.13657E+06         0.00000E+00
    0.13657E+06         0.16480E+08         0.00000E+00
    0.00000E+00         0.00000E+00         0.44761E+07
 
    0.58250E+07         0.18134E+06         0.00000E+00
    0.18134E+06         0.16517E+08         0.00000E+00
    0.00000E+00         0.00000E+00         0.44684E+07
 
    0.57506E+07         0.22822E+06         0.00000E+00
    0.22822E+06         0.16555E+08         0.00000E+00
    0.00000E+00         0.00000E+00         0.44610E+07
 
    0.56773E+07         0.27720E+06         0.00000E+00
    0.27720E+06         0.16593E+08         0.00000E+00
    0.00000E+00         0.00000E+00         0.44541E+07
 
    0.56054E+07         0.32815E+06         0.00000E+00
    0.32815E+06         0.16633E+08         0.00000E+00
    0.00000E+00         0.00000E+00         0.44477E+07
 
    0.55351E+07         0.38085E+06         0.00000E+00
    0.38085E+06         0.16673E+08         0.00000E+00
    0.00000E+00         0.00000E+00         0.44417E+07
 
    0.54667E+07         0.43536E+06         0.00000E+00
    0.43536E+06         0.16715E+08         0.00000E+00
    0.00000E+00         0.00000E+00         0.44364E+07
 
    0.54000E+07         0.49148E+06         0.00000E+00
    0.49148E+06         0.16758E+08         0.00000E+00
    0.00000E+00         0.00000E+00         0.44316E+07
 
    0.53361E+07         0.54969E+06         0.00000E+00
    0.54969E+06         0.16803E+08         0.00000E+00
    0.00000E+00         0.00000E+00         0.44277E+07
 
    0.52758E+07         0.61054E+06         0.00000E+00
    0.61054E+06         0.16848E+08         0.00000E+00
    0.00000E+00         0.00000E+00         0.44247E+07
 
    0.52201E+07         0.67290E+06         0.00000E+00
    0.67290E+06         0.16889E+08         0.00000E+00
    0.00000E+00         0.00000E+00         0.44218E+07
 
    0.51703E+07         0.73449E+06         0.00000E+00
    0.73449E+06         0.16929E+08         0.00000E+00
    0.00000E+00         0.00000E+00         0.44198E+07
 
    0.51235E+07         0.79177E+06         0.00000E+00
    0.79177E+06         0.16967E+08         0.00000E+00
    0.00000E+00         0.00000E+00         0.44180E+07
 
    0.50822E+07         0.84582E+06         0.00000E+00
    0.84582E+06         0.17033E+08         0.00000E+00
    0.00000E+00         0.00000E+00         0.44230E+07
 
    0.50339E+07         0.89738E+06         0.00000E+00
    0.89738E+06         0.17107E+08         0.00000E+00
    0.00000E+00         0.00000E+00         0.44285E+07
 
    0.50173E+07         0.95015E+06         0.00000E+00
    0.95015E+06         0.17170E+08         0.00000E+00
    0.00000E+00         0.00000E+00         0.44817E+07
 
    0.49933E+07         0.10093E+07         0.00000E+00
    0.10093E+07         0.17228E+08         0.00000E+00
    0.00000E+00         0.00000E+00         0.45354E+07
 
    0.49969E+07         0.10685E+07         0.00000E+00
    0.10685E+07         0.17245E+08         0.00000E+00
    0.00000E+00         0.00000E+00         0.46282E+07
 
    0.50014E+07         0.11276E+07         0.00000E+00
    0.11276E+07         0.17264E+08         0.00000E+00
    0.00000E+00         0.00000E+00         0.47238E+07
 
    0.50413E+07         0.11822E+07         0.00000E+00
    0.11822E+07         0.17304E+08         0.00000E+00
    0.00000E+00         0.00000E+00         0.48556E+07
 
    0.50832E+07         0.12231E+07         0.00000E+00
    0.12231E+07         0.17345E+08         0.00000E+00
    0.00000E+00         0.00000E+00         0.49803E+07
 
    0.51458E+07         0.12527E+07         0.00000E+00
    0.12527E+07         0.17395E+08         0.00000E+00
    0.00000E+00         0.00000E+00         0.51047E+07
 
    0.52248E+07         0.12720E+07         0.00000E+00
    0.12720E+07         0.17448E+08         0.00000E+00
    0.00000E+00         0.00000E+00         0.52168E+07
 
    0.68314E+07        -0.16658E+05         0.00000E+00
   -0.16658E+05         0.15261E+08         0.00000E+00
    0.00000E+00         0.00000E+00         0.44184E+07
 
    0.68215E+07        -0.42369E+05         0.00000E+00
   -0.42369E+05         0.15263E+08         0.00000E+00
    0.00000E+00         0.00000E+00         0.44170E+07
 
    0.68064E+07        -0.64877E+05         0.00000E+00
   -0.64877E+05         0.15269E+08         0.00000E+00
    0.00000E+00         0.00000E+00         0.44150E+07
 
    0.67864E+07        -0.84188E+05         0.00000E+00
   -0.84188E+05         0.15277E+08         0.00000E+00
    0.00000E+00         0.00000E+00         0.44126E+07
 
    0.67618E+07        -0.10033E+06         0.00000E+00
   -0.10033E+06         0.15286E+08         0.00000E+00
    0.00000E+00         0.00000E+00         0.44096E+07
 
    0.67331E+07        -0.11333E+06         0.00000E+00
   -0.11333E+06         0.15298E+08         0.00000E+00
    0.00000E+00         0.00000E+00         0.44063E+07
 
    0.67004E+07        -0.12322E+06         0.00000E+00
   -0.12322E+06         0.15312E+08         0.00000E+00
    0.00000E+00         0.00000E+00         0.44025E+07
 
    0.66641E+07        -0.13005E+06         0.00000E+00
   -0.13005E+06         0.15328E+08         0.00000E+00
    0.00000E+00         0.00000E+00         0.43983E+07
 
    0.66244E+07        -0.13383E+06         0.00000E+00
   -0.13383E+06         0.15345E+08         0.00000E+00
    0.00000E+00         0.00000E+00         0.43938E+07
 
    0.65817E+07        -0.13461E+06         0.00000E+00
   -0.13461E+06         0.15364E+08         0.00000E+00
    0.00000E+00         0.00000E+00         0.43891E+07
 
    0.65360E+07        -0.13241E+06         0.00000E+00
   -0.13241E+06         0.15384E+08         0.00000E+00
    0.00000E+00         0.00000E+00         0.43840E+07
 
    0.64877E+07        -0.12727E+06         0.00000E+00
   -0.12727E+06         0.15406E+08         0.00000E+00
    0.00000E+00         0.00000E+00         0.43787E+07
 
    0.64370E+07        -0.11922E+06         0.00000E+00
   -0.11922E+06         0.15429E+08         0.00000E+00
    0.00000E+00         0.00000E+00         0.43731E+07
 
    0.63840E+07        -0.10830E+06         0.00000E+00
   -0.10830E+06         0.15453E+08         0.00000E+00
    0.00000E+00         0.00000E+00         0.43674E+07
 
    0.63291E+07        -0.94542E+05         0.00000E+00
   -0.94542E+05         0.15478E+08         0.00000E+00
    0.00000E+00         0.00000E+00         0.43615E+07
 
    0.62723E+07        -0.77976E+05         0.00000E+00
   -0.77976E+05         0.15505E+08         0.00000E+00
    0.00000E+00         0.00000E+00         0.43555E+07
 
    0.62139E+07        -0.58641E+05         0.00000E+00
   -0.58641E+05         0.15533E+08         0.00000E+00
    0.00000E+00         0.00000E+00         0.43493E+07
 
    0.61540E+07        -0.36574E+05         0.00000E+00
   -0.36574E+05         0.15561E+08         0.00000E+00
    0.00000E+00         0.00000E+00         0.43431E+07
 
    0.60929E+07        -0.11813E+05         0.00000E+00
   -0.11813E+05         0.15591E+08         0.00000E+00
    0.00000E+00         0.00000E+00         0.43368E+07
 
    0.60307E+07         0.15602E+05         0.00000E+00
    0.15602E+05         0.15622E+08         0.00000E+00
    0.00000E+00         0.00000E+00         0.43305E+07
 
    0.59675E+07         0.45631E+05         0.00000E+00
    0.45631E+05         0.15654E+08         0.00000E+00
    0.00000E+00         0.00000E+00         0.43243E+07
 
    0.59037E+07         0.78229E+05         0.00000E+00
    0.78229E+05         0.15686E+08         0.00000E+00
    0.00000E+00         0.00000E+00         0.43180E+07
 
    0.58392E+07         0.11335E+06         0.00000E+00
    0.11335E+06         0.15720E+08         0.00000E+00
    0.00000E+00         0.00000E+00         0.43118E+07
 
    0.57743E+07         0.15096E+06         0.00000E+00
    0.15096E+06         0.15754E+08         0.00000E+00
    0.00000E+00         0.00000E+00         0.43057E+07
 
    0.57092E+07         0.19101E+06         0.00000E+00
    0.19101E+06         0.15789E+08         0.00000E+00
    0.00000E+00         0.00000E+00         0.42997E+07
 
    0.56440E+07         0.23345E+06         0.00000E+00
    0.23345E+06         0.15825E+08         0.00000E+00
    0.00000E+00         0.00000E+00         0.42939E+07
 
    0.55789E+07         0.27823E+06         0.00000E+00
    0.27823E+06         0.15862E+08         0.00000E+00
    0.00000E+00         0.00000E+00         0.42882E+07
 
    0.55140E+07         0.32530E+06         0.00000E+00
    0.32530E+06         0.15900E+08         0.00000E+00
    0.00000E+00         0.00000E+00         0.42828E+07
 
    0.54495E+07         0.37461E+06         0.00000E+00
    0.37461E+06         0.15939E+08         0.00000E+00
    0.00000E+00         0.00000E+00         0.42776E+07
 
    0.53857E+07         0.42611E+06         0.00000E+00
    0.42611E+06         0.15978E+08         0.00000E+00
    0.00000E+00         0.00000E+00         0.42727E+07
 
    0.53226E+07         0.47970E+06         0.00000E+00
    0.47970E+06         0.16018E+08         0.00000E+00
    0.00000E+00         0.00000E+00         0.42682E+07
 
    0.52604E+07         0.53533E+06         0.00000E+00
    0.53533E+06         0.16059E+08         0.00000E+00
    0.00000E+00         0.00000E+00         0.42640E+07
 
    0.51994E+07         0.59296E+06         0.00000E+00
    0.59296E+06         0.16102E+08         0.00000E+00
    0.00000E+00         0.00000E+00         0.42602E+07
 
    0.51398E+07         0.65245E+06         0.00000E+00
    0.65245E+06         0.16144E+08         0.00000E+00
    0.00000E+00         0.00000E+00         0.42568E+07
 
    0.50819E+07         0.71372E+06         0.00000E+00
    0.71372E+06         0.16188E+08         0.00000E+00
    0.00000E+00         0.00000E+00         0.42540E+07
 
    0.50259E+07         0.77650E+06         0.00000E+00
    0.77650E+06         0.16233E+08         0.00000E+00
    0.00000E+00         0.00000E+00         0.42517E+07
 
    0.49719E+07         0.84034E+06         0.00000E+00
    0.84034E+06         0.16278E+08         0.00000E+00
    0.00000E+00         0.00000E+00         0.42499E+07
 
    0.49199E+07         0.90526E+06         0.00000E+00
    0.90526E+06         0.16325E+08         0.00000E+00
    0.00000E+00         0.00000E+00         0.42490E+07
 
    0.48700E+07         0.97141E+06         0.00000E+00
    0.97141E+06         0.16373E+08         0.00000E+00
    0.00000E+00         0.00000E+00         0.42487E+07
 
    0.48237E+07         0.10394E+07         0.00000E+00
    0.10394E+07         0.16424E+08         0.00000E+00
    0.00000E+00         0.00000E+00         0.42495E+07
 
    0.47807E+07         0.11080E+07         0.00000E+00
    0.11080E+07         0.16470E+08         0.00000E+00
    0.00000E+00         0.00000E+00         0.42501E+07
 
    0.47443E+07         0.11766E+07         0.00000E+00
    0.11766E+07         0.16517E+08         0.00000E+00
    0.00000E+00         0.00000E+00         0.42523E+07
 
    0.47121E+07         0.12399E+07         0.00000E+00
    0.12399E+07         0.16560E+08         0.00000E+00
    0.00000E+00         0.00000E+00         0.42544E+07
 
    0.46804E+07         0.12941E+07         0.00000E+00
    0.12941E+07         0.16608E+08         0.00000E+00
    0.00000E+00         0.00000E+00         0.42576E+07
 
    0.46524E+07         0.13450E+07         0.00000E+00
    0.13450E+07         0.16699E+08         0.00000E+00
    0.00000E+00         0.00000E+00         0.42702E+07
 
    0.46166E+07         0.13899E+07         0.00000E+00
    0.13899E+07         0.16789E+08         0.00000E+00
    0.00000E+00         0.00000E+00         0.42871E+07
 
    0.46155E+07         0.14327E+07         0.00000E+00
    0.14327E+07         0.16868E+08         0.00000E+00
    0.00000E+00         0.00000E+00         0.43536E+07
 
    0.46032E+07         0.14780E+07         0.00000E+00
    0.14780E+07         0.16945E+08         0.00000E+00
    0.00000E+00         0.00000E+00         0.44148E+07
 
    0.46242E+07         0.15142E+07         0.00000E+00
    0.15142E+07         0.16980E+08         0.00000E+00
    0.00000E+00         0.00000E+00         0.45159E+07
 
    0.46529E+07         0.15385E+07         0.00000E+00
    0.15385E+07         0.17008E+08         0.00000E+00
    0.00000E+00         0.00000E+00         0.46195E+07
 
    0.61198E+07        -0.91145E+04         0.00000E+00
   -0.91145E+04         0.14652E+08         0.00000E+00
    0.00000E+00         0.00000E+00         0.41544E+07
 
    0.61237E+07        -0.22028E+05         0.00000E+00
   -0.22028E+05         0.14655E+08         0.00000E+00
    0.00000E+00         0.00000E+00         0.41558E+07
 
    0.61225E+07        -0.32580E+05         0.00000E+00
   -0.32580E+05         0.14660E+08         0.00000E+00
    0.00000E+00         0.00000E+00         0.41566E+07
 
    0.61165E+07        -0.40724E+05         0.00000E+00
   -0.40724E+05         0.14668E+08         0.00000E+00
    0.00000E+00         0.00000E+00         0.41569E+07
 
    0.61060E+07        -0.46422E+05         0.00000E+00
   -0.46422E+05         0.14677E+08         0.00000E+00
    0.00000E+00         0.00000E+00         0.41567E+07
 
    0.60913E+07        -0.49640E+05         0.00000E+00
   -0.49640E+05         0.14689E+08         0.00000E+00
    0.00000E+00         0.00000E+00         0.41561E+07
 
    0.60726E+07        -0.50354E+05         0.00000E+00
   -0.50354E+05         0.14703E+08         0.00000E+00
    0.00000E+00         0.00000E+00         0.41550E+07
 
    0.60502E+07        -0.48548E+05         0.00000E+00
   -0.48548E+05         0.14718E+08         0.00000E+00
    0.00000E+00         0.00000E+00         0.41536E+07
 
    0.60245E+07        -0.44209E+05         0.00000E+00
   -0.44209E+05         0.14735E+08         0.00000E+00
    0.00000E+00         0.00000E+00         0.41518E+07
 
    0.59955E+07        -0.37331E+05         0.00000E+00
   -0.37331E+05         0.14753E+08         0.00000E+00
    0.00000E+00         0.00000E+00         0.41497E+07
 
    0.59636E+07        -0.27910E+05         0.00000E+00
   -0.27910E+05         0.14773E+08         0.00000E+00
    0.00000E+00         0.00000E+00         0.41473E+07
 
    0.59290E+07        -0.15946E+05         0.00000E+00
   -0.15946E+05         0.14794E+08         0.00000E+00
    0.00000E+00         0.00000E+00         0.41447E+07
 
    0.58918E+07        -0.14433E+04         0.00000E+00
   -0.14433E+04         0.14817E+08         0.00000E+00
    0.00000E+00         0.00000E+00         0.41418E+07
 
    0.58523E+07         0.15593E+05         0.00000E+00
    0.15593E+05         0.14841E+08         0.00000E+00
    0.00000E+00         0.00000E+00         0.41386E+07
 
    0.58107E+07         0.35154E+05         0.00000E+00
    0.35154E+05         0.14866E+08         0.00000E+00
    0.00000E+00         0.00000E+00         0.41353E+07
 
    0.57671E+07         0.57228E+05         0.00000E+00
    0.57228E+05         0.14892E+08         0.00000E+00
    0.00000E+00         0.00000E+00         0.41318E+07
 
    0.57218E+07         0.81803E+05         0.00000E+00
    0.81803E+05         0.14919E+08         0.00000E+00
    0.00000E+00         0.00000E+00         0.41282E+07
 
    0.56749E+07         0.10886E+06         0.00000E+00
    0.10886E+06         0.14947E+08         0.00000E+00
    0.00000E+00         0.00000E+00         0.41244E+07
 
    0.56266E+07         0.13839E+06         0.00000E+00
    0.13839E+06         0.14976E+08         0.00000E+00
    0.00000E+00         0.00000E+00         0.41205E+07
 
    0.55771E+07         0.17037E+06         0.00000E+00
    0.17037E+06         0.15006E+08         0.00000E+00
    0.00000E+00         0.00000E+00         0.41166E+07
 
    0.55265E+07         0.20477E+06         0.00000E+00
    0.20477E+06         0.15037E+08         0.00000E+00
    0.00000E+00         0.00000E+00         0.41126E+07
 
    0.54750E+07         0.24158E+06         0.00000E+00
    0.24158E+06         0.15068E+08         0.00000E+00
    0.00000E+00         0.00000E+00         0.41086E+07
 
    0.54227E+07         0.28077E+06         0.00000E+00
    0.28077E+06         0.15100E+08         0.00000E+00
    0.00000E+00         0.00000E+00         0.41046E+07
 
    0.53698E+07         0.32231E+06         0.00000E+00
    0.32231E+06         0.15133E+08         0.00000E+00
    0.00000E+00         0.00000E+00         0.41006E+07
 
    0.53165E+07         0.36618E+06         0.00000E+00
    0.36618E+06         0.15167E+08         0.00000E+00
    0.00000E+00         0.00000E+00         0.40967E+07
 
    0.52629E+07         0.41233E+06         0.00000E+00
    0.41233E+06         0.15201E+08         0.00000E+00
    0.00000E+00         0.00000E+00         0.40928E+07
 
    0.52092E+07         0.46074E+06         0.00000E+00
    0.46074E+06         0.15236E+08         0.00000E+00
    0.00000E+00         0.00000E+00         0.40890E+07
 
    0.51554E+07         0.51137E+06         0.00000E+00
    0.51137E+06         0.15271E+08         0.00000E+00
    0.00000E+00         0.00000E+00         0.40853E+07
 
    0.51018E+07         0.56416E+06         0.00000E+00
    0.56416E+06         0.15307E+08         0.00000E+00
    0.00000E+00         0.00000E+00         0.40818E+07
 
    0.50485E+07         0.61908E+06         0.00000E+00
    0.61908E+06         0.15344E+08         0.00000E+00
    0.00000E+00         0.00000E+00         0.40784E+07
 
    0.49957E+07         0.67607E+06         0.00000E+00
    0.67607E+06         0.15381E+08         0.00000E+00
    0.00000E+00         0.00000E+00         0.40753E+07
 
    0.49434E+07         0.73508E+06         0.00000E+00
    0.73508E+06         0.15418E+08         0.00000E+00
    0.00000E+00         0.00000E+00         0.40723E+07
 
    0.48919E+07         0.79601E+06         0.00000E+00
    0.79601E+06         0.15456E+08         0.00000E+00
    0.00000E+00         0.00000E+00         0.40695E+07
 
    0.48413E+07         0.85879E+06         0.00000E+00
    0.85879E+06         0.15494E+08         0.00000E+00
    0.00000E+00         0.00000E+00         0.40671E+07
 
    0.47916E+07         0.92331E+06         0.00000E+00
    0.92331E+06         0.15533E+08         0.00000E+00
    0.00000E+00         0.00000E+00         0.40648E+07
 
    0.47431E+07         0.98948E+06         0.00000E+00
    0.98948E+06         0.15572E+08         0.00000E+00
    0.00000E+00         0.00000E+00         0.40629E+07
 
    0.46957E+07         0.10573E+07         0.00000E+00
    0.10573E+07         0.15611E+08         0.00000E+00
    0.00000E+00         0.00000E+00         0.40613E+07
 
    0.46498E+07         0.11265E+07         0.00000E+00
    0.11265E+07         0.15650E+08         0.00000E+00
    0.00000E+00         0.00000E+00         0.40600E+07
 
    0.46054E+07         0.11969E+07         0.00000E+00
    0.11969E+07         0.15690E+08         0.00000E+00
    0.00000E+00         0.00000E+00         0.40591E+07
 
    0.45622E+07         0.12680E+07         0.00000E+00
    0.12680E+07         0.15730E+08         0.00000E+00
    0.00000E+00         0.00000E+00         0.40585E+07
 
    0.45204E+07         0.13398E+07         0.00000E+00
    0.13398E+07         0.15772E+08         0.00000E+00
    0.00000E+00         0.00000E+00         0.40584E+07
 
    0.44792E+07         0.14121E+07         0.00000E+00
    0.14121E+07         0.15813E+08         0.00000E+00
    0.00000E+00         0.00000E+00         0.40584E+07
 
    0.44390E+07         0.14855E+07         0.00000E+00
    0.14855E+07         0.15857E+08         0.00000E+00
    0.00000E+00         0.00000E+00         0.40591E+07
 
    0.44010E+07         0.15609E+07         0.00000E+00
    0.15609E+07         0.15901E+08         0.00000E+00
    0.00000E+00         0.00000E+00         0.40604E+07
 
    0.43639E+07         0.16356E+07         0.00000E+00
    0.16356E+07         0.15938E+08         0.00000E+00
    0.00000E+00         0.00000E+00         0.40604E+07
 
    0.43309E+07         0.17091E+07         0.00000E+00
    0.17091E+07         0.15978E+08         0.00000E+00
    0.00000E+00         0.00000E+00         0.40618E+07
 
    0.42967E+07         0.17751E+07         0.00000E+00
    0.17751E+07         0.16013E+08         0.00000E+00
    0.00000E+00         0.00000E+00         0.40620E+07
 
    0.42536E+07         0.18297E+07         0.00000E+00
    0.18297E+07         0.16053E+08         0.00000E+00
    0.00000E+00         0.00000E+00         0.40613E+07
 
    0.42041E+07         0.18817E+07         0.00000E+00
    0.18817E+07         0.16143E+08         0.00000E+00
    0.00000E+00         0.00000E+00         0.40694E+07
 
    0.41242E+07         0.19255E+07         0.00000E+00
    0.19255E+07         0.16243E+08         0.00000E+00
    0.00000E+00         0.00000E+00         0.40734E+07
 
    0.54812E+07        -0.21566E+04         0.00000E+00
   -0.21566E+04         0.14053E+08         0.00000E+00
    0.00000E+00         0.00000E+00         0.39068E+07
 
    0.54949E+07        -0.30196E+04         0.00000E+00
   -0.30196E+04         0.14055E+08         0.00000E+00
    0.00000E+00         0.00000E+00         0.39100E+07
 
    0.55037E+07        -0.22601E+04         0.00000E+00
   -0.22601E+04         0.14060E+08         0.00000E+00
    0.00000E+00         0.00000E+00         0.39127E+07
 
    0.55082E+07         0.21962E+03         0.00000E+00
    0.21962E+03         0.14067E+08         0.00000E+00
    0.00000E+00         0.00000E+00         0.39150E+07
 
    0.55084E+07         0.45024E+04         0.00000E+00
    0.45024E+04         0.14075E+08         0.00000E+00
    0.00000E+00         0.00000E+00         0.39168E+07
 
    0.55046E+07         0.10660E+05         0.00000E+00
    0.10660E+05         0.14086E+08         0.00000E+00
    0.00000E+00         0.00000E+00         0.39181E+07
 
    0.54971E+07         0.18754E+05         0.00000E+00
    0.18754E+05         0.14099E+08         0.00000E+00
    0.00000E+00         0.00000E+00         0.39191E+07
 
    0.54860E+07         0.28838E+05         0.00000E+00
    0.28838E+05         0.14113E+08         0.00000E+00
    0.00000E+00         0.00000E+00         0.39197E+07
 
    0.54717E+07         0.40957E+05         0.00000E+00
    0.40957E+05         0.14128E+08         0.00000E+00
    0.00000E+00         0.00000E+00         0.39200E+07
 
    0.54543E+07         0.55148E+05         0.00000E+00
    0.55148E+05         0.14145E+08         0.00000E+00
    0.00000E+00         0.00000E+00         0.39199E+07
 
    0.54341E+07         0.71443E+05         0.00000E+00
    0.71443E+05         0.14164E+08         0.00000E+00
    0.00000E+00         0.00000E+00         0.39195E+07
 
    0.54111E+07         0.89868E+05         0.00000E+00
    0.89868E+05         0.14183E+08         0.00000E+00
    0.00000E+00         0.00000E+00         0.39189E+07
 
    0.53857E+07         0.11044E+06         0.00000E+00
    0.11044E+06         0.14204E+08         0.00000E+00
    0.00000E+00         0.00000E+00         0.39179E+07
 
    0.53579E+07         0.13318E+06         0.00000E+00
    0.13318E+06         0.14226E+08         0.00000E+00
    0.00000E+00         0.00000E+00         0.39168E+07
 
    0.53280E+07         0.15810E+06         0.00000E+00
    0.15810E+06         0.14249E+08         0.00000E+00
    0.00000E+00         0.00000E+00         0.39154E+07
 
    0.52962E+07         0.18519E+06         0.00000E+00
    0.18519E+06         0.14273E+08         0.00000E+00
    0.00000E+00         0.00000E+00         0.39138E+07
 
    0.52626E+07         0.21448E+06         0.00000E+00
    0.21448E+06         0.14298E+08         0.00000E+00
    0.00000E+00         0.00000E+00         0.39121E+07
 
    0.52273E+07         0.24595E+06         0.00000E+00
    0.24595E+06         0.14324E+08         0.00000E+00
    0.00000E+00         0.00000E+00         0.39102E+07
 
    0.51906E+07         0.27961E+06         0.00000E+00
    0.27961E+06         0.14350E+08         0.00000E+00
    0.00000E+00         0.00000E+00         0.39081E+07
 
    0.51526E+07         0.31544E+06         0.00000E+00
    0.31544E+06         0.14377E+08         0.00000E+00
    0.00000E+00         0.00000E+00         0.39060E+07
 
    0.51134E+07         0.35344E+06         0.00000E+00
    0.35344E+06         0.14405E+08         0.00000E+00
    0.00000E+00         0.00000E+00         0.39037E+07
 
    0.50733E+07         0.39359E+06         0.00000E+00
    0.39359E+06         0.14434E+08         0.00000E+00
    0.00000E+00         0.00000E+00         0.39014E+07
 
    0.50322E+07         0.43587E+06         0.00000E+00
    0.43587E+06         0.14463E+08         0.00000E+00
    0.00000E+00         0.00000E+00         0.38990E+07
 
    0.49904E+07         0.48027E+06         0.00000E+00
    0.48027E+06         0.14492E+08         0.00000E+00
    0.00000E+00         0.00000E+00         0.38965E+07
 
    0.49480E+07         0.52675E+06         0.00000E+00
    0.52675E+06         0.14522E+08         0.00000E+00
    0.00000E+00         0.00000E+00         0.38940E+07
 
    0.49052E+07         0.57530E+06         0.00000E+00
    0.57530E+06         0.14552E+08         0.00000E+00
    0.00000E+00         0.00000E+00         0.38915E+07
 
    0.48621E+07         0.62587E+06         0.00000E+00
    0.62587E+06         0.14583E+08         0.00000E+00
    0.00000E+00         0.00000E+00         0.38890E+07
 
    0.48187E+07         0.67843E+06         0.00000E+00
    0.67843E+06         0.14614E+08         0.00000E+00
    0.00000E+00         0.00000E+00         0.38865E+07
 
    0.47753E+07         0.73293E+06         0.00000E+00
    0.73293E+06         0.14645E+08         0.00000E+00
    0.00000E+00         0.00000E+00         0.38841E+07
 
    0.47319E+07         0.78932E+06         0.00000E+00
    0.78932E+06         0.14676E+08         0.00000E+00
    0.00000E+00         0.00000E+00         0.38816E+07
 
    0.46886E+07         0.84755E+06         0.00000E+00
    0.84755E+06         0.14708E+08         0.00000E+00
    0.00000E+00         0.00000E+00         0.38792E+07
 
    0.46456E+07         0.90755E+06         0.00000E+00
    0.90755E+06         0.14739E+08         0.00000E+00
    0.00000E+00         0.00000E+00         0.38769E+07
 
    0.46029E+07         0.96924E+06         0.00000E+00
    0.96924E+06         0.14770E+08         0.00000E+00
    0.00000E+00         0.00000E+00         0.38747E+07
 
    0.45606E+07         0.10325E+07         0.00000E+00
    0.10325E+07         0.14802E+08         0.00000E+00
    0.00000E+00         0.00000E+00         0.38725E+07
 
    0.45189E+07         0.10974E+07         0.00000E+00
    0.10974E+07         0.14833E+08         0.00000E+00
    0.00000E+00         0.00000E+00         0.38703E+07
 
    0.44776E+07         0.11636E+07         0.00000E+00
    0.11636E+07         0.14864E+08         0.00000E+00
    0.00000E+00         0.00000E+00         0.38683E+07
 
    0.44370E+07         0.12311E+07         0.00000E+00
    0.12311E+07         0.14894E+08         0.00000E+00
    0.00000E+00         0.00000E+00         0.38662E+07
 
    0.43969E+07         0.12997E+07         0.00000E+00
    0.12997E+07         0.14924E+08         0.00000E+00
    0.00000E+00         0.00000E+00         0.38643E+07
 
    0.43572E+07         0.13694E+07         0.00000E+00
    0.13694E+07         0.14954E+08         0.00000E+00
    0.00000E+00         0.00000E+00         0.38623E+07
 
    0.43181E+07         0.14399E+07         0.00000E+00
    0.14399E+07         0.14984E+08         0.00000E+00
    0.00000E+00         0.00000E+00         0.38604E+07
 
    0.42792E+07         0.15110E+07         0.00000E+00
    0.15110E+07         0.15013E+08         0.00000E+00
    0.00000E+00         0.00000E+00         0.38583E+07
 
    0.42406E+07         0.15827E+07         0.00000E+00
    0.15827E+07         0.15041E+08         0.00000E+00
    0.00000E+00         0.00000E+00         0.38563E+07
 
    0.42019E+07         0.16543E+07         0.00000E+00
    0.16543E+07         0.15068E+08         0.00000E+00
    0.00000E+00         0.00000E+00         0.38540E+07
 
    0.41622E+07         0.17253E+07         0.00000E+00
    0.17253E+07         0.15095E+08         0.00000E+00
    0.00000E+00         0.00000E+00         0.38514E+07
 
    0.41211E+07         0.17960E+07         0.00000E+00
    0.17960E+07         0.15122E+08         0.00000E+00
    0.00000E+00         0.00000E+00         0.38486E+07
 
    0.40767E+07         0.18657E+07         0.00000E+00
    0.18657E+07         0.15148E+08         0.00000E+00
    0.00000E+00         0.00000E+00         0.38449E+07
 
    0.40284E+07         0.19356E+07         0.00000E+00
    0.19356E+07         0.15175E+08         0.00000E+00
    0.00000E+00         0.00000E+00         0.38406E+07
 
    0.39764E+07         0.20068E+07         0.00000E+00
    0.20068E+07         0.15202E+08         0.00000E+00
    0.00000E+00         0.00000E+00         0.38357E+07
 
    0.39164E+07         0.20766E+07         0.00000E+00
    0.20766E+07         0.15220E+08         0.00000E+00
    0.00000E+00         0.00000E+00         0.38273E+07
 
    0.38487E+07         0.21471E+07         0.00000E+00
    0.21471E+07         0.15240E+08         0.00000E+00
    0.00000E+00         0.00000E+00         0.38177E+07
 
    0.49107E+07         0.38863E+04         0.00000E+00
    0.38863E+04         0.13462E+08         0.00000E+00
    0.00000E+00         0.00000E+00         0.36746E+07
 
    0.49306E+07         0.13702E+05         0.00000E+00
    0.13702E+05         0.13464E+08         0.00000E+00
    0.00000E+00         0.00000E+00         0.36790E+07
 
    0.49464E+07         0.24567E+05         0.00000E+00
    0.24567E+05         0.13469E+08         0.00000E+00
    0.00000E+00         0.00000E+00         0.36830E+07
 
    0.49582E+07         0.36596E+05         0.00000E+00
    0.36596E+05         0.13474E+08         0.00000E+00
    0.00000E+00         0.00000E+00         0.36865E+07
 
    0.49663E+07         0.49896E+05         0.00000E+00
    0.49896E+05         0.13482E+08         0.00000E+00
    0.00000E+00         0.00000E+00         0.36897E+07
 
    0.49707E+07         0.64557E+05         0.00000E+00
    0.64557E+05         0.13491E+08         0.00000E+00
    0.00000E+00         0.00000E+00         0.36924E+07
 
    0.49718E+07         0.80663E+05         0.00000E+00
    0.80663E+05         0.13502E+08         0.00000E+00
    0.00000E+00         0.00000E+00         0.36948E+07
 
    0.49697E+07         0.98286E+05         0.00000E+00
    0.98286E+05         0.13514E+08         0.00000E+00
    0.00000E+00         0.00000E+00         0.36968E+07
 
    0.49645E+07         0.11749E+06         0.00000E+00
    0.11749E+06         0.13528E+08         0.00000E+00
    0.00000E+00         0.00000E+00         0.36985E+07
 
    0.49564E+07         0.13833E+06         0.00000E+00
    0.13833E+06         0.13543E+08         0.00000E+00
    0.00000E+00         0.00000E+00         0.36999E+07
 
    0.49457E+07         0.16086E+06         0.00000E+00
    0.16086E+06         0.13559E+08         0.00000E+00
    0.00000E+00         0.00000E+00         0.37010E+07
 
    0.49324E+07         0.18511E+06         0.00000E+00
    0.18511E+06         0.13576E+08         0.00000E+00
    0.00000E+00         0.00000E+00         0.37018E+07
 
    0.49168E+07         0.21112E+06         0.00000E+00
    0.21112E+06         0.13595E+08         0.00000E+00
    0.00000E+00         0.00000E+00         0.37023E+07
 
    0.48990E+07         0.23893E+06         0.00000E+00
    0.23893E+06         0.13614E+08         0.00000E+00
    0.00000E+00         0.00000E+00         0.37026E+07
 
    0.48791E+07         0.26855E+06         0.00000E+00
    0.26855E+06         0.13634E+08         0.00000E+00
    0.00000E+00         0.00000E+00         0.37027E+07
 
    0.48573E+07         0.30000E+06         0.00000E+00
    0.30000E+06         0.13655E+08         0.00000E+00
    0.00000E+00         0.00000E+00         0.37025E+07
 
    0.48338E+07         0.33330E+06         0.00000E+00
    0.33330E+06         0.13677E+08         0.00000E+00
    0.00000E+00         0.00000E+00         0.37022E+07
 
    0.48086E+07         0.36846E+06         0.00000E+00
    0.36846E+06         0.13700E+08         0.00000E+00
    0.00000E+00         0.00000E+00         0.37017E+07
 
    0.47820E+07         0.40548E+06         0.00000E+00
    0.40548E+06         0.13723E+08         0.00000E+00
    0.00000E+00         0.00000E+00         0.37010E+07
 
    0.47540E+07         0.44435E+06         0.00000E+00
    0.44435E+06         0.13747E+08         0.00000E+00
    0.00000E+00         0.00000E+00         0.37001E+07
 
    0.47249E+07         0.48508E+06         0.00000E+00
    0.48508E+06         0.13771E+08         0.00000E+00
    0.00000E+00         0.00000E+00         0.36992E+07
 
    0.46946E+07         0.52766E+06         0.00000E+00
    0.52766E+06         0.13796E+08         0.00000E+00
    0.00000E+00         0.00000E+00         0.36981E+07
 
    0.46634E+07         0.57207E+06         0.00000E+00
    0.57207E+06         0.13821E+08         0.00000E+00
    0.00000E+00         0.00000E+00         0.36968E+07
 
    0.46314E+07         0.61829E+06         0.00000E+00
    0.61829E+06         0.13846E+08         0.00000E+00
    0.00000E+00         0.00000E+00         0.36955E+07
 
    0.45986E+07         0.66629E+06         0.00000E+00
    0.66629E+06         0.13872E+08         0.00000E+00
    0.00000E+00         0.00000E+00         0.36941E+07
 
    0.45652E+07         0.71606E+06         0.00000E+00
    0.71606E+06         0.13898E+08         0.00000E+00
    0.00000E+00         0.00000E+00         0.36926E+07
 
    0.45313E+07         0.76756E+06         0.00000E+00
    0.76756E+06         0.13924E+08         0.00000E+00
    0.00000E+00         0.00000E+00         0.36910E+07
 
    0.44970E+07         0.82074E+06         0.00000E+00
    0.82074E+06         0.13950E+08         0.00000E+00
    0.00000E+00         0.00000E+00         0.36893E+07
 
    0.44624E+07         0.87556E+06         0.00000E+00
    0.87556E+06         0.13976E+08         0.00000E+00
    0.00000E+00         0.00000E+00         0.36876E+07
 
    0.44275E+07         0.93197E+06         0.00000E+00
    0.93197E+06         0.14002E+08         0.00000E+00
    0.00000E+00         0.00000E+00         0.36858E+07
 
    0.43925E+07         0.98991E+06         0.00000E+00
    0.98991E+06         0.14028E+08         0.00000E+00
    0.00000E+00         0.00000E+00         0.36840E+07
 
    0.43573E+07         0.10493E+07         0.00000E+00
    0.10493E+07         0.14053E+08         0.00000E+00
    0.00000E+00         0.00000E+00         0.36821E+07
 
    0.43221E+07         0.11101E+07         0.00000E+00
    0.11101E+07         0.14079E+08         0.00000E+00
    0.00000E+00         0.00000E+00         0.36802E+07
 
    0.42869E+07         0.11722E+07         0.00000E+00
    0.11722E+07         0.14104E+08         0.00000E+00
    0.00000E+00         0.00000E+00         0.36782E+07
 
    0.42517E+07         0.12356E+07         0.00000E+00
    0.12356E+07         0.14129E+08         0.00000E+00
    0.00000E+00         0.00000E+00         0.36761E+07
 
    0.42165E+07         0.13000E+07         0.00000E+00
    0.13000E+07         0.14154E+08         0.00000E+00
    0.00000E+00         0.00000E+00         0.36740E+07
 
    0.41812E+07         0.13655E+07         0.00000E+00
    0.13655E+07         0.14178E+08         0.00000E+00
    0.00000E+00         0.00000E+00         0.36718E+07
 
    0.41459E+07         0.14319E+07         0.00000E+00
    0.14319E+07         0.14202E+08         0.00000E+00
    0.00000E+00         0.00000E+00         0.36695E+07
 
    0.41104E+07         0.14991E+07         0.00000E+00
    0.14991E+07         0.14225E+08         0.00000E+00
    0.00000E+00         0.00000E+00         0.36671E+07
 
    0.40746E+07         0.15670E+07         0.00000E+00
    0.15670E+07         0.14248E+08         0.00000E+00
    0.00000E+00         0.00000E+00         0.36645E+07
 
    0.40383E+07         0.16355E+07         0.00000E+00
    0.16355E+07         0.14270E+08         0.00000E+00
    0.00000E+00         0.00000E+00         0.36617E+07
 
    0.40013E+07         0.17044E+07         0.00000E+00
    0.17044E+07         0.14292E+08         0.00000E+00
    0.00000E+00         0.00000E+00         0.36587E+07
 
    0.39633E+07         0.17737E+07         0.00000E+00
    0.17737E+07         0.14314E+08         0.00000E+00
    0.00000E+00         0.00000E+00         0.36554E+07
 
    0.39240E+07         0.18435E+07         0.00000E+00
    0.18435E+07         0.14336E+08         0.00000E+00
    0.00000E+00         0.00000E+00         0.36519E+07
 
    0.38831E+07         0.19136E+07         0.00000E+00
    0.19136E+07         0.14357E+08         0.00000E+00
    0.00000E+00         0.00000E+00         0.36480E+07
 
    0.38403E+07         0.19845E+07         0.00000E+00
    0.19845E+07         0.14379E+08         0.00000E+00
    0.00000E+00         0.00000E+00         0.36438E+07
 
    0.37953E+07         0.20562E+07         0.00000E+00
    0.20562E+07         0.14401E+08         0.00000E+00
    0.00000E+00         0.00000E+00         0.36392E+07
 
    0.37475E+07         0.21286E+07         0.00000E+00
    0.21286E+07         0.14423E+08         0.00000E+00
    0.00000E+00         0.00000E+00         0.36341E+07
 
    0.36978E+07         0.22036E+07         0.00000E+00
    0.22036E+07         0.14448E+08         0.00000E+00
    0.00000E+00         0.00000E+00         0.36292E+07
 
    0.36472E+07         0.22818E+07         0.00000E+00
    0.22818E+07         0.14474E+08         0.00000E+00
    0.00000E+00         0.00000E+00         0.36243E+07
 
    0.44009E+07         0.88945E+04         0.00000E+00
    0.88945E+04         0.12882E+08         0.00000E+00
    0.00000E+00         0.00000E+00         0.34566E+07
 
    0.44247E+07         0.27757E+05         0.00000E+00
    0.27757E+05         0.12884E+08         0.00000E+00
    0.00000E+00         0.00000E+00         0.34617E+07
 
    0.44449E+07         0.47253E+05         0.00000E+00
    0.47253E+05         0.12887E+08         0.00000E+00
    0.00000E+00         0.00000E+00         0.34664E+07
 
    0.44617E+07         0.67498E+05         0.00000E+00
    0.67498E+05         0.12892E+08         0.00000E+00
    0.00000E+00         0.00000E+00         0.34708E+07
 
    0.44753E+07         0.88601E+05         0.00000E+00
    0.88601E+05         0.12898E+08         0.00000E+00
    0.00000E+00         0.00000E+00         0.34748E+07
 
    0.44857E+07         0.11066E+06         0.00000E+00
    0.11066E+06         0.12906E+08         0.00000E+00
    0.00000E+00         0.00000E+00         0.34784E+07
 
    0.44931E+07         0.13376E+06         0.00000E+00
    0.13376E+06         0.12915E+08         0.00000E+00
    0.00000E+00         0.00000E+00         0.34817E+07
 
    0.44977E+07         0.15798E+06         0.00000E+00
    0.15798E+06         0.12926E+08         0.00000E+00
    0.00000E+00         0.00000E+00         0.34847E+07
 
    0.44996E+07         0.18340E+06         0.00000E+00
    0.18340E+06         0.12937E+08         0.00000E+00
    0.00000E+00         0.00000E+00         0.34874E+07
 
    0.44989E+07         0.21007E+06         0.00000E+00
    0.21007E+06         0.12950E+08         0.00000E+00
    0.00000E+00         0.00000E+00         0.34898E+07
 
    0.44957E+07         0.23805E+06         0.00000E+00
    0.23805E+06         0.12964E+08         0.00000E+00
    0.00000E+00         0.00000E+00         0.34919E+07
 
    0.44902E+07         0.26739E+06         0.00000E+00
    0.26739E+06         0.12978E+08         0.00000E+00
    0.00000E+00         0.00000E+00         0.34937E+07
 
    0.44826E+07         0.29814E+06         0.00000E+00
    0.29814E+06         0.12994E+08         0.00000E+00
    0.00000E+00         0.00000E+00         0.34953E+07
 
    0.44729E+07         0.33032E+06         0.00000E+00
    0.33032E+06         0.13010E+08         0.00000E+00
    0.00000E+00         0.00000E+00         0.34966E+07
 
    0.44612E+07         0.36398E+06         0.00000E+00
    0.36398E+06         0.13028E+08         0.00000E+00
    0.00000E+00         0.00000E+00         0.34978E+07
 
    0.44478E+07         0.39913E+06         0.00000E+00
    0.39913E+06         0.13045E+08         0.00000E+00
    0.00000E+00         0.00000E+00         0.34987E+07
 
    0.44327E+07         0.43580E+06         0.00000E+00
    0.43580E+06         0.13064E+08         0.00000E+00
    0.00000E+00         0.00000E+00         0.34993E+07
 
    0.44160E+07         0.47399E+06         0.00000E+00
    0.47399E+06         0.13083E+08         0.00000E+00
    0.00000E+00         0.00000E+00         0.34998E+07
 
    0.43979E+07         0.51373E+06         0.00000E+00
    0.51373E+06         0.13103E+08         0.00000E+00
    0.00000E+00         0.00000E+00         0.35001E+07
 
    0.43784E+07         0.55501E+06         0.00000E+00
    0.55501E+06         0.13123E+08         0.00000E+00
    0.00000E+00         0.00000E+00         0.35003E+07
 
    0.43577E+07         0.59783E+06         0.00000E+00
    0.59783E+06         0.13144E+08         0.00000E+00
    0.00000E+00         0.00000E+00         0.35002E+07
 
    0.43358E+07         0.64219E+06         0.00000E+00
    0.64219E+06         0.13164E+08         0.00000E+00
    0.00000E+00         0.00000E+00         0.35001E+07
 
    0.43130E+07         0.68808E+06         0.00000E+00
    0.68808E+06         0.13186E+08         0.00000E+00
    0.00000E+00         0.00000E+00         0.34997E+07
 
    0.42892E+07         0.73548E+06         0.00000E+00
    0.73548E+06         0.13207E+08         0.00000E+00
    0.00000E+00         0.00000E+00         0.34992E+07
 
    0.42645E+07         0.78438E+06         0.00000E+00
    0.78438E+06         0.13229E+08         0.00000E+00
    0.00000E+00         0.00000E+00         0.34986E+07
 
    0.42391E+07         0.83475E+06         0.00000E+00
    0.83475E+06         0.13250E+08         0.00000E+00
    0.00000E+00         0.00000E+00         0.34979E+07
 
    0.42131E+07         0.88656E+06         0.00000E+00
    0.88656E+06         0.13272E+08         0.00000E+00
    0.00000E+00         0.00000E+00         0.34970E+07
 
    0.41864E+07         0.93978E+06         0.00000E+00
    0.93978E+06         0.13294E+08         0.00000E+00
    0.00000E+00         0.00000E+00         0.34960E+07
 
    0.41591E+07         0.99438E+06         0.00000E+00
    0.99438E+06         0.13316E+08         0.00000E+00
    0.00000E+00         0.00000E+00         0.34949E+07
 
    0.41314E+07         0.10503E+07         0.00000E+00
    0.10503E+07         0.13337E+08         0.00000E+00
    0.00000E+00         0.00000E+00         0.34937E+07
 
    0.41033E+07         0.11075E+07         0.00000E+00
    0.11075E+07         0.13359E+08         0.00000E+00
    0.00000E+00         0.00000E+00         0.34924E+07
 
    0.40747E+07         0.11660E+07         0.00000E+00
    0.11660E+07         0.13380E+08         0.00000E+00
    0.00000E+00         0.00000E+00         0.34910E+07
 
    0.40457E+07         0.12256E+07         0.00000E+00
    0.12256E+07         0.13401E+08         0.00000E+00
    0.00000E+00         0.00000E+00         0.34894E+07
 
    0.40164E+07         0.12864E+07         0.00000E+00
    0.12864E+07         0.13422E+08         0.00000E+00
    0.00000E+00         0.00000E+00         0.34877E+07
 
    0.39867E+07         0.13482E+07         0.00000E+00
    0.13482E+07         0.13443E+08         0.00000E+00
    0.00000E+00         0.00000E+00         0.34859E+07
 
    0.39566E+07         0.14110E+07         0.00000E+00
    0.14110E+07         0.13463E+08         0.00000E+00
    0.00000E+00         0.00000E+00         0.34840E+07
 
    0.39261E+07         0.14748E+07         0.00000E+00
    0.14748E+07         0.13484E+08         0.00000E+00
    0.00000E+00         0.00000E+00         0.34820E+07
 
    0.38952E+07         0.15395E+07         0.00000E+00
    0.15395E+07         0.13504E+08         0.00000E+00
    0.00000E+00         0.00000E+00         0.34798E+07
 
    0.38636E+07         0.16051E+07         0.00000E+00
    0.16051E+07         0.13523E+08         0.00000E+00
    0.00000E+00         0.00000E+00         0.34774E+07
 
    0.38315E+07         0.16715E+07         0.00000E+00
    0.16715E+07         0.13543E+08         0.00000E+00
    0.00000E+00         0.00000E+00         0.34749E+07
 
    0.37986E+07         0.17387E+07         0.00000E+00
    0.17387E+07         0.13562E+08         0.00000E+00
    0.00000E+00         0.00000E+00         0.34721E+07
 
    0.37650E+07         0.18067E+07         0.00000E+00
    0.18067E+07         0.13581E+08         0.00000E+00
    0.00000E+00         0.00000E+00         0.34692E+07
 
    0.37304E+07         0.18756E+07         0.00000E+00
    0.18756E+07         0.13600E+08         0.00000E+00
    0.00000E+00         0.00000E+00         0.34661E+07
 
    0.36947E+07         0.19454E+07         0.00000E+00
    0.19454E+07         0.13619E+08         0.00000E+00
    0.00000E+00         0.00000E+00         0.34628E+07
 
    0.36580E+07         0.20162E+07         0.00000E+00
    0.20162E+07         0.13639E+08         0.00000E+00
    0.00000E+00         0.00000E+00         0.34593E+07
 
    0.36201E+07         0.20880E+07         0.00000E+00
    0.20880E+07         0.13658E+08         0.00000E+00
    0.00000E+00         0.00000E+00         0.34556E+07
 
    0.35811E+07         0.21611E+07         0.00000E+00
    0.21611E+07         0.13677E+08         0.00000E+00
    0.00000E+00         0.00000E+00         0.34517E+07
 
    0.35411E+07         0.22358E+07         0.00000E+00
    0.22358E+07         0.13697E+08         0.00000E+00
    0.00000E+00         0.00000E+00         0.34476E+07
 
    0.35000E+07         0.23117E+07         0.00000E+00
    0.23117E+07         0.13716E+08         0.00000E+00
    0.00000E+00         0.00000E+00         0.34432E+07
 
    0.34576E+07         0.23886E+07         0.00000E+00
    0.23886E+07         0.13735E+08         0.00000E+00
    0.00000E+00         0.00000E+00         0.34385E+07
 
    0.39439E+07         0.12906E+05         0.00000E+00
    0.12906E+05         0.12313E+08         0.00000E+00
    0.00000E+00         0.00000E+00         0.32513E+07
 
    0.39697E+07         0.39180E+05         0.00000E+00
    0.39180E+05         0.12314E+08         0.00000E+00
    0.00000E+00         0.00000E+00         0.32568E+07
 
    0.39927E+07         0.65805E+05         0.00000E+00
    0.65805E+05         0.12317E+08         0.00000E+00
    0.00000E+00         0.00000E+00         0.32619E+07
 
    0.40127E+07         0.92889E+05         0.00000E+00
    0.92889E+05         0.12321E+08         0.00000E+00
    0.00000E+00         0.00000E+00         0.32667E+07
 
    0.40300E+07         0.12053E+06         0.00000E+00
    0.12053E+06         0.12326E+08         0.00000E+00
    0.00000E+00         0.00000E+00         0.32712E+07
 
    0.40446E+07         0.14882E+06         0.00000E+00
    0.14882E+06         0.12332E+08         0.00000E+00
    0.00000E+00         0.00000E+00         0.32754E+07
 
    0.40567E+07         0.17785E+06         0.00000E+00
    0.17785E+06         0.12340E+08         0.00000E+00
    0.00000E+00         0.00000E+00         0.32793E+07
 
    0.40662E+07         0.20768E+06         0.00000E+00
    0.20768E+06         0.12348E+08         0.00000E+00
    0.00000E+00         0.00000E+00         0.32829E+07
 
    0.40734E+07         0.23840E+06         0.00000E+00
    0.23840E+06         0.12358E+08         0.00000E+00
    0.00000E+00         0.00000E+00         0.32862E+07
 
    0.40783E+07         0.27005E+06         0.00000E+00
    0.27005E+06         0.12368E+08         0.00000E+00
    0.00000E+00         0.00000E+00         0.32893E+07
 
    0.40810E+07         0.30271E+06         0.00000E+00
    0.30271E+06         0.12380E+08         0.00000E+00
    0.00000E+00         0.00000E+00         0.32921E+07
 
    0.40817E+07         0.33641E+06         0.00000E+00
    0.33641E+06         0.12392E+08         0.00000E+00
    0.00000E+00         0.00000E+00         0.32947E+07
 
    0.40803E+07         0.37121E+06         0.00000E+00
    0.37121E+06         0.12405E+08         0.00000E+00
    0.00000E+00         0.00000E+00         0.32970E+07
 
    0.40771E+07         0.40714E+06         0.00000E+00
    0.40714E+06         0.12418E+08         0.00000E+00
    0.00000E+00         0.00000E+00         0.32991E+07
 
    0.40721E+07         0.44424E+06         0.00000E+00
    0.44424E+06         0.12433E+08         0.00000E+00
    0.00000E+00         0.00000E+00         0.33009E+07
 
    0.40655E+07         0.48253E+06         0.00000E+00
    0.48253E+06         0.12448E+08         0.00000E+00
    0.00000E+00         0.00000E+00         0.33026E+07
 
    0.40572E+07         0.52205E+06         0.00000E+00
    0.52205E+06         0.12463E+08         0.00000E+00
    0.00000E+00         0.00000E+00         0.33040E+07
 
    0.40474E+07         0.56280E+06         0.00000E+00
    0.56280E+06         0.12479E+08         0.00000E+00
    0.00000E+00         0.00000E+00         0.33053E+07
 
    0.40363E+07         0.60480E+06         0.00000E+00
    0.60480E+06         0.12495E+08         0.00000E+00
    0.00000E+00         0.00000E+00         0.33063E+07
 
    0.40238E+07         0.64806E+06         0.00000E+00
    0.64806E+06         0.12512E+08         0.00000E+00
    0.00000E+00         0.00000E+00         0.33072E+07
 
    0.40101E+07         0.69259E+06         0.00000E+00
    0.69259E+06         0.12529E+08         0.00000E+00
    0.00000E+00         0.00000E+00         0.33079E+07
 
    0.39952E+07         0.73839E+06         0.00000E+00
    0.73839E+06         0.12547E+08         0.00000E+00
    0.00000E+00         0.00000E+00         0.33084E+07
 
    0.39793E+07         0.78545E+06         0.00000E+00
    0.78545E+06         0.12565E+08         0.00000E+00
    0.00000E+00         0.00000E+00         0.33088E+07
 
    0.39624E+07         0.83377E+06         0.00000E+00
    0.83377E+06         0.12582E+08         0.00000E+00
    0.00000E+00         0.00000E+00         0.33090E+07
 
    0.39446E+07         0.88334E+06         0.00000E+00
    0.88334E+06         0.12600E+08         0.00000E+00
    0.00000E+00         0.00000E+00         0.33090E+07
 
    0.39258E+07         0.93414E+06         0.00000E+00
    0.93414E+06         0.12619E+08         0.00000E+00
    0.00000E+00         0.00000E+00         0.33089E+07
 
    0.39063E+07         0.98616E+06         0.00000E+00
    0.98616E+06         0.12637E+08         0.00000E+00
    0.00000E+00         0.00000E+00         0.33086E+07
 
    0.38861E+07         0.10394E+07         0.00000E+00
    0.10394E+07         0.12655E+08         0.00000E+00
    0.00000E+00         0.00000E+00         0.33082E+07
 
    0.38651E+07         0.10938E+07         0.00000E+00
    0.10938E+07         0.12673E+08         0.00000E+00
    0.00000E+00         0.00000E+00         0.33077E+07
 
    0.38435E+07         0.11493E+07         0.00000E+00
    0.11493E+07         0.12691E+08         0.00000E+00
    0.00000E+00         0.00000E+00         0.33070E+07
 
    0.38212E+07         0.12060E+07         0.00000E+00
    0.12060E+07         0.12710E+08         0.00000E+00
    0.00000E+00         0.00000E+00         0.33062E+07
 
    0.37984E+07         0.12637E+07         0.00000E+00
    0.12637E+07         0.12728E+08         0.00000E+00
    0.00000E+00         0.00000E+00         0.33052E+07
 
    0.37749E+07         0.13225E+07         0.00000E+00
    0.13225E+07         0.12745E+08         0.00000E+00
    0.00000E+00         0.00000E+00         0.33041E+07
 
    0.37509E+07         0.13824E+07         0.00000E+00
    0.13824E+07         0.12763E+08         0.00000E+00
    0.00000E+00         0.00000E+00         0.33028E+07
 
    0.37263E+07         0.14432E+07         0.00000E+00
    0.14432E+07         0.12781E+08         0.00000E+00
    0.00000E+00         0.00000E+00         0.33014E+07
 
    0.37012E+07         0.15051E+07         0.00000E+00
    0.15051E+07         0.12798E+08         0.00000E+00
    0.00000E+00         0.00000E+00         0.32999E+07
 
    0.36754E+07         0.15679E+07         0.00000E+00
    0.15679E+07         0.12816E+08         0.00000E+00
    0.00000E+00         0.00000E+00         0.32982E+07
 
    0.36491E+07         0.16317E+07         0.00000E+00
    0.16317E+07         0.12833E+08         0.00000E+00
    0.00000E+00         0.00000E+00         0.32964E+07
 
    0.36221E+07         0.16964E+07         0.00000E+00
    0.16964E+07         0.12850E+08         0.00000E+00
    0.00000E+00         0.00000E+00         0.32944E+07
 
    0.35944E+07         0.17621E+07         0.00000E+00
    0.17621E+07         0.12867E+08         0.00000E+00
    0.00000E+00         0.00000E+00         0.32922E+07
 
    0.35661E+07         0.18287E+07         0.00000E+00
    0.18287E+07         0.12884E+08         0.00000E+00
    0.00000E+00         0.00000E+00         0.32899E+07
 
    0.35370E+07         0.18963E+07         0.00000E+00
    0.18963E+07         0.12900E+08         0.00000E+00
    0.00000E+00         0.00000E+00         0.32875E+07
 
    0.35072E+07         0.19649E+07         0.00000E+00
    0.19649E+07         0.12917E+08         0.00000E+00
    0.00000E+00         0.00000E+00         0.32848E+07
 
    0.34767E+07         0.20346E+07         0.00000E+00
    0.20346E+07         0.12934E+08         0.00000E+00
    0.00000E+00         0.00000E+00         0.32821E+07
 
    0.34454E+07         0.21053E+07         0.00000E+00
    0.21053E+07         0.12950E+08         0.00000E+00
    0.00000E+00         0.00000E+00         0.32791E+07
 
    0.34133E+07         0.21772E+07         0.00000E+00
    0.21772E+07         0.12967E+08         0.00000E+00
    0.00000E+00         0.00000E+00         0.32760E+07
 
    0.33805E+07         0.22502E+07         0.00000E+00
    0.22502E+07         0.12983E+08         0.00000E+00
    0.00000E+00         0.00000E+00         0.32727E+07
 
    0.33469E+07         0.23244E+07         0.00000E+00
    0.23244E+07         0.12999E+08         0.00000E+00
    0.00000E+00         0.00000E+00         0.32692E+07
 
    0.33125E+07         0.23999E+07         0.00000E+00
    0.23999E+07         0.13015E+08         0.00000E+00
    0.00000E+00         0.00000E+00         0.32656E+07
 
    0.32775E+07         0.24768E+07         0.00000E+00
    0.24768E+07         0.13032E+08         0.00000E+00
    0.00000E+00         0.00000E+00         0.32618E+07
 
    0.35321E+07         0.16047E+05         0.00000E+00
    0.16047E+05         0.11755E+08         0.00000E+00
    0.00000E+00         0.00000E+00         0.30574E+07
 
    0.35590E+07         0.48251E+05         0.00000E+00
    0.48251E+05         0.11756E+08         0.00000E+00
    0.00000E+00         0.00000E+00         0.30630E+07
 
    0.35835E+07         0.80630E+05         0.00000E+00
    0.80630E+05         0.11758E+08         0.00000E+00
    0.00000E+00         0.00000E+00         0.30683E+07
 
    0.36055E+07         0.11328E+06         0.00000E+00
    0.11328E+06         0.11761E+08         0.00000E+00
    0.00000E+00         0.00000E+00         0.30733E+07
 
    0.36253E+07         0.14627E+06         0.00000E+00
    0.14627E+06         0.11765E+08         0.00000E+00
    0.00000E+00         0.00000E+00         0.30781E+07
 
    0.36428E+07         0.17970E+06         0.00000E+00
    0.17970E+06         0.11770E+08         0.00000E+00
    0.00000E+00         0.00000E+00         0.30826E+07
 
    0.36581E+07         0.21364E+06         0.00000E+00
    0.21364E+06         0.11776E+08         0.00000E+00
    0.00000E+00         0.00000E+00         0.30869E+07
 
    0.36713E+07         0.24815E+06         0.00000E+00
    0.24815E+06         0.11783E+08         0.00000E+00
    0.00000E+00         0.00000E+00         0.30909E+07
 
    0.36824E+07         0.28330E+06         0.00000E+00
    0.28330E+06         0.11791E+08         0.00000E+00
    0.00000E+00         0.00000E+00         0.30946E+07
 
    0.36915E+07         0.31915E+06         0.00000E+00
    0.31915E+06         0.11799E+08         0.00000E+00
    0.00000E+00         0.00000E+00         0.30982E+07
 
    0.36987E+07         0.35575E+06         0.00000E+00
    0.35575E+06         0.11809E+08         0.00000E+00
    0.00000E+00         0.00000E+00         0.31014E+07
 
    0.37040E+07         0.39314E+06         0.00000E+00
    0.39314E+06         0.11818E+08         0.00000E+00
    0.00000E+00         0.00000E+00         0.31045E+07
 
    0.37076E+07         0.43138E+06         0.00000E+00
    0.43138E+06         0.11829E+08         0.00000E+00
    0.00000E+00         0.00000E+00         0.31073E+07
 
    0.37095E+07         0.47051E+06         0.00000E+00
    0.47051E+06         0.11840E+08         0.00000E+00
    0.00000E+00         0.00000E+00         0.31099E+07
 
    0.37098E+07         0.51054E+06         0.00000E+00
    0.51054E+06         0.11852E+08         0.00000E+00
    0.00000E+00         0.00000E+00         0.31123E+07
 
    0.37085E+07         0.55153E+06         0.00000E+00
    0.55153E+06         0.11864E+08         0.00000E+00
    0.00000E+00         0.00000E+00         0.31145E+07
 
    0.37057E+07         0.59349E+06         0.00000E+00
    0.59349E+06         0.11877E+08         0.00000E+00
    0.00000E+00         0.00000E+00         0.31165E+07
 
    0.37016E+07         0.63644E+06         0.00000E+00
    0.63644E+06         0.11890E+08         0.00000E+00
    0.00000E+00         0.00000E+00         0.31183E+07
 
    0.36961E+07         0.68040E+06         0.00000E+00
    0.68040E+06         0.11904E+08         0.00000E+00
    0.00000E+00         0.00000E+00         0.31199E+07
 
    0.36893E+07         0.72539E+06         0.00000E+00
    0.72539E+06         0.11918E+08         0.00000E+00
    0.00000E+00         0.00000E+00         0.31214E+07
 
    0.36814E+07         0.77142E+06         0.00000E+00
    0.77142E+06         0.11932E+08         0.00000E+00
    0.00000E+00         0.00000E+00         0.31226E+07
 
    0.36723E+07         0.81849E+06         0.00000E+00
    0.81849E+06         0.11946E+08         0.00000E+00
    0.00000E+00         0.00000E+00         0.31237E+07
 
    0.36622E+07         0.86661E+06         0.00000E+00
    0.86661E+06         0.11961E+08         0.00000E+00
    0.00000E+00         0.00000E+00         0.31246E+07
 
    0.36510E+07         0.91578E+06         0.00000E+00
    0.91578E+06         0.11976E+08         0.00000E+00
    0.00000E+00         0.00000E+00         0.31253E+07
 
    0.36389E+07         0.96600E+06         0.00000E+00
    0.96600E+06         0.11991E+08         0.00000E+00
    0.00000E+00         0.00000E+00         0.31259E+07
 
    0.36258E+07         0.10173E+07         0.00000E+00
    0.10173E+07         0.12006E+08         0.00000E+00
    0.00000E+00         0.00000E+00         0.31263E+07
 
    0.36119E+07         0.10696E+07         0.00000E+00
    0.10696E+07         0.12021E+08         0.00000E+00
    0.00000E+00         0.00000E+00         0.31266E+07
 
    0.35972E+07         0.11229E+07         0.00000E+00
    0.11229E+07         0.12036E+08         0.00000E+00
    0.00000E+00         0.00000E+00         0.31267E+07
 
    0.35816E+07         0.11773E+07         0.00000E+00
    0.11773E+07         0.12052E+08         0.00000E+00
    0.00000E+00         0.00000E+00         0.31267E+07
 
    0.35654E+07         0.12327E+07         0.00000E+00
    0.12327E+07         0.12067E+08         0.00000E+00
    0.00000E+00         0.00000E+00         0.31265E+07
 
    0.35484E+07         0.12891E+07         0.00000E+00
    0.12891E+07         0.12082E+08         0.00000E+00
    0.00000E+00         0.00000E+00         0.31261E+07
 
    0.35307E+07         0.13464E+07         0.00000E+00
    0.13464E+07         0.12098E+08         0.00000E+00
    0.00000E+00         0.00000E+00         0.31257E+07
 
    0.35123E+07         0.14048E+07         0.00000E+00
    0.14048E+07         0.12113E+08         0.00000E+00
    0.00000E+00         0.00000E+00         0.31250E+07
 
    0.34933E+07         0.14641E+07         0.00000E+00
    0.14641E+07         0.12128E+08         0.00000E+00
    0.00000E+00         0.00000E+00         0.31242E+07
 
    0.34737E+07         0.15245E+07         0.00000E+00
    0.15245E+07         0.12143E+08         0.00000E+00
    0.00000E+00         0.00000E+00         0.31233E+07
 
    0.34534E+07         0.15857E+07         0.00000E+00
    0.15857E+07         0.12158E+08         0.00000E+00
    0.00000E+00         0.00000E+00         0.31222E+07
 
    0.34324E+07         0.16480E+07         0.00000E+00
    0.16480E+07         0.12173E+08         0.00000E+00
    0.00000E+00         0.00000E+00         0.31210E+07
 
    0.34109E+07         0.17111E+07         0.00000E+00
    0.17111E+07         0.12187E+08         0.00000E+00
    0.00000E+00         0.00000E+00         0.31197E+07
 
    0.33887E+07         0.17753E+07         0.00000E+00
    0.17753E+07         0.12202E+08         0.00000E+00
    0.00000E+00         0.00000E+00         0.31182E+07
 
    0.33659E+07         0.18404E+07         0.00000E+00
    0.18404E+07         0.12217E+08         0.00000E+00
    0.00000E+00         0.00000E+00         0.31165E+07
 
    0.33425E+07         0.19065E+07         0.00000E+00
    0.19065E+07         0.12231E+08         0.00000E+00
    0.00000E+00         0.00000E+00         0.31147E+07
 
    0.33185E+07         0.19737E+07         0.00000E+00
    0.19737E+07         0.12245E+08         0.00000E+00
    0.00000E+00         0.00000E+00         0.31128E+07
 
    0.32938E+07         0.20418E+07         0.00000E+00
    0.20418E+07         0.12260E+08         0.00000E+00
    0.00000E+00         0.00000E+00         0.31107E+07
 
    0.32685E+07         0.21110E+07         0.00000E+00
    0.21110E+07         0.12274E+08         0.00000E+00
    0.00000E+00         0.00000E+00         0.31084E+07
 
    0.32427E+07         0.21812E+07         0.00000E+00
    0.21812E+07         0.12288E+08         0.00000E+00
    0.00000E+00         0.00000E+00         0.31061E+07
 
    0.32162E+07         0.22525E+07         0.00000E+00
    0.22525E+07         0.12301E+08         0.00000E+00
    0.00000E+00         0.00000E+00         0.31035E+07
 
    0.31892E+07         0.23249E+07         0.00000E+00
    0.23249E+07         0.12315E+08         0.00000E+00
    0.00000E+00         0.00000E+00         0.31009E+07
 
    0.31616E+07         0.23985E+07         0.00000E+00
    0.23985E+07         0.12329E+08         0.00000E+00
    0.00000E+00         0.00000E+00         0.30981E+07
 
    0.31335E+07         0.24733E+07         0.00000E+00
    0.24733E+07         0.12342E+08         0.00000E+00
    0.00000E+00         0.00000E+00         0.30951E+07
 
    0.31049E+07         0.25492E+07         0.00000E+00
    0.25492E+07         0.12355E+08         0.00000E+00
    0.00000E+00         0.00000E+00         0.30920E+07
 
    0.31591E+07         0.18476E+05         0.00000E+00
    0.18476E+05         0.11209E+08         0.00000E+00
    0.00000E+00         0.00000E+00         0.28736E+07
 
    0.31864E+07         0.55356E+05         0.00000E+00
    0.55356E+05         0.11210E+08         0.00000E+00
    0.00000E+00         0.00000E+00         0.28792E+07
 
    0.32117E+07         0.92308E+05         0.00000E+00
    0.92308E+05         0.11211E+08         0.00000E+00
    0.00000E+00         0.00000E+00         0.28846E+07
 
    0.32350E+07         0.12941E+06         0.00000E+00
    0.12941E+06         0.11214E+08         0.00000E+00
    0.00000E+00         0.00000E+00         0.28898E+07
 
    0.32563E+07         0.16672E+06         0.00000E+00
    0.16672E+06         0.11217E+08         0.00000E+00
    0.00000E+00         0.00000E+00         0.28947E+07
 
    0.32758E+07         0.20432E+06         0.00000E+00
    0.20432E+06         0.11221E+08         0.00000E+00
    0.00000E+00         0.00000E+00         0.28994E+07
 
    0.32933E+07         0.24227E+06         0.00000E+00
    0.24227E+06         0.11226E+08         0.00000E+00
    0.00000E+00         0.00000E+00         0.29038E+07
 
    0.33091E+07         0.28062E+06         0.00000E+00
    0.28062E+06         0.11231E+08         0.00000E+00
    0.00000E+00         0.00000E+00         0.29081E+07
 
    0.33231E+07         0.31944E+06         0.00000E+00
    0.31944E+06         0.11237E+08         0.00000E+00
    0.00000E+00         0.00000E+00         0.29121E+07
 
    0.33353E+07         0.35876E+06         0.00000E+00
    0.35876E+06         0.11244E+08         0.00000E+00
    0.00000E+00         0.00000E+00         0.29159E+07
 
    0.33459E+07         0.39866E+06         0.00000E+00
    0.39866E+06         0.11252E+08         0.00000E+00
    0.00000E+00         0.00000E+00         0.29195E+07
 
    0.33548E+07         0.43915E+06         0.00000E+00
    0.43915E+06         0.11260E+08         0.00000E+00
    0.00000E+00         0.00000E+00         0.29229E+07
 
    0.33622E+07         0.48030E+06         0.00000E+00
    0.48030E+06         0.11268E+08         0.00000E+00
    0.00000E+00         0.00000E+00         0.29261E+07
 
    0.33681E+07         0.52213E+06         0.00000E+00
    0.52213E+06         0.11277E+08         0.00000E+00
    0.00000E+00         0.00000E+00         0.29291E+07
 
    0.33725E+07         0.56468E+06         0.00000E+00
    0.56468E+06         0.11287E+08         0.00000E+00
    0.00000E+00         0.00000E+00         0.29319E+07
 
    0.33755E+07         0.60797E+06         0.00000E+00
    0.60797E+06         0.11297E+08         0.00000E+00
    0.00000E+00         0.00000E+00         0.29344E+07
 
    0.33772E+07         0.65204E+06         0.00000E+00
    0.65204E+06         0.11307E+08         0.00000E+00
    0.00000E+00         0.00000E+00         0.29369E+07
 
    0.33775E+07         0.69691E+06         0.00000E+00
    0.69691E+06         0.11318E+08         0.00000E+00
    0.00000E+00         0.00000E+00         0.29391E+07
 
    0.33767E+07         0.74260E+06         0.00000E+00
    0.74260E+06         0.11329E+08         0.00000E+00
    0.00000E+00         0.00000E+00         0.29411E+07
 
    0.33746E+07         0.78913E+06         0.00000E+00
    0.78913E+06         0.11340E+08         0.00000E+00
    0.00000E+00         0.00000E+00         0.29430E+07
 
    0.33714E+07         0.83651E+06         0.00000E+00
    0.83651E+06         0.11352E+08         0.00000E+00
    0.00000E+00         0.00000E+00         0.29447E+07
 
    0.33671E+07         0.88476E+06         0.00000E+00
    0.88476E+06         0.11364E+08         0.00000E+00
    0.00000E+00         0.00000E+00         0.29462E+07
 
    0.33618E+07         0.93388E+06         0.00000E+00
    0.93388E+06         0.11376E+08         0.00000E+00
    0.00000E+00         0.00000E+00         0.29476E+07
 
    0.33554E+07         0.98389E+06         0.00000E+00
    0.98389E+06         0.11388E+08         0.00000E+00
    0.00000E+00         0.00000E+00         0.29488E+07
 
    0.33481E+07         0.10348E+07         0.00000E+00
    0.10348E+07         0.11401E+08         0.00000E+00
    0.00000E+00         0.00000E+00         0.29498E+07
 
    0.33399E+07         0.10866E+07         0.00000E+00
    0.10866E+07         0.11413E+08         0.00000E+00
    0.00000E+00         0.00000E+00         0.29507E+07
 
    0.33309E+07         0.11393E+07         0.00000E+00
    0.11393E+07         0.11426E+08         0.00000E+00
    0.00000E+00         0.00000E+00         0.29514E+07
 
    0.33210E+07         0.11929E+07         0.00000E+00
    0.11929E+07         0.11439E+08         0.00000E+00
    0.00000E+00         0.00000E+00         0.29520E+07
 
    0.33102E+07         0.12474E+07         0.00000E+00
    0.12474E+07         0.11452E+08         0.00000E+00
    0.00000E+00         0.00000E+00         0.29524E+07
 
    0.32988E+07         0.13028E+07         0.00000E+00
    0.13028E+07         0.11464E+08         0.00000E+00
    0.00000E+00         0.00000E+00         0.29526E+07
 
    0.32865E+07         0.13591E+07         0.00000E+00
    0.13591E+07         0.11477E+08         0.00000E+00
    0.00000E+00         0.00000E+00         0.29528E+07
 
    0.32736E+07         0.14163E+07         0.00000E+00
    0.14163E+07         0.11490E+08         0.00000E+00
    0.00000E+00         0.00000E+00         0.29527E+07
 
    0.32600E+07         0.14745E+07         0.00000E+00
    0.14745E+07         0.11503E+08         0.00000E+00
    0.00000E+00         0.00000E+00         0.29526E+07
 
    0.32457E+07         0.15335E+07         0.00000E+00
    0.15335E+07         0.11516E+08         0.00000E+00
    0.00000E+00         0.00000E+00         0.29522E+07
 
    0.32307E+07         0.15934E+07         0.00000E+00
    0.15934E+07         0.11528E+08         0.00000E+00
    0.00000E+00         0.00000E+00         0.29518E+07
 
    0.32151E+07         0.16543E+07         0.00000E+00
    0.16543E+07         0.11541E+08         0.00000E+00
    0.00000E+00         0.00000E+00         0.29512E+07
 
    0.31989E+07         0.17161E+07         0.00000E+00
    0.17161E+07         0.11553E+08         0.00000E+00
    0.00000E+00         0.00000E+00         0.29505E+07
 
    0.31821E+07         0.17788E+07         0.00000E+00
    0.17788E+07         0.11566E+08         0.00000E+00
    0.00000E+00         0.00000E+00         0.29496E+07
 
    0.31647E+07         0.18424E+07         0.00000E+00
    0.18424E+07         0.11578E+08         0.00000E+00
    0.00000E+00         0.00000E+00         0.29486E+07
 
    0.31467E+07         0.19070E+07         0.00000E+00
    0.19070E+07         0.11590E+08         0.00000E+00
    0.00000E+00         0.00000E+00         0.29474E+07
 
    0.31282E+07         0.19726E+07         0.00000E+00
    0.19726E+07         0.11603E+08         0.00000E+00
    0.00000E+00         0.00000E+00         0.29462E+07
 
    0.31091E+07         0.20391E+07         0.00000E+00
    0.20391E+07         0.11615E+08         0.00000E+00
    0.00000E+00         0.00000E+00         0.29447E+07
 
    0.30895E+07         0.21065E+07         0.00000E+00
    0.21065E+07         0.11626E+08         0.00000E+00
    0.00000E+00         0.00000E+00         0.29432E+07
 
    0.30694E+07         0.21750E+07         0.00000E+00
    0.21750E+07         0.11638E+08         0.00000E+00
    0.00000E+00         0.00000E+00         0.29415E+07
 
    0.30488E+07         0.22445E+07         0.00000E+00
    0.22445E+07         0.11650E+08         0.00000E+00
    0.00000E+00         0.00000E+00         0.29397E+07
 
    0.30277E+07         0.23151E+07         0.00000E+00
    0.23151E+07         0.11661E+08         0.00000E+00
    0.00000E+00         0.00000E+00         0.29378E+07
 
    0.30061E+07         0.23866E+07         0.00000E+00
    0.23866E+07         0.11672E+08         0.00000E+00
    0.00000E+00         0.00000E+00         0.29357E+07
 
    0.29841E+07         0.24593E+07         0.00000E+00
    0.24593E+07         0.11683E+08         0.00000E+00
    0.00000E+00         0.00000E+00         0.29335E+07
 
    0.29617E+07         0.25330E+07         0.00000E+00
    0.25330E+07         0.11694E+08         0.00000E+00
    0.00000E+00         0.00000E+00         0.29312E+07
 
    0.29390E+07         0.26079E+07         0.00000E+00
    0.26079E+07         0.11705E+08         0.00000E+00
    0.00000E+00         0.00000E+00         0.29287E+07
 
    0.28196E+07         0.20345E+05         0.00000E+00
    0.20345E+05         0.10676E+08         0.00000E+00
    0.00000E+00         0.00000E+00         0.26990E+07
 
    0.28469E+07         0.60884E+05         0.00000E+00
    0.60884E+05         0.10676E+08         0.00000E+00
    0.00000E+00         0.00000E+00         0.27046E+07
 
    0.28726E+07         0.10144E+06         0.00000E+00
    0.10144E+06         0.10677E+08         0.00000E+00
    0.00000E+00         0.00000E+00         0.27100E+07
 
    0.28966E+07         0.14207E+06         0.00000E+00
    0.14207E+06         0.10679E+08         0.00000E+00
    0.00000E+00         0.00000E+00         0.27152E+07
 
    0.29189E+07         0.18283E+06         0.00000E+00
    0.18283E+06         0.10682E+08         0.00000E+00
    0.00000E+00         0.00000E+00         0.27202E+07
 
    0.29397E+07         0.22378E+06         0.00000E+00
    0.22378E+06         0.10685E+08         0.00000E+00
    0.00000E+00         0.00000E+00         0.27250E+07
 
    0.29589E+07         0.26496E+06         0.00000E+00
    0.26496E+06         0.10689E+08         0.00000E+00
    0.00000E+00         0.00000E+00         0.27295E+07
 
    0.29765E+07         0.30644E+06         0.00000E+00
    0.30644E+06         0.10693E+08         0.00000E+00
    0.00000E+00         0.00000E+00         0.27339E+07
 
    0.29925E+07         0.34825E+06         0.00000E+00
    0.34825E+06         0.10698E+08         0.00000E+00
    0.00000E+00         0.00000E+00         0.27381E+07
 
    0.30071E+07         0.39045E+06         0.00000E+00
    0.39045E+06         0.10703E+08         0.00000E+00
    0.00000E+00         0.00000E+00         0.27421E+07
 
    0.30203E+07         0.43306E+06         0.00000E+00
    0.43306E+06         0.10709E+08         0.00000E+00
    0.00000E+00         0.00000E+00         0.27459E+07
 
    0.30320E+07         0.47614E+06         0.00000E+00
    0.47614E+06         0.10716E+08         0.00000E+00
    0.00000E+00         0.00000E+00         0.27495E+07
 
    0.30423E+07         0.51971E+06         0.00000E+00
    0.51971E+06         0.10723E+08         0.00000E+00
    0.00000E+00         0.00000E+00         0.27530E+07
 
    0.30513E+07         0.56382E+06         0.00000E+00
    0.56382E+06         0.10730E+08         0.00000E+00
    0.00000E+00         0.00000E+00         0.27562E+07
 
    0.30590E+07         0.60850E+06         0.00000E+00
    0.60850E+06         0.10738E+08         0.00000E+00
    0.00000E+00         0.00000E+00         0.27593E+07
 
    0.30654E+07         0.65377E+06         0.00000E+00
    0.65377E+06         0.10746E+08         0.00000E+00
    0.00000E+00         0.00000E+00         0.27622E+07
 
    0.30706E+07         0.69966E+06         0.00000E+00
    0.69966E+06         0.10754E+08         0.00000E+00
    0.00000E+00         0.00000E+00         0.27649E+07
 
    0.30746E+07         0.74619E+06         0.00000E+00
    0.74619E+06         0.10763E+08         0.00000E+00
    0.00000E+00         0.00000E+00         0.27675E+07
 
    0.30775E+07         0.79339E+06         0.00000E+00
    0.79339E+06         0.10772E+08         0.00000E+00
    0.00000E+00         0.00000E+00         0.27698E+07
 
    0.30793E+07         0.84129E+06         0.00000E+00
    0.84129E+06         0.10781E+08         0.00000E+00
    0.00000E+00         0.00000E+00         0.27721E+07
 
    0.30800E+07         0.88988E+06         0.00000E+00
    0.88988E+06         0.10791E+08         0.00000E+00
    0.00000E+00         0.00000E+00         0.27741E+07
 
    0.30797E+07         0.93920E+06         0.00000E+00
    0.93920E+06         0.10800E+08         0.00000E+00
    0.00000E+00         0.00000E+00         0.27760E+07
 
    0.30784E+07         0.98926E+06         0.00000E+00
    0.98926E+06         0.10810E+08         0.00000E+00
    0.00000E+00         0.00000E+00         0.27777E+07
 
    0.30762E+07         0.10401E+07         0.00000E+00
    0.10401E+07         0.10820E+08         0.00000E+00
    0.00000E+00         0.00000E+00         0.27793E+07
 
    0.30730E+07         0.10916E+07         0.00000E+00
    0.10916E+07         0.10831E+08         0.00000E+00
    0.00000E+00         0.00000E+00         0.27807E+07
 
    0.30690E+07         0.11440E+07         0.00000E+00
    0.11440E+07         0.10841E+08         0.00000E+00
    0.00000E+00         0.00000E+00         0.27820E+07
 
    0.30642E+07         0.11971E+07         0.00000E+00
    0.11971E+07         0.10851E+08         0.00000E+00
    0.00000E+00         0.00000E+00         0.27831E+07
 
    0.30585E+07         0.12510E+07         0.00000E+00
    0.12510E+07         0.10862E+08         0.00000E+00
    0.00000E+00         0.00000E+00         0.27841E+07
 
    0.30520E+07         0.13057E+07         0.00000E+00
    0.13057E+07         0.10872E+08         0.00000E+00
    0.00000E+00         0.00000E+00         0.27849E+07
 
    0.30448E+07         0.13612E+07         0.00000E+00
    0.13612E+07         0.10883E+08         0.00000E+00
    0.00000E+00         0.00000E+00         0.27856E+07
 
    0.30369E+07         0.14176E+07         0.00000E+00
    0.14176E+07         0.10894E+08         0.00000E+00
    0.00000E+00         0.00000E+00         0.27861E+07
 
    0.30283E+07         0.14747E+07         0.00000E+00
    0.14747E+07         0.10904E+08         0.00000E+00
    0.00000E+00         0.00000E+00         0.27865E+07
 
    0.30190E+07         0.15327E+07         0.00000E+00
    0.15327E+07         0.10915E+08         0.00000E+00
    0.00000E+00         0.00000E+00         0.27868E+07
 
    0.30091E+07         0.15915E+07         0.00000E+00
    0.15915E+07         0.10925E+08         0.00000E+00
    0.00000E+00         0.00000E+00         0.27869E+07
 
    0.29985E+07         0.16512E+07         0.00000E+00
    0.16512E+07         0.10936E+08         0.00000E+00
    0.00000E+00         0.00000E+00         0.27869E+07
 
    0.29874E+07         0.17117E+07         0.00000E+00
    0.17117E+07         0.10946E+08         0.00000E+00
    0.00000E+00         0.00000E+00         0.27868E+07
 
    0.29756E+07         0.17730E+07         0.00000E+00
    0.17730E+07         0.10957E+08         0.00000E+00
    0.00000E+00         0.00000E+00         0.27865E+07
 
    0.29633E+07         0.18353E+07         0.00000E+00
    0.18353E+07         0.10967E+08         0.00000E+00
    0.00000E+00         0.00000E+00         0.27861E+07
 
    0.29505E+07         0.18984E+07         0.00000E+00
    0.18984E+07         0.10977E+08         0.00000E+00
    0.00000E+00         0.00000E+00         0.27856E+07
 
    0.29371E+07         0.19624E+07         0.00000E+00
    0.19624E+07         0.10987E+08         0.00000E+00
    0.00000E+00         0.00000E+00         0.27849E+07
 
    0.29233E+07         0.20273E+07         0.00000E+00
    0.20273E+07         0.10997E+08         0.00000E+00
    0.00000E+00         0.00000E+00         0.27841E+07
 
    0.29089E+07         0.20931E+07         0.00000E+00
    0.20931E+07         0.11007E+08         0.00000E+00
    0.00000E+00         0.00000E+00         0.27832E+07
 
    0.28941E+07         0.21598E+07         0.00000E+00
    0.21598E+07         0.11017E+08         0.00000E+00
    0.00000E+00         0.00000E+00         0.27822E+07
 
    0.28789E+07         0.22275E+07         0.00000E+00
    0.22275E+07         0.11026E+08         0.00000E+00
    0.00000E+00         0.00000E+00         0.27810E+07
 
    0.28632E+07         0.22961E+07         0.00000E+00
    0.22961E+07         0.11035E+08         0.00000E+00
    0.00000E+00         0.00000E+00         0.27797E+07
 
    0.28472E+07         0.23657E+07         0.00000E+00
    0.23657E+07         0.11045E+08         0.00000E+00
    0.00000E+00         0.00000E+00         0.27783E+07
 
    0.28307E+07         0.24362E+07         0.00000E+00
    0.24362E+07         0.11053E+08         0.00000E+00
    0.00000E+00         0.00000E+00         0.27768E+07
 
    0.28140E+07         0.25078E+07         0.00000E+00
    0.25078E+07         0.11062E+08         0.00000E+00
    0.00000E+00         0.00000E+00         0.27752E+07
 
    0.27969E+07         0.25803E+07         0.00000E+00
    0.25803E+07         0.11070E+08         0.00000E+00
    0.00000E+00         0.00000E+00         0.27735E+07
 
    0.27794E+07         0.26539E+07         0.00000E+00
    0.26539E+07         0.11079E+08         0.00000E+00
    0.00000E+00         0.00000E+00         0.27716E+07
 
    0.25094E+07         0.21784E+05         0.00000E+00
    0.21784E+05         0.10155E+08         0.00000E+00
    0.00000E+00         0.00000E+00         0.25329E+07
 
    0.25366E+07         0.65178E+05         0.00000E+00
    0.65178E+05         0.10156E+08         0.00000E+00
    0.00000E+00         0.00000E+00         0.25385E+07
 
    0.25624E+07         0.10856E+06         0.00000E+00
    0.10856E+06         0.10157E+08         0.00000E+00
    0.00000E+00         0.00000E+00         0.25438E+07
 
    0.25868E+07         0.15197E+06         0.00000E+00
    0.15197E+06         0.10158E+08         0.00000E+00
    0.00000E+00         0.00000E+00         0.25490E+07
 
    0.26098E+07         0.19547E+06         0.00000E+00
    0.19547E+06         0.10160E+08         0.00000E+00
    0.00000E+00         0.00000E+00         0.25540E+07
 
    0.26314E+07         0.23909E+06         0.00000E+00
    0.23909E+06         0.10163E+08         0.00000E+00
    0.00000E+00         0.00000E+00         0.25588E+07
 
    0.26517E+07         0.28287E+06         0.00000E+00
    0.28287E+06         0.10166E+08         0.00000E+00
    0.00000E+00         0.00000E+00         0.25635E+07
 
    0.26706E+07         0.32686E+06         0.00000E+00
    0.32686E+06         0.10169E+08         0.00000E+00
    0.00000E+00         0.00000E+00         0.25679E+07
 
    0.26883E+07         0.37110E+06         0.00000E+00
    0.37110E+06         0.10173E+08         0.00000E+00
    0.00000E+00         0.00000E+00         0.25722E+07
 
    0.27046E+07         0.41562E+06         0.00000E+00
    0.41562E+06         0.10177E+08         0.00000E+00
    0.00000E+00         0.00000E+00         0.25764E+07
 
    0.27197E+07         0.46047E+06         0.00000E+00
    0.46047E+06         0.10182E+08         0.00000E+00
    0.00000E+00         0.00000E+00         0.25803E+07
 
    0.27335E+07         0.50567E+06         0.00000E+00
    0.50567E+06         0.10187E+08         0.00000E+00
    0.00000E+00         0.00000E+00         0.25841E+07
 
    0.27461E+07         0.55126E+06         0.00000E+00
    0.55126E+06         0.10192E+08         0.00000E+00
    0.00000E+00         0.00000E+00         0.25877E+07
 
    0.27576E+07         0.59726E+06         0.00000E+00
    0.59726E+06         0.10198E+08         0.00000E+00
    0.00000E+00         0.00000E+00         0.25911E+07
 
    0.27678E+07         0.64372E+06         0.00000E+00
    0.64372E+06         0.10204E+08         0.00000E+00
    0.00000E+00         0.00000E+00         0.25944E+07
 
    0.27770E+07         0.69065E+06         0.00000E+00
    0.69065E+06         0.10211E+08         0.00000E+00
    0.00000E+00         0.00000E+00         0.25976E+07
 
    0.27851E+07         0.73808E+06         0.00000E+00
    0.73808E+06         0.10217E+08         0.00000E+00
    0.00000E+00         0.00000E+00         0.26005E+07
 
    0.27921E+07         0.78604E+06         0.00000E+00
    0.78604E+06         0.10225E+08         0.00000E+00
    0.00000E+00         0.00000E+00         0.26033E+07
 
    0.27980E+07         0.83454E+06         0.00000E+00
    0.83454E+06         0.10232E+08         0.00000E+00
    0.00000E+00         0.00000E+00         0.26060E+07
 
    0.28030E+07         0.88361E+06         0.00000E+00
    0.88361E+06         0.10239E+08         0.00000E+00
    0.00000E+00         0.00000E+00         0.26084E+07
 
    0.28070E+07         0.93327E+06         0.00000E+00
    0.93327E+06         0.10247E+08         0.00000E+00
    0.00000E+00         0.00000E+00         0.26108E+07
 
    0.28100E+07         0.98353E+06         0.00000E+00
    0.98353E+06         0.10255E+08         0.00000E+00
    0.00000E+00         0.00000E+00         0.26130E+07
 
    0.28122E+07         0.10344E+07         0.00000E+00
    0.10344E+07         0.10263E+08         0.00000E+00
    0.00000E+00         0.00000E+00         0.26150E+07
 
    0.28134E+07         0.10859E+07         0.00000E+00
    0.10859E+07         0.10271E+08         0.00000E+00
    0.00000E+00         0.00000E+00         0.26169E+07
 
    0.28139E+07         0.11381E+07         0.00000E+00
    0.11381E+07         0.10279E+08         0.00000E+00
    0.00000E+00         0.00000E+00         0.26187E+07
 
    0.28135E+07         0.11910E+07         0.00000E+00
    0.11910E+07         0.10288E+08         0.00000E+00
    0.00000E+00         0.00000E+00         0.26203E+07
 
    0.28123E+07         0.12445E+07         0.00000E+00
    0.12445E+07         0.10296E+08         0.00000E+00
    0.00000E+00         0.00000E+00         0.26217E+07
 
    0.28103E+07         0.12987E+07         0.00000E+00
    0.12987E+07         0.10305E+08         0.00000E+00
    0.00000E+00         0.00000E+00         0.26230E+07
 
    0.28077E+07         0.13536E+07         0.00000E+00
    0.13536E+07         0.10313E+08         0.00000E+00
    0.00000E+00         0.00000E+00         0.26242E+07
 
    0.28043E+07         0.14093E+07         0.00000E+00
    0.14093E+07         0.10322E+08         0.00000E+00
    0.00000E+00         0.00000E+00         0.26253E+07
 
    0.28002E+07         0.14656E+07         0.00000E+00
    0.14656E+07         0.10331E+08         0.00000E+00
    0.00000E+00         0.00000E+00         0.26262E+07
 
    0.27955E+07         0.15227E+07         0.00000E+00
    0.15227E+07         0.10339E+08         0.00000E+00
    0.00000E+00         0.00000E+00         0.26270E+07
 
    0.27902E+07         0.15806E+07         0.00000E+00
    0.15806E+07         0.10348E+08         0.00000E+00
    0.00000E+00         0.00000E+00         0.26276E+07
 
    0.27843E+07         0.16392E+07         0.00000E+00
    0.16392E+07         0.10357E+08         0.00000E+00
    0.00000E+00         0.00000E+00         0.26282E+07
 
    0.27778E+07         0.16985E+07         0.00000E+00
    0.16985E+07         0.10365E+08         0.00000E+00
    0.00000E+00         0.00000E+00         0.26286E+07
 
    0.27707E+07         0.17587E+07         0.00000E+00
    0.17587E+07         0.10374E+08         0.00000E+00
    0.00000E+00         0.00000E+00         0.26289E+07
 
    0.27631E+07         0.18196E+07         0.00000E+00
    0.18196E+07         0.10382E+08         0.00000E+00
    0.00000E+00         0.00000E+00         0.26290E+07
 
    0.27550E+07         0.18813E+07         0.00000E+00
    0.18813E+07         0.10390E+08         0.00000E+00
    0.00000E+00         0.00000E+00         0.26290E+07
 
    0.27464E+07         0.19438E+07         0.00000E+00
    0.19438E+07         0.10398E+08         0.00000E+00
    0.00000E+00         0.00000E+00         0.26290E+07
 
    0.27373E+07         0.20072E+07         0.00000E+00
    0.20072E+07         0.10406E+08         0.00000E+00
    0.00000E+00         0.00000E+00         0.26288E+07
 
    0.27278E+07         0.20714E+07         0.00000E+00
    0.20714E+07         0.10414E+08         0.00000E+00
    0.00000E+00         0.00000E+00         0.26284E+07
 
    0.27179E+07         0.21364E+07         0.00000E+00
    0.21364E+07         0.10422E+08         0.00000E+00
    0.00000E+00         0.00000E+00         0.26280E+07
 
    0.27076E+07         0.22023E+07         0.00000E+00
    0.22023E+07         0.10430E+08         0.00000E+00
    0.00000E+00         0.00000E+00         0.26274E+07
 
    0.26969E+07         0.22690E+07         0.00000E+00
    0.22690E+07         0.10437E+08         0.00000E+00
    0.00000E+00         0.00000E+00         0.26268E+07
 
    0.26858E+07         0.23366E+07         0.00000E+00
    0.23366E+07         0.10444E+08         0.00000E+00
    0.00000E+00         0.00000E+00         0.26260E+07
 
    0.26744E+07         0.24051E+07         0.00000E+00
    0.24051E+07         0.10451E+08         0.00000E+00
    0.00000E+00         0.00000E+00         0.26251E+07
 
    0.26628E+07         0.24746E+07         0.00000E+00
    0.24746E+07         0.10458E+08         0.00000E+00
    0.00000E+00         0.00000E+00         0.26241E+07
 
    0.26508E+07         0.25449E+07         0.00000E+00
    0.25449E+07         0.10464E+08         0.00000E+00
    0.00000E+00         0.00000E+00         0.26230E+07
 
    0.26386E+07         0.26162E+07         0.00000E+00
    0.26162E+07         0.10471E+08         0.00000E+00
    0.00000E+00         0.00000E+00         0.26218E+07
 
    0.26261E+07         0.26884E+07         0.00000E+00
    0.26884E+07         0.10477E+08         0.00000E+00
    0.00000E+00         0.00000E+00         0.26205E+07
 
    0.22253E+07         0.22896E+05         0.00000E+00
    0.22896E+05         0.96482E+07         0.00000E+00
    0.00000E+00         0.00000E+00         0.23747E+07
 
    0.22522E+07         0.68516E+05         0.00000E+00
    0.68516E+05         0.96486E+07         0.00000E+00
    0.00000E+00         0.00000E+00         0.23802E+07
 
    0.22780E+07         0.11411E+06         0.00000E+00
    0.11411E+06         0.96494E+07         0.00000E+00
    0.00000E+00         0.00000E+00         0.23855E+07
 
    0.23026E+07         0.15971E+06         0.00000E+00
    0.15971E+06         0.96506E+07         0.00000E+00
    0.00000E+00         0.00000E+00         0.23906E+07
 
    0.23260E+07         0.20536E+06         0.00000E+00
    0.20536E+06         0.96521E+07         0.00000E+00
    0.00000E+00         0.00000E+00         0.23956E+07
 
    0.23483E+07         0.25110E+06         0.00000E+00
    0.25110E+06         0.96541E+07         0.00000E+00
    0.00000E+00         0.00000E+00         0.24005E+07
 
    0.23694E+07         0.29695E+06         0.00000E+00
    0.29695E+06         0.96564E+07         0.00000E+00
    0.00000E+00         0.00000E+00         0.24051E+07
 
    0.23893E+07         0.34295E+06         0.00000E+00
    0.34295E+06         0.96591E+07         0.00000E+00
    0.00000E+00         0.00000E+00         0.24097E+07
 
    0.24081E+07         0.38913E+06         0.00000E+00
    0.38913E+06         0.96621E+07         0.00000E+00
    0.00000E+00         0.00000E+00         0.24140E+07
 
    0.24258E+07         0.43553E+06         0.00000E+00
    0.43553E+06         0.96654E+07         0.00000E+00
    0.00000E+00         0.00000E+00         0.24182E+07
 
    0.24423E+07         0.48218E+06         0.00000E+00
    0.48218E+06         0.96691E+07         0.00000E+00
    0.00000E+00         0.00000E+00         0.24223E+07
 
    0.24578E+07         0.52910E+06         0.00000E+00
    0.52910E+06         0.96732E+07         0.00000E+00
    0.00000E+00         0.00000E+00         0.24262E+07
 
    0.24722E+07         0.57633E+06         0.00000E+00
    0.57633E+06         0.96775E+07         0.00000E+00
    0.00000E+00         0.00000E+00         0.24299E+07
 
    0.24856E+07         0.62389E+06         0.00000E+00
    0.62389E+06         0.96821E+07         0.00000E+00
    0.00000E+00         0.00000E+00         0.24335E+07
 
    0.24979E+07         0.67181E+06         0.00000E+00
    0.67181E+06         0.96869E+07         0.00000E+00
    0.00000E+00         0.00000E+00         0.24370E+07
 
    0.25093E+07         0.72011E+06         0.00000E+00
    0.72011E+06         0.96921E+07         0.00000E+00
    0.00000E+00         0.00000E+00         0.24403E+07
 
    0.25197E+07         0.76882E+06         0.00000E+00
    0.76882E+06         0.96974E+07         0.00000E+00
    0.00000E+00         0.00000E+00         0.24434E+07
 
    0.25291E+07         0.81795E+06         0.00000E+00
    0.81795E+06         0.97030E+07         0.00000E+00
    0.00000E+00         0.00000E+00         0.24464E+07
 
    0.25376E+07         0.86754E+06         0.00000E+00
    0.86754E+06         0.97088E+07         0.00000E+00
    0.00000E+00         0.00000E+00         0.24493E+07
 
    0.25452E+07         0.91760E+06         0.00000E+00
    0.91760E+06         0.97148E+07         0.00000E+00
    0.00000E+00         0.00000E+00         0.24520E+07
 
    0.25519E+07         0.96815E+06         0.00000E+00
    0.96815E+06         0.97209E+07         0.00000E+00
    0.00000E+00         0.00000E+00         0.24546E+07
 
    0.25578E+07         0.10192E+07         0.00000E+00
    0.10192E+07         0.97272E+07         0.00000E+00
    0.00000E+00         0.00000E+00         0.24570E+07
 
    0.25629E+07         0.10708E+07         0.00000E+00
    0.10708E+07         0.97336E+07         0.00000E+00
    0.00000E+00         0.00000E+00         0.24593E+07
 
    0.25671E+07         0.11229E+07         0.00000E+00
    0.11229E+07         0.97402E+07         0.00000E+00
    0.00000E+00         0.00000E+00         0.24615E+07
 
    0.25706E+07         0.11756E+07         0.00000E+00
    0.11756E+07         0.97468E+07         0.00000E+00
    0.00000E+00         0.00000E+00         0.24635E+07
 
    0.25734E+07         0.12289E+07         0.00000E+00
    0.12289E+07         0.97536E+07         0.00000E+00
    0.00000E+00         0.00000E+00         0.24654E+07
 
    0.25754E+07         0.12827E+07         0.00000E+00
    0.12827E+07         0.97604E+07         0.00000E+00
    0.00000E+00         0.00000E+00         0.24672E+07
 
    0.25767E+07         0.13372E+07         0.00000E+00
    0.13372E+07         0.97672E+07         0.00000E+00
    0.00000E+00         0.00000E+00         0.24688E+07
 
    0.25774E+07         0.13923E+07         0.00000E+00
    0.13923E+07         0.97741E+07         0.00000E+00
    0.00000E+00         0.00000E+00         0.24703E+07
 
    0.25774E+07         0.14480E+07         0.00000E+00
    0.14480E+07         0.97810E+07         0.00000E+00
    0.00000E+00         0.00000E+00         0.24717E+07
 
    0.25768E+07         0.15043E+07         0.00000E+00
    0.15043E+07         0.97878E+07         0.00000E+00
    0.00000E+00         0.00000E+00         0.24729E+07
 
    0.25756E+07         0.15613E+07         0.00000E+00
    0.15613E+07         0.97947E+07         0.00000E+00
    0.00000E+00         0.00000E+00         0.24741E+07
 
    0.25738E+07         0.16190E+07         0.00000E+00
    0.16190E+07         0.98015E+07         0.00000E+00
    0.00000E+00         0.00000E+00         0.24751E+07
 
    0.25715E+07         0.16773E+07         0.00000E+00
    0.16773E+07         0.98083E+07         0.00000E+00
    0.00000E+00         0.00000E+00         0.24760E+07
 
    0.25686E+07         0.17363E+07         0.00000E+00
    0.17363E+07         0.98150E+07         0.00000E+00
    0.00000E+00         0.00000E+00         0.24767E+07
 
    0.25653E+07         0.17961E+07         0.00000E+00
    0.17961E+07         0.98217E+07         0.00000E+00
    0.00000E+00         0.00000E+00         0.24774E+07
 
    0.25614E+07         0.18565E+07         0.00000E+00
    0.18565E+07         0.98282E+07         0.00000E+00
    0.00000E+00         0.00000E+00         0.24779E+07
 
    0.25571E+07         0.19177E+07         0.00000E+00
    0.19177E+07         0.98346E+07         0.00000E+00
    0.00000E+00         0.00000E+00         0.24784E+07
 
    0.25524E+07         0.19796E+07         0.00000E+00
    0.19796E+07         0.98409E+07         0.00000E+00
    0.00000E+00         0.00000E+00         0.24787E+07
 
    0.25473E+07         0.20422E+07         0.00000E+00
    0.20422E+07         0.98471E+07         0.00000E+00
    0.00000E+00         0.00000E+00         0.24789E+07
 
    0.25418E+07         0.21056E+07         0.00000E+00
    0.21056E+07         0.98531E+07         0.00000E+00
    0.00000E+00         0.00000E+00         0.24790E+07
 
    0.25359E+07         0.21698E+07         0.00000E+00
    0.21698E+07         0.98589E+07         0.00000E+00
    0.00000E+00         0.00000E+00         0.24790E+07
 
    0.25297E+07         0.22347E+07         0.00000E+00
    0.22347E+07         0.98646E+07         0.00000E+00
    0.00000E+00         0.00000E+00         0.24789E+07
 
    0.25232E+07         0.23004E+07         0.00000E+00
    0.23004E+07         0.98700E+07         0.00000E+00
    0.00000E+00         0.00000E+00         0.24786E+07
 
    0.25164E+07         0.23670E+07         0.00000E+00
    0.23670E+07         0.98752E+07         0.00000E+00
    0.00000E+00         0.00000E+00         0.24783E+07
 
    0.25093E+07         0.24343E+07         0.00000E+00
    0.24343E+07         0.98802E+07         0.00000E+00
    0.00000E+00         0.00000E+00         0.24779E+07
 
    0.25020E+07         0.25025E+07         0.00000E+00
    0.25025E+07         0.98850E+07         0.00000E+00
    0.00000E+00         0.00000E+00         0.24774E+07
 
    0.24945E+07         0.25715E+07         0.00000E+00
    0.25715E+07         0.98895E+07         0.00000E+00
    0.00000E+00         0.00000E+00         0.24768E+07
 
    0.24867E+07         0.26414E+07         0.00000E+00
    0.26414E+07         0.98937E+07         0.00000E+00
    0.00000E+00         0.00000E+00         0.24761E+07
 
    0.24789E+07         0.27121E+07         0.00000E+00
    0.27121E+07         0.98976E+07         0.00000E+00
    0.00000E+00         0.00000E+00         0.24753E+07
 
    0.19647E+07         0.23759E+05         0.00000E+00
    0.23759E+05         0.91549E+07         0.00000E+00
    0.00000E+00         0.00000E+00         0.22239E+07
 
    0.19914E+07         0.71113E+05         0.00000E+00
    0.71113E+05         0.91552E+07         0.00000E+00
    0.00000E+00         0.00000E+00         0.22293E+07
 
    0.20171E+07         0.11843E+06         0.00000E+00
    0.11843E+06         0.91558E+07         0.00000E+00
    0.00000E+00         0.00000E+00         0.22346E+07
 
    0.20418E+07         0.16575E+06         0.00000E+00
    0.16575E+06         0.91568E+07         0.00000E+00
    0.00000E+00         0.00000E+00         0.22397E+07
 
    0.20655E+07         0.21310E+06         0.00000E+00
    0.21310E+06         0.91580E+07         0.00000E+00
    0.00000E+00         0.00000E+00         0.22447E+07
 
    0.20882E+07         0.26049E+06         0.00000E+00
    0.26049E+06         0.91595E+07         0.00000E+00
    0.00000E+00         0.00000E+00         0.22495E+07
 
    0.21098E+07         0.30797E+06         0.00000E+00
    0.30797E+06         0.91613E+07         0.00000E+00
    0.00000E+00         0.00000E+00         0.22542E+07
 
    0.21305E+07         0.35556E+06         0.00000E+00
    0.35556E+06         0.91634E+07         0.00000E+00
    0.00000E+00         0.00000E+00         0.22588E+07
 
    0.21501E+07         0.40329E+06         0.00000E+00
    0.40329E+06         0.91657E+07         0.00000E+00
    0.00000E+00         0.00000E+00         0.22632E+07
 
    0.21688E+07         0.45118E+06         0.00000E+00
    0.45118E+06         0.91684E+07         0.00000E+00
    0.00000E+00         0.00000E+00         0.22674E+07
 
    0.21866E+07         0.49927E+06         0.00000E+00
    0.49927E+06         0.91713E+07         0.00000E+00
    0.00000E+00         0.00000E+00         0.22716E+07
 
    0.22033E+07         0.54757E+06         0.00000E+00
    0.54757E+06         0.91744E+07         0.00000E+00
    0.00000E+00         0.00000E+00         0.22756E+07
 
    0.22192E+07         0.59611E+06         0.00000E+00
    0.59611E+06         0.91778E+07         0.00000E+00
    0.00000E+00         0.00000E+00         0.22794E+07
 
    0.22341E+07         0.64491E+06         0.00000E+00
    0.64491E+06         0.91814E+07         0.00000E+00
    0.00000E+00         0.00000E+00         0.22831E+07
 
    0.22481E+07         0.69400E+06         0.00000E+00
    0.69400E+06         0.91852E+07         0.00000E+00
    0.00000E+00         0.00000E+00         0.22867E+07
 
    0.22613E+07         0.74340E+06         0.00000E+00
    0.74340E+06         0.91893E+07         0.00000E+00
    0.00000E+00         0.00000E+00         0.22901E+07
 
    0.22735E+07         0.79314E+06         0.00000E+00
    0.79314E+06         0.91935E+07         0.00000E+00
    0.00000E+00         0.00000E+00         0.22934E+07
 
    0.22850E+07         0.84322E+06         0.00000E+00
    0.84322E+06         0.91979E+07         0.00000E+00
    0.00000E+00         0.00000E+00         0.22966E+07
 
    0.22956E+07         0.89368E+06         0.00000E+00
    0.89368E+06         0.92024E+07         0.00000E+00
    0.00000E+00         0.00000E+00         0.22996E+07
 
    0.23054E+07         0.94454E+06         0.00000E+00
    0.94454E+06         0.92071E+07         0.00000E+00
    0.00000E+00         0.00000E+00         0.23025E+07
 
    0.23144E+07         0.99580E+06         0.00000E+00
    0.99580E+06         0.92119E+07         0.00000E+00
    0.00000E+00         0.00000E+00         0.23053E+07
 
    0.23227E+07         0.10475E+07         0.00000E+00
    0.10475E+07         0.92169E+07         0.00000E+00
    0.00000E+00         0.00000E+00         0.23079E+07
 
    0.23302E+07         0.10996E+07         0.00000E+00
    0.10996E+07         0.92219E+07         0.00000E+00
    0.00000E+00         0.00000E+00         0.23104E+07
 
    0.23370E+07         0.11522E+07         0.00000E+00
    0.11522E+07         0.92271E+07         0.00000E+00
    0.00000E+00         0.00000E+00         0.23128E+07
 
    0.23431E+07         0.12053E+07         0.00000E+00
    0.12053E+07         0.92323E+07         0.00000E+00
    0.00000E+00         0.00000E+00         0.23151E+07
 
    0.23486E+07         0.12589E+07         0.00000E+00
    0.12589E+07         0.92375E+07         0.00000E+00
    0.00000E+00         0.00000E+00         0.23172E+07
 
    0.23534E+07         0.13129E+07         0.00000E+00
    0.13129E+07         0.92428E+07         0.00000E+00
    0.00000E+00         0.00000E+00         0.23192E+07
 
    0.23575E+07         0.13676E+07         0.00000E+00
    0.13676E+07         0.92482E+07         0.00000E+00
    0.00000E+00         0.00000E+00         0.23211E+07
 
    0.23611E+07         0.14227E+07         0.00000E+00
    0.14227E+07         0.92535E+07         0.00000E+00
    0.00000E+00         0.00000E+00         0.23229E+07
 
    0.23641E+07         0.14784E+07         0.00000E+00
    0.14784E+07         0.92588E+07         0.00000E+00
    0.00000E+00         0.00000E+00         0.23246E+07
 
    0.23665E+07         0.15346E+07         0.00000E+00
    0.15346E+07         0.92641E+07         0.00000E+00
    0.00000E+00         0.00000E+00         0.23261E+07
 
    0.23684E+07         0.15915E+07         0.00000E+00
    0.15915E+07         0.92694E+07         0.00000E+00
    0.00000E+00         0.00000E+00         0.23276E+07
 
    0.23698E+07         0.16489E+07         0.00000E+00
    0.16489E+07         0.92746E+07         0.00000E+00
    0.00000E+00         0.00000E+00         0.23289E+07
 
    0.23707E+07         0.17069E+07         0.00000E+00
    0.17069E+07         0.92798E+07         0.00000E+00
    0.00000E+00         0.00000E+00         0.23301E+07
 
    0.23711E+07         0.17655E+07         0.00000E+00
    0.17655E+07         0.92849E+07         0.00000E+00
    0.00000E+00         0.00000E+00         0.23312E+07
 
    0.23711E+07         0.18248E+07         0.00000E+00
    0.18248E+07         0.92899E+07         0.00000E+00
    0.00000E+00         0.00000E+00         0.23322E+07
 
    0.23707E+07         0.18846E+07         0.00000E+00
    0.18846E+07         0.92948E+07         0.00000E+00
    0.00000E+00         0.00000E+00         0.23331E+07
 
    0.23698E+07         0.19452E+07         0.00000E+00
    0.19452E+07         0.92995E+07         0.00000E+00
    0.00000E+00         0.00000E+00         0.23339E+07
 
    0.23686E+07         0.20064E+07         0.00000E+00
    0.20064E+07         0.93041E+07         0.00000E+00
    0.00000E+00         0.00000E+00         0.23346E+07
 
    0.23671E+07         0.20682E+07         0.00000E+00
    0.20682E+07         0.93086E+07         0.00000E+00
    0.00000E+00         0.00000E+00         0.23351E+07
 
    0.23652E+07         0.21308E+07         0.00000E+00
    0.21308E+07         0.93129E+07         0.00000E+00
    0.00000E+00         0.00000E+00         0.23356E+07
 
    0.23630E+07         0.21940E+07         0.00000E+00
    0.21940E+07         0.93170E+07         0.00000E+00
    0.00000E+00         0.00000E+00         0.23360E+07
 
    0.23605E+07         0.22579E+07         0.00000E+00
    0.22579E+07         0.93209E+07         0.00000E+00
    0.00000E+00         0.00000E+00         0.23363E+07
 
    0.23578E+07         0.23226E+07         0.00000E+00
    0.23226E+07         0.93246E+07         0.00000E+00
    0.00000E+00         0.00000E+00         0.23365E+07
 
    0.23549E+07         0.23880E+07         0.00000E+00
    0.23880E+07         0.93280E+07         0.00000E+00
    0.00000E+00         0.00000E+00         0.23366E+07
 
    0.23517E+07         0.24541E+07         0.00000E+00
    0.24541E+07         0.93312E+07         0.00000E+00
    0.00000E+00         0.00000E+00         0.23366E+07
 
    0.23483E+07         0.25210E+07         0.00000E+00
    0.25210E+07         0.93342E+07         0.00000E+00
    0.00000E+00         0.00000E+00         0.23365E+07
 
    0.23448E+07         0.25886E+07         0.00000E+00
    0.25886E+07         0.93368E+07         0.00000E+00
    0.00000E+00         0.00000E+00         0.23363E+07
 
    0.23412E+07         0.26570E+07         0.00000E+00
    0.26570E+07         0.93392E+07         0.00000E+00
    0.00000E+00         0.00000E+00         0.23361E+07
 
    0.23374E+07         0.27262E+07         0.00000E+00
    0.27262E+07         0.93412E+07         0.00000E+00
    0.00000E+00         0.00000E+00         0.23357E+07
 
    0.17257E+07         0.24430E+05         0.00000E+00
    0.24430E+05         0.86756E+07         0.00000E+00
    0.00000E+00         0.00000E+00         0.20802E+07
 
    0.17522E+07         0.73134E+05         0.00000E+00
    0.73134E+05         0.86758E+07         0.00000E+00
    0.00000E+00         0.00000E+00         0.20856E+07
 
    0.17778E+07         0.12180E+06         0.00000E+00
    0.12180E+06         0.86763E+07         0.00000E+00
    0.00000E+00         0.00000E+00         0.20908E+07
 
    0.18025E+07         0.17045E+06         0.00000E+00
    0.17045E+06         0.86770E+07         0.00000E+00
    0.00000E+00         0.00000E+00         0.20959E+07
 
    0.18263E+07         0.21912E+06         0.00000E+00
    0.21912E+06         0.86779E+07         0.00000E+00
    0.00000E+00         0.00000E+00         0.21009E+07
 
    0.18493E+07         0.26781E+06         0.00000E+00
    0.26781E+06         0.86791E+07         0.00000E+00
    0.00000E+00         0.00000E+00         0.21057E+07
 
    0.18713E+07         0.31656E+06         0.00000E+00
    0.31656E+06         0.86805E+07         0.00000E+00
    0.00000E+00         0.00000E+00         0.21104E+07
 
    0.18925E+07         0.36540E+06         0.00000E+00
    0.36540E+06         0.86821E+07         0.00000E+00
    0.00000E+00         0.00000E+00         0.21149E+07
 
    0.19129E+07         0.41433E+06         0.00000E+00
    0.41433E+06         0.86839E+07         0.00000E+00
    0.00000E+00         0.00000E+00         0.21194E+07
 
    0.19323E+07         0.46339E+06         0.00000E+00
    0.46339E+06         0.86860E+07         0.00000E+00
    0.00000E+00         0.00000E+00         0.21237E+07
 
    0.19510E+07         0.51259E+06         0.00000E+00
    0.51259E+06         0.86882E+07         0.00000E+00
    0.00000E+00         0.00000E+00         0.21278E+07
 
    0.19687E+07         0.56197E+06         0.00000E+00
    0.56197E+06         0.86907E+07         0.00000E+00
    0.00000E+00         0.00000E+00         0.21319E+07
 
    0.19857E+07         0.61153E+06         0.00000E+00
    0.61153E+06         0.86933E+07         0.00000E+00
    0.00000E+00         0.00000E+00         0.21358E+07
 
    0.20019E+07         0.66131E+06         0.00000E+00
    0.66131E+06         0.86961E+07         0.00000E+00
    0.00000E+00         0.00000E+00         0.21396E+07
 
    0.20172E+07         0.71131E+06         0.00000E+00
    0.71131E+06         0.86990E+07         0.00000E+00
    0.00000E+00         0.00000E+00         0.21433E+07
 
    0.20318E+07         0.76157E+06         0.00000E+00
    0.76157E+06         0.87022E+07         0.00000E+00
    0.00000E+00         0.00000E+00         0.21468E+07
 
    0.20457E+07         0.81210E+06         0.00000E+00
    0.81210E+06         0.87054E+07         0.00000E+00
    0.00000E+00         0.00000E+00         0.21502E+07
 
    0.20588E+07         0.86291E+06         0.00000E+00
    0.86291E+06         0.87088E+07         0.00000E+00
    0.00000E+00         0.00000E+00         0.21535E+07
 
    0.20711E+07         0.91404E+06         0.00000E+00
    0.91404E+06         0.87123E+07         0.00000E+00
    0.00000E+00         0.00000E+00         0.21567E+07
 
    0.20827E+07         0.96549E+06         0.00000E+00
    0.96549E+06         0.87159E+07         0.00000E+00
    0.00000E+00         0.00000E+00         0.21597E+07
 
    0.20937E+07         0.10173E+07         0.00000E+00
    0.10173E+07         0.87196E+07         0.00000E+00
    0.00000E+00         0.00000E+00         0.21627E+07
 
    0.21040E+07         0.10694E+07         0.00000E+00
    0.10694E+07         0.87234E+07         0.00000E+00
    0.00000E+00         0.00000E+00         0.21655E+07
 
    0.21136E+07         0.11220E+07         0.00000E+00
    0.11220E+07         0.87273E+07         0.00000E+00
    0.00000E+00         0.00000E+00         0.21682E+07
 
    0.21226E+07         0.11749E+07         0.00000E+00
    0.11749E+07         0.87312E+07         0.00000E+00
    0.00000E+00         0.00000E+00         0.21708E+07
 
    0.21309E+07         0.12282E+07         0.00000E+00
    0.12282E+07         0.87352E+07         0.00000E+00
    0.00000E+00         0.00000E+00         0.21732E+07
 
    0.21387E+07         0.12820E+07         0.00000E+00
    0.12820E+07         0.87391E+07         0.00000E+00
    0.00000E+00         0.00000E+00         0.21756E+07
 
    0.21459E+07         0.13361E+07         0.00000E+00
    0.13361E+07         0.87432E+07         0.00000E+00
    0.00000E+00         0.00000E+00         0.21778E+07
 
    0.21525E+07         0.13908E+07         0.00000E+00
    0.13908E+07         0.87472E+07         0.00000E+00
    0.00000E+00         0.00000E+00         0.21799E+07
 
    0.21586E+07         0.14459E+07         0.00000E+00
    0.14459E+07         0.87512E+07         0.00000E+00
    0.00000E+00         0.00000E+00         0.21820E+07
 
    0.21642E+07         0.15014E+07         0.00000E+00
    0.15014E+07         0.87551E+07         0.00000E+00
    0.00000E+00         0.00000E+00         0.21839E+07
 
    0.21693E+07         0.15575E+07         0.00000E+00
    0.15575E+07         0.87590E+07         0.00000E+00
    0.00000E+00         0.00000E+00         0.21857E+07
 
    0.21739E+07         0.16141E+07         0.00000E+00
    0.16141E+07         0.87629E+07         0.00000E+00
    0.00000E+00         0.00000E+00         0.21874E+07
 
    0.21781E+07         0.16712E+07         0.00000E+00
    0.16712E+07         0.87667E+07         0.00000E+00
    0.00000E+00         0.00000E+00         0.21890E+07
 
    0.21818E+07         0.17288E+07         0.00000E+00
    0.17288E+07         0.87705E+07         0.00000E+00
    0.00000E+00         0.00000E+00         0.21905E+07
 
    0.21852E+07         0.17869E+07         0.00000E+00
    0.17869E+07         0.87741E+07         0.00000E+00
    0.00000E+00         0.00000E+00         0.21919E+07
 
    0.21881E+07         0.18456E+07         0.00000E+00
    0.18456E+07         0.87776E+07         0.00000E+00
    0.00000E+00         0.00000E+00         0.21931E+07
 
    0.21907E+07         0.19049E+07         0.00000E+00
    0.19049E+07         0.87810E+07         0.00000E+00
    0.00000E+00         0.00000E+00         0.21943E+07
 
    0.21930E+07         0.19647E+07         0.00000E+00
    0.19647E+07         0.87842E+07         0.00000E+00
    0.00000E+00         0.00000E+00         0.21954E+07
 
    0.21949E+07         0.20251E+07         0.00000E+00
    0.20251E+07         0.87873E+07         0.00000E+00
    0.00000E+00         0.00000E+00         0.21964E+07
 
    0.21965E+07         0.20861E+07         0.00000E+00
    0.20861E+07         0.87903E+07         0.00000E+00
    0.00000E+00         0.00000E+00         0.21974E+07
 
    0.21979E+07         0.21478E+07         0.00000E+00
    0.21478E+07         0.87930E+07         0.00000E+00
    0.00000E+00         0.00000E+00         0.21982E+07
 
    0.21990E+07         0.22100E+07         0.00000E+00
    0.22100E+07         0.87955E+07         0.00000E+00
    0.00000E+00         0.00000E+00         0.21989E+07
 
    0.21999E+07         0.22729E+07         0.00000E+00
    0.22729E+07         0.87979E+07         0.00000E+00
    0.00000E+00         0.00000E+00         0.21995E+07
 
    0.22006E+07         0.23364E+07         0.00000E+00
    0.23364E+07         0.88000E+07         0.00000E+00
    0.00000E+00         0.00000E+00         0.22001E+07
 
    0.22011E+07         0.24005E+07         0.00000E+00
    0.24005E+07         0.88018E+07         0.00000E+00
    0.00000E+00         0.00000E+00         0.22006E+07
 
    0.22014E+07         0.24653E+07         0.00000E+00
    0.24653E+07         0.88034E+07         0.00000E+00
    0.00000E+00         0.00000E+00         0.22010E+07
 
    0.22016E+07         0.25308E+07         0.00000E+00
    0.25308E+07         0.88047E+07         0.00000E+00
    0.00000E+00         0.00000E+00         0.22013E+07
 
    0.22017E+07         0.25969E+07         0.00000E+00
    0.25969E+07         0.88057E+07         0.00000E+00
    0.00000E+00         0.00000E+00         0.22015E+07
 
    0.22018E+07         0.26638E+07         0.00000E+00
    0.26638E+07         0.88065E+07         0.00000E+00
    0.00000E+00         0.00000E+00         0.22016E+07
 
    0.22018E+07         0.27313E+07         0.00000E+00
    0.27313E+07         0.88069E+07         0.00000E+00
    0.00000E+00         0.00000E+00         0.22017E+07
 
    0.15067E+07         0.24952E+05         0.00000E+00
    0.24952E+05         0.82103E+07         0.00000E+00
    0.00000E+00         0.00000E+00         0.19434E+07
 
    0.15330E+07         0.74700E+05         0.00000E+00
    0.74700E+05         0.82104E+07         0.00000E+00
    0.00000E+00         0.00000E+00         0.19487E+07
 
    0.15585E+07         0.12441E+06         0.00000E+00
    0.12441E+06         0.82108E+07         0.00000E+00
    0.00000E+00         0.00000E+00         0.19539E+07
 
    0.15831E+07         0.17409E+06         0.00000E+00
    0.17409E+06         0.82114E+07         0.00000E+00
    0.00000E+00         0.00000E+00         0.19589E+07
 
    0.16070E+07         0.22377E+06         0.00000E+00
    0.22377E+06         0.82121E+07         0.00000E+00
    0.00000E+00         0.00000E+00         0.19638E+07
 
    0.16302E+07         0.27346E+06         0.00000E+00
    0.27346E+06         0.82130E+07         0.00000E+00
    0.00000E+00         0.00000E+00         0.19686E+07
 
    0.16525E+07         0.32319E+06         0.00000E+00
    0.32319E+06         0.82141E+07         0.00000E+00
    0.00000E+00         0.00000E+00         0.19733E+07
 
    0.16741E+07         0.37298E+06         0.00000E+00
    0.37298E+06         0.82153E+07         0.00000E+00
    0.00000E+00         0.00000E+00         0.19779E+07
 
    0.16949E+07         0.42283E+06         0.00000E+00
    0.42283E+06         0.82167E+07         0.00000E+00
    0.00000E+00         0.00000E+00         0.19823E+07
 
    0.17149E+07         0.47278E+06         0.00000E+00
    0.47278E+06         0.82183E+07         0.00000E+00
    0.00000E+00         0.00000E+00         0.19866E+07
 
    0.17343E+07         0.52284E+06         0.00000E+00
    0.52284E+06         0.82200E+07         0.00000E+00
    0.00000E+00         0.00000E+00         0.19908E+07
 
    0.17529E+07         0.57303E+06         0.00000E+00
    0.57303E+06         0.82218E+07         0.00000E+00
    0.00000E+00         0.00000E+00         0.19949E+07
 
    0.17707E+07         0.62337E+06         0.00000E+00
    0.62337E+06         0.82238E+07         0.00000E+00
    0.00000E+00         0.00000E+00         0.19989E+07
 
    0.17879E+07         0.67388E+06         0.00000E+00
    0.67388E+06         0.82260E+07         0.00000E+00
    0.00000E+00         0.00000E+00         0.20028E+07
 
    0.18043E+07         0.72457E+06         0.00000E+00
    0.72457E+06         0.82282E+07         0.00000E+00
    0.00000E+00         0.00000E+00         0.20065E+07
 
    0.18201E+07         0.77546E+06         0.00000E+00
    0.77546E+06         0.82305E+07         0.00000E+00
    0.00000E+00         0.00000E+00         0.20101E+07
 
    0.18352E+07         0.82657E+06         0.00000E+00
    0.82657E+06         0.82330E+07         0.00000E+00
    0.00000E+00         0.00000E+00         0.20136E+07
 
    0.18496E+07         0.87792E+06         0.00000E+00
    0.87792E+06         0.82355E+07         0.00000E+00
    0.00000E+00         0.00000E+00         0.20170E+07
 
    0.18634E+07         0.92951E+06         0.00000E+00
    0.92951E+06         0.82382E+07         0.00000E+00
    0.00000E+00         0.00000E+00         0.20203E+07
 
    0.18766E+07         0.98138E+06         0.00000E+00
    0.98138E+06         0.82409E+07         0.00000E+00
    0.00000E+00         0.00000E+00         0.20235E+07
 
    0.18891E+07         0.10335E+07         0.00000E+00
    0.10335E+07         0.82436E+07         0.00000E+00
    0.00000E+00         0.00000E+00         0.20266E+07
 
    0.19011E+07         0.10860E+07         0.00000E+00
    0.10860E+07         0.82464E+07         0.00000E+00
    0.00000E+00         0.00000E+00         0.20295E+07
 
    0.19125E+07         0.11387E+07         0.00000E+00
    0.11387E+07         0.82493E+07         0.00000E+00
    0.00000E+00         0.00000E+00         0.20324E+07
 
    0.19233E+07         0.11918E+07         0.00000E+00
    0.11918E+07         0.82522E+07         0.00000E+00
    0.00000E+00         0.00000E+00         0.20351E+07
 
    0.19336E+07         0.12453E+07         0.00000E+00
    0.12453E+07         0.82551E+07         0.00000E+00
    0.00000E+00         0.00000E+00         0.20377E+07
 
    0.19433E+07         0.12991E+07         0.00000E+00
    0.12991E+07         0.82579E+07         0.00000E+00
    0.00000E+00         0.00000E+00         0.20403E+07
 
    0.19526E+07         0.13532E+07         0.00000E+00
    0.13532E+07         0.82608E+07         0.00000E+00
    0.00000E+00         0.00000E+00         0.20427E+07
 
    0.19613E+07         0.14078E+07         0.00000E+00
    0.14078E+07         0.82637E+07         0.00000E+00
    0.00000E+00         0.00000E+00         0.20450E+07
 
    0.19696E+07         0.14627E+07         0.00000E+00
    0.14627E+07         0.82665E+07         0.00000E+00
    0.00000E+00         0.00000E+00         0.20472E+07
 
    0.19774E+07         0.15181E+07         0.00000E+00
    0.15181E+07         0.82693E+07         0.00000E+00
    0.00000E+00         0.00000E+00         0.20493E+07
 
    0.19848E+07         0.15739E+07         0.00000E+00
    0.15739E+07         0.82720E+07         0.00000E+00
    0.00000E+00         0.00000E+00         0.20514E+07
 
    0.19918E+07         0.16301E+07         0.00000E+00
    0.16301E+07         0.82746E+07         0.00000E+00
    0.00000E+00         0.00000E+00         0.20533E+07
 
    0.19984E+07         0.16867E+07         0.00000E+00
    0.16867E+07         0.82772E+07         0.00000E+00
    0.00000E+00         0.00000E+00         0.20551E+07
 
    0.20047E+07         0.17439E+07         0.00000E+00
    0.17439E+07         0.82797E+07         0.00000E+00
    0.00000E+00         0.00000E+00         0.20569E+07
 
    0.20105E+07         0.18014E+07         0.00000E+00
    0.18014E+07         0.82820E+07         0.00000E+00
    0.00000E+00         0.00000E+00         0.20585E+07
 
    0.20161E+07         0.18595E+07         0.00000E+00
    0.18595E+07         0.82842E+07         0.00000E+00
    0.00000E+00         0.00000E+00         0.20601E+07
 
    0.20213E+07         0.19181E+07         0.00000E+00
    0.19181E+07         0.82863E+07         0.00000E+00
    0.00000E+00         0.00000E+00         0.20615E+07
 
    0.20263E+07         0.19771E+07         0.00000E+00
    0.19771E+07         0.82882E+07         0.00000E+00
    0.00000E+00         0.00000E+00         0.20629E+07
 
    0.20310E+07         0.20367E+07         0.00000E+00
    0.20367E+07         0.82899E+07         0.00000E+00
    0.00000E+00         0.00000E+00         0.20642E+07
 
    0.20354E+07         0.20968E+07         0.00000E+00
    0.20968E+07         0.82915E+07         0.00000E+00
    0.00000E+00         0.00000E+00         0.20654E+07
 
    0.20397E+07         0.21574E+07         0.00000E+00
    0.21574E+07         0.82929E+07         0.00000E+00
    0.00000E+00         0.00000E+00         0.20665E+07
 
    0.20437E+07         0.22186E+07         0.00000E+00
    0.22186E+07         0.82940E+07         0.00000E+00
    0.00000E+00         0.00000E+00         0.20675E+07
 
    0.20476E+07         0.22803E+07         0.00000E+00
    0.22803E+07         0.82949E+07         0.00000E+00
    0.00000E+00         0.00000E+00         0.20685E+07
 
    0.20513E+07         0.23426E+07         0.00000E+00
    0.23426E+07         0.82956E+07         0.00000E+00
    0.00000E+00         0.00000E+00         0.20694E+07
 
    0.20548E+07         0.24054E+07         0.00000E+00
    0.24054E+07         0.82960E+07         0.00000E+00
    0.00000E+00         0.00000E+00         0.20702E+07
 
    0.20583E+07         0.24689E+07         0.00000E+00
    0.24689E+07         0.82962E+07         0.00000E+00
    0.00000E+00         0.00000E+00         0.20709E+07
 
    0.20617E+07         0.25329E+07         0.00000E+00
    0.25329E+07         0.82961E+07         0.00000E+00
    0.00000E+00         0.00000E+00         0.20716E+07
 
    0.20650E+07         0.25975E+07         0.00000E+00
    0.25975E+07         0.82956E+07         0.00000E+00
    0.00000E+00         0.00000E+00         0.20721E+07
 
    0.20683E+07         0.26628E+07         0.00000E+00
    0.26628E+07         0.82949E+07         0.00000E+00
    0.00000E+00         0.00000E+00         0.20726E+07
 
    0.20716E+07         0.27286E+07         0.00000E+00
    0.27286E+07         0.82938E+07         0.00000E+00
    0.00000E+00         0.00000E+00         0.20731E+07
 
    0.13066E+07         0.25355E+05         0.00000E+00
    0.25355E+05         0.77592E+07         0.00000E+00
    0.00000E+00         0.00000E+00         0.18131E+07
 
    0.13326E+07         0.75903E+05         0.00000E+00
    0.75903E+05         0.77593E+07         0.00000E+00
    0.00000E+00         0.00000E+00         0.18184E+07
 
    0.13579E+07         0.12640E+06         0.00000E+00
    0.12640E+06         0.77596E+07         0.00000E+00
    0.00000E+00         0.00000E+00         0.18235E+07
 
    0.13824E+07         0.17687E+06         0.00000E+00
    0.17687E+06         0.77600E+07         0.00000E+00
    0.00000E+00         0.00000E+00         0.18285E+07
 
    0.14063E+07         0.22732E+06         0.00000E+00
    0.22732E+06         0.77605E+07         0.00000E+00
    0.00000E+00         0.00000E+00         0.18334E+07
 
    0.14295E+07         0.27777E+06         0.00000E+00
    0.27777E+06         0.77612E+07         0.00000E+00
    0.00000E+00         0.00000E+00         0.18381E+07
 
    0.14520E+07         0.32823E+06         0.00000E+00
    0.32823E+06         0.77620E+07         0.00000E+00
    0.00000E+00         0.00000E+00         0.18428E+07
 
    0.14739E+07         0.37873E+06         0.00000E+00
    0.37873E+06         0.77630E+07         0.00000E+00
    0.00000E+00         0.00000E+00         0.18474E+07
 
    0.14950E+07         0.42927E+06         0.00000E+00
    0.42927E+06         0.77640E+07         0.00000E+00
    0.00000E+00         0.00000E+00         0.18518E+07
 
    0.15155E+07         0.47988E+06         0.00000E+00
    0.47988E+06         0.77652E+07         0.00000E+00
    0.00000E+00         0.00000E+00         0.18561E+07
 
    0.15354E+07         0.53057E+06         0.00000E+00
    0.53057E+06         0.77665E+07         0.00000E+00
    0.00000E+00         0.00000E+00         0.18604E+07
 
    0.15546E+07         0.58135E+06         0.00000E+00
    0.58135E+06         0.77678E+07         0.00000E+00
    0.00000E+00         0.00000E+00         0.18645E+07
 
    0.15731E+07         0.63225E+06         0.00000E+00
    0.63225E+06         0.77693E+07         0.00000E+00
    0.00000E+00         0.00000E+00         0.18685E+07
 
    0.15911E+07         0.68328E+06         0.00000E+00
    0.68328E+06         0.77709E+07         0.00000E+00
    0.00000E+00         0.00000E+00         0.18724E+07
 
    0.16084E+07         0.73445E+06         0.00000E+00
    0.73445E+06         0.77725E+07         0.00000E+00
    0.00000E+00         0.00000E+00         0.18762E+07
 
    0.16251E+07         0.78578E+06         0.00000E+00
    0.78578E+06         0.77742E+07         0.00000E+00
    0.00000E+00         0.00000E+00         0.18799E+07
 
    0.16412E+07         0.83728E+06         0.00000E+00
    0.83728E+06         0.77760E+07         0.00000E+00
    0.00000E+00         0.00000E+00         0.18834E+07
 
    0.16567E+07         0.88897E+06         0.00000E+00
    0.88897E+06         0.77779E+07         0.00000E+00
    0.00000E+00         0.00000E+00         0.18869E+07
 
    0.16717E+07         0.94087E+06         0.00000E+00
    0.94087E+06         0.77797E+07         0.00000E+00
    0.00000E+00         0.00000E+00         0.18903E+07
 
    0.16861E+07         0.99298E+06         0.00000E+00
    0.99298E+06         0.77817E+07         0.00000E+00
    0.00000E+00         0.00000E+00         0.18936E+07
 
    0.17000E+07         0.10453E+07         0.00000E+00
    0.10453E+07         0.77836E+07         0.00000E+00
    0.00000E+00         0.00000E+00         0.18967E+07
 
    0.17134E+07         0.10979E+07         0.00000E+00
    0.10979E+07         0.77856E+07         0.00000E+00
    0.00000E+00         0.00000E+00         0.18998E+07
 
    0.17262E+07         0.11508E+07         0.00000E+00
    0.11508E+07         0.77876E+07         0.00000E+00
    0.00000E+00         0.00000E+00         0.19028E+07
 
    0.17386E+07         0.12039E+07         0.00000E+00
    0.12039E+07         0.77896E+07         0.00000E+00
    0.00000E+00         0.00000E+00         0.19056E+07
 
    0.17504E+07         0.12573E+07         0.00000E+00
    0.12573E+07         0.77915E+07         0.00000E+00
    0.00000E+00         0.00000E+00         0.19084E+07
 
    0.17619E+07         0.13110E+07         0.00000E+00
    0.13110E+07         0.77935E+07         0.00000E+00
    0.00000E+00         0.00000E+00         0.19111E+07
 
    0.17728E+07         0.13651E+07         0.00000E+00
    0.13651E+07         0.77954E+07         0.00000E+00
    0.00000E+00         0.00000E+00         0.19136E+07
 
    0.17834E+07         0.14194E+07         0.00000E+00
    0.14194E+07         0.77973E+07         0.00000E+00
    0.00000E+00         0.00000E+00         0.19161E+07
 
    0.17935E+07         0.14741E+07         0.00000E+00
    0.14741E+07         0.77991E+07         0.00000E+00
    0.00000E+00         0.00000E+00         0.19185E+07
 
    0.18033E+07         0.15291E+07         0.00000E+00
    0.15291E+07         0.78008E+07         0.00000E+00
    0.00000E+00         0.00000E+00         0.19208E+07
 
    0.18127E+07         0.15845E+07         0.00000E+00
    0.15845E+07         0.78025E+07         0.00000E+00
    0.00000E+00         0.00000E+00         0.19230E+07
 
    0.18217E+07         0.16403E+07         0.00000E+00
    0.16403E+07         0.78041E+07         0.00000E+00
    0.00000E+00         0.00000E+00         0.19252E+07
 
    0.18304E+07         0.16964E+07         0.00000E+00
    0.16964E+07         0.78055E+07         0.00000E+00
    0.00000E+00         0.00000E+00         0.19272E+07
 
    0.18388E+07         0.17530E+07         0.00000E+00
    0.17530E+07         0.78069E+07         0.00000E+00
    0.00000E+00         0.00000E+00         0.19291E+07
 
    0.18469E+07         0.18099E+07         0.00000E+00
    0.18099E+07         0.78081E+07         0.00000E+00
    0.00000E+00         0.00000E+00         0.19310E+07
 
    0.18547E+07         0.18672E+07         0.00000E+00
    0.18672E+07         0.78091E+07         0.00000E+00
    0.00000E+00         0.00000E+00         0.19328E+07
 
    0.18623E+07         0.19250E+07         0.00000E+00
    0.19250E+07         0.78101E+07         0.00000E+00
    0.00000E+00         0.00000E+00         0.19345E+07
 
    0.18696E+07         0.19832E+07         0.00000E+00
    0.19832E+07         0.78108E+07         0.00000E+00
    0.00000E+00         0.00000E+00         0.19361E+07
 
    0.18767E+07         0.20419E+07         0.00000E+00
    0.20419E+07         0.78114E+07         0.00000E+00
    0.00000E+00         0.00000E+00         0.19376E+07
 
    0.18836E+07         0.21010E+07         0.00000E+00
    0.21010E+07         0.78117E+07         0.00000E+00
    0.00000E+00         0.00000E+00         0.19391E+07
 
    0.18903E+07         0.21606E+07         0.00000E+00
    0.21606E+07         0.78119E+07         0.00000E+00
    0.00000E+00         0.00000E+00         0.19404E+07
 
    0.18969E+07         0.22206E+07         0.00000E+00
    0.22206E+07         0.78118E+07         0.00000E+00
    0.00000E+00         0.00000E+00         0.19417E+07
 
    0.19034E+07         0.22811E+07         0.00000E+00
    0.22811E+07         0.78115E+07         0.00000E+00
    0.00000E+00         0.00000E+00         0.19430E+07
 
    0.19097E+07         0.23421E+07         0.00000E+00
    0.23421E+07         0.78109E+07         0.00000E+00
    0.00000E+00         0.00000E+00         0.19441E+07
 
    0.19160E+07         0.24036E+07         0.00000E+00
    0.24036E+07         0.78101E+07         0.00000E+00
    0.00000E+00         0.00000E+00         0.19452E+07
 
    0.19222E+07         0.24656E+07         0.00000E+00
    0.24656E+07         0.78090E+07         0.00000E+00
    0.00000E+00         0.00000E+00         0.19462E+07
 
    0.19284E+07         0.25282E+07         0.00000E+00
    0.25282E+07         0.78076E+07         0.00000E+00
    0.00000E+00         0.00000E+00         0.19472E+07
 
    0.19346E+07         0.25912E+07         0.00000E+00
    0.25912E+07         0.78058E+07         0.00000E+00
    0.00000E+00         0.00000E+00         0.19481E+07
 
    0.19407E+07         0.26548E+07         0.00000E+00
    0.26548E+07         0.78038E+07         0.00000E+00
    0.00000E+00         0.00000E+00         0.19489E+07
 
    0.19469E+07         0.27189E+07         0.00000E+00
    0.27189E+07         0.78014E+07         0.00000E+00
    0.00000E+00         0.00000E+00         0.19497E+07
 
    0.11242E+07         0.25662E+05         0.00000E+00
    0.25662E+05         0.73223E+07         0.00000E+00
    0.00000E+00         0.00000E+00         0.16893E+07
 
    0.11498E+07         0.76811E+05         0.00000E+00
    0.76811E+05         0.73224E+07         0.00000E+00
    0.00000E+00         0.00000E+00         0.16944E+07
 
    0.11749E+07         0.12790E+06         0.00000E+00
    0.12790E+06         0.73226E+07         0.00000E+00
    0.00000E+00         0.00000E+00         0.16995E+07
 
    0.11993E+07         0.17895E+06         0.00000E+00
    0.17895E+06         0.73229E+07         0.00000E+00
    0.00000E+00         0.00000E+00         0.17044E+07
 
    0.12231E+07         0.22997E+06         0.00000E+00
    0.22997E+06         0.73233E+07         0.00000E+00
    0.00000E+00         0.00000E+00         0.17093E+07
 
    0.12463E+07         0.28097E+06         0.00000E+00
    0.28097E+06         0.73238E+07         0.00000E+00
    0.00000E+00         0.00000E+00         0.17140E+07
 
    0.12689E+07         0.33197E+06         0.00000E+00
    0.33197E+06         0.73244E+07         0.00000E+00
    0.00000E+00         0.00000E+00         0.17187E+07
 
    0.12909E+07         0.38297E+06         0.00000E+00
    0.38297E+06         0.73251E+07         0.00000E+00
    0.00000E+00         0.00000E+00         0.17232E+07
 
    0.13123E+07         0.43401E+06         0.00000E+00
    0.43401E+06         0.73258E+07         0.00000E+00
    0.00000E+00         0.00000E+00         0.17276E+07
 
    0.13331E+07         0.48508E+06         0.00000E+00
    0.48508E+06         0.73267E+07         0.00000E+00
    0.00000E+00         0.00000E+00         0.17319E+07
 
    0.13533E+07         0.53620E+06         0.00000E+00
    0.53620E+06         0.73276E+07         0.00000E+00
    0.00000E+00         0.00000E+00         0.17362E+07
 
    0.13729E+07         0.58740E+06         0.00000E+00
    0.58740E+06         0.73286E+07         0.00000E+00
    0.00000E+00         0.00000E+00         0.17403E+07
 
    0.13920E+07         0.63867E+06         0.00000E+00
    0.63867E+06         0.73296E+07         0.00000E+00
    0.00000E+00         0.00000E+00         0.17443E+07
 
    0.14105E+07         0.69003E+06         0.00000E+00
    0.69003E+06         0.73307E+07         0.00000E+00
    0.00000E+00         0.00000E+00         0.17482E+07
 
    0.14285E+07         0.74151E+06         0.00000E+00
    0.74151E+06         0.73318E+07         0.00000E+00
    0.00000E+00         0.00000E+00         0.17521E+07
 
    0.14459E+07         0.79310E+06         0.00000E+00
    0.79310E+06         0.73330E+07         0.00000E+00
    0.00000E+00         0.00000E+00         0.17558E+07
 
    0.14628E+07         0.84483E+06         0.00000E+00
    0.84483E+06         0.73342E+07         0.00000E+00
    0.00000E+00         0.00000E+00         0.17594E+07
 
    0.14793E+07         0.89671E+06         0.00000E+00
    0.89671E+06         0.73355E+07         0.00000E+00
    0.00000E+00         0.00000E+00         0.17629E+07
 
    0.14952E+07         0.94875E+06         0.00000E+00
    0.94875E+06         0.73368E+07         0.00000E+00
    0.00000E+00         0.00000E+00         0.17664E+07
 
    0.15106E+07         0.10010E+07         0.00000E+00
    0.10010E+07         0.73380E+07         0.00000E+00
    0.00000E+00         0.00000E+00         0.17697E+07
 
    0.15256E+07         0.10534E+07         0.00000E+00
    0.10534E+07         0.73393E+07         0.00000E+00
    0.00000E+00         0.00000E+00         0.17730E+07
 
    0.15401E+07         0.11060E+07         0.00000E+00
    0.11060E+07         0.73406E+07         0.00000E+00
    0.00000E+00         0.00000E+00         0.17761E+07
 
    0.15541E+07         0.11588E+07         0.00000E+00
    0.11588E+07         0.73418E+07         0.00000E+00
    0.00000E+00         0.00000E+00         0.17792E+07
 
    0.15678E+07         0.12118E+07         0.00000E+00
    0.12118E+07         0.73430E+07         0.00000E+00
    0.00000E+00         0.00000E+00         0.17822E+07
 
    0.15810E+07         0.12651E+07         0.00000E+00
    0.12651E+07         0.73442E+07         0.00000E+00
    0.00000E+00         0.00000E+00         0.17850E+07
 
    0.15938E+07         0.13186E+07         0.00000E+00
    0.13186E+07         0.73454E+07         0.00000E+00
    0.00000E+00         0.00000E+00         0.17878E+07
 
    0.16062E+07         0.13723E+07         0.00000E+00
    0.13723E+07         0.73465E+07         0.00000E+00
    0.00000E+00         0.00000E+00         0.17905E+07
 
    0.16183E+07         0.14264E+07         0.00000E+00
    0.14264E+07         0.73475E+07         0.00000E+00
    0.00000E+00         0.00000E+00         0.17932E+07
 
    0.16300E+07         0.14807E+07         0.00000E+00
    0.14807E+07         0.73484E+07         0.00000E+00
    0.00000E+00         0.00000E+00         0.17957E+07
 
    0.16414E+07         0.15353E+07         0.00000E+00
    0.15353E+07         0.73493E+07         0.00000E+00
    0.00000E+00         0.00000E+00         0.17981E+07
 
    0.16524E+07         0.15902E+07         0.00000E+00
    0.15902E+07         0.73500E+07         0.00000E+00
    0.00000E+00         0.00000E+00         0.18005E+07
 
    0.16632E+07         0.16454E+07         0.00000E+00
    0.16454E+07         0.73507E+07         0.00000E+00
    0.00000E+00         0.00000E+00         0.18028E+07
 
    0.16737E+07         0.17010E+07         0.00000E+00
    0.17010E+07         0.73512E+07         0.00000E+00
    0.00000E+00         0.00000E+00         0.18050E+07
 
    0.16839E+07         0.17568E+07         0.00000E+00
    0.17568E+07         0.73516E+07         0.00000E+00
    0.00000E+00         0.00000E+00         0.18071E+07
 
    0.16939E+07         0.18131E+07         0.00000E+00
    0.18131E+07         0.73518E+07         0.00000E+00
    0.00000E+00         0.00000E+00         0.18091E+07
 
    0.17036E+07         0.18696E+07         0.00000E+00
    0.18696E+07         0.73519E+07         0.00000E+00
    0.00000E+00         0.00000E+00         0.18111E+07
 
    0.17131E+07         0.19266E+07         0.00000E+00
    0.19266E+07         0.73518E+07         0.00000E+00
    0.00000E+00         0.00000E+00         0.18130E+07
 
    0.17225E+07         0.19838E+07         0.00000E+00
    0.19838E+07         0.73515E+07         0.00000E+00
    0.00000E+00         0.00000E+00         0.18148E+07
 
    0.17317E+07         0.20415E+07         0.00000E+00
    0.20415E+07         0.73511E+07         0.00000E+00
    0.00000E+00         0.00000E+00         0.18165E+07
 
    0.17407E+07         0.20996E+07         0.00000E+00
    0.20996E+07         0.73504E+07         0.00000E+00
    0.00000E+00         0.00000E+00         0.18182E+07
 
    0.17496E+07         0.21580E+07         0.00000E+00
    0.21580E+07         0.73495E+07         0.00000E+00
    0.00000E+00         0.00000E+00         0.18198E+07
 
    0.17584E+07         0.22169E+07         0.00000E+00
    0.22169E+07         0.73483E+07         0.00000E+00
    0.00000E+00         0.00000E+00         0.18213E+07
 
    0.17671E+07         0.22761E+07         0.00000E+00
    0.22761E+07         0.73470E+07         0.00000E+00
    0.00000E+00         0.00000E+00         0.18228E+07
 
    0.17757E+07         0.23358E+07         0.00000E+00
    0.23358E+07         0.73453E+07         0.00000E+00
    0.00000E+00         0.00000E+00         0.18242E+07
 
    0.17843E+07         0.23959E+07         0.00000E+00
    0.23959E+07         0.73434E+07         0.00000E+00
    0.00000E+00         0.00000E+00         0.18255E+07
 
    0.17929E+07         0.24565E+07         0.00000E+00
    0.24565E+07         0.73412E+07         0.00000E+00
    0.00000E+00         0.00000E+00         0.18268E+07
 
    0.18015E+07         0.25174E+07         0.00000E+00
    0.25174E+07         0.73386E+07         0.00000E+00
    0.00000E+00         0.00000E+00         0.18280E+07
 
    0.18101E+07         0.25789E+07         0.00000E+00
    0.25789E+07         0.73358E+07         0.00000E+00
    0.00000E+00         0.00000E+00         0.18292E+07
 
    0.18187E+07         0.26407E+07         0.00000E+00
    0.26407E+07         0.73326E+07         0.00000E+00
    0.00000E+00         0.00000E+00         0.18303E+07
 
    0.18274E+07         0.27031E+07         0.00000E+00
    0.27031E+07         0.73291E+07         0.00000E+00
    0.00000E+00         0.00000E+00         0.18313E+07
 
    0.95851E+06         0.25891E+05         0.00000E+00
    0.25891E+05         0.68996E+07         0.00000E+00
    0.00000E+00         0.00000E+00         0.15716E+07
 
    0.98385E+06         0.77479E+05         0.00000E+00
    0.77479E+05         0.68996E+07         0.00000E+00
    0.00000E+00         0.00000E+00         0.15767E+07
 
    0.10086E+07         0.12900E+06         0.00000E+00
    0.12900E+06         0.68998E+07         0.00000E+00
    0.00000E+00         0.00000E+00         0.15817E+07
 
    0.10328E+07         0.18046E+06         0.00000E+00
    0.18046E+06         0.69000E+07         0.00000E+00
    0.00000E+00         0.00000E+00         0.15866E+07
 
    0.10565E+07         0.23188E+06         0.00000E+00
    0.23188E+06         0.69003E+07         0.00000E+00
    0.00000E+00         0.00000E+00         0.15914E+07
 
    0.10796E+07         0.28326E+06         0.00000E+00
    0.28326E+06         0.69006E+07         0.00000E+00
    0.00000E+00         0.00000E+00         0.15960E+07
 
    0.11021E+07         0.33463E+06         0.00000E+00
    0.33463E+06         0.69011E+07         0.00000E+00
    0.00000E+00         0.00000E+00         0.16006E+07
 
    0.11242E+07         0.38598E+06         0.00000E+00
    0.38598E+06         0.69015E+07         0.00000E+00
    0.00000E+00         0.00000E+00         0.16051E+07
 
    0.11456E+07         0.43734E+06         0.00000E+00
    0.43734E+06         0.69020E+07         0.00000E+00
    0.00000E+00         0.00000E+00         0.16095E+07
 
    0.11666E+07         0.48871E+06         0.00000E+00
    0.48871E+06         0.69026E+07         0.00000E+00
    0.00000E+00         0.00000E+00         0.16138E+07
 
    0.11870E+07         0.54011E+06         0.00000E+00
    0.54011E+06         0.69032E+07         0.00000E+00
    0.00000E+00         0.00000E+00         0.16181E+07
 
    0.12070E+07         0.59154E+06         0.00000E+00
    0.59154E+06         0.69039E+07         0.00000E+00
    0.00000E+00         0.00000E+00         0.16222E+07
 
    0.12264E+07         0.64303E+06         0.00000E+00
    0.64303E+06         0.69045E+07         0.00000E+00
    0.00000E+00         0.00000E+00         0.16262E+07
 
    0.12454E+07         0.69458E+06         0.00000E+00
    0.69458E+06         0.69053E+07         0.00000E+00
    0.00000E+00         0.00000E+00         0.16301E+07
 
    0.12638E+07         0.74621E+06         0.00000E+00
    0.74621E+06         0.69060E+07         0.00000E+00
    0.00000E+00         0.00000E+00         0.16340E+07
 
    0.12818E+07         0.79792E+06         0.00000E+00
    0.79792E+06         0.69067E+07         0.00000E+00
    0.00000E+00         0.00000E+00         0.16377E+07
 
    0.12993E+07         0.84974E+06         0.00000E+00
    0.84974E+06         0.69075E+07         0.00000E+00
    0.00000E+00         0.00000E+00         0.16414E+07
 
    0.13164E+07         0.90166E+06         0.00000E+00
    0.90166E+06         0.69082E+07         0.00000E+00
    0.00000E+00         0.00000E+00         0.16449E+07
 
    0.13331E+07         0.95370E+06         0.00000E+00
    0.95370E+06         0.69090E+07         0.00000E+00
    0.00000E+00         0.00000E+00         0.16484E+07
 
    0.13493E+07         0.10059E+07         0.00000E+00
    0.10059E+07         0.69097E+07         0.00000E+00
    0.00000E+00         0.00000E+00         0.16518E+07
 
    0.13651E+07         0.10582E+07         0.00000E+00
    0.10582E+07         0.69104E+07         0.00000E+00
    0.00000E+00         0.00000E+00         0.16551E+07
 
    0.13805E+07         0.11107E+07         0.00000E+00
    0.11107E+07         0.69111E+07         0.00000E+00
    0.00000E+00         0.00000E+00         0.16583E+07
 
    0.13956E+07         0.11633E+07         0.00000E+00
    0.11633E+07         0.69117E+07         0.00000E+00
    0.00000E+00         0.00000E+00         0.16615E+07
 
    0.14102E+07         0.12161E+07         0.00000E+00
    0.12161E+07         0.69123E+07         0.00000E+00
    0.00000E+00         0.00000E+00         0.16645E+07
 
    0.14245E+07         0.12691E+07         0.00000E+00
    0.12691E+07         0.69128E+07         0.00000E+00
    0.00000E+00         0.00000E+00         0.16675E+07
 
    0.14385E+07         0.13223E+07         0.00000E+00
    0.13223E+07         0.69133E+07         0.00000E+00
    0.00000E+00         0.00000E+00         0.16703E+07
 
    0.14521E+07         0.13757E+07         0.00000E+00
    0.13757E+07         0.69136E+07         0.00000E+00
    0.00000E+00         0.00000E+00         0.16731E+07
 
    0.14654E+07         0.14294E+07         0.00000E+00
    0.14294E+07         0.69139E+07         0.00000E+00
    0.00000E+00         0.00000E+00         0.16759E+07
 
    0.14784E+07         0.14832E+07         0.00000E+00
    0.14832E+07         0.69141E+07         0.00000E+00
    0.00000E+00         0.00000E+00         0.16785E+07
 
    0.14911E+07         0.15373E+07         0.00000E+00
    0.15373E+07         0.69142E+07         0.00000E+00
    0.00000E+00         0.00000E+00         0.16811E+07
 
    0.15036E+07         0.15917E+07         0.00000E+00
    0.15917E+07         0.69142E+07         0.00000E+00
    0.00000E+00         0.00000E+00         0.16836E+07
 
    0.15158E+07         0.16463E+07         0.00000E+00
    0.16463E+07         0.69140E+07         0.00000E+00
    0.00000E+00         0.00000E+00         0.16860E+07
 
    0.15277E+07         0.17011E+07         0.00000E+00
    0.17011E+07         0.69138E+07         0.00000E+00
    0.00000E+00         0.00000E+00         0.16883E+07
 
    0.15395E+07         0.17563E+07         0.00000E+00
    0.17563E+07         0.69133E+07         0.00000E+00
    0.00000E+00         0.00000E+00         0.16906E+07
 
    0.15511E+07         0.18117E+07         0.00000E+00
    0.18117E+07         0.69127E+07         0.00000E+00
    0.00000E+00         0.00000E+00         0.16928E+07
 
    0.15624E+07         0.18674E+07         0.00000E+00
    0.18674E+07         0.69119E+07         0.00000E+00
    0.00000E+00         0.00000E+00         0.16949E+07
 
    0.15736E+07         0.19234E+07         0.00000E+00
    0.19234E+07         0.69110E+07         0.00000E+00
    0.00000E+00         0.00000E+00         0.16969E+07
 
    0.15847E+07         0.19797E+07         0.00000E+00
    0.19797E+07         0.69098E+07         0.00000E+00
    0.00000E+00         0.00000E+00         0.16989E+07
 
    0.15956E+07         0.20363E+07         0.00000E+00
    0.20363E+07         0.69085E+07         0.00000E+00
    0.00000E+00         0.00000E+00         0.17008E+07
 
    0.16064E+07         0.20933E+07         0.00000E+00
    0.20933E+07         0.69069E+07         0.00000E+00
    0.00000E+00         0.00000E+00         0.17027E+07
 
    0.16172E+07         0.21506E+07         0.00000E+00
    0.21506E+07         0.69051E+07         0.00000E+00
    0.00000E+00         0.00000E+00         0.17045E+07
 
    0.16278E+07         0.22082E+07         0.00000E+00
    0.22082E+07         0.69031E+07         0.00000E+00
    0.00000E+00         0.00000E+00         0.17062E+07
 
    0.16384E+07         0.22661E+07         0.00000E+00
    0.22661E+07         0.69007E+07         0.00000E+00
    0.00000E+00         0.00000E+00         0.17078E+07
 
    0.16490E+07         0.23245E+07         0.00000E+00
    0.23245E+07         0.68982E+07         0.00000E+00
    0.00000E+00         0.00000E+00         0.17094E+07
 
    0.16596E+07         0.23831E+07         0.00000E+00
    0.23831E+07         0.68953E+07         0.00000E+00
    0.00000E+00         0.00000E+00         0.17110E+07
 
    0.16702E+07         0.24422E+07         0.00000E+00
    0.24422E+07         0.68922E+07         0.00000E+00
    0.00000E+00         0.00000E+00         0.17125E+07
 
    0.16808E+07         0.25016E+07         0.00000E+00
    0.25016E+07         0.68887E+07         0.00000E+00
    0.00000E+00         0.00000E+00         0.17139E+07
 
    0.16915E+07         0.25613E+07         0.00000E+00
    0.25613E+07         0.68849E+07         0.00000E+00
    0.00000E+00         0.00000E+00         0.17153E+07
 
    0.17022E+07         0.26215E+07         0.00000E+00
    0.26215E+07         0.68808E+07         0.00000E+00
    0.00000E+00         0.00000E+00         0.17166E+07
 
    0.17130E+07         0.26821E+07         0.00000E+00
    0.26821E+07         0.68763E+07         0.00000E+00
    0.00000E+00         0.00000E+00         0.17179E+07
 
    0.80883E+06         0.26056E+05         0.00000E+00
    0.26056E+05         0.64909E+07         0.00000E+00
    0.00000E+00         0.00000E+00         0.14600E+07
 
    0.83376E+06         0.77947E+05         0.00000E+00
    0.77947E+05         0.64910E+07         0.00000E+00
    0.00000E+00         0.00000E+00         0.14649E+07
 
    0.85819E+06         0.12976E+06         0.00000E+00
    0.12976E+06         0.64911E+07         0.00000E+00
    0.00000E+00         0.00000E+00         0.14699E+07
 
    0.88211E+06         0.18150E+06         0.00000E+00
    0.18150E+06         0.64912E+07         0.00000E+00
    0.00000E+00         0.00000E+00         0.14747E+07
 
    0.90552E+06         0.23318E+06         0.00000E+00
    0.23318E+06         0.64914E+07         0.00000E+00
    0.00000E+00         0.00000E+00         0.14794E+07
 
    0.92844E+06         0.28481E+06         0.00000E+00
    0.28481E+06         0.64916E+07         0.00000E+00
    0.00000E+00         0.00000E+00         0.14840E+07
 
    0.95087E+06         0.33640E+06         0.00000E+00
    0.33640E+06         0.64919E+07         0.00000E+00
    0.00000E+00         0.00000E+00         0.14886E+07
 
    0.97282E+06         0.38796E+06         0.00000E+00
    0.38796E+06         0.64922E+07         0.00000E+00
    0.00000E+00         0.00000E+00         0.14930E+07
 
    0.99429E+06         0.43950E+06         0.00000E+00
    0.43950E+06         0.64925E+07         0.00000E+00
    0.00000E+00         0.00000E+00         0.14974E+07
 
    0.10153E+07         0.49103E+06         0.00000E+00
    0.49103E+06         0.64929E+07         0.00000E+00
    0.00000E+00         0.00000E+00         0.15016E+07
 
    0.10358E+07         0.54257E+06         0.00000E+00
    0.54257E+06         0.64932E+07         0.00000E+00
    0.00000E+00         0.00000E+00         0.15058E+07
 
    0.10559E+07         0.59412E+06         0.00000E+00
    0.59412E+06         0.64936E+07         0.00000E+00
    0.00000E+00         0.00000E+00         0.15099E+07
 
    0.10756E+07         0.64569E+06         0.00000E+00
    0.64569E+06         0.64940E+07         0.00000E+00
    0.00000E+00         0.00000E+00         0.15139E+07
 
    0.10948E+07         0.69729E+06         0.00000E+00
    0.69729E+06         0.64944E+07         0.00000E+00
    0.00000E+00         0.00000E+00         0.15178E+07
 
    0.11136E+07         0.74894E+06         0.00000E+00
    0.74894E+06         0.64947E+07         0.00000E+00
    0.00000E+00         0.00000E+00         0.15217E+07
 
    0.11320E+07         0.80065E+06         0.00000E+00
    0.80065E+06         0.64951E+07         0.00000E+00
    0.00000E+00         0.00000E+00         0.15254E+07
 
    0.11499E+07         0.85242E+06         0.00000E+00
    0.85242E+06         0.64955E+07         0.00000E+00
    0.00000E+00         0.00000E+00         0.15291E+07
 
    0.11675E+07         0.90426E+06         0.00000E+00
    0.90426E+06         0.64958E+07         0.00000E+00
    0.00000E+00         0.00000E+00         0.15327E+07
 
    0.11847E+07         0.95619E+06         0.00000E+00
    0.95619E+06         0.64961E+07         0.00000E+00
    0.00000E+00         0.00000E+00         0.15362E+07
 
    0.12015E+07         0.10082E+07         0.00000E+00
    0.10082E+07         0.64964E+07         0.00000E+00
    0.00000E+00         0.00000E+00         0.15396E+07
 
    0.12180E+07         0.10603E+07         0.00000E+00
    0.10603E+07         0.64966E+07         0.00000E+00
    0.00000E+00         0.00000E+00         0.15429E+07
 
    0.12341E+07         0.11126E+07         0.00000E+00
    0.11126E+07         0.64967E+07         0.00000E+00
    0.00000E+00         0.00000E+00         0.15462E+07
 
    0.12499E+07         0.11650E+07         0.00000E+00
    0.11650E+07         0.64968E+07         0.00000E+00
    0.00000E+00         0.00000E+00         0.15493E+07
 
    0.12653E+07         0.12175E+07         0.00000E+00
    0.12175E+07         0.64969E+07         0.00000E+00
    0.00000E+00         0.00000E+00         0.15524E+07
 
    0.12805E+07         0.12701E+07         0.00000E+00
    0.12701E+07         0.64969E+07         0.00000E+00
    0.00000E+00         0.00000E+00         0.15555E+07
 
    0.12953E+07         0.13229E+07         0.00000E+00
    0.13229E+07         0.64967E+07         0.00000E+00
    0.00000E+00         0.00000E+00         0.15584E+07
 
    0.13099E+07         0.13759E+07         0.00000E+00
    0.13759E+07         0.64965E+07         0.00000E+00
    0.00000E+00         0.00000E+00         0.15613E+07
 
    0.13242E+07         0.14290E+07         0.00000E+00
    0.14290E+07         0.64962E+07         0.00000E+00
    0.00000E+00         0.00000E+00         0.15641E+07
 
    0.13382E+07         0.14823E+07         0.00000E+00
    0.14823E+07         0.64958E+07         0.00000E+00
    0.00000E+00         0.00000E+00         0.15668E+07
 
    0.13520E+07         0.15358E+07         0.00000E+00
    0.15358E+07         0.64952E+07         0.00000E+00
    0.00000E+00         0.00000E+00         0.15695E+07
 
    0.13656E+07         0.15895E+07         0.00000E+00
    0.15895E+07         0.64945E+07         0.00000E+00
    0.00000E+00         0.00000E+00         0.15720E+07
 
    0.13790E+07         0.16434E+07         0.00000E+00
    0.16434E+07         0.64937E+07         0.00000E+00
    0.00000E+00         0.00000E+00         0.15745E+07
 
    0.13922E+07         0.16975E+07         0.00000E+00
    0.16975E+07         0.64927E+07         0.00000E+00
    0.00000E+00         0.00000E+00         0.15770E+07
 
    0.14052E+07         0.17518E+07         0.00000E+00
    0.17518E+07         0.64916E+07         0.00000E+00
    0.00000E+00         0.00000E+00         0.15794E+07
 
    0.14180E+07         0.18064E+07         0.00000E+00
    0.18064E+07         0.64903E+07         0.00000E+00
    0.00000E+00         0.00000E+00         0.15817E+07
 
    0.14307E+07         0.18612E+07         0.00000E+00
    0.18612E+07         0.64888E+07         0.00000E+00
    0.00000E+00         0.00000E+00         0.15839E+07
 
    0.14433E+07         0.19162E+07         0.00000E+00
    0.19162E+07         0.64871E+07         0.00000E+00
    0.00000E+00         0.00000E+00         0.15861E+07
 
    0.14558E+07         0.19715E+07         0.00000E+00
    0.19715E+07         0.64852E+07         0.00000E+00
    0.00000E+00         0.00000E+00         0.15882E+07
 
    0.14681E+07         0.20270E+07         0.00000E+00
    0.20270E+07         0.64831E+07         0.00000E+00
    0.00000E+00         0.00000E+00         0.15903E+07
 
    0.14805E+07         0.20828E+07         0.00000E+00
    0.20828E+07         0.64808E+07         0.00000E+00
    0.00000E+00         0.00000E+00         0.15923E+07
 
    0.14927E+07         0.21389E+07         0.00000E+00
    0.21389E+07         0.64782E+07         0.00000E+00
    0.00000E+00         0.00000E+00         0.15942E+07
 
    0.15049E+07         0.21953E+07         0.00000E+00
    0.21953E+07         0.64754E+07         0.00000E+00
    0.00000E+00         0.00000E+00         0.15961E+07
 
    0.15171E+07         0.22519E+07         0.00000E+00
    0.22519E+07         0.64723E+07         0.00000E+00
    0.00000E+00         0.00000E+00         0.15979E+07
 
    0.15293E+07         0.23088E+07         0.00000E+00
    0.23088E+07         0.64690E+07         0.00000E+00
    0.00000E+00         0.00000E+00         0.15997E+07
 
    0.15415E+07         0.23660E+07         0.00000E+00
    0.23660E+07         0.64653E+07         0.00000E+00
    0.00000E+00         0.00000E+00         0.16014E+07
 
    0.15537E+07         0.24235E+07         0.00000E+00
    0.24235E+07         0.64614E+07         0.00000E+00
    0.00000E+00         0.00000E+00         0.16030E+07
 
    0.15661E+07         0.24813E+07         0.00000E+00
    0.24813E+07         0.64571E+07         0.00000E+00
    0.00000E+00         0.00000E+00         0.16046E+07
 
    0.15785E+07         0.25395E+07         0.00000E+00
    0.25395E+07         0.64525E+07         0.00000E+00
    0.00000E+00         0.00000E+00         0.16062E+07
 
    0.15909E+07         0.25979E+07         0.00000E+00
    0.25979E+07         0.64476E+07         0.00000E+00
    0.00000E+00         0.00000E+00         0.16077E+07
 
    0.16036E+07         0.26566E+07         0.00000E+00
    0.26566E+07         0.64423E+07         0.00000E+00
    0.00000E+00         0.00000E+00         0.16092E+07
 
    0.67432E+06         0.26166E+05         0.00000E+00
    0.26166E+05         0.60962E+07         0.00000E+00
    0.00000E+00         0.00000E+00         0.13541E+07
 
    0.69880E+06         0.78250E+05         0.00000E+00
    0.78250E+05         0.60963E+07         0.00000E+00
    0.00000E+00         0.00000E+00         0.13590E+07
 
    0.72281E+06         0.13024E+06         0.00000E+00
    0.13024E+06         0.60963E+07         0.00000E+00
    0.00000E+00         0.00000E+00         0.13638E+07
 
    0.74636E+06         0.18214E+06         0.00000E+00
    0.18214E+06         0.60964E+07         0.00000E+00
    0.00000E+00         0.00000E+00         0.13686E+07
 
    0.76946E+06         0.23397E+06         0.00000E+00
    0.23397E+06         0.60965E+07         0.00000E+00
    0.00000E+00         0.00000E+00         0.13732E+07
 
    0.79211E+06         0.28573E+06         0.00000E+00
    0.28573E+06         0.60966E+07         0.00000E+00
    0.00000E+00         0.00000E+00         0.13777E+07
 
    0.81432E+06         0.33743E+06         0.00000E+00
    0.33743E+06         0.60968E+07         0.00000E+00
    0.00000E+00         0.00000E+00         0.13822E+07
 
    0.83609E+06         0.38908E+06         0.00000E+00
    0.38908E+06         0.60969E+07         0.00000E+00
    0.00000E+00         0.00000E+00         0.13866E+07
 
    0.85744E+06         0.44069E+06         0.00000E+00
    0.44069E+06         0.60971E+07         0.00000E+00
    0.00000E+00         0.00000E+00         0.13909E+07
 
    0.87837E+06         0.49227E+06         0.00000E+00
    0.49227E+06         0.60972E+07         0.00000E+00
    0.00000E+00         0.00000E+00         0.13951E+07
 
    0.89889E+06         0.54383E+06         0.00000E+00
    0.54383E+06         0.60974E+07         0.00000E+00
    0.00000E+00         0.00000E+00         0.13993E+07
 
    0.91901E+06         0.59537E+06         0.00000E+00
    0.59537E+06         0.60975E+07         0.00000E+00
    0.00000E+00         0.00000E+00         0.14033E+07
 
    0.93874E+06         0.64692E+06         0.00000E+00
    0.64692E+06         0.60976E+07         0.00000E+00
    0.00000E+00         0.00000E+00         0.14073E+07
 
    0.95808E+06         0.69847E+06         0.00000E+00
    0.69847E+06         0.60978E+07         0.00000E+00
    0.00000E+00         0.00000E+00         0.14112E+07
 
    0.97704E+06         0.75003E+06         0.00000E+00
    0.75003E+06         0.60979E+07         0.00000E+00
    0.00000E+00         0.00000E+00         0.14150E+07
 
    0.99563E+06         0.80162E+06         0.00000E+00
    0.80162E+06         0.60979E+07         0.00000E+00
    0.00000E+00         0.00000E+00         0.14187E+07
 
    0.10139E+07         0.85324E+06         0.00000E+00
    0.85324E+06         0.60979E+07         0.00000E+00
    0.00000E+00         0.00000E+00         0.14224E+07
 
    0.10318E+07         0.90490E+06         0.00000E+00
    0.90490E+06         0.60979E+07         0.00000E+00
    0.00000E+00         0.00000E+00         0.14259E+07
 
    0.10493E+07         0.95662E+06         0.00000E+00
    0.95662E+06         0.60979E+07         0.00000E+00
    0.00000E+00         0.00000E+00         0.14294E+07
 
    0.10666E+07         0.10084E+07         0.00000E+00
    0.10084E+07         0.60977E+07         0.00000E+00
    0.00000E+00         0.00000E+00         0.14329E+07
 
    0.10835E+07         0.10602E+07         0.00000E+00
    0.10602E+07         0.60976E+07         0.00000E+00
    0.00000E+00         0.00000E+00         0.14362E+07
 
    0.11001E+07         0.11122E+07         0.00000E+00
    0.11122E+07         0.60973E+07         0.00000E+00
    0.00000E+00         0.00000E+00         0.14395E+07
 
    0.11164E+07         0.11642E+07         0.00000E+00
    0.11642E+07         0.60970E+07         0.00000E+00
    0.00000E+00         0.00000E+00         0.14427E+07
 
    0.11325E+07         0.12163E+07         0.00000E+00
    0.12163E+07         0.60966E+07         0.00000E+00
    0.00000E+00         0.00000E+00         0.14458E+07
 
    0.11482E+07         0.12685E+07         0.00000E+00
    0.12685E+07         0.60961E+07         0.00000E+00
    0.00000E+00         0.00000E+00         0.14489E+07
 
    0.11638E+07         0.13208E+07         0.00000E+00
    0.13208E+07         0.60955E+07         0.00000E+00
    0.00000E+00         0.00000E+00         0.14518E+07
 
    0.11791E+07         0.13732E+07         0.00000E+00
    0.13732E+07         0.60947E+07         0.00000E+00
    0.00000E+00         0.00000E+00         0.14548E+07
 
    0.11941E+07         0.14258E+07         0.00000E+00
    0.14258E+07         0.60939E+07         0.00000E+00
    0.00000E+00         0.00000E+00         0.14576E+07
 
    0.12090E+07         0.14785E+07         0.00000E+00
    0.14785E+07         0.60930E+07         0.00000E+00
    0.00000E+00         0.00000E+00         0.14604E+07
 
    0.12236E+07         0.15313E+07         0.00000E+00
    0.15313E+07         0.60919E+07         0.00000E+00
    0.00000E+00         0.00000E+00         0.14631E+07
 
    0.12381E+07         0.15843E+07         0.00000E+00
    0.15843E+07         0.60906E+07         0.00000E+00
    0.00000E+00         0.00000E+00         0.14657E+07
 
    0.12524E+07         0.16374E+07         0.00000E+00
    0.16374E+07         0.60893E+07         0.00000E+00
    0.00000E+00         0.00000E+00         0.14683E+07
 
    0.12665E+07         0.16907E+07         0.00000E+00
    0.16907E+07         0.60877E+07         0.00000E+00
    0.00000E+00         0.00000E+00         0.14708E+07
 
    0.12805E+07         0.17442E+07         0.00000E+00
    0.17442E+07         0.60860E+07         0.00000E+00
    0.00000E+00         0.00000E+00         0.14733E+07
 
    0.12944E+07         0.17978E+07         0.00000E+00
    0.17978E+07         0.60841E+07         0.00000E+00
    0.00000E+00         0.00000E+00         0.14757E+07
 
    0.13081E+07         0.18517E+07         0.00000E+00
    0.18517E+07         0.60820E+07         0.00000E+00
    0.00000E+00         0.00000E+00         0.14780E+07
 
    0.13218E+07         0.19057E+07         0.00000E+00
    0.19057E+07         0.60797E+07         0.00000E+00
    0.00000E+00         0.00000E+00         0.14803E+07
 
    0.13354E+07         0.19599E+07         0.00000E+00
    0.19599E+07         0.60772E+07         0.00000E+00
    0.00000E+00         0.00000E+00         0.14825E+07
 
    0.13489E+07         0.20143E+07         0.00000E+00
    0.20143E+07         0.60745E+07         0.00000E+00
    0.00000E+00         0.00000E+00         0.14847E+07
 
    0.13624E+07         0.20689E+07         0.00000E+00
    0.20689E+07         0.60715E+07         0.00000E+00
    0.00000E+00         0.00000E+00         0.14868E+07
 
    0.13759E+07         0.21238E+07         0.00000E+00
    0.21238E+07         0.60683E+07         0.00000E+00
    0.00000E+00         0.00000E+00         0.14888E+07
 
    0.13893E+07         0.21788E+07         0.00000E+00
    0.21788E+07         0.60649E+07         0.00000E+00
    0.00000E+00         0.00000E+00         0.14908E+07
 
    0.14028E+07         0.22341E+07         0.00000E+00
    0.22341E+07         0.60612E+07         0.00000E+00
    0.00000E+00         0.00000E+00         0.14928E+07
 
    0.14163E+07         0.22896E+07         0.00000E+00
    0.22896E+07         0.60572E+07         0.00000E+00
    0.00000E+00         0.00000E+00         0.14947E+07
 
    0.14298E+07         0.23453E+07         0.00000E+00
    0.23453E+07         0.60529E+07         0.00000E+00
    0.00000E+00         0.00000E+00         0.14965E+07
 
    0.14434E+07         0.24013E+07         0.00000E+00
    0.24013E+07         0.60483E+07         0.00000E+00
    0.00000E+00         0.00000E+00         0.14983E+07
 
    0.14571E+07         0.24575E+07         0.00000E+00
    0.24575E+07         0.60434E+07         0.00000E+00
    0.00000E+00         0.00000E+00         0.15001E+07
 
    0.14709E+07         0.25140E+07         0.00000E+00
    0.25140E+07         0.60381E+07         0.00000E+00
    0.00000E+00         0.00000E+00         0.15018E+07
 
    0.14848E+07         0.25707E+07         0.00000E+00
    0.25707E+07         0.60325E+07         0.00000E+00
    0.00000E+00         0.00000E+00         0.15035E+07
 
    0.14988E+07         0.26276E+07         0.00000E+00
    0.26276E+07         0.60266E+07         0.00000E+00
    0.00000E+00         0.00000E+00         0.15051E+07
 
    0.55428E+06         0.26232E+05         0.00000E+00
    0.26232E+05         0.57152E+07         0.00000E+00
    0.00000E+00         0.00000E+00         0.12539E+07
 
    0.57822E+06         0.78415E+05         0.00000E+00
    0.78415E+05         0.57152E+07         0.00000E+00
    0.00000E+00         0.00000E+00         0.12587E+07
 
    0.60174E+06         0.13049E+06         0.00000E+00
    0.13049E+06         0.57153E+07         0.00000E+00
    0.00000E+00         0.00000E+00         0.12634E+07
 
    0.62484E+06         0.18246E+06         0.00000E+00
    0.18246E+06         0.57153E+07         0.00000E+00
    0.00000E+00         0.00000E+00         0.12680E+07
 
    0.64754E+06         0.23434E+06         0.00000E+00
    0.23434E+06         0.57153E+07         0.00000E+00
    0.00000E+00         0.00000E+00         0.12726E+07
 
    0.66983E+06         0.28613E+06         0.00000E+00
    0.28613E+06         0.57154E+07         0.00000E+00
    0.00000E+00         0.00000E+00         0.12770E+07
 
    0.69172E+06         0.33784E+06         0.00000E+00
    0.33784E+06         0.57154E+07         0.00000E+00
    0.00000E+00         0.00000E+00         0.12814E+07
 
    0.71322E+06         0.38949E+06         0.00000E+00
    0.38949E+06         0.57154E+07         0.00000E+00
    0.00000E+00         0.00000E+00         0.12857E+07
 
    0.73434E+06         0.44107E+06         0.00000E+00
    0.44107E+06         0.57154E+07         0.00000E+00
    0.00000E+00         0.00000E+00         0.12900E+07
 
    0.75508E+06         0.49260E+06         0.00000E+00
    0.49260E+06         0.57154E+07         0.00000E+00
    0.00000E+00         0.00000E+00         0.12941E+07
 
    0.77546E+06         0.54409E+06         0.00000E+00
    0.54409E+06         0.57154E+07         0.00000E+00
    0.00000E+00         0.00000E+00         0.12982E+07
 
    0.79548E+06         0.59554E+06         0.00000E+00
    0.59554E+06         0.57154E+07         0.00000E+00
    0.00000E+00         0.00000E+00         0.13022E+07
 
    0.81514E+06         0.64696E+06         0.00000E+00
    0.64696E+06         0.57153E+07         0.00000E+00
    0.00000E+00         0.00000E+00         0.13061E+07
 
    0.83447E+06         0.69837E+06         0.00000E+00
    0.69837E+06         0.57152E+07         0.00000E+00
    0.00000E+00         0.00000E+00         0.13099E+07
 
    0.85346E+06         0.74975E+06         0.00000E+00
    0.74975E+06         0.57150E+07         0.00000E+00
    0.00000E+00         0.00000E+00         0.13137E+07
 
    0.87213E+06         0.80114E+06         0.00000E+00
    0.80114E+06         0.57148E+07         0.00000E+00
    0.00000E+00         0.00000E+00         0.13174E+07
 
    0.89048E+06         0.85253E+06         0.00000E+00
    0.85253E+06         0.57146E+07         0.00000E+00
    0.00000E+00         0.00000E+00         0.13210E+07
 
    0.90853E+06         0.90393E+06         0.00000E+00
    0.90393E+06         0.57143E+07         0.00000E+00
    0.00000E+00         0.00000E+00         0.13246E+07
 
    0.92628E+06         0.95534E+06         0.00000E+00
    0.95534E+06         0.57139E+07         0.00000E+00
    0.00000E+00         0.00000E+00         0.13280E+07
 
    0.94375E+06         0.10068E+07         0.00000E+00
    0.10068E+07         0.57135E+07         0.00000E+00
    0.00000E+00         0.00000E+00         0.13314E+07
 
    0.96094E+06         0.10583E+07         0.00000E+00
    0.10583E+07         0.57130E+07         0.00000E+00
    0.00000E+00         0.00000E+00         0.13348E+07
 
    0.97788E+06         0.11098E+07         0.00000E+00
    0.11098E+07         0.57124E+07         0.00000E+00
    0.00000E+00         0.00000E+00         0.13381E+07
 
    0.99456E+06         0.11614E+07         0.00000E+00
    0.11614E+07         0.57117E+07         0.00000E+00
    0.00000E+00         0.00000E+00         0.13413E+07
 
    0.10110E+07         0.12130E+07         0.00000E+00
    0.12130E+07         0.57109E+07         0.00000E+00
    0.00000E+00         0.00000E+00         0.13444E+07
 
    0.10272E+07         0.12647E+07         0.00000E+00
    0.12647E+07         0.57100E+07         0.00000E+00
    0.00000E+00         0.00000E+00         0.13474E+07
 
    0.10432E+07         0.13164E+07         0.00000E+00
    0.13164E+07         0.57090E+07         0.00000E+00
    0.00000E+00         0.00000E+00         0.13504E+07
 
    0.10590E+07         0.13683E+07         0.00000E+00
    0.13683E+07         0.57079E+07         0.00000E+00
    0.00000E+00         0.00000E+00         0.13534E+07
 
    0.10746E+07         0.14202E+07         0.00000E+00
    0.14202E+07         0.57067E+07         0.00000E+00
    0.00000E+00         0.00000E+00         0.13563E+07
 
    0.10900E+07         0.14722E+07         0.00000E+00
    0.14722E+07         0.57053E+07         0.00000E+00
    0.00000E+00         0.00000E+00         0.13591E+07
 
    0.11053E+07         0.15243E+07         0.00000E+00
    0.15243E+07         0.57038E+07         0.00000E+00
    0.00000E+00         0.00000E+00         0.13618E+07
 
    0.11204E+07         0.15766E+07         0.00000E+00
    0.15766E+07         0.57021E+07         0.00000E+00
    0.00000E+00         0.00000E+00         0.13645E+07
 
    0.11354E+07         0.16289E+07         0.00000E+00
    0.16289E+07         0.57002E+07         0.00000E+00
    0.00000E+00         0.00000E+00         0.13671E+07
 
    0.11502E+07         0.16813E+07         0.00000E+00
    0.16813E+07         0.56982E+07         0.00000E+00
    0.00000E+00         0.00000E+00         0.13697E+07
 
    0.11650E+07         0.17339E+07         0.00000E+00
    0.17339E+07         0.56960E+07         0.00000E+00
    0.00000E+00         0.00000E+00         0.13722E+07
 
    0.11796E+07         0.17866E+07         0.00000E+00
    0.17866E+07         0.56937E+07         0.00000E+00
    0.00000E+00         0.00000E+00         0.13747E+07
 
    0.11942E+07         0.18394E+07         0.00000E+00
    0.18394E+07         0.56911E+07         0.00000E+00
    0.00000E+00         0.00000E+00         0.13771E+07
 
    0.12087E+07         0.18924E+07         0.00000E+00
    0.18924E+07         0.56883E+07         0.00000E+00
    0.00000E+00         0.00000E+00         0.13794E+07
 
    0.12231E+07         0.19455E+07         0.00000E+00
    0.19455E+07         0.56853E+07         0.00000E+00
    0.00000E+00         0.00000E+00         0.13817E+07
 
    0.12376E+07         0.19988E+07         0.00000E+00
    0.19988E+07         0.56821E+07         0.00000E+00
    0.00000E+00         0.00000E+00         0.13839E+07
 
    0.12520E+07         0.20522E+07         0.00000E+00
    0.20522E+07         0.56786E+07         0.00000E+00
    0.00000E+00         0.00000E+00         0.13861E+07
 
    0.12664E+07         0.21058E+07         0.00000E+00
    0.21058E+07         0.56749E+07         0.00000E+00
    0.00000E+00         0.00000E+00         0.13883E+07
 
    0.12808E+07         0.21595E+07         0.00000E+00
    0.21595E+07         0.56709E+07         0.00000E+00
    0.00000E+00         0.00000E+00         0.13903E+07
 
    0.12952E+07         0.22134E+07         0.00000E+00
    0.22134E+07         0.56667E+07         0.00000E+00
    0.00000E+00         0.00000E+00         0.13924E+07
 
    0.13097E+07         0.22675E+07         0.00000E+00
    0.22675E+07         0.56622E+07         0.00000E+00
    0.00000E+00         0.00000E+00         0.13944E+07
 
    0.13243E+07         0.23217E+07         0.00000E+00
    0.23217E+07         0.56574E+07         0.00000E+00
    0.00000E+00         0.00000E+00         0.13963E+07
 
    0.13389E+07         0.23762E+07         0.00000E+00
    0.23762E+07         0.56522E+07         0.00000E+00
    0.00000E+00         0.00000E+00         0.13982E+07
 
    0.13537E+07         0.24308E+07         0.00000E+00
    0.24308E+07         0.56468E+07         0.00000E+00
    0.00000E+00         0.00000E+00         0.14001E+07
 
    0.13685E+07         0.24856E+07         0.00000E+00
    0.24856E+07         0.56411E+07         0.00000E+00
    0.00000E+00         0.00000E+00         0.14019E+07
 
    0.13835E+07         0.25406E+07         0.00000E+00
    0.25406E+07         0.56350E+07         0.00000E+00
    0.00000E+00         0.00000E+00         0.14037E+07
 
    0.13987E+07         0.25957E+07         0.00000E+00
    0.25957E+07         0.56286E+07         0.00000E+00
    0.00000E+00         0.00000E+00         0.14054E+07
 
    0.44799E+06         0.26260E+05         0.00000E+00
    0.26260E+05         0.53476E+07         0.00000E+00
    0.00000E+00         0.00000E+00         0.11591E+07
 
    0.47132E+06         0.78465E+05         0.00000E+00
    0.78465E+05         0.53476E+07         0.00000E+00
    0.00000E+00         0.00000E+00         0.11638E+07
 
    0.49427E+06         0.13054E+06         0.00000E+00
    0.13054E+06         0.53476E+07         0.00000E+00
    0.00000E+00         0.00000E+00         0.11684E+07
 
    0.51685E+06         0.18251E+06         0.00000E+00
    0.18251E+06         0.53476E+07         0.00000E+00
    0.00000E+00         0.00000E+00         0.11729E+07
 
    0.53905E+06         0.23436E+06         0.00000E+00
    0.23436E+06         0.53476E+07         0.00000E+00
    0.00000E+00         0.00000E+00         0.11773E+07
 
    0.56088E+06         0.28610E+06         0.00000E+00
    0.28610E+06         0.53476E+07         0.00000E+00
    0.00000E+00         0.00000E+00         0.11817E+07
 
    0.58236E+06         0.33775E+06         0.00000E+00
    0.33775E+06         0.53475E+07         0.00000E+00
    0.00000E+00         0.00000E+00         0.11860E+07
 
    0.60349E+06         0.38932E+06         0.00000E+00
    0.38932E+06         0.53474E+07         0.00000E+00
    0.00000E+00         0.00000E+00         0.11902E+07
 
    0.62427E+06         0.44080E+06         0.00000E+00
    0.44080E+06         0.53473E+07         0.00000E+00
    0.00000E+00         0.00000E+00         0.11943E+07
 
    0.64471E+06         0.49220E+06         0.00000E+00
    0.49220E+06         0.53472E+07         0.00000E+00
    0.00000E+00         0.00000E+00         0.11984E+07
 
    0.66483E+06         0.54354E+06         0.00000E+00
    0.54354E+06         0.53471E+07         0.00000E+00
    0.00000E+00         0.00000E+00         0.12024E+07
 
    0.68462E+06         0.59482E+06         0.00000E+00
    0.59482E+06         0.53469E+07         0.00000E+00
    0.00000E+00         0.00000E+00         0.12063E+07
 
    0.70410E+06         0.64604E+06         0.00000E+00
    0.64604E+06         0.53466E+07         0.00000E+00
    0.00000E+00         0.00000E+00         0.12101E+07
 
    0.72328E+06         0.69722E+06         0.00000E+00
    0.69722E+06         0.53463E+07         0.00000E+00
    0.00000E+00         0.00000E+00         0.12139E+07
 
    0.74216E+06         0.74836E+06         0.00000E+00
    0.74836E+06         0.53460E+07         0.00000E+00
    0.00000E+00         0.00000E+00         0.12176E+07
 
    0.76076E+06         0.79947E+06         0.00000E+00
    0.79947E+06         0.53456E+07         0.00000E+00
    0.00000E+00         0.00000E+00         0.12213E+07
 
    0.77908E+06         0.85055E+06         0.00000E+00
    0.85055E+06         0.53451E+07         0.00000E+00
    0.00000E+00         0.00000E+00         0.12248E+07
 
    0.79713E+06         0.90162E+06         0.00000E+00
    0.90162E+06         0.53446E+07         0.00000E+00
    0.00000E+00         0.00000E+00         0.12283E+07
 
    0.81492E+06         0.95267E+06         0.00000E+00
    0.95267E+06         0.53440E+07         0.00000E+00
    0.00000E+00         0.00000E+00         0.12318E+07
 
    0.83246E+06         0.10037E+07         0.00000E+00
    0.10037E+07         0.53433E+07         0.00000E+00
    0.00000E+00         0.00000E+00         0.12351E+07
 
    0.84976E+06         0.10548E+07         0.00000E+00
    0.10548E+07         0.53425E+07         0.00000E+00
    0.00000E+00         0.00000E+00         0.12385E+07
 
    0.86684E+06         0.11058E+07         0.00000E+00
    0.11058E+07         0.53416E+07         0.00000E+00
    0.00000E+00         0.00000E+00         0.12417E+07
 
    0.88370E+06         0.11569E+07         0.00000E+00
    0.11569E+07         0.53406E+07         0.00000E+00
    0.00000E+00         0.00000E+00         0.12449E+07
 
    0.90036E+06         0.12080E+07         0.00000E+00
    0.12080E+07         0.53396E+07         0.00000E+00
    0.00000E+00         0.00000E+00         0.12480E+07
 
    0.91682E+06         0.12591E+07         0.00000E+00
    0.12591E+07         0.53384E+07         0.00000E+00
    0.00000E+00         0.00000E+00         0.12510E+07
 
    0.93309E+06         0.13103E+07         0.00000E+00
    0.13103E+07         0.53370E+07         0.00000E+00
    0.00000E+00         0.00000E+00         0.12540E+07
 
    0.94920E+06         0.13615E+07         0.00000E+00
    0.13615E+07         0.53356E+07         0.00000E+00
    0.00000E+00         0.00000E+00         0.12570E+07
 
    0.96515E+06         0.14127E+07         0.00000E+00
    0.14127E+07         0.53340E+07         0.00000E+00
    0.00000E+00         0.00000E+00         0.12598E+07
 
    0.98094E+06         0.14640E+07         0.00000E+00
    0.14640E+07         0.53323E+07         0.00000E+00
    0.00000E+00         0.00000E+00         0.12626E+07
 
    0.99661E+06         0.15154E+07         0.00000E+00
    0.15154E+07         0.53304E+07         0.00000E+00
    0.00000E+00         0.00000E+00         0.12654E+07
 
    0.10121E+07         0.15668E+07         0.00000E+00
    0.15668E+07         0.53284E+07         0.00000E+00
    0.00000E+00         0.00000E+00         0.12681E+07
 
    0.10276E+07         0.16183E+07         0.00000E+00
    0.16183E+07         0.53262E+07         0.00000E+00
    0.00000E+00         0.00000E+00         0.12707E+07
 
    0.10429E+07         0.16699E+07         0.00000E+00
    0.16699E+07         0.53238E+07         0.00000E+00
    0.00000E+00         0.00000E+00         0.12733E+07
 
    0.10582E+07         0.17215E+07         0.00000E+00
    0.17215E+07         0.53212E+07         0.00000E+00
    0.00000E+00         0.00000E+00         0.12759E+07
 
    0.10734E+07         0.17732E+07         0.00000E+00
    0.17732E+07         0.53185E+07         0.00000E+00
    0.00000E+00         0.00000E+00         0.12784E+07
 
    0.10885E+07         0.18250E+07         0.00000E+00
    0.18250E+07         0.53155E+07         0.00000E+00
    0.00000E+00         0.00000E+00         0.12808E+07
 
    0.11036E+07         0.18769E+07         0.00000E+00
    0.18769E+07         0.53123E+07         0.00000E+00
    0.00000E+00         0.00000E+00         0.12832E+07
 
    0.11186E+07         0.19289E+07         0.00000E+00
    0.19289E+07         0.53089E+07         0.00000E+00
    0.00000E+00         0.00000E+00         0.12855E+07
 
    0.11337E+07         0.19810E+07         0.00000E+00
    0.19810E+07         0.53053E+07         0.00000E+00
    0.00000E+00         0.00000E+00         0.12878E+07
 
    0.11488E+07         0.20332E+07         0.00000E+00
    0.20332E+07         0.53014E+07         0.00000E+00
    0.00000E+00         0.00000E+00         0.12900E+07
 
    0.11638E+07         0.20855E+07         0.00000E+00
    0.20855E+07         0.52973E+07         0.00000E+00
    0.00000E+00         0.00000E+00         0.12922E+07
 
    0.11789E+07         0.21379E+07         0.00000E+00
    0.21379E+07         0.52930E+07         0.00000E+00
    0.00000E+00         0.00000E+00         0.12944E+07
 
    0.11941E+07         0.21905E+07         0.00000E+00
    0.21905E+07         0.52883E+07         0.00000E+00
    0.00000E+00         0.00000E+00         0.12965E+07
 
    0.12093E+07         0.22431E+07         0.00000E+00
    0.22431E+07         0.52834E+07         0.00000E+00
    0.00000E+00         0.00000E+00         0.12986E+07
 
    0.12246E+07         0.22959E+07         0.00000E+00
    0.22959E+07         0.52782E+07         0.00000E+00
    0.00000E+00         0.00000E+00         0.13006E+07
 
    0.12400E+07         0.23488E+07         0.00000E+00
    0.23488E+07         0.52727E+07         0.00000E+00
    0.00000E+00         0.00000E+00         0.13026E+07
 
    0.12556E+07         0.24018E+07         0.00000E+00
    0.24018E+07         0.52669E+07         0.00000E+00
    0.00000E+00         0.00000E+00         0.13045E+07
 
    0.12712E+07         0.24550E+07         0.00000E+00
    0.24550E+07         0.52608E+07         0.00000E+00
    0.00000E+00         0.00000E+00         0.13064E+07
 
    0.12870E+07         0.25083E+07         0.00000E+00
    0.25083E+07         0.52543E+07         0.00000E+00
    0.00000E+00         0.00000E+00         0.13083E+07
 
    0.13030E+07         0.25617E+07         0.00000E+00
    0.25617E+07         0.52475E+07         0.00000E+00
    0.00000E+00         0.00000E+00         0.13101E+07
 
    0.35477E+06         0.26257E+05         0.00000E+00
    0.26257E+05         0.49931E+07         0.00000E+00
    0.00000E+00         0.00000E+00         0.10696E+07
 
    0.37742E+06         0.78420E+05         0.00000E+00
    0.78420E+05         0.49931E+07         0.00000E+00
    0.00000E+00         0.00000E+00         0.10741E+07
 
    0.39973E+06         0.13044E+06         0.00000E+00
    0.13044E+06         0.49931E+07         0.00000E+00
    0.00000E+00         0.00000E+00         0.10786E+07
 
    0.42169E+06         0.18233E+06         0.00000E+00
    0.18233E+06         0.49930E+07         0.00000E+00
    0.00000E+00         0.00000E+00         0.10829E+07
 
    0.44331E+06         0.23409E+06         0.00000E+00
    0.23409E+06         0.49930E+07         0.00000E+00
    0.00000E+00         0.00000E+00         0.10873E+07
 
    0.46460E+06         0.28573E+06         0.00000E+00
    0.28573E+06         0.49929E+07         0.00000E+00
    0.00000E+00         0.00000E+00         0.10915E+07
 
    0.48556E+06         0.33725E+06         0.00000E+00
    0.33725E+06         0.49928E+07         0.00000E+00
    0.00000E+00         0.00000E+00         0.10957E+07
 
    0.50621E+06         0.38867E+06         0.00000E+00
    0.38867E+06         0.49926E+07         0.00000E+00
    0.00000E+00         0.00000E+00         0.10998E+07
 
    0.52655E+06         0.43998E+06         0.00000E+00
    0.43998E+06         0.49924E+07         0.00000E+00
    0.00000E+00         0.00000E+00         0.11038E+07
 
    0.54659E+06         0.49120E+06         0.00000E+00
    0.49120E+06         0.49922E+07         0.00000E+00
    0.00000E+00         0.00000E+00         0.11078E+07
 
    0.56633E+06         0.54232E+06         0.00000E+00
    0.54232E+06         0.49919E+07         0.00000E+00
    0.00000E+00         0.00000E+00         0.11117E+07
 
    0.58578E+06         0.59337E+06         0.00000E+00
    0.59337E+06         0.49916E+07         0.00000E+00
    0.00000E+00         0.00000E+00         0.11155E+07
 
    0.60495E+06         0.64434E+06         0.00000E+00
    0.64434E+06         0.49912E+07         0.00000E+00
    0.00000E+00         0.00000E+00         0.11192E+07
 
    0.62386E+06         0.69523E+06         0.00000E+00
    0.69523E+06         0.49908E+07         0.00000E+00
    0.00000E+00         0.00000E+00         0.11229E+07
 
    0.64250E+06         0.74607E+06         0.00000E+00
    0.74607E+06         0.49903E+07         0.00000E+00
    0.00000E+00         0.00000E+00         0.11266E+07
 
    0.66088E+06         0.79684E+06         0.00000E+00
    0.79684E+06         0.49897E+07         0.00000E+00
    0.00000E+00         0.00000E+00         0.11301E+07
 
    0.67903E+06         0.84757E+06         0.00000E+00
    0.84757E+06         0.49891E+07         0.00000E+00
    0.00000E+00         0.00000E+00         0.11336E+07
 
    0.69693E+06         0.89824E+06         0.00000E+00
    0.89824E+06         0.49884E+07         0.00000E+00
    0.00000E+00         0.00000E+00         0.11371E+07
 
    0.71461E+06         0.94888E+06         0.00000E+00
    0.94888E+06         0.49876E+07         0.00000E+00
    0.00000E+00         0.00000E+00         0.11404E+07
 
    0.73207E+06         0.99949E+06         0.00000E+00
    0.99949E+06         0.49867E+07         0.00000E+00
    0.00000E+00         0.00000E+00         0.11437E+07
 
    0.74933E+06         0.10501E+07         0.00000E+00
    0.10501E+07         0.49857E+07         0.00000E+00
    0.00000E+00         0.00000E+00         0.11470E+07
 
    0.76639E+06         0.11006E+07         0.00000E+00
    0.11006E+07         0.49846E+07         0.00000E+00
    0.00000E+00         0.00000E+00         0.11502E+07
 
    0.78326E+06         0.11512E+07         0.00000E+00
    0.11512E+07         0.49834E+07         0.00000E+00
    0.00000E+00         0.00000E+00         0.11533E+07
 
    0.79995E+06         0.12017E+07         0.00000E+00
    0.12017E+07         0.49821E+07         0.00000E+00
    0.00000E+00         0.00000E+00         0.11564E+07
 
    0.81648E+06         0.12522E+07         0.00000E+00
    0.12522E+07         0.49806E+07         0.00000E+00
    0.00000E+00         0.00000E+00         0.11594E+07
 
    0.83285E+06         0.13027E+07         0.00000E+00
    0.13027E+07         0.49790E+07         0.00000E+00
    0.00000E+00         0.00000E+00         0.11624E+07
 
    0.84908E+06         0.13532E+07         0.00000E+00
    0.13532E+07         0.49773E+07         0.00000E+00
    0.00000E+00         0.00000E+00         0.11653E+07
 
    0.86518E+06         0.14038E+07         0.00000E+00
    0.14038E+07         0.49755E+07         0.00000E+00
    0.00000E+00         0.00000E+00         0.11681E+07
 
    0.88115E+06         0.14543E+07         0.00000E+00
    0.14543E+07         0.49735E+07         0.00000E+00
    0.00000E+00         0.00000E+00         0.11709E+07
 
    0.89702E+06         0.15049E+07         0.00000E+00
    0.15049E+07         0.49714E+07         0.00000E+00
    0.00000E+00         0.00000E+00         0.11737E+07
 
    0.91279E+06         0.15555E+07         0.00000E+00
    0.15555E+07         0.49690E+07         0.00000E+00
    0.00000E+00         0.00000E+00         0.11764E+07
 
    0.92847E+06         0.16061E+07         0.00000E+00
    0.16061E+07         0.49666E+07         0.00000E+00
    0.00000E+00         0.00000E+00         0.11790E+07
 
    0.94408E+06         0.16567E+07         0.00000E+00
    0.16567E+07         0.49639E+07         0.00000E+00
    0.00000E+00         0.00000E+00         0.11816E+07
 
    0.95963E+06         0.17074E+07         0.00000E+00
    0.17074E+07         0.49610E+07         0.00000E+00
    0.00000E+00         0.00000E+00         0.11841E+07
 
    0.97514E+06         0.17581E+07         0.00000E+00
    0.17581E+07         0.49580E+07         0.00000E+00
    0.00000E+00         0.00000E+00         0.11866E+07
 
    0.99061E+06         0.18089E+07         0.00000E+00
    0.18089E+07         0.49547E+07         0.00000E+00
    0.00000E+00         0.00000E+00         0.11891E+07
 
    0.10061E+07         0.18597E+07         0.00000E+00
    0.18597E+07         0.49513E+07         0.00000E+00
    0.00000E+00         0.00000E+00         0.11915E+07
 
    0.10215E+07         0.19106E+07         0.00000E+00
    0.19106E+07         0.49476E+07         0.00000E+00
    0.00000E+00         0.00000E+00         0.11938E+07
 
    0.10370E+07         0.19615E+07         0.00000E+00
    0.19615E+07         0.49437E+07         0.00000E+00
    0.00000E+00         0.00000E+00         0.11961E+07
 
    0.10524E+07         0.20125E+07         0.00000E+00
    0.20125E+07         0.49395E+07         0.00000E+00
    0.00000E+00         0.00000E+00         0.11984E+07
 
    0.10679E+07         0.20635E+07         0.00000E+00
    0.20635E+07         0.49351E+07         0.00000E+00
    0.00000E+00         0.00000E+00         0.12006E+07
 
    0.10835E+07         0.21147E+07         0.00000E+00
    0.21147E+07         0.49305E+07         0.00000E+00
    0.00000E+00         0.00000E+00         0.12028E+07
 
    0.10991E+07         0.21658E+07         0.00000E+00
    0.21658E+07         0.49256E+07         0.00000E+00
    0.00000E+00         0.00000E+00         0.12049E+07
 
    0.11148E+07         0.22171E+07         0.00000E+00
    0.22171E+07         0.49204E+07         0.00000E+00
    0.00000E+00         0.00000E+00         0.12070E+07
 
    0.11306E+07         0.22684E+07         0.00000E+00
    0.22684E+07         0.49149E+07         0.00000E+00
    0.00000E+00         0.00000E+00         0.12091E+07
 
    0.11465E+07         0.23198E+07         0.00000E+00
    0.23198E+07         0.49091E+07         0.00000E+00
    0.00000E+00         0.00000E+00         0.12111E+07
 
    0.11625E+07         0.23712E+07         0.00000E+00
    0.23712E+07         0.49030E+07         0.00000E+00
    0.00000E+00         0.00000E+00         0.12131E+07
 
    0.11787E+07         0.24228E+07         0.00000E+00
    0.24228E+07         0.48966E+07         0.00000E+00
    0.00000E+00         0.00000E+00         0.12151E+07
 
    0.11950E+07         0.24744E+07         0.00000E+00
    0.24744E+07         0.48899E+07         0.00000E+00
    0.00000E+00         0.00000E+00         0.12170E+07
 
    0.12115E+07         0.25261E+07         0.00000E+00
    0.25261E+07         0.48829E+07         0.00000E+00
    0.00000E+00         0.00000E+00         0.12189E+07
 
    0.27396E+06         0.26228E+05         0.00000E+00
    0.26228E+05         0.46513E+07         0.00000E+00
    0.00000E+00         0.00000E+00         0.98506E+06
 
    0.29585E+06         0.78300E+05         0.00000E+00
    0.78300E+05         0.46513E+07         0.00000E+00
    0.00000E+00         0.00000E+00         0.98943E+06
 
    0.31743E+06         0.13021E+06         0.00000E+00
    0.13021E+06         0.46513E+07         0.00000E+00
    0.00000E+00         0.00000E+00         0.99374E+06
 
    0.33869E+06         0.18198E+06         0.00000E+00
    0.18198E+06         0.46512E+07         0.00000E+00
    0.00000E+00         0.00000E+00         0.99798E+06
 
    0.35964E+06         0.23360E+06         0.00000E+00
    0.23360E+06         0.46511E+07         0.00000E+00
    0.00000E+00         0.00000E+00         0.10021E+07
 
    0.38030E+06         0.28508E+06         0.00000E+00
    0.28508E+06         0.46510E+07         0.00000E+00
    0.00000E+00         0.00000E+00         0.10063E+07
 
    0.40066E+06         0.33642E+06         0.00000E+00
    0.33642E+06         0.46508E+07         0.00000E+00
    0.00000E+00         0.00000E+00         0.10103E+07
 
    0.42073E+06         0.38764E+06         0.00000E+00
    0.38764E+06         0.46506E+07         0.00000E+00
    0.00000E+00         0.00000E+00         0.10143E+07
 
    0.44052E+06         0.43873E+06         0.00000E+00
    0.43873E+06         0.46503E+07         0.00000E+00
    0.00000E+00         0.00000E+00         0.10182E+07
 
    0.46004E+06         0.48971E+06         0.00000E+00
    0.48971E+06         0.46500E+07         0.00000E+00
    0.00000E+00         0.00000E+00         0.10220E+07
 
    0.47930E+06         0.54058E+06         0.00000E+00
    0.54058E+06         0.46496E+07         0.00000E+00
    0.00000E+00         0.00000E+00         0.10258E+07
 
    0.49830E+06         0.59135E+06         0.00000E+00
    0.59135E+06         0.46492E+07         0.00000E+00
    0.00000E+00         0.00000E+00         0.10295E+07
 
    0.51705E+06         0.64201E+06         0.00000E+00
    0.64201E+06         0.46487E+07         0.00000E+00
    0.00000E+00         0.00000E+00         0.10332E+07
 
    0.53555E+06         0.69258E+06         0.00000E+00
    0.69258E+06         0.46482E+07         0.00000E+00
    0.00000E+00         0.00000E+00         0.10368E+07
 
    0.55383E+06         0.74307E+06         0.00000E+00
    0.74307E+06         0.46476E+07         0.00000E+00
    0.00000E+00         0.00000E+00         0.10403E+07
 
    0.57188E+06         0.79347E+06         0.00000E+00
    0.79347E+06         0.46469E+07         0.00000E+00
    0.00000E+00         0.00000E+00         0.10438E+07
 
    0.58971E+06         0.84379E+06         0.00000E+00
    0.84379E+06         0.46461E+07         0.00000E+00
    0.00000E+00         0.00000E+00         0.10472E+07
 
    0.60733E+06         0.89404E+06         0.00000E+00
    0.89404E+06         0.46452E+07         0.00000E+00
    0.00000E+00         0.00000E+00         0.10505E+07
 
    0.62475E+06         0.94422E+06         0.00000E+00
    0.94422E+06         0.46443E+07         0.00000E+00
    0.00000E+00         0.00000E+00         0.10538E+07
 
    0.64199E+06         0.99434E+06         0.00000E+00
    0.99434E+06         0.46432E+07         0.00000E+00
    0.00000E+00         0.00000E+00         0.10570E+07
 
    0.65904E+06         0.10444E+07         0.00000E+00
    0.10444E+07         0.46421E+07         0.00000E+00
    0.00000E+00         0.00000E+00         0.10602E+07
 
    0.67593E+06         0.10944E+07         0.00000E+00
    0.10944E+07         0.46408E+07         0.00000E+00
    0.00000E+00         0.00000E+00         0.10634E+07
 
    0.69265E+06         0.11444E+07         0.00000E+00
    0.11444E+07         0.46395E+07         0.00000E+00
    0.00000E+00         0.00000E+00         0.10664E+07
 
    0.70922E+06         0.11943E+07         0.00000E+00
    0.11943E+07         0.46380E+07         0.00000E+00
    0.00000E+00         0.00000E+00         0.10694E+07
 
    0.72565E+06         0.12442E+07         0.00000E+00
    0.12442E+07         0.46363E+07         0.00000E+00
    0.00000E+00         0.00000E+00         0.10724E+07
 
    0.74194E+06         0.12940E+07         0.00000E+00
    0.12940E+07         0.46346E+07         0.00000E+00
    0.00000E+00         0.00000E+00         0.10753E+07
 
    0.75812E+06         0.13438E+07         0.00000E+00
    0.13438E+07         0.46327E+07         0.00000E+00
    0.00000E+00         0.00000E+00         0.10782E+07
 
    0.77419E+06         0.13936E+07         0.00000E+00
    0.13936E+07         0.46307E+07         0.00000E+00
    0.00000E+00         0.00000E+00         0.10810E+07
 
    0.79016E+06         0.14434E+07         0.00000E+00
    0.14434E+07         0.46285E+07         0.00000E+00
    0.00000E+00         0.00000E+00         0.10837E+07
 
    0.80604E+06         0.14932E+07         0.00000E+00
    0.14932E+07         0.46261E+07         0.00000E+00
    0.00000E+00         0.00000E+00         0.10864E+07
 
    0.82185E+06         0.15429E+07         0.00000E+00
    0.15429E+07         0.46236E+07         0.00000E+00
    0.00000E+00         0.00000E+00         0.10891E+07
 
    0.83759E+06         0.15926E+07         0.00000E+00
    0.15926E+07         0.46209E+07         0.00000E+00
    0.00000E+00         0.00000E+00         0.10917E+07
 
    0.85327E+06         0.16424E+07         0.00000E+00
    0.16424E+07         0.46181E+07         0.00000E+00
    0.00000E+00         0.00000E+00         0.10943E+07
 
    0.86892E+06         0.16921E+07         0.00000E+00
    0.16921E+07         0.46150E+07         0.00000E+00
    0.00000E+00         0.00000E+00         0.10968E+07
 
    0.88454E+06         0.17418E+07         0.00000E+00
    0.17418E+07         0.46117E+07         0.00000E+00
    0.00000E+00         0.00000E+00         0.10993E+07
 
    0.90014E+06         0.17916E+07         0.00000E+00
    0.17916E+07         0.46083E+07         0.00000E+00
    0.00000E+00         0.00000E+00         0.11017E+07
 
    0.91573E+06         0.18413E+07         0.00000E+00
    0.18413E+07         0.46046E+07         0.00000E+00
    0.00000E+00         0.00000E+00         0.11041E+07
 
    0.93134E+06         0.18911E+07         0.00000E+00
    0.18911E+07         0.46007E+07         0.00000E+00
    0.00000E+00         0.00000E+00         0.11064E+07
 
    0.94697E+06         0.19408E+07         0.00000E+00
    0.19408E+07         0.45966E+07         0.00000E+00
    0.00000E+00         0.00000E+00         0.11087E+07
 
    0.96263E+06         0.19906E+07         0.00000E+00
    0.19906E+07         0.45923E+07         0.00000E+00
    0.00000E+00         0.00000E+00         0.11110E+07
 
    0.97833E+06         0.20404E+07         0.00000E+00
    0.20404E+07         0.45877E+07         0.00000E+00
    0.00000E+00         0.00000E+00         0.11132E+07
 
    0.99410E+06         0.20902E+07         0.00000E+00
    0.20902E+07         0.45829E+07         0.00000E+00
    0.00000E+00         0.00000E+00         0.11154E+07
 
    0.10099E+07         0.21400E+07         0.00000E+00
    0.21400E+07         0.45778E+07         0.00000E+00
    0.00000E+00         0.00000E+00         0.11175E+07
 
    0.10259E+07         0.21899E+07         0.00000E+00
    0.21899E+07         0.45724E+07         0.00000E+00
    0.00000E+00         0.00000E+00         0.11197E+07
 
    0.10419E+07         0.22398E+07         0.00000E+00
    0.22398E+07         0.45667E+07         0.00000E+00
    0.00000E+00         0.00000E+00         0.11217E+07
 
    0.10581E+07         0.22897E+07         0.00000E+00
    0.22897E+07         0.45608E+07         0.00000E+00
    0.00000E+00         0.00000E+00         0.11238E+07
 
    0.10744E+07         0.23396E+07         0.00000E+00
    0.23396E+07         0.45545E+07         0.00000E+00
    0.00000E+00         0.00000E+00         0.11258E+07
 
    0.10908E+07         0.23896E+07         0.00000E+00
    0.23896E+07         0.45480E+07         0.00000E+00
    0.00000E+00         0.00000E+00         0.11278E+07
 
    0.11074E+07         0.24396E+07         0.00000E+00
    0.24396E+07         0.45411E+07         0.00000E+00
    0.00000E+00         0.00000E+00         0.11297E+07
 
    0.11241E+07         0.24896E+07         0.00000E+00
    0.24896E+07         0.45340E+07         0.00000E+00
    0.00000E+00         0.00000E+00         0.11316E+07
 
    0.20490E+06         0.26180E+05         0.00000E+00
    0.26180E+05         0.43218E+07         0.00000E+00
    0.00000E+00         0.00000E+00         0.90534E+06
 
    0.22596E+06         0.78120E+05         0.00000E+00
    0.78120E+05         0.43218E+07         0.00000E+00
    0.00000E+00         0.00000E+00         0.90955E+06
 
    0.24672E+06         0.12989E+06         0.00000E+00
    0.12989E+06         0.43217E+07         0.00000E+00
    0.00000E+00         0.00000E+00         0.91369E+06
 
    0.26720E+06         0.18149E+06         0.00000E+00
    0.18149E+06         0.43216E+07         0.00000E+00
    0.00000E+00         0.00000E+00         0.91777E+06
 
    0.28740E+06         0.23292E+06         0.00000E+00
    0.23292E+06         0.43215E+07         0.00000E+00
    0.00000E+00         0.00000E+00         0.92178E+06
 
    0.30733E+06         0.28421E+06         0.00000E+00
    0.28421E+06         0.43213E+07         0.00000E+00
    0.00000E+00         0.00000E+00         0.92573E+06
 
    0.32699E+06         0.33534E+06         0.00000E+00
    0.33534E+06         0.43211E+07         0.00000E+00
    0.00000E+00         0.00000E+00         0.92962E+06
 
    0.34639E+06         0.38632E+06         0.00000E+00
    0.38632E+06         0.43209E+07         0.00000E+00
    0.00000E+00         0.00000E+00         0.93345E+06
 
    0.36554E+06         0.43716E+06         0.00000E+00
    0.43716E+06         0.43205E+07         0.00000E+00
    0.00000E+00         0.00000E+00         0.93722E+06
 
    0.38444E+06         0.48787E+06         0.00000E+00
    0.48787E+06         0.43202E+07         0.00000E+00
    0.00000E+00         0.00000E+00         0.94092E+06
 
    0.40311E+06         0.53845E+06         0.00000E+00
    0.53845E+06         0.43198E+07         0.00000E+00
    0.00000E+00         0.00000E+00         0.94457E+06
 
    0.42154E+06         0.58889E+06         0.00000E+00
    0.58889E+06         0.43193E+07         0.00000E+00
    0.00000E+00         0.00000E+00         0.94816E+06
 
    0.43975E+06         0.63922E+06         0.00000E+00
    0.63922E+06         0.43187E+07         0.00000E+00
    0.00000E+00         0.00000E+00         0.95169E+06
 
    0.45775E+06         0.68943E+06         0.00000E+00
    0.68943E+06         0.43181E+07         0.00000E+00
    0.00000E+00         0.00000E+00         0.95516E+06
 
    0.47553E+06         0.73954E+06         0.00000E+00
    0.73954E+06         0.43174E+07         0.00000E+00
    0.00000E+00         0.00000E+00         0.95858E+06
 
    0.49312E+06         0.78953E+06         0.00000E+00
    0.78953E+06         0.43166E+07         0.00000E+00
    0.00000E+00         0.00000E+00         0.96194E+06
 
    0.51051E+06         0.83942E+06         0.00000E+00
    0.83942E+06         0.43157E+07         0.00000E+00
    0.00000E+00         0.00000E+00         0.96524E+06
 
    0.52772E+06         0.88921E+06         0.00000E+00
    0.88921E+06         0.43147E+07         0.00000E+00
    0.00000E+00         0.00000E+00         0.96849E+06
 
    0.54476E+06         0.93891E+06         0.00000E+00
    0.93891E+06         0.43137E+07         0.00000E+00
    0.00000E+00         0.00000E+00         0.97169E+06
 
    0.56162E+06         0.98853E+06         0.00000E+00
    0.98853E+06         0.43125E+07         0.00000E+00
    0.00000E+00         0.00000E+00         0.97483E+06
 
    0.57834E+06         0.10381E+07         0.00000E+00
    0.10381E+07         0.43113E+07         0.00000E+00
    0.00000E+00         0.00000E+00         0.97792E+06
 
    0.59490E+06         0.10875E+07         0.00000E+00
    0.10875E+07         0.43099E+07         0.00000E+00
    0.00000E+00         0.00000E+00         0.98096E+06
 
    0.61132E+06         0.11369E+07         0.00000E+00
    0.11369E+07         0.43084E+07         0.00000E+00
    0.00000E+00         0.00000E+00         0.98394E+06
 
    0.62761E+06         0.11862E+07         0.00000E+00
    0.11862E+07         0.43068E+07         0.00000E+00
    0.00000E+00         0.00000E+00         0.98688E+06
 
    0.64379E+06         0.12354E+07         0.00000E+00
    0.12354E+07         0.43050E+07         0.00000E+00
    0.00000E+00         0.00000E+00         0.98976E+06
 
    0.65985E+06         0.12846E+07         0.00000E+00
    0.12846E+07         0.43031E+07         0.00000E+00
    0.00000E+00         0.00000E+00         0.99260E+06
 
    0.67581E+06         0.13337E+07         0.00000E+00
    0.13337E+07         0.43011E+07         0.00000E+00
    0.00000E+00         0.00000E+00         0.99539E+06
 
    0.69168E+06         0.13827E+07         0.00000E+00
    0.13827E+07         0.42990E+07         0.00000E+00
    0.00000E+00         0.00000E+00         0.99813E+06
 
    0.70747E+06         0.14317E+07         0.00000E+00
    0.14317E+07         0.42966E+07         0.00000E+00
    0.00000E+00         0.00000E+00         0.10008E+07
 
    0.72319E+06         0.14807E+07         0.00000E+00
    0.14807E+07         0.42942E+07         0.00000E+00
    0.00000E+00         0.00000E+00         0.10035E+07
 
    0.73885E+06         0.15295E+07         0.00000E+00
    0.15295E+07         0.42915E+07         0.00000E+00
    0.00000E+00         0.00000E+00         0.10061E+07
 
    0.75447E+06         0.15784E+07         0.00000E+00
    0.15784E+07         0.42887E+07         0.00000E+00
    0.00000E+00         0.00000E+00         0.10086E+07
 
    0.77005E+06         0.16272E+07         0.00000E+00
    0.16272E+07         0.42857E+07         0.00000E+00
    0.00000E+00         0.00000E+00         0.10112E+07
 
    0.78560E+06         0.16760E+07         0.00000E+00
    0.16760E+07         0.42825E+07         0.00000E+00
    0.00000E+00         0.00000E+00         0.10136E+07
 
    0.80113E+06         0.17247E+07         0.00000E+00
    0.17247E+07         0.42792E+07         0.00000E+00
    0.00000E+00         0.00000E+00         0.10161E+07
 
    0.81667E+06         0.17734E+07         0.00000E+00
    0.17734E+07         0.42756E+07         0.00000E+00
    0.00000E+00         0.00000E+00         0.10184E+07
 
    0.83221E+06         0.18221E+07         0.00000E+00
    0.18221E+07         0.42718E+07         0.00000E+00
    0.00000E+00         0.00000E+00         0.10208E+07
 
    0.84777E+06         0.18707E+07         0.00000E+00
    0.18707E+07         0.42678E+07         0.00000E+00
    0.00000E+00         0.00000E+00         0.10231E+07
 
    0.86336E+06         0.19193E+07         0.00000E+00
    0.19193E+07         0.42636E+07         0.00000E+00
    0.00000E+00         0.00000E+00         0.10254E+07
 
    0.87900E+06         0.19679E+07         0.00000E+00
    0.19679E+07         0.42591E+07         0.00000E+00
    0.00000E+00         0.00000E+00         0.10276E+07
 
    0.89470E+06         0.20165E+07         0.00000E+00
    0.20165E+07         0.42544E+07         0.00000E+00
    0.00000E+00         0.00000E+00         0.10298E+07
 
    0.91047E+06         0.20650E+07         0.00000E+00
    0.20650E+07         0.42495E+07         0.00000E+00
    0.00000E+00         0.00000E+00         0.10320E+07
 
    0.92632E+06         0.21136E+07         0.00000E+00
    0.21136E+07         0.42443E+07         0.00000E+00
    0.00000E+00         0.00000E+00         0.10341E+07
 
    0.94226E+06         0.21621E+07         0.00000E+00
    0.21621E+07         0.42388E+07         0.00000E+00
    0.00000E+00         0.00000E+00         0.10362E+07
 
    0.95831E+06         0.22106E+07         0.00000E+00
    0.22106E+07         0.42331E+07         0.00000E+00
    0.00000E+00         0.00000E+00         0.10383E+07
 
    0.97449E+06         0.22590E+07         0.00000E+00
    0.22590E+07         0.42271E+07         0.00000E+00
    0.00000E+00         0.00000E+00         0.10403E+07
 
    0.99079E+06         0.23075E+07         0.00000E+00
    0.23075E+07         0.42208E+07         0.00000E+00
    0.00000E+00         0.00000E+00         0.10423E+07
 
    0.10073E+07         0.23559E+07         0.00000E+00
    0.23559E+07         0.42142E+07         0.00000E+00
    0.00000E+00         0.00000E+00         0.10443E+07
 
    0.10239E+07         0.24043E+07         0.00000E+00
    0.24043E+07         0.42073E+07         0.00000E+00
    0.00000E+00         0.00000E+00         0.10462E+07
 
    0.10407E+07         0.24527E+07         0.00000E+00
    0.24527E+07         0.42001E+07         0.00000E+00
    0.00000E+00         0.00000E+00         0.10482E+07
 
    0.14694E+06         0.26116E+05         0.00000E+00
    0.26116E+05         0.40041E+07         0.00000E+00
    0.00000E+00         0.00000E+00         0.83020E+06
 
    0.16708E+06         0.77895E+05         0.00000E+00
    0.77895E+05         0.40040E+07         0.00000E+00
    0.00000E+00         0.00000E+00         0.83422E+06
 
    0.18696E+06         0.12949E+06         0.00000E+00
    0.12949E+06         0.40040E+07         0.00000E+00
    0.00000E+00         0.00000E+00         0.83819E+06
 
    0.20658E+06         0.18089E+06         0.00000E+00
    0.18089E+06         0.40039E+07         0.00000E+00
    0.00000E+00         0.00000E+00         0.84209E+06
 
    0.22594E+06         0.23212E+06         0.00000E+00
    0.23212E+06         0.40037E+07         0.00000E+00
    0.00000E+00         0.00000E+00         0.84593E+06
 
    0.24505E+06         0.28318E+06         0.00000E+00
    0.28318E+06         0.40035E+07         0.00000E+00
    0.00000E+00         0.00000E+00         0.84972E+06
 
    0.26393E+06         0.33407E+06         0.00000E+00
    0.33407E+06         0.40033E+07         0.00000E+00
    0.00000E+00         0.00000E+00         0.85344E+06
 
    0.28256E+06         0.38479E+06         0.00000E+00
    0.38479E+06         0.40030E+07         0.00000E+00
    0.00000E+00         0.00000E+00         0.85711E+06
 
    0.30097E+06         0.43535E+06         0.00000E+00
    0.43535E+06         0.40026E+07         0.00000E+00
    0.00000E+00         0.00000E+00         0.86072E+06
 
    0.31916E+06         0.48576E+06         0.00000E+00
    0.48576E+06         0.40022E+07         0.00000E+00
    0.00000E+00         0.00000E+00         0.86428E+06
 
    0.33713E+06         0.53602E+06         0.00000E+00
    0.53602E+06         0.40018E+07         0.00000E+00
    0.00000E+00         0.00000E+00         0.86778E+06
 
    0.35490E+06         0.58613E+06         0.00000E+00
    0.58613E+06         0.40012E+07         0.00000E+00
    0.00000E+00         0.00000E+00         0.87123E+06
 
    0.37246E+06         0.63610E+06         0.00000E+00
    0.63610E+06         0.40006E+07         0.00000E+00
    0.00000E+00         0.00000E+00         0.87462E+06
 
    0.38983E+06         0.68594E+06         0.00000E+00
    0.68594E+06         0.39999E+07         0.00000E+00
    0.00000E+00         0.00000E+00         0.87795E+06
 
    0.40701E+06         0.73563E+06         0.00000E+00
    0.73563E+06         0.39992E+07         0.00000E+00
    0.00000E+00         0.00000E+00         0.88124E+06
 
    0.42402E+06         0.78520E+06         0.00000E+00
    0.78520E+06         0.39983E+07         0.00000E+00
    0.00000E+00         0.00000E+00         0.88447E+06
 
    0.44085E+06         0.83465E+06         0.00000E+00
    0.83465E+06         0.39974E+07         0.00000E+00
    0.00000E+00         0.00000E+00         0.88765E+06
 
    0.45752E+06         0.88397E+06         0.00000E+00
    0.88397E+06         0.39964E+07         0.00000E+00
    0.00000E+00         0.00000E+00         0.89078E+06
 
    0.47404E+06         0.93317E+06         0.00000E+00
    0.93317E+06         0.39952E+07         0.00000E+00
    0.00000E+00         0.00000E+00         0.89385E+06
 
    0.49041E+06         0.98226E+06         0.00000E+00
    0.98226E+06         0.39940E+07         0.00000E+00
    0.00000E+00         0.00000E+00         0.89688E+06
 
    0.50664E+06         0.10312E+07         0.00000E+00
    0.10312E+07         0.39927E+07         0.00000E+00
    0.00000E+00         0.00000E+00         0.89986E+06
 
    0.52275E+06         0.10801E+07         0.00000E+00
    0.10801E+07         0.39912E+07         0.00000E+00
    0.00000E+00         0.00000E+00         0.90279E+06
 
    0.53873E+06         0.11289E+07         0.00000E+00
    0.11289E+07         0.39897E+07         0.00000E+00
    0.00000E+00         0.00000E+00         0.90568E+06
 
    0.55460E+06         0.11776E+07         0.00000E+00
    0.11776E+07         0.39880E+07         0.00000E+00
    0.00000E+00         0.00000E+00         0.90851E+06
 
    0.57037E+06         0.12261E+07         0.00000E+00
    0.12261E+07         0.39861E+07         0.00000E+00
    0.00000E+00         0.00000E+00         0.91130E+06
 
    0.58604E+06         0.12746E+07         0.00000E+00
    0.12746E+07         0.39842E+07         0.00000E+00
    0.00000E+00         0.00000E+00         0.91405E+06
 
    0.60163E+06         0.13230E+07         0.00000E+00
    0.13230E+07         0.39821E+07         0.00000E+00
    0.00000E+00         0.00000E+00         0.91675E+06
 
    0.61715E+06         0.13713E+07         0.00000E+00
    0.13713E+07         0.39799E+07         0.00000E+00
    0.00000E+00         0.00000E+00         0.91940E+06
 
    0.63260E+06         0.14195E+07         0.00000E+00
    0.14195E+07         0.39775E+07         0.00000E+00
    0.00000E+00         0.00000E+00         0.92202E+06
 
    0.64800E+06         0.14676E+07         0.00000E+00
    0.14676E+07         0.39749E+07         0.00000E+00
    0.00000E+00         0.00000E+00         0.92459E+06
 
    0.66335E+06         0.15157E+07         0.00000E+00
    0.15157E+07         0.39722E+07         0.00000E+00
    0.00000E+00         0.00000E+00         0.92711E+06
 
    0.67867E+06         0.15637E+07         0.00000E+00
    0.15637E+07         0.39693E+07         0.00000E+00
    0.00000E+00         0.00000E+00         0.92960E+06
 
    0.69396E+06         0.16116E+07         0.00000E+00
    0.16116E+07         0.39663E+07         0.00000E+00
    0.00000E+00         0.00000E+00         0.93205E+06
 
    0.70924E+06         0.16594E+07         0.00000E+00
    0.16594E+07         0.39630E+07         0.00000E+00
    0.00000E+00         0.00000E+00         0.93446E+06
 
    0.72451E+06         0.17072E+07         0.00000E+00
    0.17072E+07         0.39596E+07         0.00000E+00
    0.00000E+00         0.00000E+00         0.93683E+06
 
    0.73979E+06         0.17549E+07         0.00000E+00
    0.17549E+07         0.39560E+07         0.00000E+00
    0.00000E+00         0.00000E+00         0.93916E+06
 
    0.75509E+06         0.18025E+07         0.00000E+00
    0.18025E+07         0.39522E+07         0.00000E+00
    0.00000E+00         0.00000E+00         0.94145E+06
 
    0.77042E+06         0.18500E+07         0.00000E+00
    0.18500E+07         0.39481E+07         0.00000E+00
    0.00000E+00         0.00000E+00         0.94371E+06
 
    0.78579E+06         0.18975E+07         0.00000E+00
    0.18975E+07         0.39439E+07         0.00000E+00
    0.00000E+00         0.00000E+00         0.94593E+06
 
    0.80122E+06         0.19450E+07         0.00000E+00
    0.19450E+07         0.39394E+07         0.00000E+00
    0.00000E+00         0.00000E+00         0.94812E+06
 
    0.81670E+06         0.19923E+07         0.00000E+00
    0.19923E+07         0.39347E+07         0.00000E+00
    0.00000E+00         0.00000E+00         0.95028E+06
 
    0.83226E+06         0.20397E+07         0.00000E+00
    0.20397E+07         0.39297E+07         0.00000E+00
    0.00000E+00         0.00000E+00         0.95240E+06
 
    0.84791E+06         0.20869E+07         0.00000E+00
    0.20869E+07         0.39246E+07         0.00000E+00
    0.00000E+00         0.00000E+00         0.95449E+06
 
    0.86366E+06         0.21341E+07         0.00000E+00
    0.21341E+07         0.39191E+07         0.00000E+00
    0.00000E+00         0.00000E+00         0.95655E+06
 
    0.87951E+06         0.21812E+07         0.00000E+00
    0.21812E+07         0.39134E+07         0.00000E+00
    0.00000E+00         0.00000E+00         0.95858E+06
 
    0.89550E+06         0.22283E+07         0.00000E+00
    0.22283E+07         0.39074E+07         0.00000E+00
    0.00000E+00         0.00000E+00         0.96058E+06
 
    0.91161E+06         0.22753E+07         0.00000E+00
    0.22753E+07         0.39012E+07         0.00000E+00
    0.00000E+00         0.00000E+00         0.96255E+06
 
    0.92788E+06         0.23223E+07         0.00000E+00
    0.23223E+07         0.38946E+07         0.00000E+00
    0.00000E+00         0.00000E+00         0.96450E+06
 
    0.94431E+06         0.23692E+07         0.00000E+00
    0.23692E+07         0.38878E+07         0.00000E+00
    0.00000E+00         0.00000E+00         0.96642E+06
 
    0.96091E+06         0.24160E+07         0.00000E+00
    0.24160E+07         0.38806E+07         0.00000E+00
    0.00000E+00         0.00000E+00         0.96831E+06
 
    0.99430E+05         0.26042E+05         0.00000E+00
    0.26042E+05         0.36976E+07         0.00000E+00
    0.00000E+00         0.00000E+00         0.75941E+06
 
    0.11859E+06         0.77640E+05         0.00000E+00
    0.77640E+05         0.36976E+07         0.00000E+00
    0.00000E+00         0.00000E+00         0.76323E+06
 
    0.13750E+06         0.12903E+06         0.00000E+00
    0.12903E+06         0.36975E+07         0.00000E+00
    0.00000E+00         0.00000E+00         0.76700E+06
 
    0.15618E+06         0.18023E+06         0.00000E+00
    0.18023E+06         0.36974E+07         0.00000E+00
    0.00000E+00         0.00000E+00         0.77071E+06
 
    0.17462E+06         0.23124E+06         0.00000E+00
    0.23124E+06         0.36972E+07         0.00000E+00
    0.00000E+00         0.00000E+00         0.77437E+06
 
    0.19284E+06         0.28205E+06         0.00000E+00
    0.28205E+06         0.36970E+07         0.00000E+00
    0.00000E+00         0.00000E+00         0.77797E+06
 
    0.21084E+06         0.33268E+06         0.00000E+00
    0.33268E+06         0.36968E+07         0.00000E+00
    0.00000E+00         0.00000E+00         0.78152E+06
 
    0.22862E+06         0.38313E+06         0.00000E+00
    0.38313E+06         0.36965E+07         0.00000E+00
    0.00000E+00         0.00000E+00         0.78502E+06
 
    0.24620E+06         0.43340E+06         0.00000E+00
    0.43340E+06         0.36961E+07         0.00000E+00
    0.00000E+00         0.00000E+00         0.78846E+06
 
    0.26357E+06         0.48349E+06         0.00000E+00
    0.48349E+06         0.36957E+07         0.00000E+00
    0.00000E+00         0.00000E+00         0.79185E+06
 
    0.28075E+06         0.53342E+06         0.00000E+00
    0.53342E+06         0.36952E+07         0.00000E+00
    0.00000E+00         0.00000E+00         0.79518E+06
 
    0.29775E+06         0.58318E+06         0.00000E+00
    0.58318E+06         0.36946E+07         0.00000E+00
    0.00000E+00         0.00000E+00         0.79847E+06
 
    0.31456E+06         0.63278E+06         0.00000E+00
    0.63278E+06         0.36940E+07         0.00000E+00
    0.00000E+00         0.00000E+00         0.80170E+06
 
    0.33120E+06         0.68222E+06         0.00000E+00
    0.68222E+06         0.36932E+07         0.00000E+00
    0.00000E+00         0.00000E+00         0.80489E+06
 
    0.34767E+06         0.73151E+06         0.00000E+00
    0.73151E+06         0.36925E+07         0.00000E+00
    0.00000E+00         0.00000E+00         0.80803E+06
 
    0.36398E+06         0.78064E+06         0.00000E+00
    0.78064E+06         0.36916E+07         0.00000E+00
    0.00000E+00         0.00000E+00         0.81111E+06
 
    0.38014E+06         0.82963E+06         0.00000E+00
    0.82963E+06         0.36906E+07         0.00000E+00
    0.00000E+00         0.00000E+00         0.81415E+06
 
    0.39616E+06         0.87848E+06         0.00000E+00
    0.87848E+06         0.36895E+07         0.00000E+00
    0.00000E+00         0.00000E+00         0.81714E+06
 
    0.41204E+06         0.92718E+06         0.00000E+00
    0.92718E+06         0.36884E+07         0.00000E+00
    0.00000E+00         0.00000E+00         0.82009E+06
 
    0.42779E+06         0.97574E+06         0.00000E+00
    0.97574E+06         0.36871E+07         0.00000E+00
    0.00000E+00         0.00000E+00         0.82298E+06
 
    0.44342E+06         0.10242E+07         0.00000E+00
    0.10242E+07         0.36858E+07         0.00000E+00
    0.00000E+00         0.00000E+00         0.82584E+06
 
    0.45893E+06         0.10725E+07         0.00000E+00
    0.10725E+07         0.36843E+07         0.00000E+00
    0.00000E+00         0.00000E+00         0.82864E+06
 
    0.47434E+06         0.11206E+07         0.00000E+00
    0.11206E+07         0.36827E+07         0.00000E+00
    0.00000E+00         0.00000E+00         0.83141E+06
 
    0.48965E+06         0.11687E+07         0.00000E+00
    0.11687E+07         0.36810E+07         0.00000E+00
    0.00000E+00         0.00000E+00         0.83413E+06
 
    0.50488E+06         0.12166E+07         0.00000E+00
    0.12166E+07         0.36791E+07         0.00000E+00
    0.00000E+00         0.00000E+00         0.83680E+06
 
    0.52003E+06         0.12644E+07         0.00000E+00
    0.12644E+07         0.36772E+07         0.00000E+00
    0.00000E+00         0.00000E+00         0.83944E+06
 
    0.53510E+06         0.13121E+07         0.00000E+00
    0.13121E+07         0.36750E+07         0.00000E+00
    0.00000E+00         0.00000E+00         0.84203E+06
 
    0.55012E+06         0.13597E+07         0.00000E+00
    0.13597E+07         0.36728E+07         0.00000E+00
    0.00000E+00         0.00000E+00         0.84458E+06
 
    0.56508E+06         0.14071E+07         0.00000E+00
    0.14071E+07         0.36704E+07         0.00000E+00
    0.00000E+00         0.00000E+00         0.84709E+06
 
    0.57999E+06         0.14544E+07         0.00000E+00
    0.14544E+07         0.36678E+07         0.00000E+00
    0.00000E+00         0.00000E+00         0.84956E+06
 
    0.59488E+06         0.15017E+07         0.00000E+00
    0.15017E+07         0.36651E+07         0.00000E+00
    0.00000E+00         0.00000E+00         0.85200E+06
 
    0.60974E+06         0.15488E+07         0.00000E+00
    0.15488E+07         0.36622E+07         0.00000E+00
    0.00000E+00         0.00000E+00         0.85439E+06
 
    0.62458E+06         0.15958E+07         0.00000E+00
    0.15958E+07         0.36592E+07         0.00000E+00
    0.00000E+00         0.00000E+00         0.85675E+06
 
    0.63942E+06         0.16427E+07         0.00000E+00
    0.16427E+07         0.36559E+07         0.00000E+00
    0.00000E+00         0.00000E+00         0.85907E+06
 
    0.65427E+06         0.16895E+07         0.00000E+00
    0.16895E+07         0.36525E+07         0.00000E+00
    0.00000E+00         0.00000E+00         0.86136E+06
 
    0.66913E+06         0.17363E+07         0.00000E+00
    0.17363E+07         0.36489E+07         0.00000E+00
    0.00000E+00         0.00000E+00         0.86361E+06
 
    0.68401E+06         0.17829E+07         0.00000E+00
    0.17829E+07         0.36451E+07         0.00000E+00
    0.00000E+00         0.00000E+00         0.86583E+06
 
    0.69893E+06         0.18294E+07         0.00000E+00
    0.18294E+07         0.36411E+07         0.00000E+00
    0.00000E+00         0.00000E+00         0.86801E+06
 
    0.71390E+06         0.18758E+07         0.00000E+00
    0.18758E+07         0.36369E+07         0.00000E+00
    0.00000E+00         0.00000E+00         0.87016E+06
 
    0.72892E+06         0.19221E+07         0.00000E+00
    0.19221E+07         0.36325E+07         0.00000E+00
    0.00000E+00         0.00000E+00         0.87228E+06
 
    0.74401E+06         0.19683E+07         0.00000E+00
    0.19683E+07         0.36278E+07         0.00000E+00
    0.00000E+00         0.00000E+00         0.87437E+06
 
    0.75918E+06         0.20144E+07         0.00000E+00
    0.20144E+07         0.36230E+07         0.00000E+00
    0.00000E+00         0.00000E+00         0.87643E+06
 
    0.77443E+06         0.20605E+07         0.00000E+00
    0.20605E+07         0.36179E+07         0.00000E+00
    0.00000E+00         0.00000E+00         0.87846E+06
 
    0.78979E+06         0.21064E+07         0.00000E+00
    0.21064E+07         0.36125E+07         0.00000E+00
    0.00000E+00         0.00000E+00         0.88046E+06
 
    0.80526E+06         0.21522E+07         0.00000E+00
    0.21522E+07         0.36069E+07         0.00000E+00
    0.00000E+00         0.00000E+00         0.88243E+06
 
    0.82085E+06         0.21980E+07         0.00000E+00
    0.21980E+07         0.36010E+07         0.00000E+00
    0.00000E+00         0.00000E+00         0.88437E+06
 
    0.83658E+06         0.22436E+07         0.00000E+00
    0.22436E+07         0.35949E+07         0.00000E+00
    0.00000E+00         0.00000E+00         0.88629E+06
 
    0.85245E+06         0.22891E+07         0.00000E+00
    0.22891E+07         0.35885E+07         0.00000E+00
    0.00000E+00         0.00000E+00         0.88819E+06
 
    0.86848E+06         0.23346E+07         0.00000E+00
    0.23346E+07         0.35818E+07         0.00000E+00
    0.00000E+00         0.00000E+00         0.89006E+06
 
    0.88467E+06         0.23799E+07         0.00000E+00
    0.23799E+07         0.35748E+07         0.00000E+00
    0.00000E+00         0.00000E+00         0.89190E+06
 
    0.61734E+05         0.25962E+05         0.00000E+00
    0.25962E+05         0.34019E+07         0.00000E+00
    0.00000E+00         0.00000E+00         0.69272E+06
 
    0.79834E+05         0.77368E+05         0.00000E+00
    0.77368E+05         0.34018E+07         0.00000E+00
    0.00000E+00         0.00000E+00         0.69633E+06
 
    0.97712E+05         0.12856E+06         0.00000E+00
    0.12856E+06         0.34018E+07         0.00000E+00
    0.00000E+00         0.00000E+00         0.69990E+06
 
    0.11537E+06         0.17953E+06         0.00000E+00
    0.17953E+06         0.34016E+07         0.00000E+00
    0.00000E+00         0.00000E+00         0.70340E+06
 
    0.13282E+06         0.23030E+06         0.00000E+00
    0.23030E+06         0.34015E+07         0.00000E+00
    0.00000E+00         0.00000E+00         0.70686E+06
 
    0.15006E+06         0.28087E+06         0.00000E+00
    0.28087E+06         0.34013E+07         0.00000E+00
    0.00000E+00         0.00000E+00         0.71027E+06
 
    0.16710E+06         0.33123E+06         0.00000E+00
    0.33123E+06         0.34010E+07         0.00000E+00
    0.00000E+00         0.00000E+00         0.71362E+06
 
    0.18395E+06         0.38139E+06         0.00000E+00
    0.38139E+06         0.34007E+07         0.00000E+00
    0.00000E+00         0.00000E+00         0.71693E+06
 
    0.20061E+06         0.43136E+06         0.00000E+00
    0.43136E+06         0.34003E+07         0.00000E+00
    0.00000E+00         0.00000E+00         0.72018E+06
 
    0.21708E+06         0.48114E+06         0.00000E+00
    0.48114E+06         0.33999E+07         0.00000E+00
    0.00000E+00         0.00000E+00         0.72339E+06
 
    0.23338E+06         0.53073E+06         0.00000E+00
    0.53073E+06         0.33994E+07         0.00000E+00
    0.00000E+00         0.00000E+00         0.72655E+06
 
    0.24951E+06         0.58014E+06         0.00000E+00
    0.58014E+06         0.33988E+07         0.00000E+00
    0.00000E+00         0.00000E+00         0.72966E+06
 
    0.26547E+06         0.62937E+06         0.00000E+00
    0.62937E+06         0.33982E+07         0.00000E+00
    0.00000E+00         0.00000E+00         0.73272E+06
 
    0.28128E+06         0.67842E+06         0.00000E+00
    0.67842E+06         0.33974E+07         0.00000E+00
    0.00000E+00         0.00000E+00         0.73574E+06
 
    0.29694E+06         0.72730E+06         0.00000E+00
    0.72730E+06         0.33966E+07         0.00000E+00
    0.00000E+00         0.00000E+00         0.73871E+06
 
    0.31245E+06         0.77600E+06         0.00000E+00
    0.77600E+06         0.33958E+07         0.00000E+00
    0.00000E+00         0.00000E+00         0.74164E+06
 
    0.32783E+06         0.82454E+06         0.00000E+00
    0.82454E+06         0.33948E+07         0.00000E+00
    0.00000E+00         0.00000E+00         0.74452E+06
 
    0.34308E+06         0.87291E+06         0.00000E+00
    0.87291E+06         0.33937E+07         0.00000E+00
    0.00000E+00         0.00000E+00         0.74736E+06
 
    0.35820E+06         0.92112E+06         0.00000E+00
    0.92112E+06         0.33926E+07         0.00000E+00
    0.00000E+00         0.00000E+00         0.75015E+06
 
    0.37321E+06         0.96916E+06         0.00000E+00
    0.96916E+06         0.33913E+07         0.00000E+00
    0.00000E+00         0.00000E+00         0.75290E+06
 
    0.38812E+06         0.10171E+07         0.00000E+00
    0.10171E+07         0.33899E+07         0.00000E+00
    0.00000E+00         0.00000E+00         0.75561E+06
 
    0.40292E+06         0.10648E+07         0.00000E+00
    0.10648E+07         0.33885E+07         0.00000E+00
    0.00000E+00         0.00000E+00         0.75828E+06
 
    0.41763E+06         0.11124E+07         0.00000E+00
    0.11124E+07         0.33869E+07         0.00000E+00
    0.00000E+00         0.00000E+00         0.76091E+06
 
    0.43226E+06         0.11598E+07         0.00000E+00
    0.11598E+07         0.33852E+07         0.00000E+00
    0.00000E+00         0.00000E+00         0.76349E+06
 
    0.44681E+06         0.12071E+07         0.00000E+00
    0.12071E+07         0.33834E+07         0.00000E+00
    0.00000E+00         0.00000E+00         0.76604E+06
 
    0.46130E+06         0.12542E+07         0.00000E+00
    0.12542E+07         0.33814E+07         0.00000E+00
    0.00000E+00         0.00000E+00         0.76854E+06
 
    0.47572E+06         0.13012E+07         0.00000E+00
    0.13012E+07         0.33793E+07         0.00000E+00
    0.00000E+00         0.00000E+00         0.77101E+06
 
    0.49009E+06         0.13481E+07         0.00000E+00
    0.13481E+07         0.33771E+07         0.00000E+00
    0.00000E+00         0.00000E+00         0.77344E+06
 
    0.50442E+06         0.13948E+07         0.00000E+00
    0.13948E+07         0.33747E+07         0.00000E+00
    0.00000E+00         0.00000E+00         0.77583E+06
 
    0.51872E+06         0.14414E+07         0.00000E+00
    0.14414E+07         0.33722E+07         0.00000E+00
    0.00000E+00         0.00000E+00         0.77819E+06
 
    0.53299E+06         0.14878E+07         0.00000E+00
    0.14878E+07         0.33696E+07         0.00000E+00
    0.00000E+00         0.00000E+00         0.78051E+06
 
    0.54724E+06         0.15341E+07         0.00000E+00
    0.15341E+07         0.33667E+07         0.00000E+00
    0.00000E+00         0.00000E+00         0.78280E+06
 
    0.56149E+06         0.15802E+07         0.00000E+00
    0.15802E+07         0.33637E+07         0.00000E+00
    0.00000E+00         0.00000E+00         0.78505E+06
 
    0.57574E+06         0.16263E+07         0.00000E+00
    0.16263E+07         0.33606E+07         0.00000E+00
    0.00000E+00         0.00000E+00         0.78726E+06
 
    0.58999E+06         0.16722E+07         0.00000E+00
    0.16722E+07         0.33572E+07         0.00000E+00
    0.00000E+00         0.00000E+00         0.78945E+06
 
    0.60427E+06         0.17179E+07         0.00000E+00
    0.17179E+07         0.33537E+07         0.00000E+00
    0.00000E+00         0.00000E+00         0.79160E+06
 
    0.61858E+06         0.17636E+07         0.00000E+00
    0.17636E+07         0.33500E+07         0.00000E+00
    0.00000E+00         0.00000E+00         0.79372E+06
 
    0.63292E+06         0.18091E+07         0.00000E+00
    0.18091E+07         0.33461E+07         0.00000E+00
    0.00000E+00         0.00000E+00         0.79581E+06
 
    0.64732E+06         0.18544E+07         0.00000E+00
    0.18544E+07         0.33420E+07         0.00000E+00
    0.00000E+00         0.00000E+00         0.79787E+06
 
    0.66177E+06         0.18997E+07         0.00000E+00
    0.18997E+07         0.33377E+07         0.00000E+00
    0.00000E+00         0.00000E+00         0.79990E+06
 
    0.67630E+06         0.19448E+07         0.00000E+00
    0.19448E+07         0.33332E+07         0.00000E+00
    0.00000E+00         0.00000E+00         0.80190E+06
 
    0.69090E+06         0.19898E+07         0.00000E+00
    0.19898E+07         0.33285E+07         0.00000E+00
    0.00000E+00         0.00000E+00         0.80387E+06
 
    0.70559E+06         0.20346E+07         0.00000E+00
    0.20346E+07         0.33235E+07         0.00000E+00
    0.00000E+00         0.00000E+00         0.80582E+06
 
    0.72038E+06         0.20794E+07         0.00000E+00
    0.20794E+07         0.33183E+07         0.00000E+00
    0.00000E+00         0.00000E+00         0.80774E+06
 
    0.73527E+06         0.21240E+07         0.00000E+00
    0.21240E+07         0.33129E+07         0.00000E+00
    0.00000E+00         0.00000E+00         0.80963E+06
 
    0.75029E+06         0.21684E+07         0.00000E+00
    0.21684E+07         0.33072E+07         0.00000E+00
    0.00000E+00         0.00000E+00         0.81150E+06
 
    0.76544E+06         0.22127E+07         0.00000E+00
    0.22127E+07         0.33013E+07         0.00000E+00
    0.00000E+00         0.00000E+00         0.81335E+06
 
    0.78073E+06         0.22569E+07         0.00000E+00
    0.22569E+07         0.32951E+07         0.00000E+00
    0.00000E+00         0.00000E+00         0.81517E+06
 
    0.79617E+06         0.23010E+07         0.00000E+00
    0.23010E+07         0.32887E+07         0.00000E+00
    0.00000E+00         0.00000E+00         0.81697E+06
 
    0.81178E+06         0.23449E+07         0.00000E+00
    0.23449E+07         0.32819E+07         0.00000E+00
    0.00000E+00         0.00000E+00         0.81874E+06
 
    0.33217E+05         0.25880E+05         0.00000E+00
    0.25880E+05         0.31162E+07         0.00000E+00
    0.00000E+00         0.00000E+00         0.62989E+06
 
    0.50194E+05         0.77091E+05         0.00000E+00
    0.77091E+05         0.31162E+07         0.00000E+00
    0.00000E+00         0.00000E+00         0.63328E+06
 
    0.66966E+05         0.12807E+06         0.00000E+00
    0.12807E+06         0.31161E+07         0.00000E+00
    0.00000E+00         0.00000E+00         0.63662E+06
 
    0.83538E+05         0.17883E+06         0.00000E+00
    0.17883E+06         0.31160E+07         0.00000E+00
    0.00000E+00         0.00000E+00         0.63991E+06
 
    0.99916E+05         0.22936E+06         0.00000E+00
    0.22936E+06         0.31159E+07         0.00000E+00
    0.00000E+00         0.00000E+00         0.64316E+06
 
    0.11611E+06         0.27967E+06         0.00000E+00
    0.27967E+06         0.31157E+07         0.00000E+00
    0.00000E+00         0.00000E+00         0.64635E+06
 
    0.13211E+06         0.32977E+06         0.00000E+00
    0.32977E+06         0.31154E+07         0.00000E+00
    0.00000E+00         0.00000E+00         0.64950E+06
 
    0.14794E+06         0.37965E+06         0.00000E+00
    0.37965E+06         0.31151E+07         0.00000E+00
    0.00000E+00         0.00000E+00         0.65260E+06
 
    0.16359E+06         0.42933E+06         0.00000E+00
    0.42933E+06         0.31147E+07         0.00000E+00
    0.00000E+00         0.00000E+00         0.65566E+06
 
    0.17908E+06         0.47880E+06         0.00000E+00
    0.47880E+06         0.31143E+07         0.00000E+00
    0.00000E+00         0.00000E+00         0.65867E+06
 
    0.19441E+06         0.52806E+06         0.00000E+00
    0.52806E+06         0.31138E+07         0.00000E+00
    0.00000E+00         0.00000E+00         0.66164E+06
 
    0.20958E+06         0.57712E+06         0.00000E+00
    0.57712E+06         0.31132E+07         0.00000E+00
    0.00000E+00         0.00000E+00         0.66456E+06
 
    0.22461E+06         0.62598E+06         0.00000E+00
    0.62598E+06         0.31126E+07         0.00000E+00
    0.00000E+00         0.00000E+00         0.66744E+06
 
    0.23949E+06         0.67465E+06         0.00000E+00
    0.67465E+06         0.31119E+07         0.00000E+00
    0.00000E+00         0.00000E+00         0.67027E+06
 
    0.25423E+06         0.72313E+06         0.00000E+00
    0.72313E+06         0.31111E+07         0.00000E+00
    0.00000E+00         0.00000E+00         0.67307E+06
 
    0.26885E+06         0.77141E+06         0.00000E+00
    0.77141E+06         0.31102E+07         0.00000E+00
    0.00000E+00         0.00000E+00         0.67582E+06
 
    0.28334E+06         0.81951E+06         0.00000E+00
    0.81951E+06         0.31093E+07         0.00000E+00
    0.00000E+00         0.00000E+00         0.67853E+06
 
    0.29772E+06         0.86742E+06         0.00000E+00
    0.86742E+06         0.31083E+07         0.00000E+00
    0.00000E+00         0.00000E+00         0.68120E+06
 
    0.31198E+06         0.91515E+06         0.00000E+00
    0.91515E+06         0.31071E+07         0.00000E+00
    0.00000E+00         0.00000E+00         0.68382E+06
 
    0.32615E+06         0.96269E+06         0.00000E+00
    0.96269E+06         0.31059E+07         0.00000E+00
    0.00000E+00         0.00000E+00         0.68641E+06
 
    0.34022E+06         0.10101E+07         0.00000E+00
    0.10101E+07         0.31046E+07         0.00000E+00
    0.00000E+00         0.00000E+00         0.68896E+06
 
    0.35419E+06         0.10572E+07         0.00000E+00
    0.10572E+07         0.31032E+07         0.00000E+00
    0.00000E+00         0.00000E+00         0.69147E+06
 
    0.36809E+06         0.11043E+07         0.00000E+00
    0.11043E+07         0.31016E+07         0.00000E+00
    0.00000E+00         0.00000E+00         0.69395E+06
 
    0.38192E+06         0.11511E+07         0.00000E+00
    0.11511E+07         0.31000E+07         0.00000E+00
    0.00000E+00         0.00000E+00         0.69638E+06
 
    0.39567E+06         0.11978E+07         0.00000E+00
    0.11978E+07         0.30982E+07         0.00000E+00
    0.00000E+00         0.00000E+00         0.69878E+06
 
    0.40937E+06         0.12443E+07         0.00000E+00
    0.12443E+07         0.30963E+07         0.00000E+00
    0.00000E+00         0.00000E+00         0.70114E+06
 
    0.42302E+06         0.12906E+07         0.00000E+00
    0.12906E+07         0.30943E+07         0.00000E+00
    0.00000E+00         0.00000E+00         0.70347E+06
 
    0.43662E+06         0.13368E+07         0.00000E+00
    0.13368E+07         0.30922E+07         0.00000E+00
    0.00000E+00         0.00000E+00         0.70576E+06
 
    0.45019E+06         0.13828E+07         0.00000E+00
    0.13828E+07         0.30899E+07         0.00000E+00
    0.00000E+00         0.00000E+00         0.70802E+06
 
    0.46373E+06         0.14286E+07         0.00000E+00
    0.14286E+07         0.30875E+07         0.00000E+00
    0.00000E+00         0.00000E+00         0.71024E+06
 
    0.47725E+06         0.14743E+07         0.00000E+00
    0.14743E+07         0.30849E+07         0.00000E+00
    0.00000E+00         0.00000E+00         0.71243E+06
 
    0.49075E+06         0.15198E+07         0.00000E+00
    0.15198E+07         0.30822E+07         0.00000E+00
    0.00000E+00         0.00000E+00         0.71459E+06
 
    0.50426E+06         0.15651E+07         0.00000E+00
    0.15651E+07         0.30793E+07         0.00000E+00
    0.00000E+00         0.00000E+00         0.71671E+06
 
    0.51777E+06         0.16103E+07         0.00000E+00
    0.16103E+07         0.30763E+07         0.00000E+00
    0.00000E+00         0.00000E+00         0.71881E+06
 
    0.53130E+06         0.16553E+07         0.00000E+00
    0.16553E+07         0.30731E+07         0.00000E+00
    0.00000E+00         0.00000E+00         0.72087E+06
 
    0.54484E+06         0.17002E+07         0.00000E+00
    0.17002E+07         0.30697E+07         0.00000E+00
    0.00000E+00         0.00000E+00         0.72291E+06
 
    0.55842E+06         0.17449E+07         0.00000E+00
    0.17449E+07         0.30661E+07         0.00000E+00
    0.00000E+00         0.00000E+00         0.72491E+06
 
    0.57204E+06         0.17895E+07         0.00000E+00
    0.17895E+07         0.30624E+07         0.00000E+00
    0.00000E+00         0.00000E+00         0.72689E+06
 
    0.58571E+06         0.18339E+07         0.00000E+00
    0.18339E+07         0.30585E+07         0.00000E+00
    0.00000E+00         0.00000E+00         0.72884E+06
 
    0.59944E+06         0.18781E+07         0.00000E+00
    0.18781E+07         0.30544E+07         0.00000E+00
    0.00000E+00         0.00000E+00         0.73076E+06
 
    0.61324E+06         0.19221E+07         0.00000E+00
    0.19221E+07         0.30500E+07         0.00000E+00
    0.00000E+00         0.00000E+00         0.73266E+06
 
    0.62711E+06         0.19660E+07         0.00000E+00
    0.19660E+07         0.30455E+07         0.00000E+00
    0.00000E+00         0.00000E+00         0.73453E+06
 
    0.64107E+06         0.20098E+07         0.00000E+00
    0.20098E+07         0.30408E+07         0.00000E+00
    0.00000E+00         0.00000E+00         0.73637E+06
 
    0.65513E+06         0.20534E+07         0.00000E+00
    0.20534E+07         0.30358E+07         0.00000E+00
    0.00000E+00         0.00000E+00         0.73819E+06
 
    0.66929E+06         0.20968E+07         0.00000E+00
    0.20968E+07         0.30307E+07         0.00000E+00
    0.00000E+00         0.00000E+00         0.73999E+06
 
    0.68356E+06         0.21400E+07         0.00000E+00
    0.21400E+07         0.30252E+07         0.00000E+00
    0.00000E+00         0.00000E+00         0.74176E+06
 
    0.69797E+06         0.21831E+07         0.00000E+00
    0.21831E+07         0.30196E+07         0.00000E+00
    0.00000E+00         0.00000E+00         0.74351E+06
 
    0.71250E+06         0.22261E+07         0.00000E+00
    0.22261E+07         0.30137E+07         0.00000E+00
    0.00000E+00         0.00000E+00         0.74524E+06
 
    0.72718E+06         0.22688E+07         0.00000E+00
    0.22688E+07         0.30076E+07         0.00000E+00
    0.00000E+00         0.00000E+00         0.74695E+06
 
    0.74202E+06         0.23114E+07         0.00000E+00
    0.23114E+07         0.30012E+07         0.00000E+00
    0.00000E+00         0.00000E+00         0.74864E+06
 
    0.13252E+05         0.25799E+05         0.00000E+00
    0.25799E+05         0.28401E+07         0.00000E+00
    0.00000E+00         0.00000E+00         0.57067E+06
 
    0.29041E+05         0.76821E+05         0.00000E+00
    0.76821E+05         0.28401E+07         0.00000E+00
    0.00000E+00         0.00000E+00         0.57382E+06
 
    0.44642E+05         0.12760E+06         0.00000E+00
    0.12760E+06         0.28400E+07         0.00000E+00
    0.00000E+00         0.00000E+00         0.57693E+06
 
    0.60060E+05         0.17814E+06         0.00000E+00
    0.17814E+06         0.28399E+07         0.00000E+00
    0.00000E+00         0.00000E+00         0.57999E+06
 
    0.75298E+05         0.22845E+06         0.00000E+00
    0.22845E+06         0.28397E+07         0.00000E+00
    0.00000E+00         0.00000E+00         0.58301E+06
 
    0.90363E+05         0.27852E+06         0.00000E+00
    0.27852E+06         0.28395E+07         0.00000E+00
    0.00000E+00         0.00000E+00         0.58598E+06
 
    0.10526E+06         0.32836E+06         0.00000E+00
    0.32836E+06         0.28393E+07         0.00000E+00
    0.00000E+00         0.00000E+00         0.58891E+06
 
    0.11999E+06         0.37797E+06         0.00000E+00
    0.37797E+06         0.28390E+07         0.00000E+00
    0.00000E+00         0.00000E+00         0.59180E+06
 
    0.13457E+06         0.42736E+06         0.00000E+00
    0.42736E+06         0.28386E+07         0.00000E+00
    0.00000E+00         0.00000E+00         0.59464E+06
 
    0.14899E+06         0.47653E+06         0.00000E+00
    0.47653E+06         0.28382E+07         0.00000E+00
    0.00000E+00         0.00000E+00         0.59744E+06
 
    0.16326E+06         0.52548E+06         0.00000E+00
    0.52548E+06         0.28378E+07         0.00000E+00
    0.00000E+00         0.00000E+00         0.60020E+06
 
    0.17740E+06         0.57421E+06         0.00000E+00
    0.57421E+06         0.28372E+07         0.00000E+00
    0.00000E+00         0.00000E+00         0.60292E+06
 
    0.19139E+06         0.62272E+06         0.00000E+00
    0.62272E+06         0.28366E+07         0.00000E+00
    0.00000E+00         0.00000E+00         0.60560E+06
 
    0.20526E+06         0.67102E+06         0.00000E+00
    0.67102E+06         0.28360E+07         0.00000E+00
    0.00000E+00         0.00000E+00         0.60824E+06
 
    0.21900E+06         0.71911E+06         0.00000E+00
    0.71911E+06         0.28352E+07         0.00000E+00
    0.00000E+00         0.00000E+00         0.61084E+06
 
    0.23263E+06         0.76700E+06         0.00000E+00
    0.76700E+06         0.28344E+07         0.00000E+00
    0.00000E+00         0.00000E+00         0.61340E+06
 
    0.24614E+06         0.81467E+06         0.00000E+00
    0.81467E+06         0.28335E+07         0.00000E+00
    0.00000E+00         0.00000E+00         0.61593E+06
 
    0.25954E+06         0.86215E+06         0.00000E+00
    0.86215E+06         0.28325E+07         0.00000E+00
    0.00000E+00         0.00000E+00         0.61841E+06
 
    0.27285E+06         0.90942E+06         0.00000E+00
    0.90942E+06         0.28315E+07         0.00000E+00
    0.00000E+00         0.00000E+00         0.62086E+06
 
    0.28606E+06         0.95648E+06         0.00000E+00
    0.95648E+06         0.28303E+07         0.00000E+00
    0.00000E+00         0.00000E+00         0.62327E+06
 
    0.29919E+06         0.10034E+07         0.00000E+00
    0.10034E+07         0.28291E+07         0.00000E+00
    0.00000E+00         0.00000E+00         0.62565E+06
 
    0.31224E+06         0.10500E+07         0.00000E+00
    0.10500E+07         0.28277E+07         0.00000E+00
    0.00000E+00         0.00000E+00         0.62799E+06
 
    0.32521E+06         0.10965E+07         0.00000E+00
    0.10965E+07         0.28263E+07         0.00000E+00
    0.00000E+00         0.00000E+00         0.63029E+06
 
    0.33812E+06         0.11428E+07         0.00000E+00
    0.11428E+07         0.28247E+07         0.00000E+00
    0.00000E+00         0.00000E+00         0.63256E+06
 
    0.35097E+06         0.11889E+07         0.00000E+00
    0.11889E+07         0.28230E+07         0.00000E+00
    0.00000E+00         0.00000E+00         0.63480E+06
 
    0.36376E+06         0.12348E+07         0.00000E+00
    0.12348E+07         0.28212E+07         0.00000E+00
    0.00000E+00         0.00000E+00         0.63700E+06
 
    0.37651E+06         0.12805E+07         0.00000E+00
    0.12805E+07         0.28193E+07         0.00000E+00
    0.00000E+00         0.00000E+00         0.63917E+06
 
    0.38923E+06         0.13260E+07         0.00000E+00
    0.13260E+07         0.28173E+07         0.00000E+00
    0.00000E+00         0.00000E+00         0.64131E+06
 
    0.40191E+06         0.13713E+07         0.00000E+00
    0.13713E+07         0.28152E+07         0.00000E+00
    0.00000E+00         0.00000E+00         0.64341E+06
 
    0.41457E+06         0.14165E+07         0.00000E+00
    0.14165E+07         0.28129E+07         0.00000E+00
    0.00000E+00         0.00000E+00         0.64549E+06
 
    0.42721E+06         0.14614E+07         0.00000E+00
    0.14614E+07         0.28105E+07         0.00000E+00
    0.00000E+00         0.00000E+00         0.64753E+06
 
    0.43984E+06         0.15062E+07         0.00000E+00
    0.15062E+07         0.28079E+07         0.00000E+00
    0.00000E+00         0.00000E+00         0.64955E+06
 
    0.45248E+06         0.15508E+07         0.00000E+00
    0.15508E+07         0.28052E+07         0.00000E+00
    0.00000E+00         0.00000E+00         0.65153E+06
 
    0.46512E+06         0.15951E+07         0.00000E+00
    0.15951E+07         0.28023E+07         0.00000E+00
    0.00000E+00         0.00000E+00         0.65349E+06
 
    0.47778E+06         0.16394E+07         0.00000E+00
    0.16394E+07         0.27993E+07         0.00000E+00
    0.00000E+00         0.00000E+00         0.65542E+06
 
    0.49046E+06         0.16834E+07         0.00000E+00
    0.16834E+07         0.27961E+07         0.00000E+00
    0.00000E+00         0.00000E+00         0.65732E+06
 
    0.50317E+06         0.17272E+07         0.00000E+00
    0.17272E+07         0.27928E+07         0.00000E+00
    0.00000E+00         0.00000E+00         0.65919E+06
 
    0.51593E+06         0.17708E+07         0.00000E+00
    0.17708E+07         0.27893E+07         0.00000E+00
    0.00000E+00         0.00000E+00         0.66104E+06
 
    0.52873E+06         0.18143E+07         0.00000E+00
    0.18143E+07         0.27856E+07         0.00000E+00
    0.00000E+00         0.00000E+00         0.66286E+06
 
    0.54159E+06         0.18576E+07         0.00000E+00
    0.18576E+07         0.27817E+07         0.00000E+00
    0.00000E+00         0.00000E+00         0.66466E+06
 
    0.55451E+06         0.19007E+07         0.00000E+00
    0.19007E+07         0.27776E+07         0.00000E+00
    0.00000E+00         0.00000E+00         0.66643E+06
 
    0.56751E+06         0.19436E+07         0.00000E+00
    0.19436E+07         0.27734E+07         0.00000E+00
    0.00000E+00         0.00000E+00         0.66818E+06
 
    0.58059E+06         0.19863E+07         0.00000E+00
    0.19863E+07         0.27689E+07         0.00000E+00
    0.00000E+00         0.00000E+00         0.66991E+06
 
    0.59376E+06         0.20288E+07         0.00000E+00
    0.20288E+07         0.27643E+07         0.00000E+00
    0.00000E+00         0.00000E+00         0.67161E+06
 
    0.60703E+06         0.20711E+07         0.00000E+00
    0.20711E+07         0.27594E+07         0.00000E+00
    0.00000E+00         0.00000E+00         0.67329E+06
 
    0.62041E+06         0.21132E+07         0.00000E+00
    0.21132E+07         0.27544E+07         0.00000E+00
    0.00000E+00         0.00000E+00         0.67495E+06
 
    0.63390E+06         0.21551E+07         0.00000E+00
    0.21551E+07         0.27491E+07         0.00000E+00
    0.00000E+00         0.00000E+00         0.67659E+06
 
    0.64753E+06         0.21969E+07         0.00000E+00
    0.21969E+07         0.27435E+07         0.00000E+00
    0.00000E+00         0.00000E+00         0.67821E+06
 
    0.66129E+06         0.22384E+07         0.00000E+00
    0.22384E+07         0.27378E+07         0.00000E+00
    0.00000E+00         0.00000E+00         0.67981E+06
 
    0.67519E+06         0.22798E+07         0.00000E+00
    0.22798E+07         0.27318E+07         0.00000E+00
    0.00000E+00         0.00000E+00         0.68139E+06
 
    0.12141E+04         0.25724E+05         0.00000E+00
    0.25724E+05         0.25728E+07         0.00000E+00
    0.00000E+00         0.00000E+00         0.51480E+06
 
    0.15757E+05         0.76569E+05         0.00000E+00
    0.76569E+05         0.25727E+07         0.00000E+00
    0.00000E+00         0.00000E+00         0.51770E+06
 
    0.30126E+05         0.12716E+06         0.00000E+00
    0.12716E+06         0.25727E+07         0.00000E+00
    0.00000E+00         0.00000E+00         0.52056E+06
 
    0.44325E+05         0.17750E+06         0.00000E+00
    0.17750E+06         0.25726E+07         0.00000E+00
    0.00000E+00         0.00000E+00         0.52338E+06
 
    0.58359E+05         0.22759E+06         0.00000E+00
    0.22759E+06         0.25724E+07         0.00000E+00
    0.00000E+00         0.00000E+00         0.52616E+06
 
    0.72232E+05         0.27744E+06         0.00000E+00
    0.27744E+06         0.25723E+07         0.00000E+00
    0.00000E+00         0.00000E+00         0.52890E+06
 
    0.85950E+05         0.32704E+06         0.00000E+00
    0.32704E+06         0.25720E+07         0.00000E+00
    0.00000E+00         0.00000E+00         0.53159E+06
 
    0.99517E+05         0.37641E+06         0.00000E+00
    0.37641E+06         0.25718E+07         0.00000E+00
    0.00000E+00         0.00000E+00         0.53425E+06
 
    0.11294E+06         0.42553E+06         0.00000E+00
    0.42553E+06         0.25714E+07         0.00000E+00
    0.00000E+00         0.00000E+00         0.53687E+06
 
    0.12622E+06         0.47441E+06         0.00000E+00
    0.47441E+06         0.25711E+07         0.00000E+00
    0.00000E+00         0.00000E+00         0.53945E+06
 
    0.13936E+06         0.52307E+06         0.00000E+00
    0.52307E+06         0.25706E+07         0.00000E+00
    0.00000E+00         0.00000E+00         0.54200E+06
 
    0.15237E+06         0.57148E+06         0.00000E+00
    0.57148E+06         0.25701E+07         0.00000E+00
    0.00000E+00         0.00000E+00         0.54450E+06
 
    0.16526E+06         0.61967E+06         0.00000E+00
    0.61967E+06         0.25696E+07         0.00000E+00
    0.00000E+00         0.00000E+00         0.54697E+06
 
    0.17803E+06         0.66763E+06         0.00000E+00
    0.66763E+06         0.25690E+07         0.00000E+00
    0.00000E+00         0.00000E+00         0.54940E+06
 
    0.19068E+06         0.71537E+06         0.00000E+00
    0.71537E+06         0.25683E+07         0.00000E+00
    0.00000E+00         0.00000E+00         0.55180E+06
 
    0.20323E+06         0.76287E+06         0.00000E+00
    0.76287E+06         0.25675E+07         0.00000E+00
    0.00000E+00         0.00000E+00         0.55415E+06
 
    0.21567E+06         0.81016E+06         0.00000E+00
    0.81016E+06         0.25667E+07         0.00000E+00
    0.00000E+00         0.00000E+00         0.55648E+06
 
    0.22802E+06         0.85722E+06         0.00000E+00
    0.85722E+06         0.25658E+07         0.00000E+00
    0.00000E+00         0.00000E+00         0.55877E+06
 
    0.24027E+06         0.90407E+06         0.00000E+00
    0.90407E+06         0.25648E+07         0.00000E+00
    0.00000E+00         0.00000E+00         0.56102E+06
 
    0.25244E+06         0.95069E+06         0.00000E+00
    0.95069E+06         0.25638E+07         0.00000E+00
    0.00000E+00         0.00000E+00         0.56324E+06
 
    0.26453E+06         0.99710E+06         0.00000E+00
    0.99710E+06         0.25626E+07         0.00000E+00
    0.00000E+00         0.00000E+00         0.56543E+06
 
    0.27654E+06         0.10433E+07         0.00000E+00
    0.10433E+07         0.25614E+07         0.00000E+00
    0.00000E+00         0.00000E+00         0.56759E+06
 
    0.28849E+06         0.10893E+07         0.00000E+00
    0.10893E+07         0.25600E+07         0.00000E+00
    0.00000E+00         0.00000E+00         0.56971E+06
 
    0.30038E+06         0.11350E+07         0.00000E+00
    0.11350E+07         0.25586E+07         0.00000E+00
    0.00000E+00         0.00000E+00         0.57180E+06
 
    0.31221E+06         0.11806E+07         0.00000E+00
    0.11806E+07         0.25571E+07         0.00000E+00
    0.00000E+00         0.00000E+00         0.57386E+06
 
    0.32400E+06         0.12259E+07         0.00000E+00
    0.12259E+07         0.25554E+07         0.00000E+00
    0.00000E+00         0.00000E+00         0.57589E+06
 
    0.33574E+06         0.12710E+07         0.00000E+00
    0.12710E+07         0.25537E+07         0.00000E+00
    0.00000E+00         0.00000E+00         0.57789E+06
 
    0.34746E+06         0.13159E+07         0.00000E+00
    0.13159E+07         0.25518E+07         0.00000E+00
    0.00000E+00         0.00000E+00         0.57986E+06
 
    0.35914E+06         0.13606E+07         0.00000E+00
    0.13606E+07         0.25498E+07         0.00000E+00
    0.00000E+00         0.00000E+00         0.58180E+06
 
    0.37080E+06         0.14051E+07         0.00000E+00
    0.14051E+07         0.25477E+07         0.00000E+00
    0.00000E+00         0.00000E+00         0.58371E+06
 
    0.38245E+06         0.14494E+07         0.00000E+00
    0.14494E+07         0.25455E+07         0.00000E+00
    0.00000E+00         0.00000E+00         0.58559E+06
 
    0.39409E+06         0.14935E+07         0.00000E+00
    0.14935E+07         0.25431E+07         0.00000E+00
    0.00000E+00         0.00000E+00         0.58745E+06
 
    0.40574E+06         0.15373E+07         0.00000E+00
    0.15373E+07         0.25406E+07         0.00000E+00
    0.00000E+00         0.00000E+00         0.58927E+06
 
    0.41739E+06         0.15810E+07         0.00000E+00
    0.15810E+07         0.25380E+07         0.00000E+00
    0.00000E+00         0.00000E+00         0.59108E+06
 
    0.42905E+06         0.16244E+07         0.00000E+00
    0.16244E+07         0.25352E+07         0.00000E+00
    0.00000E+00         0.00000E+00         0.59285E+06
 
    0.44074E+06         0.16677E+07         0.00000E+00
    0.16677E+07         0.25323E+07         0.00000E+00
    0.00000E+00         0.00000E+00         0.59461E+06
 
    0.45246E+06         0.17107E+07         0.00000E+00
    0.17107E+07         0.25292E+07         0.00000E+00
    0.00000E+00         0.00000E+00         0.59633E+06
 
    0.46422E+06         0.17535E+07         0.00000E+00
    0.17535E+07         0.25260E+07         0.00000E+00
    0.00000E+00         0.00000E+00         0.59804E+06
 
    0.47602E+06         0.17961E+07         0.00000E+00
    0.17961E+07         0.25226E+07         0.00000E+00
    0.00000E+00         0.00000E+00         0.59971E+06
 
    0.48787E+06         0.18385E+07         0.00000E+00
    0.18385E+07         0.25190E+07         0.00000E+00
    0.00000E+00         0.00000E+00         0.60137E+06
 
    0.49979E+06         0.18806E+07         0.00000E+00
    0.18806E+07         0.25152E+07         0.00000E+00
    0.00000E+00         0.00000E+00         0.60300E+06
 
    0.51177E+06         0.19226E+07         0.00000E+00
    0.19226E+07         0.25113E+07         0.00000E+00
    0.00000E+00         0.00000E+00         0.60462E+06
 
    0.52383E+06         0.19643E+07         0.00000E+00
    0.19643E+07         0.25072E+07         0.00000E+00
    0.00000E+00         0.00000E+00         0.60621E+06
 
    0.53598E+06         0.20059E+07         0.00000E+00
    0.20059E+07         0.25029E+07         0.00000E+00
    0.00000E+00         0.00000E+00         0.60778E+06
 
    0.54821E+06         0.20472E+07         0.00000E+00
    0.20472E+07         0.24984E+07         0.00000E+00
    0.00000E+00         0.00000E+00         0.60933E+06
 
    0.56055E+06         0.20882E+07         0.00000E+00
    0.20882E+07         0.24937E+07         0.00000E+00
    0.00000E+00         0.00000E+00         0.61086E+06
 
    0.57300E+06         0.21291E+07         0.00000E+00
    0.21291E+07         0.24889E+07         0.00000E+00
    0.00000E+00         0.00000E+00         0.61237E+06
 
    0.58556E+06         0.21697E+07         0.00000E+00
    0.21697E+07         0.24838E+07         0.00000E+00
    0.00000E+00         0.00000E+00         0.61386E+06
 
    0.59825E+06         0.22101E+07         0.00000E+00
    0.22101E+07         0.24784E+07         0.00000E+00
    0.00000E+00         0.00000E+00         0.61534E+06
 
    0.61108E+06         0.22503E+07         0.00000E+00
    0.22503E+07         0.24729E+07         0.00000E+00
    0.00000E+00         0.00000E+00         0.61680E+06
 
   -0.35121E+04         0.25658E+05         0.00000E+00
    0.25658E+05         0.23136E+07         0.00000E+00
    0.00000E+00         0.00000E+00         0.46201E+06
 
    0.97292E+04         0.76346E+05         0.00000E+00
    0.76346E+05         0.23135E+07         0.00000E+00
    0.00000E+00         0.00000E+00         0.46465E+06
 
    0.22809E+05         0.12677E+06         0.00000E+00
    0.12677E+06         0.23135E+07         0.00000E+00
    0.00000E+00         0.00000E+00         0.46726E+06
 
    0.35730E+05         0.17693E+06         0.00000E+00
    0.17693E+06         0.23134E+07         0.00000E+00
    0.00000E+00         0.00000E+00         0.46982E+06
 
    0.48498E+05         0.22683E+06         0.00000E+00
    0.22683E+06         0.23133E+07         0.00000E+00
    0.00000E+00         0.00000E+00         0.47235E+06
 
    0.61118E+05         0.27648E+06         0.00000E+00
    0.27648E+06         0.23131E+07         0.00000E+00
    0.00000E+00         0.00000E+00         0.47485E+06
 
    0.73592E+05         0.32587E+06         0.00000E+00
    0.32587E+06         0.23129E+07         0.00000E+00
    0.00000E+00         0.00000E+00         0.47730E+06
 
    0.85926E+05         0.37500E+06         0.00000E+00
    0.37500E+06         0.23127E+07         0.00000E+00
    0.00000E+00         0.00000E+00         0.47972E+06
 
    0.98125E+05         0.42388E+06         0.00000E+00
    0.42388E+06         0.23124E+07         0.00000E+00
    0.00000E+00         0.00000E+00         0.48210E+06
 
    0.11019E+06         0.47252E+06         0.00000E+00
    0.47252E+06         0.23121E+07         0.00000E+00
    0.00000E+00         0.00000E+00         0.48445E+06
 
    0.12213E+06         0.52090E+06         0.00000E+00
    0.52090E+06         0.23117E+07         0.00000E+00
    0.00000E+00         0.00000E+00         0.48676E+06
 
    0.13395E+06         0.56904E+06         0.00000E+00
    0.56904E+06         0.23113E+07         0.00000E+00
    0.00000E+00         0.00000E+00         0.48904E+06
 
    0.14566E+06         0.61693E+06         0.00000E+00
    0.61693E+06         0.23108E+07         0.00000E+00
    0.00000E+00         0.00000E+00         0.49129E+06
 
    0.15725E+06         0.66458E+06         0.00000E+00
    0.66458E+06         0.23102E+07         0.00000E+00
    0.00000E+00         0.00000E+00         0.49350E+06
 
    0.16874E+06         0.71199E+06         0.00000E+00
    0.71199E+06         0.23096E+07         0.00000E+00
    0.00000E+00         0.00000E+00         0.49567E+06
 
    0.18012E+06         0.75915E+06         0.00000E+00
    0.75915E+06         0.23090E+07         0.00000E+00
    0.00000E+00         0.00000E+00         0.49782E+06
 
    0.19141E+06         0.80608E+06         0.00000E+00
    0.80608E+06         0.23082E+07         0.00000E+00
    0.00000E+00         0.00000E+00         0.49993E+06
 
    0.20261E+06         0.85277E+06         0.00000E+00
    0.85277E+06         0.23074E+07         0.00000E+00
    0.00000E+00         0.00000E+00         0.50201E+06
 
    0.21372E+06         0.89923E+06         0.00000E+00
    0.89923E+06         0.23066E+07         0.00000E+00
    0.00000E+00         0.00000E+00         0.50406E+06
 
    0.22476E+06         0.94544E+06         0.00000E+00
    0.94544E+06         0.23056E+07         0.00000E+00
    0.00000E+00         0.00000E+00         0.50608E+06
 
    0.23572E+06         0.99143E+06         0.00000E+00
    0.99143E+06         0.23046E+07         0.00000E+00
    0.00000E+00         0.00000E+00         0.50806E+06
 
    0.24661E+06         0.10372E+07         0.00000E+00
    0.10372E+07         0.23035E+07         0.00000E+00
    0.00000E+00         0.00000E+00         0.51002E+06
 
    0.25744E+06         0.10827E+07         0.00000E+00
    0.10827E+07         0.23023E+07         0.00000E+00
    0.00000E+00         0.00000E+00         0.51195E+06
 
    0.26821E+06         0.11280E+07         0.00000E+00
    0.11280E+07         0.23010E+07         0.00000E+00
    0.00000E+00         0.00000E+00         0.51385E+06
 
    0.27893E+06         0.11730E+07         0.00000E+00
    0.11730E+07         0.22997E+07         0.00000E+00
    0.00000E+00         0.00000E+00         0.51572E+06
 
    0.28961E+06         0.12178E+07         0.00000E+00
    0.12178E+07         0.22982E+07         0.00000E+00
    0.00000E+00         0.00000E+00         0.51756E+06
 
    0.30025E+06         0.12624E+07         0.00000E+00
    0.12624E+07         0.22966E+07         0.00000E+00
    0.00000E+00         0.00000E+00         0.51937E+06
 
    0.31086E+06         0.13068E+07         0.00000E+00
    0.13068E+07         0.22949E+07         0.00000E+00
    0.00000E+00         0.00000E+00         0.52116E+06
 
    0.32144E+06         0.13509E+07         0.00000E+00
    0.13509E+07         0.22932E+07         0.00000E+00
    0.00000E+00         0.00000E+00         0.52292E+06
 
    0.33200E+06         0.13948E+07         0.00000E+00
    0.13948E+07         0.22913E+07         0.00000E+00
    0.00000E+00         0.00000E+00         0.52465E+06
 
    0.34255E+06         0.14385E+07         0.00000E+00
    0.14385E+07         0.22893E+07         0.00000E+00
    0.00000E+00         0.00000E+00         0.52636E+06
 
    0.35309E+06         0.14819E+07         0.00000E+00
    0.14819E+07         0.22871E+07         0.00000E+00
    0.00000E+00         0.00000E+00         0.52805E+06
 
    0.36363E+06         0.15251E+07         0.00000E+00
    0.15251E+07         0.22849E+07         0.00000E+00
    0.00000E+00         0.00000E+00         0.52971E+06
 
    0.37417E+06         0.15681E+07         0.00000E+00
    0.15681E+07         0.22825E+07         0.00000E+00
    0.00000E+00         0.00000E+00         0.53134E+06
 
    0.38473E+06         0.16108E+07         0.00000E+00
    0.16108E+07         0.22800E+07         0.00000E+00
    0.00000E+00         0.00000E+00         0.53295E+06
 
    0.39531E+06         0.16534E+07         0.00000E+00
    0.16534E+07         0.22774E+07         0.00000E+00
    0.00000E+00         0.00000E+00         0.53454E+06
 
    0.40592E+06         0.16956E+07         0.00000E+00
    0.16956E+07         0.22746E+07         0.00000E+00
    0.00000E+00         0.00000E+00         0.53611E+06
 
    0.41656E+06         0.17377E+07         0.00000E+00
    0.17377E+07         0.22717E+07         0.00000E+00
    0.00000E+00         0.00000E+00         0.53765E+06
 
    0.42724E+06         0.17795E+07         0.00000E+00
    0.17795E+07         0.22686E+07         0.00000E+00
    0.00000E+00         0.00000E+00         0.53917E+06
 
    0.43797E+06         0.18210E+07         0.00000E+00
    0.18210E+07         0.22654E+07         0.00000E+00
    0.00000E+00         0.00000E+00         0.54067E+06
 
    0.44875E+06         0.18624E+07         0.00000E+00
    0.18624E+07         0.22620E+07         0.00000E+00
    0.00000E+00         0.00000E+00         0.54215E+06
 
    0.45959E+06         0.19035E+07         0.00000E+00
    0.19035E+07         0.22585E+07         0.00000E+00
    0.00000E+00         0.00000E+00         0.54361E+06
 
    0.47051E+06         0.19443E+07         0.00000E+00
    0.19443E+07         0.22548E+07         0.00000E+00
    0.00000E+00         0.00000E+00         0.54505E+06
 
    0.48150E+06         0.19849E+07         0.00000E+00
    0.19849E+07         0.22509E+07         0.00000E+00
    0.00000E+00         0.00000E+00         0.54648E+06
 
    0.49257E+06         0.20253E+07         0.00000E+00
    0.20253E+07         0.22468E+07         0.00000E+00
    0.00000E+00         0.00000E+00         0.54788E+06
 
    0.50374E+06         0.20654E+07         0.00000E+00
    0.20654E+07         0.22426E+07         0.00000E+00
    0.00000E+00         0.00000E+00         0.54927E+06
 
    0.51500E+06         0.21053E+07         0.00000E+00
    0.21053E+07         0.22382E+07         0.00000E+00
    0.00000E+00         0.00000E+00         0.55064E+06
 
    0.52637E+06         0.21449E+07         0.00000E+00
    0.21449E+07         0.22336E+07         0.00000E+00
    0.00000E+00         0.00000E+00         0.55199E+06
 
    0.53786E+06         0.21843E+07         0.00000E+00
    0.21843E+07         0.22288E+07         0.00000E+00
    0.00000E+00         0.00000E+00         0.55333E+06
 
    0.54947E+06         0.22234E+07         0.00000E+00
    0.22234E+07         0.22238E+07         0.00000E+00
    0.00000E+00         0.00000E+00         0.55465E+06
 
   -0.15382E+04         0.25604E+05         0.00000E+00
    0.25604E+05         0.20617E+07         0.00000E+00
    0.00000E+00         0.00000E+00         0.41204E+06
 
    0.10350E+05         0.76162E+05         0.00000E+00
    0.76162E+05         0.20617E+07         0.00000E+00
    0.00000E+00         0.00000E+00         0.41441E+06
 
    0.22087E+05         0.12645E+06         0.00000E+00
    0.12645E+06         0.20617E+07         0.00000E+00
    0.00000E+00         0.00000E+00         0.41675E+06
 
    0.33676E+05         0.17646E+06         0.00000E+00
    0.17646E+06         0.20616E+07         0.00000E+00
    0.00000E+00         0.00000E+00         0.41906E+06
 
    0.45122E+05         0.22620E+06         0.00000E+00
    0.22620E+06         0.20615E+07         0.00000E+00
    0.00000E+00         0.00000E+00         0.42133E+06
 
    0.56428E+05         0.27567E+06         0.00000E+00
    0.27567E+06         0.20614E+07         0.00000E+00
    0.00000E+00         0.00000E+00         0.42356E+06
 
    0.67599E+05         0.32487E+06         0.00000E+00
    0.32487E+06         0.20612E+07         0.00000E+00
    0.00000E+00         0.00000E+00         0.42576E+06
 
    0.78639E+05         0.37381E+06         0.00000E+00
    0.37381E+06         0.20610E+07         0.00000E+00
    0.00000E+00         0.00000E+00         0.42793E+06
 
    0.89552E+05         0.42248E+06         0.00000E+00
    0.42248E+06         0.20608E+07         0.00000E+00
    0.00000E+00         0.00000E+00         0.43007E+06
 
    0.10034E+06         0.47089E+06         0.00000E+00
    0.47089E+06         0.20605E+07         0.00000E+00
    0.00000E+00         0.00000E+00         0.43217E+06
 
    0.11101E+06         0.51905E+06         0.00000E+00
    0.51905E+06         0.20602E+07         0.00000E+00
    0.00000E+00         0.00000E+00         0.43424E+06
 
    0.12157E+06         0.56694E+06         0.00000E+00
    0.56694E+06         0.20599E+07         0.00000E+00
    0.00000E+00         0.00000E+00         0.43629E+06
 
    0.13202E+06         0.61457E+06         0.00000E+00
    0.61457E+06         0.20594E+07         0.00000E+00
    0.00000E+00         0.00000E+00         0.43829E+06
 
    0.14237E+06         0.66195E+06         0.00000E+00
    0.66195E+06         0.20590E+07         0.00000E+00
    0.00000E+00         0.00000E+00         0.44027E+06
 
    0.15261E+06         0.70907E+06         0.00000E+00
    0.70907E+06         0.20585E+07         0.00000E+00
    0.00000E+00         0.00000E+00         0.44222E+06
 
    0.16276E+06         0.75593E+06         0.00000E+00
    0.75593E+06         0.20579E+07         0.00000E+00
    0.00000E+00         0.00000E+00         0.44414E+06
 
    0.17282E+06         0.80255E+06         0.00000E+00
    0.80255E+06         0.20573E+07         0.00000E+00
    0.00000E+00         0.00000E+00         0.44603E+06
 
    0.18279E+06         0.84890E+06         0.00000E+00
    0.84890E+06         0.20566E+07         0.00000E+00
    0.00000E+00         0.00000E+00         0.44789E+06
 
    0.19269E+06         0.89501E+06         0.00000E+00
    0.89501E+06         0.20559E+07         0.00000E+00
    0.00000E+00         0.00000E+00         0.44972E+06
 
    0.20251E+06         0.94087E+06         0.00000E+00
    0.94087E+06         0.20551E+07         0.00000E+00
    0.00000E+00         0.00000E+00         0.45152E+06
 
    0.21226E+06         0.98647E+06         0.00000E+00
    0.98647E+06         0.20542E+07         0.00000E+00
    0.00000E+00         0.00000E+00         0.45330E+06
 
    0.22194E+06         0.10318E+07         0.00000E+00
    0.10318E+07         0.20533E+07         0.00000E+00
    0.00000E+00         0.00000E+00         0.45504E+06
 
    0.23156E+06         0.10769E+07         0.00000E+00
    0.10769E+07         0.20523E+07         0.00000E+00
    0.00000E+00         0.00000E+00         0.45676E+06
 
    0.24113E+06         0.11218E+07         0.00000E+00
    0.11218E+07         0.20512E+07         0.00000E+00
    0.00000E+00         0.00000E+00         0.45846E+06
 
    0.25065E+06         0.11664E+07         0.00000E+00
    0.11664E+07         0.20500E+07         0.00000E+00
    0.00000E+00         0.00000E+00         0.46013E+06
 
    0.26013E+06         0.12108E+07         0.00000E+00
    0.12108E+07         0.20487E+07         0.00000E+00
    0.00000E+00         0.00000E+00         0.46177E+06
 
    0.26957E+06         0.12549E+07         0.00000E+00
    0.12549E+07         0.20474E+07         0.00000E+00
    0.00000E+00         0.00000E+00         0.46339E+06
 
    0.27898E+06         0.12987E+07         0.00000E+00
    0.12987E+07         0.20459E+07         0.00000E+00
    0.00000E+00         0.00000E+00         0.46498E+06
 
    0.28836E+06         0.13423E+07         0.00000E+00
    0.13423E+07         0.20444E+07         0.00000E+00
    0.00000E+00         0.00000E+00         0.46655E+06
 
    0.29772E+06         0.13857E+07         0.00000E+00
    0.13857E+07         0.20427E+07         0.00000E+00
    0.00000E+00         0.00000E+00         0.46809E+06
 
    0.30707E+06         0.14288E+07         0.00000E+00
    0.14288E+07         0.20410E+07         0.00000E+00
    0.00000E+00         0.00000E+00         0.46961E+06
 
    0.31641E+06         0.14717E+07         0.00000E+00
    0.14717E+07         0.20392E+07         0.00000E+00
    0.00000E+00         0.00000E+00         0.47111E+06
 
    0.32574E+06         0.15143E+07         0.00000E+00
    0.15143E+07         0.20372E+07         0.00000E+00
    0.00000E+00         0.00000E+00         0.47259E+06
 
    0.33508E+06         0.15567E+07         0.00000E+00
    0.15567E+07         0.20351E+07         0.00000E+00
    0.00000E+00         0.00000E+00         0.47404E+06
 
    0.34443E+06         0.15988E+07         0.00000E+00
    0.15988E+07         0.20330E+07         0.00000E+00
    0.00000E+00         0.00000E+00         0.47548E+06
 
    0.35379E+06         0.16406E+07         0.00000E+00
    0.16406E+07         0.20307E+07         0.00000E+00
    0.00000E+00         0.00000E+00         0.47689E+06
 
    0.36318E+06         0.16822E+07         0.00000E+00
    0.16822E+07         0.20282E+07         0.00000E+00
    0.00000E+00         0.00000E+00         0.47828E+06
 
    0.37259E+06         0.17236E+07         0.00000E+00
    0.17236E+07         0.20257E+07         0.00000E+00
    0.00000E+00         0.00000E+00         0.47965E+06
 
    0.38204E+06         0.17647E+07         0.00000E+00
    0.17647E+07         0.20230E+07         0.00000E+00
    0.00000E+00         0.00000E+00         0.48100E+06
 
    0.39153E+06         0.18055E+07         0.00000E+00
    0.18055E+07         0.20201E+07         0.00000E+00
    0.00000E+00         0.00000E+00         0.48233E+06
 
    0.40107E+06         0.18461E+07         0.00000E+00
    0.18461E+07         0.20172E+07         0.00000E+00
    0.00000E+00         0.00000E+00         0.48365E+06
 
    0.41066E+06         0.18864E+07         0.00000E+00
    0.18864E+07         0.20141E+07         0.00000E+00
    0.00000E+00         0.00000E+00         0.48494E+06
 
    0.42031E+06         0.19265E+07         0.00000E+00
    0.19265E+07         0.20108E+07         0.00000E+00
    0.00000E+00         0.00000E+00         0.48622E+06
 
    0.43003E+06         0.19663E+07         0.00000E+00
    0.19663E+07         0.20074E+07         0.00000E+00
    0.00000E+00         0.00000E+00         0.48748E+06
 
    0.43982E+06         0.20058E+07         0.00000E+00
    0.20058E+07         0.20038E+07         0.00000E+00
    0.00000E+00         0.00000E+00         0.48873E+06
 
    0.44969E+06         0.20450E+07         0.00000E+00
    0.20450E+07         0.20001E+07         0.00000E+00
    0.00000E+00         0.00000E+00         0.48996E+06
 
    0.45966E+06         0.20840E+07         0.00000E+00
    0.20840E+07         0.19962E+07         0.00000E+00
    0.00000E+00         0.00000E+00         0.49117E+06
 
    0.46971E+06         0.21227E+07         0.00000E+00
    0.21227E+07         0.19921E+07         0.00000E+00
    0.00000E+00         0.00000E+00         0.49237E+06
 
    0.47987E+06         0.21612E+07         0.00000E+00
    0.21612E+07         0.19879E+07         0.00000E+00
    0.00000E+00         0.00000E+00         0.49355E+06
 
    0.49014E+06         0.21993E+07         0.00000E+00
    0.21993E+07         0.19835E+07         0.00000E+00
    0.00000E+00         0.00000E+00         0.49472E+06
 
    0.65304E+04         0.25565E+05         0.00000E+00
    0.25565E+05         0.18166E+07         0.00000E+00
    0.00000E+00         0.00000E+00         0.36462E+06
 
    0.17017E+05         0.76024E+05         0.00000E+00
    0.76024E+05         0.18166E+07         0.00000E+00
    0.00000E+00         0.00000E+00         0.36671E+06
 
    0.27362E+05         0.12620E+06         0.00000E+00
    0.12620E+06         0.18165E+07         0.00000E+00
    0.00000E+00         0.00000E+00         0.36878E+06
 
    0.37568E+05         0.17609E+06         0.00000E+00
    0.17609E+06         0.18165E+07         0.00000E+00
    0.00000E+00         0.00000E+00         0.37081E+06
 
    0.47640E+05         0.22570E+06         0.00000E+00
    0.22570E+06         0.18164E+07         0.00000E+00
    0.00000E+00         0.00000E+00         0.37281E+06
 
    0.57580E+05         0.27504E+06         0.00000E+00
    0.27504E+06         0.18163E+07         0.00000E+00
    0.00000E+00         0.00000E+00         0.37478E+06
 
    0.67392E+05         0.32409E+06         0.00000E+00
    0.32409E+06         0.18162E+07         0.00000E+00
    0.00000E+00         0.00000E+00         0.37672E+06
 
    0.77081E+05         0.37287E+06         0.00000E+00
    0.37287E+06         0.18161E+07         0.00000E+00
    0.00000E+00         0.00000E+00         0.37863E+06
 
    0.86650E+05         0.42138E+06         0.00000E+00
    0.42138E+06         0.18159E+07         0.00000E+00
    0.00000E+00         0.00000E+00         0.38051E+06
 
    0.96103E+05         0.46961E+06         0.00000E+00
    0.46961E+06         0.18157E+07         0.00000E+00
    0.00000E+00         0.00000E+00         0.38236E+06
 
    0.10544E+06         0.51757E+06         0.00000E+00
    0.51757E+06         0.18154E+07         0.00000E+00
    0.00000E+00         0.00000E+00         0.38418E+06
 
    0.11468E+06         0.56525E+06         0.00000E+00
    0.56525E+06         0.18152E+07         0.00000E+00
    0.00000E+00         0.00000E+00         0.38597E+06
 
    0.12381E+06         0.61267E+06         0.00000E+00
    0.61267E+06         0.18149E+07         0.00000E+00
    0.00000E+00         0.00000E+00         0.38773E+06
 
    0.13284E+06         0.65982E+06         0.00000E+00
    0.65982E+06         0.18145E+07         0.00000E+00
    0.00000E+00         0.00000E+00         0.38947E+06
 
    0.14177E+06         0.70669E+06         0.00000E+00
    0.70669E+06         0.18141E+07         0.00000E+00
    0.00000E+00         0.00000E+00         0.39118E+06
 
    0.15062E+06         0.75330E+06         0.00000E+00
    0.75330E+06         0.18137E+07         0.00000E+00
    0.00000E+00         0.00000E+00         0.39286E+06
 
    0.15938E+06         0.79965E+06         0.00000E+00
    0.79965E+06         0.18132E+07         0.00000E+00
    0.00000E+00         0.00000E+00         0.39452E+06
 
    0.16806E+06         0.84572E+06         0.00000E+00
    0.84572E+06         0.18127E+07         0.00000E+00
    0.00000E+00         0.00000E+00         0.39614E+06
 
    0.17666E+06         0.89153E+06         0.00000E+00
    0.89153E+06         0.18121E+07         0.00000E+00
    0.00000E+00         0.00000E+00         0.39775E+06
 
    0.18518E+06         0.93708E+06         0.00000E+00
    0.93708E+06         0.18114E+07         0.00000E+00
    0.00000E+00         0.00000E+00         0.39932E+06
 
    0.19364E+06         0.98236E+06         0.00000E+00
    0.98236E+06         0.18107E+07         0.00000E+00
    0.00000E+00         0.00000E+00         0.40088E+06
 
    0.20204E+06         0.10274E+07         0.00000E+00
    0.10274E+07         0.18100E+07         0.00000E+00
    0.00000E+00         0.00000E+00         0.40240E+06
 
    0.21038E+06         0.10721E+07         0.00000E+00
    0.10721E+07         0.18091E+07         0.00000E+00
    0.00000E+00         0.00000E+00         0.40391E+06
 
    0.21867E+06         0.11166E+07         0.00000E+00
    0.11166E+07         0.18083E+07         0.00000E+00
    0.00000E+00         0.00000E+00         0.40538E+06
 
    0.22690E+06         0.11608E+07         0.00000E+00
    0.11608E+07         0.18073E+07         0.00000E+00
    0.00000E+00         0.00000E+00         0.40684E+06
 
    0.23510E+06         0.12048E+07         0.00000E+00
    0.12048E+07         0.18063E+07         0.00000E+00
    0.00000E+00         0.00000E+00         0.40827E+06
 
    0.24325E+06         0.12485E+07         0.00000E+00
    0.12485E+07         0.18052E+07         0.00000E+00
    0.00000E+00         0.00000E+00         0.40968E+06
 
    0.25138E+06         0.12919E+07         0.00000E+00
    0.12919E+07         0.18040E+07         0.00000E+00
    0.00000E+00         0.00000E+00         0.41107E+06
 
    0.25947E+06         0.13351E+07         0.00000E+00
    0.13351E+07         0.18027E+07         0.00000E+00
    0.00000E+00         0.00000E+00         0.41243E+06
 
    0.26754E+06         0.13780E+07         0.00000E+00
    0.13780E+07         0.18013E+07         0.00000E+00
    0.00000E+00         0.00000E+00         0.41378E+06
 
    0.27560E+06         0.14206E+07         0.00000E+00
    0.14206E+07         0.17999E+07         0.00000E+00
    0.00000E+00         0.00000E+00         0.41510E+06
 
    0.28364E+06         0.14630E+07         0.00000E+00
    0.14630E+07         0.17984E+07         0.00000E+00
    0.00000E+00         0.00000E+00         0.41640E+06
 
    0.29168E+06         0.15051E+07         0.00000E+00
    0.15051E+07         0.17967E+07         0.00000E+00
    0.00000E+00         0.00000E+00         0.41768E+06
 
    0.29971E+06         0.15469E+07         0.00000E+00
    0.15469E+07         0.17950E+07         0.00000E+00
    0.00000E+00         0.00000E+00         0.41895E+06
 
    0.30775E+06         0.15884E+07         0.00000E+00
    0.15884E+07         0.17932E+07         0.00000E+00
    0.00000E+00         0.00000E+00         0.42019E+06
 
    0.31581E+06         0.16297E+07         0.00000E+00
    0.16297E+07         0.17913E+07         0.00000E+00
    0.00000E+00         0.00000E+00         0.42141E+06
 
    0.32387E+06         0.16707E+07         0.00000E+00
    0.16707E+07         0.17892E+07         0.00000E+00
    0.00000E+00         0.00000E+00         0.42262E+06
 
    0.33196E+06         0.17115E+07         0.00000E+00
    0.17115E+07         0.17871E+07         0.00000E+00
    0.00000E+00         0.00000E+00         0.42380E+06
 
    0.34008E+06         0.17519E+07         0.00000E+00
    0.17519E+07         0.17848E+07         0.00000E+00
    0.00000E+00         0.00000E+00         0.42497E+06
 
    0.34823E+06         0.17921E+07         0.00000E+00
    0.17921E+07         0.17824E+07         0.00000E+00
    0.00000E+00         0.00000E+00         0.42612E+06
 
    0.35641E+06         0.18320E+07         0.00000E+00
    0.18320E+07         0.17799E+07         0.00000E+00
    0.00000E+00         0.00000E+00         0.42726E+06
 
    0.36465E+06         0.18717E+07         0.00000E+00
    0.18717E+07         0.17772E+07         0.00000E+00
    0.00000E+00         0.00000E+00         0.42838E+06
 
    0.37293E+06         0.19110E+07         0.00000E+00
    0.19110E+07         0.17745E+07         0.00000E+00
    0.00000E+00         0.00000E+00         0.42948E+06
 
    0.38127E+06         0.19501E+07         0.00000E+00
    0.19501E+07         0.17716E+07         0.00000E+00
    0.00000E+00         0.00000E+00         0.43057E+06
 
    0.38968E+06         0.19889E+07         0.00000E+00
    0.19889E+07         0.17685E+07         0.00000E+00
    0.00000E+00         0.00000E+00         0.43164E+06
 
    0.39815E+06         0.20273E+07         0.00000E+00
    0.20273E+07         0.17653E+07         0.00000E+00
    0.00000E+00         0.00000E+00         0.43270E+06
 
    0.40670E+06         0.20655E+07         0.00000E+00
    0.20655E+07         0.17620E+07         0.00000E+00
    0.00000E+00         0.00000E+00         0.43374E+06
 
    0.41533E+06         0.21034E+07         0.00000E+00
    0.21034E+07         0.17585E+07         0.00000E+00
    0.00000E+00         0.00000E+00         0.43477E+06
 
    0.42405E+06         0.21410E+07         0.00000E+00
    0.21410E+07         0.17549E+07         0.00000E+00
    0.00000E+00         0.00000E+00         0.43579E+06
 
    0.43286E+06         0.21783E+07         0.00000E+00
    0.21783E+07         0.17511E+07         0.00000E+00
    0.00000E+00         0.00000E+00         0.43679E+06
 
    0.20093E+05         0.25544E+05         0.00000E+00
    0.25544E+05         0.15773E+07         0.00000E+00
    0.00000E+00         0.00000E+00         0.31947E+06
 
    0.29135E+05         0.75942E+05         0.00000E+00
    0.75942E+05         0.15773E+07         0.00000E+00
    0.00000E+00         0.00000E+00         0.32128E+06
 
    0.38043E+05         0.12605E+06         0.00000E+00
    0.12605E+06         0.15772E+07         0.00000E+00
    0.00000E+00         0.00000E+00         0.32306E+06
 
    0.46819E+05         0.17586E+06         0.00000E+00
    0.17586E+06         0.15772E+07         0.00000E+00
    0.00000E+00         0.00000E+00         0.32481E+06
 
    0.55468E+05         0.22539E+06         0.00000E+00
    0.22539E+06         0.15772E+07         0.00000E+00
    0.00000E+00         0.00000E+00         0.32653E+06
 
    0.63992E+05         0.27462E+06         0.00000E+00
    0.27462E+06         0.15771E+07         0.00000E+00
    0.00000E+00         0.00000E+00         0.32823E+06
 
    0.72395E+05         0.32357E+06         0.00000E+00
    0.32357E+06         0.15771E+07         0.00000E+00
    0.00000E+00         0.00000E+00         0.32989E+06
 
    0.80680E+05         0.37223E+06         0.00000E+00
    0.37223E+06         0.15770E+07         0.00000E+00
    0.00000E+00         0.00000E+00         0.33153E+06
 
    0.88851E+05         0.42061E+06         0.00000E+00
    0.42061E+06         0.15769E+07         0.00000E+00
    0.00000E+00         0.00000E+00         0.33315E+06
 
    0.96912E+05         0.46871E+06         0.00000E+00
    0.46871E+06         0.15768E+07         0.00000E+00
    0.00000E+00         0.00000E+00         0.33473E+06
 
    0.10487E+06         0.51652E+06         0.00000E+00
    0.51652E+06         0.15766E+07         0.00000E+00
    0.00000E+00         0.00000E+00         0.33629E+06
 
    0.11272E+06         0.56404E+06         0.00000E+00
    0.56404E+06         0.15764E+07         0.00000E+00
    0.00000E+00         0.00000E+00         0.33783E+06
 
    0.12047E+06         0.61129E+06         0.00000E+00
    0.61129E+06         0.15762E+07         0.00000E+00
    0.00000E+00         0.00000E+00         0.33934E+06
 
    0.12813E+06         0.65826E+06         0.00000E+00
    0.65826E+06         0.15760E+07         0.00000E+00
    0.00000E+00         0.00000E+00         0.34082E+06
 
    0.13569E+06         0.70494E+06         0.00000E+00
    0.70494E+06         0.15757E+07         0.00000E+00
    0.00000E+00         0.00000E+00         0.34228E+06
 
    0.14317E+06         0.75135E+06         0.00000E+00
    0.75135E+06         0.15754E+07         0.00000E+00
    0.00000E+00         0.00000E+00         0.34372E+06
 
    0.15056E+06         0.79747E+06         0.00000E+00
    0.79747E+06         0.15751E+07         0.00000E+00
    0.00000E+00         0.00000E+00         0.34513E+06
 
    0.15788E+06         0.84332E+06         0.00000E+00
    0.84332E+06         0.15747E+07         0.00000E+00
    0.00000E+00         0.00000E+00         0.34652E+06
 
    0.16512E+06         0.88889E+06         0.00000E+00
    0.88889E+06         0.15743E+07         0.00000E+00
    0.00000E+00         0.00000E+00         0.34788E+06
 
    0.17229E+06         0.93418E+06         0.00000E+00
    0.93418E+06         0.15738E+07         0.00000E+00
    0.00000E+00         0.00000E+00         0.34922E+06
 
    0.17939E+06         0.97919E+06         0.00000E+00
    0.97919E+06         0.15733E+07         0.00000E+00
    0.00000E+00         0.00000E+00         0.35054E+06
 
    0.18643E+06         0.10239E+07         0.00000E+00
    0.10239E+07         0.15728E+07         0.00000E+00
    0.00000E+00         0.00000E+00         0.35184E+06
 
    0.19341E+06         0.10684E+07         0.00000E+00
    0.10684E+07         0.15722E+07         0.00000E+00
    0.00000E+00         0.00000E+00         0.35312E+06
 
    0.20034E+06         0.11126E+07         0.00000E+00
    0.11126E+07         0.15715E+07         0.00000E+00
    0.00000E+00         0.00000E+00         0.35437E+06
 
    0.20722E+06         0.11565E+07         0.00000E+00
    0.11565E+07         0.15708E+07         0.00000E+00
    0.00000E+00         0.00000E+00         0.35560E+06
 
    0.21405E+06         0.12001E+07         0.00000E+00
    0.12001E+07         0.15700E+07         0.00000E+00
    0.00000E+00         0.00000E+00         0.35681E+06
 
    0.22084E+06         0.12434E+07         0.00000E+00
    0.12434E+07         0.15692E+07         0.00000E+00
    0.00000E+00         0.00000E+00         0.35800E+06
 
    0.22760E+06         0.12865E+07         0.00000E+00
    0.12865E+07         0.15683E+07         0.00000E+00
    0.00000E+00         0.00000E+00         0.35917E+06
 
    0.23433E+06         0.13293E+07         0.00000E+00
    0.13293E+07         0.15673E+07         0.00000E+00
    0.00000E+00         0.00000E+00         0.36033E+06
 
    0.24104E+06         0.13718E+07         0.00000E+00
    0.13718E+07         0.15663E+07         0.00000E+00
    0.00000E+00         0.00000E+00         0.36146E+06
 
    0.24772E+06         0.14140E+07         0.00000E+00
    0.14140E+07         0.15651E+07         0.00000E+00
    0.00000E+00         0.00000E+00         0.36257E+06
 
    0.25438E+06         0.14559E+07         0.00000E+00
    0.14559E+07         0.15639E+07         0.00000E+00
    0.00000E+00         0.00000E+00         0.36367E+06
 
    0.26104E+06         0.14976E+07         0.00000E+00
    0.14976E+07         0.15627E+07         0.00000E+00
    0.00000E+00         0.00000E+00         0.36474E+06
 
    0.26768E+06         0.15389E+07         0.00000E+00
    0.15389E+07         0.15613E+07         0.00000E+00
    0.00000E+00         0.00000E+00         0.36580E+06
 
    0.27433E+06         0.15800E+07         0.00000E+00
    0.15800E+07         0.15599E+07         0.00000E+00
    0.00000E+00         0.00000E+00         0.36684E+06
 
    0.28098E+06         0.16208E+07         0.00000E+00
    0.16208E+07         0.15584E+07         0.00000E+00
    0.00000E+00         0.00000E+00         0.36787E+06
 
    0.28764E+06         0.16613E+07         0.00000E+00
    0.16613E+07         0.15567E+07         0.00000E+00
    0.00000E+00         0.00000E+00         0.36888E+06
 
    0.29431E+06         0.17015E+07         0.00000E+00
    0.17015E+07         0.15550E+07         0.00000E+00
    0.00000E+00         0.00000E+00         0.36987E+06
 
    0.30100E+06         0.17414E+07         0.00000E+00
    0.17414E+07         0.15532E+07         0.00000E+00
    0.00000E+00         0.00000E+00         0.37084E+06
 
    0.30772E+06         0.17811E+07         0.00000E+00
    0.17811E+07         0.15513E+07         0.00000E+00
    0.00000E+00         0.00000E+00         0.37180E+06
 
    0.31447E+06         0.18204E+07         0.00000E+00
    0.18204E+07         0.15493E+07         0.00000E+00
    0.00000E+00         0.00000E+00         0.37275E+06
 
    0.32125E+06         0.18594E+07         0.00000E+00
    0.18594E+07         0.15471E+07         0.00000E+00
    0.00000E+00         0.00000E+00         0.37368E+06
 
    0.32807E+06         0.18982E+07         0.00000E+00
    0.18982E+07         0.15449E+07         0.00000E+00
    0.00000E+00         0.00000E+00         0.37460E+06
 
    0.33494E+06         0.19366E+07         0.00000E+00
    0.19366E+07         0.15426E+07         0.00000E+00
    0.00000E+00         0.00000E+00         0.37550E+06
 
    0.34185E+06         0.19747E+07         0.00000E+00
    0.19747E+07         0.15401E+07         0.00000E+00
    0.00000E+00         0.00000E+00         0.37639E+06
 
    0.34883E+06         0.20125E+07         0.00000E+00
    0.20125E+07         0.15375E+07         0.00000E+00
    0.00000E+00         0.00000E+00         0.37726E+06
 
    0.35587E+06         0.20500E+07         0.00000E+00
    0.20500E+07         0.15348E+07         0.00000E+00
    0.00000E+00         0.00000E+00         0.37813E+06
 
    0.36297E+06         0.20872E+07         0.00000E+00
    0.20872E+07         0.15319E+07         0.00000E+00
    0.00000E+00         0.00000E+00         0.37898E+06
 
    0.37015E+06         0.21241E+07         0.00000E+00
    0.21241E+07         0.15289E+07         0.00000E+00
    0.00000E+00         0.00000E+00         0.37982E+06
 
    0.37741E+06         0.21607E+07         0.00000E+00
    0.21607E+07         0.15258E+07         0.00000E+00
    0.00000E+00         0.00000E+00         0.38065E+06
 
    0.38554E+05         0.25543E+05         0.00000E+00
    0.25543E+05         0.13431E+07         0.00000E+00
    0.00000E+00         0.00000E+00         0.27632E+06
 
    0.46111E+05         0.75922E+05         0.00000E+00
    0.75922E+05         0.13431E+07         0.00000E+00
    0.00000E+00         0.00000E+00         0.27783E+06
 
    0.53540E+05         0.12600E+06         0.00000E+00
    0.12600E+06         0.13431E+07         0.00000E+00
    0.00000E+00         0.00000E+00         0.27932E+06
 
    0.60843E+05         0.17578E+06         0.00000E+00
    0.17578E+06         0.13431E+07         0.00000E+00
    0.00000E+00         0.00000E+00         0.28078E+06
 
    0.68025E+05         0.22526E+06         0.00000E+00
    0.22526E+06         0.13431E+07         0.00000E+00
    0.00000E+00         0.00000E+00         0.28222E+06
 
    0.75088E+05         0.27445E+06         0.00000E+00
    0.27445E+06         0.13431E+07         0.00000E+00
    0.00000E+00         0.00000E+00         0.28363E+06
 
    0.82035E+05         0.32334E+06         0.00000E+00
    0.32334E+06         0.13430E+07         0.00000E+00
    0.00000E+00         0.00000E+00         0.28502E+06
 
    0.88869E+05         0.37193E+06         0.00000E+00
    0.37193E+06         0.13430E+07         0.00000E+00
    0.00000E+00         0.00000E+00         0.28638E+06
 
    0.95594E+05         0.42023E+06         0.00000E+00
    0.42023E+06         0.13430E+07         0.00000E+00
    0.00000E+00         0.00000E+00         0.28772E+06
 
    0.10221E+06         0.46823E+06         0.00000E+00
    0.46823E+06         0.13430E+07         0.00000E+00
    0.00000E+00         0.00000E+00         0.28903E+06
 
    0.10873E+06         0.51595E+06         0.00000E+00
    0.51595E+06         0.13429E+07         0.00000E+00
    0.00000E+00         0.00000E+00         0.29032E+06
 
    0.11514E+06         0.56337E+06         0.00000E+00
    0.56337E+06         0.13428E+07         0.00000E+00
    0.00000E+00         0.00000E+00         0.29159E+06
 
    0.12146E+06         0.61050E+06         0.00000E+00
    0.61050E+06         0.13427E+07         0.00000E+00
    0.00000E+00         0.00000E+00         0.29284E+06
 
    0.12769E+06         0.65734E+06         0.00000E+00
    0.65734E+06         0.13426E+07         0.00000E+00
    0.00000E+00         0.00000E+00         0.29407E+06
 
    0.13383E+06         0.70388E+06         0.00000E+00
    0.70388E+06         0.13425E+07         0.00000E+00
    0.00000E+00         0.00000E+00         0.29527E+06
 
    0.13988E+06         0.75014E+06         0.00000E+00
    0.75014E+06         0.13424E+07         0.00000E+00
    0.00000E+00         0.00000E+00         0.29645E+06
 
    0.14585E+06         0.79610E+06         0.00000E+00
    0.79610E+06         0.13422E+07         0.00000E+00
    0.00000E+00         0.00000E+00         0.29761E+06
 
    0.15175E+06         0.84178E+06         0.00000E+00
    0.84178E+06         0.13420E+07         0.00000E+00
    0.00000E+00         0.00000E+00         0.29875E+06
 
    0.15756E+06         0.88717E+06         0.00000E+00
    0.88717E+06         0.13418E+07         0.00000E+00
    0.00000E+00         0.00000E+00         0.29986E+06
 
    0.16331E+06         0.93226E+06         0.00000E+00
    0.93226E+06         0.13415E+07         0.00000E+00
    0.00000E+00         0.00000E+00         0.30096E+06
 
    0.16899E+06         0.97707E+06         0.00000E+00
    0.97707E+06         0.13412E+07         0.00000E+00
    0.00000E+00         0.00000E+00         0.30204E+06
 
    0.17461E+06         0.10216E+07         0.00000E+00
    0.10216E+07         0.13409E+07         0.00000E+00
    0.00000E+00         0.00000E+00         0.30310E+06
 
    0.18017E+06         0.10658E+07         0.00000E+00
    0.10658E+07         0.13405E+07         0.00000E+00
    0.00000E+00         0.00000E+00         0.30413E+06
 
    0.18567E+06         0.11097E+07         0.00000E+00
    0.11097E+07         0.13401E+07         0.00000E+00
    0.00000E+00         0.00000E+00         0.30515E+06
 
    0.19113E+06         0.11534E+07         0.00000E+00
    0.11534E+07         0.13396E+07         0.00000E+00
    0.00000E+00         0.00000E+00         0.30615E+06
 
    0.19653E+06         0.11967E+07         0.00000E+00
    0.11967E+07         0.13391E+07         0.00000E+00
    0.00000E+00         0.00000E+00         0.30713E+06
 
    0.20190E+06         0.12398E+07         0.00000E+00
    0.12398E+07         0.13386E+07         0.00000E+00
    0.00000E+00         0.00000E+00         0.30810E+06
 
    0.20722E+06         0.12826E+07         0.00000E+00
    0.12826E+07         0.13380E+07         0.00000E+00
    0.00000E+00         0.00000E+00         0.30904E+06
 
    0.21251E+06         0.13250E+07         0.00000E+00
    0.13250E+07         0.13373E+07         0.00000E+00
    0.00000E+00         0.00000E+00         0.30997E+06
 
    0.21777E+06         0.13672E+07         0.00000E+00
    0.13672E+07         0.13366E+07         0.00000E+00
    0.00000E+00         0.00000E+00         0.31088E+06
 
    0.22301E+06         0.14091E+07         0.00000E+00
    0.14091E+07         0.13359E+07         0.00000E+00
    0.00000E+00         0.00000E+00         0.31178E+06
 
    0.22822E+06         0.14507E+07         0.00000E+00
    0.14507E+07         0.13351E+07         0.00000E+00
    0.00000E+00         0.00000E+00         0.31265E+06
 
    0.23341E+06         0.14920E+07         0.00000E+00
    0.14920E+07         0.13342E+07         0.00000E+00
    0.00000E+00         0.00000E+00         0.31352E+06
 
    0.23860E+06         0.15330E+07         0.00000E+00
    0.15330E+07         0.13332E+07         0.00000E+00
    0.00000E+00         0.00000E+00         0.31436E+06
 
    0.24377E+06         0.15736E+07         0.00000E+00
    0.15736E+07         0.13322E+07         0.00000E+00
    0.00000E+00         0.00000E+00         0.31519E+06
 
    0.24894E+06         0.16140E+07         0.00000E+00
    0.16140E+07         0.13311E+07         0.00000E+00
    0.00000E+00         0.00000E+00         0.31601E+06
 
    0.25411E+06         0.16541E+07         0.00000E+00
    0.16541E+07         0.13299E+07         0.00000E+00
    0.00000E+00         0.00000E+00         0.31681E+06
 
    0.25929E+06         0.16939E+07         0.00000E+00
    0.16939E+07         0.13287E+07         0.00000E+00
    0.00000E+00         0.00000E+00         0.31760E+06
 
    0.26448E+06         0.17334E+07         0.00000E+00
    0.17334E+07         0.13274E+07         0.00000E+00
    0.00000E+00         0.00000E+00         0.31837E+06
 
    0.26968E+06         0.17725E+07         0.00000E+00
    0.17725E+07         0.13260E+07         0.00000E+00
    0.00000E+00         0.00000E+00         0.31913E+06
 
    0.27490E+06         0.18114E+07         0.00000E+00
    0.18114E+07         0.13245E+07         0.00000E+00
    0.00000E+00         0.00000E+00         0.31987E+06
 
    0.28014E+06         0.18499E+07         0.00000E+00
    0.18499E+07         0.13229E+07         0.00000E+00
    0.00000E+00         0.00000E+00         0.32061E+06
 
    0.28542E+06         0.18881E+07         0.00000E+00
    0.18881E+07         0.13212E+07         0.00000E+00
    0.00000E+00         0.00000E+00         0.32133E+06
 
    0.29072E+06         0.19260E+07         0.00000E+00
    0.19260E+07         0.13194E+07         0.00000E+00
    0.00000E+00         0.00000E+00         0.32203E+06
 
    0.29607E+06         0.19636E+07         0.00000E+00
    0.19636E+07         0.13176E+07         0.00000E+00
    0.00000E+00         0.00000E+00         0.32273E+06
 
    0.30146E+06         0.20008E+07         0.00000E+00
    0.20008E+07         0.13156E+07         0.00000E+00
    0.00000E+00         0.00000E+00         0.32341E+06
 
    0.30689E+06         0.20377E+07         0.00000E+00
    0.20377E+07         0.13135E+07         0.00000E+00
    0.00000E+00         0.00000E+00         0.32409E+06
 
    0.31238E+06         0.20743E+07         0.00000E+00
    0.20743E+07         0.13114E+07         0.00000E+00
    0.00000E+00         0.00000E+00         0.32475E+06
 
    0.31793E+06         0.21106E+07         0.00000E+00
    0.21106E+07         0.13091E+07         0.00000E+00
    0.00000E+00         0.00000E+00         0.32540E+06
 
    0.32354E+06         0.21465E+07         0.00000E+00
    0.21465E+07         0.13067E+07         0.00000E+00
    0.00000E+00         0.00000E+00         0.32604E+06
 
    0.61320E+05         0.25565E+05         0.00000E+00
    0.25565E+05         0.11131E+07         0.00000E+00
    0.00000E+00         0.00000E+00         0.23488E+06
 
    0.67355E+05         0.75972E+05         0.00000E+00
    0.75972E+05         0.11131E+07         0.00000E+00
    0.00000E+00         0.00000E+00         0.23609E+06
 
    0.73268E+05         0.12607E+06         0.00000E+00
    0.12607E+06         0.11131E+07         0.00000E+00
    0.00000E+00         0.00000E+00         0.23728E+06
 
    0.79060E+05         0.17587E+06         0.00000E+00
    0.17587E+06         0.11132E+07         0.00000E+00
    0.00000E+00         0.00000E+00         0.23844E+06
 
    0.84735E+05         0.22535E+06         0.00000E+00
    0.22535E+06         0.11132E+07         0.00000E+00
    0.00000E+00         0.00000E+00         0.23959E+06
 
    0.90296E+05         0.27454E+06         0.00000E+00
    0.27454E+06         0.11132E+07         0.00000E+00
    0.00000E+00         0.00000E+00         0.24071E+06
 
    0.95744E+05         0.32342E+06         0.00000E+00
    0.32342E+06         0.11133E+07         0.00000E+00
    0.00000E+00         0.00000E+00         0.24181E+06
 
    0.10108E+06         0.37199E+06         0.00000E+00
    0.37199E+06         0.11133E+07         0.00000E+00
    0.00000E+00         0.00000E+00         0.24289E+06
 
    0.10632E+06         0.42027E+06         0.00000E+00
    0.42027E+06         0.11134E+07         0.00000E+00
    0.00000E+00         0.00000E+00         0.24394E+06
 
    0.11145E+06         0.46824E+06         0.00000E+00
    0.46824E+06         0.11135E+07         0.00000E+00
    0.00000E+00         0.00000E+00         0.24498E+06
 
    0.11648E+06         0.51591E+06         0.00000E+00
    0.51591E+06         0.11135E+07         0.00000E+00
    0.00000E+00         0.00000E+00         0.24600E+06
 
    0.12141E+06         0.56327E+06         0.00000E+00
    0.56327E+06         0.11135E+07         0.00000E+00
    0.00000E+00         0.00000E+00         0.24699E+06
 
    0.12625E+06         0.61034E+06         0.00000E+00
    0.61034E+06         0.11136E+07         0.00000E+00
    0.00000E+00         0.00000E+00         0.24797E+06
 
    0.13100E+06         0.65711E+06         0.00000E+00
    0.65711E+06         0.11136E+07         0.00000E+00
    0.00000E+00         0.00000E+00         0.24892E+06
 
    0.13566E+06         0.70358E+06         0.00000E+00
    0.70358E+06         0.11136E+07         0.00000E+00
    0.00000E+00         0.00000E+00         0.24986E+06
 
    0.14024E+06         0.74974E+06         0.00000E+00
    0.74974E+06         0.11137E+07         0.00000E+00
    0.00000E+00         0.00000E+00         0.25078E+06
 
    0.14473E+06         0.79561E+06         0.00000E+00
    0.79561E+06         0.11137E+07         0.00000E+00
    0.00000E+00         0.00000E+00         0.25168E+06
 
    0.14915E+06         0.84118E+06         0.00000E+00
    0.84118E+06         0.11136E+07         0.00000E+00
    0.00000E+00         0.00000E+00         0.25256E+06
 
    0.15349E+06         0.88644E+06         0.00000E+00
    0.88644E+06         0.11136E+07         0.00000E+00
    0.00000E+00         0.00000E+00         0.25342E+06
 
    0.15776E+06         0.93141E+06         0.00000E+00
    0.93141E+06         0.11136E+07         0.00000E+00
    0.00000E+00         0.00000E+00         0.25427E+06
 
    0.16197E+06         0.97608E+06         0.00000E+00
    0.97608E+06         0.11135E+07         0.00000E+00
    0.00000E+00         0.00000E+00         0.25509E+06
 
    0.16611E+06         0.10204E+07         0.00000E+00
    0.10204E+07         0.11134E+07         0.00000E+00
    0.00000E+00         0.00000E+00         0.25590E+06
 
    0.17019E+06         0.10645E+07         0.00000E+00
    0.10645E+07         0.11133E+07         0.00000E+00
    0.00000E+00         0.00000E+00         0.25670E+06
 
    0.17421E+06         0.11083E+07         0.00000E+00
    0.11083E+07         0.11132E+07         0.00000E+00
    0.00000E+00         0.00000E+00         0.25747E+06
 
    0.17817E+06         0.11517E+07         0.00000E+00
    0.11517E+07         0.11130E+07         0.00000E+00
    0.00000E+00         0.00000E+00         0.25823E+06
 
    0.18209E+06         0.11949E+07         0.00000E+00
    0.11949E+07         0.11128E+07         0.00000E+00
    0.00000E+00         0.00000E+00         0.25897E+06
 
    0.18596E+06         0.12377E+07         0.00000E+00
    0.12377E+07         0.11125E+07         0.00000E+00
    0.00000E+00         0.00000E+00         0.25970E+06
 
    0.18979E+06         0.12803E+07         0.00000E+00
    0.12803E+07         0.11123E+07         0.00000E+00
    0.00000E+00         0.00000E+00         0.26041E+06
 
    0.19358E+06         0.13225E+07         0.00000E+00
    0.13225E+07         0.11120E+07         0.00000E+00
    0.00000E+00         0.00000E+00         0.26111E+06
 
    0.19733E+06         0.13645E+07         0.00000E+00
    0.13645E+07         0.11116E+07         0.00000E+00
    0.00000E+00         0.00000E+00         0.26179E+06
 
    0.20105E+06         0.14061E+07         0.00000E+00
    0.14061E+07         0.11112E+07         0.00000E+00
    0.00000E+00         0.00000E+00         0.26246E+06
 
    0.20474E+06         0.14474E+07         0.00000E+00
    0.14474E+07         0.11108E+07         0.00000E+00
    0.00000E+00         0.00000E+00         0.26311E+06
 
    0.20841E+06         0.14884E+07         0.00000E+00
    0.14884E+07         0.11103E+07         0.00000E+00
    0.00000E+00         0.00000E+00         0.26375E+06
 
    0.21206E+06         0.15291E+07         0.00000E+00
    0.15291E+07         0.11098E+07         0.00000E+00
    0.00000E+00         0.00000E+00         0.26437E+06
 
    0.21569E+06         0.15695E+07         0.00000E+00
    0.15695E+07         0.11092E+07         0.00000E+00
    0.00000E+00         0.00000E+00         0.26499E+06
 
    0.21931E+06         0.16095E+07         0.00000E+00
    0.16095E+07         0.11086E+07         0.00000E+00
    0.00000E+00         0.00000E+00         0.26558E+06
 
    0.22293E+06         0.16493E+07         0.00000E+00
    0.16493E+07         0.11079E+07         0.00000E+00
    0.00000E+00         0.00000E+00         0.26617E+06
 
    0.22654E+06         0.16887E+07         0.00000E+00
    0.16887E+07         0.11072E+07         0.00000E+00
    0.00000E+00         0.00000E+00         0.26674E+06
 
    0.23014E+06         0.17278E+07         0.00000E+00
    0.17278E+07         0.11064E+07         0.00000E+00
    0.00000E+00         0.00000E+00         0.26730E+06
 
    0.23376E+06         0.17666E+07         0.00000E+00
    0.17666E+07         0.11055E+07         0.00000E+00
    0.00000E+00         0.00000E+00         0.26785E+06
 
    0.23738E+06         0.18051E+07         0.00000E+00
    0.18051E+07         0.11046E+07         0.00000E+00
    0.00000E+00         0.00000E+00         0.26839E+06
 
    0.24101E+06         0.18432E+07         0.00000E+00
    0.18432E+07         0.11036E+07         0.00000E+00
    0.00000E+00         0.00000E+00         0.26891E+06
 
    0.24466E+06         0.18810E+07         0.00000E+00
    0.18810E+07         0.11025E+07         0.00000E+00
    0.00000E+00         0.00000E+00         0.26943E+06
 
    0.24833E+06         0.19185E+07         0.00000E+00
    0.19185E+07         0.11013E+07         0.00000E+00
    0.00000E+00         0.00000E+00         0.26993E+06
 
    0.25202E+06         0.19556E+07         0.00000E+00
    0.19556E+07         0.11001E+07         0.00000E+00
    0.00000E+00         0.00000E+00         0.27043E+06
 
    0.25575E+06         0.19924E+07         0.00000E+00
    0.19924E+07         0.10988E+07         0.00000E+00
    0.00000E+00         0.00000E+00         0.27091E+06
 
    0.25950E+06         0.20288E+07         0.00000E+00
    0.20288E+07         0.10974E+07         0.00000E+00
    0.00000E+00         0.00000E+00         0.27138E+06
 
    0.26330E+06         0.20649E+07         0.00000E+00
    0.20649E+07         0.10959E+07         0.00000E+00
    0.00000E+00         0.00000E+00         0.27185E+06
 
    0.26714E+06         0.21007E+07         0.00000E+00
    0.21007E+07         0.10944E+07         0.00000E+00
    0.00000E+00         0.00000E+00         0.27230E+06
 
    0.27102E+06         0.21361E+07         0.00000E+00
    0.21361E+07         0.10927E+07         0.00000E+00
    0.00000E+00         0.00000E+00         0.27275E+06
 
    0.87803E+05         0.25612E+05         0.00000E+00
    0.25612E+05         0.88658E+06         0.00000E+00
    0.00000E+00         0.00000E+00         0.19488E+06
 
    0.92283E+05         0.76098E+05         0.00000E+00
    0.76098E+05         0.88660E+06         0.00000E+00
    0.00000E+00         0.00000E+00         0.19578E+06
 
    0.96645E+05         0.12627E+06         0.00000E+00
    0.12627E+06         0.88665E+06         0.00000E+00
    0.00000E+00         0.00000E+00         0.19666E+06
 
    0.10089E+06         0.17613E+06         0.00000E+00
    0.17613E+06         0.88671E+06         0.00000E+00
    0.00000E+00         0.00000E+00         0.19752E+06
 
    0.10502E+06         0.22568E+06         0.00000E+00
    0.22568E+06         0.88679E+06         0.00000E+00
    0.00000E+00         0.00000E+00         0.19836E+06
 
    0.10904E+06         0.27491E+06         0.00000E+00
    0.27491E+06         0.88689E+06         0.00000E+00
    0.00000E+00         0.00000E+00         0.19919E+06
 
    0.11296E+06         0.32383E+06         0.00000E+00
    0.32383E+06         0.88700E+06         0.00000E+00
    0.00000E+00         0.00000E+00         0.19999E+06
 
    0.11676E+06         0.37245E+06         0.00000E+00
    0.37245E+06         0.88713E+06         0.00000E+00
    0.00000E+00         0.00000E+00         0.20078E+06
 
    0.12047E+06         0.42075E+06         0.00000E+00
    0.42075E+06         0.88727E+06         0.00000E+00
    0.00000E+00         0.00000E+00         0.20155E+06
 
    0.12407E+06         0.46875E+06         0.00000E+00
    0.46875E+06         0.88742E+06         0.00000E+00
    0.00000E+00         0.00000E+00         0.20230E+06
 
    0.12757E+06         0.51643E+06         0.00000E+00
    0.51643E+06         0.88758E+06         0.00000E+00
    0.00000E+00         0.00000E+00         0.20303E+06
 
    0.13098E+06         0.56381E+06         0.00000E+00
    0.56381E+06         0.88775E+06         0.00000E+00
    0.00000E+00         0.00000E+00         0.20375E+06
 
    0.13430E+06         0.61087E+06         0.00000E+00
    0.61087E+06         0.88792E+06         0.00000E+00
    0.00000E+00         0.00000E+00         0.20444E+06
 
    0.13752E+06         0.65763E+06         0.00000E+00
    0.65763E+06         0.88810E+06         0.00000E+00
    0.00000E+00         0.00000E+00         0.20512E+06
 
    0.14066E+06         0.70408E+06         0.00000E+00
    0.70408E+06         0.88829E+06         0.00000E+00
    0.00000E+00         0.00000E+00         0.20579E+06
 
    0.14371E+06         0.75022E+06         0.00000E+00
    0.75022E+06         0.88847E+06         0.00000E+00
    0.00000E+00         0.00000E+00         0.20644E+06
 
    0.14669E+06         0.79605E+06         0.00000E+00
    0.79605E+06         0.88866E+06         0.00000E+00
    0.00000E+00         0.00000E+00         0.20707E+06
 
    0.14958E+06         0.84158E+06         0.00000E+00
    0.84158E+06         0.88885E+06         0.00000E+00
    0.00000E+00         0.00000E+00         0.20769E+06
 
    0.15240E+06         0.88679E+06         0.00000E+00
    0.88679E+06         0.88903E+06         0.00000E+00
    0.00000E+00         0.00000E+00         0.20829E+06
 
    0.15515E+06         0.93170E+06         0.00000E+00
    0.93170E+06         0.88921E+06         0.00000E+00
    0.00000E+00         0.00000E+00         0.20887E+06
 
    0.15782E+06         0.97629E+06         0.00000E+00
    0.97629E+06         0.88938E+06         0.00000E+00
    0.00000E+00         0.00000E+00         0.20944E+06
 
    0.16043E+06         0.10206E+07         0.00000E+00
    0.10206E+07         0.88954E+06         0.00000E+00
    0.00000E+00         0.00000E+00         0.21000E+06
 
    0.16298E+06         0.10645E+07         0.00000E+00
    0.10645E+07         0.88970E+06         0.00000E+00
    0.00000E+00         0.00000E+00         0.21054E+06
 
    0.16546E+06         0.11082E+07         0.00000E+00
    0.11082E+07         0.88984E+06         0.00000E+00
    0.00000E+00         0.00000E+00         0.21106E+06
 
    0.16789E+06         0.11516E+07         0.00000E+00
    0.11516E+07         0.88997E+06         0.00000E+00
    0.00000E+00         0.00000E+00         0.21157E+06
 
    0.17026E+06         0.11946E+07         0.00000E+00
    0.11946E+07         0.89009E+06         0.00000E+00
    0.00000E+00         0.00000E+00         0.21207E+06
 
    0.17259E+06         0.12373E+07         0.00000E+00
    0.12373E+07         0.89019E+06         0.00000E+00
    0.00000E+00         0.00000E+00         0.21255E+06
 
    0.17486E+06         0.12797E+07         0.00000E+00
    0.12797E+07         0.89026E+06         0.00000E+00
    0.00000E+00         0.00000E+00         0.21302E+06
 
    0.17709E+06         0.13218E+07         0.00000E+00
    0.13218E+07         0.89032E+06         0.00000E+00
    0.00000E+00         0.00000E+00         0.21348E+06
 
    0.17928E+06         0.13636E+07         0.00000E+00
    0.13636E+07         0.89036E+06         0.00000E+00
    0.00000E+00         0.00000E+00         0.21393E+06
 
    0.18143E+06         0.14050E+07         0.00000E+00
    0.14050E+07         0.89037E+06         0.00000E+00
    0.00000E+00         0.00000E+00         0.21436E+06
 
    0.18354E+06         0.14462E+07         0.00000E+00
    0.14462E+07         0.89035E+06         0.00000E+00
    0.00000E+00         0.00000E+00         0.21478E+06
 
    0.18563E+06         0.14870E+07         0.00000E+00
    0.14870E+07         0.89031E+06         0.00000E+00
    0.00000E+00         0.00000E+00         0.21519E+06
 
    0.18768E+06         0.15275E+07         0.00000E+00
    0.15275E+07         0.89023E+06         0.00000E+00
    0.00000E+00         0.00000E+00         0.21558E+06
 
    0.18971E+06         0.15676E+07         0.00000E+00
    0.15676E+07         0.89012E+06         0.00000E+00
    0.00000E+00         0.00000E+00         0.21597E+06
 
    0.19172E+06         0.16075E+07         0.00000E+00
    0.16075E+07         0.88998E+06         0.00000E+00
    0.00000E+00         0.00000E+00         0.21634E+06
 
    0.19371E+06         0.16470E+07         0.00000E+00
    0.16470E+07         0.88980E+06         0.00000E+00
    0.00000E+00         0.00000E+00         0.21670E+06
 
    0.19569E+06         0.16862E+07         0.00000E+00
    0.16862E+07         0.88958E+06         0.00000E+00
    0.00000E+00         0.00000E+00         0.21705E+06
 
    0.19766E+06         0.17250E+07         0.00000E+00
    0.17250E+07         0.88932E+06         0.00000E+00
    0.00000E+00         0.00000E+00         0.21739E+06
 
    0.19962E+06         0.17635E+07         0.00000E+00
    0.17635E+07         0.88901E+06         0.00000E+00
    0.00000E+00         0.00000E+00         0.21773E+06
 
    0.20157E+06         0.18017E+07         0.00000E+00
    0.18017E+07         0.88866E+06         0.00000E+00
    0.00000E+00         0.00000E+00         0.21805E+06
 
    0.20353E+06         0.18395E+07         0.00000E+00
    0.18395E+07         0.88826E+06         0.00000E+00
    0.00000E+00         0.00000E+00         0.21836E+06
 
    0.20549E+06         0.18770E+07         0.00000E+00
    0.18770E+07         0.88781E+06         0.00000E+00
    0.00000E+00         0.00000E+00         0.21866E+06
 
    0.20745E+06         0.19142E+07         0.00000E+00
    0.19142E+07         0.88731E+06         0.00000E+00
    0.00000E+00         0.00000E+00         0.21895E+06
 
    0.20943E+06         0.19510E+07         0.00000E+00
    0.19510E+07         0.88675E+06         0.00000E+00
    0.00000E+00         0.00000E+00         0.21924E+06
 
    0.21142E+06         0.19874E+07         0.00000E+00
    0.19874E+07         0.88613E+06         0.00000E+00
    0.00000E+00         0.00000E+00         0.21951E+06
 
    0.21343E+06         0.20235E+07         0.00000E+00
    0.20235E+07         0.88546E+06         0.00000E+00
    0.00000E+00         0.00000E+00         0.21978E+06
 
    0.21546E+06         0.20592E+07         0.00000E+00
    0.20592E+07         0.88472E+06         0.00000E+00
    0.00000E+00         0.00000E+00         0.22004E+06
 
    0.21751E+06         0.20946E+07         0.00000E+00
    0.20946E+07         0.88392E+06         0.00000E+00
    0.00000E+00         0.00000E+00         0.22029E+06
 
    0.21960E+06         0.21296E+07         0.00000E+00
    0.21296E+07         0.88305E+06         0.00000E+00
    0.00000E+00         0.00000E+00         0.22053E+06
 
    0.11741E+06         0.25685E+05         0.00000E+00
    0.25685E+05         0.66265E+06         0.00000E+00
    0.00000E+00         0.00000E+00         0.15601E+06
 
    0.12031E+06         0.76303E+05         0.00000E+00
    0.76303E+05         0.66268E+06         0.00000E+00
    0.00000E+00         0.00000E+00         0.15660E+06
 
    0.12309E+06         0.12660E+06         0.00000E+00
    0.12660E+06         0.66275E+06         0.00000E+00
    0.00000E+00         0.00000E+00         0.15717E+06
 
    0.12576E+06         0.17658E+06         0.00000E+00
    0.17658E+06         0.66284E+06         0.00000E+00
    0.00000E+00         0.00000E+00         0.15772E+06
 
    0.12831E+06         0.22624E+06         0.00000E+00
    0.22624E+06         0.66297E+06         0.00000E+00
    0.00000E+00         0.00000E+00         0.15826E+06
 
    0.13076E+06         0.27559E+06         0.00000E+00
    0.27559E+06         0.66312E+06         0.00000E+00
    0.00000E+00         0.00000E+00         0.15878E+06
 
    0.13311E+06         0.32461E+06         0.00000E+00
    0.32461E+06         0.66330E+06         0.00000E+00
    0.00000E+00         0.00000E+00         0.15928E+06
 
    0.13534E+06         0.37332E+06         0.00000E+00
    0.37332E+06         0.66351E+06         0.00000E+00
    0.00000E+00         0.00000E+00         0.15977E+06
 
    0.13748E+06         0.42172E+06         0.00000E+00
    0.42172E+06         0.66374E+06         0.00000E+00
    0.00000E+00         0.00000E+00         0.16024E+06
 
    0.13952E+06         0.46979E+06         0.00000E+00
    0.46979E+06         0.66400E+06         0.00000E+00
    0.00000E+00         0.00000E+00         0.16070E+06
 
    0.14146E+06         0.51756E+06         0.00000E+00
    0.51756E+06         0.66427E+06         0.00000E+00
    0.00000E+00         0.00000E+00         0.16115E+06
 
    0.14331E+06         0.56500E+06         0.00000E+00
    0.56500E+06         0.66457E+06         0.00000E+00
    0.00000E+00         0.00000E+00         0.16158E+06
 
    0.14506E+06         0.61213E+06         0.00000E+00
    0.61213E+06         0.66489E+06         0.00000E+00
    0.00000E+00         0.00000E+00         0.16199E+06
 
    0.14672E+06         0.65894E+06         0.00000E+00
    0.65894E+06         0.66522E+06         0.00000E+00
    0.00000E+00         0.00000E+00         0.16239E+06
 
    0.14830E+06         0.70544E+06         0.00000E+00
    0.70544E+06         0.66558E+06         0.00000E+00
    0.00000E+00         0.00000E+00         0.16278E+06
 
    0.14979E+06         0.75162E+06         0.00000E+00
    0.75162E+06         0.66595E+06         0.00000E+00
    0.00000E+00         0.00000E+00         0.16315E+06
 
    0.15120E+06         0.79749E+06         0.00000E+00
    0.79749E+06         0.66633E+06         0.00000E+00
    0.00000E+00         0.00000E+00         0.16351E+06
 
    0.15253E+06         0.84303E+06         0.00000E+00
    0.84303E+06         0.66672E+06         0.00000E+00
    0.00000E+00         0.00000E+00         0.16385E+06
 
    0.15378E+06         0.88827E+06         0.00000E+00
    0.88827E+06         0.66713E+06         0.00000E+00
    0.00000E+00         0.00000E+00         0.16418E+06
 
    0.15496E+06         0.93318E+06         0.00000E+00
    0.93318E+06         0.66755E+06         0.00000E+00
    0.00000E+00         0.00000E+00         0.16450E+06
 
    0.15607E+06         0.97778E+06         0.00000E+00
    0.97778E+06         0.66797E+06         0.00000E+00
    0.00000E+00         0.00000E+00         0.16481E+06
 
    0.15710E+06         0.10221E+07         0.00000E+00
    0.10221E+07         0.66840E+06         0.00000E+00
    0.00000E+00         0.00000E+00         0.16510E+06
 
    0.15807E+06         0.10660E+07         0.00000E+00
    0.10660E+07         0.66884E+06         0.00000E+00
    0.00000E+00         0.00000E+00         0.16538E+06
 
    0.15897E+06         0.11097E+07         0.00000E+00
    0.11097E+07         0.66928E+06         0.00000E+00
    0.00000E+00         0.00000E+00         0.16565E+06
 
    0.15982E+06         0.11530E+07         0.00000E+00
    0.11530E+07         0.66973E+06         0.00000E+00
    0.00000E+00         0.00000E+00         0.16591E+06
 
    0.16060E+06         0.11960E+07         0.00000E+00
    0.11960E+07         0.67017E+06         0.00000E+00
    0.00000E+00         0.00000E+00         0.16615E+06
 
    0.16133E+06         0.12386E+07         0.00000E+00
    0.12386E+07         0.67062E+06         0.00000E+00
    0.00000E+00         0.00000E+00         0.16639E+06
 
    0.16200E+06         0.12810E+07         0.00000E+00
    0.12810E+07         0.67106E+06         0.00000E+00
    0.00000E+00         0.00000E+00         0.16661E+06
 
    0.16262E+06         0.13230E+07         0.00000E+00
    0.13230E+07         0.67149E+06         0.00000E+00
    0.00000E+00         0.00000E+00         0.16682E+06
 
    0.16319E+06         0.13647E+07         0.00000E+00
    0.13647E+07         0.67193E+06         0.00000E+00
    0.00000E+00         0.00000E+00         0.16702E+06
 
    0.16372E+06         0.14061E+07         0.00000E+00
    0.14061E+07         0.67235E+06         0.00000E+00
    0.00000E+00         0.00000E+00         0.16721E+06
 
    0.16421E+06         0.14471E+07         0.00000E+00
    0.14471E+07         0.67277E+06         0.00000E+00
    0.00000E+00         0.00000E+00         0.16740E+06
 
    0.16466E+06         0.14878E+07         0.00000E+00
    0.14878E+07         0.67317E+06         0.00000E+00
    0.00000E+00         0.00000E+00         0.16757E+06
 
    0.16507E+06         0.15282E+07         0.00000E+00
    0.15282E+07         0.67356E+06         0.00000E+00
    0.00000E+00         0.00000E+00         0.16773E+06
 
    0.16544E+06         0.15682E+07         0.00000E+00
    0.15682E+07         0.67394E+06         0.00000E+00
    0.00000E+00         0.00000E+00         0.16788E+06
 
    0.16579E+06         0.16079E+07         0.00000E+00
    0.16079E+07         0.67430E+06         0.00000E+00
    0.00000E+00         0.00000E+00         0.16802E+06
 
    0.16610E+06         0.16473E+07         0.00000E+00
    0.16473E+07         0.67465E+06         0.00000E+00
    0.00000E+00         0.00000E+00         0.16815E+06
 
    0.16640E+06         0.16863E+07         0.00000E+00
    0.16863E+07         0.67497E+06         0.00000E+00
    0.00000E+00         0.00000E+00         0.16827E+06
 
    0.16667E+06         0.17250E+07         0.00000E+00
    0.17250E+07         0.67527E+06         0.00000E+00
    0.00000E+00         0.00000E+00         0.16839E+06
 
    0.16692E+06         0.17634E+07         0.00000E+00
    0.17634E+07         0.67555E+06         0.00000E+00
    0.00000E+00         0.00000E+00         0.16849E+06
 
    0.16715E+06         0.18013E+07         0.00000E+00
    0.18013E+07         0.67581E+06         0.00000E+00
    0.00000E+00         0.00000E+00         0.16859E+06
 
    0.16737E+06         0.18390E+07         0.00000E+00
    0.18390E+07         0.67603E+06         0.00000E+00
    0.00000E+00         0.00000E+00         0.16868E+06
 
    0.16758E+06         0.18763E+07         0.00000E+00
    0.18763E+07         0.67623E+06         0.00000E+00
    0.00000E+00         0.00000E+00         0.16876E+06
 
    0.16779E+06         0.19132E+07         0.00000E+00
    0.19132E+07         0.67640E+06         0.00000E+00
    0.00000E+00         0.00000E+00         0.16884E+06
 
    0.16799E+06         0.19498E+07         0.00000E+00
    0.19498E+07         0.67653E+06         0.00000E+00
    0.00000E+00         0.00000E+00         0.16890E+06
 
    0.16819E+06         0.19860E+07         0.00000E+00
    0.19860E+07         0.67663E+06         0.00000E+00
    0.00000E+00         0.00000E+00         0.16896E+06
 
    0.16839E+06         0.20218E+07         0.00000E+00
    0.20218E+07         0.67670E+06         0.00000E+00
    0.00000E+00         0.00000E+00         0.16902E+06
 
    0.16859E+06         0.20573E+07         0.00000E+00
    0.20573E+07         0.67672E+06         0.00000E+00
    0.00000E+00         0.00000E+00         0.16906E+06
 
    0.16881E+06         0.20924E+07         0.00000E+00
    0.20924E+07         0.67671E+06         0.00000E+00
    0.00000E+00         0.00000E+00         0.16910E+06
 
    0.16903E+06         0.21271E+07         0.00000E+00
    0.21271E+07         0.67665E+06         0.00000E+00
    0.00000E+00         0.00000E+00         0.16914E+06
 
    0.14957E+06         0.25785E+05         0.00000E+00
    0.25785E+05         0.44044E+06         0.00000E+00
    0.00000E+00         0.00000E+00         0.11800E+06
 
    0.15085E+06         0.76593E+05         0.00000E+00
    0.76593E+05         0.44048E+06         0.00000E+00
    0.00000E+00         0.00000E+00         0.11827E+06
 
    0.15202E+06         0.12708E+06         0.00000E+00
    0.12708E+06         0.44057E+06         0.00000E+00
    0.00000E+00         0.00000E+00         0.11852E+06
 
    0.15308E+06         0.17724E+06         0.00000E+00
    0.17724E+06         0.44070E+06         0.00000E+00
    0.00000E+00         0.00000E+00         0.11876E+06
 
    0.15404E+06         0.22707E+06         0.00000E+00
    0.22707E+06         0.44087E+06         0.00000E+00
    0.00000E+00         0.00000E+00         0.11898E+06
 
    0.15488E+06         0.27658E+06         0.00000E+00
    0.27658E+06         0.44109E+06         0.00000E+00
    0.00000E+00         0.00000E+00         0.11919E+06
 
    0.15563E+06         0.32577E+06         0.00000E+00
    0.32577E+06         0.44134E+06         0.00000E+00
    0.00000E+00         0.00000E+00         0.11939E+06
 
    0.15627E+06         0.37464E+06         0.00000E+00
    0.37464E+06         0.44163E+06         0.00000E+00
    0.00000E+00         0.00000E+00         0.11958E+06
 
    0.15681E+06         0.42319E+06         0.00000E+00
    0.42319E+06         0.44196E+06         0.00000E+00
    0.00000E+00         0.00000E+00         0.11975E+06
 
    0.15725E+06         0.47141E+06         0.00000E+00
    0.47141E+06         0.44232E+06         0.00000E+00
    0.00000E+00         0.00000E+00         0.11991E+06
 
    0.15759E+06         0.51931E+06         0.00000E+00
    0.51931E+06         0.44272E+06         0.00000E+00
    0.00000E+00         0.00000E+00         0.12006E+06
 
    0.15785E+06         0.56689E+06         0.00000E+00
    0.56689E+06         0.44315E+06         0.00000E+00
    0.00000E+00         0.00000E+00         0.12020E+06
 
    0.15800E+06         0.61415E+06         0.00000E+00
    0.61415E+06         0.44362E+06         0.00000E+00
    0.00000E+00         0.00000E+00         0.12032E+06
 
    0.15807E+06         0.66108E+06         0.00000E+00
    0.66108E+06         0.44411E+06         0.00000E+00
    0.00000E+00         0.00000E+00         0.12044E+06
 
    0.15805E+06         0.70769E+06         0.00000E+00
    0.70769E+06         0.44464E+06         0.00000E+00
    0.00000E+00         0.00000E+00         0.12054E+06
 
    0.15795E+06         0.75398E+06         0.00000E+00
    0.75398E+06         0.44520E+06         0.00000E+00
    0.00000E+00         0.00000E+00         0.12063E+06
 
    0.15776E+06         0.79995E+06         0.00000E+00
    0.79995E+06         0.44579E+06         0.00000E+00
    0.00000E+00         0.00000E+00         0.12071E+06
 
    0.15749E+06         0.84560E+06         0.00000E+00
    0.84560E+06         0.44640E+06         0.00000E+00
    0.00000E+00         0.00000E+00         0.12078E+06
 
    0.15714E+06         0.89092E+06         0.00000E+00
    0.89092E+06         0.44704E+06         0.00000E+00
    0.00000E+00         0.00000E+00         0.12084E+06
 
    0.15671E+06         0.93592E+06         0.00000E+00
    0.93592E+06         0.44770E+06         0.00000E+00
    0.00000E+00         0.00000E+00         0.12088E+06
 
    0.15621E+06         0.98059E+06         0.00000E+00
    0.98059E+06         0.44839E+06         0.00000E+00
    0.00000E+00         0.00000E+00         0.12092E+06
 
    0.15563E+06         0.10249E+07         0.00000E+00
    0.10249E+07         0.44910E+06         0.00000E+00
    0.00000E+00         0.00000E+00         0.12095E+06
 
    0.15498E+06         0.10690E+07         0.00000E+00
    0.10690E+07         0.44983E+06         0.00000E+00
    0.00000E+00         0.00000E+00         0.12096E+06
 
    0.15427E+06         0.11127E+07         0.00000E+00
    0.11127E+07         0.45058E+06         0.00000E+00
    0.00000E+00         0.00000E+00         0.12097E+06
 
    0.15348E+06         0.11560E+07         0.00000E+00
    0.11560E+07         0.45135E+06         0.00000E+00
    0.00000E+00         0.00000E+00         0.12097E+06
 
    0.15264E+06         0.11991E+07         0.00000E+00
    0.11991E+07         0.45214E+06         0.00000E+00
    0.00000E+00         0.00000E+00         0.12095E+06
 
    0.15173E+06         0.12418E+07         0.00000E+00
    0.12418E+07         0.45294E+06         0.00000E+00
    0.00000E+00         0.00000E+00         0.12093E+06
 
    0.15076E+06         0.12841E+07         0.00000E+00
    0.12841E+07         0.45375E+06         0.00000E+00
    0.00000E+00         0.00000E+00         0.12090E+06
 
    0.14973E+06         0.13262E+07         0.00000E+00
    0.13262E+07         0.45458E+06         0.00000E+00
    0.00000E+00         0.00000E+00         0.12086E+06
 
    0.14865E+06         0.13679E+07         0.00000E+00
    0.13679E+07         0.45543E+06         0.00000E+00
    0.00000E+00         0.00000E+00         0.12082E+06
 
    0.14752E+06         0.14093E+07         0.00000E+00
    0.14093E+07         0.45628E+06         0.00000E+00
    0.00000E+00         0.00000E+00         0.12076E+06
 
    0.14633E+06         0.14503E+07         0.00000E+00
    0.14503E+07         0.45714E+06         0.00000E+00
    0.00000E+00         0.00000E+00         0.12069E+06
 
    0.14510E+06         0.14910E+07         0.00000E+00
    0.14910E+07         0.45801E+06         0.00000E+00
    0.00000E+00         0.00000E+00         0.12062E+06
 
    0.14382E+06         0.15314E+07         0.00000E+00
    0.15314E+07         0.45889E+06         0.00000E+00
    0.00000E+00         0.00000E+00         0.12054E+06
 
    0.14250E+06         0.15714E+07         0.00000E+00
    0.15714E+07         0.45977E+06         0.00000E+00
    0.00000E+00         0.00000E+00         0.12045E+06
 
    0.14113E+06         0.16110E+07         0.00000E+00
    0.16110E+07         0.46065E+06         0.00000E+00
    0.00000E+00         0.00000E+00         0.12036E+06
 
    0.13973E+06         0.16504E+07         0.00000E+00
    0.16504E+07         0.46154E+06         0.00000E+00
    0.00000E+00         0.00000E+00         0.12025E+06
 
    0.13829E+06         0.16893E+07         0.00000E+00
    0.16893E+07         0.46242E+06         0.00000E+00
    0.00000E+00         0.00000E+00         0.12014E+06
 
    0.13682E+06         0.17279E+07         0.00000E+00
    0.17279E+07         0.46331E+06         0.00000E+00
    0.00000E+00         0.00000E+00         0.12002E+06
 
    0.13531E+06         0.17662E+07         0.00000E+00
    0.17662E+07         0.46419E+06         0.00000E+00
    0.00000E+00         0.00000E+00         0.11990E+06
 
    0.13378E+06         0.18041E+07         0.00000E+00
    0.18041E+07         0.46507E+06         0.00000E+00
    0.00000E+00         0.00000E+00         0.11977E+06
 
    0.13222E+06         0.18417E+07         0.00000E+00
    0.18417E+07         0.46594E+06         0.00000E+00
    0.00000E+00         0.00000E+00         0.11963E+06
 
    0.13063E+06         0.18789E+07         0.00000E+00
    0.18789E+07         0.46681E+06         0.00000E+00
    0.00000E+00         0.00000E+00         0.11949E+06
 
    0.12903E+06         0.19157E+07         0.00000E+00
    0.19157E+07         0.46767E+06         0.00000E+00
    0.00000E+00         0.00000E+00         0.11934E+06
 
    0.12740E+06         0.19521E+07         0.00000E+00
    0.19521E+07         0.46851E+06         0.00000E+00
    0.00000E+00         0.00000E+00         0.11918E+06
 
    0.12576E+06         0.19882E+07         0.00000E+00
    0.19882E+07         0.46935E+06         0.00000E+00
    0.00000E+00         0.00000E+00         0.11902E+06
 
    0.12410E+06         0.20239E+07         0.00000E+00
    0.20239E+07         0.47017E+06         0.00000E+00
    0.00000E+00         0.00000E+00         0.11885E+06
 
    0.12243E+06         0.20593E+07         0.00000E+00
    0.20593E+07         0.47098E+06         0.00000E+00
    0.00000E+00         0.00000E+00         0.11868E+06
 
    0.12076E+06         0.20942E+07         0.00000E+00
    0.20942E+07         0.47177E+06         0.00000E+00
    0.00000E+00         0.00000E+00         0.11851E+06
 
    0.11907E+06         0.21288E+07         0.00000E+00
    0.21288E+07         0.47254E+06         0.00000E+00
    0.00000E+00         0.00000E+00         0.11832E+06
 
    0.18367E+06         0.25915E+05         0.00000E+00
    0.25915E+05         0.21907E+06         0.00000E+00
    0.00000E+00         0.00000E+00         0.80549E+05
 
    0.18332E+06         0.76971E+05         0.00000E+00
    0.76971E+05         0.21913E+06         0.00000E+00
    0.00000E+00         0.00000E+00         0.80490E+05
 
    0.18286E+06         0.12770E+06         0.00000E+00
    0.12770E+06         0.21924E+06         0.00000E+00
    0.00000E+00         0.00000E+00         0.80420E+05
 
    0.18229E+06         0.17810E+06         0.00000E+00
    0.17810E+06         0.21941E+06         0.00000E+00
    0.00000E+00         0.00000E+00         0.80339E+05
 
    0.18161E+06         0.22817E+06         0.00000E+00
    0.22817E+06         0.21963E+06         0.00000E+00
    0.00000E+00         0.00000E+00         0.80248E+05
 
    0.18083E+06         0.27791E+06         0.00000E+00
    0.27791E+06         0.21990E+06         0.00000E+00
    0.00000E+00         0.00000E+00         0.80147E+05
 
    0.17995E+06         0.32733E+06         0.00000E+00
    0.32733E+06         0.22023E+06         0.00000E+00
    0.00000E+00         0.00000E+00         0.80036E+05
 
    0.17897E+06         0.37641E+06         0.00000E+00
    0.37641E+06         0.22060E+06         0.00000E+00
    0.00000E+00         0.00000E+00         0.79914E+05
 
    0.17788E+06         0.42517E+06         0.00000E+00
    0.42517E+06         0.22103E+06         0.00000E+00
    0.00000E+00         0.00000E+00         0.79783E+05
 
    0.17670E+06         0.47361E+06         0.00000E+00
    0.47361E+06         0.22151E+06         0.00000E+00
    0.00000E+00         0.00000E+00         0.79642E+05
 
    0.17543E+06         0.52172E+06         0.00000E+00
    0.52172E+06         0.22203E+06         0.00000E+00
    0.00000E+00         0.00000E+00         0.79491E+05
 
    0.17405E+06         0.56950E+06         0.00000E+00
    0.56950E+06         0.22260E+06         0.00000E+00
    0.00000E+00         0.00000E+00         0.79331E+05
 
    0.17259E+06         0.61695E+06         0.00000E+00
    0.61695E+06         0.22322E+06         0.00000E+00
    0.00000E+00         0.00000E+00         0.79162E+05
 
    0.17104E+06         0.66408E+06         0.00000E+00
    0.66408E+06         0.22388E+06         0.00000E+00
    0.00000E+00         0.00000E+00         0.78984E+05
 
    0.16939E+06         0.71087E+06         0.00000E+00
    0.71087E+06         0.22459E+06         0.00000E+00
    0.00000E+00         0.00000E+00         0.78797E+05
 
    0.16766E+06         0.75734E+06         0.00000E+00
    0.75734E+06         0.22535E+06         0.00000E+00
    0.00000E+00         0.00000E+00         0.78601E+05
 
    0.16584E+06         0.80349E+06         0.00000E+00
    0.80349E+06         0.22614E+06         0.00000E+00
    0.00000E+00         0.00000E+00         0.78397E+05
 
    0.16394E+06         0.84930E+06         0.00000E+00
    0.84930E+06         0.22698E+06         0.00000E+00
    0.00000E+00         0.00000E+00         0.78184E+05
 
    0.16196E+06         0.89479E+06         0.00000E+00
    0.89479E+06         0.22786E+06         0.00000E+00
    0.00000E+00         0.00000E+00         0.77963E+05
 
    0.15990E+06         0.93994E+06         0.00000E+00
    0.93994E+06         0.22877E+06         0.00000E+00
    0.00000E+00         0.00000E+00         0.77734E+05
 
    0.15775E+06         0.98477E+06         0.00000E+00
    0.98477E+06         0.22973E+06         0.00000E+00
    0.00000E+00         0.00000E+00         0.77497E+05
 
    0.15553E+06         0.10293E+07         0.00000E+00
    0.10293E+07         0.23073E+06         0.00000E+00
    0.00000E+00         0.00000E+00         0.77252E+05
 
    0.15324E+06         0.10734E+07         0.00000E+00
    0.10734E+07         0.23176E+06         0.00000E+00
    0.00000E+00         0.00000E+00         0.77000E+05
 
    0.15087E+06         0.11173E+07         0.00000E+00
    0.11173E+07         0.23283E+06         0.00000E+00
    0.00000E+00         0.00000E+00         0.76740E+05
 
    0.14843E+06         0.11608E+07         0.00000E+00
    0.11608E+07         0.23393E+06         0.00000E+00
    0.00000E+00         0.00000E+00         0.76472E+05
 
    0.14592E+06         0.12039E+07         0.00000E+00
    0.12039E+07         0.23507E+06         0.00000E+00
    0.00000E+00         0.00000E+00         0.76198E+05
 
    0.14334E+06         0.12467E+07         0.00000E+00
    0.12467E+07         0.23624E+06         0.00000E+00
    0.00000E+00         0.00000E+00         0.75916E+05
 
    0.14070E+06         0.12892E+07         0.00000E+00
    0.12892E+07         0.23744E+06         0.00000E+00
    0.00000E+00         0.00000E+00         0.75628E+05
 
    0.13799E+06         0.13314E+07         0.00000E+00
    0.13314E+07         0.23867E+06         0.00000E+00
    0.00000E+00         0.00000E+00         0.75332E+05
 
    0.13522E+06         0.13732E+07         0.00000E+00
    0.13732E+07         0.23994E+06         0.00000E+00
    0.00000E+00         0.00000E+00         0.75031E+05
 
    0.13239E+06         0.14147E+07         0.00000E+00
    0.14147E+07         0.24123E+06         0.00000E+00
    0.00000E+00         0.00000E+00         0.74722E+05
 
    0.12949E+06         0.14558E+07         0.00000E+00
    0.14558E+07         0.24255E+06         0.00000E+00
    0.00000E+00         0.00000E+00         0.74408E+05
 
    0.12654E+06         0.14966E+07         0.00000E+00
    0.14966E+07         0.24389E+06         0.00000E+00
    0.00000E+00         0.00000E+00         0.74087E+05
 
    0.12354E+06         0.15370E+07         0.00000E+00
    0.15370E+07         0.24526E+06         0.00000E+00
    0.00000E+00         0.00000E+00         0.73761E+05
 
    0.12048E+06         0.15771E+07         0.00000E+00
    0.15771E+07         0.24666E+06         0.00000E+00
    0.00000E+00         0.00000E+00         0.73428E+05
 
    0.11737E+06         0.16168E+07         0.00000E+00
    0.16168E+07         0.24808E+06         0.00000E+00
    0.00000E+00         0.00000E+00         0.73090E+05
 
    0.11421E+06         0.16562E+07         0.00000E+00
    0.16562E+07         0.24952E+06         0.00000E+00
    0.00000E+00         0.00000E+00         0.72746E+05
 
    0.11100E+06         0.16952E+07         0.00000E+00
    0.16952E+07         0.25098E+06         0.00000E+00
    0.00000E+00         0.00000E+00         0.72397E+05
 
    0.10775E+06         0.17339E+07         0.00000E+00
    0.17339E+07         0.25246E+06         0.00000E+00
    0.00000E+00         0.00000E+00         0.72043E+05
 
    0.10445E+06         0.17722E+07         0.00000E+00
    0.17722E+07         0.25397E+06         0.00000E+00
    0.00000E+00         0.00000E+00         0.71684E+05
 
    0.10111E+06         0.18101E+07         0.00000E+00
    0.18101E+07         0.25548E+06         0.00000E+00
    0.00000E+00         0.00000E+00         0.71319E+05
 
    0.97731E+05         0.18477E+07         0.00000E+00
    0.18477E+07         0.25702E+06         0.00000E+00
    0.00000E+00         0.00000E+00         0.70950E+05
 
    0.94312E+05         0.18849E+07         0.00000E+00
    0.18849E+07         0.25857E+06         0.00000E+00
    0.00000E+00         0.00000E+00         0.70576E+05
 
    0.90856E+05         0.19217E+07         0.00000E+00
    0.19217E+07         0.26013E+06         0.00000E+00
    0.00000E+00         0.00000E+00         0.70198E+05
 
    0.87366E+05         0.19582E+07         0.00000E+00
    0.19582E+07         0.26171E+06         0.00000E+00
    0.00000E+00         0.00000E+00         0.69815E+05
 
    0.83842E+05         0.19943E+07         0.00000E+00
    0.19943E+07         0.26330E+06         0.00000E+00
    0.00000E+00         0.00000E+00         0.69428E+05
 
    0.80289E+05         0.20300E+07         0.00000E+00
    0.20300E+07         0.26490E+06         0.00000E+00
    0.00000E+00         0.00000E+00         0.69037E+05
 
    0.76706E+05         0.20653E+07         0.00000E+00
    0.20653E+07         0.26650E+06         0.00000E+00
    0.00000E+00         0.00000E+00         0.68642E+05
 
    0.73096E+05         0.21002E+07         0.00000E+00
    0.21002E+07         0.26812E+06         0.00000E+00
    0.00000E+00         0.00000E+00         0.68243E+05
 
    0.69462E+05         0.21348E+07         0.00000E+00
    0.21348E+07         0.26974E+06         0.00000E+00
    0.00000E+00         0.00000E+00         0.67841E+05
 
    0.21914E+06         0.26074E+05         0.00000E+00
    0.26074E+05        -0.23331E+04         0.00000E+00
    0.00000E+00         0.00000E+00         0.43361E+05
 
    0.21713E+06         0.77439E+05         0.00000E+00
    0.77439E+05        -0.22639E+04         0.00000E+00
    0.00000E+00         0.00000E+00         0.42973E+05
 
    0.21501E+06         0.12847E+06         0.00000E+00
    0.12847E+06        -0.21271E+04         0.00000E+00
    0.00000E+00         0.00000E+00         0.42577E+05
 
    0.21279E+06         0.17917E+06         0.00000E+00
    0.17917E+06        -0.19235E+04         0.00000E+00
    0.00000E+00         0.00000E+00         0.42174E+05
 
    0.21047E+06         0.22954E+06         0.00000E+00
    0.22954E+06        -0.16536E+04         0.00000E+00
    0.00000E+00         0.00000E+00         0.41762E+05
 
    0.20804E+06         0.27958E+06         0.00000E+00
    0.27958E+06        -0.13183E+04         0.00000E+00
    0.00000E+00         0.00000E+00         0.41344E+05
 
    0.20551E+06         0.32928E+06         0.00000E+00
    0.32928E+06        -0.91816E+03         0.00000E+00
    0.00000E+00         0.00000E+00         0.40918E+05
 
    0.20288E+06         0.37865E+06         0.00000E+00
    0.37865E+06        -0.45397E+03         0.00000E+00
    0.00000E+00         0.00000E+00         0.40485E+05
 
    0.20015E+06         0.42770E+06         0.00000E+00
    0.42770E+06         0.73570E+02         0.00000E+00
    0.00000E+00         0.00000E+00         0.40045E+05
 
    0.19732E+06         0.47641E+06         0.00000E+00
    0.47641E+06         0.66376E+03         0.00000E+00
    0.00000E+00         0.00000E+00         0.39598E+05
 
    0.19440E+06         0.52479E+06         0.00000E+00
    0.52479E+06         0.13159E+04         0.00000E+00
    0.00000E+00         0.00000E+00         0.39144E+05
 
    0.19139E+06         0.57284E+06         0.00000E+00
    0.57284E+06         0.20293E+04         0.00000E+00
    0.00000E+00         0.00000E+00         0.38683E+05
 
    0.18828E+06         0.62056E+06         0.00000E+00
    0.62056E+06         0.28031E+04         0.00000E+00
    0.00000E+00         0.00000E+00         0.38216E+05
 
    0.18508E+06         0.66795E+06         0.00000E+00
    0.66795E+06         0.36368E+04         0.00000E+00
    0.00000E+00         0.00000E+00         0.37743E+05
 
    0.18178E+06         0.71500E+06         0.00000E+00
    0.71500E+06         0.45296E+04         0.00000E+00
    0.00000E+00         0.00000E+00         0.37263E+05
 
    0.17840E+06         0.76173E+06         0.00000E+00
    0.76173E+06         0.54807E+04         0.00000E+00
    0.00000E+00         0.00000E+00         0.36777E+05
 
    0.17494E+06         0.80812E+06         0.00000E+00
    0.80812E+06         0.64895E+04         0.00000E+00
    0.00000E+00         0.00000E+00         0.36285E+05
 
    0.17138E+06         0.85418E+06         0.00000E+00
    0.85418E+06         0.75553E+04         0.00000E+00
    0.00000E+00         0.00000E+00         0.35787E+05
 
    0.16774E+06         0.89990E+06         0.00000E+00
    0.89990E+06         0.86772E+04         0.00000E+00
    0.00000E+00         0.00000E+00         0.35283E+05
 
    0.16402E+06         0.94530E+06         0.00000E+00
    0.94530E+06         0.98546E+04         0.00000E+00
    0.00000E+00         0.00000E+00         0.34774E+05
 
    0.16021E+06         0.99036E+06         0.00000E+00
    0.99036E+06         0.11087E+05         0.00000E+00
    0.00000E+00         0.00000E+00         0.34259E+05
 
    0.15632E+06         0.10351E+07         0.00000E+00
    0.10351E+07         0.12373E+05         0.00000E+00
    0.00000E+00         0.00000E+00         0.33739E+05
 
    0.15236E+06         0.10795E+07         0.00000E+00
    0.10795E+07         0.13712E+05         0.00000E+00
    0.00000E+00         0.00000E+00         0.33213E+05
 
    0.14831E+06         0.11235E+07         0.00000E+00
    0.11235E+07         0.15104E+05         0.00000E+00
    0.00000E+00         0.00000E+00         0.32683E+05
 
    0.14419E+06         0.11672E+07         0.00000E+00
    0.11672E+07         0.16548E+05         0.00000E+00
    0.00000E+00         0.00000E+00         0.32147E+05
 
    0.13999E+06         0.12106E+07         0.00000E+00
    0.12106E+07         0.18043E+05         0.00000E+00
    0.00000E+00         0.00000E+00         0.31606E+05
 
    0.13571E+06         0.12536E+07         0.00000E+00
    0.12536E+07         0.19589E+05         0.00000E+00
    0.00000E+00         0.00000E+00         0.31061E+05
 
    0.13137E+06         0.12963E+07         0.00000E+00
    0.12963E+07         0.21183E+05         0.00000E+00
    0.00000E+00         0.00000E+00         0.30510E+05
 
    0.12695E+06         0.13387E+07         0.00000E+00
    0.13387E+07         0.22827E+05         0.00000E+00
    0.00000E+00         0.00000E+00         0.29955E+05
 
    0.12246E+06         0.13807E+07         0.00000E+00
    0.13807E+07         0.24519E+05         0.00000E+00
    0.00000E+00         0.00000E+00         0.29396E+05
 
    0.11790E+06         0.14223E+07         0.00000E+00
    0.14223E+07         0.26258E+05         0.00000E+00
    0.00000E+00         0.00000E+00         0.28832E+05
 
    0.11328E+06         0.14636E+07         0.00000E+00
    0.14636E+07         0.28043E+05         0.00000E+00
    0.00000E+00         0.00000E+00         0.28264E+05
 
    0.10859E+06         0.15046E+07         0.00000E+00
    0.15046E+07         0.29875E+05         0.00000E+00
    0.00000E+00         0.00000E+00         0.27692E+05
 
    0.10383E+06         0.15452E+07         0.00000E+00
    0.15452E+07         0.31751E+05         0.00000E+00
    0.00000E+00         0.00000E+00         0.27116E+05
 
    0.99008E+05         0.15855E+07         0.00000E+00
    0.15855E+07         0.33671E+05         0.00000E+00
    0.00000E+00         0.00000E+00         0.26536E+05
 
    0.94124E+05         0.16253E+07         0.00000E+00
    0.16253E+07         0.35635E+05         0.00000E+00
    0.00000E+00         0.00000E+00         0.25952E+05
 
    0.89179E+05         0.16649E+07         0.00000E+00
    0.16649E+07         0.37642E+05         0.00000E+00
    0.00000E+00         0.00000E+00         0.25364E+05
 
    0.84174E+05         0.17041E+07         0.00000E+00
    0.17041E+07         0.39690E+05         0.00000E+00
    0.00000E+00         0.00000E+00         0.24773E+05
 
    0.79111E+05         0.17429E+07         0.00000E+00
    0.17429E+07         0.41780E+05         0.00000E+00
    0.00000E+00         0.00000E+00         0.24178E+05
 
    0.73991E+05         0.17813E+07         0.00000E+00
    0.17813E+07         0.43909E+05         0.00000E+00
    0.00000E+00         0.00000E+00         0.23580E+05
 
    0.68815E+05         0.18194E+07         0.00000E+00
    0.18194E+07         0.46078E+05         0.00000E+00
    0.00000E+00         0.00000E+00         0.22979E+05
 
    0.63584E+05         0.18571E+07         0.00000E+00
    0.18571E+07         0.48286E+05         0.00000E+00
    0.00000E+00         0.00000E+00         0.22374E+05
 
    0.58300E+05         0.18945E+07         0.00000E+00
    0.18945E+07         0.50532E+05         0.00000E+00
    0.00000E+00         0.00000E+00         0.21766E+05
 
    0.52965E+05         0.19314E+07         0.00000E+00
    0.19314E+07         0.52814E+05         0.00000E+00
    0.00000E+00         0.00000E+00         0.21156E+05
 
    0.47579E+05         0.19680E+07         0.00000E+00
    0.19680E+07         0.55132E+05         0.00000E+00
    0.00000E+00         0.00000E+00         0.20542E+05
 
    0.42144E+05         0.20042E+07         0.00000E+00
    0.20042E+07         0.57486E+05         0.00000E+00
    0.00000E+00         0.00000E+00         0.19926E+05
 
    0.36661E+05         0.20400E+07         0.00000E+00
    0.20400E+07         0.59874E+05         0.00000E+00
    0.00000E+00         0.00000E+00         0.19307E+05
 
    0.31132E+05         0.20754E+07         0.00000E+00
    0.20754E+07         0.62296E+05         0.00000E+00
    0.00000E+00         0.00000E+00         0.18686E+05
 
    0.25559E+05         0.21104E+07         0.00000E+00
    0.21104E+07         0.64750E+05         0.00000E+00
    0.00000E+00         0.00000E+00         0.18062E+05
 
    0.19941E+05         0.21451E+07         0.00000E+00
    0.21451E+07         0.67236E+05         0.00000E+00
    0.00000E+00         0.00000E+00         0.17435E+05
 
    0.25537E+06         0.26263E+05         0.00000E+00
    0.26263E+05        -0.22468E+06         0.00000E+00
    0.00000E+00         0.00000E+00         0.61374E+04
 
    0.25169E+06         0.77999E+05         0.00000E+00
    0.77999E+05        -0.22460E+06         0.00000E+00
    0.00000E+00         0.00000E+00         0.54172E+04
 
    0.24790E+06         0.12940E+06         0.00000E+00
    0.12940E+06        -0.22444E+06         0.00000E+00
    0.00000E+00         0.00000E+00         0.46921E+04
 
    0.24401E+06         0.18046E+06         0.00000E+00
    0.18046E+06        -0.22420E+06         0.00000E+00
    0.00000E+00         0.00000E+00         0.39621E+04
 
    0.24002E+06         0.23119E+06         0.00000E+00
    0.23119E+06        -0.22388E+06         0.00000E+00
    0.00000E+00         0.00000E+00         0.32275E+04
 
    0.23592E+06         0.28159E+06         0.00000E+00
    0.28159E+06        -0.22348E+06         0.00000E+00
    0.00000E+00         0.00000E+00         0.24883E+04
 
    0.23173E+06         0.33165E+06         0.00000E+00
    0.33165E+06        -0.22300E+06         0.00000E+00
    0.00000E+00         0.00000E+00         0.17446E+04
 
    0.22743E+06         0.38137E+06         0.00000E+00
    0.38137E+06        -0.22245E+06         0.00000E+00
    0.00000E+00         0.00000E+00         0.99657E+03
 
    0.22304E+06         0.43076E+06         0.00000E+00
    0.43076E+06        -0.22182E+06         0.00000E+00
    0.00000E+00         0.00000E+00         0.24428E+03
 
    0.21855E+06         0.47982E+06         0.00000E+00
    0.47982E+06        -0.22111E+06         0.00000E+00
    0.00000E+00         0.00000E+00        -0.51217E+03
 
    0.21397E+06         0.52854E+06         0.00000E+00
    0.52854E+06        -0.22033E+06         0.00000E+00
    0.00000E+00         0.00000E+00        -0.12727E+04
 
    0.20929E+06         0.57693E+06         0.00000E+00
    0.57693E+06        -0.21948E+06         0.00000E+00
    0.00000E+00         0.00000E+00        -0.20371E+04
 
    0.20452E+06         0.62499E+06         0.00000E+00
    0.62499E+06        -0.21854E+06         0.00000E+00
    0.00000E+00         0.00000E+00        -0.28054E+04
 
    0.19965E+06         0.67271E+06         0.00000E+00
    0.67271E+06        -0.21754E+06         0.00000E+00
    0.00000E+00         0.00000E+00        -0.35774E+04
 
    0.19469E+06         0.72009E+06         0.00000E+00
    0.72009E+06        -0.21646E+06         0.00000E+00
    0.00000E+00         0.00000E+00        -0.43531E+04
 
    0.18965E+06         0.76715E+06         0.00000E+00
    0.76715E+06        -0.21531E+06         0.00000E+00
    0.00000E+00         0.00000E+00        -0.51323E+04
 
    0.18451E+06         0.81386E+06         0.00000E+00
    0.81386E+06        -0.21408E+06         0.00000E+00
    0.00000E+00         0.00000E+00        -0.59150E+04
 
    0.17928E+06         0.86024E+06         0.00000E+00
    0.86024E+06        -0.21279E+06         0.00000E+00
    0.00000E+00         0.00000E+00        -0.67011E+04
 
    0.17397E+06         0.90629E+06         0.00000E+00
    0.90629E+06        -0.21142E+06         0.00000E+00
    0.00000E+00         0.00000E+00        -0.74904E+04
 
    0.16856E+06         0.95200E+06         0.00000E+00
    0.95200E+06        -0.20998E+06         0.00000E+00
    0.00000E+00         0.00000E+00        -0.82829E+04
 
    0.16307E+06         0.99737E+06         0.00000E+00
    0.99737E+06        -0.20847E+06         0.00000E+00
    0.00000E+00         0.00000E+00        -0.90786E+04
 
    0.15750E+06         0.10424E+07         0.00000E+00
    0.10424E+07        -0.20689E+06         0.00000E+00
    0.00000E+00         0.00000E+00        -0.98772E+04
 
    0.15184E+06         0.10871E+07         0.00000E+00
    0.10871E+07        -0.20524E+06         0.00000E+00
    0.00000E+00         0.00000E+00        -0.10679E+05
 
    0.14610E+06         0.11314E+07         0.00000E+00
    0.11314E+07        -0.20352E+06         0.00000E+00
    0.00000E+00         0.00000E+00        -0.11483E+05
 
    0.14028E+06         0.11755E+07         0.00000E+00
    0.11755E+07        -0.20173E+06         0.00000E+00
    0.00000E+00         0.00000E+00        -0.12290E+05
 
    0.13437E+06         0.12191E+07         0.00000E+00
    0.12191E+07        -0.19987E+06         0.00000E+00
    0.00000E+00         0.00000E+00        -0.13100E+05
 
    0.12838E+06         0.12625E+07         0.00000E+00
    0.12625E+07        -0.19795E+06         0.00000E+00
    0.00000E+00         0.00000E+00        -0.13913E+05
 
    0.12232E+06         0.13054E+07         0.00000E+00
    0.13054E+07        -0.19596E+06         0.00000E+00
    0.00000E+00         0.00000E+00        -0.14728E+05
 
    0.11617E+06         0.13481E+07         0.00000E+00
    0.13481E+07        -0.19390E+06         0.00000E+00
    0.00000E+00         0.00000E+00        -0.15545E+05
 
    0.10995E+06         0.13904E+07         0.00000E+00
    0.13904E+07        -0.19177E+06         0.00000E+00
    0.00000E+00         0.00000E+00        -0.16365E+05
 
    0.10364E+06         0.14323E+07         0.00000E+00
    0.14323E+07        -0.18958E+06         0.00000E+00
    0.00000E+00         0.00000E+00        -0.17187E+05
 
    0.97266E+05         0.14739E+07         0.00000E+00
    0.14739E+07        -0.18732E+06         0.00000E+00
    0.00000E+00         0.00000E+00        -0.18011E+05
 
    0.90811E+05         0.15151E+07         0.00000E+00
    0.15151E+07        -0.18500E+06         0.00000E+00
    0.00000E+00         0.00000E+00        -0.18838E+05
 
    0.84282E+05         0.15560E+07         0.00000E+00
    0.15560E+07        -0.18261E+06         0.00000E+00
    0.00000E+00         0.00000E+00        -0.19666E+05
 
    0.77678E+05         0.15965E+07         0.00000E+00
    0.15965E+07        -0.18016E+06         0.00000E+00
    0.00000E+00         0.00000E+00        -0.20497E+05
 
    0.71001E+05         0.16367E+07         0.00000E+00
    0.16367E+07        -0.17765E+06         0.00000E+00
    0.00000E+00         0.00000E+00        -0.21329E+05
 
    0.64251E+05         0.16765E+07         0.00000E+00
    0.16765E+07        -0.17507E+06         0.00000E+00
    0.00000E+00         0.00000E+00        -0.22163E+05
 
    0.57429E+05         0.17159E+07         0.00000E+00
    0.17159E+07        -0.17243E+06         0.00000E+00
    0.00000E+00         0.00000E+00        -0.23000E+05
 
    0.50537E+05         0.17550E+07         0.00000E+00
    0.17550E+07        -0.16972E+06         0.00000E+00
    0.00000E+00         0.00000E+00        -0.23837E+05
 
    0.43574E+05         0.17937E+07         0.00000E+00
    0.17937E+07        -0.16696E+06         0.00000E+00
    0.00000E+00         0.00000E+00        -0.24677E+05
 
    0.36541E+05         0.18320E+07         0.00000E+00
    0.18320E+07        -0.16413E+06         0.00000E+00
    0.00000E+00         0.00000E+00        -0.25518E+05
 
    0.29440E+05         0.18700E+07         0.00000E+00
    0.18700E+07        -0.16124E+06         0.00000E+00
    0.00000E+00         0.00000E+00        -0.26360E+05
 
    0.22271E+05         0.19076E+07         0.00000E+00
    0.19076E+07        -0.15829E+06         0.00000E+00
    0.00000E+00         0.00000E+00        -0.27205E+05
 
    0.15035E+05         0.19448E+07         0.00000E+00
    0.19448E+07        -0.15528E+06         0.00000E+00
    0.00000E+00         0.00000E+00        -0.28050E+05
 
    0.77321E+04         0.19816E+07         0.00000E+00
    0.19816E+07        -0.15222E+06         0.00000E+00
    0.00000E+00         0.00000E+00        -0.28897E+05
 
    0.36395E+03         0.20180E+07         0.00000E+00
    0.20180E+07        -0.14909E+06         0.00000E+00
    0.00000E+00         0.00000E+00        -0.29745E+05
 
   -0.70690E+04         0.20540E+07         0.00000E+00
    0.20540E+07        -0.14590E+06         0.00000E+00
    0.00000E+00         0.00000E+00        -0.30594E+05
 
   -0.14566E+05         0.20897E+07         0.00000E+00
    0.20897E+07        -0.14266E+06         0.00000E+00
    0.00000E+00         0.00000E+00        -0.31445E+05
 
   -0.22126E+05         0.21249E+07         0.00000E+00
    0.21249E+07        -0.13936E+06         0.00000E+00
    0.00000E+00         0.00000E+00        -0.32296E+05
 
   -0.29749E+05         0.21598E+07         0.00000E+00
    0.21598E+07        -0.13600E+06         0.00000E+00
    0.00000E+00         0.00000E+00        -0.33149E+05
 
    0.29177E+06         0.26482E+05         0.00000E+00
    0.26482E+05        -0.44888E+06         0.00000E+00
    0.00000E+00         0.00000E+00        -0.31423E+05
 
    0.28639E+06         0.78651E+05         0.00000E+00
    0.78651E+05        -0.44879E+06         0.00000E+00
    0.00000E+00         0.00000E+00        -0.32478E+05
 
    0.28092E+06         0.13048E+06         0.00000E+00
    0.13048E+06        -0.44860E+06         0.00000E+00
    0.00000E+00         0.00000E+00        -0.33536E+05
 
    0.27535E+06         0.18197E+06         0.00000E+00
    0.18197E+06        -0.44832E+06         0.00000E+00
    0.00000E+00         0.00000E+00        -0.34595E+05
 
    0.26967E+06         0.23313E+06         0.00000E+00
    0.23313E+06        -0.44795E+06         0.00000E+00
    0.00000E+00         0.00000E+00        -0.35656E+05
 
    0.26390E+06         0.28394E+06         0.00000E+00
    0.28394E+06        -0.44749E+06         0.00000E+00
    0.00000E+00         0.00000E+00        -0.36719E+05
 
    0.25803E+06         0.33443E+06         0.00000E+00
    0.33443E+06        -0.44694E+06         0.00000E+00
    0.00000E+00         0.00000E+00        -0.37783E+05
 
    0.25206E+06         0.38457E+06         0.00000E+00
    0.38457E+06        -0.44630E+06         0.00000E+00
    0.00000E+00         0.00000E+00        -0.38848E+05
 
    0.24599E+06         0.43438E+06         0.00000E+00
    0.43438E+06        -0.44556E+06         0.00000E+00
    0.00000E+00         0.00000E+00        -0.39915E+05
 
    0.23982E+06         0.48385E+06         0.00000E+00
    0.48385E+06        -0.44474E+06         0.00000E+00
    0.00000E+00         0.00000E+00        -0.40984E+05
 
    0.23356E+06         0.53298E+06         0.00000E+00
    0.53298E+06        -0.44383E+06         0.00000E+00
    0.00000E+00         0.00000E+00        -0.42053E+05
 
    0.22721E+06         0.58178E+06         0.00000E+00
    0.58178E+06        -0.44283E+06         0.00000E+00
    0.00000E+00         0.00000E+00        -0.43124E+05
 
    0.22076E+06         0.63024E+06         0.00000E+00
    0.63024E+06        -0.44174E+06         0.00000E+00
    0.00000E+00         0.00000E+00        -0.44196E+05
 
    0.21422E+06         0.67837E+06         0.00000E+00
    0.67837E+06        -0.44056E+06         0.00000E+00
    0.00000E+00         0.00000E+00        -0.45269E+05
 
    0.20758E+06         0.72616E+06         0.00000E+00
    0.72616E+06        -0.43930E+06         0.00000E+00
    0.00000E+00         0.00000E+00        -0.46343E+05
 
    0.20085E+06         0.77361E+06         0.00000E+00
    0.77361E+06        -0.43794E+06         0.00000E+00
    0.00000E+00         0.00000E+00        -0.47418E+05
 
    0.19403E+06         0.82073E+06         0.00000E+00
    0.82073E+06        -0.43650E+06         0.00000E+00
    0.00000E+00         0.00000E+00        -0.48494E+05
 
    0.18712E+06         0.86751E+06         0.00000E+00
    0.86751E+06        -0.43497E+06         0.00000E+00
    0.00000E+00         0.00000E+00        -0.49570E+05
 
    0.18012E+06         0.91395E+06         0.00000E+00
    0.91395E+06        -0.43336E+06         0.00000E+00
    0.00000E+00         0.00000E+00        -0.50648E+05
 
    0.17303E+06         0.96005E+06         0.00000E+00
    0.96005E+06        -0.43165E+06         0.00000E+00
    0.00000E+00         0.00000E+00        -0.51725E+05
 
    0.16584E+06         0.10058E+07         0.00000E+00
    0.10058E+07        -0.42986E+06         0.00000E+00
    0.00000E+00         0.00000E+00        -0.52804E+05
 
    0.15857E+06         0.10512E+07         0.00000E+00
    0.10512E+07        -0.42799E+06         0.00000E+00
    0.00000E+00         0.00000E+00        -0.53883E+05
 
    0.15121E+06         0.10963E+07         0.00000E+00
    0.10963E+07        -0.42603E+06         0.00000E+00
    0.00000E+00         0.00000E+00        -0.54963E+05
 
    0.14376E+06         0.11411E+07         0.00000E+00
    0.11411E+07        -0.42398E+06         0.00000E+00
    0.00000E+00         0.00000E+00        -0.56043E+05
 
    0.13622E+06         0.11855E+07         0.00000E+00
    0.11855E+07        -0.42184E+06         0.00000E+00
    0.00000E+00         0.00000E+00        -0.57124E+05
 
    0.12860E+06         0.12295E+07         0.00000E+00
    0.12295E+07        -0.41962E+06         0.00000E+00
    0.00000E+00         0.00000E+00        -0.58205E+05
 
    0.12089E+06         0.12732E+07         0.00000E+00
    0.12732E+07        -0.41732E+06         0.00000E+00
    0.00000E+00         0.00000E+00        -0.59286E+05
 
    0.11309E+06         0.13166E+07         0.00000E+00
    0.13166E+07        -0.41493E+06         0.00000E+00
    0.00000E+00         0.00000E+00        -0.60367E+05
 
    0.10520E+06         0.13596E+07         0.00000E+00
    0.13596E+07        -0.41245E+06         0.00000E+00
    0.00000E+00         0.00000E+00        -0.61449E+05
 
    0.97232E+05         0.14023E+07         0.00000E+00
    0.14023E+07        -0.40989E+06         0.00000E+00
    0.00000E+00         0.00000E+00        -0.62531E+05
 
    0.89174E+05         0.14446E+07         0.00000E+00
    0.14446E+07        -0.40724E+06         0.00000E+00
    0.00000E+00         0.00000E+00        -0.63614E+05
 
    0.81032E+05         0.14865E+07         0.00000E+00
    0.14865E+07        -0.40451E+06         0.00000E+00
    0.00000E+00         0.00000E+00        -0.64696E+05
 
    0.72803E+05         0.15281E+07         0.00000E+00
    0.15281E+07        -0.40170E+06         0.00000E+00
    0.00000E+00         0.00000E+00        -0.65779E+05
 
    0.64490E+05         0.15694E+07         0.00000E+00
    0.15694E+07        -0.39880E+06         0.00000E+00
    0.00000E+00         0.00000E+00        -0.66861E+05
 
    0.56093E+05         0.16103E+07         0.00000E+00
    0.16103E+07        -0.39581E+06         0.00000E+00
    0.00000E+00         0.00000E+00        -0.67944E+05
 
    0.47611E+05         0.16508E+07         0.00000E+00
    0.16508E+07        -0.39274E+06         0.00000E+00
    0.00000E+00         0.00000E+00        -0.69026E+05
 
    0.39044E+05         0.16910E+07         0.00000E+00
    0.16910E+07        -0.38959E+06         0.00000E+00
    0.00000E+00         0.00000E+00        -0.70109E+05
 
    0.30394E+05         0.17308E+07         0.00000E+00
    0.17308E+07        -0.38635E+06         0.00000E+00
    0.00000E+00         0.00000E+00        -0.71192E+05
 
    0.21660E+05         0.17702E+07         0.00000E+00
    0.17702E+07        -0.38303E+06         0.00000E+00
    0.00000E+00         0.00000E+00        -0.72274E+05
 
    0.12843E+05         0.18093E+07         0.00000E+00
    0.18093E+07        -0.37963E+06         0.00000E+00
    0.00000E+00         0.00000E+00        -0.73357E+05
 
    0.39430E+04         0.18480E+07         0.00000E+00
    0.18480E+07        -0.37614E+06         0.00000E+00
    0.00000E+00         0.00000E+00        -0.74439E+05
 
   -0.50404E+04         0.18863E+07         0.00000E+00
    0.18863E+07        -0.37257E+06         0.00000E+00
    0.00000E+00         0.00000E+00        -0.75521E+05
 
   -0.14106E+05         0.19242E+07         0.00000E+00
    0.19242E+07        -0.36891E+06         0.00000E+00
    0.00000E+00         0.00000E+00        -0.76603E+05
 
   -0.23255E+05         0.19618E+07         0.00000E+00
    0.19618E+07        -0.36517E+06         0.00000E+00
    0.00000E+00         0.00000E+00        -0.77685E+05
 
   -0.32486E+05         0.19990E+07         0.00000E+00
    0.19990E+07        -0.36135E+06         0.00000E+00
    0.00000E+00         0.00000E+00        -0.78767E+05
 
   -0.41800E+05         0.20358E+07         0.00000E+00
    0.20358E+07        -0.35744E+06         0.00000E+00
    0.00000E+00         0.00000E+00        -0.79848E+05
 
   -0.51195E+05         0.20722E+07         0.00000E+00
    0.20722E+07        -0.35345E+06         0.00000E+00
    0.00000E+00         0.00000E+00        -0.80929E+05
 
   -0.60672E+05         0.21082E+07         0.00000E+00
    0.21082E+07        -0.34938E+06         0.00000E+00
    0.00000E+00         0.00000E+00        -0.82010E+05
 
   -0.70231E+05         0.21438E+07         0.00000E+00
    0.21438E+07        -0.34522E+06         0.00000E+00
    0.00000E+00         0.00000E+00        -0.83091E+05
 
   -0.79871E+05         0.21790E+07         0.00000E+00
    0.21790E+07        -0.34099E+06         0.00000E+00
    0.00000E+00         0.00000E+00        -0.84171E+05
 
    0.32772E+06         0.26732E+05         0.00000E+00
    0.26732E+05        -0.67585E+06         0.00000E+00
    0.00000E+00         0.00000E+00        -0.69626E+05
 
    0.32065E+06         0.79395E+05         0.00000E+00
    0.79395E+05        -0.67574E+06         0.00000E+00
    0.00000E+00         0.00000E+00        -0.71019E+05
 
    0.31348E+06         0.13172E+06         0.00000E+00
    0.13172E+06        -0.67553E+06         0.00000E+00
    0.00000E+00         0.00000E+00        -0.72411E+05
 
    0.30621E+06         0.18370E+06         0.00000E+00
    0.18370E+06        -0.67522E+06         0.00000E+00
    0.00000E+00         0.00000E+00        -0.73801E+05
 
    0.29884E+06         0.23534E+06         0.00000E+00
    0.23534E+06        -0.67480E+06         0.00000E+00
    0.00000E+00         0.00000E+00        -0.75191E+05
 
    0.29138E+06         0.28665E+06         0.00000E+00
    0.28665E+06        -0.67427E+06         0.00000E+00
    0.00000E+00         0.00000E+00        -0.76579E+05
 
    0.28382E+06         0.33762E+06         0.00000E+00
    0.33762E+06        -0.67365E+06         0.00000E+00
    0.00000E+00         0.00000E+00        -0.77965E+05
 
    0.27616E+06         0.38824E+06         0.00000E+00
    0.38824E+06        -0.67291E+06         0.00000E+00
    0.00000E+00         0.00000E+00        -0.79350E+05
 
    0.26841E+06         0.43853E+06         0.00000E+00
    0.43853E+06        -0.67208E+06         0.00000E+00
    0.00000E+00         0.00000E+00        -0.80734E+05
 
    0.26056E+06         0.48849E+06         0.00000E+00
    0.48849E+06        -0.67114E+06         0.00000E+00
    0.00000E+00         0.00000E+00        -0.82116E+05
 
    0.25262E+06         0.53810E+06         0.00000E+00
    0.53810E+06        -0.67010E+06         0.00000E+00
    0.00000E+00         0.00000E+00        -0.83497E+05
 
    0.24458E+06         0.58738E+06         0.00000E+00
    0.58738E+06        -0.66896E+06         0.00000E+00
    0.00000E+00         0.00000E+00        -0.84876E+05
 
    0.23645E+06         0.63632E+06         0.00000E+00
    0.63632E+06        -0.66771E+06         0.00000E+00
    0.00000E+00         0.00000E+00        -0.86253E+05
 
    0.22822E+06         0.68493E+06         0.00000E+00
    0.68493E+06        -0.66636E+06         0.00000E+00
    0.00000E+00         0.00000E+00        -0.87629E+05
 
    0.21990E+06         0.73319E+06         0.00000E+00
    0.73319E+06        -0.66491E+06         0.00000E+00
    0.00000E+00         0.00000E+00        -0.89003E+05
 
    0.21148E+06         0.78112E+06         0.00000E+00
    0.78112E+06        -0.66336E+06         0.00000E+00
    0.00000E+00         0.00000E+00        -0.90375E+05
 
    0.20297E+06         0.82871E+06         0.00000E+00
    0.82871E+06        -0.66170E+06         0.00000E+00
    0.00000E+00         0.00000E+00        -0.91745E+05
 
    0.19437E+06         0.87597E+06         0.00000E+00
    0.87597E+06        -0.65994E+06         0.00000E+00
    0.00000E+00         0.00000E+00        -0.93113E+05
 
    0.18568E+06         0.92288E+06         0.00000E+00
    0.92288E+06        -0.65808E+06         0.00000E+00
    0.00000E+00         0.00000E+00        -0.94480E+05
 
    0.17689E+06         0.96946E+06         0.00000E+00
    0.96946E+06        -0.65611E+06         0.00000E+00
    0.00000E+00         0.00000E+00        -0.95845E+05
 
    0.16801E+06         0.10157E+07         0.00000E+00
    0.10157E+07        -0.65404E+06         0.00000E+00
    0.00000E+00         0.00000E+00        -0.97207E+05
 
    0.15903E+06         0.10616E+07         0.00000E+00
    0.10616E+07        -0.65187E+06         0.00000E+00
    0.00000E+00         0.00000E+00        -0.98568E+05
 
    0.14996E+06         0.11071E+07         0.00000E+00
    0.11071E+07        -0.64960E+06         0.00000E+00
    0.00000E+00         0.00000E+00        -0.99927E+05
 
    0.14080E+06         0.11524E+07         0.00000E+00
    0.11524E+07        -0.64722E+06         0.00000E+00
    0.00000E+00         0.00000E+00        -0.10128E+06
 
    0.13155E+06         0.11972E+07         0.00000E+00
    0.11972E+07        -0.64475E+06         0.00000E+00
    0.00000E+00         0.00000E+00        -0.10264E+06
 
    0.12220E+06         0.12418E+07         0.00000E+00
    0.12418E+07        -0.64216E+06         0.00000E+00
    0.00000E+00         0.00000E+00        -0.10399E+06
 
    0.11276E+06         0.12859E+07         0.00000E+00
    0.12859E+07        -0.63948E+06         0.00000E+00
    0.00000E+00         0.00000E+00        -0.10534E+06
 
    0.10322E+06         0.13298E+07         0.00000E+00
    0.13298E+07        -0.63669E+06         0.00000E+00
    0.00000E+00         0.00000E+00        -0.10669E+06
 
    0.93595E+05         0.13733E+07         0.00000E+00
    0.13733E+07        -0.63380E+06         0.00000E+00
    0.00000E+00         0.00000E+00        -0.10804E+06
 
    0.83873E+05         0.14164E+07         0.00000E+00
    0.14164E+07        -0.63080E+06         0.00000E+00
    0.00000E+00         0.00000E+00        -0.10939E+06
 
    0.74057E+05         0.14592E+07         0.00000E+00
    0.14592E+07        -0.62770E+06         0.00000E+00
    0.00000E+00         0.00000E+00        -0.11073E+06
 
    0.64146E+05         0.15016E+07         0.00000E+00
    0.15016E+07        -0.62450E+06         0.00000E+00
    0.00000E+00         0.00000E+00        -0.11207E+06
 
    0.54141E+05         0.15437E+07         0.00000E+00
    0.15437E+07        -0.62119E+06         0.00000E+00
    0.00000E+00         0.00000E+00        -0.11341E+06
 
    0.44042E+05         0.15854E+07         0.00000E+00
    0.15854E+07        -0.61778E+06         0.00000E+00
    0.00000E+00         0.00000E+00        -0.11475E+06
 
    0.33847E+05         0.16268E+07         0.00000E+00
    0.16268E+07        -0.61426E+06         0.00000E+00
    0.00000E+00         0.00000E+00        -0.11608E+06
 
    0.23557E+05         0.16678E+07         0.00000E+00
    0.16678E+07        -0.61064E+06         0.00000E+00
    0.00000E+00         0.00000E+00        -0.11742E+06
 
    0.13172E+05         0.17084E+07         0.00000E+00
    0.17084E+07        -0.60691E+06         0.00000E+00
    0.00000E+00         0.00000E+00        -0.11875E+06
 
    0.26907E+04         0.17487E+07         0.00000E+00
    0.17487E+07        -0.60308E+06         0.00000E+00
    0.00000E+00         0.00000E+00        -0.12008E+06
 
   -0.78866E+04         0.17886E+07         0.00000E+00
    0.17886E+07        -0.59914E+06         0.00000E+00
    0.00000E+00         0.00000E+00        -0.12141E+06
 
   -0.18560E+05         0.18282E+07         0.00000E+00
    0.18282E+07        -0.59510E+06         0.00000E+00
    0.00000E+00         0.00000E+00        -0.12273E+06
 
   -0.29331E+05         0.18673E+07         0.00000E+00
    0.18673E+07        -0.59095E+06         0.00000E+00
    0.00000E+00         0.00000E+00        -0.12406E+06
 
   -0.40199E+05         0.19061E+07         0.00000E+00
    0.19061E+07        -0.58669E+06         0.00000E+00
    0.00000E+00         0.00000E+00        -0.12538E+06
 
   -0.51165E+05         0.19445E+07         0.00000E+00
    0.19445E+07        -0.58233E+06         0.00000E+00
    0.00000E+00         0.00000E+00        -0.12670E+06
 
   -0.62228E+05         0.19826E+07         0.00000E+00
    0.19826E+07        -0.57786E+06         0.00000E+00
    0.00000E+00         0.00000E+00        -0.12802E+06
 
   -0.73390E+05         0.20202E+07         0.00000E+00
    0.20202E+07        -0.57328E+06         0.00000E+00
    0.00000E+00         0.00000E+00        -0.12933E+06
 
   -0.84651E+05         0.20575E+07         0.00000E+00
    0.20575E+07        -0.56859E+06         0.00000E+00
    0.00000E+00         0.00000E+00        -0.13065E+06
 
   -0.96011E+05         0.20944E+07         0.00000E+00
    0.20944E+07        -0.56380E+06         0.00000E+00
    0.00000E+00         0.00000E+00        -0.13196E+06
 
   -0.10747E+06         0.21308E+07         0.00000E+00
    0.21308E+07        -0.55890E+06         0.00000E+00
    0.00000E+00         0.00000E+00        -0.13327E+06
 
   -0.11903E+06         0.21669E+07         0.00000E+00
    0.21669E+07        -0.55389E+06         0.00000E+00
    0.00000E+00         0.00000E+00        -0.13458E+06
 
   -0.13069E+06         0.22026E+07         0.00000E+00
    0.22026E+07        -0.54877E+06         0.00000E+00
    0.00000E+00         0.00000E+00        -0.13589E+06
 
    0.36261E+06         0.27012E+05         0.00000E+00
    0.27012E+05        -0.90651E+06         0.00000E+00
    0.00000E+00         0.00000E+00        -0.10878E+06
 
    0.35383E+06         0.80231E+05         0.00000E+00
    0.80231E+05        -0.90639E+06         0.00000E+00
    0.00000E+00         0.00000E+00        -0.11051E+06
 
    0.34496E+06         0.13311E+06         0.00000E+00
    0.13311E+06        -0.90615E+06         0.00000E+00
    0.00000E+00         0.00000E+00        -0.11224E+06
 
    0.33599E+06         0.18564E+06         0.00000E+00
    0.18564E+06        -0.90580E+06         0.00000E+00
    0.00000E+00         0.00000E+00        -0.11396E+06
 
    0.32692E+06         0.23784E+06         0.00000E+00
    0.23784E+06        -0.90533E+06         0.00000E+00
    0.00000E+00         0.00000E+00        -0.11568E+06
 
    0.31776E+06         0.28970E+06         0.00000E+00
    0.28970E+06        -0.90475E+06         0.00000E+00
    0.00000E+00         0.00000E+00        -0.11740E+06
 
    0.30851E+06         0.34121E+06         0.00000E+00
    0.34121E+06        -0.90405E+06         0.00000E+00
    0.00000E+00         0.00000E+00        -0.11911E+06
 
    0.29916E+06         0.39239E+06         0.00000E+00
    0.39239E+06        -0.90323E+06         0.00000E+00
    0.00000E+00         0.00000E+00        -0.12081E+06
 
    0.28972E+06         0.44323E+06         0.00000E+00
    0.44323E+06        -0.90229E+06         0.00000E+00
    0.00000E+00         0.00000E+00        -0.12251E+06
 
    0.28018E+06         0.49373E+06         0.00000E+00
    0.49373E+06        -0.90124E+06         0.00000E+00
    0.00000E+00         0.00000E+00        -0.12421E+06
 
    0.27055E+06         0.54390E+06         0.00000E+00
    0.54390E+06        -0.90008E+06         0.00000E+00
    0.00000E+00         0.00000E+00        -0.12590E+06
 
    0.26083E+06         0.59373E+06         0.00000E+00
    0.59373E+06        -0.89879E+06         0.00000E+00
    0.00000E+00         0.00000E+00        -0.12759E+06
 
    0.25101E+06         0.64322E+06         0.00000E+00
    0.64322E+06        -0.89739E+06         0.00000E+00
    0.00000E+00         0.00000E+00        -0.12928E+06
 
    0.24110E+06         0.69237E+06         0.00000E+00
    0.69237E+06        -0.89587E+06         0.00000E+00
    0.00000E+00         0.00000E+00        -0.13096E+06
 
    0.23109E+06         0.74119E+06         0.00000E+00
    0.74119E+06        -0.89424E+06         0.00000E+00
    0.00000E+00         0.00000E+00        -0.13263E+06
 
    0.22099E+06         0.78967E+06         0.00000E+00
    0.78967E+06        -0.89248E+06         0.00000E+00
    0.00000E+00         0.00000E+00        -0.13430E+06
 
    0.21079E+06         0.83781E+06         0.00000E+00
    0.83781E+06        -0.89061E+06         0.00000E+00
    0.00000E+00         0.00000E+00        -0.13597E+06
 
    0.20050E+06         0.88561E+06         0.00000E+00
    0.88561E+06        -0.88863E+06         0.00000E+00
    0.00000E+00         0.00000E+00        -0.13763E+06
 
    0.19011E+06         0.93308E+06         0.00000E+00
    0.93308E+06        -0.88652E+06         0.00000E+00
    0.00000E+00         0.00000E+00        -0.13928E+06
 
    0.17963E+06         0.98021E+06         0.00000E+00
    0.98021E+06        -0.88430E+06         0.00000E+00
    0.00000E+00         0.00000E+00        -0.14093E+06
 
    0.16905E+06         0.10270E+07         0.00000E+00
    0.10270E+07        -0.88196E+06         0.00000E+00
    0.00000E+00         0.00000E+00        -0.14258E+06
 
    0.15837E+06         0.10734E+07         0.00000E+00
    0.10734E+07        -0.87949E+06         0.00000E+00
    0.00000E+00         0.00000E+00        -0.14422E+06
 
    0.14760E+06         0.11196E+07         0.00000E+00
    0.11196E+07        -0.87691E+06         0.00000E+00
    0.00000E+00         0.00000E+00        -0.14586E+06
 
    0.13673E+06         0.11653E+07         0.00000E+00
    0.11653E+07        -0.87421E+06         0.00000E+00
    0.00000E+00         0.00000E+00        -0.14750E+06
 
    0.12576E+06         0.12108E+07         0.00000E+00
    0.12108E+07        -0.87139E+06         0.00000E+00
    0.00000E+00         0.00000E+00        -0.14913E+06
 
    0.11469E+06         0.12558E+07         0.00000E+00
    0.12558E+07        -0.86845E+06         0.00000E+00
    0.00000E+00         0.00000E+00        -0.15075E+06
 
    0.10352E+06         0.13006E+07         0.00000E+00
    0.13006E+07        -0.86539E+06         0.00000E+00
    0.00000E+00         0.00000E+00        -0.15237E+06
 
    0.92255E+05         0.13450E+07         0.00000E+00
    0.13450E+07        -0.86221E+06         0.00000E+00
    0.00000E+00         0.00000E+00        -0.15399E+06
 
    0.80887E+05         0.13890E+07         0.00000E+00
    0.13890E+07        -0.85891E+06         0.00000E+00
    0.00000E+00         0.00000E+00        -0.15560E+06
 
    0.69419E+05         0.14327E+07         0.00000E+00
    0.14327E+07        -0.85548E+06         0.00000E+00
    0.00000E+00         0.00000E+00        -0.15721E+06
 
    0.57848E+05         0.14761E+07         0.00000E+00
    0.14761E+07        -0.85193E+06         0.00000E+00
    0.00000E+00         0.00000E+00        -0.15882E+06
 
    0.46175E+05         0.15191E+07         0.00000E+00
    0.15191E+07        -0.84826E+06         0.00000E+00
    0.00000E+00         0.00000E+00        -0.16042E+06
 
    0.34399E+05         0.15617E+07         0.00000E+00
    0.15617E+07        -0.84446E+06         0.00000E+00
    0.00000E+00         0.00000E+00        -0.16201E+06
 
    0.22518E+05         0.16040E+07         0.00000E+00
    0.16040E+07        -0.84054E+06         0.00000E+00
    0.00000E+00         0.00000E+00        -0.16360E+06
 
    0.10532E+05         0.16460E+07         0.00000E+00
    0.16460E+07        -0.83650E+06         0.00000E+00
    0.00000E+00         0.00000E+00        -0.16519E+06
 
   -0.15596E+04         0.16876E+07         0.00000E+00
    0.16876E+07        -0.83233E+06         0.00000E+00
    0.00000E+00         0.00000E+00        -0.16678E+06
 
   -0.13758E+05         0.17288E+07         0.00000E+00
    0.17288E+07        -0.82803E+06         0.00000E+00
    0.00000E+00         0.00000E+00        -0.16836E+06
 
   -0.26064E+05         0.17696E+07         0.00000E+00
    0.17696E+07        -0.82361E+06         0.00000E+00
    0.00000E+00         0.00000E+00        -0.16993E+06
 
   -0.38478E+05         0.18101E+07         0.00000E+00
    0.18101E+07        -0.81905E+06         0.00000E+00
    0.00000E+00         0.00000E+00        -0.17151E+06
 
   -0.51002E+05         0.18503E+07         0.00000E+00
    0.18503E+07        -0.81438E+06         0.00000E+00
    0.00000E+00         0.00000E+00        -0.17308E+06
 
   -0.63637E+05         0.18900E+07         0.00000E+00
    0.18900E+07        -0.80957E+06         0.00000E+00
    0.00000E+00         0.00000E+00        -0.17464E+06
 
   -0.76382E+05         0.19294E+07         0.00000E+00
    0.19294E+07        -0.80463E+06         0.00000E+00
    0.00000E+00         0.00000E+00        -0.17620E+06
 
   -0.89240E+05         0.19684E+07         0.00000E+00
    0.19684E+07        -0.79957E+06         0.00000E+00
    0.00000E+00         0.00000E+00        -0.17776E+06
 
   -0.10221E+06         0.20070E+07         0.00000E+00
    0.20070E+07        -0.79437E+06         0.00000E+00
    0.00000E+00         0.00000E+00        -0.17932E+06
 
   -0.11530E+06         0.20453E+07         0.00000E+00
    0.20453E+07        -0.78904E+06         0.00000E+00
    0.00000E+00         0.00000E+00        -0.18087E+06
 
   -0.12850E+06         0.20831E+07         0.00000E+00
    0.20831E+07        -0.78358E+06         0.00000E+00
    0.00000E+00         0.00000E+00        -0.18242E+06
 
   -0.14182E+06         0.21206E+07         0.00000E+00
    0.21206E+07        -0.77799E+06         0.00000E+00
    0.00000E+00         0.00000E+00        -0.18396E+06
 
   -0.15525E+06         0.21577E+07         0.00000E+00
    0.21577E+07        -0.77226E+06         0.00000E+00
    0.00000E+00         0.00000E+00        -0.18550E+06
 
   -0.16880E+06         0.21944E+07         0.00000E+00
    0.21944E+07        -0.76640E+06         0.00000E+00
    0.00000E+00         0.00000E+00        -0.18704E+06
 
   -0.18248E+06         0.22307E+07         0.00000E+00
    0.22307E+07        -0.76041E+06         0.00000E+00
    0.00000E+00         0.00000E+00        -0.18858E+06
 
    0.39581E+06         0.27320E+05         0.00000E+00
    0.27320E+05        -0.11418E+07         0.00000E+00
    0.00000E+00         0.00000E+00        -0.14919E+06
 
    0.38532E+06         0.81154E+05         0.00000E+00
    0.81154E+05        -0.11417E+07         0.00000E+00
    0.00000E+00         0.00000E+00        -0.15127E+06
 
    0.37474E+06         0.13465E+06         0.00000E+00
    0.13465E+06        -0.11414E+07         0.00000E+00
    0.00000E+00         0.00000E+00        -0.15333E+06
 
    0.36406E+06         0.18780E+06         0.00000E+00
    0.18780E+06        -0.11410E+07         0.00000E+00
    0.00000E+00         0.00000E+00        -0.15539E+06
 
    0.35330E+06         0.24061E+06         0.00000E+00
    0.24061E+06        -0.11405E+07         0.00000E+00
    0.00000E+00         0.00000E+00        -0.15744E+06
 
    0.34244E+06         0.29308E+06         0.00000E+00
    0.29308E+06        -0.11399E+07         0.00000E+00
    0.00000E+00         0.00000E+00        -0.15948E+06
 
    0.33149E+06         0.34521E+06         0.00000E+00
    0.34521E+06        -0.11391E+07         0.00000E+00
    0.00000E+00         0.00000E+00        -0.16152E+06
 
    0.32045E+06         0.39700E+06         0.00000E+00
    0.39700E+06        -0.11382E+07         0.00000E+00
    0.00000E+00         0.00000E+00        -0.16354E+06
 
    0.30932E+06         0.44846E+06         0.00000E+00
    0.44846E+06        -0.11371E+07         0.00000E+00
    0.00000E+00         0.00000E+00        -0.16556E+06
 
    0.29810E+06         0.49958E+06         0.00000E+00
    0.49958E+06        -0.11360E+07         0.00000E+00
    0.00000E+00         0.00000E+00        -0.16758E+06
 
    0.28679E+06         0.55036E+06         0.00000E+00
    0.55036E+06        -0.11347E+07         0.00000E+00
    0.00000E+00         0.00000E+00        -0.16958E+06
 
    0.27538E+06         0.60080E+06         0.00000E+00
    0.60080E+06        -0.11333E+07         0.00000E+00
    0.00000E+00         0.00000E+00        -0.17158E+06
 
    0.26388E+06         0.65091E+06         0.00000E+00
    0.65091E+06        -0.11317E+07         0.00000E+00
    0.00000E+00         0.00000E+00        -0.17357E+06
 
    0.25228E+06         0.70069E+06         0.00000E+00
    0.70069E+06        -0.11300E+07         0.00000E+00
    0.00000E+00         0.00000E+00        -0.17555E+06
 
    0.24059E+06         0.75012E+06         0.00000E+00
    0.75012E+06        -0.11282E+07         0.00000E+00
    0.00000E+00         0.00000E+00        -0.17753E+06
 
    0.22881E+06         0.79923E+06         0.00000E+00
    0.79923E+06        -0.11263E+07         0.00000E+00
    0.00000E+00         0.00000E+00        -0.17949E+06
 
    0.21693E+06         0.84799E+06         0.00000E+00
    0.84799E+06        -0.11242E+07         0.00000E+00
    0.00000E+00         0.00000E+00        -0.18145E+06
 
    0.20495E+06         0.89642E+06         0.00000E+00
    0.89642E+06        -0.11220E+07         0.00000E+00
    0.00000E+00         0.00000E+00        -0.18341E+06
 
    0.19288E+06         0.94452E+06         0.00000E+00
    0.94452E+06        -0.11196E+07         0.00000E+00
    0.00000E+00         0.00000E+00        -0.18535E+06
 
    0.18071E+06         0.99228E+06         0.00000E+00
    0.99228E+06        -0.11172E+07         0.00000E+00
    0.00000E+00         0.00000E+00        -0.18729E+06
 
    0.16844E+06         0.10397E+07         0.00000E+00
    0.10397E+07        -0.11146E+07         0.00000E+00
    0.00000E+00         0.00000E+00        -0.18922E+06
 
    0.15607E+06         0.10868E+07         0.00000E+00
    0.10868E+07        -0.11118E+07         0.00000E+00
    0.00000E+00         0.00000E+00        -0.19115E+06
 
    0.14360E+06         0.11335E+07         0.00000E+00
    0.11335E+07        -0.11089E+07         0.00000E+00
    0.00000E+00         0.00000E+00        -0.19307E+06
 
    0.13103E+06         0.11799E+07         0.00000E+00
    0.11799E+07        -0.11059E+07         0.00000E+00
    0.00000E+00         0.00000E+00        -0.19498E+06
 
    0.11835E+06         0.12260E+07         0.00000E+00
    0.12260E+07        -0.11028E+07         0.00000E+00
    0.00000E+00         0.00000E+00        -0.19688E+06
 
    0.10558E+06         0.12717E+07         0.00000E+00
    0.12717E+07        -0.10995E+07         0.00000E+00
    0.00000E+00         0.00000E+00        -0.19878E+06
 
    0.92695E+05         0.13171E+07         0.00000E+00
    0.13171E+07        -0.10960E+07         0.00000E+00
    0.00000E+00         0.00000E+00        -0.20067E+06
 
    0.79708E+05         0.13622E+07         0.00000E+00
    0.13622E+07        -0.10925E+07         0.00000E+00
    0.00000E+00         0.00000E+00        -0.20255E+06
 
    0.66614E+05         0.14069E+07         0.00000E+00
    0.14069E+07        -0.10888E+07         0.00000E+00
    0.00000E+00         0.00000E+00        -0.20443E+06
 
    0.53412E+05         0.14513E+07         0.00000E+00
    0.14513E+07        -0.10849E+07         0.00000E+00
    0.00000E+00         0.00000E+00        -0.20630E+06
 
    0.40100E+05         0.14953E+07         0.00000E+00
    0.14953E+07        -0.10809E+07         0.00000E+00
    0.00000E+00         0.00000E+00        -0.20816E+06
 
    0.26677E+05         0.15389E+07         0.00000E+00
    0.15389E+07        -0.10768E+07         0.00000E+00
    0.00000E+00         0.00000E+00        -0.21002E+06
 
    0.13143E+05         0.15823E+07         0.00000E+00
    0.15823E+07        -0.10725E+07         0.00000E+00
    0.00000E+00         0.00000E+00        -0.21187E+06
 
   -0.50477E+03         0.16252E+07         0.00000E+00
    0.16252E+07        -0.10681E+07         0.00000E+00
    0.00000E+00         0.00000E+00        -0.21372E+06
 
   -0.14267E+05         0.16678E+07         0.00000E+00
    0.16678E+07        -0.10635E+07         0.00000E+00
    0.00000E+00         0.00000E+00        -0.21556E+06
 
   -0.28146E+05         0.17101E+07         0.00000E+00
    0.17101E+07        -0.10588E+07         0.00000E+00
    0.00000E+00         0.00000E+00        -0.21739E+06
 
   -0.42142E+05         0.17520E+07         0.00000E+00
    0.17520E+07        -0.10539E+07         0.00000E+00
    0.00000E+00         0.00000E+00        -0.21922E+06
 
   -0.56257E+05         0.17936E+07         0.00000E+00
    0.17936E+07        -0.10489E+07         0.00000E+00
    0.00000E+00         0.00000E+00        -0.22104E+06
 
   -0.70493E+05         0.18347E+07         0.00000E+00
    0.18347E+07        -0.10438E+07         0.00000E+00
    0.00000E+00         0.00000E+00        -0.22286E+06
 
   -0.84851E+05         0.18756E+07         0.00000E+00
    0.18756E+07        -0.10385E+07         0.00000E+00
    0.00000E+00         0.00000E+00        -0.22467E+06
 
   -0.99333E+05         0.19160E+07         0.00000E+00
    0.19160E+07        -0.10330E+07         0.00000E+00
    0.00000E+00         0.00000E+00        -0.22647E+06
 
   -0.11394E+06         0.19561E+07         0.00000E+00
    0.19561E+07        -0.10274E+07         0.00000E+00
    0.00000E+00         0.00000E+00        -0.22827E+06
 
   -0.12867E+06         0.19958E+07         0.00000E+00
    0.19958E+07        -0.10217E+07         0.00000E+00
    0.00000E+00         0.00000E+00        -0.23007E+06
 
   -0.14354E+06         0.20352E+07         0.00000E+00
    0.20352E+07        -0.10157E+07         0.00000E+00
    0.00000E+00         0.00000E+00        -0.23185E+06
 
   -0.15853E+06         0.20741E+07         0.00000E+00
    0.20741E+07        -0.10097E+07         0.00000E+00
    0.00000E+00         0.00000E+00        -0.23364E+06
 
   -0.17365E+06         0.21127E+07         0.00000E+00
    0.21127E+07        -0.10034E+07         0.00000E+00
    0.00000E+00         0.00000E+00        -0.23542E+06
 
   -0.18891E+06         0.21509E+07         0.00000E+00
    0.21509E+07        -0.99706E+06         0.00000E+00
    0.00000E+00         0.00000E+00        -0.23719E+06
 
   -0.20430E+06         0.21887E+07         0.00000E+00
    0.21887E+07        -0.99052E+06         0.00000E+00
    0.00000E+00         0.00000E+00        -0.23896E+06
 
   -0.21983E+06         0.22262E+07         0.00000E+00
    0.22262E+07        -0.98381E+06         0.00000E+00
    0.00000E+00         0.00000E+00        -0.24073E+06
 
   -0.23550E+06         0.22632E+07         0.00000E+00
    0.22632E+07        -0.97695E+06         0.00000E+00
    0.00000E+00         0.00000E+00        -0.24249E+06
 
    0.42668E+06         0.27657E+05         0.00000E+00
    0.27657E+05        -0.13826E+07         0.00000E+00
    0.00000E+00         0.00000E+00        -0.19119E+06
 
    0.41448E+06         0.82164E+05         0.00000E+00
    0.82164E+05        -0.13825E+07         0.00000E+00
    0.00000E+00         0.00000E+00        -0.19360E+06
 
    0.40219E+06         0.13633E+06         0.00000E+00
    0.13633E+06        -0.13822E+07         0.00000E+00
    0.00000E+00         0.00000E+00        -0.19600E+06
 
    0.38981E+06         0.19015E+06         0.00000E+00
    0.19015E+06        -0.13818E+07         0.00000E+00
    0.00000E+00         0.00000E+00        -0.19839E+06
 
    0.37734E+06         0.24364E+06         0.00000E+00
    0.24364E+06        -0.13812E+07         0.00000E+00
    0.00000E+00         0.00000E+00        -0.20077E+06
 
    0.36479E+06         0.29678E+06         0.00000E+00
    0.29678E+06        -0.13805E+07         0.00000E+00
    0.00000E+00         0.00000E+00        -0.20314E+06
 
    0.35215E+06         0.34959E+06         0.00000E+00
    0.34959E+06        -0.13797E+07         0.00000E+00
    0.00000E+00         0.00000E+00        -0.20550E+06
 
    0.33943E+06         0.40206E+06         0.00000E+00
    0.40206E+06        -0.13787E+07         0.00000E+00
    0.00000E+00         0.00000E+00        -0.20785E+06
 
    0.32661E+06         0.45420E+06         0.00000E+00
    0.45420E+06        -0.13776E+07         0.00000E+00
    0.00000E+00         0.00000E+00        -0.21019E+06
 
    0.31371E+06         0.50599E+06         0.00000E+00
    0.50599E+06        -0.13763E+07         0.00000E+00
    0.00000E+00         0.00000E+00        -0.21252E+06
 
    0.30072E+06         0.55746E+06         0.00000E+00
    0.55746E+06        -0.13749E+07         0.00000E+00
    0.00000E+00         0.00000E+00        -0.21483E+06
 
    0.28763E+06         0.60859E+06         0.00000E+00
    0.60859E+06        -0.13733E+07         0.00000E+00
    0.00000E+00         0.00000E+00        -0.21714E+06
 
    0.27446E+06         0.65938E+06         0.00000E+00
    0.65938E+06        -0.13716E+07         0.00000E+00
    0.00000E+00         0.00000E+00        -0.21943E+06
 
    0.26119E+06         0.70985E+06         0.00000E+00
    0.70985E+06        -0.13698E+07         0.00000E+00
    0.00000E+00         0.00000E+00        -0.22172E+06
 
    0.24783E+06         0.75998E+06         0.00000E+00
    0.75998E+06        -0.13678E+07         0.00000E+00
    0.00000E+00         0.00000E+00        -0.22399E+06
 
    0.23437E+06         0.80977E+06         0.00000E+00
    0.80977E+06        -0.13657E+07         0.00000E+00
    0.00000E+00         0.00000E+00        -0.22626E+06
 
    0.22082E+06         0.85924E+06         0.00000E+00
    0.85924E+06        -0.13634E+07         0.00000E+00
    0.00000E+00         0.00000E+00        -0.22851E+06
 
    0.20718E+06         0.90837E+06         0.00000E+00
    0.90837E+06        -0.13610E+07         0.00000E+00
    0.00000E+00         0.00000E+00        -0.23076E+06
 
    0.19343E+06         0.95717E+06         0.00000E+00
    0.95717E+06        -0.13584E+07         0.00000E+00
    0.00000E+00         0.00000E+00        -0.23299E+06
 
    0.17959E+06         0.10056E+07         0.00000E+00
    0.10056E+07        -0.13557E+07         0.00000E+00
    0.00000E+00         0.00000E+00        -0.23522E+06
 
    0.16564E+06         0.10538E+07         0.00000E+00
    0.10538E+07        -0.13528E+07         0.00000E+00
    0.00000E+00         0.00000E+00        -0.23743E+06
 
    0.15160E+06         0.11016E+07         0.00000E+00
    0.11016E+07        -0.13498E+07         0.00000E+00
    0.00000E+00         0.00000E+00        -0.23963E+06
 
    0.13745E+06         0.11490E+07         0.00000E+00
    0.11490E+07        -0.13466E+07         0.00000E+00
    0.00000E+00         0.00000E+00        -0.24183E+06
 
    0.12319E+06         0.11962E+07         0.00000E+00
    0.11962E+07        -0.13433E+07         0.00000E+00
    0.00000E+00         0.00000E+00        -0.24402E+06
 
    0.10884E+06         0.12430E+07         0.00000E+00
    0.12430E+07        -0.13398E+07         0.00000E+00
    0.00000E+00         0.00000E+00        -0.24619E+06
 
    0.94368E+05         0.12894E+07         0.00000E+00
    0.12894E+07        -0.13362E+07         0.00000E+00
    0.00000E+00         0.00000E+00        -0.24836E+06
 
    0.79791E+05         0.13356E+07         0.00000E+00
    0.13356E+07        -0.13324E+07         0.00000E+00
    0.00000E+00         0.00000E+00        -0.25052E+06
 
    0.65103E+05         0.13814E+07         0.00000E+00
    0.13814E+07        -0.13284E+07         0.00000E+00
    0.00000E+00         0.00000E+00        -0.25266E+06
 
    0.50302E+05         0.14268E+07         0.00000E+00
    0.14268E+07        -0.13243E+07         0.00000E+00
    0.00000E+00         0.00000E+00        -0.25480E+06
 
    0.35387E+05         0.14719E+07         0.00000E+00
    0.14719E+07        -0.13201E+07         0.00000E+00
    0.00000E+00         0.00000E+00        -0.25693E+06
 
    0.20356E+05         0.15167E+07         0.00000E+00
    0.15167E+07        -0.13156E+07         0.00000E+00
    0.00000E+00         0.00000E+00        -0.25906E+06
 
    0.52059E+04         0.15611E+07         0.00000E+00
    0.15611E+07        -0.13111E+07         0.00000E+00
    0.00000E+00         0.00000E+00        -0.26117E+06
 
   -0.10064E+05         0.16052E+07         0.00000E+00
    0.16052E+07        -0.13063E+07         0.00000E+00
    0.00000E+00         0.00000E+00        -0.26327E+06
 
   -0.25456E+05         0.16489E+07         0.00000E+00
    0.16489E+07        -0.13014E+07         0.00000E+00
    0.00000E+00         0.00000E+00        -0.26537E+06
 
   -0.40971E+05         0.16923E+07         0.00000E+00
    0.16923E+07        -0.12963E+07         0.00000E+00
    0.00000E+00         0.00000E+00        -0.26746E+06
 
   -0.56613E+05         0.17354E+07         0.00000E+00
    0.17354E+07        -0.12911E+07         0.00000E+00
    0.00000E+00         0.00000E+00        -0.26954E+06
 
   -0.72383E+05         0.17781E+07         0.00000E+00
    0.17781E+07        -0.12857E+07         0.00000E+00
    0.00000E+00         0.00000E+00        -0.27161E+06
 
   -0.88283E+05         0.18204E+07         0.00000E+00
    0.18204E+07        -0.12801E+07         0.00000E+00
    0.00000E+00         0.00000E+00        -0.27368E+06
 
   -0.10431E+06         0.18624E+07         0.00000E+00
    0.18624E+07        -0.12743E+07         0.00000E+00
    0.00000E+00         0.00000E+00        -0.27573E+06
 
   -0.12048E+06         0.19040E+07         0.00000E+00
    0.19040E+07        -0.12684E+07         0.00000E+00
    0.00000E+00         0.00000E+00        -0.27778E+06
 
   -0.13678E+06         0.19453E+07         0.00000E+00
    0.19453E+07        -0.12623E+07         0.00000E+00
    0.00000E+00         0.00000E+00        -0.27982E+06
 
   -0.15323E+06         0.19862E+07         0.00000E+00
    0.19862E+07        -0.12561E+07         0.00000E+00
    0.00000E+00         0.00000E+00        -0.28186E+06
 
   -0.16981E+06         0.20268E+07         0.00000E+00
    0.20268E+07        -0.12496E+07         0.00000E+00
    0.00000E+00         0.00000E+00        -0.28389E+06
 
   -0.18654E+06         0.20669E+07         0.00000E+00
    0.20669E+07        -0.12430E+07         0.00000E+00
    0.00000E+00         0.00000E+00        -0.28591E+06
 
   -0.20341E+06         0.21067E+07         0.00000E+00
    0.21067E+07        -0.12362E+07         0.00000E+00
    0.00000E+00         0.00000E+00        -0.28792E+06
 
   -0.22043E+06         0.21462E+07         0.00000E+00
    0.21462E+07        -0.12292E+07         0.00000E+00
    0.00000E+00         0.00000E+00        -0.28993E+06
 
   -0.23760E+06         0.21852E+07         0.00000E+00
    0.21852E+07        -0.12221E+07         0.00000E+00
    0.00000E+00         0.00000E+00        -0.29193E+06
 
   -0.25492E+06         0.22239E+07         0.00000E+00
    0.22239E+07        -0.12147E+07         0.00000E+00
    0.00000E+00         0.00000E+00        -0.29393E+06
 
   -0.27240E+06         0.22622E+07         0.00000E+00
    0.22622E+07        -0.12072E+07         0.00000E+00
    0.00000E+00         0.00000E+00        -0.29592E+06
 
   -0.29003E+06         0.23001E+07         0.00000E+00
    0.23001E+07        -0.11995E+07         0.00000E+00
    0.00000E+00         0.00000E+00        -0.29790E+06
 
    0.45457E+06         0.28020E+05         0.00000E+00
    0.28020E+05        -0.16299E+07         0.00000E+00
    0.00000E+00         0.00000E+00        -0.23507E+06
 
    0.44065E+06         0.83255E+05         0.00000E+00
    0.83255E+05        -0.16298E+07         0.00000E+00
    0.00000E+00         0.00000E+00        -0.23783E+06
 
    0.42665E+06         0.13815E+06         0.00000E+00
    0.13815E+06        -0.16295E+07         0.00000E+00
    0.00000E+00         0.00000E+00        -0.24057E+06
 
    0.41258E+06         0.19270E+06         0.00000E+00
    0.19270E+06        -0.16290E+07         0.00000E+00
    0.00000E+00         0.00000E+00        -0.24329E+06
 
    0.39842E+06         0.24692E+06         0.00000E+00
    0.24692E+06        -0.16284E+07         0.00000E+00
    0.00000E+00         0.00000E+00        -0.24600E+06
 
    0.38418E+06         0.30080E+06         0.00000E+00
    0.30080E+06        -0.16277E+07         0.00000E+00
    0.00000E+00         0.00000E+00        -0.24870E+06
 
    0.36986E+06         0.35434E+06         0.00000E+00
    0.35434E+06        -0.16268E+07         0.00000E+00
    0.00000E+00         0.00000E+00        -0.25138E+06
 
    0.35546E+06         0.40755E+06         0.00000E+00
    0.40755E+06        -0.16257E+07         0.00000E+00
    0.00000E+00         0.00000E+00        -0.25405E+06
 
    0.34097E+06         0.46042E+06         0.00000E+00
    0.46042E+06        -0.16245E+07         0.00000E+00
    0.00000E+00         0.00000E+00        -0.25670E+06
 
    0.32640E+06         0.51296E+06         0.00000E+00
    0.51296E+06        -0.16231E+07         0.00000E+00
    0.00000E+00         0.00000E+00        -0.25934E+06
 
    0.31174E+06         0.56517E+06         0.00000E+00
    0.56517E+06        -0.16216E+07         0.00000E+00
    0.00000E+00         0.00000E+00        -0.26197E+06
 
    0.29699E+06         0.61705E+06         0.00000E+00
    0.61705E+06        -0.16199E+07         0.00000E+00
    0.00000E+00         0.00000E+00        -0.26458E+06
 
    0.28216E+06         0.66860E+06         0.00000E+00
    0.66860E+06        -0.16181E+07         0.00000E+00
    0.00000E+00         0.00000E+00        -0.26718E+06
 
    0.26723E+06         0.71982E+06         0.00000E+00
    0.71982E+06        -0.16161E+07         0.00000E+00
    0.00000E+00         0.00000E+00        -0.26977E+06
 
    0.25222E+06         0.77071E+06         0.00000E+00
    0.77071E+06        -0.16139E+07         0.00000E+00
    0.00000E+00         0.00000E+00        -0.27234E+06
 
    0.23711E+06         0.82127E+06         0.00000E+00
    0.82127E+06        -0.16116E+07         0.00000E+00
    0.00000E+00         0.00000E+00        -0.27490E+06
 
    0.22191E+06         0.87151E+06         0.00000E+00
    0.87151E+06        -0.16091E+07         0.00000E+00
    0.00000E+00         0.00000E+00        -0.27745E+06
 
    0.20661E+06         0.92141E+06         0.00000E+00
    0.92141E+06        -0.16065E+07         0.00000E+00
    0.00000E+00         0.00000E+00        -0.27998E+06
 
    0.19121E+06         0.97099E+06         0.00000E+00
    0.97099E+06        -0.16037E+07         0.00000E+00
    0.00000E+00         0.00000E+00        -0.28250E+06
 
    0.17572E+06         0.10202E+07         0.00000E+00
    0.10202E+07        -0.16008E+07         0.00000E+00
    0.00000E+00         0.00000E+00        -0.28501E+06
 
    0.16012E+06         0.10692E+07         0.00000E+00
    0.10692E+07        -0.15976E+07         0.00000E+00
    0.00000E+00         0.00000E+00        -0.28750E+06
 
    0.14442E+06         0.11178E+07         0.00000E+00
    0.11178E+07        -0.15943E+07         0.00000E+00
    0.00000E+00         0.00000E+00        -0.28999E+06
 
    0.12862E+06         0.11660E+07         0.00000E+00
    0.11660E+07        -0.15909E+07         0.00000E+00
    0.00000E+00         0.00000E+00        -0.29246E+06
 
    0.11271E+06         0.12140E+07         0.00000E+00
    0.12140E+07        -0.15873E+07         0.00000E+00
    0.00000E+00         0.00000E+00        -0.29491E+06
 
    0.96687E+05         0.12616E+07         0.00000E+00
    0.12616E+07        -0.15835E+07         0.00000E+00
    0.00000E+00         0.00000E+00        -0.29736E+06
 
    0.80555E+05         0.13088E+07         0.00000E+00
    0.13088E+07        -0.15795E+07         0.00000E+00
    0.00000E+00         0.00000E+00        -0.29979E+06
 
    0.64310E+05         0.13558E+07         0.00000E+00
    0.13558E+07        -0.15754E+07         0.00000E+00
    0.00000E+00         0.00000E+00        -0.30221E+06
 
    0.47950E+05         0.14024E+07         0.00000E+00
    0.14024E+07        -0.15711E+07         0.00000E+00
    0.00000E+00         0.00000E+00        -0.30462E+06
 
    0.31471E+05         0.14487E+07         0.00000E+00
    0.14487E+07        -0.15666E+07         0.00000E+00
    0.00000E+00         0.00000E+00        -0.30702E+06
 
    0.14873E+05         0.14947E+07         0.00000E+00
    0.14947E+07        -0.15619E+07         0.00000E+00
    0.00000E+00         0.00000E+00        -0.30941E+06
 
   -0.18480E+04         0.15403E+07         0.00000E+00
    0.15403E+07        -0.15571E+07         0.00000E+00
    0.00000E+00         0.00000E+00        -0.31179E+06
 
   -0.18694E+05         0.15856E+07         0.00000E+00
    0.15856E+07        -0.15521E+07         0.00000E+00
    0.00000E+00         0.00000E+00        -0.31415E+06
 
   -0.35668E+05         0.16305E+07         0.00000E+00
    0.16305E+07        -0.15469E+07         0.00000E+00
    0.00000E+00         0.00000E+00        -0.31651E+06
 
   -0.52771E+05         0.16751E+07         0.00000E+00
    0.16751E+07        -0.15415E+07         0.00000E+00
    0.00000E+00         0.00000E+00        -0.31885E+06
 
   -0.70007E+05         0.17194E+07         0.00000E+00
    0.17194E+07        -0.15359E+07         0.00000E+00
    0.00000E+00         0.00000E+00        -0.32118E+06
 
   -0.87379E+05         0.17633E+07         0.00000E+00
    0.17633E+07        -0.15302E+07         0.00000E+00
    0.00000E+00         0.00000E+00        -0.32351E+06
 
   -0.10489E+06         0.18069E+07         0.00000E+00
    0.18069E+07        -0.15242E+07         0.00000E+00
    0.00000E+00         0.00000E+00        -0.32582E+06
 
   -0.12254E+06         0.18502E+07         0.00000E+00
    0.18502E+07        -0.15181E+07         0.00000E+00
    0.00000E+00         0.00000E+00        -0.32812E+06
 
   -0.14033E+06         0.18931E+07         0.00000E+00
    0.18931E+07        -0.15118E+07         0.00000E+00
    0.00000E+00         0.00000E+00        -0.33042E+06
 
   -0.15827E+06         0.19356E+07         0.00000E+00
    0.19356E+07        -0.15052E+07         0.00000E+00
    0.00000E+00         0.00000E+00        -0.33270E+06
 
   -0.17636E+06         0.19778E+07         0.00000E+00
    0.19778E+07        -0.14985E+07         0.00000E+00
    0.00000E+00         0.00000E+00        -0.33498E+06
 
   -0.19460E+06         0.20196E+07         0.00000E+00
    0.20196E+07        -0.14916E+07         0.00000E+00
    0.00000E+00         0.00000E+00        -0.33724E+06
 
   -0.21299E+06         0.20611E+07         0.00000E+00
    0.20611E+07        -0.14845E+07         0.00000E+00
    0.00000E+00         0.00000E+00        -0.33950E+06
 
   -0.23155E+06         0.21023E+07         0.00000E+00
    0.21023E+07        -0.14772E+07         0.00000E+00
    0.00000E+00         0.00000E+00        -0.34175E+06
 
   -0.25026E+06         0.21430E+07         0.00000E+00
    0.21430E+07        -0.14697E+07         0.00000E+00
    0.00000E+00         0.00000E+00        -0.34399E+06
 
   -0.26914E+06         0.21834E+07         0.00000E+00
    0.21834E+07        -0.14620E+07         0.00000E+00
    0.00000E+00         0.00000E+00        -0.34622E+06
 
   -0.28818E+06         0.22235E+07         0.00000E+00
    0.22235E+07        -0.14540E+07         0.00000E+00
    0.00000E+00         0.00000E+00        -0.34845E+06
 
   -0.30740E+06         0.22631E+07         0.00000E+00
    0.22631E+07        -0.14459E+07         0.00000E+00
    0.00000E+00         0.00000E+00        -0.35066E+06
 
   -0.32678E+06         0.23024E+07         0.00000E+00
    0.23024E+07        -0.14376E+07         0.00000E+00
    0.00000E+00         0.00000E+00        -0.35287E+06
 
   -0.34634E+06         0.23413E+07         0.00000E+00
    0.23413E+07        -0.14290E+07         0.00000E+00
    0.00000E+00         0.00000E+00        -0.35507E+06
 
    0.47879E+06         0.28408E+05         0.00000E+00
    0.28408E+05        -0.18847E+07         0.00000E+00
    0.00000E+00         0.00000E+00        -0.28118E+06
 
    0.46317E+06         0.84422E+05         0.00000E+00
    0.84422E+05        -0.18845E+07         0.00000E+00
    0.00000E+00         0.00000E+00        -0.28427E+06
 
    0.44747E+06         0.14010E+06         0.00000E+00
    0.14010E+06        -0.18842E+07         0.00000E+00
    0.00000E+00         0.00000E+00        -0.28735E+06
 
    0.43171E+06         0.19543E+06         0.00000E+00
    0.19543E+06        -0.18837E+07         0.00000E+00
    0.00000E+00         0.00000E+00        -0.29040E+06
 
    0.41587E+06         0.25044E+06         0.00000E+00
    0.25044E+06        -0.18831E+07         0.00000E+00
    0.00000E+00         0.00000E+00        -0.29344E+06
 
    0.39995E+06         0.30510E+06         0.00000E+00
    0.30510E+06        -0.18823E+07         0.00000E+00
    0.00000E+00         0.00000E+00        -0.29646E+06
 
    0.38396E+06         0.35944E+06         0.00000E+00
    0.35944E+06        -0.18813E+07         0.00000E+00
    0.00000E+00         0.00000E+00        -0.29947E+06
 
    0.36790E+06         0.41344E+06         0.00000E+00
    0.41344E+06        -0.18802E+07         0.00000E+00
    0.00000E+00         0.00000E+00        -0.30245E+06
 
    0.35175E+06         0.46711E+06         0.00000E+00
    0.46711E+06        -0.18789E+07         0.00000E+00
    0.00000E+00         0.00000E+00        -0.30542E+06
 
    0.33553E+06         0.52046E+06         0.00000E+00
    0.52046E+06        -0.18774E+07         0.00000E+00
    0.00000E+00         0.00000E+00        -0.30837E+06
 
    0.31922E+06         0.57347E+06         0.00000E+00
    0.57347E+06        -0.18758E+07         0.00000E+00
    0.00000E+00         0.00000E+00        -0.31131E+06
 
    0.30284E+06         0.62616E+06         0.00000E+00
    0.62616E+06        -0.18740E+07         0.00000E+00
    0.00000E+00         0.00000E+00        -0.31423E+06
 
    0.28636E+06         0.67853E+06         0.00000E+00
    0.67853E+06        -0.18720E+07         0.00000E+00
    0.00000E+00         0.00000E+00        -0.31713E+06
 
    0.26981E+06         0.73057E+06         0.00000E+00
    0.73057E+06        -0.18699E+07         0.00000E+00
    0.00000E+00         0.00000E+00        -0.32001E+06
 
    0.25316E+06         0.78228E+06         0.00000E+00
    0.78228E+06        -0.18676E+07         0.00000E+00
    0.00000E+00         0.00000E+00        -0.32288E+06
 
    0.23642E+06         0.83367E+06         0.00000E+00
    0.83367E+06        -0.18651E+07         0.00000E+00
    0.00000E+00         0.00000E+00        -0.32573E+06
 
    0.21960E+06         0.88474E+06         0.00000E+00
    0.88474E+06        -0.18624E+07         0.00000E+00
    0.00000E+00         0.00000E+00        -0.32857E+06
 
    0.20267E+06         0.93549E+06         0.00000E+00
    0.93549E+06        -0.18596E+07         0.00000E+00
    0.00000E+00         0.00000E+00        -0.33138E+06
 
    0.18565E+06         0.98592E+06         0.00000E+00
    0.98592E+06        -0.18566E+07         0.00000E+00
    0.00000E+00         0.00000E+00        -0.33419E+06
 
    0.16854E+06         0.10360E+07         0.00000E+00
    0.10360E+07        -0.18534E+07         0.00000E+00
    0.00000E+00         0.00000E+00        -0.33697E+06
 
    0.15132E+06         0.10858E+07         0.00000E+00
    0.10858E+07        -0.18500E+07         0.00000E+00
    0.00000E+00         0.00000E+00        -0.33975E+06
 
    0.13400E+06         0.11353E+07         0.00000E+00
    0.11353E+07        -0.18465E+07         0.00000E+00
    0.00000E+00         0.00000E+00        -0.34250E+06
 
    0.11657E+06         0.11844E+07         0.00000E+00
    0.11844E+07        -0.18428E+07         0.00000E+00
    0.00000E+00         0.00000E+00        -0.34524E+06
 
    0.99031E+05         0.12332E+07         0.00000E+00
    0.12332E+07        -0.18389E+07         0.00000E+00
    0.00000E+00         0.00000E+00        -0.34797E+06
 
    0.81384E+05         0.12817E+07         0.00000E+00
    0.12817E+07        -0.18348E+07         0.00000E+00
    0.00000E+00         0.00000E+00        -0.35068E+06
 
    0.63624E+05         0.13299E+07         0.00000E+00
    0.13299E+07        -0.18305E+07         0.00000E+00
    0.00000E+00         0.00000E+00        -0.35338E+06
 
    0.45747E+05         0.13778E+07         0.00000E+00
    0.13778E+07        -0.18260E+07         0.00000E+00
    0.00000E+00         0.00000E+00        -0.35606E+06
 
    0.27750E+05         0.14253E+07         0.00000E+00
    0.14253E+07        -0.18214E+07         0.00000E+00
    0.00000E+00         0.00000E+00        -0.35873E+06
 
    0.96322E+04         0.14725E+07         0.00000E+00
    0.14725E+07        -0.18165E+07         0.00000E+00
    0.00000E+00         0.00000E+00        -0.36138E+06
 
   -0.86111E+04         0.15194E+07         0.00000E+00
    0.15194E+07        -0.18115E+07         0.00000E+00
    0.00000E+00         0.00000E+00        -0.36402E+06
 
   -0.26982E+05         0.15660E+07         0.00000E+00
    0.15660E+07        -0.18063E+07         0.00000E+00
    0.00000E+00         0.00000E+00        -0.36665E+06
 
   -0.45485E+05         0.16122E+07         0.00000E+00
    0.16122E+07        -0.18008E+07         0.00000E+00
    0.00000E+00         0.00000E+00        -0.36926E+06
 
   -0.64121E+05         0.16581E+07         0.00000E+00
    0.16581E+07        -0.17952E+07         0.00000E+00
    0.00000E+00         0.00000E+00        -0.37186E+06
 
   -0.82895E+05         0.17037E+07         0.00000E+00
    0.17037E+07        -0.17893E+07         0.00000E+00
    0.00000E+00         0.00000E+00        -0.37445E+06
 
   -0.10181E+06         0.17489E+07         0.00000E+00
    0.17489E+07        -0.17833E+07         0.00000E+00
    0.00000E+00         0.00000E+00        -0.37702E+06
 
   -0.12087E+06         0.17939E+07         0.00000E+00
    0.17939E+07        -0.17771E+07         0.00000E+00
    0.00000E+00         0.00000E+00        -0.37958E+06
 
   -0.14007E+06         0.18384E+07         0.00000E+00
    0.18384E+07        -0.17706E+07         0.00000E+00
    0.00000E+00         0.00000E+00        -0.38213E+06
 
   -0.15943E+06         0.18827E+07         0.00000E+00
    0.18827E+07        -0.17639E+07         0.00000E+00
    0.00000E+00         0.00000E+00        -0.38467E+06
 
   -0.17894E+06         0.19266E+07         0.00000E+00
    0.19266E+07        -0.17570E+07         0.00000E+00
    0.00000E+00         0.00000E+00        -0.38720E+06
 
   -0.19860E+06         0.19702E+07         0.00000E+00
    0.19702E+07        -0.17500E+07         0.00000E+00
    0.00000E+00         0.00000E+00        -0.38971E+06
 
   -0.21843E+06         0.20134E+07         0.00000E+00
    0.20134E+07        -0.17426E+07         0.00000E+00
    0.00000E+00         0.00000E+00        -0.39221E+06
 
   -0.23842E+06         0.20563E+07         0.00000E+00
    0.20563E+07        -0.17351E+07         0.00000E+00
    0.00000E+00         0.00000E+00        -0.39471E+06
 
   -0.25858E+06         0.20988E+07         0.00000E+00
    0.20988E+07        -0.17274E+07         0.00000E+00
    0.00000E+00         0.00000E+00        -0.39719E+06
 
   -0.27891E+06         0.21410E+07         0.00000E+00
    0.21410E+07        -0.17194E+07         0.00000E+00
    0.00000E+00         0.00000E+00        -0.39966E+06
 
   -0.29942E+06         0.21829E+07         0.00000E+00
    0.21829E+07        -0.17112E+07         0.00000E+00
    0.00000E+00         0.00000E+00        -0.40212E+06
 
   -0.32011E+06         0.22244E+07         0.00000E+00
    0.22244E+07        -0.17027E+07         0.00000E+00
    0.00000E+00         0.00000E+00        -0.40457E+06
 
   -0.34097E+06         0.22655E+07         0.00000E+00
    0.22655E+07        -0.16941E+07         0.00000E+00
    0.00000E+00         0.00000E+00        -0.40701E+06
 
   -0.36203E+06         0.23063E+07         0.00000E+00
    0.23063E+07        -0.16852E+07         0.00000E+00
    0.00000E+00         0.00000E+00        -0.40944E+06
 
   -0.38328E+06         0.23467E+07         0.00000E+00
    0.23467E+07        -0.16761E+07         0.00000E+00
    0.00000E+00         0.00000E+00        -0.41187E+06
 
   -0.40471E+06         0.23867E+07         0.00000E+00
    0.23867E+07        -0.16667E+07         0.00000E+00
    0.00000E+00         0.00000E+00        -0.41428E+06
 
    0.49867E+06         0.28818E+05         0.00000E+00
    0.28818E+05        -0.21478E+07         0.00000E+00
    0.00000E+00         0.00000E+00        -0.32982E+06
 
    0.48135E+06         0.85659E+05         0.00000E+00
    0.85659E+05        -0.21476E+07         0.00000E+00
    0.00000E+00         0.00000E+00        -0.33325E+06
 
    0.46397E+06         0.14216E+06         0.00000E+00
    0.14216E+06        -0.21473E+07         0.00000E+00
    0.00000E+00         0.00000E+00        -0.33666E+06
 
    0.44653E+06         0.19833E+06         0.00000E+00
    0.19833E+06        -0.21468E+07         0.00000E+00
    0.00000E+00         0.00000E+00        -0.34005E+06
 
    0.42902E+06         0.25417E+06         0.00000E+00
    0.25417E+06        -0.21461E+07         0.00000E+00
    0.00000E+00         0.00000E+00        -0.34341E+06
 
    0.41145E+06         0.30968E+06         0.00000E+00
    0.30968E+06        -0.21452E+07         0.00000E+00
    0.00000E+00         0.00000E+00        -0.34676E+06
 
    0.39381E+06         0.36486E+06         0.00000E+00
    0.36486E+06        -0.21442E+07         0.00000E+00
    0.00000E+00         0.00000E+00        -0.35008E+06
 
    0.37610E+06         0.41971E+06         0.00000E+00
    0.41971E+06        -0.21430E+07         0.00000E+00
    0.00000E+00         0.00000E+00        -0.35338E+06
 
    0.35832E+06         0.47423E+06         0.00000E+00
    0.47423E+06        -0.21416E+07         0.00000E+00
    0.00000E+00         0.00000E+00        -0.35666E+06
 
    0.34047E+06         0.52844E+06         0.00000E+00
    0.52844E+06        -0.21401E+07         0.00000E+00
    0.00000E+00         0.00000E+00        -0.35992E+06
 
    0.32254E+06         0.58231E+06         0.00000E+00
    0.58231E+06        -0.21383E+07         0.00000E+00
    0.00000E+00         0.00000E+00        -0.36316E+06
 
    0.30454E+06         0.63587E+06         0.00000E+00
    0.63587E+06        -0.21364E+07         0.00000E+00
    0.00000E+00         0.00000E+00        -0.36638E+06
 
    0.28646E+06         0.68911E+06         0.00000E+00
    0.68911E+06        -0.21343E+07         0.00000E+00
    0.00000E+00         0.00000E+00        -0.36958E+06
 
    0.26829E+06         0.74203E+06         0.00000E+00
    0.74203E+06        -0.21321E+07         0.00000E+00
    0.00000E+00         0.00000E+00        -0.37276E+06
 
    0.25004E+06         0.79464E+06         0.00000E+00
    0.79464E+06        -0.21296E+07         0.00000E+00
    0.00000E+00         0.00000E+00        -0.37592E+06
 
    0.23171E+06         0.84692E+06         0.00000E+00
    0.84692E+06        -0.21270E+07         0.00000E+00
    0.00000E+00         0.00000E+00        -0.37906E+06
 
    0.21329E+06         0.89890E+06         0.00000E+00
    0.89890E+06        -0.21242E+07         0.00000E+00
    0.00000E+00         0.00000E+00        -0.38218E+06
 
    0.19478E+06         0.95055E+06         0.00000E+00
    0.95055E+06        -0.21212E+07         0.00000E+00
    0.00000E+00         0.00000E+00        -0.38528E+06
 
    0.17617E+06         0.10019E+07         0.00000E+00
    0.10019E+07        -0.21180E+07         0.00000E+00
    0.00000E+00         0.00000E+00        -0.38836E+06
 
    0.15746E+06         0.10529E+07         0.00000E+00
    0.10529E+07        -0.21146E+07         0.00000E+00
    0.00000E+00         0.00000E+00        -0.39142E+06
 
    0.13866E+06         0.11036E+07         0.00000E+00
    0.11036E+07        -0.21110E+07         0.00000E+00
    0.00000E+00         0.00000E+00        -0.39447E+06
 
    0.11976E+06         0.11540E+07         0.00000E+00
    0.11540E+07        -0.21072E+07         0.00000E+00
    0.00000E+00         0.00000E+00        -0.39749E+06
 
    0.10075E+06         0.12041E+07         0.00000E+00
    0.12041E+07        -0.21032E+07         0.00000E+00
    0.00000E+00         0.00000E+00        -0.40050E+06
 
    0.81626E+05         0.12539E+07         0.00000E+00
    0.12539E+07        -0.20991E+07         0.00000E+00
    0.00000E+00         0.00000E+00        -0.40349E+06
 
    0.62394E+05         0.13034E+07         0.00000E+00
    0.13034E+07        -0.20947E+07         0.00000E+00
    0.00000E+00         0.00000E+00        -0.40646E+06
 
    0.43048E+05         0.13525E+07         0.00000E+00
    0.13525E+07        -0.20901E+07         0.00000E+00
    0.00000E+00         0.00000E+00        -0.40941E+06
 
    0.23583E+05         0.14014E+07         0.00000E+00
    0.14014E+07        -0.20853E+07         0.00000E+00
    0.00000E+00         0.00000E+00        -0.41235E+06
 
    0.39971E+04         0.14499E+07         0.00000E+00
    0.14499E+07        -0.20804E+07         0.00000E+00
    0.00000E+00         0.00000E+00        -0.41527E+06
 
   -0.15714E+05         0.14981E+07         0.00000E+00
    0.14981E+07        -0.20752E+07         0.00000E+00
    0.00000E+00         0.00000E+00        -0.41818E+06
 
   -0.35555E+05         0.15460E+07         0.00000E+00
    0.15460E+07        -0.20698E+07         0.00000E+00
    0.00000E+00         0.00000E+00        -0.42106E+06
 
   -0.55527E+05         0.15936E+07         0.00000E+00
    0.15936E+07        -0.20641E+07         0.00000E+00
    0.00000E+00         0.00000E+00        -0.42393E+06
 
   -0.75636E+05         0.16409E+07         0.00000E+00
    0.16409E+07        -0.20583E+07         0.00000E+00
    0.00000E+00         0.00000E+00        -0.42679E+06
 
   -0.95885E+05         0.16879E+07         0.00000E+00
    0.16879E+07        -0.20523E+07         0.00000E+00
    0.00000E+00         0.00000E+00        -0.42963E+06
 
   -0.11628E+06         0.17345E+07         0.00000E+00
    0.17345E+07        -0.20460E+07         0.00000E+00
    0.00000E+00         0.00000E+00        -0.43245E+06
 
   -0.13682E+06         0.17808E+07         0.00000E+00
    0.17808E+07        -0.20395E+07         0.00000E+00
    0.00000E+00         0.00000E+00        -0.43526E+06
 
   -0.15751E+06         0.18268E+07         0.00000E+00
    0.18268E+07        -0.20328E+07         0.00000E+00
    0.00000E+00         0.00000E+00        -0.43806E+06
 
   -0.17835E+06         0.18725E+07         0.00000E+00
    0.18725E+07        -0.20258E+07         0.00000E+00
    0.00000E+00         0.00000E+00        -0.44084E+06
 
   -0.19936E+06         0.19179E+07         0.00000E+00
    0.19179E+07        -0.20186E+07         0.00000E+00
    0.00000E+00         0.00000E+00        -0.44360E+06
 
   -0.22053E+06         0.19629E+07         0.00000E+00
    0.19629E+07        -0.20112E+07         0.00000E+00
    0.00000E+00         0.00000E+00        -0.44635E+06
 
   -0.24187E+06         0.20076E+07         0.00000E+00
    0.20076E+07        -0.20036E+07         0.00000E+00
    0.00000E+00         0.00000E+00        -0.44909E+06
 
   -0.26338E+06         0.20520E+07         0.00000E+00
    0.20520E+07        -0.19957E+07         0.00000E+00
    0.00000E+00         0.00000E+00        -0.45182E+06
 
   -0.28506E+06         0.20960E+07         0.00000E+00
    0.20960E+07        -0.19876E+07         0.00000E+00
    0.00000E+00         0.00000E+00        -0.45453E+06
 
   -0.30693E+06         0.21398E+07         0.00000E+00
    0.21398E+07        -0.19792E+07         0.00000E+00
    0.00000E+00         0.00000E+00        -0.45723E+06
 
   -0.32898E+06         0.21831E+07         0.00000E+00
    0.21831E+07        -0.19706E+07         0.00000E+00
    0.00000E+00         0.00000E+00        -0.45991E+06
 
   -0.35122E+06         0.22262E+07         0.00000E+00
    0.22262E+07        -0.19617E+07         0.00000E+00
    0.00000E+00         0.00000E+00        -0.46259E+06
 
   -0.37365E+06         0.22689E+07         0.00000E+00
    0.22689E+07        -0.19526E+07         0.00000E+00
    0.00000E+00         0.00000E+00        -0.46525E+06
 
   -0.39629E+06         0.23112E+07         0.00000E+00
    0.23112E+07        -0.19432E+07         0.00000E+00
    0.00000E+00         0.00000E+00        -0.46790E+06
 
   -0.41912E+06         0.23532E+07         0.00000E+00
    0.23532E+07        -0.19336E+07         0.00000E+00
    0.00000E+00         0.00000E+00        -0.47054E+06
 
   -0.44216E+06         0.23949E+07         0.00000E+00
    0.23949E+07        -0.19237E+07         0.00000E+00
    0.00000E+00         0.00000E+00        -0.47317E+06
 
   -0.46542E+06         0.24362E+07         0.00000E+00
    0.24362E+07        -0.19135E+07         0.00000E+00
    0.00000E+00         0.00000E+00        -0.47579E+06
 
    0.51349E+06         0.29249E+05         0.00000E+00
    0.29249E+05        -0.24202E+07         0.00000E+00
    0.00000E+00         0.00000E+00        -0.38134E+06
 
    0.49450E+06         0.86960E+05         0.00000E+00
    0.86960E+05        -0.24200E+07         0.00000E+00
    0.00000E+00         0.00000E+00        -0.38510E+06
 
    0.47545E+06         0.14434E+06         0.00000E+00
    0.14434E+06        -0.24196E+07         0.00000E+00
    0.00000E+00         0.00000E+00        -0.38884E+06
 
    0.45635E+06         0.20139E+06         0.00000E+00
    0.20139E+06        -0.24191E+07         0.00000E+00
    0.00000E+00         0.00000E+00        -0.39255E+06
 
    0.43720E+06         0.25810E+06         0.00000E+00
    0.25810E+06        -0.24184E+07         0.00000E+00
    0.00000E+00         0.00000E+00        -0.39624E+06
 
    0.41799E+06         0.31450E+06         0.00000E+00
    0.31450E+06        -0.24175E+07         0.00000E+00
    0.00000E+00         0.00000E+00        -0.39990E+06
 
    0.39872E+06         0.37057E+06         0.00000E+00
    0.37057E+06        -0.24164E+07         0.00000E+00
    0.00000E+00         0.00000E+00        -0.40354E+06
 
    0.37940E+06         0.42632E+06         0.00000E+00
    0.42632E+06        -0.24152E+07         0.00000E+00
    0.00000E+00         0.00000E+00        -0.40715E+06
 
    0.36001E+06         0.48175E+06         0.00000E+00
    0.48175E+06        -0.24137E+07         0.00000E+00
    0.00000E+00         0.00000E+00        -0.41074E+06
 
    0.34056E+06         0.53686E+06         0.00000E+00
    0.53686E+06        -0.24121E+07         0.00000E+00
    0.00000E+00         0.00000E+00        -0.41431E+06
 
    0.32104E+06         0.59165E+06         0.00000E+00
    0.59165E+06        -0.24103E+07         0.00000E+00
    0.00000E+00         0.00000E+00        -0.41785E+06
 
    0.30145E+06         0.64613E+06         0.00000E+00
    0.64613E+06        -0.24083E+07         0.00000E+00
    0.00000E+00         0.00000E+00        -0.42136E+06
 
    0.28179E+06         0.70030E+06         0.00000E+00
    0.70030E+06        -0.24061E+07         0.00000E+00
    0.00000E+00         0.00000E+00        -0.42485E+06
 
    0.26206E+06         0.75416E+06         0.00000E+00
    0.75416E+06        -0.24037E+07         0.00000E+00
    0.00000E+00         0.00000E+00        -0.42832E+06
 
    0.24224E+06         0.80771E+06         0.00000E+00
    0.80771E+06        -0.24011E+07         0.00000E+00
    0.00000E+00         0.00000E+00        -0.43177E+06
 
    0.22235E+06         0.86095E+06         0.00000E+00
    0.86095E+06        -0.23983E+07         0.00000E+00
    0.00000E+00         0.00000E+00        -0.43519E+06
 
    0.20238E+06         0.91389E+06         0.00000E+00
    0.91389E+06        -0.23953E+07         0.00000E+00
    0.00000E+00         0.00000E+00        -0.43859E+06
 
    0.18231E+06         0.96652E+06         0.00000E+00
    0.96652E+06        -0.23922E+07         0.00000E+00
    0.00000E+00         0.00000E+00        -0.44197E+06
 
    0.16216E+06         0.10188E+07         0.00000E+00
    0.10188E+07        -0.23888E+07         0.00000E+00
    0.00000E+00         0.00000E+00        -0.44532E+06
 
    0.14192E+06         0.10709E+07         0.00000E+00
    0.10709E+07        -0.23852E+07         0.00000E+00
    0.00000E+00         0.00000E+00        -0.44866E+06
 
    0.12158E+06         0.11226E+07         0.00000E+00
    0.11226E+07        -0.23814E+07         0.00000E+00
    0.00000E+00         0.00000E+00        -0.45197E+06
 
    0.10113E+06         0.11740E+07         0.00000E+00
    0.11740E+07        -0.23774E+07         0.00000E+00
    0.00000E+00         0.00000E+00        -0.45526E+06
 
    0.80588E+05         0.12251E+07         0.00000E+00
    0.12251E+07        -0.23732E+07         0.00000E+00
    0.00000E+00         0.00000E+00        -0.45852E+06
 
    0.59935E+05         0.12759E+07         0.00000E+00
    0.12759E+07        -0.23688E+07         0.00000E+00
    0.00000E+00         0.00000E+00        -0.46177E+06
 
    0.39171E+05         0.13264E+07         0.00000E+00
    0.13264E+07        -0.23642E+07         0.00000E+00
    0.00000E+00         0.00000E+00        -0.46500E+06
 
    0.18292E+05         0.13766E+07         0.00000E+00
    0.13766E+07        -0.23593E+07         0.00000E+00
    0.00000E+00         0.00000E+00        -0.46820E+06
 
   -0.27068E+04         0.14266E+07         0.00000E+00
    0.14266E+07        -0.23542E+07         0.00000E+00
    0.00000E+00         0.00000E+00        -0.47139E+06
 
   -0.23828E+05         0.14762E+07         0.00000E+00
    0.14762E+07        -0.23490E+07         0.00000E+00
    0.00000E+00         0.00000E+00        -0.47456E+06
 
   -0.45077E+05         0.15255E+07         0.00000E+00
    0.15255E+07        -0.23434E+07         0.00000E+00
    0.00000E+00         0.00000E+00        -0.47770E+06
 
   -0.66457E+05         0.15745E+07         0.00000E+00
    0.15745E+07        -0.23377E+07         0.00000E+00
    0.00000E+00         0.00000E+00        -0.48083E+06
 
   -0.87972E+05         0.16232E+07         0.00000E+00
    0.16232E+07        -0.23317E+07         0.00000E+00
    0.00000E+00         0.00000E+00        -0.48394E+06
 
   -0.10963E+06         0.16716E+07         0.00000E+00
    0.16716E+07        -0.23255E+07         0.00000E+00
    0.00000E+00         0.00000E+00        -0.48703E+06
 
   -0.13143E+06         0.17197E+07         0.00000E+00
    0.17197E+07        -0.23191E+07         0.00000E+00
    0.00000E+00         0.00000E+00        -0.49010E+06
 
   -0.15338E+06         0.17675E+07         0.00000E+00
    0.17675E+07        -0.23124E+07         0.00000E+00
    0.00000E+00         0.00000E+00        -0.49316E+06
 
   -0.17548E+06         0.18150E+07         0.00000E+00
    0.18150E+07        -0.23055E+07         0.00000E+00
    0.00000E+00         0.00000E+00        -0.49619E+06
 
   -0.19774E+06         0.18622E+07         0.00000E+00
    0.18622E+07        -0.22983E+07         0.00000E+00
    0.00000E+00         0.00000E+00        -0.49921E+06
 
   -0.22016E+06         0.19090E+07         0.00000E+00
    0.19090E+07        -0.22909E+07         0.00000E+00
    0.00000E+00         0.00000E+00        -0.50222E+06
 
   -0.24275E+06         0.19556E+07         0.00000E+00
    0.19556E+07        -0.22833E+07         0.00000E+00
    0.00000E+00         0.00000E+00        -0.50520E+06
 
   -0.26552E+06         0.20019E+07         0.00000E+00
    0.20019E+07        -0.22753E+07         0.00000E+00
    0.00000E+00         0.00000E+00        -0.50817E+06
 
   -0.28846E+06         0.20478E+07         0.00000E+00
    0.20478E+07        -0.22672E+07         0.00000E+00
    0.00000E+00         0.00000E+00        -0.51113E+06
 
   -0.31158E+06         0.20934E+07         0.00000E+00
    0.20934E+07        -0.22587E+07         0.00000E+00
    0.00000E+00         0.00000E+00        -0.51407E+06
 
   -0.33489E+06         0.21387E+07         0.00000E+00
    0.21387E+07        -0.22501E+07         0.00000E+00
    0.00000E+00         0.00000E+00        -0.51699E+06
 
   -0.35839E+06         0.21837E+07         0.00000E+00
    0.21837E+07        -0.22411E+07         0.00000E+00
    0.00000E+00         0.00000E+00        -0.51990E+06
 
   -0.38209E+06         0.22284E+07         0.00000E+00
    0.22284E+07        -0.22319E+07         0.00000E+00
    0.00000E+00         0.00000E+00        -0.52279E+06
 
   -0.40599E+06         0.22728E+07         0.00000E+00
    0.22728E+07        -0.22224E+07         0.00000E+00
    0.00000E+00         0.00000E+00        -0.52567E+06
 
   -0.43010E+06         0.23168E+07         0.00000E+00
    0.23168E+07        -0.22126E+07         0.00000E+00
    0.00000E+00         0.00000E+00        -0.52854E+06
 
   -0.45443E+06         0.23605E+07         0.00000E+00
    0.23605E+07        -0.22025E+07         0.00000E+00
    0.00000E+00         0.00000E+00        -0.53139E+06
 
   -0.47897E+06         0.24039E+07         0.00000E+00
    0.24039E+07        -0.21922E+07         0.00000E+00
    0.00000E+00         0.00000E+00        -0.53423E+06
 
   -0.50373E+06         0.24469E+07         0.00000E+00
    0.24469E+07        -0.21816E+07         0.00000E+00
    0.00000E+00         0.00000E+00        -0.53706E+06
 
   -0.52873E+06         0.24896E+07         0.00000E+00
    0.24896E+07        -0.21707E+07         0.00000E+00
    0.00000E+00         0.00000E+00        -0.53988E+06
 
    0.52254E+06         0.29698E+05         0.00000E+00
    0.29698E+05        -0.27028E+07         0.00000E+00
    0.00000E+00         0.00000E+00        -0.43605E+06
 
    0.50188E+06         0.88316E+05         0.00000E+00
    0.88316E+05        -0.27026E+07         0.00000E+00
    0.00000E+00         0.00000E+00        -0.44014E+06
 
    0.48119E+06         0.14661E+06         0.00000E+00
    0.14661E+06        -0.27022E+07         0.00000E+00
    0.00000E+00         0.00000E+00        -0.44421E+06
 
    0.46045E+06         0.20457E+06         0.00000E+00
    0.20457E+06        -0.27017E+07         0.00000E+00
    0.00000E+00         0.00000E+00        -0.44824E+06
 
    0.43968E+06         0.26221E+06         0.00000E+00
    0.26221E+06        -0.27009E+07         0.00000E+00
    0.00000E+00         0.00000E+00        -0.45225E+06
 
    0.41886E+06         0.31953E+06         0.00000E+00
    0.31953E+06        -0.27000E+07         0.00000E+00
    0.00000E+00         0.00000E+00        -0.45623E+06
 
    0.39800E+06         0.37654E+06         0.00000E+00
    0.37654E+06        -0.26989E+07         0.00000E+00
    0.00000E+00         0.00000E+00        -0.46018E+06
 
    0.37709E+06         0.43323E+06         0.00000E+00
    0.43323E+06        -0.26976E+07         0.00000E+00
    0.00000E+00         0.00000E+00        -0.46410E+06
 
    0.35613E+06         0.48961E+06         0.00000E+00
    0.48961E+06        -0.26961E+07         0.00000E+00
    0.00000E+00         0.00000E+00        -0.46799E+06
 
    0.33511E+06         0.54567E+06         0.00000E+00
    0.54567E+06        -0.26944E+07         0.00000E+00
    0.00000E+00         0.00000E+00        -0.47185E+06
 
    0.31404E+06         0.60143E+06         0.00000E+00
    0.60143E+06        -0.26925E+07         0.00000E+00
    0.00000E+00         0.00000E+00        -0.47569E+06
 
    0.29291E+06         0.65689E+06         0.00000E+00
    0.65689E+06        -0.26904E+07         0.00000E+00
    0.00000E+00         0.00000E+00        -0.47949E+06
 
    0.27171E+06         0.71204E+06         0.00000E+00
    0.71204E+06        -0.26881E+07         0.00000E+00
    0.00000E+00         0.00000E+00        -0.48327E+06
 
    0.25045E+06         0.76689E+06         0.00000E+00
    0.76689E+06        -0.26856E+07         0.00000E+00
    0.00000E+00         0.00000E+00        -0.48703E+06
 
    0.22912E+06         0.82144E+06         0.00000E+00
    0.82144E+06        -0.26829E+07         0.00000E+00
    0.00000E+00         0.00000E+00        -0.49075E+06
 
    0.20771E+06         0.87569E+06         0.00000E+00
    0.87569E+06        -0.26800E+07         0.00000E+00
    0.00000E+00         0.00000E+00        -0.49445E+06
 
    0.18623E+06         0.92964E+06         0.00000E+00
    0.92964E+06        -0.26769E+07         0.00000E+00
    0.00000E+00         0.00000E+00        -0.49813E+06
 
    0.16467E+06         0.98330E+06         0.00000E+00
    0.98330E+06        -0.26735E+07         0.00000E+00
    0.00000E+00         0.00000E+00        -0.50177E+06
 
    0.14303E+06         0.10367E+07         0.00000E+00
    0.10367E+07        -0.26700E+07         0.00000E+00
    0.00000E+00         0.00000E+00        -0.50539E+06
 
    0.12129E+06         0.10897E+07         0.00000E+00
    0.10897E+07        -0.26662E+07         0.00000E+00
    0.00000E+00         0.00000E+00        -0.50899E+06
 
    0.99466E+05         0.11425E+07         0.00000E+00
    0.11425E+07        -0.26623E+07         0.00000E+00
    0.00000E+00         0.00000E+00        -0.51256E+06
 
    0.77544E+05         0.11950E+07         0.00000E+00
    0.11950E+07        -0.26581E+07         0.00000E+00
    0.00000E+00         0.00000E+00        -0.51611E+06
 
    0.55521E+05         0.12472E+07         0.00000E+00
    0.12472E+07        -0.26537E+07         0.00000E+00
    0.00000E+00         0.00000E+00        -0.51963E+06
 
    0.33393E+05         0.12991E+07         0.00000E+00
    0.12991E+07        -0.26490E+07         0.00000E+00
    0.00000E+00         0.00000E+00        -0.52313E+06
 
    0.11156E+05         0.13508E+07         0.00000E+00
    0.13508E+07        -0.26442E+07         0.00000E+00
    0.00000E+00         0.00000E+00        -0.52660E+06
 
   -0.11194E+05         0.14021E+07         0.00000E+00
    0.14021E+07        -0.26391E+07         0.00000E+00
    0.00000E+00         0.00000E+00        -0.53005E+06
 
   -0.33663E+05         0.14531E+07         0.00000E+00
    0.14531E+07        -0.26337E+07         0.00000E+00
    0.00000E+00         0.00000E+00        -0.53348E+06
 
   -0.56255E+05         0.15039E+07         0.00000E+00
    0.15039E+07        -0.26282E+07         0.00000E+00
    0.00000E+00         0.00000E+00        -0.53688E+06
 
   -0.78974E+05         0.15544E+07         0.00000E+00
    0.15544E+07        -0.26224E+07         0.00000E+00
    0.00000E+00         0.00000E+00        -0.54027E+06
 
   -0.10183E+06         0.16046E+07         0.00000E+00
    0.16046E+07        -0.26163E+07         0.00000E+00
    0.00000E+00         0.00000E+00        -0.54363E+06
 
   -0.12482E+06         0.16545E+07         0.00000E+00
    0.16545E+07        -0.26100E+07         0.00000E+00
    0.00000E+00         0.00000E+00        -0.54697E+06
 
   -0.14795E+06         0.17041E+07         0.00000E+00
    0.17041E+07        -0.26035E+07         0.00000E+00
    0.00000E+00         0.00000E+00        -0.55028E+06
 
   -0.17123E+06         0.17534E+07         0.00000E+00
    0.17534E+07        -0.25967E+07         0.00000E+00
    0.00000E+00         0.00000E+00        -0.55358E+06
 
   -0.19466E+06         0.18024E+07         0.00000E+00
    0.18024E+07        -0.25896E+07         0.00000E+00
    0.00000E+00         0.00000E+00        -0.55686E+06
 
   -0.21825E+06         0.18512E+07         0.00000E+00
    0.18512E+07        -0.25823E+07         0.00000E+00
    0.00000E+00         0.00000E+00        -0.56011E+06
 
   -0.24201E+06         0.18997E+07         0.00000E+00
    0.18997E+07        -0.25747E+07         0.00000E+00
    0.00000E+00         0.00000E+00        -0.56335E+06
 
   -0.26593E+06         0.19478E+07         0.00000E+00
    0.19478E+07        -0.25669E+07         0.00000E+00
    0.00000E+00         0.00000E+00        -0.56657E+06
 
   -0.29003E+06         0.19957E+07         0.00000E+00
    0.19957E+07        -0.25588E+07         0.00000E+00
    0.00000E+00         0.00000E+00        -0.56976E+06
 
   -0.31431E+06         0.20433E+07         0.00000E+00
    0.20433E+07        -0.25504E+07         0.00000E+00
    0.00000E+00         0.00000E+00        -0.57294E+06
 
   -0.33878E+06         0.20906E+07         0.00000E+00
    0.20906E+07        -0.25417E+07         0.00000E+00
    0.00000E+00         0.00000E+00        -0.57610E+06
 
   -0.36343E+06         0.21376E+07         0.00000E+00
    0.21376E+07        -0.25328E+07         0.00000E+00
    0.00000E+00         0.00000E+00        -0.57925E+06
 
   -0.38828E+06         0.21842E+07         0.00000E+00
    0.21842E+07        -0.25236E+07         0.00000E+00
    0.00000E+00         0.00000E+00        -0.58237E+06
 
   -0.41334E+06         0.22306E+07         0.00000E+00
    0.22306E+07        -0.25141E+07         0.00000E+00
    0.00000E+00         0.00000E+00        -0.58548E+06
 
   -0.43861E+06         0.22767E+07         0.00000E+00
    0.22767E+07        -0.25043E+07         0.00000E+00
    0.00000E+00         0.00000E+00        -0.58858E+06
 
   -0.46409E+06         0.23225E+07         0.00000E+00
    0.23225E+07        -0.24942E+07         0.00000E+00
    0.00000E+00         0.00000E+00        -0.59165E+06
 
   -0.48979E+06         0.23680E+07         0.00000E+00
    0.23680E+07        -0.24838E+07         0.00000E+00
    0.00000E+00         0.00000E+00        -0.59471E+06
 
   -0.51572E+06         0.24131E+07         0.00000E+00
    0.24131E+07        -0.24731E+07         0.00000E+00
    0.00000E+00         0.00000E+00        -0.59776E+06
 
   -0.54188E+06         0.24580E+07         0.00000E+00
    0.24580E+07        -0.24621E+07         0.00000E+00
    0.00000E+00         0.00000E+00        -0.60079E+06
 
   -0.56828E+06         0.25025E+07         0.00000E+00
    0.25025E+07        -0.24508E+07         0.00000E+00
    0.00000E+00         0.00000E+00        -0.60381E+06
 
   -0.59493E+06         0.25467E+07         0.00000E+00
    0.25467E+07        -0.24391E+07         0.00000E+00
    0.00000E+00         0.00000E+00        -0.60681E+06
 
    0.52505E+06         0.30161E+05         0.00000E+00
    0.30161E+05        -0.29965E+07         0.00000E+00
    0.00000E+00         0.00000E+00        -0.49429E+06
 
    0.50276E+06         0.89717E+05         0.00000E+00
    0.89717E+05        -0.29963E+07         0.00000E+00
    0.00000E+00         0.00000E+00        -0.49871E+06
 
    0.48045E+06         0.14895E+06         0.00000E+00
    0.14895E+06        -0.29959E+07         0.00000E+00
    0.00000E+00         0.00000E+00        -0.50310E+06
 
    0.45811E+06         0.20787E+06         0.00000E+00
    0.20787E+06        -0.29954E+07         0.00000E+00
    0.00000E+00         0.00000E+00        -0.50745E+06
 
    0.43575E+06         0.26646E+06         0.00000E+00
    0.26646E+06        -0.29946E+07         0.00000E+00
    0.00000E+00         0.00000E+00        -0.51177E+06
 
    0.41336E+06         0.32475E+06         0.00000E+00
    0.32475E+06        -0.29937E+07         0.00000E+00
    0.00000E+00         0.00000E+00        -0.51606E+06
 
    0.39094E+06         0.38273E+06         0.00000E+00
    0.38273E+06        -0.29925E+07         0.00000E+00
    0.00000E+00         0.00000E+00        -0.52031E+06
 
    0.36848E+06         0.44040E+06         0.00000E+00
    0.44040E+06        -0.29911E+07         0.00000E+00
    0.00000E+00         0.00000E+00        -0.52453E+06
 
    0.34598E+06         0.49776E+06         0.00000E+00
    0.49776E+06        -0.29896E+07         0.00000E+00
    0.00000E+00         0.00000E+00        -0.52872E+06
 
    0.32344E+06         0.55483E+06         0.00000E+00
    0.55483E+06        -0.29878E+07         0.00000E+00
    0.00000E+00         0.00000E+00        -0.53288E+06
 
    0.30086E+06         0.61159E+06         0.00000E+00
    0.61159E+06        -0.29859E+07         0.00000E+00
    0.00000E+00         0.00000E+00        -0.53700E+06
 
    0.27823E+06         0.66807E+06         0.00000E+00
    0.66807E+06        -0.29837E+07         0.00000E+00
    0.00000E+00         0.00000E+00        -0.54109E+06
 
    0.25555E+06         0.72424E+06         0.00000E+00
    0.72424E+06        -0.29813E+07         0.00000E+00
    0.00000E+00         0.00000E+00        -0.54515E+06
 
    0.23281E+06         0.78013E+06         0.00000E+00
    0.78013E+06        -0.29787E+07         0.00000E+00
    0.00000E+00         0.00000E+00        -0.54918E+06
 
    0.21001E+06         0.83573E+06         0.00000E+00
    0.83573E+06        -0.29759E+07         0.00000E+00
    0.00000E+00         0.00000E+00        -0.55318E+06
 
    0.18715E+06         0.89104E+06         0.00000E+00
    0.89104E+06        -0.29729E+07         0.00000E+00
    0.00000E+00         0.00000E+00        -0.55715E+06
 
    0.16422E+06         0.94606E+06         0.00000E+00
    0.94606E+06        -0.29697E+07         0.00000E+00
    0.00000E+00         0.00000E+00        -0.56109E+06
 
    0.14121E+06         0.10008E+07         0.00000E+00
    0.10008E+07        -0.29662E+07         0.00000E+00
    0.00000E+00         0.00000E+00        -0.56500E+06
 
    0.11813E+06         0.10553E+07         0.00000E+00
    0.10553E+07        -0.29626E+07         0.00000E+00
    0.00000E+00         0.00000E+00        -0.56888E+06
 
    0.94972E+05         0.11095E+07         0.00000E+00
    0.11095E+07        -0.29586E+07         0.00000E+00
    0.00000E+00         0.00000E+00        -0.57274E+06
 
    0.71725E+05         0.11634E+07         0.00000E+00
    0.11634E+07        -0.29545E+07         0.00000E+00
    0.00000E+00         0.00000E+00        -0.57656E+06
 
    0.48387E+05         0.12170E+07         0.00000E+00
    0.12170E+07        -0.29502E+07         0.00000E+00
    0.00000E+00         0.00000E+00        -0.58035E+06
 
    0.24954E+05         0.12703E+07         0.00000E+00
    0.12703E+07        -0.29456E+07         0.00000E+00
    0.00000E+00         0.00000E+00        -0.58412E+06
 
    0.14206E+04         0.13234E+07         0.00000E+00
    0.13234E+07        -0.29407E+07         0.00000E+00
    0.00000E+00         0.00000E+00        -0.58786E+06
 
   -0.22219E+05         0.13762E+07         0.00000E+00
    0.13762E+07        -0.29357E+07         0.00000E+00
    0.00000E+00         0.00000E+00        -0.59157E+06
 
   -0.45969E+05         0.14288E+07         0.00000E+00
    0.14288E+07        -0.29303E+07         0.00000E+00
    0.00000E+00         0.00000E+00        -0.59526E+06
 
   -0.69835E+05         0.14810E+07         0.00000E+00
    0.14810E+07        -0.29248E+07         0.00000E+00
    0.00000E+00         0.00000E+00        -0.59892E+06
 
   -0.93822E+05         0.15330E+07         0.00000E+00
    0.15330E+07        -0.29189E+07         0.00000E+00
    0.00000E+00         0.00000E+00        -0.60255E+06
 
   -0.11794E+06         0.15847E+07         0.00000E+00
    0.15847E+07        -0.29129E+07         0.00000E+00
    0.00000E+00         0.00000E+00        -0.60616E+06
 
   -0.14218E+06         0.16362E+07         0.00000E+00
    0.16362E+07        -0.29066E+07         0.00000E+00
    0.00000E+00         0.00000E+00        -0.60975E+06
 
   -0.16657E+06         0.16873E+07         0.00000E+00
    0.16873E+07        -0.29000E+07         0.00000E+00
    0.00000E+00         0.00000E+00        -0.61331E+06
 
   -0.19110E+06         0.17383E+07         0.00000E+00
    0.17383E+07        -0.28931E+07         0.00000E+00
    0.00000E+00         0.00000E+00        -0.61684E+06
 
   -0.21577E+06         0.17889E+07         0.00000E+00
    0.17889E+07        -0.28860E+07         0.00000E+00
    0.00000E+00         0.00000E+00        -0.62035E+06
 
   -0.24061E+06         0.18393E+07         0.00000E+00
    0.18393E+07        -0.28786E+07         0.00000E+00
    0.00000E+00         0.00000E+00        -0.62384E+06
 
   -0.26560E+06         0.18893E+07         0.00000E+00
    0.18893E+07        -0.28709E+07         0.00000E+00
    0.00000E+00         0.00000E+00        -0.62731E+06
 
   -0.29077E+06         0.19392E+07         0.00000E+00
    0.19392E+07        -0.28630E+07         0.00000E+00
    0.00000E+00         0.00000E+00        -0.63075E+06
 
   -0.31610E+06         0.19887E+07         0.00000E+00
    0.19887E+07        -0.28547E+07         0.00000E+00
    0.00000E+00         0.00000E+00        -0.63417E+06
 
   -0.34162E+06         0.20380E+07         0.00000E+00
    0.20380E+07        -0.28462E+07         0.00000E+00
    0.00000E+00         0.00000E+00        -0.63757E+06
 
   -0.36733E+06         0.20870E+07         0.00000E+00
    0.20870E+07        -0.28374E+07         0.00000E+00
    0.00000E+00         0.00000E+00        -0.64095E+06
 
   -0.39322E+06         0.21357E+07         0.00000E+00
    0.21357E+07        -0.28283E+07         0.00000E+00
    0.00000E+00         0.00000E+00        -0.64431E+06
 
   -0.41932E+06         0.21842E+07         0.00000E+00
    0.21842E+07        -0.28189E+07         0.00000E+00
    0.00000E+00         0.00000E+00        -0.64764E+06
 
   -0.44562E+06         0.22323E+07         0.00000E+00
    0.22323E+07        -0.28092E+07         0.00000E+00
    0.00000E+00         0.00000E+00        -0.65096E+06
 
   -0.47214E+06         0.22802E+07         0.00000E+00
    0.22802E+07        -0.27992E+07         0.00000E+00
    0.00000E+00         0.00000E+00        -0.65426E+06
 
   -0.49888E+06         0.23278E+07         0.00000E+00
    0.23278E+07        -0.27888E+07         0.00000E+00
    0.00000E+00         0.00000E+00        -0.65754E+06
 
   -0.52584E+06         0.23752E+07         0.00000E+00
    0.23752E+07        -0.27782E+07         0.00000E+00
    0.00000E+00         0.00000E+00        -0.66081E+06
 
   -0.55303E+06         0.24222E+07         0.00000E+00
    0.24222E+07        -0.27672E+07         0.00000E+00
    0.00000E+00         0.00000E+00        -0.66405E+06
 
   -0.58047E+06         0.24689E+07         0.00000E+00
    0.24689E+07        -0.27559E+07         0.00000E+00
    0.00000E+00         0.00000E+00        -0.66728E+06
 
   -0.60815E+06         0.25154E+07         0.00000E+00
    0.25154E+07        -0.27443E+07         0.00000E+00
    0.00000E+00         0.00000E+00        -0.67049E+06
 
   -0.63609E+06         0.25615E+07         0.00000E+00
    0.25615E+07        -0.27323E+07         0.00000E+00
    0.00000E+00         0.00000E+00        -0.67369E+06
 
   -0.66429E+06         0.26074E+07         0.00000E+00
    0.26074E+07        -0.27200E+07         0.00000E+00
    0.00000E+00         0.00000E+00        -0.67687E+06
 
    0.52027E+06         0.30635E+05         0.00000E+00
    0.30635E+05        -0.33023E+07         0.00000E+00
    0.00000E+00         0.00000E+00        -0.55640E+06
 
    0.49638E+06         0.91154E+05         0.00000E+00
    0.91154E+05        -0.33021E+07         0.00000E+00
    0.00000E+00         0.00000E+00        -0.56114E+06
 
    0.47248E+06         0.15136E+06         0.00000E+00
    0.15136E+06        -0.33017E+07         0.00000E+00
    0.00000E+00         0.00000E+00        -0.56585E+06
 
    0.44857E+06         0.21125E+06         0.00000E+00
    0.21125E+06        -0.33011E+07         0.00000E+00
    0.00000E+00         0.00000E+00        -0.57051E+06
 
    0.42466E+06         0.27083E+06         0.00000E+00
    0.27083E+06        -0.33003E+07         0.00000E+00
    0.00000E+00         0.00000E+00        -0.57514E+06
 
    0.40074E+06         0.33011E+06         0.00000E+00
    0.33011E+06        -0.32994E+07         0.00000E+00
    0.00000E+00         0.00000E+00        -0.57973E+06
 
    0.37679E+06         0.38909E+06         0.00000E+00
    0.38909E+06        -0.32982E+07         0.00000E+00
    0.00000E+00         0.00000E+00        -0.58428E+06
 
    0.35283E+06         0.44777E+06         0.00000E+00
    0.44777E+06        -0.32968E+07         0.00000E+00
    0.00000E+00         0.00000E+00        -0.58879E+06
 
    0.32885E+06         0.50616E+06         0.00000E+00
    0.50616E+06        -0.32952E+07         0.00000E+00
    0.00000E+00         0.00000E+00        -0.59327E+06
 
    0.30484E+06         0.56426E+06         0.00000E+00
    0.56426E+06        -0.32934E+07         0.00000E+00
    0.00000E+00         0.00000E+00        -0.59771E+06
 
    0.28080E+06         0.62207E+06         0.00000E+00
    0.62207E+06        -0.32914E+07         0.00000E+00
    0.00000E+00         0.00000E+00        -0.60212E+06
 
    0.25672E+06         0.67959E+06         0.00000E+00
    0.67959E+06        -0.32891E+07         0.00000E+00
    0.00000E+00         0.00000E+00        -0.60648E+06
 
    0.23261E+06         0.73684E+06         0.00000E+00
    0.73684E+06        -0.32867E+07         0.00000E+00
    0.00000E+00         0.00000E+00        -0.61082E+06
 
    0.20845E+06         0.79380E+06         0.00000E+00
    0.79380E+06        -0.32840E+07         0.00000E+00
    0.00000E+00         0.00000E+00        -0.61512E+06
 
    0.18424E+06         0.85049E+06         0.00000E+00
    0.85049E+06        -0.32812E+07         0.00000E+00
    0.00000E+00         0.00000E+00        -0.61938E+06
 
    0.15998E+06         0.90691E+06         0.00000E+00
    0.90691E+06        -0.32781E+07         0.00000E+00
    0.00000E+00         0.00000E+00        -0.62361E+06
 
    0.13567E+06         0.96305E+06         0.00000E+00
    0.96305E+06        -0.32747E+07         0.00000E+00
    0.00000E+00         0.00000E+00        -0.62781E+06
 
    0.11129E+06         0.10189E+07         0.00000E+00
    0.10189E+07        -0.32712E+07         0.00000E+00
    0.00000E+00         0.00000E+00        -0.63198E+06
 
    0.86845E+05         0.10745E+07         0.00000E+00
    0.10745E+07        -0.32674E+07         0.00000E+00
    0.00000E+00         0.00000E+00        -0.63611E+06
 
    0.62327E+05         0.11299E+07         0.00000E+00
    0.11299E+07        -0.32634E+07         0.00000E+00
    0.00000E+00         0.00000E+00        -0.64020E+06
 
    0.37732E+05         0.11850E+07         0.00000E+00
    0.11850E+07        -0.32591E+07         0.00000E+00
    0.00000E+00         0.00000E+00        -0.64427E+06
 
    0.13053E+05         0.12398E+07         0.00000E+00
    0.12398E+07        -0.32546E+07         0.00000E+00
    0.00000E+00         0.00000E+00        -0.64831E+06
 
   -0.11714E+05         0.12943E+07         0.00000E+00
    0.12943E+07        -0.32498E+07         0.00000E+00
    0.00000E+00         0.00000E+00        -0.65231E+06
 
   -0.36576E+05         0.13486E+07         0.00000E+00
    0.13486E+07        -0.32448E+07         0.00000E+00
    0.00000E+00         0.00000E+00        -0.65628E+06
 
   -0.61538E+05         0.14027E+07         0.00000E+00
    0.14027E+07        -0.32396E+07         0.00000E+00
    0.00000E+00         0.00000E+00        -0.66022E+06
 
   -0.86605E+05         0.14565E+07         0.00000E+00
    0.14565E+07        -0.32341E+07         0.00000E+00
    0.00000E+00         0.00000E+00        -0.66413E+06
 
   -0.11178E+06         0.15100E+07         0.00000E+00
    0.15100E+07        -0.32283E+07         0.00000E+00
    0.00000E+00         0.00000E+00        -0.66802E+06
 
   -0.13708E+06         0.15633E+07         0.00000E+00
    0.15633E+07        -0.32223E+07         0.00000E+00
    0.00000E+00         0.00000E+00        -0.67187E+06
 
   -0.16250E+06         0.16163E+07         0.00000E+00
    0.16163E+07        -0.32160E+07         0.00000E+00
    0.00000E+00         0.00000E+00        -0.67569E+06
 
   -0.18806E+06         0.16691E+07         0.00000E+00
    0.16691E+07        -0.32094E+07         0.00000E+00
    0.00000E+00         0.00000E+00        -0.67949E+06
 
   -0.21375E+06         0.17216E+07         0.00000E+00
    0.17216E+07        -0.32026E+07         0.00000E+00
    0.00000E+00         0.00000E+00        -0.68326E+06
 
   -0.23958E+06         0.17739E+07         0.00000E+00
    0.17739E+07        -0.31954E+07         0.00000E+00
    0.00000E+00         0.00000E+00        -0.68700E+06
 
   -0.26556E+06         0.18259E+07         0.00000E+00
    0.18259E+07        -0.31880E+07         0.00000E+00
    0.00000E+00         0.00000E+00        -0.69072E+06
 
   -0.29170E+06         0.18777E+07         0.00000E+00
    0.18777E+07        -0.31803E+07         0.00000E+00
    0.00000E+00         0.00000E+00        -0.69441E+06
 
   -0.31800E+06         0.19292E+07         0.00000E+00
    0.19292E+07        -0.31723E+07         0.00000E+00
    0.00000E+00         0.00000E+00        -0.69807E+06
 
   -0.34448E+06         0.19805E+07         0.00000E+00
    0.19805E+07        -0.31641E+07         0.00000E+00
    0.00000E+00         0.00000E+00        -0.70171E+06
 
   -0.37113E+06         0.20315E+07         0.00000E+00
    0.20315E+07        -0.31555E+07         0.00000E+00
    0.00000E+00         0.00000E+00        -0.70532E+06
 
   -0.39796E+06         0.20823E+07         0.00000E+00
    0.20823E+07        -0.31466E+07         0.00000E+00
    0.00000E+00         0.00000E+00        -0.70891E+06
 
   -0.42499E+06         0.21328E+07         0.00000E+00
    0.21328E+07        -0.31374E+07         0.00000E+00
    0.00000E+00         0.00000E+00        -0.71248E+06
 
   -0.45222E+06         0.21831E+07         0.00000E+00
    0.21831E+07        -0.31279E+07         0.00000E+00
    0.00000E+00         0.00000E+00        -0.71602E+06
 
   -0.47965E+06         0.22331E+07         0.00000E+00
    0.22331E+07        -0.31181E+07         0.00000E+00
    0.00000E+00         0.00000E+00        -0.71954E+06
 
   -0.50730E+06         0.22828E+07         0.00000E+00
    0.22828E+07        -0.31079E+07         0.00000E+00
    0.00000E+00         0.00000E+00        -0.72304E+06
 
   -0.53516E+06         0.23323E+07         0.00000E+00
    0.23323E+07        -0.30974E+07         0.00000E+00
    0.00000E+00         0.00000E+00        -0.72652E+06
 
   -0.56326E+06         0.23816E+07         0.00000E+00
    0.23816E+07        -0.30866E+07         0.00000E+00
    0.00000E+00         0.00000E+00        -0.72997E+06
 
   -0.59159E+06         0.24305E+07         0.00000E+00
    0.24305E+07        -0.30755E+07         0.00000E+00
    0.00000E+00         0.00000E+00        -0.73341E+06
 
   -0.62017E+06         0.24792E+07         0.00000E+00
    0.24792E+07        -0.30640E+07         0.00000E+00
    0.00000E+00         0.00000E+00        -0.73683E+06
 
   -0.64900E+06         0.25277E+07         0.00000E+00
    0.25277E+07        -0.30521E+07         0.00000E+00
    0.00000E+00         0.00000E+00        -0.74022E+06
 
   -0.67809E+06         0.25758E+07         0.00000E+00
    0.25758E+07        -0.30399E+07         0.00000E+00
    0.00000E+00         0.00000E+00        -0.74360E+06
 
   -0.70745E+06         0.26238E+07         0.00000E+00
    0.26238E+07        -0.30274E+07         0.00000E+00
    0.00000E+00         0.00000E+00        -0.74696E+06
 
   -0.73709E+06         0.26714E+07         0.00000E+00
    0.26714E+07        -0.30144E+07         0.00000E+00
    0.00000E+00         0.00000E+00        -0.75031E+06
 
    0.50741E+06         0.31117E+05         0.00000E+00
    0.31117E+05        -0.36210E+07         0.00000E+00
    0.00000E+00         0.00000E+00        -0.62272E+06
 
    0.48194E+06         0.92616E+05         0.00000E+00
    0.92616E+05        -0.36208E+07         0.00000E+00
    0.00000E+00         0.00000E+00        -0.62777E+06
 
    0.45650E+06         0.15381E+06         0.00000E+00
    0.15381E+06        -0.36204E+07         0.00000E+00
    0.00000E+00         0.00000E+00        -0.63278E+06
 
    0.43106E+06         0.21470E+06         0.00000E+00
    0.21470E+06        -0.36198E+07         0.00000E+00
    0.00000E+00         0.00000E+00        -0.63775E+06
 
    0.40564E+06         0.27529E+06         0.00000E+00
    0.27529E+06        -0.36190E+07         0.00000E+00
    0.00000E+00         0.00000E+00        -0.64268E+06
 
    0.38023E+06         0.33558E+06         0.00000E+00
    0.33558E+06        -0.36180E+07         0.00000E+00
    0.00000E+00         0.00000E+00        -0.64756E+06
 
    0.35482E+06         0.39559E+06         0.00000E+00
    0.39559E+06        -0.36168E+07         0.00000E+00
    0.00000E+00         0.00000E+00        -0.65240E+06
 
    0.32941E+06         0.45531E+06         0.00000E+00
    0.45531E+06        -0.36154E+07         0.00000E+00
    0.00000E+00         0.00000E+00        -0.65720E+06
 
    0.30399E+06         0.51474E+06         0.00000E+00
    0.51474E+06        -0.36138E+07         0.00000E+00
    0.00000E+00         0.00000E+00        -0.66196E+06
 
    0.27856E+06         0.57390E+06         0.00000E+00
    0.57390E+06        -0.36120E+07         0.00000E+00
    0.00000E+00         0.00000E+00        -0.66668E+06
 
    0.25312E+06         0.63278E+06         0.00000E+00
    0.63278E+06        -0.36099E+07         0.00000E+00
    0.00000E+00         0.00000E+00        -0.67136E+06
 
    0.22767E+06         0.69139E+06         0.00000E+00
    0.69139E+06        -0.36076E+07         0.00000E+00
    0.00000E+00         0.00000E+00        -0.67599E+06
 
    0.20218E+06         0.74973E+06         0.00000E+00
    0.74973E+06        -0.36051E+07         0.00000E+00
    0.00000E+00         0.00000E+00        -0.68059E+06
 
    0.17667E+06         0.80781E+06         0.00000E+00
    0.80781E+06        -0.36024E+07         0.00000E+00
    0.00000E+00         0.00000E+00        -0.68515E+06
 
    0.15113E+06         0.86563E+06         0.00000E+00
    0.86563E+06        -0.35995E+07         0.00000E+00
    0.00000E+00         0.00000E+00        -0.68967E+06
 
    0.12554E+06         0.92318E+06         0.00000E+00
    0.92318E+06        -0.35963E+07         0.00000E+00
    0.00000E+00         0.00000E+00        -0.69415E+06
 
    0.99916E+05         0.98048E+06         0.00000E+00
    0.98048E+06        -0.35929E+07         0.00000E+00
    0.00000E+00         0.00000E+00        -0.69860E+06
 
    0.74238E+05         0.10375E+07         0.00000E+00
    0.10375E+07        -0.35893E+07         0.00000E+00
    0.00000E+00         0.00000E+00        -0.70301E+06
 
    0.48505E+05         0.10943E+07         0.00000E+00
    0.10943E+07        -0.35854E+07         0.00000E+00
    0.00000E+00         0.00000E+00        -0.70738E+06
 
    0.22710E+05         0.11509E+07         0.00000E+00
    0.11509E+07        -0.35813E+07         0.00000E+00
    0.00000E+00         0.00000E+00        -0.71171E+06
 
   -0.31518E+04         0.12072E+07         0.00000E+00
    0.12072E+07        -0.35769E+07         0.00000E+00
    0.00000E+00         0.00000E+00        -0.71601E+06
 
   -0.29087E+05         0.12632E+07         0.00000E+00
    0.12632E+07        -0.35723E+07         0.00000E+00
    0.00000E+00         0.00000E+00        -0.72027E+06
 
   -0.55102E+05         0.13191E+07         0.00000E+00
    0.13191E+07        -0.35674E+07         0.00000E+00
    0.00000E+00         0.00000E+00        -0.72450E+06
 
   -0.81204E+05         0.13746E+07         0.00000E+00
    0.13746E+07        -0.35623E+07         0.00000E+00
    0.00000E+00         0.00000E+00        -0.72869E+06
 
   -0.10740E+06         0.14300E+07         0.00000E+00
    0.14300E+07        -0.35569E+07         0.00000E+00
    0.00000E+00         0.00000E+00        -0.73285E+06
 
   -0.13369E+06         0.14851E+07         0.00000E+00
    0.14851E+07        -0.35512E+07         0.00000E+00
    0.00000E+00         0.00000E+00        -0.73698E+06
 
   -0.16009E+06         0.15400E+07         0.00000E+00
    0.15400E+07        -0.35453E+07         0.00000E+00
    0.00000E+00         0.00000E+00        -0.74107E+06
 
   -0.18660E+06         0.15946E+07         0.00000E+00
    0.15946E+07        -0.35391E+07         0.00000E+00
    0.00000E+00         0.00000E+00        -0.74513E+06
 
   -0.21323E+06         0.16490E+07         0.00000E+00
    0.16490E+07        -0.35326E+07         0.00000E+00
    0.00000E+00         0.00000E+00        -0.74916E+06
 
   -0.23999E+06         0.17032E+07         0.00000E+00
    0.17032E+07        -0.35258E+07         0.00000E+00
    0.00000E+00         0.00000E+00        -0.75316E+06
 
   -0.26688E+06         0.17571E+07         0.00000E+00
    0.17571E+07        -0.35188E+07         0.00000E+00
    0.00000E+00         0.00000E+00        -0.75713E+06
 
   -0.29391E+06         0.18108E+07         0.00000E+00
    0.18108E+07        -0.35114E+07         0.00000E+00
    0.00000E+00         0.00000E+00        -0.76106E+06
 
   -0.32109E+06         0.18643E+07         0.00000E+00
    0.18643E+07        -0.35038E+07         0.00000E+00
    0.00000E+00         0.00000E+00        -0.76497E+06
 
   -0.34843E+06         0.19176E+07         0.00000E+00
    0.19176E+07        -0.34958E+07         0.00000E+00
    0.00000E+00         0.00000E+00        -0.76885E+06
 
   -0.37593E+06         0.19706E+07         0.00000E+00
    0.19706E+07        -0.34876E+07         0.00000E+00
    0.00000E+00         0.00000E+00        -0.77270E+06
 
   -0.40360E+06         0.20234E+07         0.00000E+00
    0.20234E+07        -0.34790E+07         0.00000E+00
    0.00000E+00         0.00000E+00        -0.77652E+06
 
   -0.43145E+06         0.20760E+07         0.00000E+00
    0.20760E+07        -0.34701E+07         0.00000E+00
    0.00000E+00         0.00000E+00        -0.78031E+06
 
   -0.45949E+06         0.21284E+07         0.00000E+00
    0.21284E+07        -0.34609E+07         0.00000E+00
    0.00000E+00         0.00000E+00        -0.78408E+06
 
   -0.48773E+06         0.21805E+07         0.00000E+00
    0.21805E+07        -0.34514E+07         0.00000E+00
    0.00000E+00         0.00000E+00        -0.78782E+06
 
   -0.51617E+06         0.22324E+07         0.00000E+00
    0.22324E+07        -0.34415E+07         0.00000E+00
    0.00000E+00         0.00000E+00        -0.79153E+06
 
   -0.54482E+06         0.22840E+07         0.00000E+00
    0.22840E+07        -0.34313E+07         0.00000E+00
    0.00000E+00         0.00000E+00        -0.79522E+06
 
   -0.57369E+06         0.23355E+07         0.00000E+00
    0.23355E+07        -0.34207E+07         0.00000E+00
    0.00000E+00         0.00000E+00        -0.79889E+06
 
   -0.60279E+06         0.23866E+07         0.00000E+00
    0.23866E+07        -0.34099E+07         0.00000E+00
    0.00000E+00         0.00000E+00        -0.80253E+06
 
   -0.63212E+06         0.24376E+07         0.00000E+00
    0.24376E+07        -0.33986E+07         0.00000E+00
    0.00000E+00         0.00000E+00        -0.80615E+06
 
   -0.66170E+06         0.24883E+07         0.00000E+00
    0.24883E+07        -0.33870E+07         0.00000E+00
    0.00000E+00         0.00000E+00        -0.80974E+06
 
   -0.69154E+06         0.25388E+07         0.00000E+00
    0.25388E+07        -0.33750E+07         0.00000E+00
    0.00000E+00         0.00000E+00        -0.81332E+06
 
   -0.72164E+06         0.25891E+07         0.00000E+00
    0.25891E+07        -0.33627E+07         0.00000E+00
    0.00000E+00         0.00000E+00        -0.81687E+06
 
   -0.75201E+06         0.26391E+07         0.00000E+00
    0.26391E+07        -0.33500E+07         0.00000E+00
    0.00000E+00         0.00000E+00        -0.82040E+06
 
   -0.78266E+06         0.26889E+07         0.00000E+00
    0.26889E+07        -0.33369E+07         0.00000E+00
    0.00000E+00         0.00000E+00        -0.82391E+06
 
   -0.81360E+06         0.27384E+07         0.00000E+00
    0.27384E+07        -0.33234E+07         0.00000E+00
    0.00000E+00         0.00000E+00        -0.82740E+06
 
    0.48564E+06         0.31601E+05         0.00000E+00
    0.31601E+05        -0.39535E+07         0.00000E+00
    0.00000E+00         0.00000E+00        -0.69357E+06
 
    0.45865E+06         0.94090E+05         0.00000E+00
    0.94090E+05        -0.39533E+07         0.00000E+00
    0.00000E+00         0.00000E+00        -0.69893E+06
 
    0.43170E+06         0.15628E+06         0.00000E+00
    0.15628E+06        -0.39529E+07         0.00000E+00
    0.00000E+00         0.00000E+00        -0.70424E+06
 
    0.40479E+06         0.21818E+06         0.00000E+00
    0.21818E+06        -0.39523E+07         0.00000E+00
    0.00000E+00         0.00000E+00        -0.70951E+06
 
    0.37791E+06         0.27979E+06         0.00000E+00
    0.27979E+06        -0.39515E+07         0.00000E+00
    0.00000E+00         0.00000E+00        -0.71472E+06
 
    0.35106E+06         0.34111E+06         0.00000E+00
    0.34111E+06        -0.39505E+07         0.00000E+00
    0.00000E+00         0.00000E+00        -0.71989E+06
 
    0.32424E+06         0.40216E+06         0.00000E+00
    0.40216E+06        -0.39493E+07         0.00000E+00
    0.00000E+00         0.00000E+00        -0.72501E+06
 
    0.29743E+06         0.46293E+06         0.00000E+00
    0.46293E+06        -0.39479E+07         0.00000E+00
    0.00000E+00         0.00000E+00        -0.73009E+06
 
    0.27065E+06         0.52343E+06         0.00000E+00
    0.52343E+06        -0.39462E+07         0.00000E+00
    0.00000E+00         0.00000E+00        -0.73512E+06
 
    0.24387E+06         0.58367E+06         0.00000E+00
    0.58367E+06        -0.39444E+07         0.00000E+00
    0.00000E+00         0.00000E+00        -0.74011E+06
 
    0.21710E+06         0.64365E+06         0.00000E+00
    0.64365E+06        -0.39423E+07         0.00000E+00
    0.00000E+00         0.00000E+00        -0.74505E+06
 
    0.19032E+06         0.70337E+06         0.00000E+00
    0.70337E+06        -0.39400E+07         0.00000E+00
    0.00000E+00         0.00000E+00        -0.74994E+06
 
    0.16355E+06         0.76283E+06         0.00000E+00
    0.76283E+06        -0.39375E+07         0.00000E+00
    0.00000E+00         0.00000E+00        -0.75479E+06
 
    0.13676E+06         0.82205E+06         0.00000E+00
    0.82205E+06        -0.39348E+07         0.00000E+00
    0.00000E+00         0.00000E+00        -0.75960E+06
 
    0.10995E+06         0.88102E+06         0.00000E+00
    0.88102E+06        -0.39318E+07         0.00000E+00
    0.00000E+00         0.00000E+00        -0.76437E+06
 
    0.83123E+05         0.93975E+06         0.00000E+00
    0.93975E+06        -0.39286E+07         0.00000E+00
    0.00000E+00         0.00000E+00        -0.76909E+06
 
    0.56265E+05         0.99824E+06         0.00000E+00
    0.99824E+06        -0.39251E+07         0.00000E+00
    0.00000E+00         0.00000E+00        -0.77377E+06
 
    0.29373E+05         0.10565E+07         0.00000E+00
    0.10565E+07        -0.39214E+07         0.00000E+00
    0.00000E+00         0.00000E+00        -0.77841E+06
 
    0.24393E+04         0.11145E+07         0.00000E+00
    0.11145E+07        -0.39175E+07         0.00000E+00
    0.00000E+00         0.00000E+00        -0.78301E+06
 
   -0.24542E+05         0.11723E+07         0.00000E+00
    0.11723E+07        -0.39133E+07         0.00000E+00
    0.00000E+00         0.00000E+00        -0.78757E+06
 
   -0.51579E+05         0.12299E+07         0.00000E+00
    0.12299E+07        -0.39089E+07         0.00000E+00
    0.00000E+00         0.00000E+00        -0.79209E+06
 
   -0.78676E+05         0.12872E+07         0.00000E+00
    0.12872E+07        -0.39042E+07         0.00000E+00
    0.00000E+00         0.00000E+00        -0.79657E+06
 
   -0.10584E+06         0.13443E+07         0.00000E+00
    0.13443E+07        -0.38992E+07         0.00000E+00
    0.00000E+00         0.00000E+00        -0.80101E+06
 
   -0.13308E+06         0.14012E+07         0.00000E+00
    0.14012E+07        -0.38940E+07         0.00000E+00
    0.00000E+00         0.00000E+00        -0.80541E+06
 
   -0.16041E+06         0.14579E+07         0.00000E+00
    0.14579E+07        -0.38885E+07         0.00000E+00
    0.00000E+00         0.00000E+00        -0.80978E+06
 
   -0.18782E+06         0.15144E+07         0.00000E+00
    0.15144E+07        -0.38827E+07         0.00000E+00
    0.00000E+00         0.00000E+00        -0.81410E+06
 
   -0.21533E+06         0.15707E+07         0.00000E+00
    0.15707E+07        -0.38766E+07         0.00000E+00
    0.00000E+00         0.00000E+00        -0.81839E+06
 
   -0.24295E+06         0.16267E+07         0.00000E+00
    0.16267E+07        -0.38703E+07         0.00000E+00
    0.00000E+00         0.00000E+00        -0.82265E+06
 
   -0.27068E+06         0.16826E+07         0.00000E+00
    0.16826E+07        -0.38637E+07         0.00000E+00
    0.00000E+00         0.00000E+00        -0.82687E+06
 
   -0.29853E+06         0.17382E+07         0.00000E+00
    0.17382E+07        -0.38567E+07         0.00000E+00
    0.00000E+00         0.00000E+00        -0.83105E+06
 
   -0.32651E+06         0.17936E+07         0.00000E+00
    0.17936E+07        -0.38495E+07         0.00000E+00
    0.00000E+00         0.00000E+00        -0.83520E+06
 
   -0.35462E+06         0.18488E+07         0.00000E+00
    0.18488E+07        -0.38420E+07         0.00000E+00
    0.00000E+00         0.00000E+00        -0.83932E+06
 
   -0.38289E+06         0.19039E+07         0.00000E+00
    0.19039E+07        -0.38341E+07         0.00000E+00
    0.00000E+00         0.00000E+00        -0.84340E+06
 
   -0.41130E+06         0.19587E+07         0.00000E+00
    0.19587E+07        -0.38260E+07         0.00000E+00
    0.00000E+00         0.00000E+00        -0.84746E+06
 
   -0.43988E+06         0.20133E+07         0.00000E+00
    0.20133E+07        -0.38175E+07         0.00000E+00
    0.00000E+00         0.00000E+00        -0.85148E+06
 
   -0.46862E+06         0.20677E+07         0.00000E+00
    0.20677E+07        -0.38087E+07         0.00000E+00
    0.00000E+00         0.00000E+00        -0.85546E+06
 
   -0.49755E+06         0.21219E+07         0.00000E+00
    0.21219E+07        -0.37996E+07         0.00000E+00
    0.00000E+00         0.00000E+00        -0.85942E+06
 
   -0.52667E+06         0.21759E+07         0.00000E+00
    0.21759E+07        -0.37901E+07         0.00000E+00
    0.00000E+00         0.00000E+00        -0.86335E+06
 
   -0.55598E+06         0.22297E+07         0.00000E+00
    0.22297E+07        -0.37803E+07         0.00000E+00
    0.00000E+00         0.00000E+00        -0.86725E+06
 
   -0.58550E+06         0.22833E+07         0.00000E+00
    0.22833E+07        -0.37701E+07         0.00000E+00
    0.00000E+00         0.00000E+00        -0.87112E+06
 
   -0.61523E+06         0.23367E+07         0.00000E+00
    0.23367E+07        -0.37596E+07         0.00000E+00
    0.00000E+00         0.00000E+00        -0.87497E+06
 
   -0.64519E+06         0.23899E+07         0.00000E+00
    0.23899E+07        -0.37487E+07         0.00000E+00
    0.00000E+00         0.00000E+00        -0.87878E+06
 
   -0.67539E+06         0.24429E+07         0.00000E+00
    0.24429E+07        -0.37375E+07         0.00000E+00
    0.00000E+00         0.00000E+00        -0.88257E+06
 
   -0.70582E+06         0.24957E+07         0.00000E+00
    0.24957E+07        -0.37259E+07         0.00000E+00
    0.00000E+00         0.00000E+00        -0.88634E+06
 
   -0.73651E+06         0.25483E+07         0.00000E+00
    0.25483E+07        -0.37139E+07         0.00000E+00
    0.00000E+00         0.00000E+00        -0.89008E+06
 
   -0.76747E+06         0.26007E+07         0.00000E+00
    0.26007E+07        -0.37015E+07         0.00000E+00
    0.00000E+00         0.00000E+00        -0.89379E+06
 
   -0.79869E+06         0.26529E+07         0.00000E+00
    0.26529E+07        -0.36887E+07         0.00000E+00
    0.00000E+00         0.00000E+00        -0.89748E+06
 
   -0.83020E+06         0.27048E+07         0.00000E+00
    0.27048E+07        -0.36756E+07         0.00000E+00
    0.00000E+00         0.00000E+00        -0.90115E+06
 
   -0.86200E+06         0.27566E+07         0.00000E+00
    0.27566E+07        -0.36620E+07         0.00000E+00
    0.00000E+00         0.00000E+00        -0.90480E+06
 
   -0.89410E+06         0.28081E+07         0.00000E+00
    0.28081E+07        -0.36480E+07         0.00000E+00
    0.00000E+00         0.00000E+00        -0.90842E+06
 
    0.45413E+06         0.32084E+05         0.00000E+00
    0.32084E+05        -0.43007E+07         0.00000E+00
    0.00000E+00         0.00000E+00        -0.76931E+06
 
    0.42566E+06         0.95561E+05         0.00000E+00
    0.95561E+05        -0.43005E+07         0.00000E+00
    0.00000E+00         0.00000E+00        -0.77497E+06
 
    0.39726E+06         0.15875E+06         0.00000E+00
    0.15875E+06        -0.43001E+07         0.00000E+00
    0.00000E+00         0.00000E+00        -0.78057E+06
 
    0.36892E+06         0.22166E+06         0.00000E+00
    0.22166E+06        -0.42995E+07         0.00000E+00
    0.00000E+00         0.00000E+00        -0.78612E+06
 
    0.34065E+06         0.28429E+06         0.00000E+00
    0.28429E+06        -0.42987E+07         0.00000E+00
    0.00000E+00         0.00000E+00        -0.79161E+06
 
    0.31243E+06         0.34665E+06         0.00000E+00
    0.34665E+06        -0.42977E+07         0.00000E+00
    0.00000E+00         0.00000E+00        -0.79706E+06
 
    0.28425E+06         0.40875E+06         0.00000E+00
    0.40875E+06        -0.42965E+07         0.00000E+00
    0.00000E+00         0.00000E+00        -0.80245E+06
 
    0.25612E+06         0.47058E+06         0.00000E+00
    0.47058E+06        -0.42951E+07         0.00000E+00
    0.00000E+00         0.00000E+00        -0.80779E+06
 
    0.22803E+06         0.53216E+06         0.00000E+00
    0.53216E+06        -0.42934E+07         0.00000E+00
    0.00000E+00         0.00000E+00        -0.81308E+06
 
    0.19998E+06         0.59349E+06         0.00000E+00
    0.59349E+06        -0.42916E+07         0.00000E+00
    0.00000E+00         0.00000E+00        -0.81832E+06
 
    0.17195E+06         0.65457E+06         0.00000E+00
    0.65457E+06        -0.42895E+07         0.00000E+00
    0.00000E+00         0.00000E+00        -0.82351E+06
 
    0.14394E+06         0.71541E+06         0.00000E+00
    0.71541E+06        -0.42872E+07         0.00000E+00
    0.00000E+00         0.00000E+00        -0.82866E+06
 
    0.11595E+06         0.77602E+06         0.00000E+00
    0.77602E+06        -0.42847E+07         0.00000E+00
    0.00000E+00         0.00000E+00        -0.83375E+06
 
    0.87965E+05         0.83639E+06         0.00000E+00
    0.83639E+06        -0.42820E+07         0.00000E+00
    0.00000E+00         0.00000E+00        -0.83880E+06
 
    0.59985E+05         0.89654E+06         0.00000E+00
    0.89654E+06        -0.42790E+07         0.00000E+00
    0.00000E+00         0.00000E+00        -0.84380E+06
 
    0.32001E+05         0.95646E+06         0.00000E+00
    0.95646E+06        -0.42757E+07         0.00000E+00
    0.00000E+00         0.00000E+00        -0.84875E+06
 
    0.40064E+04         0.10162E+07         0.00000E+00
    0.10162E+07        -0.42723E+07         0.00000E+00
    0.00000E+00         0.00000E+00        -0.85365E+06
 
   -0.24006E+05         0.10757E+07         0.00000E+00
    0.10757E+07        -0.42686E+07         0.00000E+00
    0.00000E+00         0.00000E+00        -0.85851E+06
 
   -0.52042E+05         0.11349E+07         0.00000E+00
    0.11349E+07        -0.42646E+07         0.00000E+00
    0.00000E+00         0.00000E+00        -0.86333E+06
 
   -0.80111E+05         0.11940E+07         0.00000E+00
    0.11940E+07        -0.42604E+07         0.00000E+00
    0.00000E+00         0.00000E+00        -0.86810E+06
 
   -0.10822E+06         0.12529E+07         0.00000E+00
    0.12529E+07        -0.42559E+07         0.00000E+00
    0.00000E+00         0.00000E+00        -0.87282E+06
 
   -0.13637E+06         0.13115E+07         0.00000E+00
    0.13115E+07        -0.42511E+07         0.00000E+00
    0.00000E+00         0.00000E+00        -0.87750E+06
 
   -0.16458E+06         0.13700E+07         0.00000E+00
    0.13700E+07        -0.42461E+07         0.00000E+00
    0.00000E+00         0.00000E+00        -0.88214E+06
 
   -0.19285E+06         0.14282E+07         0.00000E+00
    0.14282E+07        -0.42408E+07         0.00000E+00
    0.00000E+00         0.00000E+00        -0.88674E+06
 
   -0.22119E+06         0.14863E+07         0.00000E+00
    0.14863E+07        -0.42353E+07         0.00000E+00
    0.00000E+00         0.00000E+00        -0.89129E+06
 
   -0.24961E+06         0.15442E+07         0.00000E+00
    0.15442E+07        -0.42294E+07         0.00000E+00
    0.00000E+00         0.00000E+00        -0.89581E+06
 
   -0.27812E+06         0.16019E+07         0.00000E+00
    0.16019E+07        -0.42233E+07         0.00000E+00
    0.00000E+00         0.00000E+00        -0.90028E+06
 
   -0.30672E+06         0.16594E+07         0.00000E+00
    0.16594E+07        -0.42169E+07         0.00000E+00
    0.00000E+00         0.00000E+00        -0.90472E+06
 
   -0.33543E+06         0.17167E+07         0.00000E+00
    0.17167E+07        -0.42101E+07         0.00000E+00
    0.00000E+00         0.00000E+00        -0.90911E+06
 
   -0.36425E+06         0.17739E+07         0.00000E+00
    0.17739E+07        -0.42031E+07         0.00000E+00
    0.00000E+00         0.00000E+00        -0.91347E+06
 
   -0.39319E+06         0.18308E+07         0.00000E+00
    0.18308E+07        -0.41957E+07         0.00000E+00
    0.00000E+00         0.00000E+00        -0.91779E+06
 
   -0.42226E+06         0.18876E+07         0.00000E+00
    0.18876E+07        -0.41881E+07         0.00000E+00
    0.00000E+00         0.00000E+00        -0.92207E+06
 
   -0.45147E+06         0.19443E+07         0.00000E+00
    0.19443E+07        -0.41801E+07         0.00000E+00
    0.00000E+00         0.00000E+00        -0.92631E+06
 
   -0.48082E+06         0.20007E+07         0.00000E+00
    0.20007E+07        -0.41718E+07         0.00000E+00
    0.00000E+00         0.00000E+00        -0.93052E+06
 
   -0.51034E+06         0.20570E+07         0.00000E+00
    0.20570E+07        -0.41632E+07         0.00000E+00
    0.00000E+00         0.00000E+00        -0.93470E+06
 
   -0.54003E+06         0.21130E+07         0.00000E+00
    0.21130E+07        -0.41542E+07         0.00000E+00
    0.00000E+00         0.00000E+00        -0.93884E+06
 
   -0.56989E+06         0.21690E+07         0.00000E+00
    0.21690E+07        -0.41448E+07         0.00000E+00
    0.00000E+00         0.00000E+00        -0.94295E+06
 
   -0.59994E+06         0.22247E+07         0.00000E+00
    0.22247E+07        -0.41352E+07         0.00000E+00
    0.00000E+00         0.00000E+00        -0.94702E+06
 
   -0.63019E+06         0.22803E+07         0.00000E+00
    0.22803E+07        -0.41251E+07         0.00000E+00
    0.00000E+00         0.00000E+00        -0.95106E+06
 
   -0.66064E+06         0.23357E+07         0.00000E+00
    0.23357E+07        -0.41147E+07         0.00000E+00
    0.00000E+00         0.00000E+00        -0.95507E+06
 
   -0.69131E+06         0.23909E+07         0.00000E+00
    0.23909E+07        -0.41040E+07         0.00000E+00
    0.00000E+00         0.00000E+00        -0.95905E+06
 
   -0.72221E+06         0.24460E+07         0.00000E+00
    0.24460E+07        -0.40928E+07         0.00000E+00
    0.00000E+00         0.00000E+00        -0.96301E+06
 
   -0.75335E+06         0.25009E+07         0.00000E+00
    0.25009E+07        -0.40813E+07         0.00000E+00
    0.00000E+00         0.00000E+00        -0.96693E+06
 
   -0.78473E+06         0.25556E+07         0.00000E+00
    0.25556E+07        -0.40694E+07         0.00000E+00
    0.00000E+00         0.00000E+00        -0.97082E+06
 
   -0.81638E+06         0.26101E+07         0.00000E+00
    0.26101E+07        -0.40571E+07         0.00000E+00
    0.00000E+00         0.00000E+00        -0.97469E+06
 
   -0.84829E+06         0.26645E+07         0.00000E+00
    0.26645E+07        -0.40443E+07         0.00000E+00
    0.00000E+00         0.00000E+00        -0.97852E+06
 
   -0.88048E+06         0.27187E+07         0.00000E+00
    0.27187E+07        -0.40312E+07         0.00000E+00
    0.00000E+00         0.00000E+00        -0.98234E+06
 
   -0.91297E+06         0.27727E+07         0.00000E+00
    0.27727E+07        -0.40177E+07         0.00000E+00
    0.00000E+00         0.00000E+00        -0.98612E+06
 
   -0.94576E+06         0.28265E+07         0.00000E+00
    0.28265E+07        -0.40037E+07         0.00000E+00
    0.00000E+00         0.00000E+00        -0.98989E+06
 
   -0.97886E+06         0.28802E+07         0.00000E+00
    0.28802E+07        -0.39893E+07         0.00000E+00
    0.00000E+00         0.00000E+00        -0.99363E+06
 
    0.41201E+06         0.32561E+05         0.00000E+00
    0.32561E+05        -0.46634E+07         0.00000E+00
    0.00000E+00         0.00000E+00        -0.85027E+06
 
    0.38212E+06         0.97016E+05         0.00000E+00
    0.97016E+05        -0.46632E+07         0.00000E+00
    0.00000E+00         0.00000E+00        -0.85621E+06
 
    0.35233E+06         0.16120E+06         0.00000E+00
    0.16120E+06        -0.46628E+07         0.00000E+00
    0.00000E+00         0.00000E+00        -0.86209E+06
 
    0.32263E+06         0.22511E+06         0.00000E+00
    0.22511E+06        -0.46622E+07         0.00000E+00
    0.00000E+00         0.00000E+00        -0.86791E+06
 
    0.29302E+06         0.28876E+06         0.00000E+00
    0.28876E+06        -0.46614E+07         0.00000E+00
    0.00000E+00         0.00000E+00        -0.87368E+06
 
    0.26349E+06         0.35215E+06         0.00000E+00
    0.35215E+06        -0.46604E+07         0.00000E+00
    0.00000E+00         0.00000E+00        -0.87939E+06
 
    0.23404E+06         0.41529E+06         0.00000E+00
    0.41529E+06        -0.46592E+07         0.00000E+00
    0.00000E+00         0.00000E+00        -0.88504E+06
 
    0.20466E+06         0.47818E+06         0.00000E+00
    0.47818E+06        -0.46578E+07         0.00000E+00
    0.00000E+00         0.00000E+00        -0.89063E+06
 
    0.17535E+06         0.54084E+06         0.00000E+00
    0.54084E+06        -0.46562E+07         0.00000E+00
    0.00000E+00         0.00000E+00        -0.89617E+06
 
    0.14610E+06         0.60326E+06         0.00000E+00
    0.60326E+06        -0.46544E+07         0.00000E+00
    0.00000E+00         0.00000E+00        -0.90166E+06
 
    0.11689E+06         0.66546E+06         0.00000E+00
    0.66546E+06        -0.46523E+07         0.00000E+00
    0.00000E+00         0.00000E+00        -0.90709E+06
 
    0.87738E+05         0.72743E+06         0.00000E+00
    0.72743E+06        -0.46500E+07         0.00000E+00
    0.00000E+00         0.00000E+00        -0.91246E+06
 
    0.58621E+05         0.78918E+06         0.00000E+00
    0.78918E+06        -0.46475E+07         0.00000E+00
    0.00000E+00         0.00000E+00        -0.91778E+06
 
    0.29538E+05         0.85072E+06         0.00000E+00
    0.85072E+06        -0.46448E+07         0.00000E+00
    0.00000E+00         0.00000E+00        -0.92305E+06
 
    0.47936E+03         0.91206E+06         0.00000E+00
    0.91206E+06        -0.46418E+07         0.00000E+00
    0.00000E+00         0.00000E+00        -0.92827E+06
 
   -0.28561E+05         0.97319E+06         0.00000E+00
    0.97319E+06        -0.46386E+07         0.00000E+00
    0.00000E+00         0.00000E+00        -0.93344E+06
 
   -0.57590E+05         0.10341E+07         0.00000E+00
    0.10341E+07        -0.46352E+07         0.00000E+00
    0.00000E+00         0.00000E+00        -0.93855E+06
 
   -0.86616E+05         0.10949E+07         0.00000E+00
    0.10949E+07        -0.46315E+07         0.00000E+00
    0.00000E+00         0.00000E+00        -0.94362E+06
 
   -0.11565E+06         0.11554E+07         0.00000E+00
    0.11554E+07        -0.46275E+07         0.00000E+00
    0.00000E+00         0.00000E+00        -0.94863E+06
 
   -0.14469E+06         0.12158E+07         0.00000E+00
    0.12158E+07        -0.46233E+07         0.00000E+00
    0.00000E+00         0.00000E+00        -0.95360E+06
 
   -0.17376E+06         0.12759E+07         0.00000E+00
    0.12759E+07        -0.46188E+07         0.00000E+00
    0.00000E+00         0.00000E+00        -0.95851E+06
 
   -0.20285E+06         0.13360E+07         0.00000E+00
    0.13360E+07        -0.46141E+07         0.00000E+00
    0.00000E+00         0.00000E+00        -0.96338E+06
 
   -0.23198E+06         0.13958E+07         0.00000E+00
    0.13958E+07        -0.46090E+07         0.00000E+00
    0.00000E+00         0.00000E+00        -0.96821E+06
 
   -0.26116E+06         0.14554E+07         0.00000E+00
    0.14554E+07        -0.46037E+07         0.00000E+00
    0.00000E+00         0.00000E+00        -0.97298E+06
 
   -0.29039E+06         0.15149E+07         0.00000E+00
    0.15149E+07        -0.45982E+07         0.00000E+00
    0.00000E+00         0.00000E+00        -0.97771E+06
 
   -0.31969E+06         0.15743E+07         0.00000E+00
    0.15743E+07        -0.45923E+07         0.00000E+00
    0.00000E+00         0.00000E+00        -0.98240E+06
 
   -0.34906E+06         0.16334E+07         0.00000E+00
    0.16334E+07        -0.45861E+07         0.00000E+00
    0.00000E+00         0.00000E+00        -0.98704E+06
 
   -0.37852E+06         0.16925E+07         0.00000E+00
    0.16925E+07        -0.45797E+07         0.00000E+00
    0.00000E+00         0.00000E+00        -0.99163E+06
 
   -0.40806E+06         0.17513E+07         0.00000E+00
    0.17513E+07        -0.45729E+07         0.00000E+00
    0.00000E+00         0.00000E+00        -0.99619E+06
 
   -0.43771E+06         0.18100E+07         0.00000E+00
    0.18100E+07        -0.45658E+07         0.00000E+00
    0.00000E+00         0.00000E+00        -0.10007E+07
 
   -0.46747E+06         0.18686E+07         0.00000E+00
    0.18686E+07        -0.45584E+07         0.00000E+00
    0.00000E+00         0.00000E+00        -0.10052E+07
 
   -0.49735E+06         0.19270E+07         0.00000E+00
    0.19270E+07        -0.45507E+07         0.00000E+00
    0.00000E+00         0.00000E+00        -0.10096E+07
 
   -0.52737E+06         0.19852E+07         0.00000E+00
    0.19852E+07        -0.45426E+07         0.00000E+00
    0.00000E+00         0.00000E+00        -0.10140E+07
 
   -0.55752E+06         0.20433E+07         0.00000E+00
    0.20433E+07        -0.45342E+07         0.00000E+00
    0.00000E+00         0.00000E+00        -0.10183E+07
 
   -0.58783E+06         0.21013E+07         0.00000E+00
    0.21013E+07        -0.45254E+07         0.00000E+00
    0.00000E+00         0.00000E+00        -0.10227E+07
 
   -0.61830E+06         0.21592E+07         0.00000E+00
    0.21592E+07        -0.45163E+07         0.00000E+00
    0.00000E+00         0.00000E+00        -0.10269E+07
 
   -0.64894E+06         0.22168E+07         0.00000E+00
    0.22168E+07        -0.45069E+07         0.00000E+00
    0.00000E+00         0.00000E+00        -0.10312E+07
 
   -0.67977E+06         0.22744E+07         0.00000E+00
    0.22744E+07        -0.44971E+07         0.00000E+00
    0.00000E+00         0.00000E+00        -0.10354E+07
 
   -0.71079E+06         0.23318E+07         0.00000E+00
    0.23318E+07        -0.44869E+07         0.00000E+00
    0.00000E+00         0.00000E+00        -0.10395E+07
 
   -0.74202E+06         0.23891E+07         0.00000E+00
    0.23891E+07        -0.44763E+07         0.00000E+00
    0.00000E+00         0.00000E+00        -0.10437E+07
 
   -0.77347E+06         0.24462E+07         0.00000E+00
    0.24462E+07        -0.44654E+07         0.00000E+00
    0.00000E+00         0.00000E+00        -0.10478E+07
 
   -0.80514E+06         0.25032E+07         0.00000E+00
    0.25032E+07        -0.44540E+07         0.00000E+00
    0.00000E+00         0.00000E+00        -0.10518E+07
 
   -0.83705E+06         0.25601E+07         0.00000E+00
    0.25601E+07        -0.44423E+07         0.00000E+00
    0.00000E+00         0.00000E+00        -0.10559E+07
 
   -0.86922E+06         0.26168E+07         0.00000E+00
    0.26168E+07        -0.44301E+07         0.00000E+00
    0.00000E+00         0.00000E+00        -0.10599E+07
 
   -0.90165E+06         0.26734E+07         0.00000E+00
    0.26734E+07        -0.44176E+07         0.00000E+00
    0.00000E+00         0.00000E+00        -0.10638E+07
 
   -0.93435E+06         0.27298E+07         0.00000E+00
    0.27298E+07        -0.44046E+07         0.00000E+00
    0.00000E+00         0.00000E+00        -0.10678E+07
 
   -0.96734E+06         0.27861E+07         0.00000E+00
    0.27861E+07        -0.43912E+07         0.00000E+00
    0.00000E+00         0.00000E+00        -0.10717E+07
 
   -0.10006E+07         0.28423E+07         0.00000E+00
    0.28423E+07        -0.43773E+07         0.00000E+00
    0.00000E+00         0.00000E+00        -0.10756E+07
 
   -0.10342E+07         0.28983E+07         0.00000E+00
    0.28983E+07        -0.43630E+07         0.00000E+00
    0.00000E+00         0.00000E+00        -0.10794E+07
 
   -0.10681E+07         0.29542E+07         0.00000E+00
    0.29542E+07        -0.43483E+07         0.00000E+00
    0.00000E+00         0.00000E+00        -0.10833E+07
 
    0.35841E+06         0.33025E+05         0.00000E+00
    0.33025E+05        -0.50423E+07         0.00000E+00
    0.00000E+00         0.00000E+00        -0.93678E+06
 
    0.32716E+06         0.98439E+05         0.00000E+00
    0.98439E+05        -0.50421E+07         0.00000E+00
    0.00000E+00         0.00000E+00        -0.94300E+06
 
    0.29604E+06         0.16359E+06         0.00000E+00
    0.16359E+06        -0.50418E+07         0.00000E+00
    0.00000E+00         0.00000E+00        -0.94915E+06
 
    0.26505E+06         0.22849E+06         0.00000E+00
    0.22849E+06        -0.50412E+07         0.00000E+00
    0.00000E+00         0.00000E+00        -0.95523E+06
 
    0.23418E+06         0.29314E+06         0.00000E+00
    0.29314E+06        -0.50404E+07         0.00000E+00
    0.00000E+00         0.00000E+00        -0.96125E+06
 
    0.20342E+06         0.35754E+06         0.00000E+00
    0.35754E+06        -0.50395E+07         0.00000E+00
    0.00000E+00         0.00000E+00        -0.96721E+06
 
    0.17277E+06         0.42172E+06         0.00000E+00
    0.42172E+06        -0.50383E+07         0.00000E+00
    0.00000E+00         0.00000E+00        -0.97311E+06
 
    0.14222E+06         0.48566E+06         0.00000E+00
    0.48566E+06        -0.50369E+07         0.00000E+00
    0.00000E+00         0.00000E+00        -0.97894E+06
 
    0.11177E+06         0.54938E+06         0.00000E+00
    0.54938E+06        -0.50354E+07         0.00000E+00
    0.00000E+00         0.00000E+00        -0.98472E+06
 
    0.81406E+05         0.61289E+06         0.00000E+00
    0.61289E+06        -0.50336E+07         0.00000E+00
    0.00000E+00         0.00000E+00        -0.99043E+06
 
    0.51124E+05         0.67619E+06         0.00000E+00
    0.67619E+06        -0.50316E+07         0.00000E+00
    0.00000E+00         0.00000E+00        -0.99609E+06
 
    0.20917E+05         0.73929E+06         0.00000E+00
    0.73929E+06        -0.50293E+07         0.00000E+00
    0.00000E+00         0.00000E+00        -0.10017E+07
 
   -0.92239E+04         0.80218E+06         0.00000E+00
    0.80218E+06        -0.50269E+07         0.00000E+00
    0.00000E+00         0.00000E+00        -0.10072E+07
 
   -0.39305E+05         0.86489E+06         0.00000E+00
    0.86489E+06        -0.50242E+07         0.00000E+00
    0.00000E+00         0.00000E+00        -0.10127E+07
 
   -0.69335E+05         0.92741E+06         0.00000E+00
    0.92741E+06        -0.50213E+07         0.00000E+00
    0.00000E+00         0.00000E+00        -0.10181E+07
 
   -0.99321E+05         0.98975E+06         0.00000E+00
    0.98975E+06        -0.50181E+07         0.00000E+00
    0.00000E+00         0.00000E+00        -0.10235E+07
 
   -0.12927E+06         0.10519E+07         0.00000E+00
    0.10519E+07        -0.50147E+07         0.00000E+00
    0.00000E+00         0.00000E+00        -0.10288E+07
 
   -0.15920E+06         0.11139E+07         0.00000E+00
    0.11139E+07        -0.50110E+07         0.00000E+00
    0.00000E+00         0.00000E+00        -0.10340E+07
 
   -0.18910E+06         0.11757E+07         0.00000E+00
    0.11757E+07        -0.50071E+07         0.00000E+00
    0.00000E+00         0.00000E+00        -0.10392E+07
 
   -0.21900E+06         0.12374E+07         0.00000E+00
    0.12374E+07        -0.50029E+07         0.00000E+00
    0.00000E+00         0.00000E+00        -0.10444E+07
 
   -0.24890E+06         0.12989E+07         0.00000E+00
    0.12989E+07        -0.49985E+07         0.00000E+00
    0.00000E+00         0.00000E+00        -0.10495E+07
 
   -0.27880E+06         0.13603E+07         0.00000E+00
    0.13603E+07        -0.49938E+07         0.00000E+00
    0.00000E+00         0.00000E+00        -0.10545E+07
 
   -0.30872E+06         0.14215E+07         0.00000E+00
    0.14215E+07        -0.49888E+07         0.00000E+00
    0.00000E+00         0.00000E+00        -0.10595E+07
 
   -0.33867E+06         0.14826E+07         0.00000E+00
    0.14826E+07        -0.49836E+07         0.00000E+00
    0.00000E+00         0.00000E+00        -0.10644E+07
 
   -0.36866E+06         0.15435E+07         0.00000E+00
    0.15435E+07        -0.49780E+07         0.00000E+00
    0.00000E+00         0.00000E+00        -0.10693E+07
 
   -0.39870E+06         0.16043E+07         0.00000E+00
    0.16043E+07        -0.49722E+07         0.00000E+00
    0.00000E+00         0.00000E+00        -0.10742E+07
 
   -0.42879E+06         0.16650E+07         0.00000E+00
    0.16650E+07        -0.49660E+07         0.00000E+00
    0.00000E+00         0.00000E+00        -0.10790E+07
 
   -0.45895E+06         0.17256E+07         0.00000E+00
    0.17256E+07        -0.49596E+07         0.00000E+00
    0.00000E+00         0.00000E+00        -0.10837E+07
 
   -0.48919E+06         0.17860E+07         0.00000E+00
    0.17860E+07        -0.49528E+07         0.00000E+00
    0.00000E+00         0.00000E+00        -0.10884E+07
 
   -0.51952E+06         0.18463E+07         0.00000E+00
    0.18463E+07        -0.49457E+07         0.00000E+00
    0.00000E+00         0.00000E+00        -0.10930E+07
 
   -0.54994E+06         0.19065E+07         0.00000E+00
    0.19065E+07        -0.49383E+07         0.00000E+00
    0.00000E+00         0.00000E+00        -0.10977E+07
 
   -0.58048E+06         0.19665E+07         0.00000E+00
    0.19665E+07        -0.49306E+07         0.00000E+00
    0.00000E+00         0.00000E+00        -0.11022E+07
 
   -0.61113E+06         0.20265E+07         0.00000E+00
    0.20265E+07        -0.49225E+07         0.00000E+00
    0.00000E+00         0.00000E+00        -0.11067E+07
 
   -0.64192E+06         0.20863E+07         0.00000E+00
    0.20863E+07        -0.49141E+07         0.00000E+00
    0.00000E+00         0.00000E+00        -0.11112E+07
 
   -0.67285E+06         0.21461E+07         0.00000E+00
    0.21461E+07        -0.49053E+07         0.00000E+00
    0.00000E+00         0.00000E+00        -0.11156E+07
 
   -0.70394E+06         0.22057E+07         0.00000E+00
    0.22057E+07        -0.48961E+07         0.00000E+00
    0.00000E+00         0.00000E+00        -0.11200E+07
 
   -0.73520E+06         0.22652E+07         0.00000E+00
    0.22652E+07        -0.48866E+07         0.00000E+00
    0.00000E+00         0.00000E+00        -0.11244E+07
 
   -0.76663E+06         0.23246E+07         0.00000E+00
    0.23246E+07        -0.48767E+07         0.00000E+00
    0.00000E+00         0.00000E+00        -0.11287E+07
 
   -0.79825E+06         0.23840E+07         0.00000E+00
    0.23840E+07        -0.48665E+07         0.00000E+00
    0.00000E+00         0.00000E+00        -0.11329E+07
 
   -0.83008E+06         0.24432E+07         0.00000E+00
    0.24432E+07        -0.48558E+07         0.00000E+00
    0.00000E+00         0.00000E+00        -0.11372E+07
 
   -0.86212E+06         0.25023E+07         0.00000E+00
    0.25023E+07        -0.48448E+07         0.00000E+00
    0.00000E+00         0.00000E+00        -0.11414E+07
 
   -0.89439E+06         0.25613E+07         0.00000E+00
    0.25613E+07        -0.48333E+07         0.00000E+00
    0.00000E+00         0.00000E+00        -0.11455E+07
 
   -0.92689E+06         0.26202E+07         0.00000E+00
    0.26202E+07        -0.48214E+07         0.00000E+00
    0.00000E+00         0.00000E+00        -0.11497E+07
 
   -0.95965E+06         0.26790E+07         0.00000E+00
    0.26790E+07        -0.48091E+07         0.00000E+00
    0.00000E+00         0.00000E+00        -0.11538E+07
 
   -0.99268E+06         0.27378E+07         0.00000E+00
    0.27378E+07        -0.47964E+07         0.00000E+00
    0.00000E+00         0.00000E+00        -0.11578E+07
 
   -0.10260E+07         0.27964E+07         0.00000E+00
    0.27964E+07        -0.47832E+07         0.00000E+00
    0.00000E+00         0.00000E+00        -0.11618E+07
 
   -0.10596E+07         0.28549E+07         0.00000E+00
    0.28549E+07        -0.47696E+07         0.00000E+00
    0.00000E+00         0.00000E+00        -0.11658E+07
 
   -0.10935E+07         0.29133E+07         0.00000E+00
    0.29133E+07        -0.47555E+07         0.00000E+00
    0.00000E+00         0.00000E+00        -0.11698E+07
 
   -0.11277E+07         0.29716E+07         0.00000E+00
    0.29716E+07        -0.47410E+07         0.00000E+00
    0.00000E+00         0.00000E+00        -0.11737E+07
 
   -0.11622E+07         0.30299E+07         0.00000E+00
    0.30299E+07        -0.47260E+07         0.00000E+00
    0.00000E+00         0.00000E+00        -0.11776E+07
 
    0.29241E+06         0.33471E+05         0.00000E+00
    0.33471E+05        -0.54384E+07         0.00000E+00
    0.00000E+00         0.00000E+00        -0.10292E+07
 
    0.25986E+06         0.99810E+05         0.00000E+00
    0.99810E+05        -0.54382E+07         0.00000E+00
    0.00000E+00         0.00000E+00        -0.10357E+07
 
    0.22749E+06         0.16590E+06         0.00000E+00
    0.16590E+06        -0.54378E+07         0.00000E+00
    0.00000E+00         0.00000E+00        -0.10421E+07
 
    0.19528E+06         0.23175E+06         0.00000E+00
    0.23175E+06        -0.54373E+07         0.00000E+00
    0.00000E+00         0.00000E+00        -0.10484E+07
 
    0.16322E+06         0.29737E+06         0.00000E+00
    0.29737E+06        -0.54366E+07         0.00000E+00
    0.00000E+00         0.00000E+00        -0.10547E+07
 
    0.13132E+06         0.36277E+06         0.00000E+00
    0.36277E+06        -0.54356E+07         0.00000E+00
    0.00000E+00         0.00000E+00        -0.10609E+07
 
    0.99559E+05         0.42795E+06         0.00000E+00
    0.42795E+06        -0.54345E+07         0.00000E+00
    0.00000E+00         0.00000E+00        -0.10670E+07
 
    0.67935E+05         0.49292E+06         0.00000E+00
    0.49292E+06        -0.54332E+07         0.00000E+00
    0.00000E+00         0.00000E+00        -0.10731E+07
 
    0.36440E+05         0.55769E+06         0.00000E+00
    0.55769E+06        -0.54317E+07         0.00000E+00
    0.00000E+00         0.00000E+00        -0.10790E+07
 
    0.50675E+04         0.62226E+06         0.00000E+00
    0.62226E+06        -0.54299E+07         0.00000E+00
    0.00000E+00         0.00000E+00        -0.10850E+07
 
   -0.26191E+05         0.68665E+06         0.00000E+00
    0.68665E+06        -0.54280E+07         0.00000E+00
    0.00000E+00         0.00000E+00        -0.10908E+07
 
   -0.57344E+05         0.75085E+06         0.00000E+00
    0.75085E+06        -0.54258E+07         0.00000E+00
    0.00000E+00         0.00000E+00        -0.10966E+07
 
   -0.88399E+05         0.81488E+06         0.00000E+00
    0.81488E+06        -0.54235E+07         0.00000E+00
    0.00000E+00         0.00000E+00        -0.11024E+07
 
   -0.11936E+06         0.87875E+06         0.00000E+00
    0.87875E+06        -0.54208E+07         0.00000E+00
    0.00000E+00         0.00000E+00        -0.11080E+07
 
   -0.15025E+06         0.94245E+06         0.00000E+00
    0.94245E+06        -0.54180E+07         0.00000E+00
    0.00000E+00         0.00000E+00        -0.11136E+07
 
   -0.18106E+06         0.10060E+07         0.00000E+00
    0.10060E+07        -0.54149E+07         0.00000E+00
    0.00000E+00         0.00000E+00        -0.11192E+07
 
   -0.21181E+06         0.10694E+07         0.00000E+00
    0.10694E+07        -0.54116E+07         0.00000E+00
    0.00000E+00         0.00000E+00        -0.11247E+07
 
   -0.24250E+06         0.11326E+07         0.00000E+00
    0.11326E+07        -0.54080E+07         0.00000E+00
    0.00000E+00         0.00000E+00        -0.11301E+07
 
   -0.27315E+06         0.11958E+07         0.00000E+00
    0.11958E+07        -0.54042E+07         0.00000E+00
    0.00000E+00         0.00000E+00        -0.11355E+07
 
   -0.30377E+06         0.12587E+07         0.00000E+00
    0.12587E+07        -0.54001E+07         0.00000E+00
    0.00000E+00         0.00000E+00        -0.11408E+07
 
   -0.33436E+06         0.13216E+07         0.00000E+00
    0.13216E+07        -0.53958E+07         0.00000E+00
    0.00000E+00         0.00000E+00        -0.11460E+07
 
   -0.36493E+06         0.13843E+07         0.00000E+00
    0.13843E+07        -0.53912E+07         0.00000E+00
    0.00000E+00         0.00000E+00        -0.11512E+07
 
   -0.39550E+06         0.14469E+07         0.00000E+00
    0.14469E+07        -0.53863E+07         0.00000E+00
    0.00000E+00         0.00000E+00        -0.11564E+07
 
   -0.42608E+06         0.15095E+07         0.00000E+00
    0.15095E+07        -0.53811E+07         0.00000E+00
    0.00000E+00         0.00000E+00        -0.11614E+07
 
   -0.45667E+06         0.15718E+07         0.00000E+00
    0.15718E+07        -0.53756E+07         0.00000E+00
    0.00000E+00         0.00000E+00        -0.11665E+07
 
   -0.48729E+06         0.16341E+07         0.00000E+00
    0.16341E+07        -0.53699E+07         0.00000E+00
    0.00000E+00         0.00000E+00        -0.11714E+07
 
   -0.51794E+06         0.16963E+07         0.00000E+00
    0.16963E+07        -0.53638E+07         0.00000E+00
    0.00000E+00         0.00000E+00        -0.11764E+07
 
   -0.54865E+06         0.17584E+07         0.00000E+00
    0.17584E+07        -0.53574E+07         0.00000E+00
    0.00000E+00         0.00000E+00        -0.11812E+07
 
   -0.57942E+06         0.18205E+07         0.00000E+00
    0.18205E+07        -0.53508E+07         0.00000E+00
    0.00000E+00         0.00000E+00        -0.11860E+07
 
   -0.61025E+06         0.18824E+07         0.00000E+00
    0.18824E+07        -0.53437E+07         0.00000E+00
    0.00000E+00         0.00000E+00        -0.11908E+07
 
   -0.64118E+06         0.19442E+07         0.00000E+00
    0.19442E+07        -0.53364E+07         0.00000E+00
    0.00000E+00         0.00000E+00        -0.11955E+07
 
   -0.67219E+06         0.20060E+07         0.00000E+00
    0.20060E+07        -0.53287E+07         0.00000E+00
    0.00000E+00         0.00000E+00        -0.12002E+07
 
   -0.70332E+06         0.20677E+07         0.00000E+00
    0.20677E+07        -0.53207E+07         0.00000E+00
    0.00000E+00         0.00000E+00        -0.12048E+07
 
   -0.73456E+06         0.21293E+07         0.00000E+00
    0.21293E+07        -0.53123E+07         0.00000E+00
    0.00000E+00         0.00000E+00        -0.12094E+07
 
   -0.76594E+06         0.21908E+07         0.00000E+00
    0.21908E+07        -0.53036E+07         0.00000E+00
    0.00000E+00         0.00000E+00        -0.12139E+07
 
   -0.79746E+06         0.22523E+07         0.00000E+00
    0.22523E+07        -0.52944E+07         0.00000E+00
    0.00000E+00         0.00000E+00        -0.12184E+07
 
   -0.82914E+06         0.23137E+07         0.00000E+00
    0.23137E+07        -0.52850E+07         0.00000E+00
    0.00000E+00         0.00000E+00        -0.12228E+07
 
   -0.86099E+06         0.23751E+07         0.00000E+00
    0.23751E+07        -0.52751E+07         0.00000E+00
    0.00000E+00         0.00000E+00        -0.12272E+07
 
   -0.89302E+06         0.24364E+07         0.00000E+00
    0.24364E+07        -0.52648E+07         0.00000E+00
    0.00000E+00         0.00000E+00        -0.12316E+07
 
   -0.92525E+06         0.24976E+07         0.00000E+00
    0.24976E+07        -0.52541E+07         0.00000E+00
    0.00000E+00         0.00000E+00        -0.12359E+07
 
   -0.95769E+06         0.25587E+07         0.00000E+00
    0.25587E+07        -0.52431E+07         0.00000E+00
    0.00000E+00         0.00000E+00        -0.12402E+07
 
   -0.99036E+06         0.26198E+07         0.00000E+00
    0.26198E+07        -0.52316E+07         0.00000E+00
    0.00000E+00         0.00000E+00        -0.12444E+07
 
   -0.10233E+07         0.26809E+07         0.00000E+00
    0.26809E+07        -0.52196E+07         0.00000E+00
    0.00000E+00         0.00000E+00        -0.12486E+07
 
   -0.10564E+07         0.27419E+07         0.00000E+00
    0.27419E+07        -0.52073E+07         0.00000E+00
    0.00000E+00         0.00000E+00        -0.12527E+07
 
   -0.10898E+07         0.28028E+07         0.00000E+00
    0.28028E+07        -0.51945E+07         0.00000E+00
    0.00000E+00         0.00000E+00        -0.12569E+07
 
   -0.11235E+07         0.28637E+07         0.00000E+00
    0.28637E+07        -0.51812E+07         0.00000E+00
    0.00000E+00         0.00000E+00        -0.12609E+07
 
   -0.11575E+07         0.29245E+07         0.00000E+00
    0.29245E+07        -0.51675E+07         0.00000E+00
    0.00000E+00         0.00000E+00        -0.12650E+07
 
   -0.11918E+07         0.29853E+07         0.00000E+00
    0.29853E+07        -0.51533E+07         0.00000E+00
    0.00000E+00         0.00000E+00        -0.12690E+07
 
   -0.12264E+07         0.30460E+07         0.00000E+00
    0.30460E+07        -0.51386E+07         0.00000E+00
    0.00000E+00         0.00000E+00        -0.12730E+07
 
   -0.12614E+07         0.31066E+07         0.00000E+00
    0.31066E+07        -0.51234E+07         0.00000E+00
    0.00000E+00         0.00000E+00        -0.12770E+07
 
    0.21306E+06         0.33894E+05         0.00000E+00
    0.33894E+05        -0.58523E+07         0.00000E+00
    0.00000E+00         0.00000E+00        -0.11278E+07
 
    0.17930E+06         0.10111E+06         0.00000E+00
    0.10111E+06        -0.58521E+07         0.00000E+00
    0.00000E+00         0.00000E+00        -0.11346E+07
 
    0.14575E+06         0.16810E+06         0.00000E+00
    0.16810E+06        -0.58518E+07         0.00000E+00
    0.00000E+00         0.00000E+00        -0.11412E+07
 
    0.11241E+06         0.23486E+06         0.00000E+00
    0.23486E+06        -0.58512E+07         0.00000E+00
    0.00000E+00         0.00000E+00        -0.11478E+07
 
    0.79257E+05         0.30142E+06         0.00000E+00
    0.30142E+06        -0.58505E+07         0.00000E+00
    0.00000E+00         0.00000E+00        -0.11543E+07
 
    0.46299E+05         0.36776E+06         0.00000E+00
    0.36776E+06        -0.58497E+07         0.00000E+00
    0.00000E+00         0.00000E+00        -0.11607E+07
 
    0.13524E+05         0.43391E+06         0.00000E+00
    0.43391E+06        -0.58486E+07         0.00000E+00
    0.00000E+00         0.00000E+00        -0.11670E+07
 
   -0.19076E+05         0.49987E+06         0.00000E+00
    0.49987E+06        -0.58474E+07         0.00000E+00
    0.00000E+00         0.00000E+00        -0.11733E+07
 
   -0.51509E+05         0.56565E+06         0.00000E+00
    0.56565E+06        -0.58459E+07         0.00000E+00
    0.00000E+00         0.00000E+00        -0.11795E+07
 
   -0.83783E+05         0.63126E+06         0.00000E+00
    0.63126E+06        -0.58443E+07         0.00000E+00
    0.00000E+00         0.00000E+00        -0.11856E+07
 
   -0.11591E+06         0.69670E+06         0.00000E+00
    0.69670E+06        -0.58424E+07         0.00000E+00
    0.00000E+00         0.00000E+00        -0.11917E+07
 
   -0.14789E+06         0.76199E+06         0.00000E+00
    0.76199E+06        -0.58403E+07         0.00000E+00
    0.00000E+00         0.00000E+00        -0.11976E+07
 
   -0.17974E+06         0.82712E+06         0.00000E+00
    0.82712E+06        -0.58381E+07         0.00000E+00
    0.00000E+00         0.00000E+00        -0.12036E+07
 
   -0.21146E+06         0.89212E+06         0.00000E+00
    0.89212E+06        -0.58356E+07         0.00000E+00
    0.00000E+00         0.00000E+00        -0.12094E+07
 
   -0.24307E+06         0.95697E+06         0.00000E+00
    0.95697E+06        -0.58328E+07         0.00000E+00
    0.00000E+00         0.00000E+00        -0.12152E+07
 
   -0.27458E+06         0.10217E+07         0.00000E+00
    0.10217E+07        -0.58299E+07         0.00000E+00
    0.00000E+00         0.00000E+00        -0.12209E+07
 
   -0.30599E+06         0.10863E+07         0.00000E+00
    0.10863E+07        -0.58267E+07         0.00000E+00
    0.00000E+00         0.00000E+00        -0.12265E+07
 
   -0.33731E+06         0.11508E+07         0.00000E+00
    0.11508E+07        -0.58233E+07         0.00000E+00
    0.00000E+00         0.00000E+00        -0.12321E+07
 
   -0.36856E+06         0.12152E+07         0.00000E+00
    0.12152E+07        -0.58196E+07         0.00000E+00
    0.00000E+00         0.00000E+00        -0.12376E+07
 
   -0.39975E+06         0.12795E+07         0.00000E+00
    0.12795E+07        -0.58156E+07         0.00000E+00
    0.00000E+00         0.00000E+00        -0.12431E+07
 
   -0.43088E+06         0.13437E+07         0.00000E+00
    0.13437E+07        -0.58114E+07         0.00000E+00
    0.00000E+00         0.00000E+00        -0.12485E+07
 
   -0.46197E+06         0.14078E+07         0.00000E+00
    0.14078E+07        -0.58070E+07         0.00000E+00
    0.00000E+00         0.00000E+00        -0.12538E+07
 
   -0.49303E+06         0.14718E+07         0.00000E+00
    0.14718E+07        -0.58022E+07         0.00000E+00
    0.00000E+00         0.00000E+00        -0.12590E+07
 
   -0.52407E+06         0.15357E+07         0.00000E+00
    0.15357E+07        -0.57972E+07         0.00000E+00
    0.00000E+00         0.00000E+00        -0.12643E+07
 
   -0.55510E+06         0.15996E+07         0.00000E+00
    0.15996E+07        -0.57919E+07         0.00000E+00
    0.00000E+00         0.00000E+00        -0.12694E+07
 
   -0.58613E+06         0.16634E+07         0.00000E+00
    0.16634E+07        -0.57863E+07         0.00000E+00
    0.00000E+00         0.00000E+00        -0.12745E+07
 
   -0.61718E+06         0.17271E+07         0.00000E+00
    0.17271E+07        -0.57803E+07         0.00000E+00
    0.00000E+00         0.00000E+00        -0.12795E+07
 
   -0.64825E+06         0.17908E+07         0.00000E+00
    0.17908E+07        -0.57741E+07         0.00000E+00
    0.00000E+00         0.00000E+00        -0.12845E+07
 
   -0.67937E+06         0.18544E+07         0.00000E+00
    0.18544E+07        -0.57676E+07         0.00000E+00
    0.00000E+00         0.00000E+00        -0.12894E+07
 
   -0.71054E+06         0.19180E+07         0.00000E+00
    0.19180E+07        -0.57607E+07         0.00000E+00
    0.00000E+00         0.00000E+00        -0.12942E+07
 
   -0.74177E+06         0.19815E+07         0.00000E+00
    0.19815E+07        -0.57535E+07         0.00000E+00
    0.00000E+00         0.00000E+00        -0.12991E+07
 
   -0.77308E+06         0.20450E+07         0.00000E+00
    0.20450E+07        -0.57459E+07         0.00000E+00
    0.00000E+00         0.00000E+00        -0.13038E+07
 
   -0.80448E+06         0.21084E+07         0.00000E+00
    0.21084E+07        -0.57380E+07         0.00000E+00
    0.00000E+00         0.00000E+00        -0.13085E+07
 
   -0.83599E+06         0.21719E+07         0.00000E+00
    0.21719E+07        -0.57298E+07         0.00000E+00
    0.00000E+00         0.00000E+00        -0.13132E+07
 
   -0.86762E+06         0.22353E+07         0.00000E+00
    0.22353E+07        -0.57212E+07         0.00000E+00
    0.00000E+00         0.00000E+00        -0.13178E+07
 
   -0.89937E+06         0.22986E+07         0.00000E+00
    0.22986E+07        -0.57122E+07         0.00000E+00
    0.00000E+00         0.00000E+00        -0.13223E+07
 
   -0.93127E+06         0.23619E+07         0.00000E+00
    0.23619E+07        -0.57028E+07         0.00000E+00
    0.00000E+00         0.00000E+00        -0.13268E+07
 
   -0.96333E+06         0.24253E+07         0.00000E+00
    0.24253E+07        -0.56930E+07         0.00000E+00
    0.00000E+00         0.00000E+00        -0.13313E+07
 
   -0.99557E+06         0.24886E+07         0.00000E+00
    0.24886E+07        -0.56828E+07         0.00000E+00
    0.00000E+00         0.00000E+00        -0.13357E+07
 
   -0.10280E+07         0.25518E+07         0.00000E+00
    0.25518E+07        -0.56722E+07         0.00000E+00
    0.00000E+00         0.00000E+00        -0.13400E+07
 
   -0.10606E+07         0.26151E+07         0.00000E+00
    0.26151E+07        -0.56612E+07         0.00000E+00
    0.00000E+00         0.00000E+00        -0.13444E+07
 
   -0.10935E+07         0.26783E+07         0.00000E+00
    0.26783E+07        -0.56497E+07         0.00000E+00
    0.00000E+00         0.00000E+00        -0.13486E+07
 
   -0.11265E+07         0.27416E+07         0.00000E+00
    0.27416E+07        -0.56379E+07         0.00000E+00
    0.00000E+00         0.00000E+00        -0.13529E+07
 
   -0.11598E+07         0.28048E+07         0.00000E+00
    0.28048E+07        -0.56255E+07         0.00000E+00
    0.00000E+00         0.00000E+00        -0.13571E+07
 
   -0.11934E+07         0.28680E+07         0.00000E+00
    0.28680E+07        -0.56127E+07         0.00000E+00
    0.00000E+00         0.00000E+00        -0.13612E+07
 
   -0.12273E+07         0.29312E+07         0.00000E+00
    0.29312E+07        -0.55995E+07         0.00000E+00
    0.00000E+00         0.00000E+00        -0.13654E+07
 
   -0.12614E+07         0.29944E+07         0.00000E+00
    0.29944E+07        -0.55857E+07         0.00000E+00
    0.00000E+00         0.00000E+00        -0.13694E+07
 
   -0.12959E+07         0.30576E+07         0.00000E+00
    0.30576E+07        -0.55715E+07         0.00000E+00
    0.00000E+00         0.00000E+00        -0.13735E+07
 
   -0.13307E+07         0.31208E+07         0.00000E+00
    0.31208E+07        -0.55568E+07         0.00000E+00
    0.00000E+00         0.00000E+00        -0.13775E+07
 
   -0.13658E+07         0.31840E+07         0.00000E+00
    0.31840E+07        -0.55416E+07         0.00000E+00
    0.00000E+00         0.00000E+00        -0.13815E+07
 
    0.11941E+06         0.34284E+05         0.00000E+00
    0.34284E+05        -0.62846E+07         0.00000E+00
    0.00000E+00         0.00000E+00        -0.12330E+07
 
    0.84515E+05         0.10232E+06         0.00000E+00
    0.10232E+06        -0.62845E+07         0.00000E+00
    0.00000E+00         0.00000E+00        -0.12400E+07
 
    0.49876E+05         0.17015E+06         0.00000E+00
    0.17015E+06        -0.62842E+07         0.00000E+00
    0.00000E+00         0.00000E+00        -0.12469E+07
 
    0.15487E+05         0.23777E+06         0.00000E+00
    0.23777E+06        -0.62837E+07         0.00000E+00
    0.00000E+00         0.00000E+00        -0.12536E+07
 
   -0.18659E+05         0.30520E+06         0.00000E+00
    0.30520E+06        -0.62831E+07         0.00000E+00
    0.00000E+00         0.00000E+00        -0.12603E+07
 
   -0.52571E+05         0.37244E+06         0.00000E+00
    0.37244E+06        -0.62823E+07         0.00000E+00
    0.00000E+00         0.00000E+00        -0.12670E+07
 
   -0.86256E+05         0.43951E+06         0.00000E+00
    0.43951E+06        -0.62813E+07         0.00000E+00
    0.00000E+00         0.00000E+00        -0.12735E+07
 
   -0.11972E+06         0.50641E+06         0.00000E+00
    0.50641E+06        -0.62801E+07         0.00000E+00
    0.00000E+00         0.00000E+00        -0.12800E+07
 
   -0.15298E+06         0.57315E+06         0.00000E+00
    0.57315E+06        -0.62788E+07         0.00000E+00
    0.00000E+00         0.00000E+00        -0.12863E+07
 
   -0.18604E+06         0.63975E+06         0.00000E+00
    0.63975E+06        -0.62772E+07         0.00000E+00
    0.00000E+00         0.00000E+00        -0.12927E+07
 
   -0.21890E+06         0.70620E+06         0.00000E+00
    0.70620E+06        -0.62755E+07         0.00000E+00
    0.00000E+00         0.00000E+00        -0.12989E+07
 
   -0.25158E+06         0.77253E+06         0.00000E+00
    0.77253E+06        -0.62736E+07         0.00000E+00
    0.00000E+00         0.00000E+00        -0.13050E+07
 
   -0.28409E+06         0.83873E+06         0.00000E+00
    0.83873E+06        -0.62714E+07         0.00000E+00
    0.00000E+00         0.00000E+00        -0.13111E+07
 
   -0.31644E+06         0.90482E+06         0.00000E+00
    0.90482E+06        -0.62691E+07         0.00000E+00
    0.00000E+00         0.00000E+00        -0.13171E+07
 
   -0.34864E+06         0.97080E+06         0.00000E+00
    0.97080E+06        -0.62665E+07         0.00000E+00
    0.00000E+00         0.00000E+00        -0.13230E+07
 
   -0.38069E+06         0.10367E+07         0.00000E+00
    0.10367E+07        -0.62637E+07         0.00000E+00
    0.00000E+00         0.00000E+00        -0.13289E+07
 
   -0.41262E+06         0.11025E+07         0.00000E+00
    0.11025E+07        -0.62607E+07         0.00000E+00
    0.00000E+00         0.00000E+00        -0.13347E+07
 
   -0.44442E+06         0.11682E+07         0.00000E+00
    0.11682E+07        -0.62574E+07         0.00000E+00
    0.00000E+00         0.00000E+00        -0.13404E+07
 
   -0.47611E+06         0.12338E+07         0.00000E+00
    0.12338E+07        -0.62539E+07         0.00000E+00
    0.00000E+00         0.00000E+00        -0.13460E+07
 
   -0.50771E+06         0.12994E+07         0.00000E+00
    0.12994E+07        -0.62502E+07         0.00000E+00
    0.00000E+00         0.00000E+00        -0.13516E+07
 
   -0.53922E+06         0.13649E+07         0.00000E+00
    0.13649E+07        -0.62462E+07         0.00000E+00
    0.00000E+00         0.00000E+00        -0.13571E+07
 
   -0.57066E+06         0.14303E+07         0.00000E+00
    0.14303E+07        -0.62419E+07         0.00000E+00
    0.00000E+00         0.00000E+00        -0.13625E+07
 
   -0.60203E+06         0.14957E+07         0.00000E+00
    0.14957E+07        -0.62374E+07         0.00000E+00
    0.00000E+00         0.00000E+00        -0.13679E+07
 
   -0.63336E+06         0.15611E+07         0.00000E+00
    0.15611E+07        -0.62326E+07         0.00000E+00
    0.00000E+00         0.00000E+00        -0.13732E+07
 
   -0.66464E+06         0.16264E+07         0.00000E+00
    0.16264E+07        -0.62275E+07         0.00000E+00
    0.00000E+00         0.00000E+00        -0.13784E+07
 
   -0.69591E+06         0.16917E+07         0.00000E+00
    0.16917E+07        -0.62221E+07         0.00000E+00
    0.00000E+00         0.00000E+00        -0.13836E+07
 
   -0.72716E+06         0.17570E+07         0.00000E+00
    0.17570E+07        -0.62164E+07         0.00000E+00
    0.00000E+00         0.00000E+00        -0.13887E+07
 
   -0.75842E+06         0.18222E+07         0.00000E+00
    0.18222E+07        -0.62104E+07         0.00000E+00
    0.00000E+00         0.00000E+00        -0.13938E+07
 
   -0.78969E+06         0.18875E+07         0.00000E+00
    0.18875E+07        -0.62040E+07         0.00000E+00
    0.00000E+00         0.00000E+00        -0.13987E+07
 
   -0.82099E+06         0.19527E+07         0.00000E+00
    0.19527E+07        -0.61974E+07         0.00000E+00
    0.00000E+00         0.00000E+00        -0.14037E+07
 
   -0.85233E+06         0.20179E+07         0.00000E+00
    0.20179E+07        -0.61904E+07         0.00000E+00
    0.00000E+00         0.00000E+00        -0.14085E+07
 
   -0.88373E+06         0.20831E+07         0.00000E+00
    0.20831E+07        -0.61831E+07         0.00000E+00
    0.00000E+00         0.00000E+00        -0.14134E+07
 
   -0.91520E+06         0.21484E+07         0.00000E+00
    0.21484E+07        -0.61754E+07         0.00000E+00
    0.00000E+00         0.00000E+00        -0.14181E+07
 
   -0.94676E+06         0.22136E+07         0.00000E+00
    0.22136E+07        -0.61673E+07         0.00000E+00
    0.00000E+00         0.00000E+00        -0.14228E+07
 
   -0.97842E+06         0.22789E+07         0.00000E+00
    0.22789E+07        -0.61589E+07         0.00000E+00
    0.00000E+00         0.00000E+00        -0.14275E+07
 
   -0.10102E+07         0.23441E+07         0.00000E+00
    0.23441E+07        -0.61501E+07         0.00000E+00
    0.00000E+00         0.00000E+00        -0.14321E+07
 
   -0.10421E+07         0.24094E+07         0.00000E+00
    0.24094E+07        -0.61409E+07         0.00000E+00
    0.00000E+00         0.00000E+00        -0.14366E+07
 
   -0.10741E+07         0.24748E+07         0.00000E+00
    0.24748E+07        -0.61313E+07         0.00000E+00
    0.00000E+00         0.00000E+00        -0.14411E+07
 
   -0.11064E+07         0.25401E+07         0.00000E+00
    0.25401E+07        -0.61213E+07         0.00000E+00
    0.00000E+00         0.00000E+00        -0.14455E+07
 
   -0.11387E+07         0.26055E+07         0.00000E+00
    0.26055E+07        -0.61109E+07         0.00000E+00
    0.00000E+00         0.00000E+00        -0.14499E+07
 
   -0.11713E+07         0.26709E+07         0.00000E+00
    0.26709E+07        -0.61000E+07         0.00000E+00
    0.00000E+00         0.00000E+00        -0.14543E+07
 
   -0.12041E+07         0.27363E+07         0.00000E+00
    0.27363E+07        -0.60888E+07         0.00000E+00
    0.00000E+00         0.00000E+00        -0.14586E+07
 
   -0.12371E+07         0.28018E+07         0.00000E+00
    0.28018E+07        -0.60770E+07         0.00000E+00
    0.00000E+00         0.00000E+00        -0.14628E+07
 
   -0.12704E+07         0.28674E+07         0.00000E+00
    0.28674E+07        -0.60648E+07         0.00000E+00
    0.00000E+00         0.00000E+00        -0.14670E+07
 
   -0.13039E+07         0.29329E+07         0.00000E+00
    0.29329E+07        -0.60522E+07         0.00000E+00
    0.00000E+00         0.00000E+00        -0.14712E+07
 
   -0.13376E+07         0.29985E+07         0.00000E+00
    0.29985E+07        -0.60390E+07         0.00000E+00
    0.00000E+00         0.00000E+00        -0.14753E+07
 
   -0.13717E+07         0.30642E+07         0.00000E+00
    0.30642E+07        -0.60254E+07         0.00000E+00
    0.00000E+00         0.00000E+00        -0.14794E+07
 
   -0.14061E+07         0.31299E+07         0.00000E+00
    0.31299E+07        -0.60112E+07         0.00000E+00
    0.00000E+00         0.00000E+00        -0.14835E+07
 
   -0.14408E+07         0.31956E+07         0.00000E+00
    0.31956E+07        -0.59966E+07         0.00000E+00
    0.00000E+00         0.00000E+00        -0.14875E+07
 
   -0.14758E+07         0.32614E+07         0.00000E+00
    0.32614E+07        -0.59814E+07         0.00000E+00
    0.00000E+00         0.00000E+00        -0.14914E+07
 
    0.10455E+05         0.34636E+05         0.00000E+00
    0.34636E+05        -0.67362E+07         0.00000E+00
    0.00000E+00         0.00000E+00        -0.13452E+07
 
   -0.25487E+05         0.10342E+06         0.00000E+00
    0.10342E+06        -0.67361E+07         0.00000E+00
    0.00000E+00         0.00000E+00        -0.13523E+07
 
   -0.61120E+05         0.17201E+06         0.00000E+00
    0.17201E+06        -0.67358E+07         0.00000E+00
    0.00000E+00         0.00000E+00        -0.13594E+07
 
   -0.96452E+05         0.24042E+06         0.00000E+00
    0.24042E+06        -0.67354E+07         0.00000E+00
    0.00000E+00         0.00000E+00        -0.13664E+07
 
   -0.13149E+06         0.30865E+06         0.00000E+00
    0.30865E+06        -0.67348E+07         0.00000E+00
    0.00000E+00         0.00000E+00        -0.13733E+07
 
   -0.16625E+06         0.37672E+06         0.00000E+00
    0.37672E+06        -0.67341E+07         0.00000E+00
    0.00000E+00         0.00000E+00        -0.13801E+07
 
   -0.20073E+06         0.44464E+06         0.00000E+00
    0.44464E+06        -0.67332E+07         0.00000E+00
    0.00000E+00         0.00000E+00        -0.13868E+07
 
   -0.23494E+06         0.51242E+06         0.00000E+00
    0.51242E+06        -0.67321E+07         0.00000E+00
    0.00000E+00         0.00000E+00        -0.13934E+07
 
   -0.26890E+06         0.58006E+06         0.00000E+00
    0.58006E+06        -0.67309E+07         0.00000E+00
    0.00000E+00         0.00000E+00        -0.14000E+07
 
   -0.30261E+06         0.64758E+06         0.00000E+00
    0.64758E+06        -0.67295E+07         0.00000E+00
    0.00000E+00         0.00000E+00        -0.14064E+07
 
   -0.33608E+06         0.71499E+06         0.00000E+00
    0.71499E+06        -0.67279E+07         0.00000E+00
    0.00000E+00         0.00000E+00        -0.14128E+07
 
   -0.36933E+06         0.78230E+06         0.00000E+00
    0.78230E+06        -0.67262E+07         0.00000E+00
    0.00000E+00         0.00000E+00        -0.14191E+07
 
   -0.40236E+06         0.84952E+06         0.00000E+00
    0.84952E+06        -0.67242E+07         0.00000E+00
    0.00000E+00         0.00000E+00        -0.14253E+07
 
   -0.43518E+06         0.91665E+06         0.00000E+00
    0.91665E+06        -0.67221E+07         0.00000E+00
    0.00000E+00         0.00000E+00        -0.14314E+07
 
   -0.46781E+06         0.98370E+06         0.00000E+00
    0.98370E+06        -0.67197E+07         0.00000E+00
    0.00000E+00         0.00000E+00        -0.14375E+07
 
   -0.50025E+06         0.10507E+07         0.00000E+00
    0.10507E+07        -0.67171E+07         0.00000E+00
    0.00000E+00         0.00000E+00        -0.14435E+07
 
   -0.53253E+06         0.11176E+07         0.00000E+00
    0.11176E+07        -0.67143E+07         0.00000E+00
    0.00000E+00         0.00000E+00        -0.14494E+07
 
   -0.56464E+06         0.11845E+07         0.00000E+00
    0.11845E+07        -0.67113E+07         0.00000E+00
    0.00000E+00         0.00000E+00        -0.14552E+07
 
   -0.59661E+06         0.12514E+07         0.00000E+00
    0.12514E+07        -0.67080E+07         0.00000E+00
    0.00000E+00         0.00000E+00        -0.14609E+07
 
   -0.62844E+06         0.13182E+07         0.00000E+00
    0.13182E+07        -0.67045E+07         0.00000E+00
    0.00000E+00         0.00000E+00        -0.14666E+07
 
   -0.66015E+06         0.13849E+07         0.00000E+00
    0.13849E+07        -0.67008E+07         0.00000E+00
    0.00000E+00         0.00000E+00        -0.14722E+07
 
   -0.69175E+06         0.14517E+07         0.00000E+00
    0.14517E+07        -0.66968E+07         0.00000E+00
    0.00000E+00         0.00000E+00        -0.14777E+07
 
   -0.72325E+06         0.15185E+07         0.00000E+00
    0.15185E+07        -0.66925E+07         0.00000E+00
    0.00000E+00         0.00000E+00        -0.14832E+07
 
   -0.75467E+06         0.15852E+07         0.00000E+00
    0.15852E+07        -0.66880E+07         0.00000E+00
    0.00000E+00         0.00000E+00        -0.14885E+07
 
   -0.78602E+06         0.16520E+07         0.00000E+00
    0.16520E+07        -0.66832E+07         0.00000E+00
    0.00000E+00         0.00000E+00        -0.14938E+07
 
   -0.81732E+06         0.17188E+07         0.00000E+00
    0.17188E+07        -0.66781E+07         0.00000E+00
    0.00000E+00         0.00000E+00        -0.14991E+07
 
   -0.84857E+06         0.17856E+07         0.00000E+00
    0.17856E+07        -0.66727E+07         0.00000E+00
    0.00000E+00         0.00000E+00        -0.15042E+07
 
   -0.87980E+06         0.18524E+07         0.00000E+00
    0.18524E+07        -0.66669E+07         0.00000E+00
    0.00000E+00         0.00000E+00        -0.15093E+07
 
   -0.91101E+06         0.19192E+07         0.00000E+00
    0.19192E+07        -0.66609E+07         0.00000E+00
    0.00000E+00         0.00000E+00        -0.15144E+07
 
   -0.94223E+06         0.19861E+07         0.00000E+00
    0.19861E+07        -0.66546E+07         0.00000E+00
    0.00000E+00         0.00000E+00        -0.15194E+07
 
   -0.97347E+06         0.20530E+07         0.00000E+00
    0.20530E+07        -0.66479E+07         0.00000E+00
    0.00000E+00         0.00000E+00        -0.15243E+07
 
   -0.10047E+07         0.21200E+07         0.00000E+00
    0.21200E+07        -0.66408E+07         0.00000E+00
    0.00000E+00         0.00000E+00        -0.15291E+07
 
   -0.10360E+07         0.21870E+07         0.00000E+00
    0.21870E+07        -0.66335E+07         0.00000E+00
    0.00000E+00         0.00000E+00        -0.15339E+07
 
   -0.10674E+07         0.22541E+07         0.00000E+00
    0.22541E+07        -0.66257E+07         0.00000E+00
    0.00000E+00         0.00000E+00        -0.15386E+07
 
   -0.10989E+07         0.23212E+07         0.00000E+00
    0.23212E+07        -0.66176E+07         0.00000E+00
    0.00000E+00         0.00000E+00        -0.15433E+07
 
   -0.11304E+07         0.23885E+07         0.00000E+00
    0.23885E+07        -0.66091E+07         0.00000E+00
    0.00000E+00         0.00000E+00        -0.15479E+07
 
   -0.11621E+07         0.24557E+07         0.00000E+00
    0.24557E+07        -0.66002E+07         0.00000E+00
    0.00000E+00         0.00000E+00        -0.15525E+07
 
   -0.11939E+07         0.25231E+07         0.00000E+00
    0.25231E+07        -0.65909E+07         0.00000E+00
    0.00000E+00         0.00000E+00        -0.15570E+07
 
   -0.12258E+07         0.25905E+07         0.00000E+00
    0.25905E+07        -0.65812E+07         0.00000E+00
    0.00000E+00         0.00000E+00        -0.15614E+07
 
   -0.12579E+07         0.26580E+07         0.00000E+00
    0.26580E+07        -0.65710E+07         0.00000E+00
    0.00000E+00         0.00000E+00        -0.15658E+07
 
   -0.12902E+07         0.27256E+07         0.00000E+00
    0.27256E+07        -0.65604E+07         0.00000E+00
    0.00000E+00         0.00000E+00        -0.15701E+07
 
   -0.13227E+07         0.27933E+07         0.00000E+00
    0.27933E+07        -0.65494E+07         0.00000E+00
    0.00000E+00         0.00000E+00        -0.15744E+07
 
   -0.13554E+07         0.28611E+07         0.00000E+00
    0.28611E+07        -0.65379E+07         0.00000E+00
    0.00000E+00         0.00000E+00        -0.15787E+07
 
   -0.13883E+07         0.29290E+07         0.00000E+00
    0.29290E+07        -0.65260E+07         0.00000E+00
    0.00000E+00         0.00000E+00        -0.15829E+07
 
   -0.14215E+07         0.29969E+07         0.00000E+00
    0.29969E+07        -0.65136E+07         0.00000E+00
    0.00000E+00         0.00000E+00        -0.15870E+07
 
   -0.14549E+07         0.30650E+07         0.00000E+00
    0.30650E+07        -0.65007E+07         0.00000E+00
    0.00000E+00         0.00000E+00        -0.15911E+07
 
   -0.14886E+07         0.31332E+07         0.00000E+00
    0.31332E+07        -0.64872E+07         0.00000E+00
    0.00000E+00         0.00000E+00        -0.15952E+07
 
   -0.15226E+07         0.32014E+07         0.00000E+00
    0.32014E+07        -0.64733E+07         0.00000E+00
    0.00000E+00         0.00000E+00        -0.15992E+07
 
   -0.15569E+07         0.32698E+07         0.00000E+00
    0.32698E+07        -0.64588E+07         0.00000E+00
    0.00000E+00         0.00000E+00        -0.16032E+07
 
   -0.15916E+07         0.33382E+07         0.00000E+00
    0.33382E+07        -0.64438E+07         0.00000E+00
    0.00000E+00         0.00000E+00        -0.16071E+07
 
   -0.11483E+06         0.34940E+05         0.00000E+00
    0.34940E+05        -0.72076E+07         0.00000E+00
    0.00000E+00         0.00000E+00        -0.14645E+07
 
   -0.15173E+06         0.10438E+06         0.00000E+00
    0.10438E+06        -0.72075E+07         0.00000E+00
    0.00000E+00         0.00000E+00        -0.14718E+07
 
   -0.18825E+06         0.17364E+06         0.00000E+00
    0.17364E+06        -0.72072E+07         0.00000E+00
    0.00000E+00         0.00000E+00        -0.14791E+07
 
   -0.22442E+06         0.24274E+06         0.00000E+00
    0.24274E+06        -0.72069E+07         0.00000E+00
    0.00000E+00         0.00000E+00        -0.14863E+07
 
   -0.26024E+06         0.31169E+06         0.00000E+00
    0.31169E+06        -0.72064E+07         0.00000E+00
    0.00000E+00         0.00000E+00        -0.14933E+07
 
   -0.29572E+06         0.38051E+06         0.00000E+00
    0.38051E+06        -0.72057E+07         0.00000E+00
    0.00000E+00         0.00000E+00        -0.15003E+07
 
   -0.33087E+06         0.44919E+06         0.00000E+00
    0.44919E+06        -0.72050E+07         0.00000E+00
    0.00000E+00         0.00000E+00        -0.15072E+07
 
   -0.36570E+06         0.51777E+06         0.00000E+00
    0.51777E+06        -0.72041E+07         0.00000E+00
    0.00000E+00         0.00000E+00        -0.15140E+07
 
   -0.40022E+06         0.58623E+06         0.00000E+00
    0.58623E+06        -0.72030E+07         0.00000E+00
    0.00000E+00         0.00000E+00        -0.15206E+07
 
   -0.43445E+06         0.65461E+06         0.00000E+00
    0.65461E+06        -0.72018E+07         0.00000E+00
    0.00000E+00         0.00000E+00        -0.15272E+07
 
   -0.46838E+06         0.72290E+06         0.00000E+00
    0.72290E+06        -0.72004E+07         0.00000E+00
    0.00000E+00         0.00000E+00        -0.15338E+07
 
   -0.50204E+06         0.79112E+06         0.00000E+00
    0.79112E+06        -0.71988E+07         0.00000E+00
    0.00000E+00         0.00000E+00        -0.15402E+07
 
   -0.53543E+06         0.85928E+06         0.00000E+00
    0.85928E+06        -0.71971E+07         0.00000E+00
    0.00000E+00         0.00000E+00        -0.15465E+07
 
   -0.56857E+06         0.92738E+06         0.00000E+00
    0.92738E+06        -0.71951E+07         0.00000E+00
    0.00000E+00         0.00000E+00        -0.15527E+07
 
   -0.60146E+06         0.99545E+06         0.00000E+00
    0.99545E+06        -0.71930E+07         0.00000E+00
    0.00000E+00         0.00000E+00        -0.15589E+07
 
   -0.63413E+06         0.10635E+07         0.00000E+00
    0.10635E+07        -0.71907E+07         0.00000E+00
    0.00000E+00         0.00000E+00        -0.15650E+07
 
   -0.66658E+06         0.11315E+07         0.00000E+00
    0.11315E+07        -0.71882E+07         0.00000E+00
    0.00000E+00         0.00000E+00        -0.15710E+07
 
   -0.69882E+06         0.11995E+07         0.00000E+00
    0.11995E+07        -0.71855E+07         0.00000E+00
    0.00000E+00         0.00000E+00        -0.15769E+07
 
   -0.73087E+06         0.12675E+07         0.00000E+00
    0.12675E+07        -0.71825E+07         0.00000E+00
    0.00000E+00         0.00000E+00        -0.15827E+07
 
   -0.76275E+06         0.13355E+07         0.00000E+00
    0.13355E+07        -0.71793E+07         0.00000E+00
    0.00000E+00         0.00000E+00        -0.15884E+07
 
   -0.79446E+06         0.14035E+07         0.00000E+00
    0.14035E+07        -0.71759E+07         0.00000E+00
    0.00000E+00         0.00000E+00        -0.15941E+07
 
   -0.82603E+06         0.14716E+07         0.00000E+00
    0.14716E+07        -0.71722E+07         0.00000E+00
    0.00000E+00         0.00000E+00        -0.15997E+07
 
   -0.85745E+06         0.15397E+07         0.00000E+00
    0.15397E+07        -0.71683E+07         0.00000E+00
    0.00000E+00         0.00000E+00        -0.16052E+07
 
   -0.88876E+06         0.16078E+07         0.00000E+00
    0.16078E+07        -0.71641E+07         0.00000E+00
    0.00000E+00         0.00000E+00        -0.16106E+07
 
   -0.91996E+06         0.16760E+07         0.00000E+00
    0.16760E+07        -0.71597E+07         0.00000E+00
    0.00000E+00         0.00000E+00        -0.16159E+07
 
   -0.95107E+06         0.17442E+07         0.00000E+00
    0.17442E+07        -0.71549E+07         0.00000E+00
    0.00000E+00         0.00000E+00        -0.16212E+07
 
   -0.98211E+06         0.18125E+07         0.00000E+00
    0.18125E+07        -0.71499E+07         0.00000E+00
    0.00000E+00         0.00000E+00        -0.16264E+07
 
   -0.10131E+07         0.18808E+07         0.00000E+00
    0.18808E+07        -0.71446E+07         0.00000E+00
    0.00000E+00         0.00000E+00        -0.16315E+07
 
   -0.10440E+07         0.19493E+07         0.00000E+00
    0.19493E+07        -0.71389E+07         0.00000E+00
    0.00000E+00         0.00000E+00        -0.16366E+07
 
   -0.10749E+07         0.20178E+07         0.00000E+00
    0.20178E+07        -0.71330E+07         0.00000E+00
    0.00000E+00         0.00000E+00        -0.16416E+07
 
   -0.11058E+07         0.20864E+07         0.00000E+00
    0.20864E+07        -0.71267E+07         0.00000E+00
    0.00000E+00         0.00000E+00        -0.16465E+07
 
   -0.11367E+07         0.21551E+07         0.00000E+00
    0.21551E+07        -0.71201E+07         0.00000E+00
    0.00000E+00         0.00000E+00        -0.16513E+07
 
   -0.11676E+07         0.22239E+07         0.00000E+00
    0.22239E+07        -0.71131E+07         0.00000E+00
    0.00000E+00         0.00000E+00        -0.16561E+07
 
   -0.11986E+07         0.22928E+07         0.00000E+00
    0.22928E+07        -0.71057E+07         0.00000E+00
    0.00000E+00         0.00000E+00        -0.16609E+07
 
   -0.12296E+07         0.23619E+07         0.00000E+00
    0.23619E+07        -0.70980E+07         0.00000E+00
    0.00000E+00         0.00000E+00        -0.16655E+07
 
   -0.12606E+07         0.24310E+07         0.00000E+00
    0.24310E+07        -0.70899E+07         0.00000E+00
    0.00000E+00         0.00000E+00        -0.16701E+07
 
   -0.12918E+07         0.25003E+07         0.00000E+00
    0.25003E+07        -0.70814E+07         0.00000E+00
    0.00000E+00         0.00000E+00        -0.16746E+07
 
   -0.13231E+07         0.25697E+07         0.00000E+00
    0.25697E+07        -0.70725E+07         0.00000E+00
    0.00000E+00         0.00000E+00        -0.16791E+07
 
   -0.13545E+07         0.26392E+07         0.00000E+00
    0.26392E+07        -0.70632E+07         0.00000E+00
    0.00000E+00         0.00000E+00        -0.16835E+07
 
   -0.13860E+07         0.27089E+07         0.00000E+00
    0.27089E+07        -0.70534E+07         0.00000E+00
    0.00000E+00         0.00000E+00        -0.16879E+07
 
   -0.14177E+07         0.27787E+07         0.00000E+00
    0.27787E+07        -0.70432E+07         0.00000E+00
    0.00000E+00         0.00000E+00        -0.16922E+07
 
   -0.14496E+07         0.28487E+07         0.00000E+00
    0.28487E+07        -0.70326E+07         0.00000E+00
    0.00000E+00         0.00000E+00        -0.16964E+07
 
   -0.14817E+07         0.29188E+07         0.00000E+00
    0.29188E+07        -0.70215E+07         0.00000E+00
    0.00000E+00         0.00000E+00        -0.17006E+07
 
   -0.15140E+07         0.29891E+07         0.00000E+00
    0.29891E+07        -0.70099E+07         0.00000E+00
    0.00000E+00         0.00000E+00        -0.17048E+07
 
   -0.15466E+07         0.30595E+07         0.00000E+00
    0.30595E+07        -0.69979E+07         0.00000E+00
    0.00000E+00         0.00000E+00        -0.17089E+07
 
   -0.15794E+07         0.31301E+07         0.00000E+00
    0.31301E+07        -0.69853E+07         0.00000E+00
    0.00000E+00         0.00000E+00        -0.17129E+07
 
   -0.16124E+07         0.32008E+07         0.00000E+00
    0.32008E+07        -0.69722E+07         0.00000E+00
    0.00000E+00         0.00000E+00        -0.17169E+07
 
   -0.16458E+07         0.32717E+07         0.00000E+00
    0.32717E+07        -0.69586E+07         0.00000E+00
    0.00000E+00         0.00000E+00        -0.17209E+07
 
   -0.16795E+07         0.33427E+07         0.00000E+00
    0.33427E+07        -0.69445E+07         0.00000E+00
    0.00000E+00         0.00000E+00        -0.17248E+07
 
   -0.17135E+07         0.34139E+07         0.00000E+00
    0.34139E+07        -0.69298E+07         0.00000E+00
    0.00000E+00         0.00000E+00        -0.17287E+07
 
   -0.25752E+06         0.35187E+05         0.00000E+00
    0.35187E+05        -0.76993E+07         0.00000E+00
    0.00000E+00         0.00000E+00        -0.15914E+07
 
   -0.29526E+06         0.10517E+06         0.00000E+00
    0.10517E+06        -0.76992E+07         0.00000E+00
    0.00000E+00         0.00000E+00        -0.15989E+07
 
   -0.33256E+06         0.17499E+06         0.00000E+00
    0.17499E+06        -0.76990E+07         0.00000E+00
    0.00000E+00         0.00000E+00        -0.16063E+07
 
   -0.36945E+06         0.24468E+06         0.00000E+00
    0.24468E+06        -0.76987E+07         0.00000E+00
    0.00000E+00         0.00000E+00        -0.16136E+07
 
   -0.40593E+06         0.31425E+06         0.00000E+00
    0.31425E+06        -0.76983E+07         0.00000E+00
    0.00000E+00         0.00000E+00        -0.16208E+07
 
   -0.44201E+06         0.38370E+06         0.00000E+00
    0.38370E+06        -0.76978E+07         0.00000E+00
    0.00000E+00         0.00000E+00        -0.16280E+07
 
   -0.47769E+06         0.45305E+06         0.00000E+00
    0.45305E+06        -0.76972E+07         0.00000E+00
    0.00000E+00         0.00000E+00        -0.16350E+07
 
   -0.51300E+06         0.52232E+06         0.00000E+00
    0.52232E+06        -0.76964E+07         0.00000E+00
    0.00000E+00         0.00000E+00        -0.16419E+07
 
   -0.54794E+06         0.59151E+06         0.00000E+00
    0.59151E+06        -0.76955E+07         0.00000E+00
    0.00000E+00         0.00000E+00        -0.16487E+07
 
   -0.58252E+06         0.66064E+06         0.00000E+00
    0.66064E+06        -0.76945E+07         0.00000E+00
    0.00000E+00         0.00000E+00        -0.16554E+07
 
   -0.61676E+06         0.72972E+06         0.00000E+00
    0.72972E+06        -0.76934E+07         0.00000E+00
    0.00000E+00         0.00000E+00        -0.16620E+07
 
   -0.65067E+06         0.79876E+06         0.00000E+00
    0.79876E+06        -0.76920E+07         0.00000E+00
    0.00000E+00         0.00000E+00        -0.16685E+07
 
   -0.68425E+06         0.86778E+06         0.00000E+00
    0.86778E+06        -0.76906E+07         0.00000E+00
    0.00000E+00         0.00000E+00        -0.16750E+07
 
   -0.71753E+06         0.93678E+06         0.00000E+00
    0.93678E+06        -0.76889E+07         0.00000E+00
    0.00000E+00         0.00000E+00        -0.16813E+07
 
   -0.75051E+06         0.10058E+07         0.00000E+00
    0.10058E+07        -0.76871E+07         0.00000E+00
    0.00000E+00         0.00000E+00        -0.16875E+07
 
   -0.78321E+06         0.10748E+07         0.00000E+00
    0.10748E+07        -0.76851E+07         0.00000E+00
    0.00000E+00         0.00000E+00        -0.16937E+07
 
   -0.81564E+06         0.11438E+07         0.00000E+00
    0.11438E+07        -0.76829E+07         0.00000E+00
    0.00000E+00         0.00000E+00        -0.16997E+07
 
   -0.84782E+06         0.12129E+07         0.00000E+00
    0.12129E+07        -0.76806E+07         0.00000E+00
    0.00000E+00         0.00000E+00        -0.17057E+07
 
   -0.87976E+06         0.12819E+07         0.00000E+00
    0.12819E+07        -0.76780E+07         0.00000E+00
    0.00000E+00         0.00000E+00        -0.17115E+07
 
   -0.91147E+06         0.13511E+07         0.00000E+00
    0.13511E+07        -0.76752E+07         0.00000E+00
    0.00000E+00         0.00000E+00        -0.17173E+07
 
   -0.94297E+06         0.14203E+07         0.00000E+00
    0.14203E+07        -0.76722E+07         0.00000E+00
    0.00000E+00         0.00000E+00        -0.17230E+07
 
   -0.97428E+06         0.14896E+07         0.00000E+00
    0.14896E+07        -0.76689E+07         0.00000E+00
    0.00000E+00         0.00000E+00        -0.17286E+07
 
   -0.10054E+07         0.15589E+07         0.00000E+00
    0.15589E+07        -0.76654E+07         0.00000E+00
    0.00000E+00         0.00000E+00        -0.17342E+07
 
   -0.10364E+07         0.16283E+07         0.00000E+00
    0.16283E+07        -0.76617E+07         0.00000E+00
    0.00000E+00         0.00000E+00        -0.17396E+07
 
   -0.10672E+07         0.16979E+07         0.00000E+00
    0.16979E+07        -0.76577E+07         0.00000E+00
    0.00000E+00         0.00000E+00        -0.17450E+07
 
   -0.10979E+07         0.17675E+07         0.00000E+00
    0.17675E+07        -0.76534E+07         0.00000E+00
    0.00000E+00         0.00000E+00        -0.17503E+07
 
   -0.11285E+07         0.18372E+07         0.00000E+00
    0.18372E+07        -0.76488E+07         0.00000E+00
    0.00000E+00         0.00000E+00        -0.17555E+07
 
   -0.11589E+07         0.19071E+07         0.00000E+00
    0.19071E+07        -0.76440E+07         0.00000E+00
    0.00000E+00         0.00000E+00        -0.17606E+07
 
   -0.11893E+07         0.19771E+07         0.00000E+00
    0.19771E+07        -0.76388E+07         0.00000E+00
    0.00000E+00         0.00000E+00        -0.17656E+07
 
   -0.12197E+07         0.20472E+07         0.00000E+00
    0.20472E+07        -0.76333E+07         0.00000E+00
    0.00000E+00         0.00000E+00        -0.17706E+07
 
   -0.12500E+07         0.21175E+07         0.00000E+00
    0.21175E+07        -0.76275E+07         0.00000E+00
    0.00000E+00         0.00000E+00        -0.17755E+07
 
   -0.12802E+07         0.21880E+07         0.00000E+00
    0.21880E+07        -0.76214E+07         0.00000E+00
    0.00000E+00         0.00000E+00        -0.17803E+07
 
   -0.13105E+07         0.22585E+07         0.00000E+00
    0.22585E+07        -0.76149E+07         0.00000E+00
    0.00000E+00         0.00000E+00        -0.17851E+07
 
   -0.13407E+07         0.23293E+07         0.00000E+00
    0.23293E+07        -0.76081E+07         0.00000E+00
    0.00000E+00         0.00000E+00        -0.17898E+07
 
   -0.13710E+07         0.24002E+07         0.00000E+00
    0.24002E+07        -0.76009E+07         0.00000E+00
    0.00000E+00         0.00000E+00        -0.17944E+07
 
   -0.14013E+07         0.24713E+07         0.00000E+00
    0.24713E+07        -0.75933E+07         0.00000E+00
    0.00000E+00         0.00000E+00        -0.17989E+07
 
   -0.14317E+07         0.25426E+07         0.00000E+00
    0.25426E+07        -0.75853E+07         0.00000E+00
    0.00000E+00         0.00000E+00        -0.18034E+07
 
   -0.14622E+07         0.26141E+07         0.00000E+00
    0.26141E+07        -0.75769E+07         0.00000E+00
    0.00000E+00         0.00000E+00        -0.18078E+07
 
   -0.14928E+07         0.26857E+07         0.00000E+00
    0.26857E+07        -0.75681E+07         0.00000E+00
    0.00000E+00         0.00000E+00        -0.18122E+07
 
   -0.15235E+07         0.27576E+07         0.00000E+00
    0.27576E+07        -0.75589E+07         0.00000E+00
    0.00000E+00         0.00000E+00        -0.18165E+07
 
   -0.15543E+07         0.28296E+07         0.00000E+00
    0.28296E+07        -0.75492E+07         0.00000E+00
    0.00000E+00         0.00000E+00        -0.18207E+07
 
   -0.15853E+07         0.29019E+07         0.00000E+00
    0.29019E+07        -0.75391E+07         0.00000E+00
    0.00000E+00         0.00000E+00        -0.18249E+07
 
   -0.16165E+07         0.29743E+07         0.00000E+00
    0.29743E+07        -0.75285E+07         0.00000E+00
    0.00000E+00         0.00000E+00        -0.18290E+07
 
   -0.16479E+07         0.30470E+07         0.00000E+00
    0.30470E+07        -0.75174E+07         0.00000E+00
    0.00000E+00         0.00000E+00        -0.18331E+07
 
   -0.16795E+07         0.31199E+07         0.00000E+00
    0.31199E+07        -0.75058E+07         0.00000E+00
    0.00000E+00         0.00000E+00        -0.18371E+07
 
   -0.17114E+07         0.31930E+07         0.00000E+00
    0.31930E+07        -0.74938E+07         0.00000E+00
    0.00000E+00         0.00000E+00        -0.18410E+07
 
   -0.17435E+07         0.32664E+07         0.00000E+00
    0.32664E+07        -0.74812E+07         0.00000E+00
    0.00000E+00         0.00000E+00        -0.18449E+07
 
   -0.17759E+07         0.33399E+07         0.00000E+00
    0.33399E+07        -0.74680E+07         0.00000E+00
    0.00000E+00         0.00000E+00        -0.18488E+07
 
   -0.18086E+07         0.34137E+07         0.00000E+00
    0.34137E+07        -0.74543E+07         0.00000E+00
    0.00000E+00         0.00000E+00        -0.18526E+07
 
   -0.18416E+07         0.34878E+07         0.00000E+00
    0.34878E+07        -0.74401E+07         0.00000E+00
    0.00000E+00         0.00000E+00        -0.18563E+07
 
   -0.41872E+06         0.35367E+05         0.00000E+00
    0.35367E+05        -0.82118E+07         0.00000E+00
    0.00000E+00         0.00000E+00        -0.17261E+07
 
   -0.45719E+06         0.10576E+06         0.00000E+00
    0.10576E+06        -0.82118E+07         0.00000E+00
    0.00000E+00         0.00000E+00        -0.17338E+07
 
   -0.49516E+06         0.17602E+06         0.00000E+00
    0.17602E+06        -0.82116E+07         0.00000E+00
    0.00000E+00         0.00000E+00        -0.17414E+07
 
   -0.53264E+06         0.24617E+06         0.00000E+00
    0.24617E+06        -0.82114E+07         0.00000E+00
    0.00000E+00         0.00000E+00        -0.17488E+07
 
   -0.56964E+06         0.31622E+06         0.00000E+00
    0.31622E+06        -0.82111E+07         0.00000E+00
    0.00000E+00         0.00000E+00        -0.17562E+07
 
   -0.60617E+06         0.38618E+06         0.00000E+00
    0.38618E+06        -0.82108E+07         0.00000E+00
    0.00000E+00         0.00000E+00        -0.17634E+07
 
   -0.64225E+06         0.45608E+06         0.00000E+00
    0.45608E+06        -0.82103E+07         0.00000E+00
    0.00000E+00         0.00000E+00        -0.17705E+07
 
   -0.67788E+06         0.52592E+06         0.00000E+00
    0.52592E+06        -0.82098E+07         0.00000E+00
    0.00000E+00         0.00000E+00        -0.17775E+07
 
   -0.71308E+06         0.59572E+06         0.00000E+00
    0.59572E+06        -0.82091E+07         0.00000E+00
    0.00000E+00         0.00000E+00        -0.17844E+07
 
   -0.74786E+06         0.66549E+06         0.00000E+00
    0.66549E+06        -0.82083E+07         0.00000E+00
    0.00000E+00         0.00000E+00        -0.17912E+07
 
   -0.78223E+06         0.73525E+06         0.00000E+00
    0.73525E+06        -0.82074E+07         0.00000E+00
    0.00000E+00         0.00000E+00        -0.17979E+07
 
   -0.81620E+06         0.80500E+06         0.00000E+00
    0.80500E+06        -0.82064E+07         0.00000E+00
    0.00000E+00         0.00000E+00        -0.18045E+07
 
   -0.84979E+06         0.87477E+06         0.00000E+00
    0.87477E+06        -0.82052E+07         0.00000E+00
    0.00000E+00         0.00000E+00        -0.18110E+07
 
   -0.88302E+06         0.94456E+06         0.00000E+00
    0.94456E+06        -0.82039E+07         0.00000E+00
    0.00000E+00         0.00000E+00        -0.18174E+07
 
   -0.91589E+06         0.10144E+07         0.00000E+00
    0.10144E+07        -0.82025E+07         0.00000E+00
    0.00000E+00         0.00000E+00        -0.18237E+07
 
   -0.94842E+06         0.10843E+07         0.00000E+00
    0.10843E+07        -0.82009E+07         0.00000E+00
    0.00000E+00         0.00000E+00        -0.18299E+07
 
   -0.98062E+06         0.11542E+07         0.00000E+00
    0.11542E+07        -0.81991E+07         0.00000E+00
    0.00000E+00         0.00000E+00        -0.18359E+07
 
   -0.10125E+07         0.12242E+07         0.00000E+00
    0.12242E+07        -0.81972E+07         0.00000E+00
    0.00000E+00         0.00000E+00        -0.18419E+07
 
   -0.10441E+07         0.12943E+07         0.00000E+00
    0.12943E+07        -0.81950E+07         0.00000E+00
    0.00000E+00         0.00000E+00        -0.18478E+07
 
   -0.10754E+07         0.13645E+07         0.00000E+00
    0.13645E+07        -0.81927E+07         0.00000E+00
    0.00000E+00         0.00000E+00        -0.18536E+07
 
   -0.11065E+07         0.14348E+07         0.00000E+00
    0.14348E+07        -0.81901E+07         0.00000E+00
    0.00000E+00         0.00000E+00        -0.18593E+07
 
   -0.11373E+07         0.15052E+07         0.00000E+00
    0.15052E+07        -0.81874E+07         0.00000E+00
    0.00000E+00         0.00000E+00        -0.18649E+07
 
   -0.11679E+07         0.15758E+07         0.00000E+00
    0.15758E+07        -0.81844E+07         0.00000E+00
    0.00000E+00         0.00000E+00        -0.18705E+07
 
   -0.11983E+07         0.16465E+07         0.00000E+00
    0.16465E+07        -0.81812E+07         0.00000E+00
    0.00000E+00         0.00000E+00        -0.18759E+07
 
   -0.12285E+07         0.17173E+07         0.00000E+00
    0.17173E+07        -0.81777E+07         0.00000E+00
    0.00000E+00         0.00000E+00        -0.18812E+07
 
   -0.12585E+07         0.17883E+07         0.00000E+00
    0.17883E+07        -0.81740E+07         0.00000E+00
    0.00000E+00         0.00000E+00        -0.18865E+07
 
   -0.12884E+07         0.18594E+07         0.00000E+00
    0.18594E+07        -0.81700E+07         0.00000E+00
    0.00000E+00         0.00000E+00        -0.18917E+07
 
   -0.13181E+07         0.19308E+07         0.00000E+00
    0.19308E+07        -0.81657E+07         0.00000E+00
    0.00000E+00         0.00000E+00        -0.18968E+07
 
   -0.13477E+07         0.20023E+07         0.00000E+00
    0.20023E+07        -0.81611E+07         0.00000E+00
    0.00000E+00         0.00000E+00        -0.19018E+07
 
   -0.13772E+07         0.20740E+07         0.00000E+00
    0.20740E+07        -0.81563E+07         0.00000E+00
    0.00000E+00         0.00000E+00        -0.19067E+07
 
   -0.14066E+07         0.21459E+07         0.00000E+00
    0.21459E+07        -0.81511E+07         0.00000E+00
    0.00000E+00         0.00000E+00        -0.19115E+07
 
   -0.14359E+07         0.22180E+07         0.00000E+00
    0.22180E+07        -0.81456E+07         0.00000E+00
    0.00000E+00         0.00000E+00        -0.19163E+07
 
   -0.14652E+07         0.22903E+07         0.00000E+00
    0.22903E+07        -0.81397E+07         0.00000E+00
    0.00000E+00         0.00000E+00        -0.19210E+07
 
   -0.14945E+07         0.23629E+07         0.00000E+00
    0.23629E+07        -0.81335E+07         0.00000E+00
    0.00000E+00         0.00000E+00        -0.19256E+07
 
   -0.15238E+07         0.24357E+07         0.00000E+00
    0.24357E+07        -0.81269E+07         0.00000E+00
    0.00000E+00         0.00000E+00        -0.19301E+07
 
   -0.15530E+07         0.25087E+07         0.00000E+00
    0.25087E+07        -0.81200E+07         0.00000E+00
    0.00000E+00         0.00000E+00        -0.19346E+07
 
   -0.15824E+07         0.25820E+07         0.00000E+00
    0.25820E+07        -0.81126E+07         0.00000E+00
    0.00000E+00         0.00000E+00        -0.19390E+07
 
   -0.16117E+07         0.26555E+07         0.00000E+00
    0.26555E+07        -0.81049E+07         0.00000E+00
    0.00000E+00         0.00000E+00        -0.19433E+07
 
   -0.16412E+07         0.27293E+07         0.00000E+00
    0.27293E+07        -0.80967E+07         0.00000E+00
    0.00000E+00         0.00000E+00        -0.19476E+07
 
   -0.16707E+07         0.28033E+07         0.00000E+00
    0.28033E+07        -0.80881E+07         0.00000E+00
    0.00000E+00         0.00000E+00        -0.19518E+07
 
   -0.17004E+07         0.28776E+07         0.00000E+00
    0.28776E+07        -0.80791E+07         0.00000E+00
    0.00000E+00         0.00000E+00        -0.19559E+07
 
   -0.17302E+07         0.29522E+07         0.00000E+00
    0.29522E+07        -0.80696E+07         0.00000E+00
    0.00000E+00         0.00000E+00        -0.19600E+07
 
   -0.17602E+07         0.30270E+07         0.00000E+00
    0.30270E+07        -0.80597E+07         0.00000E+00
    0.00000E+00         0.00000E+00        -0.19640E+07
 
   -0.17903E+07         0.31021E+07         0.00000E+00
    0.31021E+07        -0.80492E+07         0.00000E+00
    0.00000E+00         0.00000E+00        -0.19679E+07
 
   -0.18207E+07         0.31776E+07         0.00000E+00
    0.31776E+07        -0.80383E+07         0.00000E+00
    0.00000E+00         0.00000E+00        -0.19718E+07
 
   -0.18512E+07         0.32532E+07         0.00000E+00
    0.32532E+07        -0.80268E+07         0.00000E+00
    0.00000E+00         0.00000E+00        -0.19756E+07
 
   -0.18821E+07         0.33292E+07         0.00000E+00
    0.33292E+07        -0.80149E+07         0.00000E+00
    0.00000E+00         0.00000E+00        -0.19794E+07
 
   -0.19132E+07         0.34055E+07         0.00000E+00
    0.34055E+07        -0.80024E+07         0.00000E+00
    0.00000E+00         0.00000E+00        -0.19831E+07
 
   -0.19445E+07         0.34821E+07         0.00000E+00
    0.34821E+07        -0.79893E+07         0.00000E+00
    0.00000E+00         0.00000E+00        -0.19868E+07
 
   -0.19762E+07         0.35590E+07         0.00000E+00
    0.35590E+07        -0.79757E+07         0.00000E+00
    0.00000E+00         0.00000E+00        -0.19904E+07
 
   -0.59958E+06         0.35466E+05         0.00000E+00
    0.35466E+05        -0.87456E+07         0.00000E+00
    0.00000E+00         0.00000E+00        -0.18690E+07
 
   -0.63866E+06         0.10611E+06         0.00000E+00
    0.10611E+06        -0.87456E+07         0.00000E+00
    0.00000E+00         0.00000E+00        -0.18769E+07
 
   -0.67716E+06         0.17665E+06         0.00000E+00
    0.17665E+06        -0.87455E+07         0.00000E+00
    0.00000E+00         0.00000E+00        -0.18845E+07
 
   -0.71510E+06         0.24711E+06         0.00000E+00
    0.24711E+06        -0.87454E+07         0.00000E+00
    0.00000E+00         0.00000E+00        -0.18921E+07
 
   -0.75249E+06         0.31749E+06         0.00000E+00
    0.31749E+06        -0.87453E+07         0.00000E+00
    0.00000E+00         0.00000E+00        -0.18996E+07
 
   -0.78933E+06         0.38783E+06         0.00000E+00
    0.38783E+06        -0.87451E+07         0.00000E+00
    0.00000E+00         0.00000E+00        -0.19069E+07
 
   -0.82564E+06         0.45812E+06         0.00000E+00
    0.45812E+06        -0.87448E+07         0.00000E+00
    0.00000E+00         0.00000E+00        -0.19141E+07
 
   -0.86143E+06         0.52840E+06         0.00000E+00
    0.52840E+06        -0.87445E+07         0.00000E+00
    0.00000E+00         0.00000E+00        -0.19212E+07
 
   -0.89671E+06         0.59866E+06         0.00000E+00
    0.59866E+06        -0.87441E+07         0.00000E+00
    0.00000E+00         0.00000E+00        -0.19282E+07
 
   -0.93150E+06         0.66894E+06         0.00000E+00
    0.66894E+06        -0.87436E+07         0.00000E+00
    0.00000E+00         0.00000E+00        -0.19350E+07
 
   -0.96581E+06         0.73924E+06         0.00000E+00
    0.73924E+06        -0.87430E+07         0.00000E+00
    0.00000E+00         0.00000E+00        -0.19418E+07
 
   -0.99966E+06         0.80958E+06         0.00000E+00
    0.80958E+06        -0.87424E+07         0.00000E+00
    0.00000E+00         0.00000E+00        -0.19484E+07
 
   -0.10331E+07         0.87997E+06         0.00000E+00
    0.87997E+06        -0.87416E+07         0.00000E+00
    0.00000E+00         0.00000E+00        -0.19549E+07
 
   -0.10660E+07         0.95043E+06         0.00000E+00
    0.95043E+06        -0.87407E+07         0.00000E+00
    0.00000E+00         0.00000E+00        -0.19613E+07
 
   -0.10986E+07         0.10210E+07         0.00000E+00
    0.10210E+07        -0.87397E+07         0.00000E+00
    0.00000E+00         0.00000E+00        -0.19676E+07
 
   -0.11307E+07         0.10916E+07         0.00000E+00
    0.10916E+07        -0.87385E+07         0.00000E+00
    0.00000E+00         0.00000E+00        -0.19738E+07
 
   -0.11625E+07         0.11624E+07         0.00000E+00
    0.11624E+07        -0.87372E+07         0.00000E+00
    0.00000E+00         0.00000E+00        -0.19799E+07
 
   -0.11938E+07         0.12332E+07         0.00000E+00
    0.12332E+07        -0.87358E+07         0.00000E+00
    0.00000E+00         0.00000E+00        -0.19859E+07
 
   -0.12249E+07         0.13042E+07         0.00000E+00
    0.13042E+07        -0.87341E+07         0.00000E+00
    0.00000E+00         0.00000E+00        -0.19918E+07
 
   -0.12556E+07         0.13754E+07         0.00000E+00
    0.13754E+07        -0.87324E+07         0.00000E+00
    0.00000E+00         0.00000E+00        -0.19976E+07
 
   -0.12859E+07         0.14467E+07         0.00000E+00
    0.14467E+07        -0.87304E+07         0.00000E+00
    0.00000E+00         0.00000E+00        -0.20033E+07
 
   -0.13160E+07         0.15182E+07         0.00000E+00
    0.15182E+07        -0.87282E+07         0.00000E+00
    0.00000E+00         0.00000E+00        -0.20088E+07
 
   -0.13458E+07         0.15898E+07         0.00000E+00
    0.15898E+07        -0.87258E+07         0.00000E+00
    0.00000E+00         0.00000E+00        -0.20143E+07
 
   -0.13753E+07         0.16617E+07         0.00000E+00
    0.16617E+07        -0.87232E+07         0.00000E+00
    0.00000E+00         0.00000E+00        -0.20197E+07
 
   -0.14046E+07         0.17337E+07         0.00000E+00
    0.17337E+07        -0.87204E+07         0.00000E+00
    0.00000E+00         0.00000E+00        -0.20250E+07
 
   -0.14337E+07         0.18060E+07         0.00000E+00
    0.18060E+07        -0.87173E+07         0.00000E+00
    0.00000E+00         0.00000E+00        -0.20302E+07
 
   -0.14625E+07         0.18785E+07         0.00000E+00
    0.18785E+07        -0.87140E+07         0.00000E+00
    0.00000E+00         0.00000E+00        -0.20353E+07
 
   -0.14912E+07         0.19512E+07         0.00000E+00
    0.19512E+07        -0.87104E+07         0.00000E+00
    0.00000E+00         0.00000E+00        -0.20403E+07
 
   -0.15197E+07         0.20242E+07         0.00000E+00
    0.20242E+07        -0.87066E+07         0.00000E+00
    0.00000E+00         0.00000E+00        -0.20452E+07
 
   -0.15480E+07         0.20974E+07         0.00000E+00
    0.20974E+07        -0.87024E+07         0.00000E+00
    0.00000E+00         0.00000E+00        -0.20501E+07
 
   -0.15763E+07         0.21709E+07         0.00000E+00
    0.21709E+07        -0.86979E+07         0.00000E+00
    0.00000E+00         0.00000E+00        -0.20548E+07
 
   -0.16044E+07         0.22447E+07         0.00000E+00
    0.22447E+07        -0.86932E+07         0.00000E+00
    0.00000E+00         0.00000E+00        -0.20595E+07
 
   -0.16324E+07         0.23187E+07         0.00000E+00
    0.23187E+07        -0.86880E+07         0.00000E+00
    0.00000E+00         0.00000E+00        -0.20641E+07
 
   -0.16604E+07         0.23930E+07         0.00000E+00
    0.23930E+07        -0.86826E+07         0.00000E+00
    0.00000E+00         0.00000E+00        -0.20686E+07
 
   -0.16884E+07         0.24677E+07         0.00000E+00
    0.24677E+07        -0.86768E+07         0.00000E+00
    0.00000E+00         0.00000E+00        -0.20730E+07
 
   -0.17163E+07         0.25426E+07         0.00000E+00
    0.25426E+07        -0.86706E+07         0.00000E+00
    0.00000E+00         0.00000E+00        -0.20774E+07
 
   -0.17442E+07         0.26178E+07         0.00000E+00
    0.26178E+07        -0.86640E+07         0.00000E+00
    0.00000E+00         0.00000E+00        -0.20816E+07
 
   -0.17721E+07         0.26934E+07         0.00000E+00
    0.26934E+07        -0.86571E+07         0.00000E+00
    0.00000E+00         0.00000E+00        -0.20858E+07
 
   -0.18001E+07         0.27693E+07         0.00000E+00
    0.27693E+07        -0.86497E+07         0.00000E+00
    0.00000E+00         0.00000E+00        -0.20900E+07
 
   -0.18282E+07         0.28455E+07         0.00000E+00
    0.28455E+07        -0.86419E+07         0.00000E+00
    0.00000E+00         0.00000E+00        -0.20940E+07
 
   -0.18563E+07         0.29220E+07         0.00000E+00
    0.29220E+07        -0.86336E+07         0.00000E+00
    0.00000E+00         0.00000E+00        -0.20980E+07
 
   -0.18846E+07         0.29989E+07         0.00000E+00
    0.29989E+07        -0.86249E+07         0.00000E+00
    0.00000E+00         0.00000E+00        -0.21019E+07
 
   -0.19130E+07         0.30761E+07         0.00000E+00
    0.30761E+07        -0.86158E+07         0.00000E+00
    0.00000E+00         0.00000E+00        -0.21058E+07
 
   -0.19416E+07         0.31537E+07         0.00000E+00
    0.31537E+07        -0.86061E+07         0.00000E+00
    0.00000E+00         0.00000E+00        -0.21095E+07
 
   -0.19703E+07         0.32316E+07         0.00000E+00
    0.32316E+07        -0.85960E+07         0.00000E+00
    0.00000E+00         0.00000E+00        -0.21133E+07
 
   -0.19993E+07         0.33099E+07         0.00000E+00
    0.33099E+07        -0.85853E+07         0.00000E+00
    0.00000E+00         0.00000E+00        -0.21169E+07
 
   -0.20284E+07         0.33886E+07         0.00000E+00
    0.33886E+07        -0.85741E+07         0.00000E+00
    0.00000E+00         0.00000E+00        -0.21205E+07
 
   -0.20579E+07         0.34676E+07         0.00000E+00
    0.34676E+07        -0.85624E+07         0.00000E+00
    0.00000E+00         0.00000E+00        -0.21240E+07
 
   -0.20876E+07         0.35470E+07         0.00000E+00
    0.35470E+07        -0.85501E+07         0.00000E+00
    0.00000E+00         0.00000E+00        -0.21275E+07
 
   -0.21176E+07         0.36268E+07         0.00000E+00
    0.36268E+07        -0.85372E+07         0.00000E+00
    0.00000E+00         0.00000E+00        -0.21310E+07
 
   -0.80132E+06         0.35473E+05         0.00000E+00
    0.35473E+05        -0.93011E+07         0.00000E+00
    0.00000E+00         0.00000E+00        -0.20205E+07
 
   -0.84088E+06         0.10619E+06         0.00000E+00
    0.10619E+06        -0.93011E+07         0.00000E+00
    0.00000E+00         0.00000E+00        -0.20284E+07
 
   -0.87979E+06         0.17683E+06         0.00000E+00
    0.17683E+06        -0.93011E+07         0.00000E+00
    0.00000E+00         0.00000E+00        -0.20362E+07
 
   -0.91804E+06         0.24741E+06         0.00000E+00
    0.24741E+06        -0.93011E+07         0.00000E+00
    0.00000E+00         0.00000E+00        -0.20438E+07
 
   -0.95565E+06         0.31796E+06         0.00000E+00
    0.31796E+06        -0.93011E+07         0.00000E+00
    0.00000E+00         0.00000E+00        -0.20514E+07
 
   -0.99263E+06         0.38848E+06         0.00000E+00
    0.38848E+06        -0.93011E+07         0.00000E+00
    0.00000E+00         0.00000E+00        -0.20588E+07
 
   -0.10290E+07         0.45901E+06         0.00000E+00
    0.45901E+06        -0.93011E+07         0.00000E+00
    0.00000E+00         0.00000E+00        -0.20660E+07
 
   -0.10648E+07         0.52955E+06         0.00000E+00
    0.52955E+06        -0.93010E+07         0.00000E+00
    0.00000E+00         0.00000E+00        -0.20732E+07
 
   -0.10999E+07         0.60012E+06         0.00000E+00
    0.60012E+06        -0.93009E+07         0.00000E+00
    0.00000E+00         0.00000E+00        -0.20802E+07
 
   -0.11345E+07         0.67074E+06         0.00000E+00
    0.67074E+06        -0.93008E+07         0.00000E+00
    0.00000E+00         0.00000E+00        -0.20871E+07
 
   -0.11686E+07         0.74143E+06         0.00000E+00
    0.74143E+06        -0.93006E+07         0.00000E+00
    0.00000E+00         0.00000E+00        -0.20938E+07
 
   -0.12021E+07         0.81220E+06         0.00000E+00
    0.81220E+06        -0.93003E+07         0.00000E+00
    0.00000E+00         0.00000E+00        -0.21005E+07
 
   -0.12351E+07         0.88307E+06         0.00000E+00
    0.88307E+06        -0.93000E+07         0.00000E+00
    0.00000E+00         0.00000E+00        -0.21070E+07
 
   -0.12676E+07         0.95406E+06         0.00000E+00
    0.95406E+06        -0.92996E+07         0.00000E+00
    0.00000E+00         0.00000E+00        -0.21134E+07
 
   -0.12995E+07         0.10252E+07         0.00000E+00
    0.10252E+07        -0.92990E+07         0.00000E+00
    0.00000E+00         0.00000E+00        -0.21197E+07
 
   -0.13310E+07         0.10964E+07         0.00000E+00
    0.10964E+07        -0.92984E+07         0.00000E+00
    0.00000E+00         0.00000E+00        -0.21259E+07
 
   -0.13621E+07         0.11678E+07         0.00000E+00
    0.11678E+07        -0.92977E+07         0.00000E+00
    0.00000E+00         0.00000E+00        -0.21320E+07
 
   -0.13927E+07         0.12394E+07         0.00000E+00
    0.12394E+07        -0.92968E+07         0.00000E+00
    0.00000E+00         0.00000E+00        -0.21379E+07
 
   -0.14229E+07         0.13112E+07         0.00000E+00
    0.13112E+07        -0.92958E+07         0.00000E+00
    0.00000E+00         0.00000E+00        -0.21437E+07
 
   -0.14527E+07         0.13832E+07         0.00000E+00
    0.13832E+07        -0.92947E+07         0.00000E+00
    0.00000E+00         0.00000E+00        -0.21495E+07
 
   -0.14821E+07         0.14554E+07         0.00000E+00
    0.14554E+07        -0.92934E+07         0.00000E+00
    0.00000E+00         0.00000E+00        -0.21551E+07
 
   -0.15111E+07         0.15278E+07         0.00000E+00
    0.15278E+07        -0.92919E+07         0.00000E+00
    0.00000E+00         0.00000E+00        -0.21606E+07
 
   -0.15398E+07         0.16005E+07         0.00000E+00
    0.16005E+07        -0.92902E+07         0.00000E+00
    0.00000E+00         0.00000E+00        -0.21660E+07
 
   -0.15682E+07         0.16734E+07         0.00000E+00
    0.16734E+07        -0.92883E+07         0.00000E+00
    0.00000E+00         0.00000E+00        -0.21713E+07
 
   -0.15963E+07         0.17466E+07         0.00000E+00
    0.17466E+07        -0.92863E+07         0.00000E+00
    0.00000E+00         0.00000E+00        -0.21765E+07
 
   -0.16241E+07         0.18201E+07         0.00000E+00
    0.18201E+07        -0.92840E+07         0.00000E+00
    0.00000E+00         0.00000E+00        -0.21816E+07
 
   -0.16516E+07         0.18938E+07         0.00000E+00
    0.18938E+07        -0.92814E+07         0.00000E+00
    0.00000E+00         0.00000E+00        -0.21866E+07
 
   -0.16790E+07         0.19679E+07         0.00000E+00
    0.19679E+07        -0.92787E+07         0.00000E+00
    0.00000E+00         0.00000E+00        -0.21915E+07
 
   -0.17060E+07         0.20423E+07         0.00000E+00
    0.20423E+07        -0.92756E+07         0.00000E+00
    0.00000E+00         0.00000E+00        -0.21963E+07
 
   -0.17329E+07         0.21169E+07         0.00000E+00
    0.21169E+07        -0.92723E+07         0.00000E+00
    0.00000E+00         0.00000E+00        -0.22010E+07
 
   -0.17597E+07         0.21920E+07         0.00000E+00
    0.21920E+07        -0.92687E+07         0.00000E+00
    0.00000E+00         0.00000E+00        -0.22057E+07
 
   -0.17863E+07         0.22673E+07         0.00000E+00
    0.22673E+07        -0.92648E+07         0.00000E+00
    0.00000E+00         0.00000E+00        -0.22102E+07
 
   -0.18127E+07         0.23430E+07         0.00000E+00
    0.23430E+07        -0.92605E+07         0.00000E+00
    0.00000E+00         0.00000E+00        -0.22146E+07
 
   -0.18391E+07         0.24191E+07         0.00000E+00
    0.24191E+07        -0.92560E+07         0.00000E+00
    0.00000E+00         0.00000E+00        -0.22190E+07
 
   -0.18653E+07         0.24955E+07         0.00000E+00
    0.24955E+07        -0.92510E+07         0.00000E+00
    0.00000E+00         0.00000E+00        -0.22233E+07
 
   -0.18915E+07         0.25723E+07         0.00000E+00
    0.25723E+07        -0.92458E+07         0.00000E+00
    0.00000E+00         0.00000E+00        -0.22275E+07
 
   -0.19177E+07         0.26495E+07         0.00000E+00
    0.26495E+07        -0.92401E+07         0.00000E+00
    0.00000E+00         0.00000E+00        -0.22316E+07
 
   -0.19439E+07         0.27270E+07         0.00000E+00
    0.27270E+07        -0.92341E+07         0.00000E+00
    0.00000E+00         0.00000E+00        -0.22356E+07
 
   -0.19701E+07         0.28050E+07         0.00000E+00
    0.28050E+07        -0.92276E+07         0.00000E+00
    0.00000E+00         0.00000E+00        -0.22395E+07
 
   -0.19963E+07         0.28833E+07         0.00000E+00
    0.28833E+07        -0.92208E+07         0.00000E+00
    0.00000E+00         0.00000E+00        -0.22434E+07
 
   -0.20226E+07         0.29621E+07         0.00000E+00
    0.29621E+07        -0.92135E+07         0.00000E+00
    0.00000E+00         0.00000E+00        -0.22472E+07
 
   -0.20489E+07         0.30413E+07         0.00000E+00
    0.30413E+07        -0.92057E+07         0.00000E+00
    0.00000E+00         0.00000E+00        -0.22509E+07
 
   -0.20754E+07         0.31209E+07         0.00000E+00
    0.31209E+07        -0.91975E+07         0.00000E+00
    0.00000E+00         0.00000E+00        -0.22546E+07
 
   -0.21020E+07         0.32009E+07         0.00000E+00
    0.32009E+07        -0.91888E+07         0.00000E+00
    0.00000E+00         0.00000E+00        -0.22582E+07
 
   -0.21288E+07         0.32814E+07         0.00000E+00
    0.32814E+07        -0.91796E+07         0.00000E+00
    0.00000E+00         0.00000E+00        -0.22617E+07
 
   -0.21557E+07         0.33623E+07         0.00000E+00
    0.33623E+07        -0.91699E+07         0.00000E+00
    0.00000E+00         0.00000E+00        -0.22651E+07
 
   -0.21829E+07         0.34436E+07         0.00000E+00
    0.34436E+07        -0.91596E+07         0.00000E+00
    0.00000E+00         0.00000E+00        -0.22685E+07
 
   -0.22103E+07         0.35254E+07         0.00000E+00
    0.35254E+07        -0.91488E+07         0.00000E+00
    0.00000E+00         0.00000E+00        -0.22718E+07
 
   -0.22379E+07         0.36077E+07         0.00000E+00
    0.36077E+07        -0.91375E+07         0.00000E+00
    0.00000E+00         0.00000E+00        -0.22751E+07
 
   -0.22658E+07         0.36904E+07         0.00000E+00
    0.36904E+07        -0.91256E+07         0.00000E+00
    0.00000E+00         0.00000E+00        -0.22783E+07
 
   -0.10252E+07         0.35370E+05         0.00000E+00
    0.35370E+05        -0.98785E+07         0.00000E+00
    0.00000E+00         0.00000E+00        -0.21807E+07
 
   -0.10651E+07         0.10594E+06         0.00000E+00
    0.10594E+06        -0.98785E+07         0.00000E+00
    0.00000E+00         0.00000E+00        -0.21887E+07
 
   -0.11043E+07         0.17647E+06         0.00000E+00
    0.17647E+06        -0.98786E+07         0.00000E+00
    0.00000E+00         0.00000E+00        -0.21966E+07
 
   -0.11427E+07         0.24697E+06         0.00000E+00
    0.24697E+06        -0.98788E+07         0.00000E+00
    0.00000E+00         0.00000E+00        -0.22043E+07
 
   -0.11804E+07         0.31747E+06         0.00000E+00
    0.31747E+06        -0.98790E+07         0.00000E+00
    0.00000E+00         0.00000E+00        -0.22119E+07
 
   -0.12173E+07         0.38799E+06         0.00000E+00
    0.38799E+06        -0.98792E+07         0.00000E+00
    0.00000E+00         0.00000E+00        -0.22193E+07
 
   -0.12535E+07         0.45855E+06         0.00000E+00
    0.45855E+06        -0.98794E+07         0.00000E+00
    0.00000E+00         0.00000E+00        -0.22266E+07
 
   -0.12891E+07         0.52916E+06         0.00000E+00
    0.52916E+06        -0.98797E+07         0.00000E+00
    0.00000E+00         0.00000E+00        -0.22338E+07
 
   -0.13240E+07         0.59984E+06         0.00000E+00
    0.59984E+06        -0.98799E+07         0.00000E+00
    0.00000E+00         0.00000E+00        -0.22408E+07
 
   -0.13582E+07         0.67062E+06         0.00000E+00
    0.67062E+06        -0.98802E+07         0.00000E+00
    0.00000E+00         0.00000E+00        -0.22477E+07
 
   -0.13917E+07         0.74152E+06         0.00000E+00
    0.74152E+06        -0.98804E+07         0.00000E+00
    0.00000E+00         0.00000E+00        -0.22544E+07
 
   -0.14246E+07         0.81254E+06         0.00000E+00
    0.81254E+06        -0.98806E+07         0.00000E+00
    0.00000E+00         0.00000E+00        -0.22611E+07
 
   -0.14570E+07         0.88371E+06         0.00000E+00
    0.88371E+06        -0.98808E+07         0.00000E+00
    0.00000E+00         0.00000E+00        -0.22676E+07
 
   -0.14887E+07         0.95506E+06         0.00000E+00
    0.95506E+06        -0.98809E+07         0.00000E+00
    0.00000E+00         0.00000E+00        -0.22739E+07
 
   -0.15198E+07         0.10266E+07         0.00000E+00
    0.10266E+07        -0.98810E+07         0.00000E+00
    0.00000E+00         0.00000E+00        -0.22802E+07
 
   -0.15504E+07         0.10983E+07         0.00000E+00
    0.10983E+07        -0.98810E+07         0.00000E+00
    0.00000E+00         0.00000E+00        -0.22863E+07
 
   -0.15805E+07         0.11702E+07         0.00000E+00
    0.11702E+07        -0.98809E+07         0.00000E+00
    0.00000E+00         0.00000E+00        -0.22923E+07
 
   -0.16101E+07         0.12424E+07         0.00000E+00
    0.12424E+07        -0.98807E+07         0.00000E+00
    0.00000E+00         0.00000E+00        -0.22982E+07
 
   -0.16391E+07         0.13148E+07         0.00000E+00
    0.13148E+07        -0.98804E+07         0.00000E+00
    0.00000E+00         0.00000E+00        -0.23039E+07
 
   -0.16677E+07         0.13875E+07         0.00000E+00
    0.13875E+07        -0.98800E+07         0.00000E+00
    0.00000E+00         0.00000E+00        -0.23096E+07
 
   -0.16959E+07         0.14605E+07         0.00000E+00
    0.14605E+07        -0.98795E+07         0.00000E+00
    0.00000E+00         0.00000E+00        -0.23151E+07
 
   -0.17236E+07         0.15338E+07         0.00000E+00
    0.15338E+07        -0.98788E+07         0.00000E+00
    0.00000E+00         0.00000E+00        -0.23205E+07
 
   -0.17509E+07         0.16073E+07         0.00000E+00
    0.16073E+07        -0.98780E+07         0.00000E+00
    0.00000E+00         0.00000E+00        -0.23258E+07
 
   -0.17778E+07         0.16812E+07         0.00000E+00
    0.16812E+07        -0.98769E+07         0.00000E+00
    0.00000E+00         0.00000E+00        -0.23310E+07
 
   -0.18044E+07         0.17554E+07         0.00000E+00
    0.17554E+07        -0.98757E+07         0.00000E+00
    0.00000E+00         0.00000E+00        -0.23360E+07
 
   -0.18306E+07         0.18300E+07         0.00000E+00
    0.18300E+07        -0.98743E+07         0.00000E+00
    0.00000E+00         0.00000E+00        -0.23410E+07
 
   -0.18565E+07         0.19049E+07         0.00000E+00
    0.19049E+07        -0.98727E+07         0.00000E+00
    0.00000E+00         0.00000E+00        -0.23458E+07
 
   -0.18821E+07         0.19802E+07         0.00000E+00
    0.19802E+07        -0.98709E+07         0.00000E+00
    0.00000E+00         0.00000E+00        -0.23506E+07
 
   -0.19074E+07         0.20558E+07         0.00000E+00
    0.20558E+07        -0.98688E+07         0.00000E+00
    0.00000E+00         0.00000E+00        -0.23553E+07
 
   -0.19325E+07         0.21319E+07         0.00000E+00
    0.21319E+07        -0.98665E+07         0.00000E+00
    0.00000E+00         0.00000E+00        -0.23598E+07
 
   -0.19574E+07         0.22084E+07         0.00000E+00
    0.22084E+07        -0.98638E+07         0.00000E+00
    0.00000E+00         0.00000E+00        -0.23643E+07
 
   -0.19821E+07         0.22852E+07         0.00000E+00
    0.22852E+07        -0.98609E+07         0.00000E+00
    0.00000E+00         0.00000E+00        -0.23686E+07
 
   -0.20066E+07         0.23625E+07         0.00000E+00
    0.23625E+07        -0.98577E+07         0.00000E+00
    0.00000E+00         0.00000E+00        -0.23729E+07
 
   -0.20310E+07         0.24403E+07         0.00000E+00
    0.24403E+07        -0.98542E+07         0.00000E+00
    0.00000E+00         0.00000E+00        -0.23770E+07
 
   -0.20552E+07         0.25184E+07         0.00000E+00
    0.25184E+07        -0.98503E+07         0.00000E+00
    0.00000E+00         0.00000E+00        -0.23811E+07
 
   -0.20794E+07         0.25970E+07         0.00000E+00
    0.25970E+07        -0.98461E+07         0.00000E+00
    0.00000E+00         0.00000E+00        -0.23851E+07
 
   -0.21034E+07         0.26761E+07         0.00000E+00
    0.26761E+07        -0.98415E+07         0.00000E+00
    0.00000E+00         0.00000E+00        -0.23890E+07
 
   -0.21274E+07         0.27556E+07         0.00000E+00
    0.27556E+07        -0.98366E+07         0.00000E+00
    0.00000E+00         0.00000E+00        -0.23928E+07
 
   -0.21514E+07         0.28356E+07         0.00000E+00
    0.28356E+07        -0.98312E+07         0.00000E+00
    0.00000E+00         0.00000E+00        -0.23965E+07
 
   -0.21754E+07         0.29161E+07         0.00000E+00
    0.29161E+07        -0.98254E+07         0.00000E+00
    0.00000E+00         0.00000E+00        -0.24002E+07
 
   -0.21995E+07         0.29971E+07         0.00000E+00
    0.29971E+07        -0.98192E+07         0.00000E+00
    0.00000E+00         0.00000E+00        -0.24037E+07
 
   -0.22235E+07         0.30786E+07         0.00000E+00
    0.30786E+07        -0.98126E+07         0.00000E+00
    0.00000E+00         0.00000E+00        -0.24072E+07
 
   -0.22477E+07         0.31605E+07         0.00000E+00
    0.31605E+07        -0.98055E+07         0.00000E+00
    0.00000E+00         0.00000E+00        -0.24106E+07
 
   -0.22719E+07         0.32430E+07         0.00000E+00
    0.32430E+07        -0.97979E+07         0.00000E+00
    0.00000E+00         0.00000E+00        -0.24140E+07
 
   -0.22963E+07         0.33260E+07         0.00000E+00
    0.33260E+07        -0.97898E+07         0.00000E+00
    0.00000E+00         0.00000E+00        -0.24172E+07
 
   -0.23209E+07         0.34095E+07         0.00000E+00
    0.34095E+07        -0.97812E+07         0.00000E+00
    0.00000E+00         0.00000E+00        -0.24204E+07
 
   -0.23456E+07         0.34935E+07         0.00000E+00
    0.34935E+07        -0.97721E+07         0.00000E+00
    0.00000E+00         0.00000E+00        -0.24235E+07
 
   -0.23706E+07         0.35781E+07         0.00000E+00
    0.35781E+07        -0.97624E+07         0.00000E+00
    0.00000E+00         0.00000E+00        -0.24266E+07
 
   -0.23957E+07         0.36632E+07         0.00000E+00
    0.36632E+07        -0.97522E+07         0.00000E+00
    0.00000E+00         0.00000E+00        -0.24296E+07
 
   -0.24212E+07         0.37488E+07         0.00000E+00
    0.37488E+07        -0.97414E+07         0.00000E+00
    0.00000E+00         0.00000E+00        -0.24325E+07
 
   -0.12727E+07         0.35140E+05         0.00000E+00
    0.35140E+05        -0.10478E+08         0.00000E+00
    0.00000E+00         0.00000E+00        -0.23501E+07
 
   -0.13128E+07         0.10532E+06         0.00000E+00
    0.10532E+06        -0.10478E+08         0.00000E+00
    0.00000E+00         0.00000E+00        -0.23582E+07
 
   -0.13520E+07         0.17549E+06         0.00000E+00
    0.17549E+06        -0.10478E+08         0.00000E+00
    0.00000E+00         0.00000E+00        -0.23661E+07
 
   -0.13904E+07         0.24567E+06         0.00000E+00
    0.24567E+06        -0.10479E+08         0.00000E+00
    0.00000E+00         0.00000E+00        -0.23738E+07
 
   -0.14280E+07         0.31589E+06         0.00000E+00
    0.31589E+06        -0.10479E+08         0.00000E+00
    0.00000E+00         0.00000E+00        -0.23814E+07
 
   -0.14647E+07         0.38616E+06         0.00000E+00
    0.38616E+06        -0.10480E+08         0.00000E+00
    0.00000E+00         0.00000E+00        -0.23888E+07
 
   -0.15006E+07         0.45651E+06         0.00000E+00
    0.45651E+06        -0.10480E+08         0.00000E+00
    0.00000E+00         0.00000E+00        -0.23961E+07
 
   -0.15357E+07         0.52697E+06         0.00000E+00
    0.52697E+06        -0.10481E+08         0.00000E+00
    0.00000E+00         0.00000E+00        -0.24033E+07
 
   -0.15700E+07         0.59755E+06         0.00000E+00
    0.59755E+06        -0.10481E+08         0.00000E+00
    0.00000E+00         0.00000E+00        -0.24103E+07
 
   -0.16035E+07         0.66827E+06         0.00000E+00
    0.66827E+06        -0.10482E+08         0.00000E+00
    0.00000E+00         0.00000E+00        -0.24171E+07
 
   -0.16363E+07         0.73916E+06         0.00000E+00
    0.73916E+06        -0.10483E+08         0.00000E+00
    0.00000E+00         0.00000E+00        -0.24238E+07
 
   -0.16684E+07         0.81023E+06         0.00000E+00
    0.81023E+06        -0.10484E+08         0.00000E+00
    0.00000E+00         0.00000E+00        -0.24304E+07
 
   -0.16998E+07         0.88151E+06         0.00000E+00
    0.88151E+06        -0.10484E+08         0.00000E+00
    0.00000E+00         0.00000E+00        -0.24368E+07
 
   -0.17305E+07         0.95301E+06         0.00000E+00
    0.95301E+06        -0.10485E+08         0.00000E+00
    0.00000E+00         0.00000E+00        -0.24431E+07
 
   -0.17606E+07         0.10248E+07         0.00000E+00
    0.10248E+07        -0.10486E+08         0.00000E+00
    0.00000E+00         0.00000E+00        -0.24493E+07
 
   -0.17900E+07         0.10968E+07         0.00000E+00
    0.10968E+07        -0.10487E+08         0.00000E+00
    0.00000E+00         0.00000E+00        -0.24553E+07
 
   -0.18188E+07         0.11691E+07         0.00000E+00
    0.11691E+07        -0.10487E+08         0.00000E+00
    0.00000E+00         0.00000E+00        -0.24612E+07
 
   -0.18470E+07         0.12416E+07         0.00000E+00
    0.12416E+07        -0.10488E+08         0.00000E+00
    0.00000E+00         0.00000E+00        -0.24670E+07
 
   -0.18746E+07         0.13146E+07         0.00000E+00
    0.13146E+07        -0.10488E+08         0.00000E+00
    0.00000E+00         0.00000E+00        -0.24726E+07
 
   -0.19016E+07         0.13878E+07         0.00000E+00
    0.13878E+07        -0.10489E+08         0.00000E+00
    0.00000E+00         0.00000E+00        -0.24781E+07
 
   -0.19282E+07         0.14614E+07         0.00000E+00
    0.14614E+07        -0.10489E+08         0.00000E+00
    0.00000E+00         0.00000E+00        -0.24835E+07
 
   -0.19542E+07         0.15353E+07         0.00000E+00
    0.15353E+07        -0.10489E+08         0.00000E+00
    0.00000E+00         0.00000E+00        -0.24887E+07
 
   -0.19798E+07         0.16096E+07         0.00000E+00
    0.16096E+07        -0.10489E+08         0.00000E+00
    0.00000E+00         0.00000E+00        -0.24939E+07
 
   -0.20049E+07         0.16843E+07         0.00000E+00
    0.16843E+07        -0.10489E+08         0.00000E+00
    0.00000E+00         0.00000E+00        -0.24989E+07
 
   -0.20296E+07         0.17595E+07         0.00000E+00
    0.17595E+07        -0.10489E+08         0.00000E+00
    0.00000E+00         0.00000E+00        -0.25038E+07
 
   -0.20539E+07         0.18350E+07         0.00000E+00
    0.18350E+07        -0.10489E+08         0.00000E+00
    0.00000E+00         0.00000E+00        -0.25086E+07
 
   -0.20778E+07         0.19110E+07         0.00000E+00
    0.19110E+07        -0.10488E+08         0.00000E+00
    0.00000E+00         0.00000E+00        -0.25132E+07
 
   -0.21013E+07         0.19874E+07         0.00000E+00
    0.19874E+07        -0.10488E+08         0.00000E+00
    0.00000E+00         0.00000E+00        -0.25178E+07
 
   -0.21245E+07         0.20642E+07         0.00000E+00
    0.20642E+07        -0.10487E+08         0.00000E+00
    0.00000E+00         0.00000E+00        -0.25222E+07
 
   -0.21475E+07         0.21416E+07         0.00000E+00
    0.21416E+07        -0.10485E+08         0.00000E+00
    0.00000E+00         0.00000E+00        -0.25266E+07
 
   -0.21701E+07         0.22194E+07         0.00000E+00
    0.22194E+07        -0.10484E+08         0.00000E+00
    0.00000E+00         0.00000E+00        -0.25308E+07
 
   -0.21925E+07         0.22977E+07         0.00000E+00
    0.22977E+07        -0.10482E+08         0.00000E+00
    0.00000E+00         0.00000E+00        -0.25349E+07
 
   -0.22147E+07         0.23765E+07         0.00000E+00
    0.23765E+07        -0.10480E+08         0.00000E+00
    0.00000E+00         0.00000E+00        -0.25390E+07
 
   -0.22367E+07         0.24558E+07         0.00000E+00
    0.24558E+07        -0.10478E+08         0.00000E+00
    0.00000E+00         0.00000E+00        -0.25429E+07
 
   -0.22585E+07         0.25357E+07         0.00000E+00
    0.25357E+07        -0.10475E+08         0.00000E+00
    0.00000E+00         0.00000E+00        -0.25467E+07
 
   -0.22802E+07         0.26161E+07         0.00000E+00
    0.26161E+07        -0.10472E+08         0.00000E+00
    0.00000E+00         0.00000E+00        -0.25505E+07
 
   -0.23017E+07         0.26970E+07         0.00000E+00
    0.26970E+07        -0.10469E+08         0.00000E+00
    0.00000E+00         0.00000E+00        -0.25541E+07
 
   -0.23232E+07         0.27784E+07         0.00000E+00
    0.27784E+07        -0.10465E+08         0.00000E+00
    0.00000E+00         0.00000E+00        -0.25576E+07
 
   -0.23446E+07         0.28604E+07         0.00000E+00
    0.28604E+07        -0.10461E+08         0.00000E+00
    0.00000E+00         0.00000E+00        -0.25611E+07
 
   -0.23660E+07         0.29430E+07         0.00000E+00
    0.29430E+07        -0.10456E+08         0.00000E+00
    0.00000E+00         0.00000E+00        -0.25645E+07
 
   -0.23874E+07         0.30261E+07         0.00000E+00
    0.30261E+07        -0.10451E+08         0.00000E+00
    0.00000E+00         0.00000E+00        -0.25678E+07
 
   -0.24087E+07         0.31099E+07         0.00000E+00
    0.31099E+07        -0.10446E+08         0.00000E+00
    0.00000E+00         0.00000E+00        -0.25710E+07
 
   -0.24302E+07         0.31942E+07         0.00000E+00
    0.31942E+07        -0.10440E+08         0.00000E+00
    0.00000E+00         0.00000E+00        -0.25741E+07
 
   -0.24517E+07         0.32791E+07         0.00000E+00
    0.32791E+07        -0.10434E+08         0.00000E+00
    0.00000E+00         0.00000E+00        -0.25771E+07
 
   -0.24733E+07         0.33646E+07         0.00000E+00
    0.33646E+07        -0.10427E+08         0.00000E+00
    0.00000E+00         0.00000E+00        -0.25801E+07
 
   -0.24950E+07         0.34507E+07         0.00000E+00
    0.34507E+07        -0.10420E+08         0.00000E+00
    0.00000E+00         0.00000E+00        -0.25830E+07
 
   -0.25169E+07         0.35374E+07         0.00000E+00
    0.35374E+07        -0.10412E+08         0.00000E+00
    0.00000E+00         0.00000E+00        -0.25858E+07
 
   -0.25390E+07         0.36247E+07         0.00000E+00
    0.36247E+07        -0.10404E+08         0.00000E+00
    0.00000E+00         0.00000E+00        -0.25885E+07
 
   -0.25613E+07         0.37126E+07         0.00000E+00
    0.37126E+07        -0.10395E+08         0.00000E+00
    0.00000E+00         0.00000E+00        -0.25912E+07
 
   -0.25838E+07         0.38012E+07         0.00000E+00
    0.38012E+07        -0.10385E+08         0.00000E+00
    0.00000E+00         0.00000E+00        -0.25938E+07
 
   -0.15452E+07         0.34762E+05         0.00000E+00
    0.34762E+05        -0.11100E+08         0.00000E+00
    0.00000E+00         0.00000E+00        -0.25290E+07
 
   -0.15853E+07         0.10426E+06         0.00000E+00
    0.10426E+06        -0.11100E+08         0.00000E+00
    0.00000E+00         0.00000E+00        -0.25371E+07
 
   -0.16245E+07         0.17379E+06         0.00000E+00
    0.17379E+06        -0.11100E+08         0.00000E+00
    0.00000E+00         0.00000E+00        -0.25450E+07
 
   -0.16626E+07         0.24336E+06         0.00000E+00
    0.24336E+06        -0.11101E+08         0.00000E+00
    0.00000E+00         0.00000E+00        -0.25527E+07
 
   -0.16998E+07         0.31302E+06         0.00000E+00
    0.31302E+06        -0.11102E+08         0.00000E+00
    0.00000E+00         0.00000E+00        -0.25603E+07
 
   -0.17361E+07         0.38278E+06         0.00000E+00
    0.38278E+06        -0.11102E+08         0.00000E+00
    0.00000E+00         0.00000E+00        -0.25677E+07
 
   -0.17714E+07         0.45266E+06         0.00000E+00
    0.45266E+06        -0.11103E+08         0.00000E+00
    0.00000E+00         0.00000E+00        -0.25749E+07
 
   -0.18058E+07         0.52270E+06         0.00000E+00
    0.52270E+06        -0.11104E+08         0.00000E+00
    0.00000E+00         0.00000E+00        -0.25820E+07
 
   -0.18393E+07         0.59292E+06         0.00000E+00
    0.59292E+06        -0.11105E+08         0.00000E+00
    0.00000E+00         0.00000E+00        -0.25889E+07
 
   -0.18720E+07         0.66333E+06         0.00000E+00
    0.66333E+06        -0.11107E+08         0.00000E+00
    0.00000E+00         0.00000E+00        -0.25957E+07
 
   -0.19037E+07         0.73398E+06         0.00000E+00
    0.73398E+06        -0.11108E+08         0.00000E+00
    0.00000E+00         0.00000E+00        -0.26023E+07
 
   -0.19347E+07         0.80486E+06         0.00000E+00
    0.80486E+06        -0.11109E+08         0.00000E+00
    0.00000E+00         0.00000E+00        -0.26088E+07
 
   -0.19649E+07         0.87602E+06         0.00000E+00
    0.87602E+06        -0.11111E+08         0.00000E+00
    0.00000E+00         0.00000E+00        -0.26151E+07
 
   -0.19942E+07         0.94746E+06         0.00000E+00
    0.94746E+06        -0.11112E+08         0.00000E+00
    0.00000E+00         0.00000E+00        -0.26213E+07
 
   -0.20228E+07         0.10192E+07         0.00000E+00
    0.10192E+07        -0.11114E+08         0.00000E+00
    0.00000E+00         0.00000E+00        -0.26273E+07
 
   -0.20507E+07         0.10913E+07         0.00000E+00
    0.10913E+07        -0.11115E+08         0.00000E+00
    0.00000E+00         0.00000E+00        -0.26332E+07
 
   -0.20779E+07         0.11637E+07         0.00000E+00
    0.11637E+07        -0.11117E+08         0.00000E+00
    0.00000E+00         0.00000E+00        -0.26389E+07
 
   -0.21044E+07         0.12366E+07         0.00000E+00
    0.12366E+07        -0.11118E+08         0.00000E+00
    0.00000E+00         0.00000E+00        -0.26445E+07
 
   -0.21302E+07         0.13097E+07         0.00000E+00
    0.13097E+07        -0.11120E+08         0.00000E+00
    0.00000E+00         0.00000E+00        -0.26500E+07
 
   -0.21554E+07         0.13834E+07         0.00000E+00
    0.13834E+07        -0.11121E+08         0.00000E+00
    0.00000E+00         0.00000E+00        -0.26553E+07
 
   -0.21800E+07         0.14574E+07         0.00000E+00
    0.14574E+07        -0.11123E+08         0.00000E+00
    0.00000E+00         0.00000E+00        -0.26605E+07
 
   -0.22040E+07         0.15318E+07         0.00000E+00
    0.15318E+07        -0.11124E+08         0.00000E+00
    0.00000E+00         0.00000E+00        -0.26656E+07
 
   -0.22274E+07         0.16068E+07         0.00000E+00
    0.16068E+07        -0.11125E+08         0.00000E+00
    0.00000E+00         0.00000E+00        -0.26705E+07
 
   -0.22503E+07         0.16822E+07         0.00000E+00
    0.16822E+07        -0.11126E+08         0.00000E+00
    0.00000E+00         0.00000E+00        -0.26753E+07
 
   -0.22727E+07         0.17580E+07         0.00000E+00
    0.17580E+07        -0.11127E+08         0.00000E+00
    0.00000E+00         0.00000E+00        -0.26800E+07
 
   -0.22947E+07         0.18344E+07         0.00000E+00
    0.18344E+07        -0.11128E+08         0.00000E+00
    0.00000E+00         0.00000E+00        -0.26845E+07
 
   -0.23162E+07         0.19113E+07         0.00000E+00
    0.19113E+07        -0.11129E+08         0.00000E+00
    0.00000E+00         0.00000E+00        -0.26890E+07
 
   -0.23373E+07         0.19887E+07         0.00000E+00
    0.19887E+07        -0.11129E+08         0.00000E+00
    0.00000E+00         0.00000E+00        -0.26933E+07
 
   -0.23580E+07         0.20667E+07         0.00000E+00
    0.20667E+07        -0.11129E+08         0.00000E+00
    0.00000E+00         0.00000E+00        -0.26975E+07
 
   -0.23783E+07         0.21452E+07         0.00000E+00
    0.21452E+07        -0.11129E+08         0.00000E+00
    0.00000E+00         0.00000E+00        -0.27015E+07
 
   -0.23983E+07         0.22243E+07         0.00000E+00
    0.22243E+07        -0.11129E+08         0.00000E+00
    0.00000E+00         0.00000E+00        -0.27055E+07
 
   -0.24181E+07         0.23039E+07         0.00000E+00
    0.23039E+07        -0.11129E+08         0.00000E+00
    0.00000E+00         0.00000E+00        -0.27094E+07
 
   -0.24375E+07         0.23842E+07         0.00000E+00
    0.23842E+07        -0.11128E+08         0.00000E+00
    0.00000E+00         0.00000E+00        -0.27131E+07
 
   -0.24567E+07         0.24650E+07         0.00000E+00
    0.24650E+07        -0.11127E+08         0.00000E+00
    0.00000E+00         0.00000E+00        -0.27168E+07
 
   -0.24757E+07         0.25465E+07         0.00000E+00
    0.25465E+07        -0.11126E+08         0.00000E+00
    0.00000E+00         0.00000E+00        -0.27203E+07
 
   -0.24944E+07         0.26285E+07         0.00000E+00
    0.26285E+07        -0.11124E+08         0.00000E+00
    0.00000E+00         0.00000E+00        -0.27237E+07
 
   -0.25131E+07         0.27112E+07         0.00000E+00
    0.27112E+07        -0.11122E+08         0.00000E+00
    0.00000E+00         0.00000E+00        -0.27271E+07
 
   -0.25316E+07         0.27945E+07         0.00000E+00
    0.27945E+07        -0.11120E+08         0.00000E+00
    0.00000E+00         0.00000E+00        -0.27303E+07
 
   -0.25500E+07         0.28785E+07         0.00000E+00
    0.28785E+07        -0.11117E+08         0.00000E+00
    0.00000E+00         0.00000E+00        -0.27335E+07
 
   -0.25683E+07         0.29631E+07         0.00000E+00
    0.29631E+07        -0.11114E+08         0.00000E+00
    0.00000E+00         0.00000E+00        -0.27365E+07
 
   -0.25866E+07         0.30484E+07         0.00000E+00
    0.30484E+07        -0.11111E+08         0.00000E+00
    0.00000E+00         0.00000E+00        -0.27395E+07
 
   -0.26048E+07         0.31343E+07         0.00000E+00
    0.31343E+07        -0.11107E+08         0.00000E+00
    0.00000E+00         0.00000E+00        -0.27423E+07
 
   -0.26231E+07         0.32209E+07         0.00000E+00
    0.32209E+07        -0.11102E+08         0.00000E+00
    0.00000E+00         0.00000E+00        -0.27451E+07
 
   -0.26414E+07         0.33082E+07         0.00000E+00
    0.33082E+07        -0.11098E+08         0.00000E+00
    0.00000E+00         0.00000E+00        -0.27478E+07
 
   -0.26598E+07         0.33962E+07         0.00000E+00
    0.33962E+07        -0.11092E+08         0.00000E+00
    0.00000E+00         0.00000E+00        -0.27504E+07
 
   -0.26783E+07         0.34849E+07         0.00000E+00
    0.34849E+07        -0.11087E+08         0.00000E+00
    0.00000E+00         0.00000E+00        -0.27530E+07
 
   -0.26969E+07         0.35742E+07         0.00000E+00
    0.35742E+07        -0.11080E+08         0.00000E+00
    0.00000E+00         0.00000E+00        -0.27554E+07
 
   -0.27157E+07         0.36643E+07         0.00000E+00
    0.36643E+07        -0.11073E+08         0.00000E+00
    0.00000E+00         0.00000E+00        -0.27578E+07
 
   -0.27346E+07         0.37550E+07         0.00000E+00
    0.37550E+07        -0.11066E+08         0.00000E+00
    0.00000E+00         0.00000E+00        -0.27601E+07
 
   -0.27538E+07         0.38465E+07         0.00000E+00
    0.38465E+07        -0.11058E+08         0.00000E+00
    0.00000E+00         0.00000E+00        -0.27623E+07
 
   -0.18443E+07         0.34210E+05         0.00000E+00
    0.34210E+05        -0.11744E+08         0.00000E+00
    0.00000E+00         0.00000E+00        -0.27177E+07
 
   -0.18843E+07         0.10269E+06         0.00000E+00
    0.10269E+06        -0.11744E+08         0.00000E+00
    0.00000E+00         0.00000E+00        -0.27257E+07
 
   -0.19232E+07         0.17124E+06         0.00000E+00
    0.17124E+06        -0.11745E+08         0.00000E+00
    0.00000E+00         0.00000E+00        -0.27336E+07
 
   -0.19609E+07         0.23989E+06         0.00000E+00
    0.23989E+06        -0.11745E+08         0.00000E+00
    0.00000E+00         0.00000E+00        -0.27413E+07
 
   -0.19975E+07         0.30867E+06         0.00000E+00
    0.30867E+06        -0.11746E+08         0.00000E+00
    0.00000E+00         0.00000E+00        -0.27488E+07
 
   -0.20330E+07         0.37759E+06         0.00000E+00
    0.37759E+06        -0.11748E+08         0.00000E+00
    0.00000E+00         0.00000E+00        -0.27561E+07
 
   -0.20675E+07         0.44671E+06         0.00000E+00
    0.44671E+06        -0.11749E+08         0.00000E+00
    0.00000E+00         0.00000E+00        -0.27633E+07
 
   -0.21010E+07         0.51603E+06         0.00000E+00
    0.51603E+06        -0.11750E+08         0.00000E+00
    0.00000E+00         0.00000E+00        -0.27703E+07
 
   -0.21334E+07         0.58559E+06         0.00000E+00
    0.58559E+06        -0.11752E+08         0.00000E+00
    0.00000E+00         0.00000E+00        -0.27771E+07
 
   -0.21648E+07         0.65542E+06         0.00000E+00
    0.65542E+06        -0.11754E+08         0.00000E+00
    0.00000E+00         0.00000E+00        -0.27837E+07
 
   -0.21952E+07         0.72554E+06         0.00000E+00
    0.72554E+06        -0.11756E+08         0.00000E+00
    0.00000E+00         0.00000E+00        -0.27902E+07
 
   -0.22247E+07         0.79597E+06         0.00000E+00
    0.79597E+06        -0.11758E+08         0.00000E+00
    0.00000E+00         0.00000E+00        -0.27966E+07
 
   -0.22533E+07         0.86674E+06         0.00000E+00
    0.86674E+06        -0.11760E+08         0.00000E+00
    0.00000E+00         0.00000E+00        -0.28027E+07
 
   -0.22810E+07         0.93788E+06         0.00000E+00
    0.93788E+06        -0.11763E+08         0.00000E+00
    0.00000E+00         0.00000E+00        -0.28087E+07
 
   -0.23078E+07         0.10094E+07         0.00000E+00
    0.10094E+07        -0.11765E+08         0.00000E+00
    0.00000E+00         0.00000E+00        -0.28146E+07
 
   -0.23338E+07         0.10813E+07         0.00000E+00
    0.10813E+07        -0.11767E+08         0.00000E+00
    0.00000E+00         0.00000E+00        -0.28202E+07
 
   -0.23590E+07         0.11537E+07         0.00000E+00
    0.11537E+07        -0.11770E+08         0.00000E+00
    0.00000E+00         0.00000E+00        -0.28258E+07
 
   -0.23834E+07         0.12265E+07         0.00000E+00
    0.12265E+07        -0.11773E+08         0.00000E+00
    0.00000E+00         0.00000E+00        -0.28312E+07
 
   -0.24070E+07         0.12998E+07         0.00000E+00
    0.12998E+07        -0.11775E+08         0.00000E+00
    0.00000E+00         0.00000E+00        -0.28364E+07
 
   -0.24299E+07         0.13736E+07         0.00000E+00
    0.13736E+07        -0.11778E+08         0.00000E+00
    0.00000E+00         0.00000E+00        -0.28415E+07
 
   -0.24521E+07         0.14478E+07         0.00000E+00
    0.14478E+07        -0.11780E+08         0.00000E+00
    0.00000E+00         0.00000E+00        -0.28465E+07
 
   -0.24736E+07         0.15227E+07         0.00000E+00
    0.15227E+07        -0.11783E+08         0.00000E+00
    0.00000E+00         0.00000E+00        -0.28513E+07
 
   -0.24946E+07         0.15980E+07         0.00000E+00
    0.15980E+07        -0.11785E+08         0.00000E+00
    0.00000E+00         0.00000E+00        -0.28559E+07
 
   -0.25149E+07         0.16739E+07         0.00000E+00
    0.16739E+07        -0.11787E+08         0.00000E+00
    0.00000E+00         0.00000E+00        -0.28605E+07
 
   -0.25346E+07         0.17504E+07         0.00000E+00
    0.17504E+07        -0.11790E+08         0.00000E+00
    0.00000E+00         0.00000E+00        -0.28649E+07
 
   -0.25538E+07         0.18275E+07         0.00000E+00
    0.18275E+07        -0.11792E+08         0.00000E+00
    0.00000E+00         0.00000E+00        -0.28691E+07
 
   -0.25724E+07         0.19052E+07         0.00000E+00
    0.19052E+07        -0.11794E+08         0.00000E+00
    0.00000E+00         0.00000E+00        -0.28733E+07
 
   -0.25906E+07         0.19835E+07         0.00000E+00
    0.19835E+07        -0.11796E+08         0.00000E+00
    0.00000E+00         0.00000E+00        -0.28773E+07
 
   -0.26084E+07         0.20624E+07         0.00000E+00
    0.20624E+07        -0.11797E+08         0.00000E+00
    0.00000E+00         0.00000E+00        -0.28812E+07
 
   -0.26257E+07         0.21420E+07         0.00000E+00
    0.21420E+07        -0.11799E+08         0.00000E+00
    0.00000E+00         0.00000E+00        -0.28849E+07
 
   -0.26426E+07         0.22222E+07         0.00000E+00
    0.22222E+07        -0.11800E+08         0.00000E+00
    0.00000E+00         0.00000E+00        -0.28886E+07
 
   -0.26592E+07         0.23031E+07         0.00000E+00
    0.23031E+07        -0.11801E+08         0.00000E+00
    0.00000E+00         0.00000E+00        -0.28921E+07
 
   -0.26755E+07         0.23847E+07         0.00000E+00
    0.23847E+07        -0.11802E+08         0.00000E+00
    0.00000E+00         0.00000E+00        -0.28955E+07
 
   -0.26914E+07         0.24670E+07         0.00000E+00
    0.24670E+07        -0.11803E+08         0.00000E+00
    0.00000E+00         0.00000E+00        -0.28988E+07
 
   -0.27071E+07         0.25499E+07         0.00000E+00
    0.25499E+07        -0.11803E+08         0.00000E+00
    0.00000E+00         0.00000E+00        -0.29020E+07
 
   -0.27226E+07         0.26336E+07         0.00000E+00
    0.26336E+07        -0.11803E+08         0.00000E+00
    0.00000E+00         0.00000E+00        -0.29051E+07
 
   -0.27378E+07         0.27180E+07         0.00000E+00
    0.27180E+07        -0.11803E+08         0.00000E+00
    0.00000E+00         0.00000E+00        -0.29081E+07
 
   -0.27529E+07         0.28031E+07         0.00000E+00
    0.28031E+07        -0.11802E+08         0.00000E+00
    0.00000E+00         0.00000E+00        -0.29110E+07
 
   -0.27678E+07         0.28890E+07         0.00000E+00
    0.28890E+07        -0.11801E+08         0.00000E+00
    0.00000E+00         0.00000E+00        -0.29137E+07
 
   -0.27827E+07         0.29756E+07         0.00000E+00
    0.29756E+07        -0.11799E+08         0.00000E+00
    0.00000E+00         0.00000E+00        -0.29164E+07
 
   -0.27974E+07         0.30629E+07         0.00000E+00
    0.30629E+07        -0.11797E+08         0.00000E+00
    0.00000E+00         0.00000E+00        -0.29190E+07
 
   -0.28121E+07         0.31510E+07         0.00000E+00
    0.31510E+07        -0.11795E+08         0.00000E+00
    0.00000E+00         0.00000E+00        -0.29215E+07
 
   -0.28268E+07         0.32399E+07         0.00000E+00
    0.32399E+07        -0.11792E+08         0.00000E+00
    0.00000E+00         0.00000E+00        -0.29239E+07
 
   -0.28415E+07         0.33295E+07         0.00000E+00
    0.33295E+07        -0.11789E+08         0.00000E+00
    0.00000E+00         0.00000E+00        -0.29262E+07
 
   -0.28562E+07         0.34199E+07         0.00000E+00
    0.34199E+07        -0.11786E+08         0.00000E+00
    0.00000E+00         0.00000E+00        -0.29284E+07
 
   -0.28710E+07         0.35111E+07         0.00000E+00
    0.35111E+07        -0.11782E+08         0.00000E+00
    0.00000E+00         0.00000E+00        -0.29305E+07
 
   -0.28859E+07         0.36031E+07         0.00000E+00
    0.36031E+07        -0.11777E+08         0.00000E+00
    0.00000E+00         0.00000E+00        -0.29326E+07
 
   -0.29009E+07         0.36959E+07         0.00000E+00
    0.36959E+07        -0.11772E+08         0.00000E+00
    0.00000E+00         0.00000E+00        -0.29345E+07
 
   -0.29160E+07         0.37895E+07         0.00000E+00
    0.37895E+07        -0.11766E+08         0.00000E+00
    0.00000E+00         0.00000E+00        -0.29364E+07
 
   -0.29314E+07         0.38839E+07         0.00000E+00
    0.38839E+07        -0.11760E+08         0.00000E+00
    0.00000E+00         0.00000E+00        -0.29382E+07
 
   -0.21719E+07         0.33457E+05         0.00000E+00
    0.33457E+05        -0.12410E+08         0.00000E+00
    0.00000E+00         0.00000E+00        -0.29165E+07
 
   -0.22115E+07         0.10053E+06         0.00000E+00
    0.10053E+06        -0.12411E+08         0.00000E+00
    0.00000E+00         0.00000E+00        -0.29245E+07
 
   -0.22499E+07         0.16773E+06         0.00000E+00
    0.16773E+06        -0.12411E+08         0.00000E+00
    0.00000E+00         0.00000E+00        -0.29323E+07
 
   -0.22869E+07         0.23507E+06         0.00000E+00
    0.23507E+06        -0.12412E+08         0.00000E+00
    0.00000E+00         0.00000E+00        -0.29399E+07
 
   -0.23227E+07         0.30259E+06         0.00000E+00
    0.30259E+06        -0.12414E+08         0.00000E+00
    0.00000E+00         0.00000E+00        -0.29473E+07
 
   -0.23572E+07         0.37033E+06         0.00000E+00
    0.37033E+06        -0.12415E+08         0.00000E+00
    0.00000E+00         0.00000E+00        -0.29545E+07
 
   -0.23905E+07         0.43832E+06         0.00000E+00
    0.43832E+06        -0.12417E+08         0.00000E+00
    0.00000E+00         0.00000E+00        -0.29615E+07
 
   -0.24227E+07         0.50659E+06         0.00000E+00
    0.50659E+06        -0.12419E+08         0.00000E+00
    0.00000E+00         0.00000E+00        -0.29684E+07
 
   -0.24537E+07         0.57516E+06         0.00000E+00
    0.57516E+06        -0.12421E+08         0.00000E+00
    0.00000E+00         0.00000E+00        -0.29750E+07
 
   -0.24835E+07         0.64408E+06         0.00000E+00
    0.64408E+06        -0.12424E+08         0.00000E+00
    0.00000E+00         0.00000E+00        -0.29815E+07
 
   -0.25122E+07         0.71336E+06         0.00000E+00
    0.71336E+06        -0.12427E+08         0.00000E+00
    0.00000E+00         0.00000E+00        -0.29878E+07
 
   -0.25399E+07         0.78303E+06         0.00000E+00
    0.78303E+06        -0.12430E+08         0.00000E+00
    0.00000E+00         0.00000E+00        -0.29939E+07
 
   -0.25665E+07         0.85313E+06         0.00000E+00
    0.85313E+06        -0.12433E+08         0.00000E+00
    0.00000E+00         0.00000E+00        -0.29999E+07
 
   -0.25921E+07         0.92368E+06         0.00000E+00
    0.92368E+06        -0.12436E+08         0.00000E+00
    0.00000E+00         0.00000E+00        -0.30056E+07
 
   -0.26167E+07         0.99469E+06         0.00000E+00
    0.99469E+06        -0.12440E+08         0.00000E+00
    0.00000E+00         0.00000E+00        -0.30113E+07
 
   -0.26404E+07         0.10662E+07         0.00000E+00
    0.10662E+07        -0.12443E+08         0.00000E+00
    0.00000E+00         0.00000E+00        -0.30167E+07
 
   -0.26631E+07         0.11382E+07         0.00000E+00
    0.11382E+07        -0.12447E+08         0.00000E+00
    0.00000E+00         0.00000E+00        -0.30220E+07
 
   -0.26850E+07         0.12108E+07         0.00000E+00
    0.12108E+07        -0.12450E+08         0.00000E+00
    0.00000E+00         0.00000E+00        -0.30271E+07
 
   -0.27060E+07         0.12840E+07         0.00000E+00
    0.12840E+07        -0.12454E+08         0.00000E+00
    0.00000E+00         0.00000E+00        -0.30320E+07
 
   -0.27262E+07         0.13577E+07         0.00000E+00
    0.13577E+07        -0.12458E+08         0.00000E+00
    0.00000E+00         0.00000E+00        -0.30368E+07
 
   -0.27456E+07         0.14320E+07         0.00000E+00
    0.14320E+07        -0.12462E+08         0.00000E+00
    0.00000E+00         0.00000E+00        -0.30415E+07
 
   -0.27642E+07         0.15070E+07         0.00000E+00
    0.15070E+07        -0.12466E+08         0.00000E+00
    0.00000E+00         0.00000E+00        -0.30460E+07
 
   -0.27821E+07         0.15826E+07         0.00000E+00
    0.15826E+07        -0.12470E+08         0.00000E+00
    0.00000E+00         0.00000E+00        -0.30503E+07
 
   -0.27993E+07         0.16588E+07         0.00000E+00
    0.16588E+07        -0.12473E+08         0.00000E+00
    0.00000E+00         0.00000E+00        -0.30545E+07
 
   -0.28159E+07         0.17357E+07         0.00000E+00
    0.17357E+07        -0.12477E+08         0.00000E+00
    0.00000E+00         0.00000E+00        -0.30586E+07
 
   -0.28318E+07         0.18133E+07         0.00000E+00
    0.18133E+07        -0.12481E+08         0.00000E+00
    0.00000E+00         0.00000E+00        -0.30625E+07
 
   -0.28472E+07         0.18917E+07         0.00000E+00
    0.18917E+07        -0.12484E+08         0.00000E+00
    0.00000E+00         0.00000E+00        -0.30663E+07
 
   -0.28620E+07         0.19707E+07         0.00000E+00
    0.19707E+07        -0.12488E+08         0.00000E+00
    0.00000E+00         0.00000E+00        -0.30700E+07
 
   -0.28763E+07         0.20505E+07         0.00000E+00
    0.20505E+07        -0.12491E+08         0.00000E+00
    0.00000E+00         0.00000E+00        -0.30735E+07
 
   -0.28902E+07         0.21310E+07         0.00000E+00
    0.21310E+07        -0.12494E+08         0.00000E+00
    0.00000E+00         0.00000E+00        -0.30769E+07
 
   -0.29035E+07         0.22123E+07         0.00000E+00
    0.22123E+07        -0.12497E+08         0.00000E+00
    0.00000E+00         0.00000E+00        -0.30801E+07
 
   -0.29165E+07         0.22943E+07         0.00000E+00
    0.22943E+07        -0.12500E+08         0.00000E+00
    0.00000E+00         0.00000E+00        -0.30833E+07
 
   -0.29291E+07         0.23771E+07         0.00000E+00
    0.23771E+07        -0.12502E+08         0.00000E+00
    0.00000E+00         0.00000E+00        -0.30863E+07
 
   -0.29413E+07         0.24607E+07         0.00000E+00
    0.24607E+07        -0.12505E+08         0.00000E+00
    0.00000E+00         0.00000E+00        -0.30892E+07
 
   -0.29532E+07         0.25451E+07         0.00000E+00
    0.25451E+07        -0.12507E+08         0.00000E+00
    0.00000E+00         0.00000E+00        -0.30920E+07
 
   -0.29649E+07         0.26303E+07         0.00000E+00
    0.26303E+07        -0.12508E+08         0.00000E+00
    0.00000E+00         0.00000E+00        -0.30947E+07
 
   -0.29763E+07         0.27164E+07         0.00000E+00
    0.27164E+07        -0.12510E+08         0.00000E+00
    0.00000E+00         0.00000E+00        -0.30972E+07
 
   -0.29875E+07         0.28032E+07         0.00000E+00
    0.28032E+07        -0.12511E+08         0.00000E+00
    0.00000E+00         0.00000E+00        -0.30997E+07
 
   -0.29985E+07         0.28909E+07         0.00000E+00
    0.28909E+07        -0.12512E+08         0.00000E+00
    0.00000E+00         0.00000E+00        -0.31020E+07
 
   -0.30093E+07         0.29794E+07         0.00000E+00
    0.29794E+07        -0.12512E+08         0.00000E+00
    0.00000E+00         0.00000E+00        -0.31043E+07
 
   -0.30201E+07         0.30688E+07         0.00000E+00
    0.30688E+07        -0.12512E+08         0.00000E+00
    0.00000E+00         0.00000E+00        -0.31064E+07
 
   -0.30307E+07         0.31590E+07         0.00000E+00
    0.31590E+07        -0.12512E+08         0.00000E+00
    0.00000E+00         0.00000E+00        -0.31085E+07
 
   -0.30414E+07         0.32501E+07         0.00000E+00
    0.32501E+07        -0.12511E+08         0.00000E+00
    0.00000E+00         0.00000E+00        -0.31104E+07
 
   -0.30519E+07         0.33420E+07         0.00000E+00
    0.33420E+07        -0.12509E+08         0.00000E+00
    0.00000E+00         0.00000E+00        -0.31123E+07
 
   -0.30625E+07         0.34348E+07         0.00000E+00
    0.34348E+07        -0.12508E+08         0.00000E+00
    0.00000E+00         0.00000E+00        -0.31140E+07
 
   -0.30731E+07         0.35285E+07         0.00000E+00
    0.35285E+07        -0.12505E+08         0.00000E+00
    0.00000E+00         0.00000E+00        -0.31157E+07
 
   -0.30838E+07         0.36231E+07         0.00000E+00
    0.36231E+07        -0.12503E+08         0.00000E+00
    0.00000E+00         0.00000E+00        -0.31173E+07
 
   -0.30946E+07         0.37186E+07         0.00000E+00
    0.37186E+07        -0.12499E+08         0.00000E+00
    0.00000E+00         0.00000E+00        -0.31188E+07
 
   -0.31055E+07         0.38149E+07         0.00000E+00
    0.38149E+07        -0.12495E+08         0.00000E+00
    0.00000E+00         0.00000E+00        -0.31202E+07
 
   -0.31166E+07         0.39122E+07         0.00000E+00
    0.39122E+07        -0.12491E+08         0.00000E+00
    0.00000E+00         0.00000E+00        -0.31215E+07
 
   -0.25300E+07         0.32469E+05         0.00000E+00
    0.32469E+05        -0.13099E+08         0.00000E+00
    0.00000E+00         0.00000E+00        -0.31258E+07
 
   -0.25690E+07         0.97689E+05         0.00000E+00
    0.97689E+05        -0.13100E+08         0.00000E+00
    0.00000E+00         0.00000E+00        -0.31337E+07
 
   -0.26065E+07         0.16308E+06         0.00000E+00
    0.16308E+06        -0.13100E+08         0.00000E+00
    0.00000E+00         0.00000E+00        -0.31414E+07
 
   -0.26425E+07         0.22869E+06         0.00000E+00
    0.22869E+06        -0.13102E+08         0.00000E+00
    0.00000E+00         0.00000E+00        -0.31488E+07
 
   -0.26771E+07         0.29454E+06         0.00000E+00
    0.29454E+06        -0.13103E+08         0.00000E+00
    0.00000E+00         0.00000E+00        -0.31561E+07
 
   -0.27103E+07         0.36068E+06         0.00000E+00
    0.36068E+06        -0.13105E+08         0.00000E+00
    0.00000E+00         0.00000E+00        -0.31631E+07
 
   -0.27421E+07         0.42714E+06         0.00000E+00
    0.42714E+06        -0.13108E+08         0.00000E+00
    0.00000E+00         0.00000E+00        -0.31700E+07
 
   -0.27726E+07         0.49396E+06         0.00000E+00
    0.49396E+06        -0.13110E+08         0.00000E+00
    0.00000E+00         0.00000E+00        -0.31766E+07
 
   -0.28018E+07         0.56117E+06         0.00000E+00
    0.56117E+06        -0.13113E+08         0.00000E+00
    0.00000E+00         0.00000E+00        -0.31830E+07
 
   -0.28296E+07         0.62881E+06         0.00000E+00
    0.62881E+06        -0.13117E+08         0.00000E+00
    0.00000E+00         0.00000E+00        -0.31893E+07
 
   -0.28563E+07         0.69690E+06         0.00000E+00
    0.69690E+06        -0.13120E+08         0.00000E+00
    0.00000E+00         0.00000E+00        -0.31953E+07
 
   -0.28816E+07         0.76548E+06         0.00000E+00
    0.76548E+06        -0.13124E+08         0.00000E+00
    0.00000E+00         0.00000E+00        -0.32012E+07
 
   -0.29059E+07         0.83457E+06         0.00000E+00
    0.83457E+06        -0.13128E+08         0.00000E+00
    0.00000E+00         0.00000E+00        -0.32069E+07
 
   -0.29289E+07         0.90421E+06         0.00000E+00
    0.90421E+06        -0.13133E+08         0.00000E+00
    0.00000E+00         0.00000E+00        -0.32124E+07
 
   -0.29509E+07         0.97442E+06         0.00000E+00
    0.97442E+06        -0.13137E+08         0.00000E+00
    0.00000E+00         0.00000E+00        -0.32177E+07
 
   -0.29717E+07         0.10452E+07         0.00000E+00
    0.10452E+07        -0.13142E+08         0.00000E+00
    0.00000E+00         0.00000E+00        -0.32228E+07
 
   -0.29916E+07         0.11167E+07         0.00000E+00
    0.11167E+07        -0.13147E+08         0.00000E+00
    0.00000E+00         0.00000E+00        -0.32277E+07
 
   -0.30104E+07         0.11887E+07         0.00000E+00
    0.11887E+07        -0.13152E+08         0.00000E+00
    0.00000E+00         0.00000E+00        -0.32325E+07
 
   -0.30283E+07         0.12615E+07         0.00000E+00
    0.12615E+07        -0.13157E+08         0.00000E+00
    0.00000E+00         0.00000E+00        -0.32371E+07
 
   -0.30452E+07         0.13349E+07         0.00000E+00
    0.13349E+07        -0.13163E+08         0.00000E+00
    0.00000E+00         0.00000E+00        -0.32416E+07
 
   -0.30613E+07         0.14091E+07         0.00000E+00
    0.14091E+07        -0.13168E+08         0.00000E+00
    0.00000E+00         0.00000E+00        -0.32458E+07
 
   -0.30765E+07         0.14839E+07         0.00000E+00
    0.14839E+07        -0.13173E+08         0.00000E+00
    0.00000E+00         0.00000E+00        -0.32500E+07
 
   -0.30909E+07         0.15596E+07         0.00000E+00
    0.15596E+07        -0.13179E+08         0.00000E+00
    0.00000E+00         0.00000E+00        -0.32539E+07
 
   -0.31045E+07         0.16360E+07         0.00000E+00
    0.16360E+07        -0.13184E+08         0.00000E+00
    0.00000E+00         0.00000E+00        -0.32577E+07
 
   -0.31174E+07         0.17131E+07         0.00000E+00
    0.17131E+07        -0.13190E+08         0.00000E+00
    0.00000E+00         0.00000E+00        -0.32614E+07
 
   -0.31296E+07         0.17911E+07         0.00000E+00
    0.17911E+07        -0.13195E+08         0.00000E+00
    0.00000E+00         0.00000E+00        -0.32649E+07
 
   -0.31411E+07         0.18699E+07         0.00000E+00
    0.18699E+07        -0.13200E+08         0.00000E+00
    0.00000E+00         0.00000E+00        -0.32683E+07
 
   -0.31520E+07         0.19495E+07         0.00000E+00
    0.19495E+07        -0.13205E+08         0.00000E+00
    0.00000E+00         0.00000E+00        -0.32715E+07
 
   -0.31624E+07         0.20300E+07         0.00000E+00
    0.20300E+07        -0.13211E+08         0.00000E+00
    0.00000E+00         0.00000E+00        -0.32746E+07
 
   -0.31722E+07         0.21113E+07         0.00000E+00
    0.21113E+07        -0.13216E+08         0.00000E+00
    0.00000E+00         0.00000E+00        -0.32775E+07
 
   -0.31815E+07         0.21935E+07         0.00000E+00
    0.21935E+07        -0.13220E+08         0.00000E+00
    0.00000E+00         0.00000E+00        -0.32803E+07
 
   -0.31903E+07         0.22766E+07         0.00000E+00
    0.22766E+07        -0.13225E+08         0.00000E+00
    0.00000E+00         0.00000E+00        -0.32830E+07
 
   -0.31987E+07         0.23605E+07         0.00000E+00
    0.23605E+07        -0.13229E+08         0.00000E+00
    0.00000E+00         0.00000E+00        -0.32856E+07
 
   -0.32067E+07         0.24454E+07         0.00000E+00
    0.24454E+07        -0.13233E+08         0.00000E+00
    0.00000E+00         0.00000E+00        -0.32880E+07
 
   -0.32143E+07         0.25311E+07         0.00000E+00
    0.25311E+07        -0.13237E+08         0.00000E+00
    0.00000E+00         0.00000E+00        -0.32904E+07
 
   -0.32217E+07         0.26178E+07         0.00000E+00
    0.26178E+07        -0.13241E+08         0.00000E+00
    0.00000E+00         0.00000E+00        -0.32926E+07
 
   -0.32287E+07         0.27053E+07         0.00000E+00
    0.27053E+07        -0.13244E+08         0.00000E+00
    0.00000E+00         0.00000E+00        -0.32946E+07
 
   -0.32355E+07         0.27938E+07         0.00000E+00
    0.27938E+07        -0.13248E+08         0.00000E+00
    0.00000E+00         0.00000E+00        -0.32966E+07
 
   -0.32421E+07         0.28833E+07         0.00000E+00
    0.28833E+07        -0.13250E+08         0.00000E+00
    0.00000E+00         0.00000E+00        -0.32985E+07
 
   -0.32485E+07         0.29737E+07         0.00000E+00
    0.29737E+07        -0.13253E+08         0.00000E+00
    0.00000E+00         0.00000E+00        -0.33002E+07
 
   -0.32547E+07         0.30650E+07         0.00000E+00
    0.30650E+07        -0.13255E+08         0.00000E+00
    0.00000E+00         0.00000E+00        -0.33019E+07
 
   -0.32609E+07         0.31573E+07         0.00000E+00
    0.31573E+07        -0.13256E+08         0.00000E+00
    0.00000E+00         0.00000E+00        -0.33034E+07
 
   -0.32669E+07         0.32505E+07         0.00000E+00
    0.32505E+07        -0.13257E+08         0.00000E+00
    0.00000E+00         0.00000E+00        -0.33049E+07
 
   -0.32729E+07         0.33447E+07         0.00000E+00
    0.33447E+07        -0.13258E+08         0.00000E+00
    0.00000E+00         0.00000E+00        -0.33062E+07
 
   -0.32789E+07         0.34399E+07         0.00000E+00
    0.34399E+07        -0.13258E+08         0.00000E+00
    0.00000E+00         0.00000E+00        -0.33075E+07
 
   -0.32849E+07         0.35360E+07         0.00000E+00
    0.35360E+07        -0.13258E+08         0.00000E+00
    0.00000E+00         0.00000E+00        -0.33086E+07
 
   -0.32909E+07         0.36331E+07         0.00000E+00
    0.36331E+07        -0.13257E+08         0.00000E+00
    0.00000E+00         0.00000E+00        -0.33097E+07
 
   -0.32970E+07         0.37312E+07         0.00000E+00
    0.37312E+07        -0.13256E+08         0.00000E+00
    0.00000E+00         0.00000E+00        -0.33107E+07
 
   -0.33032E+07         0.38303E+07         0.00000E+00
    0.38303E+07        -0.13255E+08         0.00000E+00
    0.00000E+00         0.00000E+00        -0.33116E+07
 
   -0.33095E+07         0.39304E+07         0.00000E+00
    0.39304E+07        -0.13252E+08         0.00000E+00
    0.00000E+00         0.00000E+00        -0.33124E+07
 
   -0.29207E+07         0.31207E+05         0.00000E+00
    0.31207E+05        -0.13810E+08         0.00000E+00
    0.00000E+00         0.00000E+00        -0.33461E+07
 
   -0.29587E+07         0.94049E+05         0.00000E+00
    0.94049E+05        -0.13810E+08         0.00000E+00
    0.00000E+00         0.00000E+00        -0.33538E+07
 
   -0.29951E+07         0.15713E+06         0.00000E+00
    0.15713E+06        -0.13811E+08         0.00000E+00
    0.00000E+00         0.00000E+00        -0.33613E+07
 
   -0.30298E+07         0.22050E+06         0.00000E+00
    0.22050E+06        -0.13813E+08         0.00000E+00
    0.00000E+00         0.00000E+00        -0.33685E+07
 
   -0.30629E+07         0.28420E+06         0.00000E+00
    0.28420E+06        -0.13815E+08         0.00000E+00
    0.00000E+00         0.00000E+00        -0.33756E+07
 
   -0.30943E+07         0.34827E+06         0.00000E+00
    0.34827E+06        -0.13818E+08         0.00000E+00
    0.00000E+00         0.00000E+00        -0.33824E+07
 
   -0.31242E+07         0.41275E+06         0.00000E+00
    0.41275E+06        -0.13821E+08         0.00000E+00
    0.00000E+00         0.00000E+00        -0.33890E+07
 
   -0.31526E+07         0.47769E+06         0.00000E+00
    0.47769E+06        -0.13824E+08         0.00000E+00
    0.00000E+00         0.00000E+00        -0.33953E+07
 
   -0.31795E+07         0.54311E+06         0.00000E+00
    0.54311E+06        -0.13828E+08         0.00000E+00
    0.00000E+00         0.00000E+00        -0.34015E+07
 
   -0.32049E+07         0.60905E+06         0.00000E+00
    0.60905E+06        -0.13832E+08         0.00000E+00
    0.00000E+00         0.00000E+00        -0.34074E+07
 
   -0.32289E+07         0.67556E+06         0.00000E+00
    0.67556E+06        -0.13837E+08         0.00000E+00
    0.00000E+00         0.00000E+00        -0.34131E+07
 
   -0.32515E+07         0.74266E+06         0.00000E+00
    0.74266E+06        -0.13842E+08         0.00000E+00
    0.00000E+00         0.00000E+00        -0.34187E+07
 
   -0.32728E+07         0.81038E+06         0.00000E+00
    0.81038E+06        -0.13847E+08         0.00000E+00
    0.00000E+00         0.00000E+00        -0.34240E+07
 
   -0.32928E+07         0.87876E+06         0.00000E+00
    0.87876E+06        -0.13853E+08         0.00000E+00
    0.00000E+00         0.00000E+00        -0.34291E+07
 
   -0.33115E+07         0.94783E+06         0.00000E+00
    0.94783E+06        -0.13859E+08         0.00000E+00
    0.00000E+00         0.00000E+00        -0.34340E+07
 
   -0.33291E+07         0.10176E+07         0.00000E+00
    0.10176E+07        -0.13865E+08         0.00000E+00
    0.00000E+00         0.00000E+00        -0.34388E+07
 
   -0.33455E+07         0.10881E+07         0.00000E+00
    0.10881E+07        -0.13871E+08         0.00000E+00
    0.00000E+00         0.00000E+00        -0.34433E+07
 
   -0.33607E+07         0.11594E+07         0.00000E+00
    0.11594E+07        -0.13878E+08         0.00000E+00
    0.00000E+00         0.00000E+00        -0.34477E+07
 
   -0.33749E+07         0.12315E+07         0.00000E+00
    0.12315E+07        -0.13884E+08         0.00000E+00
    0.00000E+00         0.00000E+00        -0.34518E+07
 
   -0.33880E+07         0.13044E+07         0.00000E+00
    0.13044E+07        -0.13891E+08         0.00000E+00
    0.00000E+00         0.00000E+00        -0.34559E+07
 
   -0.34001E+07         0.13781E+07         0.00000E+00
    0.13781E+07        -0.13898E+08         0.00000E+00
    0.00000E+00         0.00000E+00        -0.34597E+07
 
   -0.34113E+07         0.14527E+07         0.00000E+00
    0.14527E+07        -0.13905E+08         0.00000E+00
    0.00000E+00         0.00000E+00        -0.34633E+07
 
   -0.34216E+07         0.15281E+07         0.00000E+00
    0.15281E+07        -0.13913E+08         0.00000E+00
    0.00000E+00         0.00000E+00        -0.34668E+07
 
   -0.34311E+07         0.16044E+07         0.00000E+00
    0.16044E+07        -0.13920E+08         0.00000E+00
    0.00000E+00         0.00000E+00        -0.34702E+07
 
   -0.34397E+07         0.16817E+07         0.00000E+00
    0.16817E+07        -0.13927E+08         0.00000E+00
    0.00000E+00         0.00000E+00        -0.34734E+07
 
   -0.34476E+07         0.17599E+07         0.00000E+00
    0.17599E+07        -0.13934E+08         0.00000E+00
    0.00000E+00         0.00000E+00        -0.34764E+07
 
   -0.34547E+07         0.18390E+07         0.00000E+00
    0.18390E+07        -0.13942E+08         0.00000E+00
    0.00000E+00         0.00000E+00        -0.34792E+07
 
   -0.34611E+07         0.19190E+07         0.00000E+00
    0.19190E+07        -0.13949E+08         0.00000E+00
    0.00000E+00         0.00000E+00        -0.34820E+07
 
   -0.34669E+07         0.20000E+07         0.00000E+00
    0.20000E+07        -0.13956E+08         0.00000E+00
    0.00000E+00         0.00000E+00        -0.34845E+07
 
   -0.34721E+07         0.20820E+07         0.00000E+00
    0.20820E+07        -0.13963E+08         0.00000E+00
    0.00000E+00         0.00000E+00        -0.34870E+07
 
   -0.34768E+07         0.21650E+07         0.00000E+00
    0.21650E+07        -0.13970E+08         0.00000E+00
    0.00000E+00         0.00000E+00        -0.34893E+07
 
   -0.34809E+07         0.22489E+07         0.00000E+00
    0.22489E+07        -0.13976E+08         0.00000E+00
    0.00000E+00         0.00000E+00        -0.34914E+07
 
   -0.34846E+07         0.23339E+07         0.00000E+00
    0.23339E+07        -0.13983E+08         0.00000E+00
    0.00000E+00         0.00000E+00        -0.34935E+07
 
   -0.34878E+07         0.24199E+07         0.00000E+00
    0.24199E+07        -0.13989E+08         0.00000E+00
    0.00000E+00         0.00000E+00        -0.34954E+07
 
   -0.34906E+07         0.25069E+07         0.00000E+00
    0.25069E+07        -0.13995E+08         0.00000E+00
    0.00000E+00         0.00000E+00        -0.34971E+07
 
   -0.34931E+07         0.25949E+07         0.00000E+00
    0.25949E+07        -0.14001E+08         0.00000E+00
    0.00000E+00         0.00000E+00        -0.34988E+07
 
   -0.34953E+07         0.26840E+07         0.00000E+00
    0.26840E+07        -0.14006E+08         0.00000E+00
    0.00000E+00         0.00000E+00        -0.35003E+07
 
   -0.34971E+07         0.27741E+07         0.00000E+00
    0.27741E+07        -0.14012E+08         0.00000E+00
    0.00000E+00         0.00000E+00        -0.35018E+07
 
   -0.34987E+07         0.28652E+07         0.00000E+00
    0.28652E+07        -0.14017E+08         0.00000E+00
    0.00000E+00         0.00000E+00        -0.35031E+07
 
   -0.35002E+07         0.29574E+07         0.00000E+00
    0.29574E+07        -0.14021E+08         0.00000E+00
    0.00000E+00         0.00000E+00        -0.35043E+07
 
   -0.35014E+07         0.30506E+07         0.00000E+00
    0.30506E+07        -0.14025E+08         0.00000E+00
    0.00000E+00         0.00000E+00        -0.35054E+07
 
   -0.35025E+07         0.31449E+07         0.00000E+00
    0.31449E+07        -0.14029E+08         0.00000E+00
    0.00000E+00         0.00000E+00        -0.35063E+07
 
   -0.35035E+07         0.32403E+07         0.00000E+00
    0.32403E+07        -0.14033E+08         0.00000E+00
    0.00000E+00         0.00000E+00        -0.35072E+07
 
   -0.35044E+07         0.33367E+07         0.00000E+00
    0.33367E+07        -0.14036E+08         0.00000E+00
    0.00000E+00         0.00000E+00        -0.35080E+07
 
   -0.35053E+07         0.34341E+07         0.00000E+00
    0.34341E+07        -0.14038E+08         0.00000E+00
    0.00000E+00         0.00000E+00        -0.35087E+07
 
   -0.35062E+07         0.35327E+07         0.00000E+00
    0.35327E+07        -0.14040E+08         0.00000E+00
    0.00000E+00         0.00000E+00        -0.35093E+07
 
   -0.35071E+07         0.36323E+07         0.00000E+00
    0.36323E+07        -0.14042E+08         0.00000E+00
    0.00000E+00         0.00000E+00        -0.35098E+07
 
   -0.35081E+07         0.37330E+07         0.00000E+00
    0.37330E+07        -0.14043E+08         0.00000E+00
    0.00000E+00         0.00000E+00        -0.35102E+07
 
   -0.35091E+07         0.38348E+07         0.00000E+00
    0.38348E+07        -0.14043E+08         0.00000E+00
    0.00000E+00         0.00000E+00        -0.35105E+07
 
   -0.35102E+07         0.39376E+07         0.00000E+00
    0.39376E+07        -0.14043E+08         0.00000E+00
    0.00000E+00         0.00000E+00        -0.35107E+07
 
   -0.33465E+07         0.29627E+05         0.00000E+00
    0.29627E+05        -0.14542E+08         0.00000E+00
    0.00000E+00         0.00000E+00        -0.35777E+07
 
   -0.33833E+07         0.89490E+05         0.00000E+00
    0.89490E+05        -0.14543E+08         0.00000E+00
    0.00000E+00         0.00000E+00        -0.35852E+07
 
   -0.34181E+07         0.14968E+06         0.00000E+00
    0.14968E+06        -0.14544E+08         0.00000E+00
    0.00000E+00         0.00000E+00        -0.35924E+07
 
   -0.34511E+07         0.21025E+06         0.00000E+00
    0.21025E+06        -0.14546E+08         0.00000E+00
    0.00000E+00         0.00000E+00        -0.35994E+07
 
   -0.34821E+07         0.27124E+06         0.00000E+00
    0.27124E+06        -0.14548E+08         0.00000E+00
    0.00000E+00         0.00000E+00        -0.36061E+07
 
   -0.35114E+07         0.33271E+06         0.00000E+00
    0.33271E+06        -0.14552E+08         0.00000E+00
    0.00000E+00         0.00000E+00        -0.36126E+07
 
   -0.35389E+07         0.39470E+06         0.00000E+00
    0.39470E+06        -0.14555E+08         0.00000E+00
    0.00000E+00         0.00000E+00        -0.36189E+07
 
   -0.35646E+07         0.45725E+06         0.00000E+00
    0.45725E+06        -0.14560E+08         0.00000E+00
    0.00000E+00         0.00000E+00        -0.36249E+07
 
   -0.35887E+07         0.52040E+06         0.00000E+00
    0.52040E+06        -0.14565E+08         0.00000E+00
    0.00000E+00         0.00000E+00        -0.36306E+07
 
   -0.36111E+07         0.58420E+06         0.00000E+00
    0.58420E+06        -0.14570E+08         0.00000E+00
    0.00000E+00         0.00000E+00        -0.36362E+07
 
   -0.36319E+07         0.64868E+06         0.00000E+00
    0.64868E+06        -0.14576E+08         0.00000E+00
    0.00000E+00         0.00000E+00        -0.36415E+07
 
   -0.36512E+07         0.71387E+06         0.00000E+00
    0.71387E+06        -0.14582E+08         0.00000E+00
    0.00000E+00         0.00000E+00        -0.36466E+07
 
   -0.36689E+07         0.77982E+06         0.00000E+00
    0.77982E+06        -0.14588E+08         0.00000E+00
    0.00000E+00         0.00000E+00        -0.36515E+07
 
   -0.36852E+07         0.84656E+06         0.00000E+00
    0.84656E+06        -0.14595E+08         0.00000E+00
    0.00000E+00         0.00000E+00        -0.36561E+07
 
   -0.37002E+07         0.91412E+06         0.00000E+00
    0.91412E+06        -0.14603E+08         0.00000E+00
    0.00000E+00         0.00000E+00        -0.36606E+07
 
   -0.37137E+07         0.98252E+06         0.00000E+00
    0.98252E+06        -0.14610E+08         0.00000E+00
    0.00000E+00         0.00000E+00        -0.36648E+07
 
   -0.37260E+07         0.10518E+07         0.00000E+00
    0.10518E+07        -0.14618E+08         0.00000E+00
    0.00000E+00         0.00000E+00        -0.36689E+07
 
   -0.37370E+07         0.11220E+07         0.00000E+00
    0.11220E+07        -0.14627E+08         0.00000E+00
    0.00000E+00         0.00000E+00        -0.36727E+07
 
   -0.37469E+07         0.11931E+07         0.00000E+00
    0.11931E+07        -0.14635E+08         0.00000E+00
    0.00000E+00         0.00000E+00        -0.36764E+07
 
   -0.37555E+07         0.12651E+07         0.00000E+00
    0.12651E+07        -0.14644E+08         0.00000E+00
    0.00000E+00         0.00000E+00        -0.36799E+07
 
   -0.37631E+07         0.13382E+07         0.00000E+00
    0.13382E+07        -0.14653E+08         0.00000E+00
    0.00000E+00         0.00000E+00        -0.36832E+07
 
   -0.37697E+07         0.14122E+07         0.00000E+00
    0.14122E+07        -0.14662E+08         0.00000E+00
    0.00000E+00         0.00000E+00        -0.36863E+07
 
   -0.37752E+07         0.14872E+07         0.00000E+00
    0.14872E+07        -0.14671E+08         0.00000E+00
    0.00000E+00         0.00000E+00        -0.36892E+07
 
   -0.37798E+07         0.15633E+07         0.00000E+00
    0.15633E+07        -0.14680E+08         0.00000E+00
    0.00000E+00         0.00000E+00        -0.36920E+07
 
   -0.37835E+07         0.16404E+07         0.00000E+00
    0.16404E+07        -0.14689E+08         0.00000E+00
    0.00000E+00         0.00000E+00        -0.36946E+07
 
   -0.37864E+07         0.17186E+07         0.00000E+00
    0.17186E+07        -0.14699E+08         0.00000E+00
    0.00000E+00         0.00000E+00        -0.36970E+07
 
   -0.37885E+07         0.17978E+07         0.00000E+00
    0.17978E+07        -0.14708E+08         0.00000E+00
    0.00000E+00         0.00000E+00        -0.36993E+07
 
   -0.37898E+07         0.18781E+07         0.00000E+00
    0.18781E+07        -0.14717E+08         0.00000E+00
    0.00000E+00         0.00000E+00        -0.37015E+07
 
   -0.37905E+07         0.19595E+07         0.00000E+00
    0.19595E+07        -0.14727E+08         0.00000E+00
    0.00000E+00         0.00000E+00        -0.37034E+07
 
   -0.37904E+07         0.20420E+07         0.00000E+00
    0.20420E+07        -0.14736E+08         0.00000E+00
    0.00000E+00         0.00000E+00        -0.37053E+07
 
   -0.37898E+07         0.21257E+07         0.00000E+00
    0.21257E+07        -0.14745E+08         0.00000E+00
    0.00000E+00         0.00000E+00        -0.37070E+07
 
   -0.37887E+07         0.22104E+07         0.00000E+00
    0.22104E+07        -0.14754E+08         0.00000E+00
    0.00000E+00         0.00000E+00        -0.37085E+07
 
   -0.37870E+07         0.22963E+07         0.00000E+00
    0.22963E+07        -0.14763E+08         0.00000E+00
    0.00000E+00         0.00000E+00        -0.37099E+07
 
   -0.37848E+07         0.23833E+07         0.00000E+00
    0.23833E+07        -0.14771E+08         0.00000E+00
    0.00000E+00         0.00000E+00        -0.37112E+07
 
   -0.37822E+07         0.24715E+07         0.00000E+00
    0.24715E+07        -0.14780E+08         0.00000E+00
    0.00000E+00         0.00000E+00        -0.37124E+07
 
   -0.37793E+07         0.25608E+07         0.00000E+00
    0.25608E+07        -0.14788E+08         0.00000E+00
    0.00000E+00         0.00000E+00        -0.37134E+07
 
   -0.37760E+07         0.26513E+07         0.00000E+00
    0.26513E+07        -0.14796E+08         0.00000E+00
    0.00000E+00         0.00000E+00        -0.37143E+07
 
   -0.37723E+07         0.27429E+07         0.00000E+00
    0.27429E+07        -0.14803E+08         0.00000E+00
    0.00000E+00         0.00000E+00        -0.37151E+07
 
   -0.37685E+07         0.28357E+07         0.00000E+00
    0.28357E+07        -0.14811E+08         0.00000E+00
    0.00000E+00         0.00000E+00        -0.37158E+07
 
   -0.37644E+07         0.29296E+07         0.00000E+00
    0.29296E+07        -0.14818E+08         0.00000E+00
    0.00000E+00         0.00000E+00        -0.37164E+07
 
   -0.37601E+07         0.30247E+07         0.00000E+00
    0.30247E+07        -0.14824E+08         0.00000E+00
    0.00000E+00         0.00000E+00        -0.37169E+07
 
   -0.37556E+07         0.31209E+07         0.00000E+00
    0.31209E+07        -0.14830E+08         0.00000E+00
    0.00000E+00         0.00000E+00        -0.37172E+07
 
   -0.37511E+07         0.32183E+07         0.00000E+00
    0.32183E+07        -0.14836E+08         0.00000E+00
    0.00000E+00         0.00000E+00        -0.37175E+07
 
   -0.37464E+07         0.33169E+07         0.00000E+00
    0.33169E+07        -0.14842E+08         0.00000E+00
    0.00000E+00         0.00000E+00        -0.37176E+07
 
   -0.37418E+07         0.34166E+07         0.00000E+00
    0.34166E+07        -0.14847E+08         0.00000E+00
    0.00000E+00         0.00000E+00        -0.37177E+07
 
   -0.37370E+07         0.35175E+07         0.00000E+00
    0.35175E+07        -0.14851E+08         0.00000E+00
    0.00000E+00         0.00000E+00        -0.37177E+07
 
   -0.37323E+07         0.36196E+07         0.00000E+00
    0.36196E+07        -0.14855E+08         0.00000E+00
    0.00000E+00         0.00000E+00        -0.37175E+07
 
   -0.37277E+07         0.37228E+07         0.00000E+00
    0.37228E+07        -0.14859E+08         0.00000E+00
    0.00000E+00         0.00000E+00        -0.37173E+07
 
   -0.37231E+07         0.38272E+07         0.00000E+00
    0.38272E+07        -0.14862E+08         0.00000E+00
    0.00000E+00         0.00000E+00        -0.37170E+07
 
   -0.37186E+07         0.39327E+07         0.00000E+00
    0.39327E+07        -0.14864E+08         0.00000E+00
    0.00000E+00         0.00000E+00        -0.37166E+07
 
   -0.38104E+07         0.27680E+05         0.00000E+00
    0.27680E+05        -0.15295E+08         0.00000E+00
    0.00000E+00         0.00000E+00        -0.38211E+07
 
   -0.38454E+07         0.83877E+05         0.00000E+00
    0.83877E+05        -0.15296E+08         0.00000E+00
    0.00000E+00         0.00000E+00        -0.38283E+07
 
   -0.38782E+07         0.14051E+06         0.00000E+00
    0.14051E+06        -0.15298E+08         0.00000E+00
    0.00000E+00         0.00000E+00        -0.38352E+07
 
   -0.39089E+07         0.19763E+06         0.00000E+00
    0.19763E+06        -0.15300E+08         0.00000E+00
    0.00000E+00         0.00000E+00        -0.38418E+07
 
   -0.39374E+07         0.25530E+06         0.00000E+00
    0.25530E+06        -0.15303E+08         0.00000E+00
    0.00000E+00         0.00000E+00        -0.38481E+07
 
   -0.39639E+07         0.31356E+06         0.00000E+00
    0.31356E+06        -0.15307E+08         0.00000E+00
    0.00000E+00         0.00000E+00        -0.38542E+07
 
   -0.39883E+07         0.37248E+06         0.00000E+00
    0.37248E+06        -0.15312E+08         0.00000E+00
    0.00000E+00         0.00000E+00        -0.38600E+07
 
   -0.40108E+07         0.43209E+06         0.00000E+00
    0.43209E+06        -0.15317E+08         0.00000E+00
    0.00000E+00         0.00000E+00        -0.38656E+07
 
   -0.40314E+07         0.49244E+06         0.00000E+00
    0.49244E+06        -0.15323E+08         0.00000E+00
    0.00000E+00         0.00000E+00        -0.38709E+07
 
   -0.40501E+07         0.55358E+06         0.00000E+00
    0.55358E+06        -0.15329E+08         0.00000E+00
    0.00000E+00         0.00000E+00        -0.38759E+07
 
   -0.40671E+07         0.61555E+06         0.00000E+00
    0.61555E+06        -0.15336E+08         0.00000E+00
    0.00000E+00         0.00000E+00        -0.38807E+07
 
   -0.40823E+07         0.67838E+06         0.00000E+00
    0.67838E+06        -0.15344E+08         0.00000E+00
    0.00000E+00         0.00000E+00        -0.38853E+07
 
   -0.40959E+07         0.74212E+06         0.00000E+00
    0.74212E+06        -0.15352E+08         0.00000E+00
    0.00000E+00         0.00000E+00        -0.38896E+07
 
   -0.41078E+07         0.80679E+06         0.00000E+00
    0.80679E+06        -0.15361E+08         0.00000E+00
    0.00000E+00         0.00000E+00        -0.38937E+07
 
   -0.41182E+07         0.87244E+06         0.00000E+00
    0.87244E+06        -0.15370E+08         0.00000E+00
    0.00000E+00         0.00000E+00        -0.38976E+07
 
   -0.41270E+07         0.93910E+06         0.00000E+00
    0.93910E+06        -0.15379E+08         0.00000E+00
    0.00000E+00         0.00000E+00        -0.39012E+07
 
   -0.41345E+07         0.10068E+07         0.00000E+00
    0.10068E+07        -0.15389E+08         0.00000E+00
    0.00000E+00         0.00000E+00        -0.39047E+07
 
   -0.41406E+07         0.10755E+07         0.00000E+00
    0.10755E+07        -0.15399E+08         0.00000E+00
    0.00000E+00         0.00000E+00        -0.39079E+07
 
   -0.41453E+07         0.11453E+07         0.00000E+00
    0.11453E+07        -0.15409E+08         0.00000E+00
    0.00000E+00         0.00000E+00        -0.39109E+07
 
   -0.41488E+07         0.12163E+07         0.00000E+00
    0.12163E+07        -0.15420E+08         0.00000E+00
    0.00000E+00         0.00000E+00        -0.39138E+07
 
   -0.41511E+07         0.12883E+07         0.00000E+00
    0.12883E+07        -0.15431E+08         0.00000E+00
    0.00000E+00         0.00000E+00        -0.39164E+07
 
   -0.41522E+07         0.13616E+07         0.00000E+00
    0.13616E+07        -0.15442E+08         0.00000E+00
    0.00000E+00         0.00000E+00        -0.39189E+07
 
   -0.41523E+07         0.14359E+07         0.00000E+00
    0.14359E+07        -0.15453E+08         0.00000E+00
    0.00000E+00         0.00000E+00        -0.39211E+07
 
   -0.41514E+07         0.15115E+07         0.00000E+00
    0.15115E+07        -0.15465E+08         0.00000E+00
    0.00000E+00         0.00000E+00        -0.39232E+07
 
   -0.41494E+07         0.15883E+07         0.00000E+00
    0.15883E+07        -0.15476E+08         0.00000E+00
    0.00000E+00         0.00000E+00        -0.39252E+07
 
   -0.41466E+07         0.16662E+07         0.00000E+00
    0.16662E+07        -0.15488E+08         0.00000E+00
    0.00000E+00         0.00000E+00        -0.39269E+07
 
   -0.41429E+07         0.17454E+07         0.00000E+00
    0.17454E+07        -0.15500E+08         0.00000E+00
    0.00000E+00         0.00000E+00        -0.39285E+07
 
   -0.41384E+07         0.18258E+07         0.00000E+00
    0.18258E+07        -0.15511E+08         0.00000E+00
    0.00000E+00         0.00000E+00        -0.39300E+07
 
   -0.41332E+07         0.19075E+07         0.00000E+00
    0.19075E+07        -0.15523E+08         0.00000E+00
    0.00000E+00         0.00000E+00        -0.39313E+07
 
   -0.41273E+07         0.19904E+07         0.00000E+00
    0.19904E+07        -0.15535E+08         0.00000E+00
    0.00000E+00         0.00000E+00        -0.39324E+07
 
   -0.41207E+07         0.20746E+07         0.00000E+00
    0.20746E+07        -0.15546E+08         0.00000E+00
    0.00000E+00         0.00000E+00        -0.39334E+07
 
   -0.41136E+07         0.21600E+07         0.00000E+00
    0.21600E+07        -0.15558E+08         0.00000E+00
    0.00000E+00         0.00000E+00        -0.39342E+07
 
   -0.41059E+07         0.22467E+07         0.00000E+00
    0.22467E+07        -0.15569E+08         0.00000E+00
    0.00000E+00         0.00000E+00        -0.39350E+07
 
   -0.40977E+07         0.23347E+07         0.00000E+00
    0.23347E+07        -0.15580E+08         0.00000E+00
    0.00000E+00         0.00000E+00        -0.39356E+07
 
   -0.40891E+07         0.24240E+07         0.00000E+00
    0.24240E+07        -0.15591E+08         0.00000E+00
    0.00000E+00         0.00000E+00        -0.39360E+07
 
   -0.40801E+07         0.25145E+07         0.00000E+00
    0.25145E+07        -0.15602E+08         0.00000E+00
    0.00000E+00         0.00000E+00        -0.39363E+07
 
   -0.40707E+07         0.26063E+07         0.00000E+00
    0.26063E+07        -0.15612E+08         0.00000E+00
    0.00000E+00         0.00000E+00        -0.39366E+07
 
   -0.40610E+07         0.26993E+07         0.00000E+00
    0.26993E+07        -0.15622E+08         0.00000E+00
    0.00000E+00         0.00000E+00        -0.39367E+07
 
   -0.40511E+07         0.27937E+07         0.00000E+00
    0.27937E+07        -0.15632E+08         0.00000E+00
    0.00000E+00         0.00000E+00        -0.39366E+07
 
   -0.40409E+07         0.28893E+07         0.00000E+00
    0.28893E+07        -0.15642E+08         0.00000E+00
    0.00000E+00         0.00000E+00        -0.39365E+07
 
   -0.40306E+07         0.29862E+07         0.00000E+00
    0.29862E+07        -0.15651E+08         0.00000E+00
    0.00000E+00         0.00000E+00        -0.39363E+07
 
   -0.40201E+07         0.30843E+07         0.00000E+00
    0.30843E+07        -0.15660E+08         0.00000E+00
    0.00000E+00         0.00000E+00        -0.39360E+07
 
   -0.40094E+07         0.31837E+07         0.00000E+00
    0.31837E+07        -0.15668E+08         0.00000E+00
    0.00000E+00         0.00000E+00        -0.39355E+07
 
   -0.39987E+07         0.32844E+07         0.00000E+00
    0.32844E+07        -0.15676E+08         0.00000E+00
    0.00000E+00         0.00000E+00        -0.39350E+07
 
   -0.39880E+07         0.33864E+07         0.00000E+00
    0.33864E+07        -0.15684E+08         0.00000E+00
    0.00000E+00         0.00000E+00        -0.39344E+07
 
   -0.39772E+07         0.34896E+07         0.00000E+00
    0.34896E+07        -0.15691E+08         0.00000E+00
    0.00000E+00         0.00000E+00        -0.39336E+07
 
   -0.39664E+07         0.35940E+07         0.00000E+00
    0.35940E+07        -0.15698E+08         0.00000E+00
    0.00000E+00         0.00000E+00        -0.39328E+07
 
   -0.39557E+07         0.36998E+07         0.00000E+00
    0.36998E+07        -0.15704E+08         0.00000E+00
    0.00000E+00         0.00000E+00        -0.39319E+07
 
   -0.39451E+07         0.38067E+07         0.00000E+00
    0.38067E+07        -0.15710E+08         0.00000E+00
    0.00000E+00         0.00000E+00        -0.39309E+07
 
   -0.39346E+07         0.39149E+07         0.00000E+00
    0.39149E+07        -0.15715E+08         0.00000E+00
    0.00000E+00         0.00000E+00        -0.39299E+07
 
   -0.43155E+07         0.25310E+05         0.00000E+00
    0.25310E+05        -0.16069E+08         0.00000E+00
    0.00000E+00         0.00000E+00        -0.40770E+07
 
   -0.43482E+07         0.77057E+05         0.00000E+00
    0.77057E+05        -0.16070E+08         0.00000E+00
    0.00000E+00         0.00000E+00        -0.40837E+07
 
   -0.43783E+07         0.12937E+06         0.00000E+00
    0.12937E+06        -0.16072E+08         0.00000E+00
    0.00000E+00         0.00000E+00        -0.40901E+07
 
   -0.44060E+07         0.18232E+06         0.00000E+00
    0.18232E+06        -0.16075E+08         0.00000E+00
    0.00000E+00         0.00000E+00        -0.40963E+07
 
   -0.44313E+07         0.23596E+06         0.00000E+00
    0.23596E+06        -0.16079E+08         0.00000E+00
    0.00000E+00         0.00000E+00        -0.41021E+07
 
   -0.44543E+07         0.29036E+06         0.00000E+00
    0.29036E+06        -0.16084E+08         0.00000E+00
    0.00000E+00         0.00000E+00        -0.41076E+07
 
   -0.44750E+07         0.34556E+06         0.00000E+00
    0.34556E+06        -0.16089E+08         0.00000E+00
    0.00000E+00         0.00000E+00        -0.41129E+07
 
   -0.44935E+07         0.40162E+06         0.00000E+00
    0.40162E+06        -0.16096E+08         0.00000E+00
    0.00000E+00         0.00000E+00        -0.41178E+07
 
   -0.45099E+07         0.45858E+06         0.00000E+00
    0.45858E+06        -0.16103E+08         0.00000E+00
    0.00000E+00         0.00000E+00        -0.41225E+07
 
   -0.45242E+07         0.51651E+06         0.00000E+00
    0.51651E+06        -0.16110E+08         0.00000E+00
    0.00000E+00         0.00000E+00        -0.41269E+07
 
   -0.45364E+07         0.57543E+06         0.00000E+00
    0.57543E+06        -0.16119E+08         0.00000E+00
    0.00000E+00         0.00000E+00        -0.41311E+07
 
   -0.45468E+07         0.63540E+06         0.00000E+00
    0.63540E+06        -0.16128E+08         0.00000E+00
    0.00000E+00         0.00000E+00        -0.41350E+07
 
   -0.45553E+07         0.69645E+06         0.00000E+00
    0.69645E+06        -0.16138E+08         0.00000E+00
    0.00000E+00         0.00000E+00        -0.41386E+07
 
   -0.45620E+07         0.75861E+06         0.00000E+00
    0.75861E+06        -0.16148E+08         0.00000E+00
    0.00000E+00         0.00000E+00        -0.41420E+07
 
   -0.45670E+07         0.82193E+06         0.00000E+00
    0.82193E+06        -0.16159E+08         0.00000E+00
    0.00000E+00         0.00000E+00        -0.41452E+07
 
   -0.45704E+07         0.88643E+06         0.00000E+00
    0.88643E+06        -0.16170E+08         0.00000E+00
    0.00000E+00         0.00000E+00        -0.41481E+07
 
   -0.45721E+07         0.95214E+06         0.00000E+00
    0.95214E+06        -0.16182E+08         0.00000E+00
    0.00000E+00         0.00000E+00        -0.41508E+07
 
   -0.45724E+07         0.10191E+07         0.00000E+00
    0.10191E+07        -0.16194E+08         0.00000E+00
    0.00000E+00         0.00000E+00        -0.41533E+07
 
   -0.45712E+07         0.10873E+07         0.00000E+00
    0.10873E+07        -0.16207E+08         0.00000E+00
    0.00000E+00         0.00000E+00        -0.41556E+07
 
   -0.45687E+07         0.11568E+07         0.00000E+00
    0.11568E+07        -0.16219E+08         0.00000E+00
    0.00000E+00         0.00000E+00        -0.41576E+07
 
   -0.45649E+07         0.12276E+07         0.00000E+00
    0.12276E+07        -0.16233E+08         0.00000E+00
    0.00000E+00         0.00000E+00        -0.41595E+07
 
   -0.45598E+07         0.12998E+07         0.00000E+00
    0.12998E+07        -0.16246E+08         0.00000E+00
    0.00000E+00         0.00000E+00        -0.41612E+07
 
   -0.45536E+07         0.13732E+07         0.00000E+00
    0.13732E+07        -0.16260E+08         0.00000E+00
    0.00000E+00         0.00000E+00        -0.41627E+07
 
   -0.45462E+07         0.14481E+07         0.00000E+00
    0.14481E+07        -0.16274E+08         0.00000E+00
    0.00000E+00         0.00000E+00        -0.41640E+07
 
   -0.45379E+07         0.15243E+07         0.00000E+00
    0.15243E+07        -0.16288E+08         0.00000E+00
    0.00000E+00         0.00000E+00        -0.41651E+07
 
   -0.45285E+07         0.16019E+07         0.00000E+00
    0.16019E+07        -0.16302E+08         0.00000E+00
    0.00000E+00         0.00000E+00        -0.41661E+07
 
   -0.45183E+07         0.16808E+07         0.00000E+00
    0.16808E+07        -0.16316E+08         0.00000E+00
    0.00000E+00         0.00000E+00        -0.41668E+07
 
   -0.45072E+07         0.17612E+07         0.00000E+00
    0.17612E+07        -0.16330E+08         0.00000E+00
    0.00000E+00         0.00000E+00        -0.41675E+07
 
   -0.44954E+07         0.18430E+07         0.00000E+00
    0.18430E+07        -0.16344E+08         0.00000E+00
    0.00000E+00         0.00000E+00        -0.41680E+07
 
   -0.44828E+07         0.19261E+07         0.00000E+00
    0.19261E+07        -0.16359E+08         0.00000E+00
    0.00000E+00         0.00000E+00        -0.41683E+07
 
   -0.44696E+07         0.20107E+07         0.00000E+00
    0.20107E+07        -0.16373E+08         0.00000E+00
    0.00000E+00         0.00000E+00        -0.41685E+07
 
   -0.44558E+07         0.20967E+07         0.00000E+00
    0.20967E+07        -0.16387E+08         0.00000E+00
    0.00000E+00         0.00000E+00        -0.41685E+07
 
   -0.44414E+07         0.21842E+07         0.00000E+00
    0.21842E+07        -0.16401E+08         0.00000E+00
    0.00000E+00         0.00000E+00        -0.41684E+07
 
   -0.44265E+07         0.22730E+07         0.00000E+00
    0.22730E+07        -0.16415E+08         0.00000E+00
    0.00000E+00         0.00000E+00        -0.41682E+07
 
   -0.44112E+07         0.23633E+07         0.00000E+00
    0.23633E+07        -0.16428E+08         0.00000E+00
    0.00000E+00         0.00000E+00        -0.41679E+07
 
   -0.43954E+07         0.24549E+07         0.00000E+00
    0.24549E+07        -0.16442E+08         0.00000E+00
    0.00000E+00         0.00000E+00        -0.41674E+07
 
   -0.43794E+07         0.25480E+07         0.00000E+00
    0.25480E+07        -0.16455E+08         0.00000E+00
    0.00000E+00         0.00000E+00        -0.41669E+07
 
   -0.43630E+07         0.26424E+07         0.00000E+00
    0.26424E+07        -0.16468E+08         0.00000E+00
    0.00000E+00         0.00000E+00        -0.41662E+07
 
   -0.43464E+07         0.27383E+07         0.00000E+00
    0.27383E+07        -0.16480E+08         0.00000E+00
    0.00000E+00         0.00000E+00        -0.41654E+07
 
   -0.43296E+07         0.28356E+07         0.00000E+00
    0.28356E+07        -0.16493E+08         0.00000E+00
    0.00000E+00         0.00000E+00        -0.41645E+07
 
   -0.43126E+07         0.29342E+07         0.00000E+00
    0.29342E+07        -0.16505E+08         0.00000E+00
    0.00000E+00         0.00000E+00        -0.41635E+07
 
   -0.42954E+07         0.30342E+07         0.00000E+00
    0.30342E+07        -0.16516E+08         0.00000E+00
    0.00000E+00         0.00000E+00        -0.41624E+07
 
   -0.42782E+07         0.31356E+07         0.00000E+00
    0.31356E+07        -0.16528E+08         0.00000E+00
    0.00000E+00         0.00000E+00        -0.41612E+07
 
   -0.42610E+07         0.32384E+07         0.00000E+00
    0.32384E+07        -0.16538E+08         0.00000E+00
    0.00000E+00         0.00000E+00        -0.41599E+07
 
   -0.42437E+07         0.33425E+07         0.00000E+00
    0.33425E+07        -0.16549E+08         0.00000E+00
    0.00000E+00         0.00000E+00        -0.41585E+07
 
   -0.42264E+07         0.34480E+07         0.00000E+00
    0.34480E+07        -0.16559E+08         0.00000E+00
    0.00000E+00         0.00000E+00        -0.41570E+07
 
   -0.42091E+07         0.35548E+07         0.00000E+00
    0.35548E+07        -0.16568E+08         0.00000E+00
    0.00000E+00         0.00000E+00        -0.41555E+07
 
   -0.41920E+07         0.36630E+07         0.00000E+00
    0.36630E+07        -0.16577E+08         0.00000E+00
    0.00000E+00         0.00000E+00        -0.41539E+07
 
   -0.41749E+07         0.37725E+07         0.00000E+00
    0.37725E+07        -0.16586E+08         0.00000E+00
    0.00000E+00         0.00000E+00        -0.41521E+07
 
   -0.41579E+07         0.38833E+07         0.00000E+00
    0.38833E+07        -0.16594E+08         0.00000E+00
    0.00000E+00         0.00000E+00        -0.41504E+07
 
   -0.48655E+07         0.22456E+05         0.00000E+00
    0.22456E+05        -0.16864E+08         0.00000E+00
    0.00000E+00         0.00000E+00        -0.43458E+07
 
   -0.48951E+07         0.68872E+05         0.00000E+00
    0.68872E+05        -0.16865E+08         0.00000E+00
    0.00000E+00         0.00000E+00        -0.43520E+07
 
   -0.49218E+07         0.11603E+06         0.00000E+00
    0.11603E+06        -0.16867E+08         0.00000E+00
    0.00000E+00         0.00000E+00        -0.43578E+07
 
   -0.49457E+07         0.16399E+06         0.00000E+00
    0.16399E+06        -0.16871E+08         0.00000E+00
    0.00000E+00         0.00000E+00        -0.43633E+07
 
   -0.49670E+07         0.21283E+06         0.00000E+00
    0.21283E+06        -0.16875E+08         0.00000E+00
    0.00000E+00         0.00000E+00        -0.43684E+07
 
   -0.49856E+07         0.26261E+06         0.00000E+00
    0.26261E+06        -0.16881E+08         0.00000E+00
    0.00000E+00         0.00000E+00        -0.43732E+07
 
   -0.50016E+07         0.31339E+06         0.00000E+00
    0.31339E+06        -0.16887E+08         0.00000E+00
    0.00000E+00         0.00000E+00        -0.43778E+07
 
   -0.50152E+07         0.36523E+06         0.00000E+00
    0.36523E+06        -0.16895E+08         0.00000E+00
    0.00000E+00         0.00000E+00        -0.43820E+07
 
   -0.50264E+07         0.41818E+06         0.00000E+00
    0.41818E+06        -0.16903E+08         0.00000E+00
    0.00000E+00         0.00000E+00        -0.43859E+07
 
   -0.50353E+07         0.47228E+06         0.00000E+00
    0.47228E+06        -0.16912E+08         0.00000E+00
    0.00000E+00         0.00000E+00        -0.43895E+07
 
   -0.50420E+07         0.52759E+06         0.00000E+00
    0.52759E+06        -0.16922E+08         0.00000E+00
    0.00000E+00         0.00000E+00        -0.43929E+07
 
   -0.50466E+07         0.58415E+06         0.00000E+00
    0.58415E+06        -0.16933E+08         0.00000E+00
    0.00000E+00         0.00000E+00        -0.43959E+07
 
   -0.50491E+07         0.64200E+06         0.00000E+00
    0.64200E+06        -0.16945E+08         0.00000E+00
    0.00000E+00         0.00000E+00        -0.43987E+07
 
   -0.50496E+07         0.70117E+06         0.00000E+00
    0.70117E+06        -0.16957E+08         0.00000E+00
    0.00000E+00         0.00000E+00        -0.44013E+07
 
   -0.50482E+07         0.76171E+06         0.00000E+00
    0.76171E+06        -0.16970E+08         0.00000E+00
    0.00000E+00         0.00000E+00        -0.44036E+07
 
   -0.50451E+07         0.82363E+06         0.00000E+00
    0.82363E+06        -0.16983E+08         0.00000E+00
    0.00000E+00         0.00000E+00        -0.44056E+07
 
   -0.50402E+07         0.88698E+06         0.00000E+00
    0.88698E+06        -0.16997E+08         0.00000E+00
    0.00000E+00         0.00000E+00        -0.44074E+07
 
   -0.50337E+07         0.95177E+06         0.00000E+00
    0.95177E+06        -0.17011E+08         0.00000E+00
    0.00000E+00         0.00000E+00        -0.44090E+07
 
   -0.50257E+07         0.10180E+07         0.00000E+00
    0.10180E+07        -0.17026E+08         0.00000E+00
    0.00000E+00         0.00000E+00        -0.44103E+07
 
   -0.50161E+07         0.10858E+07         0.00000E+00
    0.10858E+07        -0.17041E+08         0.00000E+00
    0.00000E+00         0.00000E+00        -0.44115E+07
 
   -0.50052E+07         0.11551E+07         0.00000E+00
    0.11551E+07        -0.17057E+08         0.00000E+00
    0.00000E+00         0.00000E+00        -0.44124E+07
 
   -0.49930E+07         0.12258E+07         0.00000E+00
    0.12258E+07        -0.17073E+08         0.00000E+00
    0.00000E+00         0.00000E+00        -0.44132E+07
 
   -0.49795E+07         0.12982E+07         0.00000E+00
    0.12982E+07        -0.17089E+08         0.00000E+00
    0.00000E+00         0.00000E+00        -0.44137E+07
 
   -0.49649E+07         0.13720E+07         0.00000E+00
    0.13720E+07        -0.17105E+08         0.00000E+00
    0.00000E+00         0.00000E+00        -0.44141E+07
 
   -0.49492E+07         0.14475E+07         0.00000E+00
    0.14475E+07        -0.17122E+08         0.00000E+00
    0.00000E+00         0.00000E+00        -0.44143E+07
 
   -0.49325E+07         0.15245E+07         0.00000E+00
    0.15245E+07        -0.17139E+08         0.00000E+00
    0.00000E+00         0.00000E+00        -0.44143E+07
 
   -0.49149E+07         0.16031E+07         0.00000E+00
    0.16031E+07        -0.17156E+08         0.00000E+00
    0.00000E+00         0.00000E+00        -0.44141E+07
 
   -0.48964E+07         0.16832E+07         0.00000E+00
    0.16832E+07        -0.17173E+08         0.00000E+00
    0.00000E+00         0.00000E+00        -0.44138E+07
 
   -0.48771E+07         0.17650E+07         0.00000E+00
    0.17650E+07        -0.17190E+08         0.00000E+00
    0.00000E+00         0.00000E+00        -0.44134E+07
 
   -0.48570E+07         0.18483E+07         0.00000E+00
    0.18483E+07        -0.17207E+08         0.00000E+00
    0.00000E+00         0.00000E+00        -0.44128E+07
 
   -0.48363E+07         0.19332E+07         0.00000E+00
    0.19332E+07        -0.17224E+08         0.00000E+00
    0.00000E+00         0.00000E+00        -0.44120E+07
 
   -0.48150E+07         0.20197E+07         0.00000E+00
    0.20197E+07        -0.17241E+08         0.00000E+00
    0.00000E+00         0.00000E+00        -0.44111E+07
 
   -0.47932E+07         0.21077E+07         0.00000E+00
    0.21077E+07        -0.17258E+08         0.00000E+00
    0.00000E+00         0.00000E+00        -0.44101E+07
 
   -0.47708E+07         0.21973E+07         0.00000E+00
    0.21973E+07        -0.17274E+08         0.00000E+00
    0.00000E+00         0.00000E+00        -0.44090E+07
 
   -0.47481E+07         0.22885E+07         0.00000E+00
    0.22885E+07        -0.17291E+08         0.00000E+00
    0.00000E+00         0.00000E+00        -0.44078E+07
 
   -0.47250E+07         0.23813E+07         0.00000E+00
    0.23813E+07        -0.17307E+08         0.00000E+00
    0.00000E+00         0.00000E+00        -0.44064E+07
 
   -0.47015E+07         0.24755E+07         0.00000E+00
    0.24755E+07        -0.17323E+08         0.00000E+00
    0.00000E+00         0.00000E+00        -0.44049E+07
 
   -0.46778E+07         0.25714E+07         0.00000E+00
    0.25714E+07        -0.17339E+08         0.00000E+00
    0.00000E+00         0.00000E+00        -0.44034E+07
 
   -0.46539E+07         0.26687E+07         0.00000E+00
    0.26687E+07        -0.17355E+08         0.00000E+00
    0.00000E+00         0.00000E+00        -0.44017E+07
 
   -0.46298E+07         0.27676E+07         0.00000E+00
    0.27676E+07        -0.17370E+08         0.00000E+00
    0.00000E+00         0.00000E+00        -0.43999E+07
 
   -0.46056E+07         0.28680E+07         0.00000E+00
    0.28680E+07        -0.17385E+08         0.00000E+00
    0.00000E+00         0.00000E+00        -0.43981E+07
 
   -0.45813E+07         0.29699E+07         0.00000E+00
    0.29699E+07        -0.17399E+08         0.00000E+00
    0.00000E+00         0.00000E+00        -0.43961E+07
 
   -0.45570E+07         0.30732E+07         0.00000E+00
    0.30732E+07        -0.17413E+08         0.00000E+00
    0.00000E+00         0.00000E+00        -0.43941E+07
 
   -0.45327E+07         0.31780E+07         0.00000E+00
    0.31780E+07        -0.17427E+08         0.00000E+00
    0.00000E+00         0.00000E+00        -0.43920E+07
 
   -0.45084E+07         0.32843E+07         0.00000E+00
    0.32843E+07        -0.17441E+08         0.00000E+00
    0.00000E+00         0.00000E+00        -0.43898E+07
 
   -0.44841E+07         0.33921E+07         0.00000E+00
    0.33921E+07        -0.17453E+08         0.00000E+00
    0.00000E+00         0.00000E+00        -0.43875E+07
 
   -0.44600E+07         0.35012E+07         0.00000E+00
    0.35012E+07        -0.17466E+08         0.00000E+00
    0.00000E+00         0.00000E+00        -0.43852E+07
 
   -0.44359E+07         0.36118E+07         0.00000E+00
    0.36118E+07        -0.17478E+08         0.00000E+00
    0.00000E+00         0.00000E+00        -0.43828E+07
 
   -0.44120E+07         0.37238E+07         0.00000E+00
    0.37238E+07        -0.17489E+08         0.00000E+00
    0.00000E+00         0.00000E+00        -0.43803E+07
 
   -0.43883E+07         0.38371E+07         0.00000E+00
    0.38371E+07        -0.17500E+08         0.00000E+00
    0.00000E+00         0.00000E+00        -0.43777E+07
 
   -0.54643E+07         0.19057E+05         0.00000E+00
    0.19057E+05        -0.17677E+08         0.00000E+00
    0.00000E+00         0.00000E+00        -0.46283E+07
 
   -0.54899E+07         0.59158E+05         0.00000E+00
    0.59158E+05        -0.17678E+08         0.00000E+00
    0.00000E+00         0.00000E+00        -0.46337E+07
 
   -0.55122E+07         0.10021E+06         0.00000E+00
    0.10021E+06        -0.17681E+08         0.00000E+00
    0.00000E+00         0.00000E+00        -0.46387E+07
 
   -0.55314E+07         0.14230E+06         0.00000E+00
    0.14230E+06        -0.17685E+08         0.00000E+00
    0.00000E+00         0.00000E+00        -0.46433E+07
 
   -0.55475E+07         0.18549E+06         0.00000E+00
    0.18549E+06        -0.17691E+08         0.00000E+00
    0.00000E+00         0.00000E+00        -0.46476E+07
 
   -0.55607E+07         0.22985E+06         0.00000E+00
    0.22985E+06        -0.17697E+08         0.00000E+00
    0.00000E+00         0.00000E+00        -0.46516E+07
 
   -0.55711E+07         0.27545E+06         0.00000E+00
    0.27545E+06        -0.17705E+08         0.00000E+00
    0.00000E+00         0.00000E+00        -0.46552E+07
 
   -0.55787E+07         0.32234E+06         0.00000E+00
    0.32234E+06        -0.17714E+08         0.00000E+00
    0.00000E+00         0.00000E+00        -0.46585E+07
 
   -0.55836E+07         0.37058E+06         0.00000E+00
    0.37058E+06        -0.17723E+08         0.00000E+00
    0.00000E+00         0.00000E+00        -0.46614E+07
 
   -0.55860E+07         0.42023E+06         0.00000E+00
    0.42023E+06        -0.17734E+08         0.00000E+00
    0.00000E+00         0.00000E+00        -0.46640E+07
 
   -0.55859E+07         0.47132E+06         0.00000E+00
    0.47132E+06        -0.17746E+08         0.00000E+00
    0.00000E+00         0.00000E+00        -0.46664E+07
 
   -0.55836E+07         0.52391E+06         0.00000E+00
    0.52391E+06        -0.17759E+08         0.00000E+00
    0.00000E+00         0.00000E+00        -0.46684E+07
 
   -0.55789E+07         0.57802E+06         0.00000E+00
    0.57802E+06        -0.17772E+08         0.00000E+00
    0.00000E+00         0.00000E+00        -0.46702E+07
 
   -0.55721E+07         0.63371E+06         0.00000E+00
    0.63371E+06        -0.17786E+08         0.00000E+00
    0.00000E+00         0.00000E+00        -0.46717E+07
 
   -0.55633E+07         0.69100E+06         0.00000E+00
    0.69100E+06        -0.17801E+08         0.00000E+00
    0.00000E+00         0.00000E+00        -0.46729E+07
 
   -0.55525E+07         0.74992E+06         0.00000E+00
    0.74992E+06        -0.17817E+08         0.00000E+00
    0.00000E+00         0.00000E+00        -0.46738E+07
 
   -0.55399E+07         0.81050E+06         0.00000E+00
    0.81050E+06        -0.17833E+08         0.00000E+00
    0.00000E+00         0.00000E+00        -0.46746E+07
 
   -0.55256E+07         0.87276E+06         0.00000E+00
    0.87276E+06        -0.17850E+08         0.00000E+00
    0.00000E+00         0.00000E+00        -0.46750E+07
 
   -0.55095E+07         0.93672E+06         0.00000E+00
    0.93672E+06        -0.17867E+08         0.00000E+00
    0.00000E+00         0.00000E+00        -0.46753E+07
 
   -0.54920E+07         0.10024E+07         0.00000E+00
    0.10024E+07        -0.17885E+08         0.00000E+00
    0.00000E+00         0.00000E+00        -0.46753E+07
 
   -0.54729E+07         0.10698E+07         0.00000E+00
    0.10698E+07        -0.17903E+08         0.00000E+00
    0.00000E+00         0.00000E+00        -0.46752E+07
 
   -0.54525E+07         0.11390E+07         0.00000E+00
    0.11390E+07        -0.17921E+08         0.00000E+00
    0.00000E+00         0.00000E+00        -0.46748E+07
 
   -0.54308E+07         0.12099E+07         0.00000E+00
    0.12099E+07        -0.17940E+08         0.00000E+00
    0.00000E+00         0.00000E+00        -0.46742E+07
 
   -0.54078E+07         0.12826E+07         0.00000E+00
    0.12826E+07        -0.17959E+08         0.00000E+00
    0.00000E+00         0.00000E+00        -0.46735E+07
 
   -0.53838E+07         0.13571E+07         0.00000E+00
    0.13571E+07        -0.17979E+08         0.00000E+00
    0.00000E+00         0.00000E+00        -0.46725E+07
 
   -0.53587E+07         0.14333E+07         0.00000E+00
    0.14333E+07        -0.17998E+08         0.00000E+00
    0.00000E+00         0.00000E+00        -0.46714E+07
 
   -0.53327E+07         0.15113E+07         0.00000E+00
    0.15113E+07        -0.18018E+08         0.00000E+00
    0.00000E+00         0.00000E+00        -0.46702E+07
 
   -0.53058E+07         0.15911E+07         0.00000E+00
    0.15911E+07        -0.18038E+08         0.00000E+00
    0.00000E+00         0.00000E+00        -0.46688E+07
 
   -0.52781E+07         0.16727E+07         0.00000E+00
    0.16727E+07        -0.18058E+08         0.00000E+00
    0.00000E+00         0.00000E+00        -0.46672E+07
 
   -0.52497E+07         0.17560E+07         0.00000E+00
    0.17560E+07        -0.18078E+08         0.00000E+00
    0.00000E+00         0.00000E+00        -0.46655E+07
 
   -0.52207E+07         0.18411E+07         0.00000E+00
    0.18411E+07        -0.18098E+08         0.00000E+00
    0.00000E+00         0.00000E+00        -0.46637E+07
 
   -0.51911E+07         0.19280E+07         0.00000E+00
    0.19280E+07        -0.18118E+08         0.00000E+00
    0.00000E+00         0.00000E+00        -0.46618E+07
 
   -0.51609E+07         0.20165E+07         0.00000E+00
    0.20165E+07        -0.18138E+08         0.00000E+00
    0.00000E+00         0.00000E+00        -0.46597E+07
 
   -0.51304E+07         0.21069E+07         0.00000E+00
    0.21069E+07        -0.18157E+08         0.00000E+00
    0.00000E+00         0.00000E+00        -0.46575E+07
 
   -0.50994E+07         0.21989E+07         0.00000E+00
    0.21989E+07        -0.18177E+08         0.00000E+00
    0.00000E+00         0.00000E+00        -0.46553E+07
 
   -0.50682E+07         0.22927E+07         0.00000E+00
    0.22927E+07        -0.18196E+08         0.00000E+00
    0.00000E+00         0.00000E+00        -0.46529E+07
 
   -0.50367E+07         0.23882E+07         0.00000E+00
    0.23882E+07        -0.18215E+08         0.00000E+00
    0.00000E+00         0.00000E+00        -0.46504E+07
 
   -0.50049E+07         0.24853E+07         0.00000E+00
    0.24853E+07        -0.18234E+08         0.00000E+00
    0.00000E+00         0.00000E+00        -0.46478E+07
 
   -0.49731E+07         0.25842E+07         0.00000E+00
    0.25842E+07        -0.18253E+08         0.00000E+00
    0.00000E+00         0.00000E+00        -0.46452E+07
 
   -0.49411E+07         0.26846E+07         0.00000E+00
    0.26846E+07        -0.18271E+08         0.00000E+00
    0.00000E+00         0.00000E+00        -0.46425E+07
 
   -0.49091E+07         0.27867E+07         0.00000E+00
    0.27867E+07        -0.18289E+08         0.00000E+00
    0.00000E+00         0.00000E+00        -0.46397E+07
 
   -0.48771E+07         0.28904E+07         0.00000E+00
    0.28904E+07        -0.18307E+08         0.00000E+00
    0.00000E+00         0.00000E+00        -0.46368E+07
 
   -0.48451E+07         0.29957E+07         0.00000E+00
    0.29957E+07        -0.18324E+08         0.00000E+00
    0.00000E+00         0.00000E+00        -0.46338E+07
 
   -0.48132E+07         0.31026E+07         0.00000E+00
    0.31026E+07        -0.18341E+08         0.00000E+00
    0.00000E+00         0.00000E+00        -0.46308E+07
 
   -0.47815E+07         0.32110E+07         0.00000E+00
    0.32110E+07        -0.18357E+08         0.00000E+00
    0.00000E+00         0.00000E+00        -0.46278E+07
 
   -0.47498E+07         0.33210E+07         0.00000E+00
    0.33210E+07        -0.18373E+08         0.00000E+00
    0.00000E+00         0.00000E+00        -0.46246E+07
 
   -0.47183E+07         0.34325E+07         0.00000E+00
    0.34325E+07        -0.18389E+08         0.00000E+00
    0.00000E+00         0.00000E+00        -0.46215E+07
 
   -0.46871E+07         0.35454E+07         0.00000E+00
    0.35454E+07        -0.18404E+08         0.00000E+00
    0.00000E+00         0.00000E+00        -0.46182E+07
 
   -0.46560E+07         0.36598E+07         0.00000E+00
    0.36598E+07        -0.18419E+08         0.00000E+00
    0.00000E+00         0.00000E+00        -0.46149E+07
 
   -0.46252E+07         0.37757E+07         0.00000E+00
    0.37757E+07        -0.18433E+08         0.00000E+00
    0.00000E+00         0.00000E+00        -0.46116E+07
 
   -0.61165E+07         0.15050E+05         0.00000E+00
    0.15050E+05        -0.18509E+08         0.00000E+00
    0.00000E+00         0.00000E+00        -0.49251E+07
 
   -0.61369E+07         0.47756E+05         0.00000E+00
    0.47756E+05        -0.18511E+08         0.00000E+00
    0.00000E+00         0.00000E+00        -0.49295E+07
 
   -0.61536E+07         0.81690E+05         0.00000E+00
    0.81690E+05        -0.18514E+08         0.00000E+00
    0.00000E+00         0.00000E+00        -0.49335E+07
 
   -0.61667E+07         0.11693E+06         0.00000E+00
    0.11693E+06        -0.18519E+08         0.00000E+00
    0.00000E+00         0.00000E+00        -0.49371E+07
 
   -0.61765E+07         0.15356E+06         0.00000E+00
    0.15356E+06        -0.18525E+08         0.00000E+00
    0.00000E+00         0.00000E+00        -0.49403E+07
 
   -0.61830E+07         0.19164E+06         0.00000E+00
    0.19164E+06        -0.18532E+08         0.00000E+00
    0.00000E+00         0.00000E+00        -0.49431E+07
 
   -0.61863E+07         0.23125E+06         0.00000E+00
    0.23125E+06        -0.18541E+08         0.00000E+00
    0.00000E+00         0.00000E+00        -0.49455E+07
 
   -0.61866E+07         0.27244E+06         0.00000E+00
    0.27244E+06        -0.18551E+08         0.00000E+00
    0.00000E+00         0.00000E+00        -0.49476E+07
 
   -0.61839E+07         0.31527E+06         0.00000E+00
    0.31527E+06        -0.18563E+08         0.00000E+00
    0.00000E+00         0.00000E+00        -0.49493E+07
 
   -0.61785E+07         0.35978E+06         0.00000E+00
    0.35978E+06        -0.18575E+08         0.00000E+00
    0.00000E+00         0.00000E+00        -0.49507E+07
 
   -0.61704E+07         0.40603E+06         0.00000E+00
    0.40603E+06        -0.18589E+08         0.00000E+00
    0.00000E+00         0.00000E+00        -0.49518E+07
 
   -0.61597E+07         0.45406E+06         0.00000E+00
    0.45406E+06        -0.18603E+08         0.00000E+00
    0.00000E+00         0.00000E+00        -0.49526E+07
 
   -0.61466E+07         0.50391E+06         0.00000E+00
    0.50391E+06        -0.18619E+08         0.00000E+00
    0.00000E+00         0.00000E+00        -0.49531E+07
 
   -0.61313E+07         0.55560E+06         0.00000E+00
    0.55560E+06        -0.18635E+08         0.00000E+00
    0.00000E+00         0.00000E+00        -0.49533E+07
 
   -0.61137E+07         0.60918E+06         0.00000E+00
    0.60918E+06        -0.18652E+08         0.00000E+00
    0.00000E+00         0.00000E+00        -0.49532E+07
 
   -0.60940E+07         0.66466E+06         0.00000E+00
    0.66466E+06        -0.18670E+08         0.00000E+00
    0.00000E+00         0.00000E+00        -0.49528E+07
 
   -0.60724E+07         0.72206E+06         0.00000E+00
    0.72206E+06        -0.18689E+08         0.00000E+00
    0.00000E+00         0.00000E+00        -0.49522E+07
 
   -0.60489E+07         0.78142E+06         0.00000E+00
    0.78142E+06        -0.18708E+08         0.00000E+00
    0.00000E+00         0.00000E+00        -0.49514E+07
 
   -0.60237E+07         0.84274E+06         0.00000E+00
    0.84274E+06        -0.18728E+08         0.00000E+00
    0.00000E+00         0.00000E+00        -0.49503E+07
 
   -0.59969E+07         0.90603E+06         0.00000E+00
    0.90603E+06        -0.18748E+08         0.00000E+00
    0.00000E+00         0.00000E+00        -0.49490E+07
 
   -0.59685E+07         0.97132E+06         0.00000E+00
    0.97132E+06        -0.18769E+08         0.00000E+00
    0.00000E+00         0.00000E+00        -0.49475E+07
 
   -0.59387E+07         0.10386E+07         0.00000E+00
    0.10386E+07        -0.18790E+08         0.00000E+00
    0.00000E+00         0.00000E+00        -0.49458E+07
 
   -0.59076E+07         0.11079E+07         0.00000E+00
    0.11079E+07        -0.18812E+08         0.00000E+00
    0.00000E+00         0.00000E+00        -0.49439E+07
 
   -0.58752E+07         0.11792E+07         0.00000E+00
    0.11792E+07        -0.18834E+08         0.00000E+00
    0.00000E+00         0.00000E+00        -0.49418E+07
 
   -0.58418E+07         0.12524E+07         0.00000E+00
    0.12524E+07        -0.18856E+08         0.00000E+00
    0.00000E+00         0.00000E+00        -0.49396E+07
 
   -0.58073E+07         0.13277E+07         0.00000E+00
    0.13277E+07        -0.18879E+08         0.00000E+00
    0.00000E+00         0.00000E+00        -0.49372E+07
 
   -0.57718E+07         0.14050E+07         0.00000E+00
    0.14050E+07        -0.18901E+08         0.00000E+00
    0.00000E+00         0.00000E+00        -0.49347E+07
 
   -0.57356E+07         0.14843E+07         0.00000E+00
    0.14843E+07        -0.18924E+08         0.00000E+00
    0.00000E+00         0.00000E+00        -0.49320E+07
 
   -0.56985E+07         0.15655E+07         0.00000E+00
    0.15655E+07        -0.18947E+08         0.00000E+00
    0.00000E+00         0.00000E+00        -0.49291E+07
 
   -0.56608E+07         0.16487E+07         0.00000E+00
    0.16487E+07        -0.18970E+08         0.00000E+00
    0.00000E+00         0.00000E+00        -0.49262E+07
 
   -0.56225E+07         0.17339E+07         0.00000E+00
    0.17339E+07        -0.18993E+08         0.00000E+00
    0.00000E+00         0.00000E+00        -0.49231E+07
 
   -0.55836E+07         0.18210E+07         0.00000E+00
    0.18210E+07        -0.19016E+08         0.00000E+00
    0.00000E+00         0.00000E+00        -0.49200E+07
 
   -0.55443E+07         0.19101E+07         0.00000E+00
    0.19101E+07        -0.19039E+08         0.00000E+00
    0.00000E+00         0.00000E+00        -0.49167E+07
 
   -0.55047E+07         0.20011E+07         0.00000E+00
    0.20011E+07        -0.19062E+08         0.00000E+00
    0.00000E+00         0.00000E+00        -0.49133E+07
 
   -0.54647E+07         0.20939E+07         0.00000E+00
    0.20939E+07        -0.19085E+08         0.00000E+00
    0.00000E+00         0.00000E+00        -0.49099E+07
 
   -0.54246E+07         0.21887E+07         0.00000E+00
    0.21887E+07        -0.19107E+08         0.00000E+00
    0.00000E+00         0.00000E+00        -0.49063E+07
 
   -0.53842E+07         0.22853E+07         0.00000E+00
    0.22853E+07        -0.19129E+08         0.00000E+00
    0.00000E+00         0.00000E+00        -0.49027E+07
 
   -0.53437E+07         0.23837E+07         0.00000E+00
    0.23837E+07        -0.19151E+08         0.00000E+00
    0.00000E+00         0.00000E+00        -0.48990E+07
 
   -0.53032E+07         0.24839E+07         0.00000E+00
    0.24839E+07        -0.19173E+08         0.00000E+00
    0.00000E+00         0.00000E+00        -0.48953E+07
 
   -0.52628E+07         0.25860E+07         0.00000E+00
    0.25860E+07        -0.19195E+08         0.00000E+00
    0.00000E+00         0.00000E+00        -0.48915E+07
 
   -0.52223E+07         0.26898E+07         0.00000E+00
    0.26898E+07        -0.19216E+08         0.00000E+00
    0.00000E+00         0.00000E+00        -0.48876E+07
 
   -0.51820E+07         0.27953E+07         0.00000E+00
    0.27953E+07        -0.19237E+08         0.00000E+00
    0.00000E+00         0.00000E+00        -0.48837E+07
 
   -0.51418E+07         0.29025E+07         0.00000E+00
    0.29025E+07        -0.19257E+08         0.00000E+00
    0.00000E+00         0.00000E+00        -0.48798E+07
 
   -0.51019E+07         0.30115E+07         0.00000E+00
    0.30115E+07        -0.19277E+08         0.00000E+00
    0.00000E+00         0.00000E+00        -0.48758E+07
 
   -0.50621E+07         0.31220E+07         0.00000E+00
    0.31220E+07        -0.19297E+08         0.00000E+00
    0.00000E+00         0.00000E+00        -0.48718E+07
 
   -0.50227E+07         0.32342E+07         0.00000E+00
    0.32342E+07        -0.19316E+08         0.00000E+00
    0.00000E+00         0.00000E+00        -0.48677E+07
 
   -0.49835E+07         0.33480E+07         0.00000E+00
    0.33480E+07        -0.19335E+08         0.00000E+00
    0.00000E+00         0.00000E+00        -0.48637E+07
 
   -0.49447E+07         0.34634E+07         0.00000E+00
    0.34634E+07        -0.19353E+08         0.00000E+00
    0.00000E+00         0.00000E+00        -0.48596E+07
 
   -0.49062E+07         0.35802E+07         0.00000E+00
    0.35802E+07        -0.19371E+08         0.00000E+00
    0.00000E+00         0.00000E+00        -0.48554E+07
 
   -0.48681E+07         0.36986E+07         0.00000E+00
    0.36986E+07        -0.19388E+08         0.00000E+00
    0.00000E+00         0.00000E+00        -0.48512E+07
 
   -0.68269E+07         0.10378E+05         0.00000E+00
    0.10378E+05        -0.19359E+08         0.00000E+00
    0.00000E+00         0.00000E+00        -0.52371E+07
 
   -0.68405E+07         0.34531E+05         0.00000E+00
    0.34531E+05        -0.19361E+08         0.00000E+00
    0.00000E+00         0.00000E+00        -0.52402E+07
 
   -0.68500E+07         0.60253E+05         0.00000E+00
    0.60253E+05        -0.19364E+08         0.00000E+00
    0.00000E+00         0.00000E+00        -0.52429E+07
 
   -0.68556E+07         0.87630E+05         0.00000E+00
    0.87630E+05        -0.19370E+08         0.00000E+00
    0.00000E+00         0.00000E+00        -0.52451E+07
 
   -0.68574E+07         0.11674E+06         0.00000E+00
    0.11674E+06        -0.19377E+08         0.00000E+00
    0.00000E+00         0.00000E+00        -0.52469E+07
 
   -0.68556E+07         0.14765E+06         0.00000E+00
    0.14765E+06        -0.19386E+08         0.00000E+00
    0.00000E+00         0.00000E+00        -0.52482E+07
 
   -0.68503E+07         0.18043E+06         0.00000E+00
    0.18043E+06        -0.19396E+08         0.00000E+00
    0.00000E+00         0.00000E+00        -0.52492E+07
 
   -0.68417E+07         0.21514E+06         0.00000E+00
    0.21514E+06        -0.19407E+08         0.00000E+00
    0.00000E+00         0.00000E+00        -0.52498E+07
 
   -0.68299E+07         0.25183E+06         0.00000E+00
    0.25183E+06        -0.19420E+08         0.00000E+00
    0.00000E+00         0.00000E+00        -0.52500E+07
 
   -0.68151E+07         0.29055E+06         0.00000E+00
    0.29055E+06        -0.19434E+08         0.00000E+00
    0.00000E+00         0.00000E+00        -0.52499E+07
 
   -0.67974E+07         0.33134E+06         0.00000E+00
    0.33134E+06        -0.19450E+08         0.00000E+00
    0.00000E+00         0.00000E+00        -0.52494E+07
 
   -0.67770E+07         0.37424E+06         0.00000E+00
    0.37424E+06        -0.19466E+08         0.00000E+00
    0.00000E+00         0.00000E+00        -0.52486E+07
 
   -0.67539E+07         0.41928E+06         0.00000E+00
    0.41928E+06        -0.19484E+08         0.00000E+00
    0.00000E+00         0.00000E+00        -0.52475E+07
 
   -0.67284E+07         0.46650E+06         0.00000E+00
    0.46650E+06        -0.19502E+08         0.00000E+00
    0.00000E+00         0.00000E+00        -0.52461E+07
 
   -0.67006E+07         0.51590E+06         0.00000E+00
    0.51590E+06        -0.19522E+08         0.00000E+00
    0.00000E+00         0.00000E+00        -0.52444E+07
 
   -0.66706E+07         0.56752E+06         0.00000E+00
    0.56752E+06        -0.19542E+08         0.00000E+00
    0.00000E+00         0.00000E+00        -0.52425E+07
 
   -0.66386E+07         0.62137E+06         0.00000E+00
    0.62137E+06        -0.19563E+08         0.00000E+00
    0.00000E+00         0.00000E+00        -0.52403E+07
 
   -0.66046E+07         0.67747E+06         0.00000E+00
    0.67747E+06        -0.19585E+08         0.00000E+00
    0.00000E+00         0.00000E+00        -0.52378E+07
 
   -0.65689E+07         0.73581E+06         0.00000E+00
    0.73581E+06        -0.19607E+08         0.00000E+00
    0.00000E+00         0.00000E+00        -0.52352E+07
 
   -0.65314E+07         0.79642E+06         0.00000E+00
    0.79642E+06        -0.19630E+08         0.00000E+00
    0.00000E+00         0.00000E+00        -0.52323E+07
 
   -0.64924E+07         0.85929E+06         0.00000E+00
    0.85929E+06        -0.19653E+08         0.00000E+00
    0.00000E+00         0.00000E+00        -0.52292E+07
 
   -0.64520E+07         0.92441E+06         0.00000E+00
    0.92441E+06        -0.19677E+08         0.00000E+00
    0.00000E+00         0.00000E+00        -0.52259E+07
 
   -0.64102E+07         0.99180E+06         0.00000E+00
    0.99180E+06        -0.19702E+08         0.00000E+00
    0.00000E+00         0.00000E+00        -0.52224E+07
 
   -0.63673E+07         0.10614E+07         0.00000E+00
    0.10614E+07        -0.19727E+08         0.00000E+00
    0.00000E+00         0.00000E+00        -0.52188E+07
 
   -0.63232E+07         0.11333E+07         0.00000E+00
    0.11333E+07        -0.19752E+08         0.00000E+00
    0.00000E+00         0.00000E+00        -0.52150E+07
 
   -0.62781E+07         0.12075E+07         0.00000E+00
    0.12075E+07        -0.19777E+08         0.00000E+00
    0.00000E+00         0.00000E+00        -0.52111E+07
 
   -0.62322E+07         0.12838E+07         0.00000E+00
    0.12838E+07        -0.19803E+08         0.00000E+00
    0.00000E+00         0.00000E+00        -0.52070E+07
 
   -0.61854E+07         0.13624E+07         0.00000E+00
    0.13624E+07        -0.19829E+08         0.00000E+00
    0.00000E+00         0.00000E+00        -0.52028E+07
 
   -0.61379E+07         0.14432E+07         0.00000E+00
    0.14432E+07        -0.19855E+08         0.00000E+00
    0.00000E+00         0.00000E+00        -0.51985E+07
 
   -0.60899E+07         0.15262E+07         0.00000E+00
    0.15262E+07        -0.19881E+08         0.00000E+00
    0.00000E+00         0.00000E+00        -0.51941E+07
 
   -0.60413E+07         0.16113E+07         0.00000E+00
    0.16113E+07        -0.19907E+08         0.00000E+00
    0.00000E+00         0.00000E+00        -0.51896E+07
 
   -0.59923E+07         0.16986E+07         0.00000E+00
    0.16986E+07        -0.19933E+08         0.00000E+00
    0.00000E+00         0.00000E+00        -0.51850E+07
 
   -0.59429E+07         0.17880E+07         0.00000E+00
    0.17880E+07        -0.19959E+08         0.00000E+00
    0.00000E+00         0.00000E+00        -0.51804E+07
 
   -0.58932E+07         0.18795E+07         0.00000E+00
    0.18795E+07        -0.19985E+08         0.00000E+00
    0.00000E+00         0.00000E+00        -0.51756E+07
 
   -0.58434E+07         0.19731E+07         0.00000E+00
    0.19731E+07        -0.20011E+08         0.00000E+00
    0.00000E+00         0.00000E+00        -0.51708E+07
 
   -0.57935E+07         0.20687E+07         0.00000E+00
    0.20687E+07        -0.20036E+08         0.00000E+00
    0.00000E+00         0.00000E+00        -0.51660E+07
 
   -0.57435E+07         0.21664E+07         0.00000E+00
    0.21664E+07        -0.20062E+08         0.00000E+00
    0.00000E+00         0.00000E+00        -0.51611E+07
 
   -0.56935E+07         0.22660E+07         0.00000E+00
    0.22660E+07        -0.20087E+08         0.00000E+00
    0.00000E+00         0.00000E+00        -0.51561E+07
 
   -0.56437E+07         0.23676E+07         0.00000E+00
    0.23676E+07        -0.20112E+08         0.00000E+00
    0.00000E+00         0.00000E+00        -0.51512E+07
 
   -0.55939E+07         0.24712E+07         0.00000E+00
    0.24712E+07        -0.20137E+08         0.00000E+00
    0.00000E+00         0.00000E+00        -0.51462E+07
 
   -0.55444E+07         0.25767E+07         0.00000E+00
    0.25767E+07        -0.20161E+08         0.00000E+00
    0.00000E+00         0.00000E+00        -0.51412E+07
 
   -0.54952E+07         0.26840E+07         0.00000E+00
    0.26840E+07        -0.20186E+08         0.00000E+00
    0.00000E+00         0.00000E+00        -0.51361E+07
 
   -0.54463E+07         0.27932E+07         0.00000E+00
    0.27932E+07        -0.20209E+08         0.00000E+00
    0.00000E+00         0.00000E+00        -0.51311E+07
 
   -0.53977E+07         0.29041E+07         0.00000E+00
    0.29041E+07        -0.20233E+08         0.00000E+00
    0.00000E+00         0.00000E+00        -0.51261E+07
 
   -0.53495E+07         0.30168E+07         0.00000E+00
    0.30168E+07        -0.20256E+08         0.00000E+00
    0.00000E+00         0.00000E+00        -0.51210E+07
 
   -0.53018E+07         0.31313E+07         0.00000E+00
    0.31313E+07        -0.20278E+08         0.00000E+00
    0.00000E+00         0.00000E+00        -0.51160E+07
 
   -0.52546E+07         0.32474E+07         0.00000E+00
    0.32474E+07        -0.20300E+08         0.00000E+00
    0.00000E+00         0.00000E+00        -0.51109E+07
 
   -0.52079E+07         0.33651E+07         0.00000E+00
    0.33651E+07        -0.20322E+08         0.00000E+00
    0.00000E+00         0.00000E+00        -0.51059E+07
 
   -0.51617E+07         0.34844E+07         0.00000E+00
    0.34844E+07        -0.20343E+08         0.00000E+00
    0.00000E+00         0.00000E+00        -0.51009E+07
 
   -0.51160E+07         0.36053E+07         0.00000E+00
    0.36053E+07        -0.20363E+08         0.00000E+00
    0.00000E+00         0.00000E+00        -0.50958E+07
 
   -0.76007E+07         0.49960E+04         0.00000E+00
    0.49960E+04        -0.20225E+08         0.00000E+00
    0.00000E+00         0.00000E+00        -0.55651E+07
 
   -0.76056E+07         0.19383E+05         0.00000E+00
    0.19383E+05        -0.20227E+08         0.00000E+00
    0.00000E+00         0.00000E+00        -0.55665E+07
 
   -0.76060E+07         0.35767E+05         0.00000E+00
    0.35767E+05        -0.20231E+08         0.00000E+00
    0.00000E+00         0.00000E+00        -0.55675E+07
 
   -0.76021E+07         0.54234E+05         0.00000E+00
    0.54234E+05        -0.20237E+08         0.00000E+00
    0.00000E+00         0.00000E+00        -0.55679E+07
 
   -0.75940E+07         0.74857E+05         0.00000E+00
    0.74857E+05        -0.20246E+08         0.00000E+00
    0.00000E+00         0.00000E+00        -0.55679E+07
 
   -0.75820E+07         0.97705E+05         0.00000E+00
    0.97705E+05        -0.20255E+08         0.00000E+00
    0.00000E+00         0.00000E+00        -0.55675E+07
 
   -0.75662E+07         0.12284E+06         0.00000E+00
    0.12284E+06        -0.20267E+08         0.00000E+00
    0.00000E+00         0.00000E+00        -0.55666E+07
 
   -0.75469E+07         0.15031E+06         0.00000E+00
    0.15031E+06        -0.20280E+08         0.00000E+00
    0.00000E+00         0.00000E+00        -0.55653E+07
 
   -0.75241E+07         0.18017E+06         0.00000E+00
    0.18017E+06        -0.20294E+08         0.00000E+00
    0.00000E+00         0.00000E+00        -0.55637E+07
 
   -0.74980E+07         0.21245E+06         0.00000E+00
    0.21245E+06        -0.20310E+08         0.00000E+00
    0.00000E+00         0.00000E+00        -0.55616E+07
 
   -0.74689E+07         0.24720E+06         0.00000E+00
    0.24720E+06        -0.20327E+08         0.00000E+00
    0.00000E+00         0.00000E+00        -0.55592E+07
 
   -0.74369E+07         0.28444E+06         0.00000E+00
    0.28444E+06        -0.20346E+08         0.00000E+00
    0.00000E+00         0.00000E+00        -0.55565E+07
 
   -0.74022E+07         0.32418E+06         0.00000E+00
    0.32418E+06        -0.20365E+08         0.00000E+00
    0.00000E+00         0.00000E+00        -0.55535E+07
 
   -0.73649E+07         0.36647E+06         0.00000E+00
    0.36647E+06        -0.20386E+08         0.00000E+00
    0.00000E+00         0.00000E+00        -0.55501E+07
 
   -0.73253E+07         0.41129E+06         0.00000E+00
    0.41129E+06        -0.20407E+08         0.00000E+00
    0.00000E+00         0.00000E+00        -0.55465E+07
 
   -0.72833E+07         0.45868E+06         0.00000E+00
    0.45868E+06        -0.20430E+08         0.00000E+00
    0.00000E+00         0.00000E+00        -0.55426E+07
 
   -0.72393E+07         0.50862E+06         0.00000E+00
    0.50862E+06        -0.20453E+08         0.00000E+00
    0.00000E+00         0.00000E+00        -0.55385E+07
 
   -0.71933E+07         0.56113E+06         0.00000E+00
    0.56113E+06        -0.20477E+08         0.00000E+00
    0.00000E+00         0.00000E+00        -0.55341E+07
 
   -0.71455E+07         0.61621E+06         0.00000E+00
    0.61621E+06        -0.20502E+08         0.00000E+00
    0.00000E+00         0.00000E+00        -0.55295E+07
 
   -0.70960E+07         0.67384E+06         0.00000E+00
    0.67384E+06        -0.20528E+08         0.00000E+00
    0.00000E+00         0.00000E+00        -0.55247E+07
 
   -0.70450E+07         0.73403E+06         0.00000E+00
    0.73403E+06        -0.20554E+08         0.00000E+00
    0.00000E+00         0.00000E+00        -0.55197E+07
 
   -0.69926E+07         0.79677E+06         0.00000E+00
    0.79677E+06        -0.20580E+08         0.00000E+00
    0.00000E+00         0.00000E+00        -0.55146E+07
 
   -0.69389E+07         0.86203E+06         0.00000E+00
    0.86203E+06        -0.20607E+08         0.00000E+00
    0.00000E+00         0.00000E+00        -0.55092E+07
 
   -0.68840E+07         0.92982E+06         0.00000E+00
    0.92982E+06        -0.20635E+08         0.00000E+00
    0.00000E+00         0.00000E+00        -0.55038E+07
 
   -0.68281E+07         0.10001E+07         0.00000E+00
    0.10001E+07        -0.20663E+08         0.00000E+00
    0.00000E+00         0.00000E+00        -0.54982E+07
 
   -0.67713E+07         0.10729E+07         0.00000E+00
    0.10729E+07        -0.20691E+08         0.00000E+00
    0.00000E+00         0.00000E+00        -0.54924E+07
 
   -0.67136E+07         0.11481E+07         0.00000E+00
    0.11481E+07        -0.20719E+08         0.00000E+00
    0.00000E+00         0.00000E+00        -0.54866E+07
 
   -0.66552E+07         0.12258E+07         0.00000E+00
    0.12258E+07        -0.20748E+08         0.00000E+00
    0.00000E+00         0.00000E+00        -0.54806E+07
 
   -0.65962E+07         0.13060E+07         0.00000E+00
    0.13060E+07        -0.20777E+08         0.00000E+00
    0.00000E+00         0.00000E+00        -0.54746E+07
 
   -0.65368E+07         0.13885E+07         0.00000E+00
    0.13885E+07        -0.20806E+08         0.00000E+00
    0.00000E+00         0.00000E+00        -0.54685E+07
 
   -0.64769E+07         0.14734E+07         0.00000E+00
    0.14734E+07        -0.20835E+08         0.00000E+00
    0.00000E+00         0.00000E+00        -0.54623E+07
 
   -0.64166E+07         0.15607E+07         0.00000E+00
    0.15607E+07        -0.20864E+08         0.00000E+00
    0.00000E+00         0.00000E+00        -0.54561E+07
 
   -0.63562E+07         0.16503E+07         0.00000E+00
    0.16503E+07        -0.20893E+08         0.00000E+00
    0.00000E+00         0.00000E+00        -0.54498E+07
 
   -0.62956E+07         0.17421E+07         0.00000E+00
    0.17421E+07        -0.20922E+08         0.00000E+00
    0.00000E+00         0.00000E+00        -0.54435E+07
 
   -0.62350E+07         0.18363E+07         0.00000E+00
    0.18363E+07        -0.20951E+08         0.00000E+00
    0.00000E+00         0.00000E+00        -0.54372E+07
 
   -0.61744E+07         0.19327E+07         0.00000E+00
    0.19327E+07        -0.20980E+08         0.00000E+00
    0.00000E+00         0.00000E+00        -0.54309E+07
 
   -0.61140E+07         0.20313E+07         0.00000E+00
    0.20313E+07        -0.21009E+08         0.00000E+00
    0.00000E+00         0.00000E+00        -0.54245E+07
 
   -0.60537E+07         0.21321E+07         0.00000E+00
    0.21321E+07        -0.21037E+08         0.00000E+00
    0.00000E+00         0.00000E+00        -0.54182E+07
 
   -0.59936E+07         0.22350E+07         0.00000E+00
    0.22350E+07        -0.21065E+08         0.00000E+00
    0.00000E+00         0.00000E+00        -0.54118E+07
 
   -0.59339E+07         0.23400E+07         0.00000E+00
    0.23400E+07        -0.21094E+08         0.00000E+00
    0.00000E+00         0.00000E+00        -0.54055E+07
 
   -0.58746E+07         0.24470E+07         0.00000E+00
    0.24470E+07        -0.21121E+08         0.00000E+00
    0.00000E+00         0.00000E+00        -0.53992E+07
 
   -0.58158E+07         0.25561E+07         0.00000E+00
    0.25561E+07        -0.21149E+08         0.00000E+00
    0.00000E+00         0.00000E+00        -0.53929E+07
 
   -0.57575E+07         0.26671E+07         0.00000E+00
    0.26671E+07        -0.21176E+08         0.00000E+00
    0.00000E+00         0.00000E+00        -0.53867E+07
 
   -0.56997E+07         0.27801E+07         0.00000E+00
    0.27801E+07        -0.21203E+08         0.00000E+00
    0.00000E+00         0.00000E+00        -0.53805E+07
 
   -0.56426E+07         0.28950E+07         0.00000E+00
    0.28950E+07        -0.21229E+08         0.00000E+00
    0.00000E+00         0.00000E+00        -0.53743E+07
 
   -0.55861E+07         0.30116E+07         0.00000E+00
    0.30116E+07        -0.21255E+08         0.00000E+00
    0.00000E+00         0.00000E+00        -0.53682E+07
 
   -0.55304E+07         0.31301E+07         0.00000E+00
    0.31301E+07        -0.21280E+08         0.00000E+00
    0.00000E+00         0.00000E+00        -0.53621E+07
 
   -0.54754E+07         0.32502E+07         0.00000E+00
    0.32502E+07        -0.21305E+08         0.00000E+00
    0.00000E+00         0.00000E+00        -0.53561E+07
 
   -0.54212E+07         0.33721E+07         0.00000E+00
    0.33721E+07        -0.21329E+08         0.00000E+00
    0.00000E+00         0.00000E+00        -0.53501E+07
 
   -0.53678E+07         0.34955E+07         0.00000E+00
    0.34955E+07        -0.21353E+08         0.00000E+00
    0.00000E+00         0.00000E+00        -0.53442E+07
 
   -0.84430E+07        -0.11242E+04         0.00000E+00
   -0.11242E+04        -0.21106E+08         0.00000E+00
    0.00000E+00         0.00000E+00        -0.59099E+07
 
   -0.84369E+07         0.22757E+04         0.00000E+00
    0.22757E+04        -0.21109E+08         0.00000E+00
    0.00000E+00         0.00000E+00        -0.59092E+07
 
   -0.84258E+07         0.82040E+04         0.00000E+00
    0.82040E+04        -0.21114E+08         0.00000E+00
    0.00000E+00         0.00000E+00        -0.59079E+07
 
   -0.84100E+07         0.16738E+05         0.00000E+00
    0.16738E+05        -0.21121E+08         0.00000E+00
    0.00000E+00         0.00000E+00        -0.59061E+07
 
   -0.83898E+07         0.27946E+05         0.00000E+00
    0.27946E+05        -0.21130E+08         0.00000E+00
    0.00000E+00         0.00000E+00        -0.59039E+07
 
   -0.83652E+07         0.41886E+05         0.00000E+00
    0.41886E+05        -0.21140E+08         0.00000E+00
    0.00000E+00         0.00000E+00        -0.59011E+07
 
   -0.83367E+07         0.58610E+05         0.00000E+00
    0.58610E+05        -0.21153E+08         0.00000E+00
    0.00000E+00         0.00000E+00        -0.58980E+07
 
   -0.83043E+07         0.78159E+05         0.00000E+00
    0.78159E+05        -0.21167E+08         0.00000E+00
    0.00000E+00         0.00000E+00        -0.58944E+07
 
   -0.82683E+07         0.10057E+06         0.00000E+00
    0.10057E+06        -0.21183E+08         0.00000E+00
    0.00000E+00         0.00000E+00        -0.58904E+07
 
   -0.82290E+07         0.12586E+06         0.00000E+00
    0.12586E+06        -0.21201E+08         0.00000E+00
    0.00000E+00         0.00000E+00        -0.58860E+07
 
   -0.81864E+07         0.15407E+06         0.00000E+00
    0.15407E+06        -0.21220E+08         0.00000E+00
    0.00000E+00         0.00000E+00        -0.58812E+07
 
   -0.81409E+07         0.18519E+06         0.00000E+00
    0.18519E+06        -0.21240E+08         0.00000E+00
    0.00000E+00         0.00000E+00        -0.58761E+07
 
   -0.80926E+07         0.21924E+06         0.00000E+00
    0.21924E+06        -0.21261E+08         0.00000E+00
    0.00000E+00         0.00000E+00        -0.58708E+07
 
   -0.80416E+07         0.25623E+06         0.00000E+00
    0.25623E+06        -0.21284E+08         0.00000E+00
    0.00000E+00         0.00000E+00        -0.58651E+07
 
   -0.79882E+07         0.29615E+06         0.00000E+00
    0.29615E+06        -0.21307E+08         0.00000E+00
    0.00000E+00         0.00000E+00        -0.58591E+07
 
   -0.79326E+07         0.33900E+06         0.00000E+00
    0.33900E+06        -0.21332E+08         0.00000E+00
    0.00000E+00         0.00000E+00        -0.58529E+07
 
   -0.78749E+07         0.38477E+06         0.00000E+00
    0.38477E+06        -0.21357E+08         0.00000E+00
    0.00000E+00         0.00000E+00        -0.58464E+07
 
   -0.78153E+07         0.43344E+06         0.00000E+00
    0.43344E+06        -0.21383E+08         0.00000E+00
    0.00000E+00         0.00000E+00        -0.58397E+07
 
   -0.77539E+07         0.48499E+06         0.00000E+00
    0.48499E+06        -0.21410E+08         0.00000E+00
    0.00000E+00         0.00000E+00        -0.58328E+07
 
   -0.76909E+07         0.53943E+06         0.00000E+00
    0.53943E+06        -0.21438E+08         0.00000E+00
    0.00000E+00         0.00000E+00        -0.58257E+07
 
   -0.76264E+07         0.59671E+06         0.00000E+00
    0.59671E+06        -0.21466E+08         0.00000E+00
    0.00000E+00         0.00000E+00        -0.58185E+07
 
   -0.75606E+07         0.65682E+06         0.00000E+00
    0.65682E+06        -0.21495E+08         0.00000E+00
    0.00000E+00         0.00000E+00        -0.58111E+07
 
   -0.74936E+07         0.71974E+06         0.00000E+00
    0.71974E+06        -0.21524E+08         0.00000E+00
    0.00000E+00         0.00000E+00        -0.58036E+07
 
   -0.74255E+07         0.78545E+06         0.00000E+00
    0.78545E+06        -0.21554E+08         0.00000E+00
    0.00000E+00         0.00000E+00        -0.57959E+07
 
   -0.73565E+07         0.85391E+06         0.00000E+00
    0.85391E+06        -0.21584E+08         0.00000E+00
    0.00000E+00         0.00000E+00        -0.57882E+07
 
   -0.72866E+07         0.92510E+06         0.00000E+00
    0.92510E+06        -0.21615E+08         0.00000E+00
    0.00000E+00         0.00000E+00        -0.57803E+07
 
   -0.72161E+07         0.99899E+06         0.00000E+00
    0.99899E+06        -0.21646E+08         0.00000E+00
    0.00000E+00         0.00000E+00        -0.57724E+07
 
   -0.71450E+07         0.10756E+07         0.00000E+00
    0.10756E+07        -0.21677E+08         0.00000E+00
    0.00000E+00         0.00000E+00        -0.57644E+07
 
   -0.70734E+07         0.11548E+07         0.00000E+00
    0.11548E+07        -0.21709E+08         0.00000E+00
    0.00000E+00         0.00000E+00        -0.57564E+07
 
   -0.70014E+07         0.12366E+07         0.00000E+00
    0.12366E+07        -0.21740E+08         0.00000E+00
    0.00000E+00         0.00000E+00        -0.57483E+07
 
   -0.69292E+07         0.13211E+07         0.00000E+00
    0.13211E+07        -0.21772E+08         0.00000E+00
    0.00000E+00         0.00000E+00        -0.57402E+07
 
   -0.68567E+07         0.14081E+07         0.00000E+00
    0.14081E+07        -0.21804E+08         0.00000E+00
    0.00000E+00         0.00000E+00        -0.57321E+07
 
   -0.67842E+07         0.14976E+07         0.00000E+00
    0.14976E+07        -0.21836E+08         0.00000E+00
    0.00000E+00         0.00000E+00        -0.57240E+07
 
   -0.67118E+07         0.15896E+07         0.00000E+00
    0.15896E+07        -0.21868E+08         0.00000E+00
    0.00000E+00         0.00000E+00        -0.57159E+07
 
   -0.66394E+07         0.16841E+07         0.00000E+00
    0.16841E+07        -0.21900E+08         0.00000E+00
    0.00000E+00         0.00000E+00        -0.57078E+07
 
   -0.65672E+07         0.17810E+07         0.00000E+00
    0.17810E+07        -0.21932E+08         0.00000E+00
    0.00000E+00         0.00000E+00        -0.56998E+07
 
   -0.64954E+07         0.18803E+07         0.00000E+00
    0.18803E+07        -0.21963E+08         0.00000E+00
    0.00000E+00         0.00000E+00        -0.56918E+07
 
   -0.64239E+07         0.19819E+07         0.00000E+00
    0.19819E+07        -0.21995E+08         0.00000E+00
    0.00000E+00         0.00000E+00        -0.56838E+07
 
   -0.63528E+07         0.20859E+07         0.00000E+00
    0.20859E+07        -0.22027E+08         0.00000E+00
    0.00000E+00         0.00000E+00        -0.56759E+07
 
   -0.62823E+07         0.21922E+07         0.00000E+00
    0.21922E+07        -0.22058E+08         0.00000E+00
    0.00000E+00         0.00000E+00        -0.56681E+07
 
   -0.62124E+07         0.23007E+07         0.00000E+00
    0.23007E+07        -0.22089E+08         0.00000E+00
    0.00000E+00         0.00000E+00        -0.56603E+07
 
   -0.61432E+07         0.24113E+07         0.00000E+00
    0.24113E+07        -0.22120E+08         0.00000E+00
    0.00000E+00         0.00000E+00        -0.56526E+07
 
   -0.60747E+07         0.25241E+07         0.00000E+00
    0.25241E+07        -0.22151E+08         0.00000E+00
    0.00000E+00         0.00000E+00        -0.56451E+07
 
   -0.60071E+07         0.26390E+07         0.00000E+00
    0.26390E+07        -0.22181E+08         0.00000E+00
    0.00000E+00         0.00000E+00        -0.56376E+07
 
   -0.59404E+07         0.27559E+07         0.00000E+00
    0.27559E+07        -0.22211E+08         0.00000E+00
    0.00000E+00         0.00000E+00        -0.56302E+07
 
   -0.58746E+07         0.28748E+07         0.00000E+00
    0.28748E+07        -0.22240E+08         0.00000E+00
    0.00000E+00         0.00000E+00        -0.56229E+07
 
   -0.58098E+07         0.29956E+07         0.00000E+00
    0.29956E+07        -0.22269E+08         0.00000E+00
    0.00000E+00         0.00000E+00        -0.56157E+07
 
   -0.57461E+07         0.31182E+07         0.00000E+00
    0.31182E+07        -0.22297E+08         0.00000E+00
    0.00000E+00         0.00000E+00        -0.56087E+07
 
   -0.56835E+07         0.32426E+07         0.00000E+00
    0.32426E+07        -0.22325E+08         0.00000E+00
    0.00000E+00         0.00000E+00        -0.56017E+07
 
   -0.56220E+07         0.33687E+07         0.00000E+00
    0.33687E+07        -0.22352E+08         0.00000E+00
    0.00000E+00         0.00000E+00        -0.55949E+07
 
   -0.93590E+07        -0.79824E+04         0.00000E+00
   -0.79824E+04        -0.22002E+08         0.00000E+00
    0.00000E+00         0.00000E+00        -0.62723E+07
 
   -0.93388E+07        -0.16739E+05         0.00000E+00
   -0.16739E+05        -0.22005E+08         0.00000E+00
    0.00000E+00         0.00000E+00        -0.62688E+07
 
   -0.93134E+07        -0.22314E+05         0.00000E+00
   -0.22314E+05        -0.22010E+08         0.00000E+00
    0.00000E+00         0.00000E+00        -0.62648E+07
 
   -0.92828E+07        -0.24643E+05         0.00000E+00
   -0.24643E+05        -0.22018E+08         0.00000E+00
    0.00000E+00         0.00000E+00        -0.62602E+07
 
   -0.92475E+07        -0.23672E+05         0.00000E+00
   -0.23672E+05        -0.22028E+08         0.00000E+00
    0.00000E+00         0.00000E+00        -0.62551E+07
 
   -0.92078E+07        -0.19360E+05         0.00000E+00
   -0.19360E+05        -0.22040E+08         0.00000E+00
    0.00000E+00         0.00000E+00        -0.62495E+07
 
   -0.91638E+07        -0.11673E+05         0.00000E+00
   -0.11673E+05        -0.22053E+08         0.00000E+00
    0.00000E+00         0.00000E+00        -0.62434E+07
 
   -0.91158E+07        -0.58965E+03         0.00000E+00
   -0.58965E+03        -0.22069E+08         0.00000E+00
    0.00000E+00         0.00000E+00        -0.62369E+07
 
   -0.90642E+07         0.13904E+05         0.00000E+00
    0.13904E+05        -0.22086E+08         0.00000E+00
    0.00000E+00         0.00000E+00        -0.62301E+07
 
   -0.90091E+07         0.31813E+05         0.00000E+00
    0.31813E+05        -0.22105E+08         0.00000E+00
    0.00000E+00         0.00000E+00        -0.62228E+07
 
   -0.89507E+07         0.53135E+05         0.00000E+00
    0.53135E+05        -0.22125E+08         0.00000E+00
    0.00000E+00         0.00000E+00        -0.62152E+07
 
   -0.88894E+07         0.77862E+05         0.00000E+00
    0.77862E+05        -0.22147E+08         0.00000E+00
    0.00000E+00         0.00000E+00        -0.62072E+07
 
   -0.88253E+07         0.10598E+06         0.00000E+00
    0.10598E+06        -0.22169E+08         0.00000E+00
    0.00000E+00         0.00000E+00        -0.61989E+07
 
   -0.87587E+07         0.13746E+06         0.00000E+00
    0.13746E+06        -0.22193E+08         0.00000E+00
    0.00000E+00         0.00000E+00        -0.61904E+07
 
   -0.86897E+07         0.17229E+06         0.00000E+00
    0.17229E+06        -0.22218E+08         0.00000E+00
    0.00000E+00         0.00000E+00        -0.61816E+07
 
   -0.86185E+07         0.21043E+06         0.00000E+00
    0.21043E+06        -0.22244E+08         0.00000E+00
    0.00000E+00         0.00000E+00        -0.61725E+07
 
   -0.85453E+07         0.25185E+06         0.00000E+00
    0.25185E+06        -0.22271E+08         0.00000E+00
    0.00000E+00         0.00000E+00        -0.61633E+07
 
   -0.84704E+07         0.29653E+06         0.00000E+00
    0.29653E+06        -0.22299E+08         0.00000E+00
    0.00000E+00         0.00000E+00        -0.61538E+07
 
   -0.83938E+07         0.34441E+06         0.00000E+00
    0.34441E+06        -0.22327E+08         0.00000E+00
    0.00000E+00         0.00000E+00        -0.61442E+07
 
   -0.83158E+07         0.39547E+06         0.00000E+00
    0.39547E+06        -0.22357E+08         0.00000E+00
    0.00000E+00         0.00000E+00        -0.61345E+07
 
   -0.82364E+07         0.44967E+06         0.00000E+00
    0.44967E+06        -0.22386E+08         0.00000E+00
    0.00000E+00         0.00000E+00        -0.61245E+07
 
   -0.81558E+07         0.50697E+06         0.00000E+00
    0.50697E+06        -0.22417E+08         0.00000E+00
    0.00000E+00         0.00000E+00        -0.61145E+07
 
   -0.80742E+07         0.56732E+06         0.00000E+00
    0.56732E+06        -0.22448E+08         0.00000E+00
    0.00000E+00         0.00000E+00        -0.61044E+07
 
   -0.79917E+07         0.63070E+06         0.00000E+00
    0.63070E+06        -0.22479E+08         0.00000E+00
    0.00000E+00         0.00000E+00        -0.60942E+07
 
   -0.79084E+07         0.69706E+06         0.00000E+00
    0.69706E+06        -0.22511E+08         0.00000E+00
    0.00000E+00         0.00000E+00        -0.60840E+07
 
   -0.78245E+07         0.76637E+06         0.00000E+00
    0.76637E+06        -0.22544E+08         0.00000E+00
    0.00000E+00         0.00000E+00        -0.60736E+07
 
   -0.77400E+07         0.83859E+06         0.00000E+00
    0.83859E+06        -0.22577E+08         0.00000E+00
    0.00000E+00         0.00000E+00        -0.60633E+07
 
   -0.76550E+07         0.91370E+06         0.00000E+00
    0.91370E+06        -0.22610E+08         0.00000E+00
    0.00000E+00         0.00000E+00        -0.60530E+07
 
   -0.75698E+07         0.99164E+06         0.00000E+00
    0.99164E+06        -0.22643E+08         0.00000E+00
    0.00000E+00         0.00000E+00        -0.60426E+07
 
   -0.74843E+07         0.10724E+07         0.00000E+00
    0.10724E+07        -0.22677E+08         0.00000E+00
    0.00000E+00         0.00000E+00        -0.60323E+07
 
   -0.73987E+07         0.11559E+07         0.00000E+00
    0.11559E+07        -0.22711E+08         0.00000E+00
    0.00000E+00         0.00000E+00        -0.60219E+07
 
   -0.73131E+07         0.12422E+07         0.00000E+00
    0.12422E+07        -0.22745E+08         0.00000E+00
    0.00000E+00         0.00000E+00        -0.60117E+07
 
   -0.72275E+07         0.13313E+07         0.00000E+00
    0.13313E+07        -0.22780E+08         0.00000E+00
    0.00000E+00         0.00000E+00        -0.60014E+07
 
   -0.71422E+07         0.14230E+07         0.00000E+00
    0.14230E+07        -0.22814E+08         0.00000E+00
    0.00000E+00         0.00000E+00        -0.59913E+07
 
   -0.70571E+07         0.15173E+07         0.00000E+00
    0.15173E+07        -0.22849E+08         0.00000E+00
    0.00000E+00         0.00000E+00        -0.59812E+07
 
   -0.69724E+07         0.16143E+07         0.00000E+00
    0.16143E+07        -0.22884E+08         0.00000E+00
    0.00000E+00         0.00000E+00        -0.59712E+07
 
   -0.68881E+07         0.17139E+07         0.00000E+00
    0.17139E+07        -0.22918E+08         0.00000E+00
    0.00000E+00         0.00000E+00        -0.59613E+07
 
   -0.68044E+07         0.18160E+07         0.00000E+00
    0.18160E+07        -0.22953E+08         0.00000E+00
    0.00000E+00         0.00000E+00        -0.59515E+07
 
   -0.67214E+07         0.19207E+07         0.00000E+00
    0.19207E+07        -0.22988E+08         0.00000E+00
    0.00000E+00         0.00000E+00        -0.59419E+07
 
   -0.66391E+07         0.20278E+07         0.00000E+00
    0.20278E+07        -0.23023E+08         0.00000E+00
    0.00000E+00         0.00000E+00        -0.59323E+07
 
   -0.65577E+07         0.21374E+07         0.00000E+00
    0.21374E+07        -0.23057E+08         0.00000E+00
    0.00000E+00         0.00000E+00        -0.59229E+07
 
   -0.64772E+07         0.22494E+07         0.00000E+00
    0.22494E+07        -0.23091E+08         0.00000E+00
    0.00000E+00         0.00000E+00        -0.59137E+07
 
   -0.63977E+07         0.23637E+07         0.00000E+00
    0.23637E+07        -0.23125E+08         0.00000E+00
    0.00000E+00         0.00000E+00        -0.59046E+07
 
   -0.63193E+07         0.24803E+07         0.00000E+00
    0.24803E+07        -0.23159E+08         0.00000E+00
    0.00000E+00         0.00000E+00        -0.58957E+07
 
   -0.62421E+07         0.25991E+07         0.00000E+00
    0.25991E+07        -0.23192E+08         0.00000E+00
    0.00000E+00         0.00000E+00        -0.58869E+07
 
   -0.61662E+07         0.27201E+07         0.00000E+00
    0.27201E+07        -0.23226E+08         0.00000E+00
    0.00000E+00         0.00000E+00        -0.58783E+07
 
   -0.60916E+07         0.28432E+07         0.00000E+00
    0.28432E+07        -0.23258E+08         0.00000E+00
    0.00000E+00         0.00000E+00        -0.58699E+07
 
   -0.60185E+07         0.29683E+07         0.00000E+00
    0.29683E+07        -0.23290E+08         0.00000E+00
    0.00000E+00         0.00000E+00        -0.58617E+07
 
   -0.59468E+07         0.30953E+07         0.00000E+00
    0.30953E+07        -0.23322E+08         0.00000E+00
    0.00000E+00         0.00000E+00        -0.58537E+07
 
   -0.58767E+07         0.32241E+07         0.00000E+00
    0.32241E+07        -0.23353E+08         0.00000E+00
    0.00000E+00         0.00000E+00        -0.58459E+07
 
   -0.10353E+08        -0.15546E+05         0.00000E+00
   -0.15546E+05        -0.22911E+08         0.00000E+00
    0.00000E+00         0.00000E+00        -0.66529E+07
 
   -0.10315E+08        -0.37498E+05         0.00000E+00
   -0.37498E+05        -0.22914E+08         0.00000E+00
    0.00000E+00         0.00000E+00        -0.66460E+07
 
   -0.10272E+08        -0.55465E+05         0.00000E+00
   -0.55465E+05        -0.22920E+08         0.00000E+00
    0.00000E+00         0.00000E+00        -0.66384E+07
 
   -0.10223E+08        -0.69406E+05         0.00000E+00
   -0.69406E+05        -0.22928E+08         0.00000E+00
    0.00000E+00         0.00000E+00        -0.66303E+07
 
   -0.10170E+08        -0.79289E+05         0.00000E+00
   -0.79289E+05        -0.22939E+08         0.00000E+00
    0.00000E+00         0.00000E+00        -0.66216E+07
 
   -0.10111E+08        -0.85100E+05         0.00000E+00
   -0.85100E+05        -0.22951E+08         0.00000E+00
    0.00000E+00         0.00000E+00        -0.66125E+07
 
   -0.10049E+08        -0.86836E+05         0.00000E+00
   -0.86836E+05        -0.22966E+08         0.00000E+00
    0.00000E+00         0.00000E+00        -0.66029E+07
 
   -0.99820E+07        -0.84506E+05         0.00000E+00
   -0.84506E+05        -0.22982E+08         0.00000E+00
    0.00000E+00         0.00000E+00        -0.65928E+07
 
   -0.99118E+07        -0.78130E+05         0.00000E+00
   -0.78130E+05        -0.23000E+08         0.00000E+00
    0.00000E+00         0.00000E+00        -0.65824E+07
 
   -0.98382E+07        -0.67736E+05         0.00000E+00
   -0.67736E+05        -0.23020E+08         0.00000E+00
    0.00000E+00         0.00000E+00        -0.65716E+07
 
   -0.97615E+07        -0.53363E+05         0.00000E+00
   -0.53363E+05        -0.23041E+08         0.00000E+00
    0.00000E+00         0.00000E+00        -0.65605E+07
 
   -0.96819E+07        -0.35057E+05         0.00000E+00
   -0.35057E+05        -0.23063E+08         0.00000E+00
    0.00000E+00         0.00000E+00        -0.65490E+07
 
   -0.95997E+07        -0.12870E+05         0.00000E+00
   -0.12870E+05        -0.23087E+08         0.00000E+00
    0.00000E+00         0.00000E+00        -0.65373E+07
 
   -0.95152E+07         0.13143E+05         0.00000E+00
    0.13143E+05        -0.23111E+08         0.00000E+00
    0.00000E+00         0.00000E+00        -0.65253E+07
 
   -0.94286E+07         0.42919E+05         0.00000E+00
    0.42919E+05        -0.23137E+08         0.00000E+00
    0.00000E+00         0.00000E+00        -0.65131E+07
 
   -0.93400E+07         0.76395E+05         0.00000E+00
    0.76395E+05        -0.23164E+08         0.00000E+00
    0.00000E+00         0.00000E+00        -0.65007E+07
 
   -0.92497E+07         0.11351E+06         0.00000E+00
    0.11351E+06        -0.23191E+08         0.00000E+00
    0.00000E+00         0.00000E+00        -0.64882E+07
 
   -0.91578E+07         0.15419E+06         0.00000E+00
    0.15419E+06        -0.23219E+08         0.00000E+00
    0.00000E+00         0.00000E+00        -0.64754E+07
 
   -0.90646E+07         0.19837E+06         0.00000E+00
    0.19837E+06        -0.23248E+08         0.00000E+00
    0.00000E+00         0.00000E+00        -0.64626E+07
 
   -0.89701E+07         0.24599E+06         0.00000E+00
    0.24599E+06        -0.23278E+08         0.00000E+00
    0.00000E+00         0.00000E+00        -0.64497E+07
 
   -0.88746E+07         0.29699E+06         0.00000E+00
    0.29699E+06        -0.23309E+08         0.00000E+00
    0.00000E+00         0.00000E+00        -0.64366E+07
 
   -0.87781E+07         0.35130E+06         0.00000E+00
    0.35130E+06        -0.23340E+08         0.00000E+00
    0.00000E+00         0.00000E+00        -0.64235E+07
 
   -0.86808E+07         0.40887E+06         0.00000E+00
    0.40887E+06        -0.23371E+08         0.00000E+00
    0.00000E+00         0.00000E+00        -0.64104E+07
 
   -0.85829E+07         0.46964E+06         0.00000E+00
    0.46964E+06        -0.23403E+08         0.00000E+00
    0.00000E+00         0.00000E+00        -0.63973E+07
 
   -0.84843E+07         0.53356E+06         0.00000E+00
    0.53356E+06        -0.23436E+08         0.00000E+00
    0.00000E+00         0.00000E+00        -0.63841E+07
 
   -0.83853E+07         0.60059E+06         0.00000E+00
    0.60059E+06        -0.23469E+08         0.00000E+00
    0.00000E+00         0.00000E+00        -0.63709E+07
 
   -0.82859E+07         0.67068E+06         0.00000E+00
    0.67068E+06        -0.23503E+08         0.00000E+00
    0.00000E+00         0.00000E+00        -0.63578E+07
 
   -0.81863E+07         0.74380E+06         0.00000E+00
    0.74380E+06        -0.23537E+08         0.00000E+00
    0.00000E+00         0.00000E+00        -0.63447E+07
 
   -0.80865E+07         0.81991E+06         0.00000E+00
    0.81991E+06        -0.23572E+08         0.00000E+00
    0.00000E+00         0.00000E+00        -0.63317E+07
 
   -0.79867E+07         0.89897E+06         0.00000E+00
    0.89897E+06        -0.23607E+08         0.00000E+00
    0.00000E+00         0.00000E+00        -0.63188E+07
 
   -0.78869E+07         0.98097E+06         0.00000E+00
    0.98097E+06        -0.23643E+08         0.00000E+00
    0.00000E+00         0.00000E+00        -0.63059E+07
 
   -0.77872E+07         0.10659E+07         0.00000E+00
    0.10659E+07        -0.23679E+08         0.00000E+00
    0.00000E+00         0.00000E+00        -0.62932E+07
 
   -0.76877E+07         0.11536E+07         0.00000E+00
    0.11536E+07        -0.23715E+08         0.00000E+00
    0.00000E+00         0.00000E+00        -0.62805E+07
 
   -0.75885E+07         0.12443E+07         0.00000E+00
    0.12443E+07        -0.23751E+08         0.00000E+00
    0.00000E+00         0.00000E+00        -0.62680E+07
 
   -0.74898E+07         0.13378E+07         0.00000E+00
    0.13378E+07        -0.23788E+08         0.00000E+00
    0.00000E+00         0.00000E+00        -0.62556E+07
 
   -0.73915E+07         0.14341E+07         0.00000E+00
    0.14341E+07        -0.23826E+08         0.00000E+00
    0.00000E+00         0.00000E+00        -0.62434E+07
 
   -0.72939E+07         0.15332E+07         0.00000E+00
    0.15332E+07        -0.23863E+08         0.00000E+00
    0.00000E+00         0.00000E+00        -0.62314E+07
 
   -0.71969E+07         0.16351E+07         0.00000E+00
    0.16351E+07        -0.23901E+08         0.00000E+00
    0.00000E+00         0.00000E+00        -0.62195E+07
 
   -0.71008E+07         0.17397E+07         0.00000E+00
    0.17397E+07        -0.23938E+08         0.00000E+00
    0.00000E+00         0.00000E+00        -0.62078E+07
 
   -0.70056E+07         0.18470E+07         0.00000E+00
    0.18470E+07        -0.23976E+08         0.00000E+00
    0.00000E+00         0.00000E+00        -0.61963E+07
 
   -0.69115E+07         0.19571E+07         0.00000E+00
    0.19571E+07        -0.24014E+08         0.00000E+00
    0.00000E+00         0.00000E+00        -0.61851E+07
 
   -0.68185E+07         0.20698E+07         0.00000E+00
    0.20698E+07        -0.24052E+08         0.00000E+00
    0.00000E+00         0.00000E+00        -0.61740E+07
 
   -0.67267E+07         0.21851E+07         0.00000E+00
    0.21851E+07        -0.24089E+08         0.00000E+00
    0.00000E+00         0.00000E+00        -0.61632E+07
 
   -0.66364E+07         0.23030E+07         0.00000E+00
    0.23030E+07        -0.24127E+08         0.00000E+00
    0.00000E+00         0.00000E+00        -0.61527E+07
 
   -0.65476E+07         0.24234E+07         0.00000E+00
    0.24234E+07        -0.24164E+08         0.00000E+00
    0.00000E+00         0.00000E+00        -0.61424E+07
 
   -0.64603E+07         0.25462E+07         0.00000E+00
    0.25462E+07        -0.24201E+08         0.00000E+00
    0.00000E+00         0.00000E+00        -0.61323E+07
 
   -0.63749E+07         0.26714E+07         0.00000E+00
    0.26714E+07        -0.24238E+08         0.00000E+00
    0.00000E+00         0.00000E+00        -0.61226E+07
 
   -0.62912E+07         0.27989E+07         0.00000E+00
    0.27989E+07        -0.24274E+08         0.00000E+00
    0.00000E+00         0.00000E+00        -0.61131E+07
 
   -0.62095E+07         0.29286E+07         0.00000E+00
    0.29286E+07        -0.24310E+08         0.00000E+00
    0.00000E+00         0.00000E+00        -0.61039E+07
 
   -0.61299E+07         0.30604E+07         0.00000E+00
    0.30604E+07        -0.24345E+08         0.00000E+00
    0.00000E+00         0.00000E+00        -0.60950E+07
 
   -0.11430E+08        -0.23750E+05         0.00000E+00
   -0.23750E+05        -0.23832E+08         0.00000E+00
    0.00000E+00         0.00000E+00        -0.70524E+07
 
   -0.11370E+08        -0.59708E+05         0.00000E+00
   -0.59708E+05        -0.23835E+08         0.00000E+00
    0.00000E+00         0.00000E+00        -0.70410E+07
 
   -0.11304E+08        -0.90694E+05         0.00000E+00
   -0.90694E+05        -0.23841E+08         0.00000E+00
    0.00000E+00         0.00000E+00        -0.70290E+07
 
   -0.11232E+08        -0.11669E+06         0.00000E+00
   -0.11669E+06        -0.23850E+08         0.00000E+00
    0.00000E+00         0.00000E+00        -0.70165E+07
 
   -0.11156E+08        -0.13770E+06         0.00000E+00
   -0.13770E+06        -0.23861E+08         0.00000E+00
    0.00000E+00         0.00000E+00        -0.70034E+07
 
   -0.11075E+08        -0.15376E+06         0.00000E+00
   -0.15376E+06        -0.23874E+08         0.00000E+00
    0.00000E+00         0.00000E+00        -0.69898E+07
 
   -0.10991E+08        -0.16491E+06         0.00000E+00
   -0.16491E+06        -0.23889E+08         0.00000E+00
    0.00000E+00         0.00000E+00        -0.69758E+07
 
   -0.10902E+08        -0.17121E+06         0.00000E+00
   -0.17121E+06        -0.23905E+08         0.00000E+00
    0.00000E+00         0.00000E+00        -0.69614E+07
 
   -0.10810E+08        -0.17272E+06         0.00000E+00
   -0.17272E+06        -0.23924E+08         0.00000E+00
    0.00000E+00         0.00000E+00        -0.69467E+07
 
   -0.10715E+08        -0.16954E+06         0.00000E+00
   -0.16954E+06        -0.23943E+08         0.00000E+00
    0.00000E+00         0.00000E+00        -0.69315E+07
 
   -0.10617E+08        -0.16176E+06         0.00000E+00
   -0.16176E+06        -0.23964E+08         0.00000E+00
    0.00000E+00         0.00000E+00        -0.69161E+07
 
   -0.10516E+08        -0.14948E+06         0.00000E+00
   -0.14948E+06        -0.23986E+08         0.00000E+00
    0.00000E+00         0.00000E+00        -0.69005E+07
 
   -0.10414E+08        -0.13280E+06         0.00000E+00
   -0.13280E+06        -0.24010E+08         0.00000E+00
    0.00000E+00         0.00000E+00        -0.68846E+07
 
   -0.10309E+08        -0.11185E+06         0.00000E+00
   -0.11185E+06        -0.24034E+08         0.00000E+00
    0.00000E+00         0.00000E+00        -0.68685E+07
 
   -0.10203E+08        -0.86735E+05         0.00000E+00
   -0.86735E+05        -0.24059E+08         0.00000E+00
    0.00000E+00         0.00000E+00        -0.68523E+07
 
   -0.10095E+08        -0.57571E+05         0.00000E+00
   -0.57571E+05        -0.24085E+08         0.00000E+00
    0.00000E+00         0.00000E+00        -0.68359E+07
 
   -0.99860E+07        -0.24474E+05         0.00000E+00
   -0.24474E+05        -0.24111E+08         0.00000E+00
    0.00000E+00         0.00000E+00        -0.68195E+07
 
   -0.98758E+07         0.12445E+05         0.00000E+00
    0.12445E+05        -0.24139E+08         0.00000E+00
    0.00000E+00         0.00000E+00        -0.68029E+07
 
   -0.97647E+07         0.53078E+05         0.00000E+00
    0.53078E+05        -0.24167E+08         0.00000E+00
    0.00000E+00         0.00000E+00        -0.67863E+07
 
   -0.96528E+07         0.97322E+05         0.00000E+00
    0.97322E+05        -0.24196E+08         0.00000E+00
    0.00000E+00         0.00000E+00        -0.67697E+07
 
   -0.95402E+07         0.14508E+06         0.00000E+00
    0.14508E+06        -0.24225E+08         0.00000E+00
    0.00000E+00         0.00000E+00        -0.67530E+07
 
   -0.94271E+07         0.19627E+06         0.00000E+00
    0.19627E+06        -0.24255E+08         0.00000E+00
    0.00000E+00         0.00000E+00        -0.67364E+07
 
   -0.93134E+07         0.25080E+06         0.00000E+00
    0.25080E+06        -0.24286E+08         0.00000E+00
    0.00000E+00         0.00000E+00        -0.67198E+07
 
   -0.91994E+07         0.30860E+06         0.00000E+00
    0.30860E+06        -0.24317E+08         0.00000E+00
    0.00000E+00         0.00000E+00        -0.67033E+07
 
   -0.90850E+07         0.36962E+06         0.00000E+00
    0.36962E+06        -0.24349E+08         0.00000E+00
    0.00000E+00         0.00000E+00        -0.66868E+07
 
   -0.89704E+07         0.43378E+06         0.00000E+00
    0.43378E+06        -0.24382E+08         0.00000E+00
    0.00000E+00         0.00000E+00        -0.66704E+07
 
   -0.88557E+07         0.50105E+06         0.00000E+00
    0.50105E+06        -0.24415E+08         0.00000E+00
    0.00000E+00         0.00000E+00        -0.66541E+07
 
   -0.87409E+07         0.57139E+06         0.00000E+00
    0.57139E+06        -0.24449E+08         0.00000E+00
    0.00000E+00         0.00000E+00        -0.66379E+07
 
   -0.86261E+07         0.64477E+06         0.00000E+00
    0.64477E+06        -0.24483E+08         0.00000E+00
    0.00000E+00         0.00000E+00        -0.66219E+07
 
   -0.85114E+07         0.72116E+06         0.00000E+00
    0.72116E+06        -0.24518E+08         0.00000E+00
    0.00000E+00         0.00000E+00        -0.66060E+07
 
   -0.83968E+07         0.80055E+06         0.00000E+00
    0.80055E+06        -0.24554E+08         0.00000E+00
    0.00000E+00         0.00000E+00        -0.65902E+07
 
   -0.82823E+07         0.88292E+06         0.00000E+00
    0.88292E+06        -0.24591E+08         0.00000E+00
    0.00000E+00         0.00000E+00        -0.65747E+07
 
   -0.81682E+07         0.96829E+06         0.00000E+00
    0.96829E+06        -0.24628E+08         0.00000E+00
    0.00000E+00         0.00000E+00        -0.65593E+07
 
   -0.80544E+07         0.10566E+07         0.00000E+00
    0.10566E+07        -0.24666E+08         0.00000E+00
    0.00000E+00         0.00000E+00        -0.65441E+07
 
   -0.79411E+07         0.11480E+07         0.00000E+00
    0.11480E+07        -0.24705E+08         0.00000E+00
    0.00000E+00         0.00000E+00        -0.65291E+07
 
   -0.78283E+07         0.12423E+07         0.00000E+00
    0.12423E+07        -0.24744E+08         0.00000E+00
    0.00000E+00         0.00000E+00        -0.65144E+07
 
   -0.77162E+07         0.13397E+07         0.00000E+00
    0.13397E+07        -0.24783E+08         0.00000E+00
    0.00000E+00         0.00000E+00        -0.64999E+07
 
   -0.76048E+07         0.14400E+07         0.00000E+00
    0.14400E+07        -0.24823E+08         0.00000E+00
    0.00000E+00         0.00000E+00        -0.64856E+07
 
   -0.74943E+07         0.15434E+07         0.00000E+00
    0.15434E+07        -0.24864E+08         0.00000E+00
    0.00000E+00         0.00000E+00        -0.64716E+07
 
   -0.73848E+07         0.16498E+07         0.00000E+00
    0.16498E+07        -0.24905E+08         0.00000E+00
    0.00000E+00         0.00000E+00        -0.64579E+07
 
   -0.72765E+07         0.17592E+07         0.00000E+00
    0.17592E+07        -0.24946E+08         0.00000E+00
    0.00000E+00         0.00000E+00        -0.64445E+07
 
   -0.71695E+07         0.18716E+07         0.00000E+00
    0.18716E+07        -0.24988E+08         0.00000E+00
    0.00000E+00         0.00000E+00        -0.64314E+07
 
   -0.70638E+07         0.19870E+07         0.00000E+00
    0.19870E+07        -0.25029E+08         0.00000E+00
    0.00000E+00         0.00000E+00        -0.64186E+07
 
   -0.69598E+07         0.21054E+07         0.00000E+00
    0.21054E+07        -0.25071E+08         0.00000E+00
    0.00000E+00         0.00000E+00        -0.64062E+07
 
   -0.68576E+07         0.22267E+07         0.00000E+00
    0.22267E+07        -0.25113E+08         0.00000E+00
    0.00000E+00         0.00000E+00        -0.63941E+07
 
   -0.67573E+07         0.23509E+07         0.00000E+00
    0.23509E+07        -0.25154E+08         0.00000E+00
    0.00000E+00         0.00000E+00        -0.63824E+07
 
   -0.66591E+07         0.24778E+07         0.00000E+00
    0.24778E+07        -0.25196E+08         0.00000E+00
    0.00000E+00         0.00000E+00        -0.63710E+07
 
   -0.65632E+07         0.26075E+07         0.00000E+00
    0.26075E+07        -0.25237E+08         0.00000E+00
    0.00000E+00         0.00000E+00        -0.63600E+07
 
   -0.64698E+07         0.27399E+07         0.00000E+00
    0.27399E+07        -0.25277E+08         0.00000E+00
    0.00000E+00         0.00000E+00        -0.63494E+07
 
   -0.63790E+07         0.28747E+07         0.00000E+00
    0.28747E+07        -0.25317E+08         0.00000E+00
    0.00000E+00         0.00000E+00        -0.63393E+07
 
   -0.12591E+08        -0.32512E+05         0.00000E+00
   -0.32512E+05        -0.24763E+08         0.00000E+00
    0.00000E+00         0.00000E+00        -0.74707E+07
 
   -0.12503E+08        -0.82958E+05         0.00000E+00
   -0.82958E+05        -0.24767E+08         0.00000E+00
    0.00000E+00         0.00000E+00        -0.74538E+07
 
   -0.12409E+08        -0.12715E+06         0.00000E+00
   -0.12715E+06        -0.24773E+08         0.00000E+00
    0.00000E+00         0.00000E+00        -0.74363E+07
 
   -0.12310E+08        -0.16518E+06         0.00000E+00
   -0.16518E+06        -0.24781E+08         0.00000E+00
    0.00000E+00         0.00000E+00        -0.74182E+07
 
   -0.12206E+08        -0.19707E+06         0.00000E+00
   -0.19707E+06        -0.24792E+08         0.00000E+00
    0.00000E+00         0.00000E+00        -0.73997E+07
 
   -0.12098E+08        -0.22291E+06         0.00000E+00
   -0.22291E+06        -0.24805E+08         0.00000E+00
    0.00000E+00         0.00000E+00        -0.73806E+07
 
   -0.11986E+08        -0.24283E+06         0.00000E+00
   -0.24283E+06        -0.24820E+08         0.00000E+00
    0.00000E+00         0.00000E+00        -0.73612E+07
 
   -0.11871E+08        -0.25696E+06         0.00000E+00
   -0.25696E+06        -0.24836E+08         0.00000E+00
    0.00000E+00         0.00000E+00        -0.73415E+07
 
   -0.11754E+08        -0.26547E+06         0.00000E+00
   -0.26547E+06        -0.24853E+08         0.00000E+00
    0.00000E+00         0.00000E+00        -0.73214E+07
 
   -0.11633E+08        -0.26852E+06         0.00000E+00
   -0.26852E+06        -0.24872E+08         0.00000E+00
    0.00000E+00         0.00000E+00        -0.73011E+07
 
   -0.11511E+08        -0.26630E+06         0.00000E+00
   -0.26630E+06        -0.24891E+08         0.00000E+00
    0.00000E+00         0.00000E+00        -0.72805E+07
 
   -0.11387E+08        -0.25901E+06         0.00000E+00
   -0.25901E+06        -0.24912E+08         0.00000E+00
    0.00000E+00         0.00000E+00        -0.72598E+07
 
   -0.11262E+08        -0.24683E+06         0.00000E+00
   -0.24683E+06        -0.24933E+08         0.00000E+00
    0.00000E+00         0.00000E+00        -0.72390E+07
 
   -0.11135E+08        -0.22997E+06         0.00000E+00
   -0.22997E+06        -0.24955E+08         0.00000E+00
    0.00000E+00         0.00000E+00        -0.72181E+07
 
   -0.11008E+08        -0.20863E+06         0.00000E+00
   -0.20863E+06        -0.24978E+08         0.00000E+00
    0.00000E+00         0.00000E+00        -0.71971E+07
 
   -0.10879E+08        -0.18299E+06         0.00000E+00
   -0.18299E+06        -0.25001E+08         0.00000E+00
    0.00000E+00         0.00000E+00        -0.71761E+07
 
   -0.10751E+08        -0.15324E+06         0.00000E+00
   -0.15324E+06        -0.25025E+08         0.00000E+00
    0.00000E+00         0.00000E+00        -0.71551E+07
 
   -0.10621E+08        -0.11957E+06         0.00000E+00
   -0.11957E+06        -0.25049E+08         0.00000E+00
    0.00000E+00         0.00000E+00        -0.71341E+07
 
   -0.10492E+08        -0.82127E+05         0.00000E+00
   -0.82127E+05        -0.25074E+08         0.00000E+00
    0.00000E+00         0.00000E+00        -0.71131E+07
 
   -0.10362E+08        -0.41069E+05         0.00000E+00
   -0.41069E+05        -0.25099E+08         0.00000E+00
    0.00000E+00         0.00000E+00        -0.70923E+07
 
   -0.10232E+08         0.34692E+04         0.00000E+00
    0.34692E+04        -0.25125E+08         0.00000E+00
    0.00000E+00         0.00000E+00        -0.70715E+07
 
   -0.10102E+08         0.51365E+05         0.00000E+00
    0.51365E+05        -0.25152E+08         0.00000E+00
    0.00000E+00         0.00000E+00        -0.70509E+07
 
   -0.99724E+07         0.10251E+06         0.00000E+00
    0.10251E+06        -0.25180E+08         0.00000E+00
    0.00000E+00         0.00000E+00        -0.70304E+07
 
   -0.98424E+07         0.15682E+06         0.00000E+00
    0.15682E+06        -0.25208E+08         0.00000E+00
    0.00000E+00         0.00000E+00        -0.70101E+07
 
   -0.97124E+07         0.21421E+06         0.00000E+00
    0.21421E+06        -0.25237E+08         0.00000E+00
    0.00000E+00         0.00000E+00        -0.69899E+07
 
   -0.95825E+07         0.27462E+06         0.00000E+00
    0.27462E+06        -0.25267E+08         0.00000E+00
    0.00000E+00         0.00000E+00        -0.69698E+07
 
   -0.94526E+07         0.33802E+06         0.00000E+00
    0.33802E+06        -0.25298E+08         0.00000E+00
    0.00000E+00         0.00000E+00        -0.69500E+07
 
   -0.93228E+07         0.40436E+06         0.00000E+00
    0.40436E+06        -0.25329E+08         0.00000E+00
    0.00000E+00         0.00000E+00        -0.69304E+07
 
   -0.91930E+07         0.47364E+06         0.00000E+00
    0.47364E+06        -0.25362E+08         0.00000E+00
    0.00000E+00         0.00000E+00        -0.69110E+07
 
   -0.90634E+07         0.54584E+06         0.00000E+00
    0.54584E+06        -0.25396E+08         0.00000E+00
    0.00000E+00         0.00000E+00        -0.68918E+07
 
   -0.89339E+07         0.62098E+06         0.00000E+00
    0.62098E+06        -0.25430E+08         0.00000E+00
    0.00000E+00         0.00000E+00        -0.68728E+07
 
   -0.88045E+07         0.69909E+06         0.00000E+00
    0.69909E+06        -0.25466E+08         0.00000E+00
    0.00000E+00         0.00000E+00        -0.68541E+07
 
   -0.86753E+07         0.78018E+06         0.00000E+00
    0.78018E+06        -0.25503E+08         0.00000E+00
    0.00000E+00         0.00000E+00        -0.68357E+07
 
   -0.85464E+07         0.86431E+06         0.00000E+00
    0.86431E+06        -0.25541E+08         0.00000E+00
    0.00000E+00         0.00000E+00        -0.68175E+07
 
   -0.84178E+07         0.95152E+06         0.00000E+00
    0.95152E+06        -0.25580E+08         0.00000E+00
    0.00000E+00         0.00000E+00        -0.67996E+07
 
   -0.82896E+07         0.10419E+07         0.00000E+00
    0.10419E+07        -0.25620E+08         0.00000E+00
    0.00000E+00         0.00000E+00        -0.67820E+07
 
   -0.81619E+07         0.11354E+07         0.00000E+00
    0.11354E+07        -0.25662E+08         0.00000E+00
    0.00000E+00         0.00000E+00        -0.67647E+07
 
   -0.80348E+07         0.12322E+07         0.00000E+00
    0.12322E+07        -0.25704E+08         0.00000E+00
    0.00000E+00         0.00000E+00        -0.67478E+07
 
   -0.79084E+07         0.13323E+07         0.00000E+00
    0.13323E+07        -0.25747E+08         0.00000E+00
    0.00000E+00         0.00000E+00        -0.67311E+07
 
   -0.77829E+07         0.14358E+07         0.00000E+00
    0.14358E+07        -0.25791E+08         0.00000E+00
    0.00000E+00         0.00000E+00        -0.67149E+07
 
   -0.76584E+07         0.15427E+07         0.00000E+00
    0.15427E+07        -0.25836E+08         0.00000E+00
    0.00000E+00         0.00000E+00        -0.66990E+07
 
   -0.75352E+07         0.16531E+07         0.00000E+00
    0.16531E+07        -0.25882E+08         0.00000E+00
    0.00000E+00         0.00000E+00        -0.66834E+07
 
   -0.74134E+07         0.17671E+07         0.00000E+00
    0.17671E+07        -0.25928E+08         0.00000E+00
    0.00000E+00         0.00000E+00        -0.66683E+07
 
   -0.72932E+07         0.18845E+07         0.00000E+00
    0.18845E+07        -0.25975E+08         0.00000E+00
    0.00000E+00         0.00000E+00        -0.66536E+07
 
   -0.71750E+07         0.20055E+07         0.00000E+00
    0.20055E+07        -0.26022E+08         0.00000E+00
    0.00000E+00         0.00000E+00        -0.66394E+07
 
   -0.70589E+07         0.21300E+07         0.00000E+00
    0.21300E+07        -0.26069E+08         0.00000E+00
    0.00000E+00         0.00000E+00        -0.66256E+07
 
   -0.69452E+07         0.22580E+07         0.00000E+00
    0.22580E+07        -0.26116E+08         0.00000E+00
    0.00000E+00         0.00000E+00        -0.66123E+07
 
   -0.68342E+07         0.23895E+07         0.00000E+00
    0.23895E+07        -0.26163E+08         0.00000E+00
    0.00000E+00         0.00000E+00        -0.65995E+07
 
   -0.67261E+07         0.25243E+07         0.00000E+00
    0.25243E+07        -0.26210E+08         0.00000E+00
    0.00000E+00         0.00000E+00        -0.65872E+07
 
   -0.66213E+07         0.26624E+07         0.00000E+00
    0.26624E+07        -0.26256E+08         0.00000E+00
    0.00000E+00         0.00000E+00        -0.65755E+07
 
   -0.13836E+08        -0.41762E+05         0.00000E+00
   -0.41762E+05        -0.25703E+08         0.00000E+00
    0.00000E+00         0.00000E+00        -0.79079E+07
 
   -0.13713E+08        -0.10667E+06         0.00000E+00
   -0.10667E+06        -0.25707E+08         0.00000E+00
    0.00000E+00         0.00000E+00        -0.78840E+07
 
   -0.13585E+08        -0.16377E+06         0.00000E+00
   -0.16377E+06        -0.25713E+08         0.00000E+00
    0.00000E+00         0.00000E+00        -0.78595E+07
 
   -0.13451E+08        -0.21302E+06         0.00000E+00
   -0.21302E+06        -0.25721E+08         0.00000E+00
    0.00000E+00         0.00000E+00        -0.78345E+07
 
   -0.13313E+08        -0.25461E+06         0.00000E+00
   -0.25461E+06        -0.25732E+08         0.00000E+00
    0.00000E+00         0.00000E+00        -0.78090E+07
 
   -0.13172E+08        -0.28879E+06         0.00000E+00
   -0.28879E+06        -0.25744E+08         0.00000E+00
    0.00000E+00         0.00000E+00        -0.77832E+07
 
   -0.13028E+08        -0.31581E+06         0.00000E+00
   -0.31581E+06        -0.25757E+08         0.00000E+00
    0.00000E+00         0.00000E+00        -0.77570E+07
 
   -0.12882E+08        -0.33594E+06         0.00000E+00
   -0.33594E+06        -0.25771E+08         0.00000E+00
    0.00000E+00         0.00000E+00        -0.77307E+07
 
   -0.12735E+08        -0.34947E+06         0.00000E+00
   -0.34947E+06        -0.25786E+08         0.00000E+00
    0.00000E+00         0.00000E+00        -0.77042E+07
 
   -0.12586E+08        -0.35672E+06         0.00000E+00
   -0.35672E+06        -0.25802E+08         0.00000E+00
    0.00000E+00         0.00000E+00        -0.76775E+07
 
   -0.12436E+08        -0.35802E+06         0.00000E+00
   -0.35802E+06        -0.25818E+08         0.00000E+00
    0.00000E+00         0.00000E+00        -0.76508E+07
 
   -0.12286E+08        -0.35372E+06         0.00000E+00
   -0.35372E+06        -0.25834E+08         0.00000E+00
    0.00000E+00         0.00000E+00        -0.76241E+07
 
   -0.12136E+08        -0.34416E+06         0.00000E+00
   -0.34416E+06        -0.25851E+08         0.00000E+00
    0.00000E+00         0.00000E+00        -0.75974E+07
 
   -0.11986E+08        -0.32968E+06         0.00000E+00
   -0.32968E+06        -0.25868E+08         0.00000E+00
    0.00000E+00         0.00000E+00        -0.75708E+07
 
   -0.11837E+08        -0.31060E+06         0.00000E+00
   -0.31060E+06        -0.25885E+08         0.00000E+00
    0.00000E+00         0.00000E+00        -0.75443E+07
 
   -0.11687E+08        -0.28722E+06         0.00000E+00
   -0.28722E+06        -0.25902E+08         0.00000E+00
    0.00000E+00         0.00000E+00        -0.75179E+07
 
   -0.11539E+08        -0.25982E+06         0.00000E+00
   -0.25982E+06        -0.25920E+08         0.00000E+00
    0.00000E+00         0.00000E+00        -0.74917E+07
 
   -0.11391E+08        -0.22864E+06         0.00000E+00
   -0.22864E+06        -0.25938E+08         0.00000E+00
    0.00000E+00         0.00000E+00        -0.74657E+07
 
   -0.11243E+08        -0.19392E+06         0.00000E+00
   -0.19392E+06        -0.25957E+08         0.00000E+00
    0.00000E+00         0.00000E+00        -0.74400E+07
 
   -0.11096E+08        -0.15587E+06         0.00000E+00
   -0.15587E+06        -0.25976E+08         0.00000E+00
    0.00000E+00         0.00000E+00        -0.74144E+07
 
   -0.10950E+08        -0.11464E+06         0.00000E+00
   -0.11464E+06        -0.25996E+08         0.00000E+00
    0.00000E+00         0.00000E+00        -0.73891E+07
 
   -0.10804E+08        -0.70397E+05         0.00000E+00
   -0.70397E+05        -0.26016E+08         0.00000E+00
    0.00000E+00         0.00000E+00        -0.73641E+07
 
   -0.10659E+08        -0.23262E+05         0.00000E+00
   -0.23262E+05        -0.26037E+08         0.00000E+00
    0.00000E+00         0.00000E+00        -0.73393E+07
 
   -0.10515E+08         0.26665E+05         0.00000E+00
    0.26665E+05        -0.26060E+08         0.00000E+00
    0.00000E+00         0.00000E+00        -0.73149E+07
 
   -0.10370E+08         0.79308E+05         0.00000E+00
    0.79308E+05        -0.26083E+08         0.00000E+00
    0.00000E+00         0.00000E+00        -0.72906E+07
 
   -0.10226E+08         0.13461E+06         0.00000E+00
    0.13461E+06        -0.26108E+08         0.00000E+00
    0.00000E+00         0.00000E+00        -0.72667E+07
 
   -0.10082E+08         0.19254E+06         0.00000E+00
    0.19254E+06        -0.26133E+08         0.00000E+00
    0.00000E+00         0.00000E+00        -0.72431E+07
 
   -0.99383E+07         0.25308E+06         0.00000E+00
    0.25308E+06        -0.26161E+08         0.00000E+00
    0.00000E+00         0.00000E+00        -0.72198E+07
 
   -0.97946E+07         0.31625E+06         0.00000E+00
    0.31625E+06        -0.26189E+08         0.00000E+00
    0.00000E+00         0.00000E+00        -0.71967E+07
 
   -0.96508E+07         0.38206E+06         0.00000E+00
    0.38206E+06        -0.26219E+08         0.00000E+00
    0.00000E+00         0.00000E+00        -0.71740E+07
 
   -0.95071E+07         0.45057E+06         0.00000E+00
    0.45057E+06        -0.26251E+08         0.00000E+00
    0.00000E+00         0.00000E+00        -0.71516E+07
 
   -0.93632E+07         0.52183E+06         0.00000E+00
    0.52183E+06        -0.26284E+08         0.00000E+00
    0.00000E+00         0.00000E+00        -0.71295E+07
 
   -0.92193E+07         0.59594E+06         0.00000E+00
    0.59594E+06        -0.26319E+08         0.00000E+00
    0.00000E+00         0.00000E+00        -0.71077E+07
 
   -0.90752E+07         0.67299E+06         0.00000E+00
    0.67299E+06        -0.26356E+08         0.00000E+00
    0.00000E+00         0.00000E+00        -0.70862E+07
 
   -0.89310E+07         0.75309E+06         0.00000E+00
    0.75309E+06        -0.26395E+08         0.00000E+00
    0.00000E+00         0.00000E+00        -0.70651E+07
 
   -0.87867E+07         0.83637E+06         0.00000E+00
    0.83637E+06        -0.26435E+08         0.00000E+00
    0.00000E+00         0.00000E+00        -0.70443E+07
 
   -0.86424E+07         0.92297E+06         0.00000E+00
    0.92297E+06        -0.26477E+08         0.00000E+00
    0.00000E+00         0.00000E+00        -0.70239E+07
 
   -0.84982E+07         0.10131E+07         0.00000E+00
    0.10131E+07        -0.26521E+08         0.00000E+00
    0.00000E+00         0.00000E+00        -0.70039E+07
 
   -0.83541E+07         0.11068E+07         0.00000E+00
    0.11068E+07        -0.26567E+08         0.00000E+00
    0.00000E+00         0.00000E+00        -0.69842E+07
 
   -0.82104E+07         0.12043E+07         0.00000E+00
    0.12043E+07        -0.26614E+08         0.00000E+00
    0.00000E+00         0.00000E+00        -0.69650E+07
 
   -0.80673E+07         0.13057E+07         0.00000E+00
    0.13057E+07        -0.26663E+08         0.00000E+00
    0.00000E+00         0.00000E+00        -0.69461E+07
 
   -0.79250E+07         0.14113E+07         0.00000E+00
    0.14113E+07        -0.26714E+08         0.00000E+00
    0.00000E+00         0.00000E+00        -0.69278E+07
 
   -0.77837E+07         0.15210E+07         0.00000E+00
    0.15210E+07        -0.26765E+08         0.00000E+00
    0.00000E+00         0.00000E+00        -0.69098E+07
 
   -0.76438E+07         0.16352E+07         0.00000E+00
    0.16352E+07        -0.26818E+08         0.00000E+00
    0.00000E+00         0.00000E+00        -0.68924E+07
 
   -0.75056E+07         0.17538E+07         0.00000E+00
    0.17538E+07        -0.26872E+08         0.00000E+00
    0.00000E+00         0.00000E+00        -0.68755E+07
 
   -0.73694E+07         0.18769E+07         0.00000E+00
    0.18769E+07        -0.26926E+08         0.00000E+00
    0.00000E+00         0.00000E+00        -0.68592E+07
 
   -0.72357E+07         0.20045E+07         0.00000E+00
    0.20045E+07        -0.26981E+08         0.00000E+00
    0.00000E+00         0.00000E+00        -0.68434E+07
 
   -0.71050E+07         0.21368E+07         0.00000E+00
    0.21368E+07        -0.27036E+08         0.00000E+00
    0.00000E+00         0.00000E+00        -0.68282E+07
 
   -0.69776E+07         0.22737E+07         0.00000E+00
    0.22737E+07        -0.27091E+08         0.00000E+00
    0.00000E+00         0.00000E+00        -0.68137E+07
 
   -0.68539E+07         0.24149E+07         0.00000E+00
    0.24149E+07        -0.27145E+08         0.00000E+00
    0.00000E+00         0.00000E+00        -0.67998E+07
 
   -0.15166E+08        -0.51587E+05         0.00000E+00
   -0.51587E+05        -0.26650E+08         0.00000E+00
    0.00000E+00         0.00000E+00        -0.83632E+07
 
   -0.14997E+08        -0.13049E+06         0.00000E+00
   -0.13049E+06        -0.26654E+08         0.00000E+00
    0.00000E+00         0.00000E+00        -0.83303E+07
 
   -0.14824E+08        -0.19869E+06         0.00000E+00
   -0.19869E+06        -0.26660E+08         0.00000E+00
    0.00000E+00         0.00000E+00        -0.82968E+07
 
   -0.14647E+08        -0.25703E+06         0.00000E+00
   -0.25703E+06        -0.26668E+08         0.00000E+00
    0.00000E+00         0.00000E+00        -0.82628E+07
 
   -0.14467E+08        -0.30582E+06         0.00000E+00
   -0.30582E+06        -0.26676E+08         0.00000E+00
    0.00000E+00         0.00000E+00        -0.82286E+07
 
   -0.14285E+08        -0.34535E+06         0.00000E+00
   -0.34535E+06        -0.26686E+08         0.00000E+00
    0.00000E+00         0.00000E+00        -0.81942E+07
 
   -0.14102E+08        -0.37605E+06         0.00000E+00
   -0.37605E+06        -0.26696E+08         0.00000E+00
    0.00000E+00         0.00000E+00        -0.81597E+07
 
   -0.13920E+08        -0.39844E+06         0.00000E+00
   -0.39844E+06        -0.26706E+08         0.00000E+00
    0.00000E+00         0.00000E+00        -0.81252E+07
 
   -0.13738E+08        -0.41315E+06         0.00000E+00
   -0.41315E+06        -0.26716E+08         0.00000E+00
    0.00000E+00         0.00000E+00        -0.80907E+07
 
   -0.13557E+08        -0.42082E+06         0.00000E+00
   -0.42082E+06        -0.26725E+08         0.00000E+00
    0.00000E+00         0.00000E+00        -0.80564E+07
 
   -0.13377E+08        -0.42207E+06         0.00000E+00
   -0.42207E+06        -0.26734E+08         0.00000E+00
    0.00000E+00         0.00000E+00        -0.80223E+07
 
   -0.13200E+08        -0.41754E+06         0.00000E+00
   -0.41754E+06        -0.26742E+08         0.00000E+00
    0.00000E+00         0.00000E+00        -0.79884E+07
 
   -0.13024E+08        -0.40778E+06         0.00000E+00
   -0.40778E+06        -0.26750E+08         0.00000E+00
    0.00000E+00         0.00000E+00        -0.79549E+07
 
   -0.12851E+08        -0.39331E+06         0.00000E+00
   -0.39331E+06        -0.26758E+08         0.00000E+00
    0.00000E+00         0.00000E+00        -0.79218E+07
 
   -0.12680E+08        -0.37460E+06         0.00000E+00
   -0.37460E+06        -0.26765E+08         0.00000E+00
    0.00000E+00         0.00000E+00        -0.78891E+07
 
   -0.12511E+08        -0.35205E+06         0.00000E+00
   -0.35205E+06        -0.26772E+08         0.00000E+00
    0.00000E+00         0.00000E+00        -0.78567E+07
 
   -0.12344E+08        -0.32602E+06         0.00000E+00
   -0.32602E+06        -0.26780E+08         0.00000E+00
    0.00000E+00         0.00000E+00        -0.78249E+07
 
   -0.12179E+08        -0.29683E+06         0.00000E+00
   -0.29683E+06        -0.26788E+08         0.00000E+00
    0.00000E+00         0.00000E+00        -0.77934E+07
 
   -0.12016E+08        -0.26472E+06         0.00000E+00
   -0.26472E+06        -0.26796E+08         0.00000E+00
    0.00000E+00         0.00000E+00        -0.77625E+07
 
   -0.11855E+08        -0.22993E+06         0.00000E+00
   -0.22993E+06        -0.26805E+08         0.00000E+00
    0.00000E+00         0.00000E+00        -0.77320E+07
 
   -0.11695E+08        -0.19265E+06         0.00000E+00
   -0.19265E+06        -0.26815E+08         0.00000E+00
    0.00000E+00         0.00000E+00        -0.77019E+07
 
   -0.11536E+08        -0.15301E+06         0.00000E+00
   -0.15301E+06        -0.26826E+08         0.00000E+00
    0.00000E+00         0.00000E+00        -0.76723E+07
 
   -0.11378E+08        -0.11114E+06         0.00000E+00
   -0.11114E+06        -0.26838E+08         0.00000E+00
    0.00000E+00         0.00000E+00        -0.76431E+07
 
   -0.11221E+08        -0.67125E+05         0.00000E+00
   -0.67125E+05        -0.26851E+08         0.00000E+00
    0.00000E+00         0.00000E+00        -0.76144E+07
 
   -0.11064E+08        -0.21025E+05         0.00000E+00
   -0.21025E+05        -0.26866E+08         0.00000E+00
    0.00000E+00         0.00000E+00        -0.75860E+07
 
   -0.10908E+08         0.27123E+05         0.00000E+00
    0.27123E+05        -0.26882E+08         0.00000E+00
    0.00000E+00         0.00000E+00        -0.75581E+07
 
   -0.10753E+08         0.77312E+05         0.00000E+00
    0.77312E+05        -0.26900E+08         0.00000E+00
    0.00000E+00         0.00000E+00        -0.75306E+07
 
   -0.10597E+08         0.12955E+06         0.00000E+00
    0.12955E+06        -0.26920E+08         0.00000E+00
    0.00000E+00         0.00000E+00        -0.75035E+07
 
   -0.10442E+08         0.18388E+06         0.00000E+00
    0.18388E+06        -0.26943E+08         0.00000E+00
    0.00000E+00         0.00000E+00        -0.74768E+07
 
   -0.10286E+08         0.24036E+06         0.00000E+00
    0.24036E+06        -0.26967E+08         0.00000E+00
    0.00000E+00         0.00000E+00        -0.74505E+07
 
   -0.10129E+08         0.29908E+06         0.00000E+00
    0.29908E+06        -0.26993E+08         0.00000E+00
    0.00000E+00         0.00000E+00        -0.74245E+07
 
   -0.99723E+07         0.36013E+06         0.00000E+00
    0.36013E+06        -0.27022E+08         0.00000E+00
    0.00000E+00         0.00000E+00        -0.73989E+07
 
   -0.98146E+07         0.42366E+06         0.00000E+00
    0.42366E+06        -0.27053E+08         0.00000E+00
    0.00000E+00         0.00000E+00        -0.73736E+07
 
   -0.96562E+07         0.48981E+06         0.00000E+00
    0.48981E+06        -0.27087E+08         0.00000E+00
    0.00000E+00         0.00000E+00        -0.73487E+07
 
   -0.94968E+07         0.55877E+06         0.00000E+00
    0.55877E+06        -0.27124E+08         0.00000E+00
    0.00000E+00         0.00000E+00        -0.73242E+07
 
   -0.93365E+07         0.63075E+06         0.00000E+00
    0.63075E+06        -0.27163E+08         0.00000E+00
    0.00000E+00         0.00000E+00        -0.72999E+07
 
   -0.91751E+07         0.70599E+06         0.00000E+00
    0.70599E+06        -0.27205E+08         0.00000E+00
    0.00000E+00         0.00000E+00        -0.72761E+07
 
   -0.90128E+07         0.78475E+06         0.00000E+00
    0.78475E+06        -0.27250E+08         0.00000E+00
    0.00000E+00         0.00000E+00        -0.72526E+07
 
   -0.88495E+07         0.86733E+06         0.00000E+00
    0.86733E+06        -0.27298E+08         0.00000E+00
    0.00000E+00         0.00000E+00        -0.72295E+07
 
   -0.86853E+07         0.95405E+06         0.00000E+00
    0.95405E+06        -0.27349E+08         0.00000E+00
    0.00000E+00         0.00000E+00        -0.72068E+07
 
   -0.85205E+07         0.10452E+07         0.00000E+00
    0.10452E+07        -0.27402E+08         0.00000E+00
    0.00000E+00         0.00000E+00        -0.71845E+07
 
   -0.83553E+07         0.11413E+07         0.00000E+00
    0.11413E+07        -0.27458E+08         0.00000E+00
    0.00000E+00         0.00000E+00        -0.71626E+07
 
   -0.81900E+07         0.12425E+07         0.00000E+00
    0.12425E+07        -0.27516E+08         0.00000E+00
    0.00000E+00         0.00000E+00        -0.71413E+07
 
   -0.80251E+07         0.13492E+07         0.00000E+00
    0.13492E+07        -0.27577E+08         0.00000E+00
    0.00000E+00         0.00000E+00        -0.71205E+07
 
   -0.78610E+07         0.14617E+07         0.00000E+00
    0.14617E+07        -0.27640E+08         0.00000E+00
    0.00000E+00         0.00000E+00        -0.71002E+07
 
   -0.76984E+07         0.15803E+07         0.00000E+00
    0.15803E+07        -0.27704E+08         0.00000E+00
    0.00000E+00         0.00000E+00        -0.70805E+07
 
   -0.75378E+07         0.17051E+07         0.00000E+00
    0.17051E+07        -0.27770E+08         0.00000E+00
    0.00000E+00         0.00000E+00        -0.70615E+07
 
   -0.73798E+07         0.18361E+07         0.00000E+00
    0.18361E+07        -0.27836E+08         0.00000E+00
    0.00000E+00         0.00000E+00        -0.70431E+07
 
   -0.72249E+07         0.19736E+07         0.00000E+00
    0.19736E+07        -0.27902E+08         0.00000E+00
    0.00000E+00         0.00000E+00        -0.70254E+07
 
   -0.70745E+07         0.21180E+07         0.00000E+00
    0.21180E+07        -0.27969E+08         0.00000E+00
    0.00000E+00         0.00000E+00        -0.70087E+07
 
   -0.16574E+08        -0.62317E+05         0.00000E+00
   -0.62317E+05        -0.27604E+08         0.00000E+00
    0.00000E+00         0.00000E+00        -0.88355E+07
 
   -0.16344E+08        -0.15212E+06         0.00000E+00
   -0.15212E+06        -0.27606E+08         0.00000E+00
    0.00000E+00         0.00000E+00        -0.87900E+07
 
   -0.16112E+08        -0.22957E+06         0.00000E+00
   -0.22957E+06        -0.27612E+08         0.00000E+00
    0.00000E+00         0.00000E+00        -0.87447E+07
 
   -0.15877E+08        -0.29307E+06         0.00000E+00
   -0.29307E+06        -0.27619E+08         0.00000E+00
    0.00000E+00         0.00000E+00        -0.86992E+07
 
   -0.15642E+08        -0.34296E+06         0.00000E+00
   -0.34296E+06        -0.27625E+08         0.00000E+00
    0.00000E+00         0.00000E+00        -0.86535E+07
 
   -0.15409E+08        -0.38046E+06         0.00000E+00
   -0.38046E+06        -0.27629E+08         0.00000E+00
    0.00000E+00         0.00000E+00        -0.86077E+07
 
   -0.15180E+08        -0.40705E+06         0.00000E+00
   -0.40705E+06        -0.27632E+08         0.00000E+00
    0.00000E+00         0.00000E+00        -0.85623E+07
 
   -0.14955E+08        -0.42423E+06         0.00000E+00
   -0.42423E+06        -0.27631E+08         0.00000E+00
    0.00000E+00         0.00000E+00        -0.85173E+07
 
   -0.14736E+08        -0.43337E+06         0.00000E+00
   -0.43337E+06        -0.27629E+08         0.00000E+00
    0.00000E+00         0.00000E+00        -0.84730E+07
 
   -0.14522E+08        -0.43568E+06         0.00000E+00
   -0.43568E+06        -0.27625E+08         0.00000E+00
    0.00000E+00         0.00000E+00        -0.84294E+07
 
   -0.14314E+08        -0.43219E+06         0.00000E+00
   -0.43219E+06        -0.27620E+08         0.00000E+00
    0.00000E+00         0.00000E+00        -0.83866E+07
 
   -0.14111E+08        -0.42378E+06         0.00000E+00
   -0.42378E+06        -0.27613E+08         0.00000E+00
    0.00000E+00         0.00000E+00        -0.83447E+07
 
   -0.13913E+08        -0.41118E+06         0.00000E+00
   -0.41118E+06        -0.27605E+08         0.00000E+00
    0.00000E+00         0.00000E+00        -0.83036E+07
 
   -0.13720E+08        -0.39499E+06         0.00000E+00
   -0.39499E+06        -0.27597E+08         0.00000E+00
    0.00000E+00         0.00000E+00        -0.82634E+07
 
   -0.13531E+08        -0.37571E+06         0.00000E+00
   -0.37571E+06        -0.27589E+08         0.00000E+00
    0.00000E+00         0.00000E+00        -0.82240E+07
 
   -0.13347E+08        -0.35376E+06         0.00000E+00
   -0.35376E+06        -0.27581E+08         0.00000E+00
    0.00000E+00         0.00000E+00        -0.81855E+07
 
   -0.13166E+08        -0.32946E+06         0.00000E+00
   -0.32946E+06        -0.27573E+08         0.00000E+00
    0.00000E+00         0.00000E+00        -0.81478E+07
 
   -0.12988E+08        -0.30309E+06         0.00000E+00
   -0.30309E+06        -0.27567E+08         0.00000E+00
    0.00000E+00         0.00000E+00        -0.81109E+07
 
   -0.12813E+08        -0.27487E+06         0.00000E+00
   -0.27487E+06        -0.27561E+08         0.00000E+00
    0.00000E+00         0.00000E+00        -0.80748E+07
 
   -0.12641E+08        -0.24496E+06         0.00000E+00
   -0.24496E+06        -0.27556E+08         0.00000E+00
    0.00000E+00         0.00000E+00        -0.80394E+07
 
   -0.12471E+08        -0.21351E+06         0.00000E+00
   -0.21351E+06        -0.27553E+08         0.00000E+00
    0.00000E+00         0.00000E+00        -0.80047E+07
 
   -0.12303E+08        -0.18062E+06         0.00000E+00
   -0.18062E+06        -0.27551E+08         0.00000E+00
    0.00000E+00         0.00000E+00        -0.79708E+07
 
   -0.12136E+08        -0.14636E+06         0.00000E+00
   -0.14636E+06        -0.27551E+08         0.00000E+00
    0.00000E+00         0.00000E+00        -0.79374E+07
 
   -0.11970E+08        -0.11077E+06         0.00000E+00
   -0.11077E+06        -0.27553E+08         0.00000E+00
    0.00000E+00         0.00000E+00        -0.79047E+07
 
   -0.11805E+08        -0.73885E+05         0.00000E+00
   -0.73885E+05        -0.27557E+08         0.00000E+00
    0.00000E+00         0.00000E+00        -0.78725E+07
 
   -0.11641E+08        -0.35706E+05         0.00000E+00
   -0.35706E+05        -0.27563E+08         0.00000E+00
    0.00000E+00         0.00000E+00        -0.78409E+07
 
   -0.11477E+08         0.37872E+04         0.00000E+00
    0.37872E+04        -0.27572E+08         0.00000E+00
    0.00000E+00         0.00000E+00        -0.78098E+07
 
   -0.11313E+08         0.44632E+05         0.00000E+00
    0.44632E+05        -0.27583E+08         0.00000E+00
    0.00000E+00         0.00000E+00        -0.77792E+07
 
   -0.11148E+08         0.86886E+05         0.00000E+00
    0.86886E+05        -0.27597E+08         0.00000E+00
    0.00000E+00         0.00000E+00        -0.77490E+07
 
   -0.10983E+08         0.13063E+06         0.00000E+00
    0.13063E+06        -0.27614E+08         0.00000E+00
    0.00000E+00         0.00000E+00        -0.77193E+07
 
   -0.10816E+08         0.17596E+06         0.00000E+00
    0.17596E+06        -0.27634E+08         0.00000E+00
    0.00000E+00         0.00000E+00        -0.76900E+07
 
   -0.10649E+08         0.22300E+06         0.00000E+00
    0.22300E+06        -0.27657E+08         0.00000E+00
    0.00000E+00         0.00000E+00        -0.76611E+07
 
   -0.10480E+08         0.27191E+06         0.00000E+00
    0.27191E+06        -0.27683E+08         0.00000E+00
    0.00000E+00         0.00000E+00        -0.76325E+07
 
   -0.10309E+08         0.32286E+06         0.00000E+00
    0.32286E+06        -0.27712E+08         0.00000E+00
    0.00000E+00         0.00000E+00        -0.76042E+07
 
   -0.10136E+08         0.37607E+06         0.00000E+00
    0.37607E+06        -0.27745E+08         0.00000E+00
    0.00000E+00         0.00000E+00        -0.75763E+07
 
   -0.99612E+07         0.43178E+06         0.00000E+00
    0.43178E+06        -0.27782E+08         0.00000E+00
    0.00000E+00         0.00000E+00        -0.75486E+07
 
   -0.97838E+07         0.49029E+06         0.00000E+00
    0.49029E+06        -0.27822E+08         0.00000E+00
    0.00000E+00         0.00000E+00        -0.75212E+07
 
   -0.96038E+07         0.55194E+06         0.00000E+00
    0.55194E+06        -0.27867E+08         0.00000E+00
    0.00000E+00         0.00000E+00        -0.74941E+07
 
   -0.94209E+07         0.61713E+06         0.00000E+00
    0.61713E+06        -0.27915E+08         0.00000E+00
    0.00000E+00         0.00000E+00        -0.74672E+07
 
   -0.92351E+07         0.68634E+06         0.00000E+00
    0.68634E+06        -0.27968E+08         0.00000E+00
    0.00000E+00         0.00000E+00        -0.74406E+07
 
   -0.90463E+07         0.76009E+06         0.00000E+00
    0.76009E+06        -0.28025E+08         0.00000E+00
    0.00000E+00         0.00000E+00        -0.74142E+07
 
   -0.88546E+07         0.83902E+06         0.00000E+00
    0.83902E+06        -0.28086E+08         0.00000E+00
    0.00000E+00         0.00000E+00        -0.73882E+07
 
   -0.86601E+07         0.92384E+06         0.00000E+00
    0.92384E+06        -0.28152E+08         0.00000E+00
    0.00000E+00         0.00000E+00        -0.73624E+07
 
   -0.84632E+07         0.10154E+07         0.00000E+00
    0.10154E+07        -0.28222E+08         0.00000E+00
    0.00000E+00         0.00000E+00        -0.73371E+07
 
   -0.82645E+07         0.11144E+07         0.00000E+00
    0.11144E+07        -0.28297E+08         0.00000E+00
    0.00000E+00         0.00000E+00        -0.73122E+07
 
   -0.80648E+07         0.12220E+07         0.00000E+00
    0.12220E+07        -0.28375E+08         0.00000E+00
    0.00000E+00         0.00000E+00        -0.72879E+07
 
   -0.78656E+07         0.13388E+07         0.00000E+00
    0.13388E+07        -0.28456E+08         0.00000E+00
    0.00000E+00         0.00000E+00        -0.72644E+07
 
   -0.76682E+07         0.14655E+07         0.00000E+00
    0.14655E+07        -0.28540E+08         0.00000E+00
    0.00000E+00         0.00000E+00        -0.72417E+07
 
   -0.74739E+07         0.16018E+07         0.00000E+00
    0.16018E+07        -0.28625E+08         0.00000E+00
    0.00000E+00         0.00000E+00        -0.72197E+07
 
   -0.72823E+07         0.17461E+07         0.00000E+00
    0.17461E+07        -0.28707E+08         0.00000E+00
    0.00000E+00         0.00000E+00        -0.71979E+07
 
   -0.18053E+08        -0.75985E+05         0.00000E+00
   -0.75985E+05        -0.28559E+08         0.00000E+00
    0.00000E+00         0.00000E+00        -0.93225E+07
 
   -0.17732E+08        -0.17947E+06         0.00000E+00
   -0.17947E+06        -0.28574E+08         0.00000E+00
    0.00000E+00         0.00000E+00        -0.92612E+07
 
   -0.17406E+08        -0.25162E+06         0.00000E+00
   -0.25162E+06        -0.28579E+08         0.00000E+00
    0.00000E+00         0.00000E+00        -0.91970E+07
 
   -0.17087E+08        -0.30064E+06         0.00000E+00
   -0.30064E+06        -0.28575E+08         0.00000E+00
    0.00000E+00         0.00000E+00        -0.91326E+07
 
   -0.16782E+08        -0.33266E+06         0.00000E+00
   -0.33266E+06        -0.28565E+08         0.00000E+00
    0.00000E+00         0.00000E+00        -0.90693E+07
 
   -0.16491E+08        -0.35213E+06         0.00000E+00
   -0.35213E+06        -0.28548E+08         0.00000E+00
    0.00000E+00         0.00000E+00        -0.90077E+07
 
   -0.16214E+08        -0.36225E+06         0.00000E+00
   -0.36225E+06        -0.28526E+08         0.00000E+00
    0.00000E+00         0.00000E+00        -0.89481E+07
 
   -0.15951E+08        -0.36535E+06         0.00000E+00
   -0.36535E+06        -0.28502E+08         0.00000E+00
    0.00000E+00         0.00000E+00        -0.88905E+07
 
   -0.15700E+08        -0.36312E+06         0.00000E+00
   -0.36312E+06        -0.28475E+08         0.00000E+00
    0.00000E+00         0.00000E+00        -0.88349E+07
 
   -0.15460E+08        -0.35679E+06         0.00000E+00
   -0.35679E+06        -0.28446E+08         0.00000E+00
    0.00000E+00         0.00000E+00        -0.87813E+07
 
   -0.15231E+08        -0.34726E+06         0.00000E+00
   -0.34726E+06        -0.28416E+08         0.00000E+00
    0.00000E+00         0.00000E+00        -0.87295E+07
 
   -0.15010E+08        -0.33522E+06         0.00000E+00
   -0.33522E+06        -0.28387E+08         0.00000E+00
    0.00000E+00         0.00000E+00        -0.86794E+07
 
   -0.14798E+08        -0.32118E+06         0.00000E+00
   -0.32118E+06        -0.28357E+08         0.00000E+00
    0.00000E+00         0.00000E+00        -0.86310E+07
 
   -0.14592E+08        -0.30551E+06         0.00000E+00
   -0.30551E+06        -0.28328E+08         0.00000E+00
    0.00000E+00         0.00000E+00        -0.85841E+07
 
   -0.14393E+08        -0.28850E+06         0.00000E+00
   -0.28850E+06        -0.28300E+08         0.00000E+00
    0.00000E+00         0.00000E+00        -0.85387E+07
 
   -0.14200E+08        -0.27037E+06         0.00000E+00
   -0.27037E+06        -0.28273E+08         0.00000E+00
    0.00000E+00         0.00000E+00        -0.84946E+07
 
   -0.14011E+08        -0.25128E+06         0.00000E+00
   -0.25128E+06        -0.28248E+08         0.00000E+00
    0.00000E+00         0.00000E+00        -0.84518E+07
 
   -0.13826E+08        -0.23137E+06         0.00000E+00
   -0.23137E+06        -0.28225E+08         0.00000E+00
    0.00000E+00         0.00000E+00        -0.84102E+07
 
   -0.13645E+08        -0.21072E+06         0.00000E+00
   -0.21072E+06        -0.28204E+08         0.00000E+00
    0.00000E+00         0.00000E+00        -0.83698E+07
 
   -0.13467E+08        -0.18941E+06         0.00000E+00
   -0.18941E+06        -0.28184E+08         0.00000E+00
    0.00000E+00         0.00000E+00        -0.83303E+07
 
   -0.13292E+08        -0.16747E+06         0.00000E+00
   -0.16747E+06        -0.28167E+08         0.00000E+00
    0.00000E+00         0.00000E+00        -0.82919E+07
 
   -0.13119E+08        -0.14493E+06         0.00000E+00
   -0.14493E+06        -0.28153E+08         0.00000E+00
    0.00000E+00         0.00000E+00        -0.82543E+07
 
   -0.12947E+08        -0.12182E+06         0.00000E+00
   -0.12182E+06        -0.28141E+08         0.00000E+00
    0.00000E+00         0.00000E+00        -0.82176E+07
 
   -0.12776E+08        -0.98124E+05         0.00000E+00
   -0.98124E+05        -0.28132E+08         0.00000E+00
    0.00000E+00         0.00000E+00        -0.81816E+07
 
   -0.12607E+08        -0.73841E+05         0.00000E+00
   -0.73841E+05        -0.28125E+08         0.00000E+00
    0.00000E+00         0.00000E+00        -0.81464E+07
 
   -0.12438E+08        -0.48948E+05         0.00000E+00
   -0.48948E+05        -0.28122E+08         0.00000E+00
    0.00000E+00         0.00000E+00        -0.81118E+07
 
   -0.12268E+08        -0.23413E+05         0.00000E+00
   -0.23413E+05        -0.28121E+08         0.00000E+00
    0.00000E+00         0.00000E+00        -0.80779E+07
 
   -0.12099E+08         0.28096E+04         0.00000E+00
    0.28096E+04        -0.28124E+08         0.00000E+00
    0.00000E+00         0.00000E+00        -0.80445E+07
 
   -0.11928E+08         0.29773E+05         0.00000E+00
    0.29773E+05        -0.28130E+08         0.00000E+00
    0.00000E+00         0.00000E+00        -0.80117E+07
 
   -0.11757E+08         0.57547E+05         0.00000E+00
    0.57547E+05        -0.28139E+08         0.00000E+00
    0.00000E+00         0.00000E+00        -0.79792E+07
 
   -0.11584E+08         0.86212E+05         0.00000E+00
    0.86212E+05        -0.28152E+08         0.00000E+00
    0.00000E+00         0.00000E+00        -0.79472E+07
 
   -0.11409E+08         0.11587E+06         0.00000E+00
    0.11587E+06        -0.28169E+08         0.00000E+00
    0.00000E+00         0.00000E+00        -0.79156E+07
 
   -0.11233E+08         0.14663E+06         0.00000E+00
    0.14663E+06        -0.28189E+08         0.00000E+00
    0.00000E+00         0.00000E+00        -0.78843E+07
 
   -0.11053E+08         0.17864E+06         0.00000E+00
    0.17864E+06        -0.28213E+08         0.00000E+00
    0.00000E+00         0.00000E+00        -0.78532E+07
 
   -0.10870E+08         0.21207E+06         0.00000E+00
    0.21207E+06        -0.28242E+08         0.00000E+00
    0.00000E+00         0.00000E+00        -0.78224E+07
 
   -0.10684E+08         0.24711E+06         0.00000E+00
    0.24711E+06        -0.28274E+08         0.00000E+00
    0.00000E+00         0.00000E+00        -0.77917E+07
 
   -0.10494E+08         0.28401E+06         0.00000E+00
    0.28401E+06        -0.28312E+08         0.00000E+00
    0.00000E+00         0.00000E+00        -0.77612E+07
 
   -0.10300E+08         0.32306E+06         0.00000E+00
    0.32306E+06        -0.28354E+08         0.00000E+00
    0.00000E+00         0.00000E+00        -0.77307E+07
 
   -0.10100E+08         0.36462E+06         0.00000E+00
    0.36462E+06        -0.28401E+08         0.00000E+00
    0.00000E+00         0.00000E+00        -0.77003E+07
 
   -0.98953E+07         0.40912E+06         0.00000E+00
    0.40912E+06        -0.28454E+08         0.00000E+00
    0.00000E+00         0.00000E+00        -0.76698E+07
 
   -0.96843E+07         0.45711E+06         0.00000E+00
    0.45711E+06        -0.28512E+08         0.00000E+00
    0.00000E+00         0.00000E+00        -0.76392E+07
 
   -0.94666E+07         0.50926E+06         0.00000E+00
    0.50926E+06        -0.28576E+08         0.00000E+00
    0.00000E+00         0.00000E+00        -0.76085E+07
 
   -0.92418E+07         0.56645E+06         0.00000E+00
    0.56645E+06        -0.28647E+08         0.00000E+00
    0.00000E+00         0.00000E+00        -0.75777E+07
 
   -0.90091E+07         0.62977E+06         0.00000E+00
    0.62977E+06        -0.28724E+08         0.00000E+00
    0.00000E+00         0.00000E+00        -0.75466E+07
 
   -0.87682E+07         0.70064E+06         0.00000E+00
    0.70064E+06        -0.28809E+08         0.00000E+00
    0.00000E+00         0.00000E+00        -0.75154E+07
 
   -0.85191E+07         0.78093E+06         0.00000E+00
    0.78093E+06        -0.28901E+08         0.00000E+00
    0.00000E+00         0.00000E+00        -0.74840E+07
 
   -0.82621E+07         0.87307E+06         0.00000E+00
    0.87307E+06        -0.29002E+08         0.00000E+00
    0.00000E+00         0.00000E+00        -0.74528E+07
 
   -0.79991E+07         0.98030E+06         0.00000E+00
    0.98030E+06        -0.29111E+08         0.00000E+00
    0.00000E+00         0.00000E+00        -0.74220E+07
 
   -0.77345E+07         0.11068E+07         0.00000E+00
    0.11068E+07        -0.29228E+08         0.00000E+00
    0.00000E+00         0.00000E+00        -0.73925E+07
 
   -0.74785E+07         0.12580E+07         0.00000E+00
    0.12580E+07        -0.29353E+08         0.00000E+00
    0.00000E+00         0.00000E+00        -0.73663E+07
 
   -0.19534E+08        -0.11162E+06         0.00000E+00
   -0.11162E+06        -0.29541E+08         0.00000E+00
    0.00000E+00         0.00000E+00        -0.98149E+07
 
   -0.19019E+08        -0.14396E+06         0.00000E+00
   -0.14396E+06        -0.29502E+08         0.00000E+00
    0.00000E+00         0.00000E+00        -0.97042E+07
 
   -0.18571E+08        -0.15936E+06         0.00000E+00
   -0.15936E+06        -0.29455E+08         0.00000E+00
    0.00000E+00         0.00000E+00        -0.96051E+07
 
   -0.18174E+08        -0.16566E+06         0.00000E+00
   -0.16566E+06        -0.29401E+08         0.00000E+00
    0.00000E+00         0.00000E+00        -0.95149E+07
 
   -0.17815E+08        -0.16686E+06         0.00000E+00
   -0.16686E+06        -0.29344E+08         0.00000E+00
    0.00000E+00         0.00000E+00        -0.94318E+07
 
   -0.17487E+08        -0.16506E+06         0.00000E+00
   -0.16506E+06        -0.29286E+08         0.00000E+00
    0.00000E+00         0.00000E+00        -0.93545E+07
 
   -0.17184E+08        -0.16143E+06         0.00000E+00
   -0.16143E+06        -0.29227E+08         0.00000E+00
    0.00000E+00         0.00000E+00        -0.92821E+07
 
   -0.16901E+08        -0.15664E+06         0.00000E+00
   -0.15664E+06        -0.29169E+08         0.00000E+00
    0.00000E+00         0.00000E+00        -0.92140E+07
 
   -0.16636E+08        -0.15107E+06         0.00000E+00
   -0.15107E+06        -0.29112E+08         0.00000E+00
    0.00000E+00         0.00000E+00        -0.91496E+07
 
   -0.16385E+08        -0.14496E+06         0.00000E+00
   -0.14496E+06        -0.29057E+08         0.00000E+00
    0.00000E+00         0.00000E+00        -0.90884E+07
 
   -0.16147E+08        -0.13847E+06         0.00000E+00
   -0.13847E+06        -0.29004E+08         0.00000E+00
    0.00000E+00         0.00000E+00        -0.90302E+07
 
   -0.15920E+08        -0.13169E+06         0.00000E+00
   -0.13169E+06        -0.28952E+08         0.00000E+00
    0.00000E+00         0.00000E+00        -0.89745E+07
 
   -0.15702E+08        -0.12469E+06         0.00000E+00
   -0.12469E+06        -0.28904E+08         0.00000E+00
    0.00000E+00         0.00000E+00        -0.89212E+07
 
   -0.15493E+08        -0.11750E+06         0.00000E+00
   -0.11750E+06        -0.28857E+08         0.00000E+00
    0.00000E+00         0.00000E+00        -0.88700E+07
 
   -0.15290E+08        -0.11016E+06         0.00000E+00
   -0.11016E+06        -0.28814E+08         0.00000E+00
    0.00000E+00         0.00000E+00        -0.88207E+07
 
   -0.15094E+08        -0.10269E+06         0.00000E+00
   -0.10269E+06        -0.28773E+08         0.00000E+00
    0.00000E+00         0.00000E+00        -0.87732E+07
 
   -0.14902E+08        -0.95106E+05         0.00000E+00
   -0.95106E+05        -0.28735E+08         0.00000E+00
    0.00000E+00         0.00000E+00        -0.87273E+07
 
   -0.14715E+08        -0.87405E+05         0.00000E+00
   -0.87405E+05        -0.28699E+08         0.00000E+00
    0.00000E+00         0.00000E+00        -0.86829E+07
 
   -0.14532E+08        -0.79597E+05         0.00000E+00
   -0.79597E+05        -0.28667E+08         0.00000E+00
    0.00000E+00         0.00000E+00        -0.86399E+07
 
   -0.14352E+08        -0.71681E+05         0.00000E+00
   -0.71681E+05        -0.28638E+08         0.00000E+00
    0.00000E+00         0.00000E+00        -0.85981E+07
 
   -0.14175E+08        -0.63655E+05         0.00000E+00
   -0.63655E+05        -0.28612E+08         0.00000E+00
    0.00000E+00         0.00000E+00        -0.85574E+07
 
   -0.14000E+08        -0.55514E+05         0.00000E+00
   -0.55514E+05        -0.28589E+08         0.00000E+00
    0.00000E+00         0.00000E+00        -0.85178E+07
 
   -0.13827E+08        -0.47250E+05         0.00000E+00
   -0.47250E+05        -0.28569E+08         0.00000E+00
    0.00000E+00         0.00000E+00        -0.84792E+07
 
   -0.13654E+08        -0.38855E+05         0.00000E+00
   -0.38855E+05        -0.28553E+08         0.00000E+00
    0.00000E+00         0.00000E+00        -0.84414E+07
 
   -0.13483E+08        -0.30316E+05         0.00000E+00
   -0.30316E+05        -0.28539E+08         0.00000E+00
    0.00000E+00         0.00000E+00        -0.84045E+07
 
   -0.13312E+08        -0.21620E+05         0.00000E+00
   -0.21620E+05        -0.28530E+08         0.00000E+00
    0.00000E+00         0.00000E+00        -0.83682E+07
 
   -0.13140E+08        -0.12748E+05         0.00000E+00
   -0.12748E+05        -0.28523E+08         0.00000E+00
    0.00000E+00         0.00000E+00        -0.83327E+07
 
   -0.12968E+08        -0.36825E+04         0.00000E+00
   -0.36825E+04        -0.28520E+08         0.00000E+00
    0.00000E+00         0.00000E+00        -0.82978E+07
 
   -0.12796E+08         0.56006E+04         0.00000E+00
    0.56006E+04        -0.28521E+08         0.00000E+00
    0.00000E+00         0.00000E+00        -0.82634E+07
 
   -0.12621E+08         0.15128E+05         0.00000E+00
    0.15128E+05        -0.28526E+08         0.00000E+00
    0.00000E+00         0.00000E+00        -0.82294E+07
 
   -0.12445E+08         0.24932E+05         0.00000E+00
    0.24932E+05        -0.28534E+08         0.00000E+00
    0.00000E+00         0.00000E+00        -0.81959E+07
 
   -0.12267E+08         0.35048E+05         0.00000E+00
    0.35048E+05        -0.28547E+08         0.00000E+00
    0.00000E+00         0.00000E+00        -0.81628E+07
 
   -0.12086E+08         0.45521E+05         0.00000E+00
    0.45521E+05        -0.28563E+08         0.00000E+00
    0.00000E+00         0.00000E+00        -0.81299E+07
 
   -0.11902E+08         0.56402E+05         0.00000E+00
    0.56402E+05        -0.28584E+08         0.00000E+00
    0.00000E+00         0.00000E+00        -0.80972E+07
 
   -0.11714E+08         0.67752E+05         0.00000E+00
    0.67752E+05        -0.28609E+08         0.00000E+00
    0.00000E+00         0.00000E+00        -0.80647E+07
 
   -0.11522E+08         0.79648E+05         0.00000E+00
    0.79648E+05        -0.28639E+08         0.00000E+00
    0.00000E+00         0.00000E+00        -0.80322E+07
 
   -0.11325E+08         0.92180E+05         0.00000E+00
    0.92180E+05        -0.28673E+08         0.00000E+00
    0.00000E+00         0.00000E+00        -0.79997E+07
 
   -0.11123E+08         0.10546E+06         0.00000E+00
    0.10546E+06        -0.28713E+08         0.00000E+00
    0.00000E+00         0.00000E+00        -0.79671E+07
 
   -0.10914E+08         0.11963E+06         0.00000E+00
    0.11963E+06        -0.28758E+08         0.00000E+00
    0.00000E+00         0.00000E+00        -0.79344E+07
 
   -0.10698E+08         0.13486E+06         0.00000E+00
    0.13486E+06        -0.28809E+08         0.00000E+00
    0.00000E+00         0.00000E+00        -0.79013E+07
 
   -0.10473E+08         0.15139E+06         0.00000E+00
    0.15139E+06        -0.28866E+08         0.00000E+00
    0.00000E+00         0.00000E+00        -0.78678E+07
 
   -0.10239E+08         0.16951E+06         0.00000E+00
    0.16951E+06        -0.28930E+08         0.00000E+00
    0.00000E+00         0.00000E+00        -0.78337E+07
 
   -0.99931E+07         0.18963E+06         0.00000E+00
    0.18963E+06        -0.29001E+08         0.00000E+00
    0.00000E+00         0.00000E+00        -0.77989E+07
 
   -0.97346E+07         0.21229E+06         0.00000E+00
    0.21229E+06        -0.29081E+08         0.00000E+00
    0.00000E+00         0.00000E+00        -0.77631E+07
 
   -0.94606E+07         0.23827E+06         0.00000E+00
    0.23827E+06        -0.29170E+08         0.00000E+00
    0.00000E+00         0.00000E+00        -0.77261E+07
 
   -0.91683E+07         0.26870E+06         0.00000E+00
    0.26870E+06        -0.29270E+08         0.00000E+00
    0.00000E+00         0.00000E+00        -0.76876E+07
 
   -0.88535E+07         0.30528E+06         0.00000E+00
    0.30528E+06        -0.29381E+08         0.00000E+00
    0.00000E+00         0.00000E+00        -0.76470E+07
 
   -0.85107E+07         0.35071E+06         0.00000E+00
    0.35071E+06        -0.29508E+08         0.00000E+00
    0.00000E+00         0.00000E+00        -0.76037E+07
 
   -0.81318E+07         0.40946E+06         0.00000E+00
    0.40946E+06        -0.29652E+08         0.00000E+00
    0.00000E+00         0.00000E+00        -0.75568E+07
 
   -0.77044E+07         0.48940E+06         0.00000E+00
    0.48940E+06        -0.29818E+08         0.00000E+00
    0.00000E+00         0.00000E+00        -0.75044E+07
 
TENSORS stresstot double 
   -0.56701E+08        -0.69951E+05         0.00000E+00
   -0.69951E+05        -0.49993E+08         0.00000E+00
    0.00000E+00         0.00000E+00        -0.60277E+08
 
   -0.56716E+08        -0.69871E+05         0.00000E+00
   -0.69871E+05        -0.50005E+08         0.00000E+00
    0.00000E+00         0.00000E+00        -0.60907E+08
 
   -0.56822E+08        -0.84927E+05         0.00000E+00
   -0.84927E+05        -0.50022E+08         0.00000E+00
    0.00000E+00         0.00000E+00        -0.61469E+08
 
   -0.56974E+08        -0.10471E+06         0.00000E+00
   -0.10471E+06        -0.50046E+08         0.00000E+00
    0.00000E+00         0.00000E+00        -0.61972E+08
 
   -0.57161E+08        -0.13213E+06         0.00000E+00
   -0.13213E+06        -0.50095E+08         0.00000E+00
    0.00000E+00         0.00000E+00        -0.62365E+08
 
   -0.57370E+08        -0.15727E+06         0.00000E+00
   -0.15727E+06        -0.50158E+08         0.00000E+00
    0.00000E+00         0.00000E+00        -0.62549E+08
 
   -0.57593E+08        -0.17219E+06         0.00000E+00
   -0.17219E+06        -0.50221E+08         0.00000E+00
    0.00000E+00         0.00000E+00        -0.62668E+08
 
   -0.57822E+08        -0.17767E+06         0.00000E+00
   -0.17767E+06        -0.50285E+08         0.00000E+00
    0.00000E+00         0.00000E+00        -0.62785E+08
 
   -0.58049E+08        -0.17520E+06         0.00000E+00
   -0.17520E+06        -0.50349E+08         0.00000E+00
    0.00000E+00         0.00000E+00        -0.62900E+08
 
   -0.58265E+08        -0.16903E+06         0.00000E+00
   -0.16903E+06        -0.50412E+08         0.00000E+00
    0.00000E+00         0.00000E+00        -0.63010E+08
 
   -0.58469E+08        -0.16087E+06         0.00000E+00
   -0.16087E+06        -0.50472E+08         0.00000E+00
    0.00000E+00         0.00000E+00        -0.63115E+08
 
   -0.58660E+08        -0.15219E+06         0.00000E+00
   -0.15219E+06        -0.50531E+08         0.00000E+00
    0.00000E+00         0.00000E+00        -0.63214E+08
 
   -0.58840E+08        -0.14363E+06         0.00000E+00
   -0.14363E+06        -0.50587E+08         0.00000E+00
    0.00000E+00         0.00000E+00        -0.63307E+08
 
   -0.59010E+08        -0.13544E+06         0.00000E+00
   -0.13544E+06        -0.50640E+08         0.00000E+00
    0.00000E+00         0.00000E+00        -0.63394E+08
 
   -0.59172E+08        -0.12770E+06         0.00000E+00
   -0.12770E+06        -0.50691E+08         0.00000E+00
    0.00000E+00         0.00000E+00        -0.63476E+08
 
   -0.59328E+08        -0.12031E+06         0.00000E+00
   -0.12031E+06        -0.50738E+08         0.00000E+00
    0.00000E+00         0.00000E+00        -0.63552E+08
 
   -0.59479E+08        -0.11322E+06         0.00000E+00
   -0.11322E+06        -0.50784E+08         0.00000E+00
    0.00000E+00         0.00000E+00        -0.63622E+08
 
   -0.59626E+08        -0.10629E+06         0.00000E+00
   -0.10629E+06        -0.50827E+08         0.00000E+00
    0.00000E+00         0.00000E+00        -0.63688E+08
 
   -0.59770E+08        -0.99394E+05         0.00000E+00
   -0.99394E+05        -0.50867E+08         0.00000E+00
    0.00000E+00         0.00000E+00        -0.63747E+08
 
   -0.59912E+08        -0.92441E+05         0.00000E+00
   -0.92441E+05        -0.50905E+08         0.00000E+00
    0.00000E+00         0.00000E+00        -0.63801E+08
 
   -0.60052E+08        -0.85329E+05         0.00000E+00
   -0.85329E+05        -0.50940E+08         0.00000E+00
    0.00000E+00         0.00000E+00        -0.63849E+08
 
   -0.60190E+08        -0.77847E+05         0.00000E+00
   -0.77847E+05        -0.50972E+08         0.00000E+00
    0.00000E+00         0.00000E+00        -0.63890E+08
 
   -0.60326E+08        -0.69907E+05         0.00000E+00
   -0.69907E+05        -0.51002E+08         0.00000E+00
    0.00000E+00         0.00000E+00        -0.63925E+08
 
   -0.60462E+08        -0.61516E+05         0.00000E+00
   -0.61516E+05        -0.51028E+08         0.00000E+00
    0.00000E+00         0.00000E+00        -0.63952E+08
 
   -0.60595E+08        -0.52657E+05         0.00000E+00
   -0.52657E+05        -0.51051E+08         0.00000E+00
    0.00000E+00         0.00000E+00        -0.63971E+08
 
   -0.60726E+08        -0.43451E+05         0.00000E+00
   -0.43451E+05        -0.51071E+08         0.00000E+00
    0.00000E+00         0.00000E+00        -0.63982E+08
 
   -0.60853E+08        -0.34168E+05         0.00000E+00
   -0.34168E+05        -0.51087E+08         0.00000E+00
    0.00000E+00         0.00000E+00        -0.63984E+08
 
   -0.60976E+08        -0.25175E+05         0.00000E+00
   -0.25175E+05        -0.51099E+08         0.00000E+00
    0.00000E+00         0.00000E+00        -0.63977E+08
 
   -0.61094E+08        -0.16631E+05         0.00000E+00
   -0.16631E+05        -0.51108E+08         0.00000E+00
    0.00000E+00         0.00000E+00        -0.63962E+08
 
   -0.61205E+08        -0.84623E+04         0.00000E+00
   -0.84623E+04        -0.51113E+08         0.00000E+00
    0.00000E+00         0.00000E+00        -0.63939E+08
 
   -0.61309E+08        -0.89083E+03         0.00000E+00
   -0.89083E+03        -0.51115E+08         0.00000E+00
    0.00000E+00         0.00000E+00        -0.63909E+08
 
   -0.61406E+08         0.57349E+04         0.00000E+00
    0.57349E+04        -0.51114E+08         0.00000E+00
    0.00000E+00         0.00000E+00        -0.63872E+08
 
   -0.61495E+08         0.11617E+05         0.00000E+00
    0.11617E+05        -0.51110E+08         0.00000E+00
    0.00000E+00         0.00000E+00        -0.63829E+08
 
   -0.61577E+08         0.17146E+05         0.00000E+00
    0.17146E+05        -0.51104E+08         0.00000E+00
    0.00000E+00         0.00000E+00        -0.63782E+08
 
   -0.61652E+08         0.22081E+05         0.00000E+00
    0.22081E+05        -0.51096E+08         0.00000E+00
    0.00000E+00         0.00000E+00        -0.63730E+08
 
   -0.61721E+08         0.26748E+05         0.00000E+00
    0.26748E+05        -0.51086E+08         0.00000E+00
    0.00000E+00         0.00000E+00        -0.63674E+08
 
   -0.61783E+08         0.31386E+05         0.00000E+00
    0.31386E+05        -0.51074E+08         0.00000E+00
    0.00000E+00         0.00000E+00        -0.63615E+08
 
   -0.61841E+08         0.35838E+05         0.00000E+00
    0.35838E+05        -0.51060E+08         0.00000E+00
    0.00000E+00         0.00000E+00        -0.63551E+08
 
   -0.61893E+08         0.40401E+05         0.00000E+00
    0.40401E+05        -0.51044E+08         0.00000E+00
    0.00000E+00         0.00000E+00        -0.63484E+08
 
   -0.61940E+08         0.45326E+05         0.00000E+00
    0.45326E+05        -0.51026E+08         0.00000E+00
    0.00000E+00         0.00000E+00        -0.63412E+08
 
   -0.61985E+08         0.50662E+05         0.00000E+00
    0.50662E+05        -0.51007E+08         0.00000E+00
    0.00000E+00         0.00000E+00        -0.63335E+08
 
   -0.62025E+08         0.56645E+05         0.00000E+00
    0.56645E+05        -0.50985E+08         0.00000E+00
    0.00000E+00         0.00000E+00        -0.63252E+08
 
   -0.62061E+08         0.63258E+05         0.00000E+00
    0.63258E+05        -0.50961E+08         0.00000E+00
    0.00000E+00         0.00000E+00        -0.63163E+08
 
   -0.62096E+08         0.70721E+05         0.00000E+00
    0.70721E+05        -0.50934E+08         0.00000E+00
    0.00000E+00         0.00000E+00        -0.63065E+08
 
   -0.62125E+08         0.79516E+05         0.00000E+00
    0.79516E+05        -0.50904E+08         0.00000E+00
    0.00000E+00         0.00000E+00        -0.62959E+08
 
   -0.62150E+08         0.89750E+05         0.00000E+00
    0.89750E+05        -0.50870E+08         0.00000E+00
    0.00000E+00         0.00000E+00        -0.62843E+08
 
   -0.62173E+08         0.10236E+06         0.00000E+00
    0.10236E+06        -0.50833E+08         0.00000E+00
    0.00000E+00         0.00000E+00        -0.62714E+08
 
   -0.62187E+08         0.11756E+06         0.00000E+00
    0.11756E+06        -0.50791E+08         0.00000E+00
    0.00000E+00         0.00000E+00        -0.62575E+08
 
   -0.62197E+08         0.13686E+06         0.00000E+00
    0.13686E+06        -0.50745E+08         0.00000E+00
    0.00000E+00         0.00000E+00        -0.62422E+08
 
   -0.62197E+08         0.16380E+06         0.00000E+00
    0.16380E+06        -0.50696E+08         0.00000E+00
    0.00000E+00         0.00000E+00        -0.62264E+08
 
   -0.56852E+08        -0.25466E+05         0.00000E+00
   -0.25466E+05        -0.49976E+08         0.00000E+00
    0.00000E+00         0.00000E+00        -0.62641E+08
 
   -0.56928E+08        -0.10336E+06         0.00000E+00
   -0.10336E+06        -0.49976E+08         0.00000E+00
    0.00000E+00         0.00000E+00        -0.62650E+08
 
   -0.57048E+08        -0.17368E+06         0.00000E+00
   -0.17368E+06        -0.49990E+08         0.00000E+00
    0.00000E+00         0.00000E+00        -0.62682E+08
 
   -0.57198E+08        -0.23738E+06         0.00000E+00
   -0.23738E+06        -0.50013E+08         0.00000E+00
    0.00000E+00         0.00000E+00        -0.62729E+08
 
   -0.57360E+08        -0.28963E+06         0.00000E+00
   -0.28963E+06        -0.50020E+08         0.00000E+00
    0.00000E+00         0.00000E+00        -0.62750E+08
 
   -0.57530E+08        -0.32797E+06         0.00000E+00
   -0.32797E+06        -0.50020E+08         0.00000E+00
    0.00000E+00         0.00000E+00        -0.62759E+08
 
   -0.57707E+08        -0.35659E+06         0.00000E+00
   -0.35659E+06        -0.50030E+08         0.00000E+00
    0.00000E+00         0.00000E+00        -0.62782E+08
 
   -0.57889E+08        -0.37695E+06         0.00000E+00
   -0.37695E+06        -0.50048E+08         0.00000E+00
    0.00000E+00         0.00000E+00        -0.62814E+08
 
   -0.58074E+08        -0.38846E+06         0.00000E+00
   -0.38846E+06        -0.50070E+08         0.00000E+00
    0.00000E+00         0.00000E+00        -0.62853E+08
 
   -0.58260E+08        -0.39181E+06         0.00000E+00
   -0.39181E+06        -0.50098E+08         0.00000E+00
    0.00000E+00         0.00000E+00        -0.62899E+08
 
   -0.58442E+08        -0.38879E+06         0.00000E+00
   -0.38879E+06        -0.50129E+08         0.00000E+00
    0.00000E+00         0.00000E+00        -0.62949E+08
 
   -0.58620E+08        -0.38108E+06         0.00000E+00
   -0.38108E+06        -0.50162E+08         0.00000E+00
    0.00000E+00         0.00000E+00        -0.63001E+08
 
   -0.58792E+08        -0.37028E+06         0.00000E+00
   -0.37028E+06        -0.50197E+08         0.00000E+00
    0.00000E+00         0.00000E+00        -0.63055E+08
 
   -0.58958E+08        -0.35752E+06         0.00000E+00
   -0.35752E+06        -0.50233E+08         0.00000E+00
    0.00000E+00         0.00000E+00        -0.63109E+08
 
   -0.59118E+08        -0.34354E+06         0.00000E+00
   -0.34354E+06        -0.50269E+08         0.00000E+00
    0.00000E+00         0.00000E+00        -0.63163E+08
 
   -0.59273E+08        -0.32884E+06         0.00000E+00
   -0.32884E+06        -0.50305E+08         0.00000E+00
    0.00000E+00         0.00000E+00        -0.63214E+08
 
   -0.59423E+08        -0.31363E+06         0.00000E+00
   -0.31363E+06        -0.50340E+08         0.00000E+00
    0.00000E+00         0.00000E+00        -0.63264E+08
 
   -0.59569E+08        -0.29804E+06         0.00000E+00
   -0.29804E+06        -0.50375E+08         0.00000E+00
    0.00000E+00         0.00000E+00        -0.63311E+08
 
   -0.59711E+08        -0.28200E+06         0.00000E+00
   -0.28200E+06        -0.50409E+08         0.00000E+00
    0.00000E+00         0.00000E+00        -0.63356E+08
 
   -0.59851E+08        -0.26535E+06         0.00000E+00
   -0.26535E+06        -0.50441E+08         0.00000E+00
    0.00000E+00         0.00000E+00        -0.63397E+08
 
   -0.59988E+08        -0.24790E+06         0.00000E+00
   -0.24790E+06        -0.50473E+08         0.00000E+00
    0.00000E+00         0.00000E+00        -0.63435E+08
 
   -0.60122E+08        -0.22953E+06         0.00000E+00
   -0.22953E+06        -0.50503E+08         0.00000E+00
    0.00000E+00         0.00000E+00        -0.63469E+08
 
   -0.60254E+08        -0.20995E+06         0.00000E+00
   -0.20995E+06        -0.50532E+08         0.00000E+00
    0.00000E+00         0.00000E+00        -0.63499E+08
 
   -0.60385E+08        -0.18894E+06         0.00000E+00
   -0.18894E+06        -0.50559E+08         0.00000E+00
    0.00000E+00         0.00000E+00        -0.63525E+08
 
   -0.60514E+08        -0.16640E+06         0.00000E+00
   -0.16640E+06        -0.50584E+08         0.00000E+00
    0.00000E+00         0.00000E+00        -0.63546E+08
 
   -0.60642E+08        -0.14234E+06         0.00000E+00
   -0.14234E+06        -0.50607E+08         0.00000E+00
    0.00000E+00         0.00000E+00        -0.63562E+08
 
   -0.60768E+08        -0.11698E+06         0.00000E+00
   -0.11698E+06        -0.50629E+08         0.00000E+00
    0.00000E+00         0.00000E+00        -0.63571E+08
 
   -0.60892E+08        -0.90850E+05         0.00000E+00
   -0.90850E+05        -0.50648E+08         0.00000E+00
    0.00000E+00         0.00000E+00        -0.63573E+08
 
   -0.61011E+08        -0.64654E+05         0.00000E+00
   -0.64654E+05        -0.50662E+08         0.00000E+00
    0.00000E+00         0.00000E+00        -0.63565E+08
 
   -0.61127E+08        -0.39407E+05         0.00000E+00
   -0.39407E+05        -0.50674E+08         0.00000E+00
    0.00000E+00         0.00000E+00        -0.63549E+08
 
   -0.61237E+08        -0.15788E+05         0.00000E+00
   -0.15788E+05        -0.50682E+08         0.00000E+00
    0.00000E+00         0.00000E+00        -0.63524E+08
 
   -0.61340E+08         0.63481E+04         0.00000E+00
    0.63481E+04        -0.50686E+08         0.00000E+00
    0.00000E+00         0.00000E+00        -0.63491E+08
 
   -0.61435E+08         0.26513E+05         0.00000E+00
    0.26513E+05        -0.50687E+08         0.00000E+00
    0.00000E+00         0.00000E+00        -0.63449E+08
 
   -0.61522E+08         0.44389E+05         0.00000E+00
    0.44389E+05        -0.50684E+08         0.00000E+00
    0.00000E+00         0.00000E+00        -0.63400E+08
 
   -0.61601E+08         0.60921E+05         0.00000E+00
    0.60921E+05        -0.50678E+08         0.00000E+00
    0.00000E+00         0.00000E+00        -0.63347E+08
 
   -0.61672E+08         0.76105E+05         0.00000E+00
    0.76105E+05        -0.50670E+08         0.00000E+00
    0.00000E+00         0.00000E+00        -0.63287E+08
 
   -0.61736E+08         0.90067E+05         0.00000E+00
    0.90067E+05        -0.50660E+08         0.00000E+00
    0.00000E+00         0.00000E+00        -0.63225E+08
 
   -0.61793E+08         0.10396E+06         0.00000E+00
    0.10396E+06        -0.50648E+08         0.00000E+00
    0.00000E+00         0.00000E+00        -0.63159E+08
 
   -0.61843E+08         0.11826E+06         0.00000E+00
    0.11826E+06        -0.50633E+08         0.00000E+00
    0.00000E+00         0.00000E+00        -0.63089E+08
 
   -0.61888E+08         0.13334E+06         0.00000E+00
    0.13334E+06        -0.50617E+08         0.00000E+00
    0.00000E+00         0.00000E+00        -0.63015E+08
 
   -0.61927E+08         0.14983E+06         0.00000E+00
    0.14983E+06        -0.50599E+08         0.00000E+00
    0.00000E+00         0.00000E+00        -0.62937E+08
 
   -0.61960E+08         0.16782E+06         0.00000E+00
    0.16782E+06        -0.50578E+08         0.00000E+00
    0.00000E+00         0.00000E+00        -0.62854E+08
 
   -0.61989E+08         0.18778E+06         0.00000E+00
    0.18778E+06        -0.50555E+08         0.00000E+00
    0.00000E+00         0.00000E+00        -0.62765E+08
 
   -0.62012E+08         0.21063E+06         0.00000E+00
    0.21063E+06        -0.50529E+08         0.00000E+00
    0.00000E+00         0.00000E+00        -0.62671E+08
 
   -0.62028E+08         0.23644E+06         0.00000E+00
    0.23644E+06        -0.50501E+08         0.00000E+00
    0.00000E+00         0.00000E+00        -0.62569E+08
 
   -0.62037E+08         0.26635E+06         0.00000E+00
    0.26635E+06        -0.50469E+08         0.00000E+00
    0.00000E+00         0.00000E+00        -0.62462E+08
 
   -0.62037E+08         0.30100E+06         0.00000E+00
    0.30100E+06        -0.50433E+08         0.00000E+00
    0.00000E+00         0.00000E+00        -0.62346E+08
 
   -0.62025E+08         0.34173E+06         0.00000E+00
    0.34173E+06        -0.50394E+08         0.00000E+00
    0.00000E+00         0.00000E+00        -0.62225E+08
 
   -0.61995E+08         0.38923E+06         0.00000E+00
    0.38923E+06        -0.50349E+08         0.00000E+00
    0.00000E+00         0.00000E+00        -0.62098E+08
 
   -0.61935E+08         0.44260E+06         0.00000E+00
    0.44260E+06        -0.50294E+08         0.00000E+00
    0.00000E+00         0.00000E+00        -0.61963E+08
 
   -0.57159E+08        -0.18112E+05         0.00000E+00
   -0.18112E+05        -0.50022E+08         0.00000E+00
    0.00000E+00         0.00000E+00        -0.62475E+08
 
   -0.57258E+08        -0.82801E+05         0.00000E+00
   -0.82801E+05        -0.50020E+08         0.00000E+00
    0.00000E+00         0.00000E+00        -0.62495E+08
 
   -0.57366E+08        -0.14937E+06         0.00000E+00
   -0.14937E+06        -0.50011E+08         0.00000E+00
    0.00000E+00         0.00000E+00        -0.62514E+08
 
   -0.57481E+08        -0.21092E+06         0.00000E+00
   -0.21092E+06        -0.49996E+08         0.00000E+00
    0.00000E+00         0.00000E+00        -0.62535E+08
 
   -0.57605E+08        -0.26634E+06         0.00000E+00
   -0.26634E+06        -0.49986E+08         0.00000E+00
    0.00000E+00         0.00000E+00        -0.62557E+08
 
   -0.57736E+08        -0.31694E+06         0.00000E+00
   -0.31694E+06        -0.49979E+08         0.00000E+00
    0.00000E+00         0.00000E+00        -0.62582E+08
 
   -0.57873E+08        -0.36154E+06         0.00000E+00
   -0.36154E+06        -0.49970E+08         0.00000E+00
    0.00000E+00         0.00000E+00        -0.62608E+08
 
   -0.58016E+08        -0.39900E+06         0.00000E+00
   -0.39900E+06        -0.49963E+08         0.00000E+00
    0.00000E+00         0.00000E+00        -0.62635E+08
 
   -0.58163E+08        -0.42925E+06         0.00000E+00
   -0.42925E+06        -0.49957E+08         0.00000E+00
    0.00000E+00         0.00000E+00        -0.62663E+08
 
   -0.58312E+08        -0.45228E+06         0.00000E+00
   -0.45228E+06        -0.49954E+08         0.00000E+00
    0.00000E+00         0.00000E+00        -0.62692E+08
 
   -0.58464E+08        -0.46824E+06         0.00000E+00
   -0.46824E+06        -0.49954E+08         0.00000E+00
    0.00000E+00         0.00000E+00        -0.62723E+08
 
   -0.58616E+08        -0.47766E+06         0.00000E+00
   -0.47766E+06        -0.49958E+08         0.00000E+00
    0.00000E+00         0.00000E+00        -0.62754E+08
 
   -0.58767E+08        -0.48125E+06         0.00000E+00
   -0.48125E+06        -0.49965E+08         0.00000E+00
    0.00000E+00         0.00000E+00        -0.62785E+08
 
   -0.58917E+08        -0.47986E+06         0.00000E+00
   -0.47986E+06        -0.49975E+08         0.00000E+00
    0.00000E+00         0.00000E+00        -0.62817E+08
 
   -0.59064E+08        -0.47423E+06         0.00000E+00
   -0.47423E+06        -0.49988E+08         0.00000E+00
    0.00000E+00         0.00000E+00        -0.62849E+08
 
   -0.59209E+08        -0.46504E+06         0.00000E+00
   -0.46504E+06        -0.50003E+08         0.00000E+00
    0.00000E+00         0.00000E+00        -0.62881E+08
 
   -0.59350E+08        -0.45290E+06         0.00000E+00
   -0.45290E+06        -0.50020E+08         0.00000E+00
    0.00000E+00         0.00000E+00        -0.62913E+08
 
   -0.59489E+08        -0.43819E+06         0.00000E+00
   -0.43819E+06        -0.50038E+08         0.00000E+00
    0.00000E+00         0.00000E+00        -0.62943E+08
 
   -0.59625E+08        -0.42125E+06         0.00000E+00
   -0.42125E+06        -0.50056E+08         0.00000E+00
    0.00000E+00         0.00000E+00        -0.62973E+08
 
   -0.59757E+08        -0.40232E+06         0.00000E+00
   -0.40232E+06        -0.50075E+08         0.00000E+00
    0.00000E+00         0.00000E+00        -0.63002E+08
 
   -0.59887E+08        -0.38156E+06         0.00000E+00
   -0.38156E+06        -0.50093E+08         0.00000E+00
    0.00000E+00         0.00000E+00        -0.63030E+08
 
   -0.60014E+08        -0.35895E+06         0.00000E+00
   -0.35895E+06        -0.50111E+08         0.00000E+00
    0.00000E+00         0.00000E+00        -0.63056E+08
 
   -0.60138E+08        -0.33454E+06         0.00000E+00
   -0.33454E+06        -0.50128E+08         0.00000E+00
    0.00000E+00         0.00000E+00        -0.63082E+08
 
   -0.60260E+08        -0.30831E+06         0.00000E+00
   -0.30831E+06        -0.50144E+08         0.00000E+00
    0.00000E+00         0.00000E+00        -0.63107E+08
 
   -0.60380E+08        -0.28015E+06         0.00000E+00
   -0.28015E+06        -0.50160E+08         0.00000E+00
    0.00000E+00         0.00000E+00        -0.63130E+08
 
   -0.60499E+08        -0.24987E+06         0.00000E+00
   -0.24987E+06        -0.50175E+08         0.00000E+00
    0.00000E+00         0.00000E+00        -0.63151E+08
 
   -0.60617E+08        -0.21724E+06         0.00000E+00
   -0.21724E+06        -0.50189E+08         0.00000E+00
    0.00000E+00         0.00000E+00        -0.63171E+08
 
   -0.60736E+08        -0.18197E+06         0.00000E+00
   -0.18197E+06        -0.50202E+08         0.00000E+00
    0.00000E+00         0.00000E+00        -0.63188E+08
 
   -0.60850E+08        -0.14393E+06         0.00000E+00
   -0.14393E+06        -0.50222E+08         0.00000E+00
    0.00000E+00         0.00000E+00        -0.63193E+08
 
   -0.60967E+08        -0.10332E+06         0.00000E+00
   -0.10332E+06        -0.50242E+08         0.00000E+00
    0.00000E+00         0.00000E+00        -0.63193E+08
 
   -0.61080E+08        -0.61076E+05         0.00000E+00
   -0.61076E+05        -0.50258E+08         0.00000E+00
    0.00000E+00         0.00000E+00        -0.63182E+08
 
   -0.61189E+08        -0.19073E+05         0.00000E+00
   -0.19073E+05        -0.50268E+08         0.00000E+00
    0.00000E+00         0.00000E+00        -0.63157E+08
 
   -0.61297E+08         0.21028E+05         0.00000E+00
    0.21028E+05        -0.50276E+08         0.00000E+00
    0.00000E+00         0.00000E+00        -0.63124E+08
 
   -0.61396E+08         0.58015E+05         0.00000E+00
    0.58015E+05        -0.50279E+08         0.00000E+00
    0.00000E+00         0.00000E+00        -0.63077E+08
 
   -0.61485E+08         0.90355E+05         0.00000E+00
    0.90355E+05        -0.50276E+08         0.00000E+00
    0.00000E+00         0.00000E+00        -0.63020E+08
 
   -0.61566E+08         0.11929E+06         0.00000E+00
    0.11929E+06        -0.50271E+08         0.00000E+00
    0.00000E+00         0.00000E+00        -0.62957E+08
 
   -0.61633E+08         0.14682E+06         0.00000E+00
    0.14682E+06        -0.50260E+08         0.00000E+00
    0.00000E+00         0.00000E+00        -0.62885E+08
 
   -0.61691E+08         0.17317E+06         0.00000E+00
    0.17317E+06        -0.50247E+08         0.00000E+00
    0.00000E+00         0.00000E+00        -0.62809E+08
 
   -0.61739E+08         0.19929E+06         0.00000E+00
    0.19929E+06        -0.50230E+08         0.00000E+00
    0.00000E+00         0.00000E+00        -0.62728E+08
 
   -0.61778E+08         0.22557E+06         0.00000E+00
    0.22557E+06        -0.50211E+08         0.00000E+00
    0.00000E+00         0.00000E+00        -0.62644E+08
 
   -0.61809E+08         0.25291E+06         0.00000E+00
    0.25291E+06        -0.50190E+08         0.00000E+00
    0.00000E+00         0.00000E+00        -0.62557E+08
 
   -0.61831E+08         0.28253E+06         0.00000E+00
    0.28253E+06        -0.50167E+08         0.00000E+00
    0.00000E+00         0.00000E+00        -0.62468E+08
 
   -0.61845E+08         0.31539E+06         0.00000E+00
    0.31539E+06        -0.50142E+08         0.00000E+00
    0.00000E+00         0.00000E+00        -0.62375E+08
 
   -0.61851E+08         0.35181E+06         0.00000E+00
    0.35181E+06        -0.50114E+08         0.00000E+00
    0.00000E+00         0.00000E+00        -0.62280E+08
 
   -0.61848E+08         0.39234E+06         0.00000E+00
    0.39234E+06        -0.50085E+08         0.00000E+00
    0.00000E+00         0.00000E+00        -0.62182E+08
 
   -0.61835E+08         0.43679E+06         0.00000E+00
    0.43679E+06        -0.50053E+08         0.00000E+00
    0.00000E+00         0.00000E+00        -0.62081E+08
 
   -0.61811E+08         0.48562E+06         0.00000E+00
    0.48562E+06        -0.50018E+08         0.00000E+00
    0.00000E+00         0.00000E+00        -0.61979E+08
 
   -0.61774E+08         0.53740E+06         0.00000E+00
    0.53740E+06        -0.49981E+08         0.00000E+00
    0.00000E+00         0.00000E+00        -0.61877E+08
 
   -0.61727E+08         0.59218E+06         0.00000E+00
    0.59218E+06        -0.49943E+08         0.00000E+00
    0.00000E+00         0.00000E+00        -0.61778E+08
 
   -0.61674E+08         0.64863E+06         0.00000E+00
    0.64863E+06        -0.49907E+08         0.00000E+00
    0.00000E+00         0.00000E+00        -0.61688E+08
 
   -0.57447E+08        -0.36605E+05         0.00000E+00
   -0.36605E+05        -0.49995E+08         0.00000E+00
    0.00000E+00         0.00000E+00        -0.62145E+08
 
   -0.57550E+08        -0.92375E+05         0.00000E+00
   -0.92375E+05        -0.49999E+08         0.00000E+00
    0.00000E+00         0.00000E+00        -0.62167E+08
 
   -0.57651E+08        -0.14582E+06         0.00000E+00
   -0.14582E+06        -0.50002E+08         0.00000E+00
    0.00000E+00         0.00000E+00        -0.62188E+08
 
   -0.57752E+08        -0.19771E+06         0.00000E+00
   -0.19771E+06        -0.50005E+08         0.00000E+00
    0.00000E+00         0.00000E+00        -0.62208E+08
 
   -0.57855E+08        -0.24715E+06         0.00000E+00
   -0.24715E+06        -0.50004E+08         0.00000E+00
    0.00000E+00         0.00000E+00        -0.62229E+08
 
   -0.57962E+08        -0.29264E+06         0.00000E+00
   -0.29264E+06        -0.50001E+08         0.00000E+00
    0.00000E+00         0.00000E+00        -0.62249E+08
 
   -0.58072E+08        -0.33375E+06         0.00000E+00
   -0.33375E+06        -0.49997E+08         0.00000E+00
    0.00000E+00         0.00000E+00        -0.62271E+08
 
   -0.58186E+08        -0.37030E+06         0.00000E+00
   -0.37030E+06        -0.49991E+08         0.00000E+00
    0.00000E+00         0.00000E+00        -0.62292E+08
 
   -0.58303E+08        -0.40196E+06         0.00000E+00
   -0.40196E+06        -0.49985E+08         0.00000E+00
    0.00000E+00         0.00000E+00        -0.62314E+08
 
   -0.58422E+08        -0.42852E+06         0.00000E+00
   -0.42852E+06        -0.49977E+08         0.00000E+00
    0.00000E+00         0.00000E+00        -0.62337E+08
 
   -0.58544E+08        -0.44991E+06         0.00000E+00
   -0.44991E+06        -0.49970E+08         0.00000E+00
    0.00000E+00         0.00000E+00        -0.62360E+08
 
   -0.58668E+08        -0.46608E+06         0.00000E+00
   -0.46608E+06        -0.49962E+08         0.00000E+00
    0.00000E+00         0.00000E+00        -0.62383E+08
 
   -0.58793E+08        -0.47709E+06         0.00000E+00
   -0.47709E+06        -0.49954E+08         0.00000E+00
    0.00000E+00         0.00000E+00        -0.62406E+08
 
   -0.58919E+08        -0.48309E+06         0.00000E+00
   -0.48309E+06        -0.49947E+08         0.00000E+00
    0.00000E+00         0.00000E+00        -0.62430E+08
 
   -0.59045E+08        -0.48433E+06         0.00000E+00
   -0.48433E+06        -0.49940E+08         0.00000E+00
    0.00000E+00         0.00000E+00        -0.62454E+08
 
   -0.59170E+08        -0.48112E+06         0.00000E+00
   -0.48112E+06        -0.49934E+08         0.00000E+00
    0.00000E+00         0.00000E+00        -0.62478E+08
 
   -0.59295E+08        -0.47376E+06         0.00000E+00
   -0.47376E+06        -0.49929E+08         0.00000E+00
    0.00000E+00         0.00000E+00        -0.62502E+08
 
   -0.59418E+08        -0.46264E+06         0.00000E+00
   -0.46264E+06        -0.49924E+08         0.00000E+00
    0.00000E+00         0.00000E+00        -0.62525E+08
 
   -0.59540E+08        -0.44811E+06         0.00000E+00
   -0.44811E+06        -0.49919E+08         0.00000E+00
    0.00000E+00         0.00000E+00        -0.62549E+08
 
   -0.59660E+08        -0.43046E+06         0.00000E+00
   -0.43046E+06        -0.49915E+08         0.00000E+00
    0.00000E+00         0.00000E+00        -0.62572E+08
 
   -0.59779E+08        -0.40998E+06         0.00000E+00
   -0.40998E+06        -0.49911E+08         0.00000E+00
    0.00000E+00         0.00000E+00        -0.62595E+08
 
   -0.59895E+08        -0.38701E+06         0.00000E+00
   -0.38701E+06        -0.49908E+08         0.00000E+00
    0.00000E+00         0.00000E+00        -0.62617E+08
 
   -0.60009E+08        -0.36181E+06         0.00000E+00
   -0.36181E+06        -0.49905E+08         0.00000E+00
    0.00000E+00         0.00000E+00        -0.62640E+08
 
   -0.60122E+08        -0.33457E+06         0.00000E+00
   -0.33457E+06        -0.49902E+08         0.00000E+00
    0.00000E+00         0.00000E+00        -0.62662E+08
 
   -0.60232E+08        -0.30554E+06         0.00000E+00
   -0.30554E+06        -0.49899E+08         0.00000E+00
    0.00000E+00         0.00000E+00        -0.62683E+08
 
   -0.60341E+08        -0.27496E+06         0.00000E+00
   -0.27496E+06        -0.49897E+08         0.00000E+00
    0.00000E+00         0.00000E+00        -0.62705E+08
 
   -0.60449E+08        -0.24301E+06         0.00000E+00
   -0.24301E+06        -0.49895E+08         0.00000E+00
    0.00000E+00         0.00000E+00        -0.62726E+08
 
   -0.60556E+08        -0.20983E+06         0.00000E+00
   -0.20983E+06        -0.49893E+08         0.00000E+00
    0.00000E+00         0.00000E+00        -0.62747E+08
 
   -0.60661E+08        -0.17534E+06         0.00000E+00
   -0.17534E+06        -0.49883E+08         0.00000E+00
    0.00000E+00         0.00000E+00        -0.62766E+08
 
   -0.60767E+08        -0.13921E+06         0.00000E+00
   -0.13921E+06        -0.49873E+08         0.00000E+00
    0.00000E+00         0.00000E+00        -0.62785E+08
 
   -0.60871E+08        -0.10050E+06         0.00000E+00
   -0.10050E+06        -0.49866E+08         0.00000E+00
    0.00000E+00         0.00000E+00        -0.62795E+08
 
   -0.60973E+08        -0.57536E+05         0.00000E+00
   -0.57536E+05        -0.49861E+08         0.00000E+00
    0.00000E+00         0.00000E+00        -0.62796E+08
 
   -0.61080E+08        -0.95253E+04         0.00000E+00
   -0.95253E+04        -0.49855E+08         0.00000E+00
    0.00000E+00         0.00000E+00        -0.62796E+08
 
   -0.61181E+08         0.43033E+05         0.00000E+00
    0.43033E+05        -0.49865E+08         0.00000E+00
    0.00000E+00         0.00000E+00        -0.62774E+08
 
   -0.61284E+08         0.99083E+05         0.00000E+00
    0.99083E+05        -0.49877E+08         0.00000E+00
    0.00000E+00         0.00000E+00        -0.62743E+08
 
   -0.61370E+08         0.15486E+06         0.00000E+00
    0.15486E+06        -0.49874E+08         0.00000E+00
    0.00000E+00         0.00000E+00        -0.62680E+08
 
   -0.61450E+08         0.20627E+06         0.00000E+00
    0.20627E+06        -0.49869E+08         0.00000E+00
    0.00000E+00         0.00000E+00        -0.62608E+08
 
   -0.61517E+08         0.25232E+06         0.00000E+00
    0.25232E+06        -0.49856E+08         0.00000E+00
    0.00000E+00         0.00000E+00        -0.62520E+08
 
   -0.61570E+08         0.29357E+06         0.00000E+00
    0.29357E+06        -0.49838E+08         0.00000E+00
    0.00000E+00         0.00000E+00        -0.62427E+08
 
   -0.61609E+08         0.33288E+06         0.00000E+00
    0.33288E+06        -0.49817E+08         0.00000E+00
    0.00000E+00         0.00000E+00        -0.62329E+08
 
   -0.61633E+08         0.37225E+06         0.00000E+00
    0.37225E+06        -0.49792E+08         0.00000E+00
    0.00000E+00         0.00000E+00        -0.62228E+08
 
   -0.61645E+08         0.41307E+06         0.00000E+00
    0.41307E+06        -0.49764E+08         0.00000E+00
    0.00000E+00         0.00000E+00        -0.62126E+08
 
   -0.61644E+08         0.45533E+06         0.00000E+00
    0.45533E+06        -0.49734E+08         0.00000E+00
    0.00000E+00         0.00000E+00        -0.62024E+08
 
   -0.61635E+08         0.49943E+06         0.00000E+00
    0.49943E+06        -0.49704E+08         0.00000E+00
    0.00000E+00         0.00000E+00        -0.61925E+08
 
   -0.61615E+08         0.54659E+06         0.00000E+00
    0.54659E+06        -0.49672E+08         0.00000E+00
    0.00000E+00         0.00000E+00        -0.61828E+08
 
   -0.61586E+08         0.59707E+06         0.00000E+00
    0.59707E+06        -0.49640E+08         0.00000E+00
    0.00000E+00         0.00000E+00        -0.61735E+08
 
   -0.61548E+08         0.64951E+06         0.00000E+00
    0.64951E+06        -0.49608E+08         0.00000E+00
    0.00000E+00         0.00000E+00        -0.61645E+08
 
   -0.61504E+08         0.70464E+06         0.00000E+00
    0.70464E+06        -0.49576E+08         0.00000E+00
    0.00000E+00         0.00000E+00        -0.61559E+08
 
   -0.61452E+08         0.76016E+06         0.00000E+00
    0.76016E+06        -0.49544E+08         0.00000E+00
    0.00000E+00         0.00000E+00        -0.61478E+08
 
   -0.61393E+08         0.81442E+06         0.00000E+00
    0.81442E+06        -0.49512E+08         0.00000E+00
    0.00000E+00         0.00000E+00        -0.61400E+08
 
   -0.57750E+08        -0.34365E+05         0.00000E+00
   -0.34365E+05        -0.50001E+08         0.00000E+00
    0.00000E+00         0.00000E+00        -0.61827E+08
 
   -0.57827E+08        -0.91640E+05         0.00000E+00
   -0.91640E+05        -0.50000E+08         0.00000E+00
    0.00000E+00         0.00000E+00        -0.61842E+08
 
   -0.57907E+08        -0.14333E+06         0.00000E+00
   -0.14333E+06        -0.49997E+08         0.00000E+00
    0.00000E+00         0.00000E+00        -0.61858E+08
 
   -0.57989E+08        -0.18998E+06         0.00000E+00
   -0.18998E+06        -0.49994E+08         0.00000E+00
    0.00000E+00         0.00000E+00        -0.61874E+08
 
   -0.58073E+08        -0.23215E+06         0.00000E+00
   -0.23215E+06        -0.49990E+08         0.00000E+00
    0.00000E+00         0.00000E+00        -0.61890E+08
 
   -0.58160E+08        -0.27030E+06         0.00000E+00
   -0.27030E+06        -0.49985E+08         0.00000E+00
    0.00000E+00         0.00000E+00        -0.61906E+08
 
   -0.58249E+08        -0.30443E+06         0.00000E+00
   -0.30443E+06        -0.49978E+08         0.00000E+00
    0.00000E+00         0.00000E+00        -0.61922E+08
 
   -0.58341E+08        -0.33447E+06         0.00000E+00
   -0.33447E+06        -0.49970E+08         0.00000E+00
    0.00000E+00         0.00000E+00        -0.61939E+08
 
   -0.58435E+08        -0.36037E+06         0.00000E+00
   -0.36037E+06        -0.49961E+08         0.00000E+00
    0.00000E+00         0.00000E+00        -0.61956E+08
 
   -0.58531E+08        -0.38209E+06         0.00000E+00
   -0.38209E+06        -0.49950E+08         0.00000E+00
    0.00000E+00         0.00000E+00        -0.61973E+08
 
   -0.58630E+08        -0.39961E+06         0.00000E+00
   -0.39961E+06        -0.49938E+08         0.00000E+00
    0.00000E+00         0.00000E+00        -0.61991E+08
 
   -0.58731E+08        -0.41292E+06         0.00000E+00
   -0.41292E+06        -0.49925E+08         0.00000E+00
    0.00000E+00         0.00000E+00        -0.62008E+08
 
   -0.58833E+08        -0.42206E+06         0.00000E+00
   -0.42206E+06        -0.49911E+08         0.00000E+00
    0.00000E+00         0.00000E+00        -0.62026E+08
 
   -0.58937E+08        -0.42708E+06         0.00000E+00
   -0.42708E+06        -0.49896E+08         0.00000E+00
    0.00000E+00         0.00000E+00        -0.62044E+08
 
   -0.59041E+08        -0.42807E+06         0.00000E+00
   -0.42807E+06        -0.49881E+08         0.00000E+00
    0.00000E+00         0.00000E+00        -0.62061E+08
 
   -0.59146E+08        -0.42516E+06         0.00000E+00
   -0.42516E+06        -0.49866E+08         0.00000E+00
    0.00000E+00         0.00000E+00        -0.62079E+08
 
   -0.59252E+08        -0.41851E+06         0.00000E+00
   -0.41851E+06        -0.49850E+08         0.00000E+00
    0.00000E+00         0.00000E+00        -0.62097E+08
 
   -0.59358E+08        -0.40829E+06         0.00000E+00
   -0.40829E+06        -0.49834E+08         0.00000E+00
    0.00000E+00         0.00000E+00        -0.62115E+08
 
   -0.59463E+08        -0.39469E+06         0.00000E+00
   -0.39469E+06        -0.49818E+08         0.00000E+00
    0.00000E+00         0.00000E+00        -0.62133E+08
 
   -0.59568E+08        -0.37793E+06         0.00000E+00
   -0.37793E+06        -0.49802E+08         0.00000E+00
    0.00000E+00         0.00000E+00        -0.62151E+08
 
   -0.59672E+08        -0.35822E+06         0.00000E+00
   -0.35822E+06        -0.49785E+08         0.00000E+00
    0.00000E+00         0.00000E+00        -0.62169E+08
 
   -0.59776E+08        -0.33574E+06         0.00000E+00
   -0.33574E+06        -0.49769E+08         0.00000E+00
    0.00000E+00         0.00000E+00        -0.62186E+08
 
   -0.59879E+08        -0.31070E+06         0.00000E+00
   -0.31070E+06        -0.49752E+08         0.00000E+00
    0.00000E+00         0.00000E+00        -0.62203E+08
 
   -0.59980E+08        -0.28326E+06         0.00000E+00
   -0.28326E+06        -0.49735E+08         0.00000E+00
    0.00000E+00         0.00000E+00        -0.62220E+08
 
   -0.60081E+08        -0.25356E+06         0.00000E+00
   -0.25356E+06        -0.49718E+08         0.00000E+00
    0.00000E+00         0.00000E+00        -0.62237E+08
 
   -0.60181E+08        -0.22167E+06         0.00000E+00
   -0.22167E+06        -0.49701E+08         0.00000E+00
    0.00000E+00         0.00000E+00        -0.62253E+08
 
   -0.60279E+08        -0.18758E+06         0.00000E+00
   -0.18758E+06        -0.49683E+08         0.00000E+00
    0.00000E+00         0.00000E+00        -0.62269E+08
 
   -0.60376E+08        -0.15123E+06         0.00000E+00
   -0.15123E+06        -0.49664E+08         0.00000E+00
    0.00000E+00         0.00000E+00        -0.62285E+08
 
   -0.60472E+08        -0.11285E+06         0.00000E+00
   -0.11285E+06        -0.49647E+08         0.00000E+00
    0.00000E+00         0.00000E+00        -0.62301E+08
 
   -0.60566E+08        -0.72550E+05         0.00000E+00
   -0.72550E+05        -0.49629E+08         0.00000E+00
    0.00000E+00         0.00000E+00        -0.62316E+08
 
   -0.60658E+08        -0.30607E+05         0.00000E+00
   -0.30607E+05        -0.49610E+08         0.00000E+00
    0.00000E+00         0.00000E+00        -0.62331E+08
 
   -0.60748E+08         0.11814E+05         0.00000E+00
    0.11814E+05        -0.49593E+08         0.00000E+00
    0.00000E+00         0.00000E+00        -0.62345E+08
 
   -0.60839E+08         0.54437E+05         0.00000E+00
    0.54437E+05        -0.49576E+08         0.00000E+00
    0.00000E+00         0.00000E+00        -0.62360E+08
 
   -0.60928E+08         0.98204E+05         0.00000E+00
    0.98204E+05        -0.49544E+08         0.00000E+00
    0.00000E+00         0.00000E+00        -0.62371E+08
 
   -0.61023E+08         0.14389E+06         0.00000E+00
    0.14389E+06        -0.49510E+08         0.00000E+00
    0.00000E+00         0.00000E+00        -0.62383E+08
 
   -0.61103E+08         0.19491E+06         0.00000E+00
    0.19491E+06        -0.49483E+08         0.00000E+00
    0.00000E+00         0.00000E+00        -0.62362E+08
 
   -0.61188E+08         0.25383E+06         0.00000E+00
    0.25383E+06        -0.49461E+08         0.00000E+00
    0.00000E+00         0.00000E+00        -0.62335E+08
 
   -0.61260E+08         0.31847E+06         0.00000E+00
    0.31847E+06        -0.49462E+08         0.00000E+00
    0.00000E+00         0.00000E+00        -0.62279E+08
 
   -0.61321E+08         0.38597E+06         0.00000E+00
    0.38597E+06        -0.49456E+08         0.00000E+00
    0.00000E+00         0.00000E+00        -0.62202E+08
 
   -0.61366E+08         0.45083E+06         0.00000E+00
    0.45083E+06        -0.49438E+08         0.00000E+00
    0.00000E+00         0.00000E+00        -0.62101E+08
 
   -0.61397E+08         0.50996E+06         0.00000E+00
    0.50996E+06        -0.49415E+08         0.00000E+00
    0.00000E+00         0.00000E+00        -0.61989E+08
 
   -0.61410E+08         0.56206E+06         0.00000E+00
    0.56206E+06        -0.49385E+08         0.00000E+00
    0.00000E+00         0.00000E+00        -0.61871E+08
 
   -0.61412E+08         0.61025E+06         0.00000E+00
    0.61025E+06        -0.49354E+08         0.00000E+00
    0.00000E+00         0.00000E+00        -0.61759E+08
 
   -0.61395E+08         0.65826E+06         0.00000E+00
    0.65826E+06        -0.49319E+08         0.00000E+00
    0.00000E+00         0.00000E+00        -0.61646E+08
 
   -0.61366E+08         0.70603E+06         0.00000E+00
    0.70603E+06        -0.49284E+08         0.00000E+00
    0.00000E+00         0.00000E+00        -0.61540E+08
 
   -0.61328E+08         0.75472E+06         0.00000E+00
    0.75472E+06        -0.49249E+08         0.00000E+00
    0.00000E+00         0.00000E+00        -0.61440E+08
 
   -0.61283E+08         0.80503E+06         0.00000E+00
    0.80503E+06        -0.49215E+08         0.00000E+00
    0.00000E+00         0.00000E+00        -0.61349E+08
 
   -0.61233E+08         0.85581E+06         0.00000E+00
    0.85581E+06        -0.49184E+08         0.00000E+00
    0.00000E+00         0.00000E+00        -0.61267E+08
 
   -0.61178E+08         0.90850E+06         0.00000E+00
    0.90850E+06        -0.49154E+08         0.00000E+00
    0.00000E+00         0.00000E+00        -0.61191E+08
 
   -0.61118E+08         0.96195E+06         0.00000E+00
    0.96195E+06        -0.49125E+08         0.00000E+00
    0.00000E+00         0.00000E+00        -0.61120E+08
 
   -0.58029E+08        -0.30883E+05         0.00000E+00
   -0.30883E+05        -0.50000E+08         0.00000E+00
    0.00000E+00         0.00000E+00        -0.61506E+08
 
   -0.58081E+08        -0.79876E+05         0.00000E+00
   -0.79876E+05        -0.49999E+08         0.00000E+00
    0.00000E+00         0.00000E+00        -0.61516E+08
 
   -0.58136E+08        -0.12420E+06         0.00000E+00
   -0.12420E+06        -0.49995E+08         0.00000E+00
    0.00000E+00         0.00000E+00        -0.61526E+08
 
   -0.58195E+08        -0.16397E+06         0.00000E+00
   -0.16397E+06        -0.49989E+08         0.00000E+00
    0.00000E+00         0.00000E+00        -0.61537E+08
 
   -0.58257E+08        -0.19932E+06         0.00000E+00
   -0.19932E+06        -0.49981E+08         0.00000E+00
    0.00000E+00         0.00000E+00        -0.61548E+08
 
   -0.58323E+08        -0.23038E+06         0.00000E+00
   -0.23038E+06        -0.49972E+08         0.00000E+00
    0.00000E+00         0.00000E+00        -0.61559E+08
 
   -0.58392E+08        -0.25733E+06         0.00000E+00
   -0.25733E+06        -0.49962E+08         0.00000E+00
    0.00000E+00         0.00000E+00        -0.61571E+08
 
   -0.58463E+08        -0.28034E+06         0.00000E+00
   -0.28034E+06        -0.49950E+08         0.00000E+00
    0.00000E+00         0.00000E+00        -0.61583E+08
 
   -0.58538E+08        -0.29947E+06         0.00000E+00
   -0.29947E+06        -0.49937E+08         0.00000E+00
    0.00000E+00         0.00000E+00        -0.61595E+08
 
   -0.58614E+08        -0.31482E+06         0.00000E+00
   -0.31482E+06        -0.49922E+08         0.00000E+00
    0.00000E+00         0.00000E+00        -0.61607E+08
 
   -0.58693E+08        -0.32645E+06         0.00000E+00
   -0.32645E+06        -0.49906E+08         0.00000E+00
    0.00000E+00         0.00000E+00        -0.61620E+08
 
   -0.58774E+08        -0.33439E+06         0.00000E+00
   -0.33439E+06        -0.49889E+08         0.00000E+00
    0.00000E+00         0.00000E+00        -0.61633E+08
 
   -0.58857E+08        -0.33872E+06         0.00000E+00
   -0.33872E+06        -0.49870E+08         0.00000E+00
    0.00000E+00         0.00000E+00        -0.61645E+08
 
   -0.58942E+08        -0.33949E+06         0.00000E+00
   -0.33949E+06        -0.49851E+08         0.00000E+00
    0.00000E+00         0.00000E+00        -0.61658E+08
 
   -0.59028E+08        -0.33678E+06         0.00000E+00
   -0.33678E+06        -0.49830E+08         0.00000E+00
    0.00000E+00         0.00000E+00        -0.61672E+08
 
   -0.59116E+08        -0.33067E+06         0.00000E+00
   -0.33067E+06        -0.49809E+08         0.00000E+00
    0.00000E+00         0.00000E+00        -0.61685E+08
 
   -0.59204E+08        -0.32124E+06         0.00000E+00
   -0.32124E+06        -0.49786E+08         0.00000E+00
    0.00000E+00         0.00000E+00        -0.61698E+08
 
   -0.59293E+08        -0.30860E+06         0.00000E+00
   -0.30860E+06        -0.49763E+08         0.00000E+00
    0.00000E+00         0.00000E+00        -0.61711E+08
 
   -0.59383E+08        -0.29287E+06         0.00000E+00
   -0.29287E+06        -0.49740E+08         0.00000E+00
    0.00000E+00         0.00000E+00        -0.61724E+08
 
   -0.59473E+08        -0.27414E+06         0.00000E+00
   -0.27414E+06        -0.49716E+08         0.00000E+00
    0.00000E+00         0.00000E+00        -0.61738E+08
 
   -0.59563E+08        -0.25254E+06         0.00000E+00
   -0.25254E+06        -0.49691E+08         0.00000E+00
    0.00000E+00         0.00000E+00        -0.61751E+08
 
   -0.59653E+08        -0.22820E+06         0.00000E+00
   -0.22820E+06        -0.49665E+08         0.00000E+00
    0.00000E+00         0.00000E+00        -0.61764E+08
 
   -0.59743E+08        -0.20121E+06         0.00000E+00
   -0.20121E+06        -0.49639E+08         0.00000E+00
    0.00000E+00         0.00000E+00        -0.61776E+08
 
   -0.59833E+08        -0.17169E+06         0.00000E+00
   -0.17169E+06        -0.49612E+08         0.00000E+00
    0.00000E+00         0.00000E+00        -0.61789E+08
 
   -0.59922E+08        -0.13975E+06         0.00000E+00
   -0.13975E+06        -0.49585E+08         0.00000E+00
    0.00000E+00         0.00000E+00        -0.61801E+08
 
   -0.60010E+08        -0.10549E+06         0.00000E+00
   -0.10549E+06        -0.49557E+08         0.00000E+00
    0.00000E+00         0.00000E+00        -0.61813E+08
 
   -0.60098E+08        -0.69025E+05         0.00000E+00
   -0.69025E+05        -0.49529E+08         0.00000E+00
    0.00000E+00         0.00000E+00        -0.61825E+08
 
   -0.60185E+08        -0.30518E+05         0.00000E+00
   -0.30518E+05        -0.49500E+08         0.00000E+00
    0.00000E+00         0.00000E+00        -0.61837E+08
 
   -0.60270E+08         0.10033E+05         0.00000E+00
    0.10033E+05        -0.49470E+08         0.00000E+00
    0.00000E+00         0.00000E+00        -0.61848E+08
 
   -0.60355E+08         0.52551E+05         0.00000E+00
    0.52551E+05        -0.49439E+08         0.00000E+00
    0.00000E+00         0.00000E+00        -0.61859E+08
 
   -0.60439E+08         0.96955E+05         0.00000E+00
    0.96955E+05        -0.49408E+08         0.00000E+00
    0.00000E+00         0.00000E+00        -0.61869E+08
 
   -0.60521E+08         0.14355E+06         0.00000E+00
    0.14355E+06        -0.49376E+08         0.00000E+00
    0.00000E+00         0.00000E+00        -0.61879E+08
 
   -0.60601E+08         0.19268E+06         0.00000E+00
    0.19268E+06        -0.49342E+08         0.00000E+00
    0.00000E+00         0.00000E+00        -0.61888E+08
 
   -0.60679E+08         0.24397E+06         0.00000E+00
    0.24397E+06        -0.49310E+08         0.00000E+00
    0.00000E+00         0.00000E+00        -0.61898E+08
 
   -0.60752E+08         0.29750E+06         0.00000E+00
    0.29750E+06        -0.49278E+08         0.00000E+00
    0.00000E+00         0.00000E+00        -0.61906E+08
 
   -0.60823E+08         0.35080E+06         0.00000E+00
    0.35080E+06        -0.49249E+08         0.00000E+00
    0.00000E+00         0.00000E+00        -0.61914E+08
 
   -0.60892E+08         0.40198E+06         0.00000E+00
    0.40198E+06        -0.49215E+08         0.00000E+00
    0.00000E+00         0.00000E+00        -0.61922E+08
 
   -0.60960E+08         0.45339E+06         0.00000E+00
    0.45339E+06        -0.49158E+08         0.00000E+00
    0.00000E+00         0.00000E+00        -0.61924E+08
 
   -0.61020E+08         0.50718E+06         0.00000E+00
    0.50718E+06        -0.49105E+08         0.00000E+00
    0.00000E+00         0.00000E+00        -0.61906E+08
 
   -0.61071E+08         0.56761E+06         0.00000E+00
    0.56761E+06        -0.49060E+08         0.00000E+00
    0.00000E+00         0.00000E+00        -0.61865E+08
 
   -0.61108E+08         0.63389E+06         0.00000E+00
    0.63389E+06        -0.49041E+08         0.00000E+00
    0.00000E+00         0.00000E+00        -0.61796E+08
 
   -0.61141E+08         0.70399E+06         0.00000E+00
    0.70399E+06        -0.49033E+08         0.00000E+00
    0.00000E+00         0.00000E+00        -0.61717E+08
 
   -0.61144E+08         0.77365E+06         0.00000E+00
    0.77365E+06        -0.49006E+08         0.00000E+00
    0.00000E+00         0.00000E+00        -0.61599E+08
 
   -0.61142E+08         0.83500E+06         0.00000E+00
    0.83500E+06        -0.48977E+08         0.00000E+00
    0.00000E+00         0.00000E+00        -0.61480E+08
 
   -0.61122E+08         0.88811E+06         0.00000E+00
    0.88811E+06        -0.48941E+08         0.00000E+00
    0.00000E+00         0.00000E+00        -0.61355E+08
 
   -0.61088E+08         0.93282E+06         0.00000E+00
    0.93282E+06        -0.48901E+08         0.00000E+00
    0.00000E+00         0.00000E+00        -0.61233E+08
 
   -0.61045E+08         0.97317E+06         0.00000E+00
    0.97317E+06        -0.48862E+08         0.00000E+00
    0.00000E+00         0.00000E+00        -0.61126E+08
 
   -0.60988E+08         0.10148E+07         0.00000E+00
    0.10148E+07        -0.48822E+08         0.00000E+00
    0.00000E+00         0.00000E+00        -0.61025E+08
 
   -0.60925E+08         0.10574E+07         0.00000E+00
    0.10574E+07        -0.48787E+08         0.00000E+00
    0.00000E+00         0.00000E+00        -0.60937E+08
 
   -0.60862E+08         0.11061E+07         0.00000E+00
    0.11061E+07        -0.48756E+08         0.00000E+00
    0.00000E+00         0.00000E+00        -0.60864E+08
 
   -0.58260E+08        -0.24153E+05         0.00000E+00
   -0.24153E+05        -0.50001E+08         0.00000E+00
    0.00000E+00         0.00000E+00        -0.61179E+08
 
   -0.58289E+08        -0.62495E+05         0.00000E+00
   -0.62495E+05        -0.49998E+08         0.00000E+00
    0.00000E+00         0.00000E+00        -0.61184E+08
 
   -0.58322E+08        -0.96657E+05         0.00000E+00
   -0.96657E+05        -0.49993E+08         0.00000E+00
    0.00000E+00         0.00000E+00        -0.61189E+08
 
   -0.58360E+08        -0.12682E+06         0.00000E+00
   -0.12682E+06        -0.49986E+08         0.00000E+00
    0.00000E+00         0.00000E+00        -0.61196E+08
 
   -0.58402E+08        -0.15311E+06         0.00000E+00
   -0.15311E+06        -0.49977E+08         0.00000E+00
    0.00000E+00         0.00000E+00        -0.61202E+08
 
   -0.58448E+08        -0.17565E+06         0.00000E+00
   -0.17565E+06        -0.49966E+08         0.00000E+00
    0.00000E+00         0.00000E+00        -0.61209E+08
 
   -0.58497E+08        -0.19451E+06         0.00000E+00
   -0.19451E+06        -0.49953E+08         0.00000E+00
    0.00000E+00         0.00000E+00        -0.61216E+08
 
   -0.58550E+08        -0.20978E+06         0.00000E+00
   -0.20978E+06        -0.49938E+08         0.00000E+00
    0.00000E+00         0.00000E+00        -0.61224E+08
 
   -0.58606E+08        -0.22153E+06         0.00000E+00
   -0.22153E+06        -0.49922E+08         0.00000E+00
    0.00000E+00         0.00000E+00        -0.61232E+08
 
   -0.58665E+08        -0.22985E+06         0.00000E+00
   -0.22985E+06        -0.49904E+08         0.00000E+00
    0.00000E+00         0.00000E+00        -0.61240E+08
 
   -0.58726E+08        -0.23480E+06         0.00000E+00
   -0.23480E+06        -0.49885E+08         0.00000E+00
    0.00000E+00         0.00000E+00        -0.61249E+08
 
   -0.58790E+08        -0.23644E+06         0.00000E+00
   -0.23644E+06        -0.49865E+08         0.00000E+00
    0.00000E+00         0.00000E+00        -0.61257E+08
 
   -0.58856E+08        -0.23483E+06         0.00000E+00
   -0.23483E+06        -0.49843E+08         0.00000E+00
    0.00000E+00         0.00000E+00        -0.61266E+08
 
   -0.58924E+08        -0.23003E+06         0.00000E+00
   -0.23003E+06        -0.49821E+08         0.00000E+00
    0.00000E+00         0.00000E+00        -0.61275E+08
 
   -0.58994E+08        -0.22209E+06         0.00000E+00
   -0.22209E+06        -0.49796E+08         0.00000E+00
    0.00000E+00         0.00000E+00        -0.61284E+08
 
   -0.59065E+08        -0.21108E+06         0.00000E+00
   -0.21108E+06        -0.49771E+08         0.00000E+00
    0.00000E+00         0.00000E+00        -0.61294E+08
 
   -0.59138E+08        -0.19705E+06         0.00000E+00
   -0.19705E+06        -0.49745E+08         0.00000E+00
    0.00000E+00         0.00000E+00        -0.61303E+08
 
   -0.59212E+08        -0.18007E+06         0.00000E+00
   -0.18007E+06        -0.49718E+08         0.00000E+00
    0.00000E+00         0.00000E+00        -0.61312E+08
 
   -0.59287E+08        -0.16020E+06         0.00000E+00
   -0.16020E+06        -0.49690E+08         0.00000E+00
    0.00000E+00         0.00000E+00        -0.61322E+08
 
   -0.59362E+08        -0.13752E+06         0.00000E+00
   -0.13752E+06        -0.49661E+08         0.00000E+00
    0.00000E+00         0.00000E+00        -0.61331E+08
 
   -0.59439E+08        -0.11209E+06         0.00000E+00
   -0.11209E+06        -0.49631E+08         0.00000E+00
    0.00000E+00         0.00000E+00        -0.61340E+08
 
   -0.59516E+08        -0.83987E+05         0.00000E+00
   -0.83987E+05        -0.49600E+08         0.00000E+00
    0.00000E+00         0.00000E+00        -0.61350E+08
 
   -0.59593E+08        -0.53288E+05         0.00000E+00
   -0.53288E+05        -0.49568E+08         0.00000E+00
    0.00000E+00         0.00000E+00        -0.61359E+08
 
   -0.59670E+08        -0.20067E+05         0.00000E+00
   -0.20067E+05        -0.49536E+08         0.00000E+00
    0.00000E+00         0.00000E+00        -0.61368E+08
 
   -0.59747E+08         0.15600E+05         0.00000E+00
    0.15600E+05        -0.49503E+08         0.00000E+00
    0.00000E+00         0.00000E+00        -0.61376E+08
 
   -0.59824E+08         0.53637E+05         0.00000E+00
    0.53637E+05        -0.49468E+08         0.00000E+00
    0.00000E+00         0.00000E+00        -0.61385E+08
 
   -0.59901E+08         0.93976E+05         0.00000E+00
    0.93976E+05        -0.49433E+08         0.00000E+00
    0.00000E+00         0.00000E+00        -0.61393E+08
 
   -0.59977E+08         0.13657E+06         0.00000E+00
    0.13657E+06        -0.49397E+08         0.00000E+00
    0.00000E+00         0.00000E+00        -0.61401E+08
 
   -0.60052E+08         0.18134E+06         0.00000E+00
    0.18134E+06        -0.49361E+08         0.00000E+00
    0.00000E+00         0.00000E+00        -0.61409E+08
 
   -0.60127E+08         0.22822E+06         0.00000E+00
    0.22822E+06        -0.49323E+08         0.00000E+00
    0.00000E+00         0.00000E+00        -0.61416E+08
 
   -0.60200E+08         0.27720E+06         0.00000E+00
    0.27720E+06        -0.49284E+08         0.00000E+00
    0.00000E+00         0.00000E+00        -0.61423E+08
 
   -0.60272E+08         0.32815E+06         0.00000E+00
    0.32815E+06        -0.49244E+08         0.00000E+00
    0.00000E+00         0.00000E+00        -0.61430E+08
 
   -0.60342E+08         0.38085E+06         0.00000E+00
    0.38085E+06        -0.49204E+08         0.00000E+00
    0.00000E+00         0.00000E+00        -0.61436E+08
 
   -0.60411E+08         0.43536E+06         0.00000E+00
    0.43536E+06        -0.49162E+08         0.00000E+00
    0.00000E+00         0.00000E+00        -0.61441E+08
 
   -0.60477E+08         0.49148E+06         0.00000E+00
    0.49148E+06        -0.49119E+08         0.00000E+00
    0.00000E+00         0.00000E+00        -0.61446E+08
 
   -0.60541E+08         0.54969E+06         0.00000E+00
    0.54969E+06        -0.49075E+08         0.00000E+00
    0.00000E+00         0.00000E+00        -0.61450E+08
 
   -0.60601E+08         0.61054E+06         0.00000E+00
    0.61054E+06        -0.49030E+08         0.00000E+00
    0.00000E+00         0.00000E+00        -0.61453E+08
 
   -0.60657E+08         0.67290E+06         0.00000E+00
    0.67290E+06        -0.48989E+08         0.00000E+00
    0.00000E+00         0.00000E+00        -0.61456E+08
 
   -0.60707E+08         0.73449E+06         0.00000E+00
    0.73449E+06        -0.48948E+08         0.00000E+00
    0.00000E+00         0.00000E+00        -0.61457E+08
 
   -0.60754E+08         0.79177E+06         0.00000E+00
    0.79177E+06        -0.48911E+08         0.00000E+00
    0.00000E+00         0.00000E+00        -0.61459E+08
 
   -0.60795E+08         0.84582E+06         0.00000E+00
    0.84582E+06        -0.48844E+08         0.00000E+00
    0.00000E+00         0.00000E+00        -0.61454E+08
 
   -0.60843E+08         0.89738E+06         0.00000E+00
    0.89738E+06        -0.48770E+08         0.00000E+00
    0.00000E+00         0.00000E+00        -0.61449E+08
 
   -0.60860E+08         0.95015E+06         0.00000E+00
    0.95015E+06        -0.48707E+08         0.00000E+00
    0.00000E+00         0.00000E+00        -0.61396E+08
 
   -0.60884E+08         0.10093E+07         0.00000E+00
    0.10093E+07        -0.48650E+08         0.00000E+00
    0.00000E+00         0.00000E+00        -0.61342E+08
 
   -0.60880E+08         0.10685E+07         0.00000E+00
    0.10685E+07        -0.48632E+08         0.00000E+00
    0.00000E+00         0.00000E+00        -0.61249E+08
 
   -0.60876E+08         0.11276E+07         0.00000E+00
    0.11276E+07        -0.48614E+08         0.00000E+00
    0.00000E+00         0.00000E+00        -0.61153E+08
 
   -0.60836E+08         0.11822E+07         0.00000E+00
    0.11822E+07        -0.48574E+08         0.00000E+00
    0.00000E+00         0.00000E+00        -0.61022E+08
 
   -0.60794E+08         0.12231E+07         0.00000E+00
    0.12231E+07        -0.48533E+08         0.00000E+00
    0.00000E+00         0.00000E+00        -0.60897E+08
 
   -0.60731E+08         0.12527E+07         0.00000E+00
    0.12527E+07        -0.48483E+08         0.00000E+00
    0.00000E+00         0.00000E+00        -0.60773E+08
 
   -0.60652E+08         0.12720E+07         0.00000E+00
    0.12720E+07        -0.48430E+08         0.00000E+00
    0.00000E+00         0.00000E+00        -0.60661E+08
 
   -0.58430E+08        -0.16658E+05         0.00000E+00
   -0.16658E+05        -0.50001E+08         0.00000E+00
    0.00000E+00         0.00000E+00        -0.60843E+08
 
   -0.58440E+08        -0.42369E+05         0.00000E+00
   -0.42369E+05        -0.49998E+08         0.00000E+00
    0.00000E+00         0.00000E+00        -0.60844E+08
 
   -0.58455E+08        -0.64877E+05         0.00000E+00
   -0.64877E+05        -0.49993E+08         0.00000E+00
    0.00000E+00         0.00000E+00        -0.60846E+08
 
   -0.58475E+08        -0.84188E+05         0.00000E+00
   -0.84188E+05        -0.49985E+08         0.00000E+00
    0.00000E+00         0.00000E+00        -0.60849E+08
 
   -0.58500E+08        -0.10033E+06         0.00000E+00
   -0.10033E+06        -0.49975E+08         0.00000E+00
    0.00000E+00         0.00000E+00        -0.60852E+08
 
   -0.58528E+08        -0.11333E+06         0.00000E+00
   -0.11333E+06        -0.49963E+08         0.00000E+00
    0.00000E+00         0.00000E+00        -0.60855E+08
 
   -0.58561E+08        -0.12322E+06         0.00000E+00
   -0.12322E+06        -0.49949E+08         0.00000E+00
    0.00000E+00         0.00000E+00        -0.60859E+08
 
   -0.58597E+08        -0.13005E+06         0.00000E+00
   -0.13005E+06        -0.49934E+08         0.00000E+00
    0.00000E+00         0.00000E+00        -0.60863E+08
 
   -0.58637E+08        -0.13383E+06         0.00000E+00
   -0.13383E+06        -0.49917E+08         0.00000E+00
    0.00000E+00         0.00000E+00        -0.60868E+08
 
   -0.58680E+08        -0.13461E+06         0.00000E+00
   -0.13461E+06        -0.49898E+08         0.00000E+00
    0.00000E+00         0.00000E+00        -0.60872E+08
 
   -0.58725E+08        -0.13241E+06         0.00000E+00
   -0.13241E+06        -0.49878E+08         0.00000E+00
    0.00000E+00         0.00000E+00        -0.60877E+08
 
   -0.58774E+08        -0.12727E+06         0.00000E+00
   -0.12727E+06        -0.49856E+08         0.00000E+00
    0.00000E+00         0.00000E+00        -0.60883E+08
 
   -0.58824E+08        -0.11922E+06         0.00000E+00
   -0.11922E+06        -0.49833E+08         0.00000E+00
    0.00000E+00         0.00000E+00        -0.60888E+08
 
   -0.58877E+08        -0.10830E+06         0.00000E+00
   -0.10830E+06        -0.49809E+08         0.00000E+00
    0.00000E+00         0.00000E+00        -0.60894E+08
 
   -0.58932E+08        -0.94542E+05         0.00000E+00
   -0.94542E+05        -0.49783E+08         0.00000E+00
    0.00000E+00         0.00000E+00        -0.60900E+08
 
   -0.58989E+08        -0.77976E+05         0.00000E+00
   -0.77976E+05        -0.49756E+08         0.00000E+00
    0.00000E+00         0.00000E+00        -0.60906E+08
 
   -0.59048E+08        -0.58641E+05         0.00000E+00
   -0.58641E+05        -0.49729E+08         0.00000E+00
    0.00000E+00         0.00000E+00        -0.60912E+08
 
   -0.59107E+08        -0.36574E+05         0.00000E+00
   -0.36574E+05        -0.49700E+08         0.00000E+00
    0.00000E+00         0.00000E+00        -0.60918E+08
 
   -0.59169E+08        -0.11813E+05         0.00000E+00
   -0.11813E+05        -0.49670E+08         0.00000E+00
    0.00000E+00         0.00000E+00        -0.60925E+08
 
   -0.59231E+08         0.15602E+05         0.00000E+00
    0.15602E+05        -0.49639E+08         0.00000E+00
    0.00000E+00         0.00000E+00        -0.60931E+08
 
   -0.59294E+08         0.45631E+05         0.00000E+00
    0.45631E+05        -0.49608E+08         0.00000E+00
    0.00000E+00         0.00000E+00        -0.60937E+08
 
   -0.59358E+08         0.78229E+05         0.00000E+00
    0.78229E+05        -0.49575E+08         0.00000E+00
    0.00000E+00         0.00000E+00        -0.60943E+08
 
   -0.59422E+08         0.11335E+06         0.00000E+00
    0.11335E+06        -0.49542E+08         0.00000E+00
    0.00000E+00         0.00000E+00        -0.60950E+08
 
   -0.59487E+08         0.15096E+06         0.00000E+00
    0.15096E+06        -0.49507E+08         0.00000E+00
    0.00000E+00         0.00000E+00        -0.60956E+08
 
   -0.59552E+08         0.19101E+06         0.00000E+00
    0.19101E+06        -0.49472E+08         0.00000E+00
    0.00000E+00         0.00000E+00        -0.60962E+08
 
   -0.59617E+08         0.23345E+06         0.00000E+00
    0.23345E+06        -0.49436E+08         0.00000E+00
    0.00000E+00         0.00000E+00        -0.60968E+08
 
   -0.59683E+08         0.27823E+06         0.00000E+00
    0.27823E+06        -0.49399E+08         0.00000E+00
    0.00000E+00         0.00000E+00        -0.60973E+08
 
   -0.59747E+08         0.32530E+06         0.00000E+00
    0.32530E+06        -0.49361E+08         0.00000E+00
    0.00000E+00         0.00000E+00        -0.60979E+08
 
   -0.59812E+08         0.37461E+06         0.00000E+00
    0.37461E+06        -0.49323E+08         0.00000E+00
    0.00000E+00         0.00000E+00        -0.60984E+08
 
   -0.59876E+08         0.42611E+06         0.00000E+00
    0.42611E+06        -0.49283E+08         0.00000E+00
    0.00000E+00         0.00000E+00        -0.60989E+08
 
   -0.59939E+08         0.47970E+06         0.00000E+00
    0.47970E+06        -0.49243E+08         0.00000E+00
    0.00000E+00         0.00000E+00        -0.60993E+08
 
   -0.60001E+08         0.53533E+06         0.00000E+00
    0.53533E+06        -0.49202E+08         0.00000E+00
    0.00000E+00         0.00000E+00        -0.60997E+08
 
   -0.60062E+08         0.59296E+06         0.00000E+00
    0.59296E+06        -0.49160E+08         0.00000E+00
    0.00000E+00         0.00000E+00        -0.61001E+08
 
   -0.60122E+08         0.65245E+06         0.00000E+00
    0.65245E+06        -0.49117E+08         0.00000E+00
    0.00000E+00         0.00000E+00        -0.61005E+08
 
   -0.60179E+08         0.71372E+06         0.00000E+00
    0.71372E+06        -0.49073E+08         0.00000E+00
    0.00000E+00         0.00000E+00        -0.61007E+08
 
   -0.60235E+08         0.77650E+06         0.00000E+00
    0.77650E+06        -0.49029E+08         0.00000E+00
    0.00000E+00         0.00000E+00        -0.61010E+08
 
   -0.60290E+08         0.84034E+06         0.00000E+00
    0.84034E+06        -0.48984E+08         0.00000E+00
    0.00000E+00         0.00000E+00        -0.61011E+08
 
   -0.60341E+08         0.90526E+06         0.00000E+00
    0.90526E+06        -0.48936E+08         0.00000E+00
    0.00000E+00         0.00000E+00        -0.61012E+08
 
   -0.60391E+08         0.97141E+06         0.00000E+00
    0.97141E+06        -0.48888E+08         0.00000E+00
    0.00000E+00         0.00000E+00        -0.61013E+08
 
   -0.60438E+08         0.10394E+07         0.00000E+00
    0.10394E+07        -0.48837E+08         0.00000E+00
    0.00000E+00         0.00000E+00        -0.61012E+08
 
   -0.60481E+08         0.11080E+07         0.00000E+00
    0.11080E+07        -0.48792E+08         0.00000E+00
    0.00000E+00         0.00000E+00        -0.61011E+08
 
   -0.60517E+08         0.11766E+07         0.00000E+00
    0.11766E+07        -0.48744E+08         0.00000E+00
    0.00000E+00         0.00000E+00        -0.61009E+08
 
   -0.60549E+08         0.12399E+07         0.00000E+00
    0.12399E+07        -0.48702E+08         0.00000E+00
    0.00000E+00         0.00000E+00        -0.61007E+08
 
   -0.60581E+08         0.12941E+07         0.00000E+00
    0.12941E+07        -0.48654E+08         0.00000E+00
    0.00000E+00         0.00000E+00        -0.61004E+08
 
   -0.60609E+08         0.13450E+07         0.00000E+00
    0.13450E+07        -0.48563E+08         0.00000E+00
    0.00000E+00         0.00000E+00        -0.60991E+08
 
   -0.60645E+08         0.13899E+07         0.00000E+00
    0.13899E+07        -0.48473E+08         0.00000E+00
    0.00000E+00         0.00000E+00        -0.60974E+08
 
   -0.60646E+08         0.14327E+07         0.00000E+00
    0.14327E+07        -0.48394E+08         0.00000E+00
    0.00000E+00         0.00000E+00        -0.60908E+08
 
   -0.60658E+08         0.14780E+07         0.00000E+00
    0.14780E+07        -0.48316E+08         0.00000E+00
    0.00000E+00         0.00000E+00        -0.60847E+08
 
   -0.60637E+08         0.15142E+07         0.00000E+00
    0.15142E+07        -0.48282E+08         0.00000E+00
    0.00000E+00         0.00000E+00        -0.60745E+08
 
   -0.60608E+08         0.15385E+07         0.00000E+00
    0.15385E+07        -0.48253E+08         0.00000E+00
    0.00000E+00         0.00000E+00        -0.60642E+08
 
   -0.58533E+08        -0.91145E+04         0.00000E+00
   -0.91145E+04        -0.50001E+08         0.00000E+00
    0.00000E+00         0.00000E+00        -0.60499E+08
 
   -0.58529E+08        -0.22028E+05         0.00000E+00
   -0.22028E+05        -0.49998E+08         0.00000E+00
    0.00000E+00         0.00000E+00        -0.60497E+08
 
   -0.58531E+08        -0.32580E+05         0.00000E+00
   -0.32580E+05        -0.49993E+08         0.00000E+00
    0.00000E+00         0.00000E+00        -0.60497E+08
 
   -0.58537E+08        -0.40724E+05         0.00000E+00
   -0.40724E+05        -0.49985E+08         0.00000E+00
    0.00000E+00         0.00000E+00        -0.60496E+08
 
   -0.58547E+08        -0.46422E+05         0.00000E+00
   -0.46422E+05        -0.49976E+08         0.00000E+00
    0.00000E+00         0.00000E+00        -0.60496E+08
 
   -0.58562E+08        -0.49640E+05         0.00000E+00
   -0.49640E+05        -0.49964E+08         0.00000E+00
    0.00000E+00         0.00000E+00        -0.60497E+08
 
   -0.58581E+08        -0.50354E+05         0.00000E+00
   -0.50354E+05        -0.49951E+08         0.00000E+00
    0.00000E+00         0.00000E+00        -0.60498E+08
 
   -0.58603E+08        -0.48548E+05         0.00000E+00
   -0.48548E+05        -0.49935E+08         0.00000E+00
    0.00000E+00         0.00000E+00        -0.60500E+08
 
   -0.58629E+08        -0.44209E+05         0.00000E+00
   -0.44209E+05        -0.49918E+08         0.00000E+00
    0.00000E+00         0.00000E+00        -0.60501E+08
 
   -0.58658E+08        -0.37331E+05         0.00000E+00
   -0.37331E+05        -0.49900E+08         0.00000E+00
    0.00000E+00         0.00000E+00        -0.60503E+08
 
   -0.58690E+08        -0.27910E+05         0.00000E+00
   -0.27910E+05        -0.49880E+08         0.00000E+00
    0.00000E+00         0.00000E+00        -0.60506E+08
 
   -0.58724E+08        -0.15946E+05         0.00000E+00
   -0.15946E+05        -0.49859E+08         0.00000E+00
    0.00000E+00         0.00000E+00        -0.60508E+08
 
   -0.58761E+08        -0.14433E+04         0.00000E+00
   -0.14433E+04        -0.49836E+08         0.00000E+00
    0.00000E+00         0.00000E+00        -0.60511E+08
 
   -0.58801E+08         0.15593E+05         0.00000E+00
    0.15593E+05        -0.49812E+08         0.00000E+00
    0.00000E+00         0.00000E+00        -0.60515E+08
 
   -0.58842E+08         0.35154E+05         0.00000E+00
    0.35154E+05        -0.49787E+08         0.00000E+00
    0.00000E+00         0.00000E+00        -0.60518E+08
 
   -0.58886E+08         0.57228E+05         0.00000E+00
    0.57228E+05        -0.49761E+08         0.00000E+00
    0.00000E+00         0.00000E+00        -0.60521E+08
 
   -0.58931E+08         0.81803E+05         0.00000E+00
    0.81803E+05        -0.49734E+08         0.00000E+00
    0.00000E+00         0.00000E+00        -0.60525E+08
 
   -0.58978E+08         0.10886E+06         0.00000E+00
    0.10886E+06        -0.49706E+08         0.00000E+00
    0.00000E+00         0.00000E+00        -0.60529E+08
 
   -0.59027E+08         0.13839E+06         0.00000E+00
    0.13839E+06        -0.49677E+08         0.00000E+00
    0.00000E+00         0.00000E+00        -0.60533E+08
 
   -0.59076E+08         0.17037E+06         0.00000E+00
    0.17037E+06        -0.49647E+08         0.00000E+00
    0.00000E+00         0.00000E+00        -0.60537E+08
 
   -0.59127E+08         0.20477E+06         0.00000E+00
    0.20477E+06        -0.49617E+08         0.00000E+00
    0.00000E+00         0.00000E+00        -0.60541E+08
 
   -0.59178E+08         0.24158E+06         0.00000E+00
    0.24158E+06        -0.49585E+08         0.00000E+00
    0.00000E+00         0.00000E+00        -0.60545E+08
 
   -0.59230E+08         0.28077E+06         0.00000E+00
    0.28077E+06        -0.49553E+08         0.00000E+00
    0.00000E+00         0.00000E+00        -0.60549E+08
 
   -0.59283E+08         0.32231E+06         0.00000E+00
    0.32231E+06        -0.49520E+08         0.00000E+00
    0.00000E+00         0.00000E+00        -0.60553E+08
 
   -0.59337E+08         0.36618E+06         0.00000E+00
    0.36618E+06        -0.49486E+08         0.00000E+00
    0.00000E+00         0.00000E+00        -0.60556E+08
 
   -0.59390E+08         0.41233E+06         0.00000E+00
    0.41233E+06        -0.49452E+08         0.00000E+00
    0.00000E+00         0.00000E+00        -0.60560E+08
 
   -0.59444E+08         0.46074E+06         0.00000E+00
    0.46074E+06        -0.49417E+08         0.00000E+00
    0.00000E+00         0.00000E+00        -0.60564E+08
 
   -0.59498E+08         0.51137E+06         0.00000E+00
    0.51137E+06        -0.49382E+08         0.00000E+00
    0.00000E+00         0.00000E+00        -0.60568E+08
 
   -0.59551E+08         0.56416E+06         0.00000E+00
    0.56416E+06        -0.49346E+08         0.00000E+00
    0.00000E+00         0.00000E+00        -0.60571E+08
 
   -0.59605E+08         0.61908E+06         0.00000E+00
    0.61908E+06        -0.49309E+08         0.00000E+00
    0.00000E+00         0.00000E+00        -0.60575E+08
 
   -0.59657E+08         0.67607E+06         0.00000E+00
    0.67607E+06        -0.49273E+08         0.00000E+00
    0.00000E+00         0.00000E+00        -0.60578E+08
 
   -0.59710E+08         0.73508E+06         0.00000E+00
    0.73508E+06        -0.49235E+08         0.00000E+00
    0.00000E+00         0.00000E+00        -0.60581E+08
 
   -0.59761E+08         0.79601E+06         0.00000E+00
    0.79601E+06        -0.49197E+08         0.00000E+00
    0.00000E+00         0.00000E+00        -0.60584E+08
 
   -0.59812E+08         0.85879E+06         0.00000E+00
    0.85879E+06        -0.49159E+08         0.00000E+00
    0.00000E+00         0.00000E+00        -0.60586E+08
 
   -0.59862E+08         0.92331E+06         0.00000E+00
    0.92331E+06        -0.49121E+08         0.00000E+00
    0.00000E+00         0.00000E+00        -0.60588E+08
 
   -0.59910E+08         0.98948E+06         0.00000E+00
    0.98948E+06        -0.49082E+08         0.00000E+00
    0.00000E+00         0.00000E+00        -0.60590E+08
 
   -0.59957E+08         0.10573E+07         0.00000E+00
    0.10573E+07        -0.49042E+08         0.00000E+00
    0.00000E+00         0.00000E+00        -0.60592E+08
 
   -0.60003E+08         0.11265E+07         0.00000E+00
    0.11265E+07        -0.49003E+08         0.00000E+00
    0.00000E+00         0.00000E+00        -0.60593E+08
 
   -0.60048E+08         0.11969E+07         0.00000E+00
    0.11969E+07        -0.48963E+08         0.00000E+00
    0.00000E+00         0.00000E+00        -0.60594E+08
 
   -0.60091E+08         0.12680E+07         0.00000E+00
    0.12680E+07        -0.48923E+08         0.00000E+00
    0.00000E+00         0.00000E+00        -0.60595E+08
 
   -0.60133E+08         0.13398E+07         0.00000E+00
    0.13398E+07        -0.48882E+08         0.00000E+00
    0.00000E+00         0.00000E+00        -0.60595E+08
 
   -0.60174E+08         0.14121E+07         0.00000E+00
    0.14121E+07        -0.48840E+08         0.00000E+00
    0.00000E+00         0.00000E+00        -0.60595E+08
 
   -0.60214E+08         0.14855E+07         0.00000E+00
    0.14855E+07        -0.48797E+08         0.00000E+00
    0.00000E+00         0.00000E+00        -0.60594E+08
 
   -0.60252E+08         0.15609E+07         0.00000E+00
    0.15609E+07        -0.48752E+08         0.00000E+00
    0.00000E+00         0.00000E+00        -0.60593E+08
 
   -0.60289E+08         0.16356E+07         0.00000E+00
    0.16356E+07        -0.48715E+08         0.00000E+00
    0.00000E+00         0.00000E+00        -0.60593E+08
 
   -0.60322E+08         0.17091E+07         0.00000E+00
    0.17091E+07        -0.48675E+08         0.00000E+00
    0.00000E+00         0.00000E+00        -0.60591E+08
 
   -0.60356E+08         0.17751E+07         0.00000E+00
    0.17751E+07        -0.48640E+08         0.00000E+00
    0.00000E+00         0.00000E+00        -0.60591E+08
 
   -0.60400E+08         0.18297E+07         0.00000E+00
    0.18297E+07        -0.48600E+08         0.00000E+00
    0.00000E+00         0.00000E+00        -0.60592E+08
 
   -0.60449E+08         0.18817E+07         0.00000E+00
    0.18817E+07        -0.48510E+08         0.00000E+00
    0.00000E+00         0.00000E+00        -0.60584E+08
 
   -0.60529E+08         0.19255E+07         0.00000E+00
    0.19255E+07        -0.48410E+08         0.00000E+00
    0.00000E+00         0.00000E+00        -0.60580E+08
 
   -0.58572E+08        -0.21566E+04         0.00000E+00
   -0.21566E+04        -0.50001E+08         0.00000E+00
    0.00000E+00         0.00000E+00        -0.60147E+08
 
   -0.58559E+08        -0.30196E+04         0.00000E+00
   -0.30196E+04        -0.49998E+08         0.00000E+00
    0.00000E+00         0.00000E+00        -0.60143E+08
 
   -0.58550E+08        -0.22601E+04         0.00000E+00
   -0.22601E+04        -0.49994E+08         0.00000E+00
    0.00000E+00         0.00000E+00        -0.60141E+08
 
   -0.58545E+08         0.21962E+03         0.00000E+00
    0.21962E+03        -0.49987E+08         0.00000E+00
    0.00000E+00         0.00000E+00        -0.60138E+08
 
   -0.58545E+08         0.45024E+04         0.00000E+00
    0.45024E+04        -0.49978E+08         0.00000E+00
    0.00000E+00         0.00000E+00        -0.60137E+08
 
   -0.58549E+08         0.10660E+05         0.00000E+00
    0.10660E+05        -0.49967E+08         0.00000E+00
    0.00000E+00         0.00000E+00        -0.60135E+08
 
   -0.58556E+08         0.18754E+05         0.00000E+00
    0.18754E+05        -0.49955E+08         0.00000E+00
    0.00000E+00         0.00000E+00        -0.60134E+08
 
   -0.58567E+08         0.28838E+05         0.00000E+00
    0.28838E+05        -0.49941E+08         0.00000E+00
    0.00000E+00         0.00000E+00        -0.60134E+08
 
   -0.58582E+08         0.40957E+05         0.00000E+00
    0.40957E+05        -0.49925E+08         0.00000E+00
    0.00000E+00         0.00000E+00        -0.60133E+08
 
   -0.58599E+08         0.55148E+05         0.00000E+00
    0.55148E+05        -0.49908E+08         0.00000E+00
    0.00000E+00         0.00000E+00        -0.60134E+08
 
   -0.58619E+08         0.71443E+05         0.00000E+00
    0.71443E+05        -0.49890E+08         0.00000E+00
    0.00000E+00         0.00000E+00        -0.60134E+08
 
   -0.58642E+08         0.89868E+05         0.00000E+00
    0.89868E+05        -0.49870E+08         0.00000E+00
    0.00000E+00         0.00000E+00        -0.60135E+08
 
   -0.58668E+08         0.11044E+06         0.00000E+00
    0.11044E+06        -0.49849E+08         0.00000E+00
    0.00000E+00         0.00000E+00        -0.60135E+08
 
   -0.58696E+08         0.13318E+06         0.00000E+00
    0.13318E+06        -0.49827E+08         0.00000E+00
    0.00000E+00         0.00000E+00        -0.60137E+08
 
   -0.58725E+08         0.15810E+06         0.00000E+00
    0.15810E+06        -0.49804E+08         0.00000E+00
    0.00000E+00         0.00000E+00        -0.60138E+08
 
   -0.58757E+08         0.18519E+06         0.00000E+00
    0.18519E+06        -0.49780E+08         0.00000E+00
    0.00000E+00         0.00000E+00        -0.60140E+08
 
   -0.58791E+08         0.21448E+06         0.00000E+00
    0.21448E+06        -0.49756E+08         0.00000E+00
    0.00000E+00         0.00000E+00        -0.60141E+08
 
   -0.58826E+08         0.24595E+06         0.00000E+00
    0.24595E+06        -0.49730E+08         0.00000E+00
    0.00000E+00         0.00000E+00        -0.60143E+08
 
   -0.58863E+08         0.27961E+06         0.00000E+00
    0.27961E+06        -0.49703E+08         0.00000E+00
    0.00000E+00         0.00000E+00        -0.60145E+08
 
   -0.58901E+08         0.31544E+06         0.00000E+00
    0.31544E+06        -0.49676E+08         0.00000E+00
    0.00000E+00         0.00000E+00        -0.60147E+08
 
   -0.58940E+08         0.35344E+06         0.00000E+00
    0.35344E+06        -0.49648E+08         0.00000E+00
    0.00000E+00         0.00000E+00        -0.60150E+08
 
   -0.58980E+08         0.39359E+06         0.00000E+00
    0.39359E+06        -0.49620E+08         0.00000E+00
    0.00000E+00         0.00000E+00        -0.60152E+08
 
   -0.59021E+08         0.43587E+06         0.00000E+00
    0.43587E+06        -0.49591E+08         0.00000E+00
    0.00000E+00         0.00000E+00        -0.60154E+08
 
   -0.59063E+08         0.48027E+06         0.00000E+00
    0.48027E+06        -0.49561E+08         0.00000E+00
    0.00000E+00         0.00000E+00        -0.60157E+08
 
   -0.59105E+08         0.52675E+06         0.00000E+00
    0.52675E+06        -0.49531E+08         0.00000E+00
    0.00000E+00         0.00000E+00        -0.60159E+08
 
   -0.59148E+08         0.57530E+06         0.00000E+00
    0.57530E+06        -0.49501E+08         0.00000E+00
    0.00000E+00         0.00000E+00        -0.60162E+08
 
   -0.59191E+08         0.62587E+06         0.00000E+00
    0.62587E+06        -0.49470E+08         0.00000E+00
    0.00000E+00         0.00000E+00        -0.60164E+08
 
   -0.59235E+08         0.67843E+06         0.00000E+00
    0.67843E+06        -0.49439E+08         0.00000E+00
    0.00000E+00         0.00000E+00        -0.60167E+08
 
   -0.59278E+08         0.73293E+06         0.00000E+00
    0.73293E+06        -0.49408E+08         0.00000E+00
    0.00000E+00         0.00000E+00        -0.60169E+08
 
   -0.59322E+08         0.78932E+06         0.00000E+00
    0.78932E+06        -0.49377E+08         0.00000E+00
    0.00000E+00         0.00000E+00        -0.60172E+08
 
   -0.59365E+08         0.84755E+06         0.00000E+00
    0.84755E+06        -0.49346E+08         0.00000E+00
    0.00000E+00         0.00000E+00        -0.60174E+08
 
   -0.59408E+08         0.90755E+06         0.00000E+00
    0.90755E+06        -0.49314E+08         0.00000E+00
    0.00000E+00         0.00000E+00        -0.60176E+08
 
   -0.59451E+08         0.96924E+06         0.00000E+00
    0.96924E+06        -0.49283E+08         0.00000E+00
    0.00000E+00         0.00000E+00        -0.60179E+08
 
   -0.59493E+08         0.10325E+07         0.00000E+00
    0.10325E+07        -0.49252E+08         0.00000E+00
    0.00000E+00         0.00000E+00        -0.60181E+08
 
   -0.59535E+08         0.10974E+07         0.00000E+00
    0.10974E+07        -0.49221E+08         0.00000E+00
    0.00000E+00         0.00000E+00        -0.60183E+08
 
   -0.59576E+08         0.11636E+07         0.00000E+00
    0.11636E+07        -0.49190E+08         0.00000E+00
    0.00000E+00         0.00000E+00        -0.60185E+08
 
   -0.59616E+08         0.12311E+07         0.00000E+00
    0.12311E+07        -0.49159E+08         0.00000E+00
    0.00000E+00         0.00000E+00        -0.60187E+08
 
   -0.59657E+08         0.12997E+07         0.00000E+00
    0.12997E+07        -0.49129E+08         0.00000E+00
    0.00000E+00         0.00000E+00        -0.60189E+08
 
   -0.59696E+08         0.13694E+07         0.00000E+00
    0.13694E+07        -0.49099E+08         0.00000E+00
    0.00000E+00         0.00000E+00        -0.60191E+08
 
   -0.59735E+08         0.14399E+07         0.00000E+00
    0.14399E+07        -0.49070E+08         0.00000E+00
    0.00000E+00         0.00000E+00        -0.60193E+08
 
   -0.59774E+08         0.15110E+07         0.00000E+00
    0.15110E+07        -0.49041E+08         0.00000E+00
    0.00000E+00         0.00000E+00        -0.60195E+08
 
   -0.59813E+08         0.15827E+07         0.00000E+00
    0.15827E+07        -0.49013E+08         0.00000E+00
    0.00000E+00         0.00000E+00        -0.60197E+08
 
   -0.59851E+08         0.16543E+07         0.00000E+00
    0.16543E+07        -0.48985E+08         0.00000E+00
    0.00000E+00         0.00000E+00        -0.60199E+08
 
   -0.59891E+08         0.17253E+07         0.00000E+00
    0.17253E+07        -0.48959E+08         0.00000E+00
    0.00000E+00         0.00000E+00        -0.60202E+08
 
   -0.59932E+08         0.17960E+07         0.00000E+00
    0.17960E+07        -0.48932E+08         0.00000E+00
    0.00000E+00         0.00000E+00        -0.60205E+08
 
   -0.59977E+08         0.18657E+07         0.00000E+00
    0.18657E+07        -0.48906E+08         0.00000E+00
    0.00000E+00         0.00000E+00        -0.60209E+08
 
   -0.60025E+08         0.19356E+07         0.00000E+00
    0.19356E+07        -0.48879E+08         0.00000E+00
    0.00000E+00         0.00000E+00        -0.60213E+08
 
   -0.60077E+08         0.20068E+07         0.00000E+00
    0.20068E+07        -0.48851E+08         0.00000E+00
    0.00000E+00         0.00000E+00        -0.60218E+08
 
   -0.60137E+08         0.20766E+07         0.00000E+00
    0.20766E+07        -0.48833E+08         0.00000E+00
    0.00000E+00         0.00000E+00        -0.60226E+08
 
   -0.60205E+08         0.21471E+07         0.00000E+00
    0.21471E+07        -0.48813E+08         0.00000E+00
    0.00000E+00         0.00000E+00        -0.60236E+08
 
   -0.58552E+08         0.38863E+04         0.00000E+00
    0.38863E+04        -0.50001E+08         0.00000E+00
    0.00000E+00         0.00000E+00        -0.59788E+08
 
   -0.58532E+08         0.13702E+05         0.00000E+00
    0.13702E+05        -0.49999E+08         0.00000E+00
    0.00000E+00         0.00000E+00        -0.59784E+08
 
   -0.58517E+08         0.24567E+05         0.00000E+00
    0.24567E+05        -0.49995E+08         0.00000E+00
    0.00000E+00         0.00000E+00        -0.59780E+08
 
   -0.58505E+08         0.36596E+05         0.00000E+00
    0.36596E+05        -0.49989E+08         0.00000E+00
    0.00000E+00         0.00000E+00        -0.59776E+08
 
   -0.58497E+08         0.49896E+05         0.00000E+00
    0.49896E+05        -0.49981E+08         0.00000E+00
    0.00000E+00         0.00000E+00        -0.59773E+08
 
   -0.58492E+08         0.64557E+05         0.00000E+00
    0.64557E+05        -0.49972E+08         0.00000E+00
    0.00000E+00         0.00000E+00        -0.59771E+08
 
   -0.58491E+08         0.80663E+05         0.00000E+00
    0.80663E+05        -0.49961E+08         0.00000E+00
    0.00000E+00         0.00000E+00        -0.59768E+08
 
   -0.58493E+08         0.98286E+05         0.00000E+00
    0.98286E+05        -0.49949E+08         0.00000E+00
    0.00000E+00         0.00000E+00        -0.59766E+08
 
   -0.58499E+08         0.11749E+06         0.00000E+00
    0.11749E+06        -0.49935E+08         0.00000E+00
    0.00000E+00         0.00000E+00        -0.59765E+08
 
   -0.58507E+08         0.13833E+06         0.00000E+00
    0.13833E+06        -0.49920E+08         0.00000E+00
    0.00000E+00         0.00000E+00        -0.59763E+08
 
   -0.58517E+08         0.16086E+06         0.00000E+00
    0.16086E+06        -0.49904E+08         0.00000E+00
    0.00000E+00         0.00000E+00        -0.59762E+08
 
   -0.58531E+08         0.18511E+06         0.00000E+00
    0.18511E+06        -0.49887E+08         0.00000E+00
    0.00000E+00         0.00000E+00        -0.59761E+08
 
   -0.58546E+08         0.21112E+06         0.00000E+00
    0.21112E+06        -0.49868E+08         0.00000E+00
    0.00000E+00         0.00000E+00        -0.59761E+08
 
   -0.58564E+08         0.23893E+06         0.00000E+00
    0.23893E+06        -0.49849E+08         0.00000E+00
    0.00000E+00         0.00000E+00        -0.59760E+08
 
   -0.58584E+08         0.26855E+06         0.00000E+00
    0.26855E+06        -0.49829E+08         0.00000E+00
    0.00000E+00         0.00000E+00        -0.59760E+08
 
   -0.58606E+08         0.30000E+06         0.00000E+00
    0.30000E+06        -0.49808E+08         0.00000E+00
    0.00000E+00         0.00000E+00        -0.59760E+08
 
   -0.58629E+08         0.33330E+06         0.00000E+00
    0.33330E+06        -0.49786E+08         0.00000E+00
    0.00000E+00         0.00000E+00        -0.59761E+08
 
   -0.58654E+08         0.36846E+06         0.00000E+00
    0.36846E+06        -0.49763E+08         0.00000E+00
    0.00000E+00         0.00000E+00        -0.59761E+08
 
   -0.58681E+08         0.40548E+06         0.00000E+00
    0.40548E+06        -0.49740E+08         0.00000E+00
    0.00000E+00         0.00000E+00        -0.59762E+08
 
   -0.58709E+08         0.44435E+06         0.00000E+00
    0.44435E+06        -0.49716E+08         0.00000E+00
    0.00000E+00         0.00000E+00        -0.59763E+08
 
   -0.58738E+08         0.48508E+06         0.00000E+00
    0.48508E+06        -0.49692E+08         0.00000E+00
    0.00000E+00         0.00000E+00        -0.59764E+08
 
   -0.58768E+08         0.52766E+06         0.00000E+00
    0.52766E+06        -0.49667E+08         0.00000E+00
    0.00000E+00         0.00000E+00        -0.59765E+08
 
   -0.58800E+08         0.57207E+06         0.00000E+00
    0.57207E+06        -0.49642E+08         0.00000E+00
    0.00000E+00         0.00000E+00        -0.59766E+08
 
   -0.58832E+08         0.61829E+06         0.00000E+00
    0.61829E+06        -0.49617E+08         0.00000E+00
    0.00000E+00         0.00000E+00        -0.59768E+08
 
   -0.58864E+08         0.66629E+06         0.00000E+00
    0.66629E+06        -0.49591E+08         0.00000E+00
    0.00000E+00         0.00000E+00        -0.59769E+08
 
   -0.58898E+08         0.71606E+06         0.00000E+00
    0.71606E+06        -0.49565E+08         0.00000E+00
    0.00000E+00         0.00000E+00        -0.59770E+08
 
   -0.58932E+08         0.76756E+06         0.00000E+00
    0.76756E+06        -0.49539E+08         0.00000E+00
    0.00000E+00         0.00000E+00        -0.59772E+08
 
   -0.58966E+08         0.82074E+06         0.00000E+00
    0.82074E+06        -0.49513E+08         0.00000E+00
    0.00000E+00         0.00000E+00        -0.59774E+08
 
   -0.59001E+08         0.87556E+06         0.00000E+00
    0.87556E+06        -0.49487E+08         0.00000E+00
    0.00000E+00         0.00000E+00        -0.59775E+08
 
   -0.59036E+08         0.93197E+06         0.00000E+00
    0.93197E+06        -0.49461E+08         0.00000E+00
    0.00000E+00         0.00000E+00        -0.59777E+08
 
   -0.59071E+08         0.98991E+06         0.00000E+00
    0.98991E+06        -0.49435E+08         0.00000E+00
    0.00000E+00         0.00000E+00        -0.59779E+08
 
   -0.59106E+08         0.10493E+07         0.00000E+00
    0.10493E+07        -0.49410E+08         0.00000E+00
    0.00000E+00         0.00000E+00        -0.59781E+08
 
   -0.59141E+08         0.11101E+07         0.00000E+00
    0.11101E+07        -0.49384E+08         0.00000E+00
    0.00000E+00         0.00000E+00        -0.59783E+08
 
   -0.59176E+08         0.11722E+07         0.00000E+00
    0.11722E+07        -0.49359E+08         0.00000E+00
    0.00000E+00         0.00000E+00        -0.59785E+08
 
   -0.59211E+08         0.12356E+07         0.00000E+00
    0.12356E+07        -0.49334E+08         0.00000E+00
    0.00000E+00         0.00000E+00        -0.59787E+08
 
   -0.59247E+08         0.13000E+07         0.00000E+00
    0.13000E+07        -0.49309E+08         0.00000E+00
    0.00000E+00         0.00000E+00        -0.59789E+08
 
   -0.59282E+08         0.13655E+07         0.00000E+00
    0.13655E+07        -0.49285E+08         0.00000E+00
    0.00000E+00         0.00000E+00        -0.59791E+08
 
   -0.59317E+08         0.14319E+07         0.00000E+00
    0.14319E+07        -0.49261E+08         0.00000E+00
    0.00000E+00         0.00000E+00        -0.59794E+08
 
   -0.59353E+08         0.14991E+07         0.00000E+00
    0.14991E+07        -0.49238E+08         0.00000E+00
    0.00000E+00         0.00000E+00        -0.59796E+08
 
   -0.59388E+08         0.15670E+07         0.00000E+00
    0.15670E+07        -0.49215E+08         0.00000E+00
    0.00000E+00         0.00000E+00        -0.59799E+08
 
   -0.59425E+08         0.16355E+07         0.00000E+00
    0.16355E+07        -0.49193E+08         0.00000E+00
    0.00000E+00         0.00000E+00        -0.59801E+08
 
   -0.59462E+08         0.17044E+07         0.00000E+00
    0.17044E+07        -0.49171E+08         0.00000E+00
    0.00000E+00         0.00000E+00        -0.59804E+08
 
   -0.59500E+08         0.17737E+07         0.00000E+00
    0.17737E+07        -0.49149E+08         0.00000E+00
    0.00000E+00         0.00000E+00        -0.59808E+08
 
   -0.59539E+08         0.18435E+07         0.00000E+00
    0.18435E+07        -0.49127E+08         0.00000E+00
    0.00000E+00         0.00000E+00        -0.59811E+08
 
   -0.59580E+08         0.19136E+07         0.00000E+00
    0.19136E+07        -0.49106E+08         0.00000E+00
    0.00000E+00         0.00000E+00        -0.59815E+08
 
   -0.59623E+08         0.19845E+07         0.00000E+00
    0.19845E+07        -0.49084E+08         0.00000E+00
    0.00000E+00         0.00000E+00        -0.59819E+08
 
   -0.59668E+08         0.20562E+07         0.00000E+00
    0.20562E+07        -0.49062E+08         0.00000E+00
    0.00000E+00         0.00000E+00        -0.59824E+08
 
   -0.59716E+08         0.21286E+07         0.00000E+00
    0.21286E+07        -0.49040E+08         0.00000E+00
    0.00000E+00         0.00000E+00        -0.59829E+08
 
   -0.59765E+08         0.22036E+07         0.00000E+00
    0.22036E+07        -0.49015E+08         0.00000E+00
    0.00000E+00         0.00000E+00        -0.59834E+08
 
   -0.59816E+08         0.22818E+07         0.00000E+00
    0.22818E+07        -0.48989E+08         0.00000E+00
    0.00000E+00         0.00000E+00        -0.59839E+08
 
   -0.58482E+08         0.88945E+04         0.00000E+00
    0.88945E+04        -0.50001E+08         0.00000E+00
    0.00000E+00         0.00000E+00        -0.59426E+08
 
   -0.58458E+08         0.27757E+05         0.00000E+00
    0.27757E+05        -0.49999E+08         0.00000E+00
    0.00000E+00         0.00000E+00        -0.59421E+08
 
   -0.58438E+08         0.47253E+05         0.00000E+00
    0.47253E+05        -0.49996E+08         0.00000E+00
    0.00000E+00         0.00000E+00        -0.59416E+08
 
   -0.58421E+08         0.67498E+05         0.00000E+00
    0.67498E+05        -0.49991E+08         0.00000E+00
    0.00000E+00         0.00000E+00        -0.59412E+08
 
   -0.58407E+08         0.88601E+05         0.00000E+00
    0.88601E+05        -0.49984E+08         0.00000E+00
    0.00000E+00         0.00000E+00        -0.59408E+08
 
   -0.58397E+08         0.11066E+06         0.00000E+00
    0.11066E+06        -0.49976E+08         0.00000E+00
    0.00000E+00         0.00000E+00        -0.59404E+08
 
   -0.58390E+08         0.13376E+06         0.00000E+00
    0.13376E+06        -0.49967E+08         0.00000E+00
    0.00000E+00         0.00000E+00        -0.59401E+08
 
   -0.58385E+08         0.15798E+06         0.00000E+00
    0.15798E+06        -0.49957E+08         0.00000E+00
    0.00000E+00         0.00000E+00        -0.59398E+08
 
   -0.58383E+08         0.18340E+06         0.00000E+00
    0.18340E+06        -0.49945E+08         0.00000E+00
    0.00000E+00         0.00000E+00        -0.59395E+08
 
   -0.58384E+08         0.21007E+06         0.00000E+00
    0.21007E+06        -0.49933E+08         0.00000E+00
    0.00000E+00         0.00000E+00        -0.59393E+08
 
   -0.58387E+08         0.23805E+06         0.00000E+00
    0.23805E+06        -0.49919E+08         0.00000E+00
    0.00000E+00         0.00000E+00        -0.59391E+08
 
   -0.58393E+08         0.26739E+06         0.00000E+00
    0.26739E+06        -0.49904E+08         0.00000E+00
    0.00000E+00         0.00000E+00        -0.59389E+08
 
   -0.58400E+08         0.29814E+06         0.00000E+00
    0.29814E+06        -0.49889E+08         0.00000E+00
    0.00000E+00         0.00000E+00        -0.59387E+08
 
   -0.58410E+08         0.33032E+06         0.00000E+00
    0.33032E+06        -0.49872E+08         0.00000E+00
    0.00000E+00         0.00000E+00        -0.59386E+08
 
   -0.58422E+08         0.36398E+06         0.00000E+00
    0.36398E+06        -0.49855E+08         0.00000E+00
    0.00000E+00         0.00000E+00        -0.59385E+08
 
   -0.58435E+08         0.39913E+06         0.00000E+00
    0.39913E+06        -0.49837E+08         0.00000E+00
    0.00000E+00         0.00000E+00        -0.59384E+08
 
   -0.58450E+08         0.43580E+06         0.00000E+00
    0.43580E+06        -0.49819E+08         0.00000E+00
    0.00000E+00         0.00000E+00        -0.59383E+08
 
   -0.58467E+08         0.47399E+06         0.00000E+00
    0.47399E+06        -0.49800E+08         0.00000E+00
    0.00000E+00         0.00000E+00        -0.59383E+08
 
   -0.58485E+08         0.51373E+06         0.00000E+00
    0.51373E+06        -0.49780E+08         0.00000E+00
    0.00000E+00         0.00000E+00        -0.59383E+08
 
   -0.58504E+08         0.55501E+06         0.00000E+00
    0.55501E+06        -0.49760E+08         0.00000E+00
    0.00000E+00         0.00000E+00        -0.59382E+08
 
   -0.58525E+08         0.59783E+06         0.00000E+00
    0.59783E+06        -0.49739E+08         0.00000E+00
    0.00000E+00         0.00000E+00        -0.59383E+08
 
   -0.58547E+08         0.64219E+06         0.00000E+00
    0.64219E+06        -0.49718E+08         0.00000E+00
    0.00000E+00         0.00000E+00        -0.59383E+08
 
   -0.58570E+08         0.68808E+06         0.00000E+00
    0.68808E+06        -0.49697E+08         0.00000E+00
    0.00000E+00         0.00000E+00        -0.59383E+08
 
   -0.58594E+08         0.73548E+06         0.00000E+00
    0.73548E+06        -0.49676E+08         0.00000E+00
    0.00000E+00         0.00000E+00        -0.59384E+08
 
   -0.58618E+08         0.78438E+06         0.00000E+00
    0.78438E+06        -0.49654E+08         0.00000E+00
    0.00000E+00         0.00000E+00        -0.59384E+08
 
   -0.58644E+08         0.83475E+06         0.00000E+00
    0.83475E+06        -0.49632E+08         0.00000E+00
    0.00000E+00         0.00000E+00        -0.59385E+08
 
   -0.58670E+08         0.88656E+06         0.00000E+00
    0.88656E+06        -0.49611E+08         0.00000E+00
    0.00000E+00         0.00000E+00        -0.59386E+08
 
   -0.58696E+08         0.93978E+06         0.00000E+00
    0.93978E+06        -0.49589E+08         0.00000E+00
    0.00000E+00         0.00000E+00        -0.59387E+08
 
   -0.58724E+08         0.99438E+06         0.00000E+00
    0.99438E+06        -0.49567E+08         0.00000E+00
    0.00000E+00         0.00000E+00        -0.59388E+08
 
   -0.58751E+08         0.10503E+07         0.00000E+00
    0.10503E+07        -0.49546E+08         0.00000E+00
    0.00000E+00         0.00000E+00        -0.59389E+08
 
   -0.58779E+08         0.11075E+07         0.00000E+00
    0.11075E+07        -0.49524E+08         0.00000E+00
    0.00000E+00         0.00000E+00        -0.59390E+08
 
   -0.58808E+08         0.11660E+07         0.00000E+00
    0.11660E+07        -0.49503E+08         0.00000E+00
    0.00000E+00         0.00000E+00        -0.59392E+08
 
   -0.58837E+08         0.12256E+07         0.00000E+00
    0.12256E+07        -0.49481E+08         0.00000E+00
    0.00000E+00         0.00000E+00        -0.59393E+08
 
   -0.58866E+08         0.12864E+07         0.00000E+00
    0.12864E+07        -0.49460E+08         0.00000E+00
    0.00000E+00         0.00000E+00        -0.59395E+08
 
   -0.58896E+08         0.13482E+07         0.00000E+00
    0.13482E+07        -0.49440E+08         0.00000E+00
    0.00000E+00         0.00000E+00        -0.59397E+08
 
   -0.58926E+08         0.14110E+07         0.00000E+00
    0.14110E+07        -0.49419E+08         0.00000E+00
    0.00000E+00         0.00000E+00        -0.59399E+08
 
   -0.58957E+08         0.14748E+07         0.00000E+00
    0.14748E+07        -0.49399E+08         0.00000E+00
    0.00000E+00         0.00000E+00        -0.59401E+08
 
   -0.58988E+08         0.15395E+07         0.00000E+00
    0.15395E+07        -0.49379E+08         0.00000E+00
    0.00000E+00         0.00000E+00        -0.59403E+08
 
   -0.59019E+08         0.16051E+07         0.00000E+00
    0.16051E+07        -0.49359E+08         0.00000E+00
    0.00000E+00         0.00000E+00        -0.59405E+08
 
   -0.59051E+08         0.16715E+07         0.00000E+00
    0.16715E+07        -0.49340E+08         0.00000E+00
    0.00000E+00         0.00000E+00        -0.59408E+08
 
   -0.59084E+08         0.17387E+07         0.00000E+00
    0.17387E+07        -0.49321E+08         0.00000E+00
    0.00000E+00         0.00000E+00        -0.59411E+08
 
   -0.59118E+08         0.18067E+07         0.00000E+00
    0.18067E+07        -0.49302E+08         0.00000E+00
    0.00000E+00         0.00000E+00        -0.59414E+08
 
   -0.59152E+08         0.18756E+07         0.00000E+00
    0.18756E+07        -0.49282E+08         0.00000E+00
    0.00000E+00         0.00000E+00        -0.59417E+08
 
   -0.59188E+08         0.19454E+07         0.00000E+00
    0.19454E+07        -0.49263E+08         0.00000E+00
    0.00000E+00         0.00000E+00        -0.59420E+08
 
   -0.59225E+08         0.20162E+07         0.00000E+00
    0.20162E+07        -0.49244E+08         0.00000E+00
    0.00000E+00         0.00000E+00        -0.59423E+08
 
   -0.59263E+08         0.20880E+07         0.00000E+00
    0.20880E+07        -0.49225E+08         0.00000E+00
    0.00000E+00         0.00000E+00        -0.59427E+08
 
   -0.59302E+08         0.21611E+07         0.00000E+00
    0.21611E+07        -0.49206E+08         0.00000E+00
    0.00000E+00         0.00000E+00        -0.59431E+08
 
   -0.59342E+08         0.22358E+07         0.00000E+00
    0.22358E+07        -0.49186E+08         0.00000E+00
    0.00000E+00         0.00000E+00        -0.59435E+08
 
   -0.59383E+08         0.23117E+07         0.00000E+00
    0.23117E+07        -0.49167E+08         0.00000E+00
    0.00000E+00         0.00000E+00        -0.59440E+08
 
   -0.59425E+08         0.23886E+07         0.00000E+00
    0.23886E+07        -0.49148E+08         0.00000E+00
    0.00000E+00         0.00000E+00        -0.59444E+08
 
   -0.58369E+08         0.12906E+05         0.00000E+00
    0.12906E+05        -0.50001E+08         0.00000E+00
    0.00000E+00         0.00000E+00        -0.59062E+08
 
   -0.58344E+08         0.39180E+05         0.00000E+00
    0.39180E+05        -0.49999E+08         0.00000E+00
    0.00000E+00         0.00000E+00        -0.59057E+08
 
   -0.58321E+08         0.65805E+05         0.00000E+00
    0.65805E+05        -0.49996E+08         0.00000E+00
    0.00000E+00         0.00000E+00        -0.59051E+08
 
   -0.58301E+08         0.92889E+05         0.00000E+00
    0.92889E+05        -0.49993E+08         0.00000E+00
    0.00000E+00         0.00000E+00        -0.59047E+08
 
   -0.58283E+08         0.12053E+06         0.00000E+00
    0.12053E+06        -0.49987E+08         0.00000E+00
    0.00000E+00         0.00000E+00        -0.59042E+08
 
   -0.58269E+08         0.14882E+06         0.00000E+00
    0.14882E+06        -0.49981E+08         0.00000E+00
    0.00000E+00         0.00000E+00        -0.59038E+08
 
   -0.58257E+08         0.17785E+06         0.00000E+00
    0.17785E+06        -0.49974E+08         0.00000E+00
    0.00000E+00         0.00000E+00        -0.59034E+08
 
   -0.58247E+08         0.20768E+06         0.00000E+00
    0.20768E+06        -0.49965E+08         0.00000E+00
    0.00000E+00         0.00000E+00        -0.59030E+08
 
   -0.58240E+08         0.23840E+06         0.00000E+00
    0.23840E+06        -0.49956E+08         0.00000E+00
    0.00000E+00         0.00000E+00        -0.59027E+08
 
   -0.58235E+08         0.27005E+06         0.00000E+00
    0.27005E+06        -0.49945E+08         0.00000E+00
    0.00000E+00         0.00000E+00        -0.59024E+08
 
   -0.58232E+08         0.30271E+06         0.00000E+00
    0.30271E+06        -0.49934E+08         0.00000E+00
    0.00000E+00         0.00000E+00        -0.59021E+08
 
   -0.58232E+08         0.33641E+06         0.00000E+00
    0.33641E+06        -0.49922E+08         0.00000E+00
    0.00000E+00         0.00000E+00        -0.59019E+08
 
   -0.58233E+08         0.37121E+06         0.00000E+00
    0.37121E+06        -0.49909E+08         0.00000E+00
    0.00000E+00         0.00000E+00        -0.59016E+08
 
   -0.58236E+08         0.40714E+06         0.00000E+00
    0.40714E+06        -0.49895E+08         0.00000E+00
    0.00000E+00         0.00000E+00        -0.59014E+08
 
   -0.58241E+08         0.44424E+06         0.00000E+00
    0.44424E+06        -0.49881E+08         0.00000E+00
    0.00000E+00         0.00000E+00        -0.59012E+08
 
   -0.58248E+08         0.48253E+06         0.00000E+00
    0.48253E+06        -0.49866E+08         0.00000E+00
    0.00000E+00         0.00000E+00        -0.59011E+08
 
   -0.58256E+08         0.52205E+06         0.00000E+00
    0.52205E+06        -0.49850E+08         0.00000E+00
    0.00000E+00         0.00000E+00        -0.59009E+08
 
   -0.58266E+08         0.56280E+06         0.00000E+00
    0.56280E+06        -0.49834E+08         0.00000E+00
    0.00000E+00         0.00000E+00        -0.59008E+08
 
   -0.58277E+08         0.60480E+06         0.00000E+00
    0.60480E+06        -0.49818E+08         0.00000E+00
    0.00000E+00         0.00000E+00        -0.59007E+08
 
   -0.58289E+08         0.64806E+06         0.00000E+00
    0.64806E+06        -0.49801E+08         0.00000E+00
    0.00000E+00         0.00000E+00        -0.59006E+08
 
   -0.58303E+08         0.69259E+06         0.00000E+00
    0.69259E+06        -0.49784E+08         0.00000E+00
    0.00000E+00         0.00000E+00        -0.59005E+08
 
   -0.58318E+08         0.73839E+06         0.00000E+00
    0.73839E+06        -0.49766E+08         0.00000E+00
    0.00000E+00         0.00000E+00        -0.59005E+08
 
   -0.58334E+08         0.78545E+06         0.00000E+00
    0.78545E+06        -0.49749E+08         0.00000E+00
    0.00000E+00         0.00000E+00        -0.59005E+08
 
   -0.58351E+08         0.83377E+06         0.00000E+00
    0.83377E+06        -0.49731E+08         0.00000E+00
    0.00000E+00         0.00000E+00        -0.59004E+08
 
   -0.58369E+08         0.88334E+06         0.00000E+00
    0.88334E+06        -0.49713E+08         0.00000E+00
    0.00000E+00         0.00000E+00        -0.59004E+08
 
   -0.58387E+08         0.93414E+06         0.00000E+00
    0.93414E+06        -0.49695E+08         0.00000E+00
    0.00000E+00         0.00000E+00        -0.59004E+08
 
   -0.58407E+08         0.98616E+06         0.00000E+00
    0.98616E+06        -0.49677E+08         0.00000E+00
    0.00000E+00         0.00000E+00        -0.59005E+08
 
   -0.58427E+08         0.10394E+07         0.00000E+00
    0.10394E+07        -0.49658E+08         0.00000E+00
    0.00000E+00         0.00000E+00        -0.59005E+08
 
   -0.58448E+08         0.10938E+07         0.00000E+00
    0.10938E+07        -0.49640E+08         0.00000E+00
    0.00000E+00         0.00000E+00        -0.59006E+08
 
   -0.58470E+08         0.11493E+07         0.00000E+00
    0.11493E+07        -0.49622E+08         0.00000E+00
    0.00000E+00         0.00000E+00        -0.59006E+08
 
   -0.58492E+08         0.12060E+07         0.00000E+00
    0.12060E+07        -0.49604E+08         0.00000E+00
    0.00000E+00         0.00000E+00        -0.59007E+08
 
   -0.58515E+08         0.12637E+07         0.00000E+00
    0.12637E+07        -0.49586E+08         0.00000E+00
    0.00000E+00         0.00000E+00        -0.59008E+08
 
   -0.58538E+08         0.13225E+07         0.00000E+00
    0.13225E+07        -0.49568E+08         0.00000E+00
    0.00000E+00         0.00000E+00        -0.59009E+08
 
   -0.58562E+08         0.13824E+07         0.00000E+00
    0.13824E+07        -0.49550E+08         0.00000E+00
    0.00000E+00         0.00000E+00        -0.59010E+08
 
   -0.58587E+08         0.14432E+07         0.00000E+00
    0.14432E+07        -0.49532E+08         0.00000E+00
    0.00000E+00         0.00000E+00        -0.59012E+08
 
   -0.58612E+08         0.15051E+07         0.00000E+00
    0.15051E+07        -0.49515E+08         0.00000E+00
    0.00000E+00         0.00000E+00        -0.59013E+08
 
   -0.58638E+08         0.15679E+07         0.00000E+00
    0.15679E+07        -0.49498E+08         0.00000E+00
    0.00000E+00         0.00000E+00        -0.59015E+08
 
   -0.58664E+08         0.16317E+07         0.00000E+00
    0.16317E+07        -0.49480E+08         0.00000E+00
    0.00000E+00         0.00000E+00        -0.59017E+08
 
   -0.58691E+08         0.16964E+07         0.00000E+00
    0.16964E+07        -0.49463E+08         0.00000E+00
    0.00000E+00         0.00000E+00        -0.59019E+08
 
   -0.58719E+08         0.17621E+07         0.00000E+00
    0.17621E+07        -0.49446E+08         0.00000E+00
    0.00000E+00         0.00000E+00        -0.59021E+08
 
   -0.58747E+08         0.18287E+07         0.00000E+00
    0.18287E+07        -0.49430E+08         0.00000E+00
    0.00000E+00         0.00000E+00        -0.59023E+08
 
   -0.58776E+08         0.18963E+07         0.00000E+00
    0.18963E+07        -0.49413E+08         0.00000E+00
    0.00000E+00         0.00000E+00        -0.59026E+08
 
   -0.58806E+08         0.19649E+07         0.00000E+00
    0.19649E+07        -0.49396E+08         0.00000E+00
    0.00000E+00         0.00000E+00        -0.59028E+08
 
   -0.58837E+08         0.20346E+07         0.00000E+00
    0.20346E+07        -0.49380E+08         0.00000E+00
    0.00000E+00         0.00000E+00        -0.59031E+08
 
   -0.58868E+08         0.21053E+07         0.00000E+00
    0.21053E+07        -0.49363E+08         0.00000E+00
    0.00000E+00         0.00000E+00        -0.59034E+08
 
   -0.58900E+08         0.21772E+07         0.00000E+00
    0.21772E+07        -0.49347E+08         0.00000E+00
    0.00000E+00         0.00000E+00        -0.59037E+08
 
   -0.58933E+08         0.22502E+07         0.00000E+00
    0.22502E+07        -0.49330E+08         0.00000E+00
    0.00000E+00         0.00000E+00        -0.59041E+08
 
   -0.58966E+08         0.23244E+07         0.00000E+00
    0.23244E+07        -0.49314E+08         0.00000E+00
    0.00000E+00         0.00000E+00        -0.59044E+08
 
   -0.59001E+08         0.23999E+07         0.00000E+00
    0.23999E+07        -0.49298E+08         0.00000E+00
    0.00000E+00         0.00000E+00        -0.59048E+08
 
   -0.59036E+08         0.24768E+07         0.00000E+00
    0.24768E+07        -0.49282E+08         0.00000E+00
    0.00000E+00         0.00000E+00        -0.59051E+08
 
   -0.58223E+08         0.16047E+05         0.00000E+00
    0.16047E+05        -0.50001E+08         0.00000E+00
    0.00000E+00         0.00000E+00        -0.58698E+08
 
   -0.58196E+08         0.48251E+05         0.00000E+00
    0.48251E+05        -0.49999E+08         0.00000E+00
    0.00000E+00         0.00000E+00        -0.58692E+08
 
   -0.58172E+08         0.80630E+05         0.00000E+00
    0.80630E+05        -0.49997E+08         0.00000E+00
    0.00000E+00         0.00000E+00        -0.58687E+08
 
   -0.58150E+08         0.11328E+06         0.00000E+00
    0.11328E+06        -0.49994E+08         0.00000E+00
    0.00000E+00         0.00000E+00        -0.58682E+08
 
   -0.58130E+08         0.14627E+06         0.00000E+00
    0.14627E+06        -0.49990E+08         0.00000E+00
    0.00000E+00         0.00000E+00        -0.58677E+08
 
   -0.58112E+08         0.17970E+06         0.00000E+00
    0.17970E+06        -0.49985E+08         0.00000E+00
    0.00000E+00         0.00000E+00        -0.58673E+08
 
   -0.58097E+08         0.21364E+06         0.00000E+00
    0.21364E+06        -0.49979E+08         0.00000E+00
    0.00000E+00         0.00000E+00        -0.58668E+08
 
   -0.58084E+08         0.24815E+06         0.00000E+00
    0.24815E+06        -0.49972E+08         0.00000E+00
    0.00000E+00         0.00000E+00        -0.58664E+08
 
   -0.58073E+08         0.28330E+06         0.00000E+00
    0.28330E+06        -0.49964E+08         0.00000E+00
    0.00000E+00         0.00000E+00        -0.58661E+08
 
   -0.58064E+08         0.31915E+06         0.00000E+00
    0.31915E+06        -0.49956E+08         0.00000E+00
    0.00000E+00         0.00000E+00        -0.58657E+08
 
   -0.58057E+08         0.35575E+06         0.00000E+00
    0.35575E+06        -0.49947E+08         0.00000E+00
    0.00000E+00         0.00000E+00        -0.58654E+08
 
   -0.58051E+08         0.39314E+06         0.00000E+00
    0.39314E+06        -0.49937E+08         0.00000E+00
    0.00000E+00         0.00000E+00        -0.58651E+08
 
   -0.58048E+08         0.43138E+06         0.00000E+00
    0.43138E+06        -0.49926E+08         0.00000E+00
    0.00000E+00         0.00000E+00        -0.58648E+08
 
   -0.58046E+08         0.47051E+06         0.00000E+00
    0.47051E+06        -0.49915E+08         0.00000E+00
    0.00000E+00         0.00000E+00        -0.58645E+08
 
   -0.58046E+08         0.51054E+06         0.00000E+00
    0.51054E+06        -0.49903E+08         0.00000E+00
    0.00000E+00         0.00000E+00        -0.58643E+08
 
   -0.58047E+08         0.55153E+06         0.00000E+00
    0.55153E+06        -0.49891E+08         0.00000E+00
    0.00000E+00         0.00000E+00        -0.58641E+08
 
   -0.58050E+08         0.59349E+06         0.00000E+00
    0.59349E+06        -0.49878E+08         0.00000E+00
    0.00000E+00         0.00000E+00        -0.58639E+08
 
   -0.58054E+08         0.63644E+06         0.00000E+00
    0.63644E+06        -0.49865E+08         0.00000E+00
    0.00000E+00         0.00000E+00        -0.58637E+08
 
   -0.58059E+08         0.68040E+06         0.00000E+00
    0.68040E+06        -0.49852E+08         0.00000E+00
    0.00000E+00         0.00000E+00        -0.58635E+08
 
   -0.58066E+08         0.72539E+06         0.00000E+00
    0.72539E+06        -0.49838E+08         0.00000E+00
    0.00000E+00         0.00000E+00        -0.58634E+08
 
   -0.58074E+08         0.77142E+06         0.00000E+00
    0.77142E+06        -0.49824E+08         0.00000E+00
    0.00000E+00         0.00000E+00        -0.58633E+08
 
   -0.58083E+08         0.81849E+06         0.00000E+00
    0.81849E+06        -0.49809E+08         0.00000E+00
    0.00000E+00         0.00000E+00        -0.58632E+08
 
   -0.58093E+08         0.86661E+06         0.00000E+00
    0.86661E+06        -0.49794E+08         0.00000E+00
    0.00000E+00         0.00000E+00        -0.58631E+08
 
   -0.58104E+08         0.91578E+06         0.00000E+00
    0.91578E+06        -0.49780E+08         0.00000E+00
    0.00000E+00         0.00000E+00        -0.58630E+08
 
   -0.58116E+08         0.96600E+06         0.00000E+00
    0.96600E+06        -0.49765E+08         0.00000E+00
    0.00000E+00         0.00000E+00        -0.58629E+08
 
   -0.58129E+08         0.10173E+07         0.00000E+00
    0.10173E+07        -0.49749E+08         0.00000E+00
    0.00000E+00         0.00000E+00        -0.58629E+08
 
   -0.58143E+08         0.10696E+07         0.00000E+00
    0.10696E+07        -0.49734E+08         0.00000E+00
    0.00000E+00         0.00000E+00        -0.58629E+08
 
   -0.58158E+08         0.11229E+07         0.00000E+00
    0.11229E+07        -0.49719E+08         0.00000E+00
    0.00000E+00         0.00000E+00        -0.58629E+08
 
   -0.58174E+08         0.11773E+07         0.00000E+00
    0.11773E+07        -0.49704E+08         0.00000E+00
    0.00000E+00         0.00000E+00        -0.58629E+08
 
   -0.58190E+08         0.12327E+07         0.00000E+00
    0.12327E+07        -0.49688E+08         0.00000E+00
    0.00000E+00         0.00000E+00        -0.58629E+08
 
   -0.58207E+08         0.12891E+07         0.00000E+00
    0.12891E+07        -0.49673E+08         0.00000E+00
    0.00000E+00         0.00000E+00        -0.58629E+08
 
   -0.58225E+08         0.13464E+07         0.00000E+00
    0.13464E+07        -0.49658E+08         0.00000E+00
    0.00000E+00         0.00000E+00        -0.58630E+08
 
   -0.58243E+08         0.14048E+07         0.00000E+00
    0.14048E+07        -0.49643E+08         0.00000E+00
    0.00000E+00         0.00000E+00        -0.58630E+08
 
   -0.58262E+08         0.14641E+07         0.00000E+00
    0.14641E+07        -0.49627E+08         0.00000E+00
    0.00000E+00         0.00000E+00        -0.58631E+08
 
   -0.58282E+08         0.15245E+07         0.00000E+00
    0.15245E+07        -0.49612E+08         0.00000E+00
    0.00000E+00         0.00000E+00        -0.58632E+08
 
   -0.58302E+08         0.15857E+07         0.00000E+00
    0.15857E+07        -0.49597E+08         0.00000E+00
    0.00000E+00         0.00000E+00        -0.58633E+08
 
   -0.58323E+08         0.16480E+07         0.00000E+00
    0.16480E+07        -0.49583E+08         0.00000E+00
    0.00000E+00         0.00000E+00        -0.58634E+08
 
   -0.58344E+08         0.17111E+07         0.00000E+00
    0.17111E+07        -0.49568E+08         0.00000E+00
    0.00000E+00         0.00000E+00        -0.58636E+08
 
   -0.58367E+08         0.17753E+07         0.00000E+00
    0.17753E+07        -0.49553E+08         0.00000E+00
    0.00000E+00         0.00000E+00        -0.58637E+08
 
   -0.58389E+08         0.18404E+07         0.00000E+00
    0.18404E+07        -0.49539E+08         0.00000E+00
    0.00000E+00         0.00000E+00        -0.58639E+08
 
   -0.58413E+08         0.19065E+07         0.00000E+00
    0.19065E+07        -0.49524E+08         0.00000E+00
    0.00000E+00         0.00000E+00        -0.58641E+08
 
   -0.58437E+08         0.19737E+07         0.00000E+00
    0.19737E+07        -0.49510E+08         0.00000E+00
    0.00000E+00         0.00000E+00        -0.58643E+08
 
   -0.58461E+08         0.20418E+07         0.00000E+00
    0.20418E+07        -0.49496E+08         0.00000E+00
    0.00000E+00         0.00000E+00        -0.58645E+08
 
   -0.58487E+08         0.21110E+07         0.00000E+00
    0.21110E+07        -0.49482E+08         0.00000E+00
    0.00000E+00         0.00000E+00        -0.58647E+08
 
   -0.58513E+08         0.21812E+07         0.00000E+00
    0.21812E+07        -0.49468E+08         0.00000E+00
    0.00000E+00         0.00000E+00        -0.58649E+08
 
   -0.58539E+08         0.22525E+07         0.00000E+00
    0.22525E+07        -0.49454E+08         0.00000E+00
    0.00000E+00         0.00000E+00        -0.58652E+08
 
   -0.58566E+08         0.23249E+07         0.00000E+00
    0.23249E+07        -0.49440E+08         0.00000E+00
    0.00000E+00         0.00000E+00        -0.58654E+08
 
   -0.58594E+08         0.23985E+07         0.00000E+00
    0.23985E+07        -0.49427E+08         0.00000E+00
    0.00000E+00         0.00000E+00        -0.58657E+08
 
   -0.58622E+08         0.24733E+07         0.00000E+00
    0.24733E+07        -0.49413E+08         0.00000E+00
    0.00000E+00         0.00000E+00        -0.58660E+08
 
   -0.58650E+08         0.25492E+07         0.00000E+00
    0.25492E+07        -0.49400E+08         0.00000E+00
    0.00000E+00         0.00000E+00        -0.58663E+08
 
   -0.58050E+08         0.18476E+05         0.00000E+00
    0.18476E+05        -0.50000E+08         0.00000E+00
    0.00000E+00         0.00000E+00        -0.58336E+08
 
   -0.58023E+08         0.55356E+05         0.00000E+00
    0.55356E+05        -0.50000E+08         0.00000E+00
    0.00000E+00         0.00000E+00        -0.58330E+08
 
   -0.57998E+08         0.92308E+05         0.00000E+00
    0.92308E+05        -0.49998E+08         0.00000E+00
    0.00000E+00         0.00000E+00        -0.58325E+08
 
   -0.57974E+08         0.12941E+06         0.00000E+00
    0.12941E+06        -0.49995E+08         0.00000E+00
    0.00000E+00         0.00000E+00        -0.58320E+08
 
   -0.57953E+08         0.16672E+06         0.00000E+00
    0.16672E+06        -0.49992E+08         0.00000E+00
    0.00000E+00         0.00000E+00        -0.58315E+08
 
   -0.57934E+08         0.20432E+06         0.00000E+00
    0.20432E+06        -0.49988E+08         0.00000E+00
    0.00000E+00         0.00000E+00        -0.58310E+08
 
   -0.57916E+08         0.24227E+06         0.00000E+00
    0.24227E+06        -0.49983E+08         0.00000E+00
    0.00000E+00         0.00000E+00        -0.58305E+08
 
   -0.57900E+08         0.28062E+06         0.00000E+00
    0.28062E+06        -0.49978E+08         0.00000E+00
    0.00000E+00         0.00000E+00        -0.58301E+08
 
   -0.57886E+08         0.31944E+06         0.00000E+00
    0.31944E+06        -0.49972E+08         0.00000E+00
    0.00000E+00         0.00000E+00        -0.58297E+08
 
   -0.57874E+08         0.35876E+06         0.00000E+00
    0.35876E+06        -0.49965E+08         0.00000E+00
    0.00000E+00         0.00000E+00        -0.58293E+08
 
   -0.57863E+08         0.39866E+06         0.00000E+00
    0.39866E+06        -0.49958E+08         0.00000E+00
    0.00000E+00         0.00000E+00        -0.58290E+08
 
   -0.57854E+08         0.43915E+06         0.00000E+00
    0.43915E+06        -0.49950E+08         0.00000E+00
    0.00000E+00         0.00000E+00        -0.58286E+08
 
   -0.57847E+08         0.48030E+06         0.00000E+00
    0.48030E+06        -0.49941E+08         0.00000E+00
    0.00000E+00         0.00000E+00        -0.58283E+08
 
   -0.57841E+08         0.52213E+06         0.00000E+00
    0.52213E+06        -0.49932E+08         0.00000E+00
    0.00000E+00         0.00000E+00        -0.58280E+08
 
   -0.57837E+08         0.56468E+06         0.00000E+00
    0.56468E+06        -0.49923E+08         0.00000E+00
    0.00000E+00         0.00000E+00        -0.58277E+08
 
   -0.57834E+08         0.60797E+06         0.00000E+00
    0.60797E+06        -0.49913E+08         0.00000E+00
    0.00000E+00         0.00000E+00        -0.58275E+08
 
   -0.57832E+08         0.65204E+06         0.00000E+00
    0.65204E+06        -0.49902E+08         0.00000E+00
    0.00000E+00         0.00000E+00        -0.58272E+08
 
   -0.57832E+08         0.69691E+06         0.00000E+00
    0.69691E+06        -0.49891E+08         0.00000E+00
    0.00000E+00         0.00000E+00        -0.58270E+08
 
   -0.57833E+08         0.74260E+06         0.00000E+00
    0.74260E+06        -0.49880E+08         0.00000E+00
    0.00000E+00         0.00000E+00        -0.58268E+08
 
   -0.57835E+08         0.78913E+06         0.00000E+00
    0.78913E+06        -0.49869E+08         0.00000E+00
    0.00000E+00         0.00000E+00        -0.58266E+08
 
   -0.57838E+08         0.83651E+06         0.00000E+00
    0.83651E+06        -0.49857E+08         0.00000E+00
    0.00000E+00         0.00000E+00        -0.58265E+08
 
   -0.57842E+08         0.88476E+06         0.00000E+00
    0.88476E+06        -0.49845E+08         0.00000E+00
    0.00000E+00         0.00000E+00        -0.58263E+08
 
   -0.57848E+08         0.93388E+06         0.00000E+00
    0.93388E+06        -0.49833E+08         0.00000E+00
    0.00000E+00         0.00000E+00        -0.58262E+08
 
   -0.57854E+08         0.98389E+06         0.00000E+00
    0.98389E+06        -0.49821E+08         0.00000E+00
    0.00000E+00         0.00000E+00        -0.58261E+08
 
   -0.57861E+08         0.10348E+07         0.00000E+00
    0.10348E+07        -0.49809E+08         0.00000E+00
    0.00000E+00         0.00000E+00        -0.58260E+08
 
   -0.57869E+08         0.10866E+07         0.00000E+00
    0.10866E+07        -0.49796E+08         0.00000E+00
    0.00000E+00         0.00000E+00        -0.58259E+08
 
   -0.57878E+08         0.11393E+07         0.00000E+00
    0.11393E+07        -0.49783E+08         0.00000E+00
    0.00000E+00         0.00000E+00        -0.58258E+08
 
   -0.57888E+08         0.11929E+07         0.00000E+00
    0.11929E+07        -0.49771E+08         0.00000E+00
    0.00000E+00         0.00000E+00        -0.58257E+08
 
   -0.57899E+08         0.12474E+07         0.00000E+00
    0.12474E+07        -0.49758E+08         0.00000E+00
    0.00000E+00         0.00000E+00        -0.58257E+08
 
   -0.57911E+08         0.13028E+07         0.00000E+00
    0.13028E+07        -0.49745E+08         0.00000E+00
    0.00000E+00         0.00000E+00        -0.58257E+08
 
   -0.57923E+08         0.13591E+07         0.00000E+00
    0.13591E+07        -0.49732E+08         0.00000E+00
    0.00000E+00         0.00000E+00        -0.58257E+08
 
   -0.57936E+08         0.14163E+07         0.00000E+00
    0.14163E+07        -0.49719E+08         0.00000E+00
    0.00000E+00         0.00000E+00        -0.58257E+08
 
   -0.57949E+08         0.14745E+07         0.00000E+00
    0.14745E+07        -0.49706E+08         0.00000E+00
    0.00000E+00         0.00000E+00        -0.58257E+08
 
   -0.57964E+08         0.15335E+07         0.00000E+00
    0.15335E+07        -0.49694E+08         0.00000E+00
    0.00000E+00         0.00000E+00        -0.58257E+08
 
   -0.57979E+08         0.15934E+07         0.00000E+00
    0.15934E+07        -0.49681E+08         0.00000E+00
    0.00000E+00         0.00000E+00        -0.58258E+08
 
   -0.57994E+08         0.16543E+07         0.00000E+00
    0.16543E+07        -0.49668E+08         0.00000E+00
    0.00000E+00         0.00000E+00        -0.58258E+08
 
   -0.58010E+08         0.17161E+07         0.00000E+00
    0.17161E+07        -0.49656E+08         0.00000E+00
    0.00000E+00         0.00000E+00        -0.58259E+08
 
   -0.58027E+08         0.17788E+07         0.00000E+00
    0.17788E+07        -0.49643E+08         0.00000E+00
    0.00000E+00         0.00000E+00        -0.58260E+08
 
   -0.58045E+08         0.18424E+07         0.00000E+00
    0.18424E+07        -0.49631E+08         0.00000E+00
    0.00000E+00         0.00000E+00        -0.58261E+08
 
   -0.58063E+08         0.19070E+07         0.00000E+00
    0.19070E+07        -0.49619E+08         0.00000E+00
    0.00000E+00         0.00000E+00        -0.58262E+08
 
   -0.58081E+08         0.19726E+07         0.00000E+00
    0.19726E+07        -0.49607E+08         0.00000E+00
    0.00000E+00         0.00000E+00        -0.58263E+08
 
   -0.58100E+08         0.20391E+07         0.00000E+00
    0.20391E+07        -0.49595E+08         0.00000E+00
    0.00000E+00         0.00000E+00        -0.58265E+08
 
   -0.58120E+08         0.21065E+07         0.00000E+00
    0.21065E+07        -0.49583E+08         0.00000E+00
    0.00000E+00         0.00000E+00        -0.58266E+08
 
   -0.58140E+08         0.21750E+07         0.00000E+00
    0.21750E+07        -0.49571E+08         0.00000E+00
    0.00000E+00         0.00000E+00        -0.58268E+08
 
   -0.58161E+08         0.22445E+07         0.00000E+00
    0.22445E+07        -0.49560E+08         0.00000E+00
    0.00000E+00         0.00000E+00        -0.58270E+08
 
   -0.58182E+08         0.23151E+07         0.00000E+00
    0.23151E+07        -0.49548E+08         0.00000E+00
    0.00000E+00         0.00000E+00        -0.58272E+08
 
   -0.58203E+08         0.23866E+07         0.00000E+00
    0.23866E+07        -0.49537E+08         0.00000E+00
    0.00000E+00         0.00000E+00        -0.58274E+08
 
   -0.58225E+08         0.24593E+07         0.00000E+00
    0.24593E+07        -0.49526E+08         0.00000E+00
    0.00000E+00         0.00000E+00        -0.58276E+08
 
   -0.58248E+08         0.25330E+07         0.00000E+00
    0.25330E+07        -0.49515E+08         0.00000E+00
    0.00000E+00         0.00000E+00        -0.58278E+08
 
   -0.58270E+08         0.26079E+07         0.00000E+00
    0.26079E+07        -0.49505E+08         0.00000E+00
    0.00000E+00         0.00000E+00        -0.58281E+08
 
   -0.57856E+08         0.20345E+05         0.00000E+00
    0.20345E+05        -0.50000E+08         0.00000E+00
    0.00000E+00         0.00000E+00        -0.57977E+08
 
   -0.57829E+08         0.60884E+05         0.00000E+00
    0.60884E+05        -0.50000E+08         0.00000E+00
    0.00000E+00         0.00000E+00        -0.57971E+08
 
   -0.57803E+08         0.10144E+06         0.00000E+00
    0.10144E+06        -0.49998E+08         0.00000E+00
    0.00000E+00         0.00000E+00        -0.57966E+08
 
   -0.57779E+08         0.14207E+06         0.00000E+00
    0.14207E+06        -0.49997E+08         0.00000E+00
    0.00000E+00         0.00000E+00        -0.57961E+08
 
   -0.57757E+08         0.18283E+06         0.00000E+00
    0.18283E+06        -0.49994E+08         0.00000E+00
    0.00000E+00         0.00000E+00        -0.57956E+08
 
   -0.57736E+08         0.22378E+06         0.00000E+00
    0.22378E+06        -0.49991E+08         0.00000E+00
    0.00000E+00         0.00000E+00        -0.57951E+08
 
   -0.57717E+08         0.26496E+06         0.00000E+00
    0.26496E+06        -0.49987E+08         0.00000E+00
    0.00000E+00         0.00000E+00        -0.57946E+08
 
   -0.57699E+08         0.30644E+06         0.00000E+00
    0.30644E+06        -0.49983E+08         0.00000E+00
    0.00000E+00         0.00000E+00        -0.57942E+08
 
   -0.57683E+08         0.34825E+06         0.00000E+00
    0.34825E+06        -0.49978E+08         0.00000E+00
    0.00000E+00         0.00000E+00        -0.57938E+08
 
   -0.57669E+08         0.39045E+06         0.00000E+00
    0.39045E+06        -0.49972E+08         0.00000E+00
    0.00000E+00         0.00000E+00        -0.57934E+08
 
   -0.57656E+08         0.43306E+06         0.00000E+00
    0.43306E+06        -0.49967E+08         0.00000E+00
    0.00000E+00         0.00000E+00        -0.57930E+08
 
   -0.57644E+08         0.47614E+06         0.00000E+00
    0.47614E+06        -0.49960E+08         0.00000E+00
    0.00000E+00         0.00000E+00        -0.57926E+08
 
   -0.57634E+08         0.51971E+06         0.00000E+00
    0.51971E+06        -0.49953E+08         0.00000E+00
    0.00000E+00         0.00000E+00        -0.57923E+08
 
   -0.57625E+08         0.56382E+06         0.00000E+00
    0.56382E+06        -0.49946E+08         0.00000E+00
    0.00000E+00         0.00000E+00        -0.57920E+08
 
   -0.57617E+08         0.60850E+06         0.00000E+00
    0.60850E+06        -0.49938E+08         0.00000E+00
    0.00000E+00         0.00000E+00        -0.57917E+08
 
   -0.57611E+08         0.65377E+06         0.00000E+00
    0.65377E+06        -0.49930E+08         0.00000E+00
    0.00000E+00         0.00000E+00        -0.57914E+08
 
   -0.57605E+08         0.69966E+06         0.00000E+00
    0.69966E+06        -0.49922E+08         0.00000E+00
    0.00000E+00         0.00000E+00        -0.57911E+08
 
   -0.57601E+08         0.74619E+06         0.00000E+00
    0.74619E+06        -0.49913E+08         0.00000E+00
    0.00000E+00         0.00000E+00        -0.57908E+08
 
   -0.57598E+08         0.79339E+06         0.00000E+00
    0.79339E+06        -0.49904E+08         0.00000E+00
    0.00000E+00         0.00000E+00        -0.57906E+08
 
   -0.57597E+08         0.84129E+06         0.00000E+00
    0.84129E+06        -0.49895E+08         0.00000E+00
    0.00000E+00         0.00000E+00        -0.57904E+08
 
   -0.57596E+08         0.88988E+06         0.00000E+00
    0.88988E+06        -0.49885E+08         0.00000E+00
    0.00000E+00         0.00000E+00        -0.57902E+08
 
   -0.57596E+08         0.93920E+06         0.00000E+00
    0.93920E+06        -0.49876E+08         0.00000E+00
    0.00000E+00         0.00000E+00        -0.57900E+08
 
   -0.57598E+08         0.98926E+06         0.00000E+00
    0.98926E+06        -0.49866E+08         0.00000E+00
    0.00000E+00         0.00000E+00        -0.57898E+08
 
   -0.57600E+08         0.10401E+07         0.00000E+00
    0.10401E+07        -0.49856E+08         0.00000E+00
    0.00000E+00         0.00000E+00        -0.57897E+08
 
   -0.57603E+08         0.10916E+07         0.00000E+00
    0.10916E+07        -0.49845E+08         0.00000E+00
    0.00000E+00         0.00000E+00        -0.57895E+08
 
   -0.57607E+08         0.11440E+07         0.00000E+00
    0.11440E+07        -0.49835E+08         0.00000E+00
    0.00000E+00         0.00000E+00        -0.57894E+08
 
   -0.57612E+08         0.11971E+07         0.00000E+00
    0.11971E+07        -0.49825E+08         0.00000E+00
    0.00000E+00         0.00000E+00        -0.57893E+08
 
   -0.57617E+08         0.12510E+07         0.00000E+00
    0.12510E+07        -0.49814E+08         0.00000E+00
    0.00000E+00         0.00000E+00        -0.57892E+08
 
   -0.57624E+08         0.13057E+07         0.00000E+00
    0.13057E+07        -0.49804E+08         0.00000E+00
    0.00000E+00         0.00000E+00        -0.57891E+08
 
   -0.57631E+08         0.13612E+07         0.00000E+00
    0.13612E+07        -0.49793E+08         0.00000E+00
    0.00000E+00         0.00000E+00        -0.57890E+08
 
   -0.57639E+08         0.14176E+07         0.00000E+00
    0.14176E+07        -0.49782E+08         0.00000E+00
    0.00000E+00         0.00000E+00        -0.57890E+08
 
   -0.57648E+08         0.14747E+07         0.00000E+00
    0.14747E+07        -0.49772E+08         0.00000E+00
    0.00000E+00         0.00000E+00        -0.57889E+08
 
   -0.57657E+08         0.15327E+07         0.00000E+00
    0.15327E+07        -0.49761E+08         0.00000E+00
    0.00000E+00         0.00000E+00        -0.57889E+08
 
   -0.57667E+08         0.15915E+07         0.00000E+00
    0.15915E+07        -0.49750E+08         0.00000E+00
    0.00000E+00         0.00000E+00        -0.57889E+08
 
   -0.57677E+08         0.16512E+07         0.00000E+00
    0.16512E+07        -0.49740E+08         0.00000E+00
    0.00000E+00         0.00000E+00        -0.57889E+08
 
   -0.57689E+08         0.17117E+07         0.00000E+00
    0.17117E+07        -0.49730E+08         0.00000E+00
    0.00000E+00         0.00000E+00        -0.57889E+08
 
   -0.57700E+08         0.17730E+07         0.00000E+00
    0.17730E+07        -0.49719E+08         0.00000E+00
    0.00000E+00         0.00000E+00        -0.57889E+08
 
   -0.57713E+08         0.18353E+07         0.00000E+00
    0.18353E+07        -0.49709E+08         0.00000E+00
    0.00000E+00         0.00000E+00        -0.57890E+08
 
   -0.57725E+08         0.18984E+07         0.00000E+00
    0.18984E+07        -0.49699E+08         0.00000E+00
    0.00000E+00         0.00000E+00        -0.57890E+08
 
   -0.57739E+08         0.19624E+07         0.00000E+00
    0.19624E+07        -0.49689E+08         0.00000E+00
    0.00000E+00         0.00000E+00        -0.57891E+08
 
   -0.57753E+08         0.20273E+07         0.00000E+00
    0.20273E+07        -0.49679E+08         0.00000E+00
    0.00000E+00         0.00000E+00        -0.57892E+08
 
   -0.57767E+08         0.20931E+07         0.00000E+00
    0.20931E+07        -0.49669E+08         0.00000E+00
    0.00000E+00         0.00000E+00        -0.57893E+08
 
   -0.57782E+08         0.21598E+07         0.00000E+00
    0.21598E+07        -0.49659E+08         0.00000E+00
    0.00000E+00         0.00000E+00        -0.57894E+08
 
   -0.57797E+08         0.22275E+07         0.00000E+00
    0.22275E+07        -0.49650E+08         0.00000E+00
    0.00000E+00         0.00000E+00        -0.57895E+08
 
   -0.57813E+08         0.22961E+07         0.00000E+00
    0.22961E+07        -0.49641E+08         0.00000E+00
    0.00000E+00         0.00000E+00        -0.57896E+08
 
   -0.57829E+08         0.23657E+07         0.00000E+00
    0.23657E+07        -0.49631E+08         0.00000E+00
    0.00000E+00         0.00000E+00        -0.57898E+08
 
   -0.57845E+08         0.24362E+07         0.00000E+00
    0.24362E+07        -0.49623E+08         0.00000E+00
    0.00000E+00         0.00000E+00        -0.57899E+08
 
   -0.57862E+08         0.25078E+07         0.00000E+00
    0.25078E+07        -0.49614E+08         0.00000E+00
    0.00000E+00         0.00000E+00        -0.57901E+08
 
   -0.57879E+08         0.25803E+07         0.00000E+00
    0.25803E+07        -0.49605E+08         0.00000E+00
    0.00000E+00         0.00000E+00        -0.57902E+08
 
   -0.57897E+08         0.26539E+07         0.00000E+00
    0.26539E+07        -0.49597E+08         0.00000E+00
    0.00000E+00         0.00000E+00        -0.57904E+08
 
   -0.57646E+08         0.21784E+05         0.00000E+00
    0.21784E+05        -0.50000E+08         0.00000E+00
    0.00000E+00         0.00000E+00        -0.57623E+08
 
   -0.57619E+08         0.65178E+05         0.00000E+00
    0.65178E+05        -0.50000E+08         0.00000E+00
    0.00000E+00         0.00000E+00        -0.57617E+08
 
   -0.57593E+08         0.10856E+06         0.00000E+00
    0.10856E+06        -0.49999E+08         0.00000E+00
    0.00000E+00         0.00000E+00        -0.57612E+08
 
   -0.57569E+08         0.15197E+06         0.00000E+00
    0.15197E+06        -0.49997E+08         0.00000E+00
    0.00000E+00         0.00000E+00        -0.57607E+08
 
   -0.57546E+08         0.19547E+06         0.00000E+00
    0.19547E+06        -0.49995E+08         0.00000E+00
    0.00000E+00         0.00000E+00        -0.57602E+08
 
   -0.57524E+08         0.23909E+06         0.00000E+00
    0.23909E+06        -0.49993E+08         0.00000E+00
    0.00000E+00         0.00000E+00        -0.57597E+08
 
   -0.57504E+08         0.28287E+06         0.00000E+00
    0.28287E+06        -0.49990E+08         0.00000E+00
    0.00000E+00         0.00000E+00        -0.57592E+08
 
   -0.57485E+08         0.32686E+06         0.00000E+00
    0.32686E+06        -0.49987E+08         0.00000E+00
    0.00000E+00         0.00000E+00        -0.57588E+08
 
   -0.57467E+08         0.37110E+06         0.00000E+00
    0.37110E+06        -0.49983E+08         0.00000E+00
    0.00000E+00         0.00000E+00        -0.57583E+08
 
   -0.57451E+08         0.41562E+06         0.00000E+00
    0.41562E+06        -0.49978E+08         0.00000E+00
    0.00000E+00         0.00000E+00        -0.57579E+08
 
   -0.57436E+08         0.46047E+06         0.00000E+00
    0.46047E+06        -0.49974E+08         0.00000E+00
    0.00000E+00         0.00000E+00        -0.57575E+08
 
   -0.57422E+08         0.50567E+06         0.00000E+00
    0.50567E+06        -0.49969E+08         0.00000E+00
    0.00000E+00         0.00000E+00        -0.57571E+08
 
   -0.57409E+08         0.55126E+06         0.00000E+00
    0.55126E+06        -0.49963E+08         0.00000E+00
    0.00000E+00         0.00000E+00        -0.57568E+08
 
   -0.57398E+08         0.59726E+06         0.00000E+00
    0.59726E+06        -0.49957E+08         0.00000E+00
    0.00000E+00         0.00000E+00        -0.57564E+08
 
   -0.57388E+08         0.64372E+06         0.00000E+00
    0.64372E+06        -0.49951E+08         0.00000E+00
    0.00000E+00         0.00000E+00        -0.57561E+08
 
   -0.57379E+08         0.69065E+06         0.00000E+00
    0.69065E+06        -0.49945E+08         0.00000E+00
    0.00000E+00         0.00000E+00        -0.57558E+08
 
   -0.57371E+08         0.73808E+06         0.00000E+00
    0.73808E+06        -0.49938E+08         0.00000E+00
    0.00000E+00         0.00000E+00        -0.57555E+08
 
   -0.57364E+08         0.78604E+06         0.00000E+00
    0.78604E+06        -0.49931E+08         0.00000E+00
    0.00000E+00         0.00000E+00        -0.57552E+08
 
   -0.57358E+08         0.83454E+06         0.00000E+00
    0.83454E+06        -0.49924E+08         0.00000E+00
    0.00000E+00         0.00000E+00        -0.57550E+08
 
   -0.57353E+08         0.88361E+06         0.00000E+00
    0.88361E+06        -0.49916E+08         0.00000E+00
    0.00000E+00         0.00000E+00        -0.57547E+08
 
   -0.57349E+08         0.93327E+06         0.00000E+00
    0.93327E+06        -0.49909E+08         0.00000E+00
    0.00000E+00         0.00000E+00        -0.57545E+08
 
   -0.57346E+08         0.98353E+06         0.00000E+00
    0.98353E+06        -0.49901E+08         0.00000E+00
    0.00000E+00         0.00000E+00        -0.57543E+08
 
   -0.57343E+08         0.10344E+07         0.00000E+00
    0.10344E+07        -0.49893E+08         0.00000E+00
    0.00000E+00         0.00000E+00        -0.57541E+08
 
   -0.57342E+08         0.10859E+07         0.00000E+00
    0.10859E+07        -0.49884E+08         0.00000E+00
    0.00000E+00         0.00000E+00        -0.57539E+08
 
   -0.57342E+08         0.11381E+07         0.00000E+00
    0.11381E+07        -0.49876E+08         0.00000E+00
    0.00000E+00         0.00000E+00        -0.57537E+08
 
   -0.57342E+08         0.11910E+07         0.00000E+00
    0.11910E+07        -0.49868E+08         0.00000E+00
    0.00000E+00         0.00000E+00        -0.57535E+08
 
   -0.57343E+08         0.12445E+07         0.00000E+00
    0.12445E+07        -0.49859E+08         0.00000E+00
    0.00000E+00         0.00000E+00        -0.57534E+08
 
   -0.57345E+08         0.12987E+07         0.00000E+00
    0.12987E+07        -0.49851E+08         0.00000E+00
    0.00000E+00         0.00000E+00        -0.57533E+08
 
   -0.57348E+08         0.13536E+07         0.00000E+00
    0.13536E+07        -0.49842E+08         0.00000E+00
    0.00000E+00         0.00000E+00        -0.57531E+08
 
   -0.57351E+08         0.14093E+07         0.00000E+00
    0.14093E+07        -0.49833E+08         0.00000E+00
    0.00000E+00         0.00000E+00        -0.57530E+08
 
   -0.57355E+08         0.14656E+07         0.00000E+00
    0.14656E+07        -0.49825E+08         0.00000E+00
    0.00000E+00         0.00000E+00        -0.57529E+08
 
   -0.57360E+08         0.15227E+07         0.00000E+00
    0.15227E+07        -0.49816E+08         0.00000E+00
    0.00000E+00         0.00000E+00        -0.57529E+08
 
   -0.57365E+08         0.15806E+07         0.00000E+00
    0.15806E+07        -0.49808E+08         0.00000E+00
    0.00000E+00         0.00000E+00        -0.57528E+08
 
   -0.57371E+08         0.16392E+07         0.00000E+00
    0.16392E+07        -0.49799E+08         0.00000E+00
    0.00000E+00         0.00000E+00        -0.57527E+08
 
   -0.57378E+08         0.16985E+07         0.00000E+00
    0.16985E+07        -0.49790E+08         0.00000E+00
    0.00000E+00         0.00000E+00        -0.57527E+08
 
   -0.57385E+08         0.17587E+07         0.00000E+00
    0.17587E+07        -0.49782E+08         0.00000E+00
    0.00000E+00         0.00000E+00        -0.57527E+08
 
   -0.57392E+08         0.18196E+07         0.00000E+00
    0.18196E+07        -0.49774E+08         0.00000E+00
    0.00000E+00         0.00000E+00        -0.57527E+08
 
   -0.57401E+08         0.18813E+07         0.00000E+00
    0.18813E+07        -0.49765E+08         0.00000E+00
    0.00000E+00         0.00000E+00        -0.57527E+08
 
   -0.57409E+08         0.19438E+07         0.00000E+00
    0.19438E+07        -0.49757E+08         0.00000E+00
    0.00000E+00         0.00000E+00        -0.57527E+08
 
   -0.57418E+08         0.20072E+07         0.00000E+00
    0.20072E+07        -0.49749E+08         0.00000E+00
    0.00000E+00         0.00000E+00        -0.57527E+08
 
   -0.57428E+08         0.20714E+07         0.00000E+00
    0.20714E+07        -0.49741E+08         0.00000E+00
    0.00000E+00         0.00000E+00        -0.57527E+08
 
   -0.57438E+08         0.21364E+07         0.00000E+00
    0.21364E+07        -0.49733E+08         0.00000E+00
    0.00000E+00         0.00000E+00        -0.57528E+08
 
   -0.57448E+08         0.22023E+07         0.00000E+00
    0.22023E+07        -0.49726E+08         0.00000E+00
    0.00000E+00         0.00000E+00        -0.57528E+08
 
   -0.57459E+08         0.22690E+07         0.00000E+00
    0.22690E+07        -0.49719E+08         0.00000E+00
    0.00000E+00         0.00000E+00        -0.57529E+08
 
   -0.57470E+08         0.23366E+07         0.00000E+00
    0.23366E+07        -0.49711E+08         0.00000E+00
    0.00000E+00         0.00000E+00        -0.57530E+08
 
   -0.57481E+08         0.24051E+07         0.00000E+00
    0.24051E+07        -0.49704E+08         0.00000E+00
    0.00000E+00         0.00000E+00        -0.57530E+08
 
   -0.57493E+08         0.24746E+07         0.00000E+00
    0.24746E+07        -0.49698E+08         0.00000E+00
    0.00000E+00         0.00000E+00        -0.57531E+08
 
   -0.57505E+08         0.25449E+07         0.00000E+00
    0.25449E+07        -0.49691E+08         0.00000E+00
    0.00000E+00         0.00000E+00        -0.57533E+08
 
   -0.57517E+08         0.26162E+07         0.00000E+00
    0.26162E+07        -0.49685E+08         0.00000E+00
    0.00000E+00         0.00000E+00        -0.57534E+08
 
   -0.57529E+08         0.26884E+07         0.00000E+00
    0.26884E+07        -0.49679E+08         0.00000E+00
    0.00000E+00         0.00000E+00        -0.57535E+08
 
   -0.57423E+08         0.22896E+05         0.00000E+00
    0.22896E+05        -0.50000E+08         0.00000E+00
    0.00000E+00         0.00000E+00        -0.57274E+08
 
   -0.57396E+08         0.68516E+05         0.00000E+00
    0.68516E+05        -0.50000E+08         0.00000E+00
    0.00000E+00         0.00000E+00        -0.57268E+08
 
   -0.57371E+08         0.11411E+06         0.00000E+00
    0.11411E+06        -0.49999E+08         0.00000E+00
    0.00000E+00         0.00000E+00        -0.57263E+08
 
   -0.57346E+08         0.15971E+06         0.00000E+00
    0.15971E+06        -0.49998E+08         0.00000E+00
    0.00000E+00         0.00000E+00        -0.57258E+08
 
   -0.57323E+08         0.20536E+06         0.00000E+00
    0.20536E+06        -0.49996E+08         0.00000E+00
    0.00000E+00         0.00000E+00        -0.57253E+08
 
   -0.57300E+08         0.25110E+06         0.00000E+00
    0.25110E+06        -0.49994E+08         0.00000E+00
    0.00000E+00         0.00000E+00        -0.57248E+08
 
   -0.57279E+08         0.29695E+06         0.00000E+00
    0.29695E+06        -0.49992E+08         0.00000E+00
    0.00000E+00         0.00000E+00        -0.57243E+08
 
   -0.57259E+08         0.34295E+06         0.00000E+00
    0.34295E+06        -0.49990E+08         0.00000E+00
    0.00000E+00         0.00000E+00        -0.57239E+08
 
   -0.57240E+08         0.38913E+06         0.00000E+00
    0.38913E+06        -0.49986E+08         0.00000E+00
    0.00000E+00         0.00000E+00        -0.57235E+08
 
   -0.57223E+08         0.43553E+06         0.00000E+00
    0.43553E+06        -0.49983E+08         0.00000E+00
    0.00000E+00         0.00000E+00        -0.57230E+08
 
   -0.57206E+08         0.48218E+06         0.00000E+00
    0.48218E+06        -0.49979E+08         0.00000E+00
    0.00000E+00         0.00000E+00        -0.57226E+08
 
   -0.57191E+08         0.52910E+06         0.00000E+00
    0.52910E+06        -0.49975E+08         0.00000E+00
    0.00000E+00         0.00000E+00        -0.57222E+08
 
   -0.57176E+08         0.57633E+06         0.00000E+00
    0.57633E+06        -0.49971E+08         0.00000E+00
    0.00000E+00         0.00000E+00        -0.57219E+08
 
   -0.57163E+08         0.62389E+06         0.00000E+00
    0.62389E+06        -0.49966E+08         0.00000E+00
    0.00000E+00         0.00000E+00        -0.57215E+08
 
   -0.57151E+08         0.67181E+06         0.00000E+00
    0.67181E+06        -0.49962E+08         0.00000E+00
    0.00000E+00         0.00000E+00        -0.57212E+08
 
   -0.57139E+08         0.72011E+06         0.00000E+00
    0.72011E+06        -0.49957E+08         0.00000E+00
    0.00000E+00         0.00000E+00        -0.57208E+08
 
   -0.57129E+08         0.76882E+06         0.00000E+00
    0.76882E+06        -0.49951E+08         0.00000E+00
    0.00000E+00         0.00000E+00        -0.57205E+08
 
   -0.57119E+08         0.81795E+06         0.00000E+00
    0.81795E+06        -0.49946E+08         0.00000E+00
    0.00000E+00         0.00000E+00        -0.57202E+08
 
   -0.57111E+08         0.86754E+06         0.00000E+00
    0.86754E+06        -0.49940E+08         0.00000E+00
    0.00000E+00         0.00000E+00        -0.57199E+08
 
   -0.57103E+08         0.91760E+06         0.00000E+00
    0.91760E+06        -0.49934E+08         0.00000E+00
    0.00000E+00         0.00000E+00        -0.57197E+08
 
   -0.57097E+08         0.96815E+06         0.00000E+00
    0.96815E+06        -0.49928E+08         0.00000E+00
    0.00000E+00         0.00000E+00        -0.57194E+08
 
   -0.57091E+08         0.10192E+07         0.00000E+00
    0.10192E+07        -0.49921E+08         0.00000E+00
    0.00000E+00         0.00000E+00        -0.57192E+08
 
   -0.57086E+08         0.10708E+07         0.00000E+00
    0.10708E+07        -0.49915E+08         0.00000E+00
    0.00000E+00         0.00000E+00        -0.57189E+08
 
   -0.57081E+08         0.11229E+07         0.00000E+00
    0.11229E+07        -0.49908E+08         0.00000E+00
    0.00000E+00         0.00000E+00        -0.57187E+08
 
   -0.57078E+08         0.11756E+07         0.00000E+00
    0.11756E+07        -0.49902E+08         0.00000E+00
    0.00000E+00         0.00000E+00        -0.57185E+08
 
   -0.57075E+08         0.12289E+07         0.00000E+00
    0.12289E+07        -0.49895E+08         0.00000E+00
    0.00000E+00         0.00000E+00        -0.57183E+08
 
   -0.57073E+08         0.12827E+07         0.00000E+00
    0.12827E+07        -0.49888E+08         0.00000E+00
    0.00000E+00         0.00000E+00        -0.57181E+08
 
   -0.57072E+08         0.13372E+07         0.00000E+00
    0.13372E+07        -0.49881E+08         0.00000E+00
    0.00000E+00         0.00000E+00        -0.57180E+08
 
   -0.57071E+08         0.13923E+07         0.00000E+00
    0.13923E+07        -0.49874E+08         0.00000E+00
    0.00000E+00         0.00000E+00        -0.57178E+08
 
   -0.57071E+08         0.14480E+07         0.00000E+00
    0.14480E+07        -0.49868E+08         0.00000E+00
    0.00000E+00         0.00000E+00        -0.57177E+08
 
   -0.57072E+08         0.15043E+07         0.00000E+00
    0.15043E+07        -0.49861E+08         0.00000E+00
    0.00000E+00         0.00000E+00        -0.57176E+08
 
   -0.57073E+08         0.15613E+07         0.00000E+00
    0.15613E+07        -0.49854E+08         0.00000E+00
    0.00000E+00         0.00000E+00        -0.57175E+08
 
   -0.57075E+08         0.16190E+07         0.00000E+00
    0.16190E+07        -0.49847E+08         0.00000E+00
    0.00000E+00         0.00000E+00        -0.57173E+08
 
   -0.57077E+08         0.16773E+07         0.00000E+00
    0.16773E+07        -0.49840E+08         0.00000E+00
    0.00000E+00         0.00000E+00        -0.57173E+08
 
   -0.57080E+08         0.17363E+07         0.00000E+00
    0.17363E+07        -0.49834E+08         0.00000E+00
    0.00000E+00         0.00000E+00        -0.57172E+08
 
   -0.57083E+08         0.17961E+07         0.00000E+00
    0.17961E+07        -0.49827E+08         0.00000E+00
    0.00000E+00         0.00000E+00        -0.57171E+08
 
   -0.57087E+08         0.18565E+07         0.00000E+00
    0.18565E+07        -0.49820E+08         0.00000E+00
    0.00000E+00         0.00000E+00        -0.57171E+08
 
   -0.57091E+08         0.19177E+07         0.00000E+00
    0.19177E+07        -0.49814E+08         0.00000E+00
    0.00000E+00         0.00000E+00        -0.57170E+08
 
   -0.57096E+08         0.19796E+07         0.00000E+00
    0.19796E+07        -0.49808E+08         0.00000E+00
    0.00000E+00         0.00000E+00        -0.57170E+08
 
   -0.57101E+08         0.20422E+07         0.00000E+00
    0.20422E+07        -0.49801E+08         0.00000E+00
    0.00000E+00         0.00000E+00        -0.57170E+08
 
   -0.57107E+08         0.21056E+07         0.00000E+00
    0.21056E+07        -0.49795E+08         0.00000E+00
    0.00000E+00         0.00000E+00        -0.57170E+08
 
   -0.57113E+08         0.21698E+07         0.00000E+00
    0.21698E+07        -0.49790E+08         0.00000E+00
    0.00000E+00         0.00000E+00        -0.57170E+08
 
   -0.57119E+08         0.22347E+07         0.00000E+00
    0.22347E+07        -0.49784E+08         0.00000E+00
    0.00000E+00         0.00000E+00        -0.57170E+08
 
   -0.57125E+08         0.23004E+07         0.00000E+00
    0.23004E+07        -0.49779E+08         0.00000E+00
    0.00000E+00         0.00000E+00        -0.57170E+08
 
   -0.57132E+08         0.23670E+07         0.00000E+00
    0.23670E+07        -0.49773E+08         0.00000E+00
    0.00000E+00         0.00000E+00        -0.57170E+08
 
   -0.57139E+08         0.24343E+07         0.00000E+00
    0.24343E+07        -0.49768E+08         0.00000E+00
    0.00000E+00         0.00000E+00        -0.57171E+08
 
   -0.57147E+08         0.25025E+07         0.00000E+00
    0.25025E+07        -0.49764E+08         0.00000E+00
    0.00000E+00         0.00000E+00        -0.57171E+08
 
   -0.57154E+08         0.25715E+07         0.00000E+00
    0.25715E+07        -0.49759E+08         0.00000E+00
    0.00000E+00         0.00000E+00        -0.57172E+08
 
   -0.57162E+08         0.26414E+07         0.00000E+00
    0.26414E+07        -0.49755E+08         0.00000E+00
    0.00000E+00         0.00000E+00        -0.57172E+08
 
   -0.57170E+08         0.27121E+07         0.00000E+00
    0.27121E+07        -0.49751E+08         0.00000E+00
    0.00000E+00         0.00000E+00        -0.57173E+08
 
   -0.57191E+08         0.23759E+05         0.00000E+00
    0.23759E+05        -0.50000E+08         0.00000E+00
    0.00000E+00         0.00000E+00        -0.56931E+08
 
   -0.57164E+08         0.71113E+05         0.00000E+00
    0.71113E+05        -0.50000E+08         0.00000E+00
    0.00000E+00         0.00000E+00        -0.56926E+08
 
   -0.57138E+08         0.11843E+06         0.00000E+00
    0.11843E+06        -0.49999E+08         0.00000E+00
    0.00000E+00         0.00000E+00        -0.56921E+08
 
   -0.57113E+08         0.16575E+06         0.00000E+00
    0.16575E+06        -0.49998E+08         0.00000E+00
    0.00000E+00         0.00000E+00        -0.56916E+08
 
   -0.57090E+08         0.21310E+06         0.00000E+00
    0.21310E+06        -0.49997E+08         0.00000E+00
    0.00000E+00         0.00000E+00        -0.56911E+08
 
   -0.57067E+08         0.26049E+06         0.00000E+00
    0.26049E+06        -0.49996E+08         0.00000E+00
    0.00000E+00         0.00000E+00        -0.56906E+08
 
   -0.57045E+08         0.30797E+06         0.00000E+00
    0.30797E+06        -0.49994E+08         0.00000E+00
    0.00000E+00         0.00000E+00        -0.56901E+08
 
   -0.57025E+08         0.35556E+06         0.00000E+00
    0.35556E+06        -0.49992E+08         0.00000E+00
    0.00000E+00         0.00000E+00        -0.56896E+08
 
   -0.57005E+08         0.40329E+06         0.00000E+00
    0.40329E+06        -0.49989E+08         0.00000E+00
    0.00000E+00         0.00000E+00        -0.56892E+08
 
   -0.56986E+08         0.45118E+06         0.00000E+00
    0.45118E+06        -0.49987E+08         0.00000E+00
    0.00000E+00         0.00000E+00        -0.56888E+08
 
   -0.56969E+08         0.49927E+06         0.00000E+00
    0.49927E+06        -0.49984E+08         0.00000E+00
    0.00000E+00         0.00000E+00        -0.56884E+08
 
   -0.56952E+08         0.54757E+06         0.00000E+00
    0.54757E+06        -0.49981E+08         0.00000E+00
    0.00000E+00         0.00000E+00        -0.56880E+08
 
   -0.56936E+08         0.59611E+06         0.00000E+00
    0.59611E+06        -0.49977E+08         0.00000E+00
    0.00000E+00         0.00000E+00        -0.56876E+08
 
   -0.56921E+08         0.64491E+06         0.00000E+00
    0.64491E+06        -0.49974E+08         0.00000E+00
    0.00000E+00         0.00000E+00        -0.56872E+08
 
   -0.56907E+08         0.69400E+06         0.00000E+00
    0.69400E+06        -0.49970E+08         0.00000E+00
    0.00000E+00         0.00000E+00        -0.56869E+08
 
   -0.56894E+08         0.74340E+06         0.00000E+00
    0.74340E+06        -0.49966E+08         0.00000E+00
    0.00000E+00         0.00000E+00        -0.56865E+08
 
   -0.56882E+08         0.79314E+06         0.00000E+00
    0.79314E+06        -0.49962E+08         0.00000E+00
    0.00000E+00         0.00000E+00        -0.56862E+08
 
   -0.56870E+08         0.84322E+06         0.00000E+00
    0.84322E+06        -0.49957E+08         0.00000E+00
    0.00000E+00         0.00000E+00        -0.56859E+08
 
   -0.56860E+08         0.89368E+06         0.00000E+00
    0.89368E+06        -0.49953E+08         0.00000E+00
    0.00000E+00         0.00000E+00        -0.56856E+08
 
   -0.56850E+08         0.94454E+06         0.00000E+00
    0.94454E+06        -0.49948E+08         0.00000E+00
    0.00000E+00         0.00000E+00        -0.56853E+08
 
   -0.56841E+08         0.99580E+06         0.00000E+00
    0.99580E+06        -0.49943E+08         0.00000E+00
    0.00000E+00         0.00000E+00        -0.56850E+08
 
   -0.56833E+08         0.10475E+07         0.00000E+00
    0.10475E+07        -0.49938E+08         0.00000E+00
    0.00000E+00         0.00000E+00        -0.56847E+08
 
   -0.56825E+08         0.10996E+07         0.00000E+00
    0.10996E+07        -0.49933E+08         0.00000E+00
    0.00000E+00         0.00000E+00        -0.56845E+08
 
   -0.56818E+08         0.11522E+07         0.00000E+00
    0.11522E+07        -0.49928E+08         0.00000E+00
    0.00000E+00         0.00000E+00        -0.56842E+08
 
   -0.56812E+08         0.12053E+07         0.00000E+00
    0.12053E+07        -0.49923E+08         0.00000E+00
    0.00000E+00         0.00000E+00        -0.56840E+08
 
   -0.56807E+08         0.12589E+07         0.00000E+00
    0.12589E+07        -0.49918E+08         0.00000E+00
    0.00000E+00         0.00000E+00        -0.56838E+08
 
   -0.56802E+08         0.13129E+07         0.00000E+00
    0.13129E+07        -0.49912E+08         0.00000E+00
    0.00000E+00         0.00000E+00        -0.56836E+08
 
   -0.56798E+08         0.13676E+07         0.00000E+00
    0.13676E+07        -0.49907E+08         0.00000E+00
    0.00000E+00         0.00000E+00        -0.56834E+08
 
   -0.56794E+08         0.14227E+07         0.00000E+00
    0.14227E+07        -0.49902E+08         0.00000E+00
    0.00000E+00         0.00000E+00        -0.56832E+08
 
   -0.56791E+08         0.14784E+07         0.00000E+00
    0.14784E+07        -0.49896E+08         0.00000E+00
    0.00000E+00         0.00000E+00        -0.56831E+08
 
   -0.56789E+08         0.15346E+07         0.00000E+00
    0.15346E+07        -0.49891E+08         0.00000E+00
    0.00000E+00         0.00000E+00        -0.56829E+08
 
   -0.56787E+08         0.15915E+07         0.00000E+00
    0.15915E+07        -0.49886E+08         0.00000E+00
    0.00000E+00         0.00000E+00        -0.56828E+08
 
   -0.56785E+08         0.16489E+07         0.00000E+00
    0.16489E+07        -0.49881E+08         0.00000E+00
    0.00000E+00         0.00000E+00        -0.56826E+08
 
   -0.56785E+08         0.17069E+07         0.00000E+00
    0.17069E+07        -0.49875E+08         0.00000E+00
    0.00000E+00         0.00000E+00        -0.56825E+08
 
   -0.56784E+08         0.17655E+07         0.00000E+00
    0.17655E+07        -0.49870E+08         0.00000E+00
    0.00000E+00         0.00000E+00        -0.56824E+08
 
   -0.56784E+08         0.18248E+07         0.00000E+00
    0.18248E+07        -0.49865E+08         0.00000E+00
    0.00000E+00         0.00000E+00        -0.56823E+08
 
   -0.56785E+08         0.18846E+07         0.00000E+00
    0.18846E+07        -0.49860E+08         0.00000E+00
    0.00000E+00         0.00000E+00        -0.56822E+08
 
   -0.56785E+08         0.19452E+07         0.00000E+00
    0.19452E+07        -0.49856E+08         0.00000E+00
    0.00000E+00         0.00000E+00        -0.56821E+08
 
   -0.56787E+08         0.20064E+07         0.00000E+00
    0.20064E+07        -0.49851E+08         0.00000E+00
    0.00000E+00         0.00000E+00        -0.56821E+08
 
   -0.56788E+08         0.20682E+07         0.00000E+00
    0.20682E+07        -0.49847E+08         0.00000E+00
    0.00000E+00         0.00000E+00        -0.56820E+08
 
   -0.56790E+08         0.21308E+07         0.00000E+00
    0.21308E+07        -0.49842E+08         0.00000E+00
    0.00000E+00         0.00000E+00        -0.56820E+08
 
   -0.56792E+08         0.21940E+07         0.00000E+00
    0.21940E+07        -0.49838E+08         0.00000E+00
    0.00000E+00         0.00000E+00        -0.56819E+08
 
   -0.56795E+08         0.22579E+07         0.00000E+00
    0.22579E+07        -0.49834E+08         0.00000E+00
    0.00000E+00         0.00000E+00        -0.56819E+08
 
   -0.56797E+08         0.23226E+07         0.00000E+00
    0.23226E+07        -0.49831E+08         0.00000E+00
    0.00000E+00         0.00000E+00        -0.56819E+08
 
   -0.56800E+08         0.23880E+07         0.00000E+00
    0.23880E+07        -0.49827E+08         0.00000E+00
    0.00000E+00         0.00000E+00        -0.56819E+08
 
   -0.56804E+08         0.24541E+07         0.00000E+00
    0.24541E+07        -0.49824E+08         0.00000E+00
    0.00000E+00         0.00000E+00        -0.56819E+08
 
   -0.56807E+08         0.25210E+07         0.00000E+00
    0.25210E+07        -0.49821E+08         0.00000E+00
    0.00000E+00         0.00000E+00        -0.56819E+08
 
   -0.56810E+08         0.25886E+07         0.00000E+00
    0.25886E+07        -0.49818E+08         0.00000E+00
    0.00000E+00         0.00000E+00        -0.56819E+08
 
   -0.56814E+08         0.26570E+07         0.00000E+00
    0.26570E+07        -0.49816E+08         0.00000E+00
    0.00000E+00         0.00000E+00        -0.56819E+08
 
   -0.56818E+08         0.27262E+07         0.00000E+00
    0.27262E+07        -0.49814E+08         0.00000E+00
    0.00000E+00         0.00000E+00        -0.56820E+08
 
   -0.56950E+08         0.24430E+05         0.00000E+00
    0.24430E+05        -0.50000E+08         0.00000E+00
    0.00000E+00         0.00000E+00        -0.56596E+08
 
   -0.56924E+08         0.73134E+05         0.00000E+00
    0.73134E+05        -0.50000E+08         0.00000E+00
    0.00000E+00         0.00000E+00        -0.56590E+08
 
   -0.56898E+08         0.12180E+06         0.00000E+00
    0.12180E+06        -0.50000E+08         0.00000E+00
    0.00000E+00         0.00000E+00        -0.56585E+08
 
   -0.56873E+08         0.17045E+06         0.00000E+00
    0.17045E+06        -0.49999E+08         0.00000E+00
    0.00000E+00         0.00000E+00        -0.56580E+08
 
   -0.56850E+08         0.21912E+06         0.00000E+00
    0.21912E+06        -0.49998E+08         0.00000E+00
    0.00000E+00         0.00000E+00        -0.56575E+08
 
   -0.56827E+08         0.26781E+06         0.00000E+00
    0.26781E+06        -0.49997E+08         0.00000E+00
    0.00000E+00         0.00000E+00        -0.56570E+08
 
   -0.56805E+08         0.31656E+06         0.00000E+00
    0.31656E+06        -0.49995E+08         0.00000E+00
    0.00000E+00         0.00000E+00        -0.56565E+08
 
   -0.56783E+08         0.36540E+06         0.00000E+00
    0.36540E+06        -0.49994E+08         0.00000E+00
    0.00000E+00         0.00000E+00        -0.56561E+08
 
   -0.56763E+08         0.41433E+06         0.00000E+00
    0.41433E+06        -0.49992E+08         0.00000E+00
    0.00000E+00         0.00000E+00        -0.56556E+08
 
   -0.56744E+08         0.46339E+06         0.00000E+00
    0.46339E+06        -0.49990E+08         0.00000E+00
    0.00000E+00         0.00000E+00        -0.56552E+08
 
   -0.56725E+08         0.51259E+06         0.00000E+00
    0.51259E+06        -0.49988E+08         0.00000E+00
    0.00000E+00         0.00000E+00        -0.56548E+08
 
   -0.56707E+08         0.56197E+06         0.00000E+00
    0.56197E+06        -0.49985E+08         0.00000E+00
    0.00000E+00         0.00000E+00        -0.56544E+08
 
   -0.56690E+08         0.61153E+06         0.00000E+00
    0.61153E+06        -0.49983E+08         0.00000E+00
    0.00000E+00         0.00000E+00        -0.56540E+08
 
   -0.56674E+08         0.66131E+06         0.00000E+00
    0.66131E+06        -0.49980E+08         0.00000E+00
    0.00000E+00         0.00000E+00        -0.56536E+08
 
   -0.56659E+08         0.71131E+06         0.00000E+00
    0.71131E+06        -0.49977E+08         0.00000E+00
    0.00000E+00         0.00000E+00        -0.56533E+08
 
   -0.56644E+08         0.76157E+06         0.00000E+00
    0.76157E+06        -0.49974E+08         0.00000E+00
    0.00000E+00         0.00000E+00        -0.56529E+08
 
   -0.56630E+08         0.81210E+06         0.00000E+00
    0.81210E+06        -0.49970E+08         0.00000E+00
    0.00000E+00         0.00000E+00        -0.56526E+08
 
   -0.56617E+08         0.86291E+06         0.00000E+00
    0.86291E+06        -0.49967E+08         0.00000E+00
    0.00000E+00         0.00000E+00        -0.56522E+08
 
   -0.56605E+08         0.91404E+06         0.00000E+00
    0.91404E+06        -0.49964E+08         0.00000E+00
    0.00000E+00         0.00000E+00        -0.56519E+08
 
   -0.56593E+08         0.96549E+06         0.00000E+00
    0.96549E+06        -0.49960E+08         0.00000E+00
    0.00000E+00         0.00000E+00        -0.56516E+08
 
   -0.56582E+08         0.10173E+07         0.00000E+00
    0.10173E+07        -0.49956E+08         0.00000E+00
    0.00000E+00         0.00000E+00        -0.56513E+08
 
   -0.56572E+08         0.10694E+07         0.00000E+00
    0.10694E+07        -0.49952E+08         0.00000E+00
    0.00000E+00         0.00000E+00        -0.56510E+08
 
   -0.56562E+08         0.11220E+07         0.00000E+00
    0.11220E+07        -0.49949E+08         0.00000E+00
    0.00000E+00         0.00000E+00        -0.56508E+08
 
   -0.56553E+08         0.11749E+07         0.00000E+00
    0.11749E+07        -0.49945E+08         0.00000E+00
    0.00000E+00         0.00000E+00        -0.56505E+08
 
   -0.56545E+08         0.12282E+07         0.00000E+00
    0.12282E+07        -0.49941E+08         0.00000E+00
    0.00000E+00         0.00000E+00        -0.56503E+08
 
   -0.56537E+08         0.12820E+07         0.00000E+00
    0.12820E+07        -0.49937E+08         0.00000E+00
    0.00000E+00         0.00000E+00        -0.56500E+08
 
   -0.56530E+08         0.13361E+07         0.00000E+00
    0.13361E+07        -0.49933E+08         0.00000E+00
    0.00000E+00         0.00000E+00        -0.56498E+08
 
   -0.56523E+08         0.13908E+07         0.00000E+00
    0.13908E+07        -0.49929E+08         0.00000E+00
    0.00000E+00         0.00000E+00        -0.56496E+08
 
   -0.56517E+08         0.14459E+07         0.00000E+00
    0.14459E+07        -0.49925E+08         0.00000E+00
    0.00000E+00         0.00000E+00        -0.56494E+08
 
   -0.56512E+08         0.15014E+07         0.00000E+00
    0.15014E+07        -0.49921E+08         0.00000E+00
    0.00000E+00         0.00000E+00        -0.56492E+08
 
   -0.56507E+08         0.15575E+07         0.00000E+00
    0.15575E+07        -0.49917E+08         0.00000E+00
    0.00000E+00         0.00000E+00        -0.56490E+08
 
   -0.56502E+08         0.16141E+07         0.00000E+00
    0.16141E+07        -0.49913E+08         0.00000E+00
    0.00000E+00         0.00000E+00        -0.56488E+08
 
   -0.56498E+08         0.16712E+07         0.00000E+00
    0.16712E+07        -0.49909E+08         0.00000E+00
    0.00000E+00         0.00000E+00        -0.56487E+08
 
   -0.56494E+08         0.17288E+07         0.00000E+00
    0.17288E+07        -0.49905E+08         0.00000E+00
    0.00000E+00         0.00000E+00        -0.56485E+08
 
   -0.56491E+08         0.17869E+07         0.00000E+00
    0.17869E+07        -0.49902E+08         0.00000E+00
    0.00000E+00         0.00000E+00        -0.56484E+08
 
   -0.56488E+08         0.18456E+07         0.00000E+00
    0.18456E+07        -0.49898E+08         0.00000E+00
    0.00000E+00         0.00000E+00        -0.56483E+08
 
   -0.56485E+08         0.19049E+07         0.00000E+00
    0.19049E+07        -0.49895E+08         0.00000E+00
    0.00000E+00         0.00000E+00        -0.56482E+08
 
   -0.56483E+08         0.19647E+07         0.00000E+00
    0.19647E+07        -0.49892E+08         0.00000E+00
    0.00000E+00         0.00000E+00        -0.56480E+08
 
   -0.56481E+08         0.20251E+07         0.00000E+00
    0.20251E+07        -0.49889E+08         0.00000E+00
    0.00000E+00         0.00000E+00        -0.56479E+08
 
   -0.56479E+08         0.20861E+07         0.00000E+00
    0.20861E+07        -0.49886E+08         0.00000E+00
    0.00000E+00         0.00000E+00        -0.56478E+08
 
   -0.56478E+08         0.21478E+07         0.00000E+00
    0.21478E+07        -0.49883E+08         0.00000E+00
    0.00000E+00         0.00000E+00        -0.56478E+08
 
   -0.56477E+08         0.22100E+07         0.00000E+00
    0.22100E+07        -0.49880E+08         0.00000E+00
    0.00000E+00         0.00000E+00        -0.56477E+08
 
   -0.56476E+08         0.22729E+07         0.00000E+00
    0.22729E+07        -0.49878E+08         0.00000E+00
    0.00000E+00         0.00000E+00        -0.56476E+08
 
   -0.56475E+08         0.23364E+07         0.00000E+00
    0.23364E+07        -0.49876E+08         0.00000E+00
    0.00000E+00         0.00000E+00        -0.56476E+08
 
   -0.56475E+08         0.24005E+07         0.00000E+00
    0.24005E+07        -0.49874E+08         0.00000E+00
    0.00000E+00         0.00000E+00        -0.56475E+08
 
   -0.56474E+08         0.24653E+07         0.00000E+00
    0.24653E+07        -0.49872E+08         0.00000E+00
    0.00000E+00         0.00000E+00        -0.56475E+08
 
   -0.56474E+08         0.25308E+07         0.00000E+00
    0.25308E+07        -0.49871E+08         0.00000E+00
    0.00000E+00         0.00000E+00        -0.56475E+08
 
   -0.56474E+08         0.25969E+07         0.00000E+00
    0.25969E+07        -0.49870E+08         0.00000E+00
    0.00000E+00         0.00000E+00        -0.56474E+08
 
   -0.56474E+08         0.26638E+07         0.00000E+00
    0.26638E+07        -0.49869E+08         0.00000E+00
    0.00000E+00         0.00000E+00        -0.56474E+08
 
   -0.56474E+08         0.27313E+07         0.00000E+00
    0.27313E+07        -0.49869E+08         0.00000E+00
    0.00000E+00         0.00000E+00        -0.56474E+08
 
   -0.56704E+08         0.24952E+05         0.00000E+00
    0.24952E+05        -0.50000E+08         0.00000E+00
    0.00000E+00         0.00000E+00        -0.56267E+08
 
   -0.56678E+08         0.74700E+05         0.00000E+00
    0.74700E+05        -0.50000E+08         0.00000E+00
    0.00000E+00         0.00000E+00        -0.56262E+08
 
   -0.56652E+08         0.12441E+06         0.00000E+00
    0.12441E+06        -0.50000E+08         0.00000E+00
    0.00000E+00         0.00000E+00        -0.56257E+08
 
   -0.56627E+08         0.17409E+06         0.00000E+00
    0.17409E+06        -0.49999E+08         0.00000E+00
    0.00000E+00         0.00000E+00        -0.56252E+08
 
   -0.56604E+08         0.22377E+06         0.00000E+00
    0.22377E+06        -0.49998E+08         0.00000E+00
    0.00000E+00         0.00000E+00        -0.56247E+08
 
   -0.56580E+08         0.27346E+06         0.00000E+00
    0.27346E+06        -0.49998E+08         0.00000E+00
    0.00000E+00         0.00000E+00        -0.56242E+08
 
   -0.56558E+08         0.32319E+06         0.00000E+00
    0.32319E+06        -0.49996E+08         0.00000E+00
    0.00000E+00         0.00000E+00        -0.56237E+08
 
   -0.56536E+08         0.37298E+06         0.00000E+00
    0.37298E+06        -0.49995E+08         0.00000E+00
    0.00000E+00         0.00000E+00        -0.56233E+08
 
   -0.56516E+08         0.42283E+06         0.00000E+00
    0.42283E+06        -0.49994E+08         0.00000E+00
    0.00000E+00         0.00000E+00        -0.56228E+08
 
   -0.56496E+08         0.47278E+06         0.00000E+00
    0.47278E+06        -0.49992E+08         0.00000E+00
    0.00000E+00         0.00000E+00        -0.56224E+08
 
   -0.56476E+08         0.52284E+06         0.00000E+00
    0.52284E+06        -0.49991E+08         0.00000E+00
    0.00000E+00         0.00000E+00        -0.56220E+08
 
   -0.56458E+08         0.57303E+06         0.00000E+00
    0.57303E+06        -0.49989E+08         0.00000E+00
    0.00000E+00         0.00000E+00        -0.56216E+08
 
   -0.56440E+08         0.62337E+06         0.00000E+00
    0.62337E+06        -0.49987E+08         0.00000E+00
    0.00000E+00         0.00000E+00        -0.56212E+08
 
   -0.56423E+08         0.67388E+06         0.00000E+00
    0.67388E+06        -0.49985E+08         0.00000E+00
    0.00000E+00         0.00000E+00        -0.56208E+08
 
   -0.56406E+08         0.72457E+06         0.00000E+00
    0.72457E+06        -0.49982E+08         0.00000E+00
    0.00000E+00         0.00000E+00        -0.56204E+08
 
   -0.56390E+08         0.77546E+06         0.00000E+00
    0.77546E+06        -0.49980E+08         0.00000E+00
    0.00000E+00         0.00000E+00        -0.56200E+08
 
   -0.56375E+08         0.82657E+06         0.00000E+00
    0.82657E+06        -0.49978E+08         0.00000E+00
    0.00000E+00         0.00000E+00        -0.56197E+08
 
   -0.56361E+08         0.87792E+06         0.00000E+00
    0.87792E+06        -0.49975E+08         0.00000E+00
    0.00000E+00         0.00000E+00        -0.56194E+08
 
   -0.56347E+08         0.92951E+06         0.00000E+00
    0.92951E+06        -0.49972E+08         0.00000E+00
    0.00000E+00         0.00000E+00        -0.56190E+08
 
   -0.56334E+08         0.98138E+06         0.00000E+00
    0.98138E+06        -0.49970E+08         0.00000E+00
    0.00000E+00         0.00000E+00        -0.56187E+08
 
   -0.56321E+08         0.10335E+07         0.00000E+00
    0.10335E+07        -0.49967E+08         0.00000E+00
    0.00000E+00         0.00000E+00        -0.56184E+08
 
   -0.56309E+08         0.10860E+07         0.00000E+00
    0.10860E+07        -0.49964E+08         0.00000E+00
    0.00000E+00         0.00000E+00        -0.56181E+08
 
   -0.56298E+08         0.11387E+07         0.00000E+00
    0.11387E+07        -0.49961E+08         0.00000E+00
    0.00000E+00         0.00000E+00        -0.56178E+08
 
   -0.56287E+08         0.11918E+07         0.00000E+00
    0.11918E+07        -0.49958E+08         0.00000E+00
    0.00000E+00         0.00000E+00        -0.56175E+08
 
   -0.56277E+08         0.12453E+07         0.00000E+00
    0.12453E+07        -0.49955E+08         0.00000E+00
    0.00000E+00         0.00000E+00        -0.56173E+08
 
   -0.56267E+08         0.12991E+07         0.00000E+00
    0.12991E+07        -0.49953E+08         0.00000E+00
    0.00000E+00         0.00000E+00        -0.56170E+08
 
   -0.56258E+08         0.13532E+07         0.00000E+00
    0.13532E+07        -0.49950E+08         0.00000E+00
    0.00000E+00         0.00000E+00        -0.56168E+08
 
   -0.56249E+08         0.14078E+07         0.00000E+00
    0.14078E+07        -0.49947E+08         0.00000E+00
    0.00000E+00         0.00000E+00        -0.56166E+08
 
   -0.56241E+08         0.14627E+07         0.00000E+00
    0.14627E+07        -0.49944E+08         0.00000E+00
    0.00000E+00         0.00000E+00        -0.56163E+08
 
   -0.56233E+08         0.15181E+07         0.00000E+00
    0.15181E+07        -0.49941E+08         0.00000E+00
    0.00000E+00         0.00000E+00        -0.56161E+08
 
   -0.56226E+08         0.15739E+07         0.00000E+00
    0.15739E+07        -0.49939E+08         0.00000E+00
    0.00000E+00         0.00000E+00        -0.56159E+08
 
   -0.56219E+08         0.16301E+07         0.00000E+00
    0.16301E+07        -0.49936E+08         0.00000E+00
    0.00000E+00         0.00000E+00        -0.56157E+08
 
   -0.56212E+08         0.16867E+07         0.00000E+00
    0.16867E+07        -0.49933E+08         0.00000E+00
    0.00000E+00         0.00000E+00        -0.56155E+08
 
   -0.56206E+08         0.17439E+07         0.00000E+00
    0.17439E+07        -0.49931E+08         0.00000E+00
    0.00000E+00         0.00000E+00        -0.56154E+08
 
   -0.56200E+08         0.18014E+07         0.00000E+00
    0.18014E+07        -0.49929E+08         0.00000E+00
    0.00000E+00         0.00000E+00        -0.56152E+08
 
   -0.56194E+08         0.18595E+07         0.00000E+00
    0.18595E+07        -0.49926E+08         0.00000E+00
    0.00000E+00         0.00000E+00        -0.56150E+08
 
   -0.56189E+08         0.19181E+07         0.00000E+00
    0.19181E+07        -0.49924E+08         0.00000E+00
    0.00000E+00         0.00000E+00        -0.56149E+08
 
   -0.56184E+08         0.19771E+07         0.00000E+00
    0.19771E+07        -0.49922E+08         0.00000E+00
    0.00000E+00         0.00000E+00        -0.56148E+08
 
   -0.56180E+08         0.20367E+07         0.00000E+00
    0.20367E+07        -0.49921E+08         0.00000E+00
    0.00000E+00         0.00000E+00        -0.56146E+08
 
   -0.56175E+08         0.20968E+07         0.00000E+00
    0.20968E+07        -0.49919E+08         0.00000E+00
    0.00000E+00         0.00000E+00        -0.56145E+08
 
   -0.56171E+08         0.21574E+07         0.00000E+00
    0.21574E+07        -0.49918E+08         0.00000E+00
    0.00000E+00         0.00000E+00        -0.56144E+08
 
   -0.56167E+08         0.22186E+07         0.00000E+00
    0.22186E+07        -0.49917E+08         0.00000E+00
    0.00000E+00         0.00000E+00        -0.56143E+08
 
   -0.56163E+08         0.22803E+07         0.00000E+00
    0.22803E+07        -0.49916E+08         0.00000E+00
    0.00000E+00         0.00000E+00        -0.56142E+08
 
   -0.56159E+08         0.23426E+07         0.00000E+00
    0.23426E+07        -0.49915E+08         0.00000E+00
    0.00000E+00         0.00000E+00        -0.56141E+08
 
   -0.56156E+08         0.24054E+07         0.00000E+00
    0.24054E+07        -0.49914E+08         0.00000E+00
    0.00000E+00         0.00000E+00        -0.56140E+08
 
   -0.56152E+08         0.24689E+07         0.00000E+00
    0.24689E+07        -0.49914E+08         0.00000E+00
    0.00000E+00         0.00000E+00        -0.56140E+08
 
   -0.56149E+08         0.25329E+07         0.00000E+00
    0.25329E+07        -0.49914E+08         0.00000E+00
    0.00000E+00         0.00000E+00        -0.56139E+08
 
   -0.56145E+08         0.25975E+07         0.00000E+00
    0.25975E+07        -0.49915E+08         0.00000E+00
    0.00000E+00         0.00000E+00        -0.56138E+08
 
   -0.56142E+08         0.26628E+07         0.00000E+00
    0.26628E+07        -0.49916E+08         0.00000E+00
    0.00000E+00         0.00000E+00        -0.56138E+08
 
   -0.56139E+08         0.27286E+07         0.00000E+00
    0.27286E+07        -0.49917E+08         0.00000E+00
    0.00000E+00         0.00000E+00        -0.56137E+08
 
   -0.56453E+08         0.25355E+05         0.00000E+00
    0.25355E+05        -0.50000E+08         0.00000E+00
    0.00000E+00         0.00000E+00        -0.55946E+08
 
   -0.56427E+08         0.75903E+05         0.00000E+00
    0.75903E+05        -0.50000E+08         0.00000E+00
    0.00000E+00         0.00000E+00        -0.55941E+08
 
   -0.56402E+08         0.12640E+06         0.00000E+00
    0.12640E+06        -0.50000E+08         0.00000E+00
    0.00000E+00         0.00000E+00        -0.55936E+08
 
   -0.56377E+08         0.17687E+06         0.00000E+00
    0.17687E+06        -0.49999E+08         0.00000E+00
    0.00000E+00         0.00000E+00        -0.55931E+08
 
   -0.56353E+08         0.22732E+06         0.00000E+00
    0.22732E+06        -0.49999E+08         0.00000E+00
    0.00000E+00         0.00000E+00        -0.55926E+08
 
   -0.56330E+08         0.27777E+06         0.00000E+00
    0.27777E+06        -0.49998E+08         0.00000E+00
    0.00000E+00         0.00000E+00        -0.55921E+08
 
   -0.56307E+08         0.32823E+06         0.00000E+00
    0.32823E+06        -0.49997E+08         0.00000E+00
    0.00000E+00         0.00000E+00        -0.55917E+08
 
   -0.56286E+08         0.37873E+06         0.00000E+00
    0.37873E+06        -0.49996E+08         0.00000E+00
    0.00000E+00         0.00000E+00        -0.55912E+08
 
   -0.56264E+08         0.42927E+06         0.00000E+00
    0.42927E+06        -0.49995E+08         0.00000E+00
    0.00000E+00         0.00000E+00        -0.55908E+08
 
   -0.56244E+08         0.47988E+06         0.00000E+00
    0.47988E+06        -0.49994E+08         0.00000E+00
    0.00000E+00         0.00000E+00        -0.55903E+08
 
   -0.56224E+08         0.53057E+06         0.00000E+00
    0.53057E+06        -0.49993E+08         0.00000E+00
    0.00000E+00         0.00000E+00        -0.55899E+08
 
   -0.56205E+08         0.58135E+06         0.00000E+00
    0.58135E+06        -0.49992E+08         0.00000E+00
    0.00000E+00         0.00000E+00        -0.55895E+08
 
   -0.56186E+08         0.63225E+06         0.00000E+00
    0.63225E+06        -0.49990E+08         0.00000E+00
    0.00000E+00         0.00000E+00        -0.55891E+08
 
   -0.56168E+08         0.68328E+06         0.00000E+00
    0.68328E+06        -0.49989E+08         0.00000E+00
    0.00000E+00         0.00000E+00        -0.55887E+08
 
   -0.56151E+08         0.73445E+06         0.00000E+00
    0.73445E+06        -0.49987E+08         0.00000E+00
    0.00000E+00         0.00000E+00        -0.55883E+08
 
   -0.56134E+08         0.78578E+06         0.00000E+00
    0.78578E+06        -0.49985E+08         0.00000E+00
    0.00000E+00         0.00000E+00        -0.55880E+08
 
   -0.56118E+08         0.83728E+06         0.00000E+00
    0.83728E+06        -0.49983E+08         0.00000E+00
    0.00000E+00         0.00000E+00        -0.55876E+08
 
   -0.56103E+08         0.88897E+06         0.00000E+00
    0.88897E+06        -0.49982E+08         0.00000E+00
    0.00000E+00         0.00000E+00        -0.55873E+08
 
   -0.56088E+08         0.94087E+06         0.00000E+00
    0.94087E+06        -0.49980E+08         0.00000E+00
    0.00000E+00         0.00000E+00        -0.55869E+08
 
   -0.56073E+08         0.99298E+06         0.00000E+00
    0.99298E+06        -0.49978E+08         0.00000E+00
    0.00000E+00         0.00000E+00        -0.55866E+08
 
   -0.56059E+08         0.10453E+07         0.00000E+00
    0.10453E+07        -0.49976E+08         0.00000E+00
    0.00000E+00         0.00000E+00        -0.55863E+08
 
   -0.56046E+08         0.10979E+07         0.00000E+00
    0.10979E+07        -0.49974E+08         0.00000E+00
    0.00000E+00         0.00000E+00        -0.55860E+08
 
   -0.56033E+08         0.11508E+07         0.00000E+00
    0.11508E+07        -0.49972E+08         0.00000E+00
    0.00000E+00         0.00000E+00        -0.55857E+08
 
   -0.56021E+08         0.12039E+07         0.00000E+00
    0.12039E+07        -0.49970E+08         0.00000E+00
    0.00000E+00         0.00000E+00        -0.55854E+08
 
   -0.56009E+08         0.12573E+07         0.00000E+00
    0.12573E+07        -0.49968E+08         0.00000E+00
    0.00000E+00         0.00000E+00        -0.55851E+08
 
   -0.55998E+08         0.13110E+07         0.00000E+00
    0.13110E+07        -0.49966E+08         0.00000E+00
    0.00000E+00         0.00000E+00        -0.55848E+08
 
   -0.55987E+08         0.13651E+07         0.00000E+00
    0.13651E+07        -0.49964E+08         0.00000E+00
    0.00000E+00         0.00000E+00        -0.55846E+08
 
   -0.55976E+08         0.14194E+07         0.00000E+00
    0.14194E+07        -0.49962E+08         0.00000E+00
    0.00000E+00         0.00000E+00        -0.55843E+08
 
   -0.55966E+08         0.14741E+07         0.00000E+00
    0.14741E+07        -0.49960E+08         0.00000E+00
    0.00000E+00         0.00000E+00        -0.55841E+08
 
   -0.55956E+08         0.15291E+07         0.00000E+00
    0.15291E+07        -0.49959E+08         0.00000E+00
    0.00000E+00         0.00000E+00        -0.55839E+08
 
   -0.55947E+08         0.15845E+07         0.00000E+00
    0.15845E+07        -0.49957E+08         0.00000E+00
    0.00000E+00         0.00000E+00        -0.55836E+08
 
   -0.55938E+08         0.16403E+07         0.00000E+00
    0.16403E+07        -0.49955E+08         0.00000E+00
    0.00000E+00         0.00000E+00        -0.55834E+08
 
   -0.55929E+08         0.16964E+07         0.00000E+00
    0.16964E+07        -0.49954E+08         0.00000E+00
    0.00000E+00         0.00000E+00        -0.55832E+08
 
   -0.55921E+08         0.17530E+07         0.00000E+00
    0.17530E+07        -0.49953E+08         0.00000E+00
    0.00000E+00         0.00000E+00        -0.55830E+08
 
   -0.55913E+08         0.18099E+07         0.00000E+00
    0.18099E+07        -0.49951E+08         0.00000E+00
    0.00000E+00         0.00000E+00        -0.55828E+08
 
   -0.55905E+08         0.18672E+07         0.00000E+00
    0.18672E+07        -0.49950E+08         0.00000E+00
    0.00000E+00         0.00000E+00        -0.55827E+08
 
   -0.55897E+08         0.19250E+07         0.00000E+00
    0.19250E+07        -0.49949E+08         0.00000E+00
    0.00000E+00         0.00000E+00        -0.55825E+08
 
   -0.55890E+08         0.19832E+07         0.00000E+00
    0.19832E+07        -0.49949E+08         0.00000E+00
    0.00000E+00         0.00000E+00        -0.55823E+08
 
   -0.55883E+08         0.20419E+07         0.00000E+00
    0.20419E+07        -0.49948E+08         0.00000E+00
    0.00000E+00         0.00000E+00        -0.55822E+08
 
   -0.55876E+08         0.21010E+07         0.00000E+00
    0.21010E+07        -0.49948E+08         0.00000E+00
    0.00000E+00         0.00000E+00        -0.55820E+08
 
   -0.55869E+08         0.21606E+07         0.00000E+00
    0.21606E+07        -0.49948E+08         0.00000E+00
    0.00000E+00         0.00000E+00        -0.55819E+08
 
   -0.55862E+08         0.22206E+07         0.00000E+00
    0.22206E+07        -0.49948E+08         0.00000E+00
    0.00000E+00         0.00000E+00        -0.55818E+08
 
   -0.55856E+08         0.22811E+07         0.00000E+00
    0.22811E+07        -0.49948E+08         0.00000E+00
    0.00000E+00         0.00000E+00        -0.55816E+08
 
   -0.55850E+08         0.23421E+07         0.00000E+00
    0.23421E+07        -0.49948E+08         0.00000E+00
    0.00000E+00         0.00000E+00        -0.55815E+08
 
   -0.55843E+08         0.24036E+07         0.00000E+00
    0.24036E+07        -0.49949E+08         0.00000E+00
    0.00000E+00         0.00000E+00        -0.55814E+08
 
   -0.55837E+08         0.24656E+07         0.00000E+00
    0.24656E+07        -0.49950E+08         0.00000E+00
    0.00000E+00         0.00000E+00        -0.55813E+08
 
   -0.55831E+08         0.25282E+07         0.00000E+00
    0.25282E+07        -0.49952E+08         0.00000E+00
    0.00000E+00         0.00000E+00        -0.55812E+08
 
   -0.55825E+08         0.25912E+07         0.00000E+00
    0.25912E+07        -0.49954E+08         0.00000E+00
    0.00000E+00         0.00000E+00        -0.55811E+08
 
   -0.55819E+08         0.26548E+07         0.00000E+00
    0.26548E+07        -0.49956E+08         0.00000E+00
    0.00000E+00         0.00000E+00        -0.55811E+08
 
   -0.55813E+08         0.27189E+07         0.00000E+00
    0.27189E+07        -0.49958E+08         0.00000E+00
    0.00000E+00         0.00000E+00        -0.55810E+08
 
   -0.56198E+08         0.25662E+05         0.00000E+00
    0.25662E+05        -0.50000E+08         0.00000E+00
    0.00000E+00         0.00000E+00        -0.55633E+08
 
   -0.56173E+08         0.76811E+05         0.00000E+00
    0.76811E+05        -0.50000E+08         0.00000E+00
    0.00000E+00         0.00000E+00        -0.55628E+08
 
   -0.56148E+08         0.12790E+06         0.00000E+00
    0.12790E+06        -0.50000E+08         0.00000E+00
    0.00000E+00         0.00000E+00        -0.55623E+08
 
   -0.56123E+08         0.17895E+06         0.00000E+00
    0.17895E+06        -0.50000E+08         0.00000E+00
    0.00000E+00         0.00000E+00        -0.55618E+08
 
   -0.56099E+08         0.22997E+06         0.00000E+00
    0.22997E+06        -0.49999E+08         0.00000E+00
    0.00000E+00         0.00000E+00        -0.55613E+08
 
   -0.56076E+08         0.28097E+06         0.00000E+00
    0.28097E+06        -0.49999E+08         0.00000E+00
    0.00000E+00         0.00000E+00        -0.55609E+08
 
   -0.56054E+08         0.33197E+06         0.00000E+00
    0.33197E+06        -0.49998E+08         0.00000E+00
    0.00000E+00         0.00000E+00        -0.55604E+08
 
   -0.56032E+08         0.38297E+06         0.00000E+00
    0.38297E+06        -0.49997E+08         0.00000E+00
    0.00000E+00         0.00000E+00        -0.55599E+08
 
   -0.56010E+08         0.43401E+06         0.00000E+00
    0.43401E+06        -0.49997E+08         0.00000E+00
    0.00000E+00         0.00000E+00        -0.55595E+08
 
   -0.55989E+08         0.48508E+06         0.00000E+00
    0.48508E+06        -0.49996E+08         0.00000E+00
    0.00000E+00         0.00000E+00        -0.55591E+08
 
   -0.55969E+08         0.53620E+06         0.00000E+00
    0.53620E+06        -0.49995E+08         0.00000E+00
    0.00000E+00         0.00000E+00        -0.55586E+08
 
   -0.55950E+08         0.58740E+06         0.00000E+00
    0.58740E+06        -0.49994E+08         0.00000E+00
    0.00000E+00         0.00000E+00        -0.55582E+08
 
   -0.55931E+08         0.63867E+06         0.00000E+00
    0.63867E+06        -0.49993E+08         0.00000E+00
    0.00000E+00         0.00000E+00        -0.55578E+08
 
   -0.55912E+08         0.69003E+06         0.00000E+00
    0.69003E+06        -0.49992E+08         0.00000E+00
    0.00000E+00         0.00000E+00        -0.55574E+08
 
   -0.55894E+08         0.74151E+06         0.00000E+00
    0.74151E+06        -0.49991E+08         0.00000E+00
    0.00000E+00         0.00000E+00        -0.55570E+08
 
   -0.55877E+08         0.79310E+06         0.00000E+00
    0.79310E+06        -0.49990E+08         0.00000E+00
    0.00000E+00         0.00000E+00        -0.55567E+08
 
   -0.55860E+08         0.84483E+06         0.00000E+00
    0.84483E+06        -0.49988E+08         0.00000E+00
    0.00000E+00         0.00000E+00        -0.55563E+08
 
   -0.55843E+08         0.89671E+06         0.00000E+00
    0.89671E+06        -0.49987E+08         0.00000E+00
    0.00000E+00         0.00000E+00        -0.55560E+08
 
   -0.55827E+08         0.94875E+06         0.00000E+00
    0.94875E+06        -0.49986E+08         0.00000E+00
    0.00000E+00         0.00000E+00        -0.55556E+08
 
   -0.55812E+08         0.10010E+07         0.00000E+00
    0.10010E+07        -0.49984E+08         0.00000E+00
    0.00000E+00         0.00000E+00        -0.55553E+08
 
   -0.55797E+08         0.10534E+07         0.00000E+00
    0.10534E+07        -0.49983E+08         0.00000E+00
    0.00000E+00         0.00000E+00        -0.55550E+08
 
   -0.55782E+08         0.11060E+07         0.00000E+00
    0.11060E+07        -0.49982E+08         0.00000E+00
    0.00000E+00         0.00000E+00        -0.55546E+08
 
   -0.55768E+08         0.11588E+07         0.00000E+00
    0.11588E+07        -0.49981E+08         0.00000E+00
    0.00000E+00         0.00000E+00        -0.55543E+08
 
   -0.55755E+08         0.12118E+07         0.00000E+00
    0.12118E+07        -0.49979E+08         0.00000E+00
    0.00000E+00         0.00000E+00        -0.55540E+08
 
   -0.55742E+08         0.12651E+07         0.00000E+00
    0.12651E+07        -0.49978E+08         0.00000E+00
    0.00000E+00         0.00000E+00        -0.55537E+08
 
   -0.55729E+08         0.13186E+07         0.00000E+00
    0.13186E+07        -0.49977E+08         0.00000E+00
    0.00000E+00         0.00000E+00        -0.55535E+08
 
   -0.55716E+08         0.13723E+07         0.00000E+00
    0.13723E+07        -0.49976E+08         0.00000E+00
    0.00000E+00         0.00000E+00        -0.55532E+08
 
   -0.55704E+08         0.14264E+07         0.00000E+00
    0.14264E+07        -0.49975E+08         0.00000E+00
    0.00000E+00         0.00000E+00        -0.55529E+08
 
   -0.55693E+08         0.14807E+07         0.00000E+00
    0.14807E+07        -0.49974E+08         0.00000E+00
    0.00000E+00         0.00000E+00        -0.55527E+08
 
   -0.55681E+08         0.15353E+07         0.00000E+00
    0.15353E+07        -0.49973E+08         0.00000E+00
    0.00000E+00         0.00000E+00        -0.55524E+08
 
   -0.55670E+08         0.15902E+07         0.00000E+00
    0.15902E+07        -0.49972E+08         0.00000E+00
    0.00000E+00         0.00000E+00        -0.55522E+08
 
   -0.55659E+08         0.16454E+07         0.00000E+00
    0.16454E+07        -0.49972E+08         0.00000E+00
    0.00000E+00         0.00000E+00        -0.55520E+08
 
   -0.55649E+08         0.17010E+07         0.00000E+00
    0.17010E+07        -0.49971E+08         0.00000E+00
    0.00000E+00         0.00000E+00        -0.55518E+08
 
   -0.55639E+08         0.17568E+07         0.00000E+00
    0.17568E+07        -0.49971E+08         0.00000E+00
    0.00000E+00         0.00000E+00        -0.55515E+08
 
   -0.55629E+08         0.18131E+07         0.00000E+00
    0.18131E+07        -0.49971E+08         0.00000E+00
    0.00000E+00         0.00000E+00        -0.55513E+08
 
   -0.55619E+08         0.18696E+07         0.00000E+00
    0.18696E+07        -0.49971E+08         0.00000E+00
    0.00000E+00         0.00000E+00        -0.55511E+08
 
   -0.55609E+08         0.19266E+07         0.00000E+00
    0.19266E+07        -0.49971E+08         0.00000E+00
    0.00000E+00         0.00000E+00        -0.55510E+08
 
   -0.55600E+08         0.19838E+07         0.00000E+00
    0.19838E+07        -0.49971E+08         0.00000E+00
    0.00000E+00         0.00000E+00        -0.55508E+08
 
   -0.55591E+08         0.20415E+07         0.00000E+00
    0.20415E+07        -0.49971E+08         0.00000E+00
    0.00000E+00         0.00000E+00        -0.55506E+08
 
   -0.55582E+08         0.20996E+07         0.00000E+00
    0.20996E+07        -0.49972E+08         0.00000E+00
    0.00000E+00         0.00000E+00        -0.55504E+08
 
   -0.55573E+08         0.21580E+07         0.00000E+00
    0.21580E+07        -0.49973E+08         0.00000E+00
    0.00000E+00         0.00000E+00        -0.55503E+08
 
   -0.55564E+08         0.22169E+07         0.00000E+00
    0.22169E+07        -0.49974E+08         0.00000E+00
    0.00000E+00         0.00000E+00        -0.55501E+08
 
   -0.55555E+08         0.22761E+07         0.00000E+00
    0.22761E+07        -0.49976E+08         0.00000E+00
    0.00000E+00         0.00000E+00        -0.55500E+08
 
   -0.55547E+08         0.23358E+07         0.00000E+00
    0.23358E+07        -0.49977E+08         0.00000E+00
    0.00000E+00         0.00000E+00        -0.55498E+08
 
   -0.55538E+08         0.23959E+07         0.00000E+00
    0.23959E+07        -0.49979E+08         0.00000E+00
    0.00000E+00         0.00000E+00        -0.55497E+08
 
   -0.55530E+08         0.24565E+07         0.00000E+00
    0.24565E+07        -0.49981E+08         0.00000E+00
    0.00000E+00         0.00000E+00        -0.55496E+08
 
   -0.55521E+08         0.25174E+07         0.00000E+00
    0.25174E+07        -0.49984E+08         0.00000E+00
    0.00000E+00         0.00000E+00        -0.55494E+08
 
   -0.55512E+08         0.25789E+07         0.00000E+00
    0.25789E+07        -0.49987E+08         0.00000E+00
    0.00000E+00         0.00000E+00        -0.55493E+08
 
   -0.55504E+08         0.26407E+07         0.00000E+00
    0.26407E+07        -0.49990E+08         0.00000E+00
    0.00000E+00         0.00000E+00        -0.55492E+08
 
   -0.55495E+08         0.27031E+07         0.00000E+00
    0.27031E+07        -0.49993E+08         0.00000E+00
    0.00000E+00         0.00000E+00        -0.55491E+08
 
   -0.55941E+08         0.25891E+05         0.00000E+00
    0.25891E+05        -0.50000E+08         0.00000E+00
    0.00000E+00         0.00000E+00        -0.55328E+08
 
   -0.55916E+08         0.77479E+05         0.00000E+00
    0.77479E+05        -0.50000E+08         0.00000E+00
    0.00000E+00         0.00000E+00        -0.55323E+08
 
   -0.55891E+08         0.12900E+06         0.00000E+00
    0.12900E+06        -0.50000E+08         0.00000E+00
    0.00000E+00         0.00000E+00        -0.55318E+08
 
   -0.55867E+08         0.18046E+06         0.00000E+00
    0.18046E+06        -0.50000E+08         0.00000E+00
    0.00000E+00         0.00000E+00        -0.55313E+08
 
   -0.55843E+08         0.23188E+06         0.00000E+00
    0.23188E+06        -0.50000E+08         0.00000E+00
    0.00000E+00         0.00000E+00        -0.55308E+08
 
   -0.55820E+08         0.28326E+06         0.00000E+00
    0.28326E+06        -0.49999E+08         0.00000E+00
    0.00000E+00         0.00000E+00        -0.55304E+08
 
   -0.55798E+08         0.33463E+06         0.00000E+00
    0.33463E+06        -0.49999E+08         0.00000E+00
    0.00000E+00         0.00000E+00        -0.55299E+08
 
   -0.55776E+08         0.38598E+06         0.00000E+00
    0.38598E+06        -0.49998E+08         0.00000E+00
    0.00000E+00         0.00000E+00        -0.55295E+08
 
   -0.55754E+08         0.43734E+06         0.00000E+00
    0.43734E+06        -0.49998E+08         0.00000E+00
    0.00000E+00         0.00000E+00        -0.55290E+08
 
   -0.55733E+08         0.48871E+06         0.00000E+00
    0.48871E+06        -0.49997E+08         0.00000E+00
    0.00000E+00         0.00000E+00        -0.55286E+08
 
   -0.55713E+08         0.54011E+06         0.00000E+00
    0.54011E+06        -0.49997E+08         0.00000E+00
    0.00000E+00         0.00000E+00        -0.55282E+08
 
   -0.55693E+08         0.59154E+06         0.00000E+00
    0.59154E+06        -0.49996E+08         0.00000E+00
    0.00000E+00         0.00000E+00        -0.55278E+08
 
   -0.55673E+08         0.64303E+06         0.00000E+00
    0.64303E+06        -0.49995E+08         0.00000E+00
    0.00000E+00         0.00000E+00        -0.55274E+08
 
   -0.55654E+08         0.69458E+06         0.00000E+00
    0.69458E+06        -0.49995E+08         0.00000E+00
    0.00000E+00         0.00000E+00        -0.55270E+08
 
   -0.55636E+08         0.74621E+06         0.00000E+00
    0.74621E+06        -0.49994E+08         0.00000E+00
    0.00000E+00         0.00000E+00        -0.55266E+08
 
   -0.55618E+08         0.79792E+06         0.00000E+00
    0.79792E+06        -0.49993E+08         0.00000E+00
    0.00000E+00         0.00000E+00        -0.55262E+08
 
   -0.55600E+08         0.84974E+06         0.00000E+00
    0.84974E+06        -0.49992E+08         0.00000E+00
    0.00000E+00         0.00000E+00        -0.55258E+08
 
   -0.55583E+08         0.90166E+06         0.00000E+00
    0.90166E+06        -0.49992E+08         0.00000E+00
    0.00000E+00         0.00000E+00        -0.55255E+08
 
   -0.55567E+08         0.95370E+06         0.00000E+00
    0.95370E+06        -0.49991E+08         0.00000E+00
    0.00000E+00         0.00000E+00        -0.55251E+08
 
   -0.55550E+08         0.10059E+07         0.00000E+00
    0.10059E+07        -0.49990E+08         0.00000E+00
    0.00000E+00         0.00000E+00        -0.55248E+08
 
   -0.55535E+08         0.10582E+07         0.00000E+00
    0.10582E+07        -0.49989E+08         0.00000E+00
    0.00000E+00         0.00000E+00        -0.55245E+08
 
   -0.55519E+08         0.11107E+07         0.00000E+00
    0.11107E+07        -0.49989E+08         0.00000E+00
    0.00000E+00         0.00000E+00        -0.55241E+08
 
   -0.55504E+08         0.11633E+07         0.00000E+00
    0.11633E+07        -0.49988E+08         0.00000E+00
    0.00000E+00         0.00000E+00        -0.55238E+08
 
   -0.55490E+08         0.12161E+07         0.00000E+00
    0.12161E+07        -0.49988E+08         0.00000E+00
    0.00000E+00         0.00000E+00        -0.55235E+08
 
   -0.55475E+08         0.12691E+07         0.00000E+00
    0.12691E+07        -0.49987E+08         0.00000E+00
    0.00000E+00         0.00000E+00        -0.55232E+08
 
   -0.55461E+08         0.13223E+07         0.00000E+00
    0.13223E+07        -0.49987E+08         0.00000E+00
    0.00000E+00         0.00000E+00        -0.55229E+08
 
   -0.55448E+08         0.13757E+07         0.00000E+00
    0.13757E+07        -0.49986E+08         0.00000E+00
    0.00000E+00         0.00000E+00        -0.55227E+08
 
   -0.55434E+08         0.14294E+07         0.00000E+00
    0.14294E+07        -0.49986E+08         0.00000E+00
    0.00000E+00         0.00000E+00        -0.55224E+08
 
   -0.55421E+08         0.14832E+07         0.00000E+00
    0.14832E+07        -0.49986E+08         0.00000E+00
    0.00000E+00         0.00000E+00        -0.55221E+08
 
   -0.55409E+08         0.15373E+07         0.00000E+00
    0.15373E+07        -0.49986E+08         0.00000E+00
    0.00000E+00         0.00000E+00        -0.55219E+08
 
   -0.55396E+08         0.15917E+07         0.00000E+00
    0.15917E+07        -0.49986E+08         0.00000E+00
    0.00000E+00         0.00000E+00        -0.55216E+08
 
   -0.55384E+08         0.16463E+07         0.00000E+00
    0.16463E+07        -0.49986E+08         0.00000E+00
    0.00000E+00         0.00000E+00        -0.55214E+08
 
   -0.55372E+08         0.17011E+07         0.00000E+00
    0.17011E+07        -0.49986E+08         0.00000E+00
    0.00000E+00         0.00000E+00        -0.55212E+08
 
   -0.55360E+08         0.17563E+07         0.00000E+00
    0.17563E+07        -0.49986E+08         0.00000E+00
    0.00000E+00         0.00000E+00        -0.55209E+08
 
   -0.55349E+08         0.18117E+07         0.00000E+00
    0.18117E+07        -0.49987E+08         0.00000E+00
    0.00000E+00         0.00000E+00        -0.55207E+08
 
   -0.55337E+08         0.18674E+07         0.00000E+00
    0.18674E+07        -0.49988E+08         0.00000E+00
    0.00000E+00         0.00000E+00        -0.55205E+08
 
   -0.55326E+08         0.19234E+07         0.00000E+00
    0.19234E+07        -0.49989E+08         0.00000E+00
    0.00000E+00         0.00000E+00        -0.55203E+08
 
   -0.55315E+08         0.19797E+07         0.00000E+00
    0.19797E+07        -0.49990E+08         0.00000E+00
    0.00000E+00         0.00000E+00        -0.55201E+08
 
   -0.55304E+08         0.20363E+07         0.00000E+00
    0.20363E+07        -0.49991E+08         0.00000E+00
    0.00000E+00         0.00000E+00        -0.55199E+08
 
   -0.55293E+08         0.20933E+07         0.00000E+00
    0.20933E+07        -0.49993E+08         0.00000E+00
    0.00000E+00         0.00000E+00        -0.55197E+08
 
   -0.55283E+08         0.21506E+07         0.00000E+00
    0.21506E+07        -0.49995E+08         0.00000E+00
    0.00000E+00         0.00000E+00        -0.55195E+08
 
   -0.55272E+08         0.22082E+07         0.00000E+00
    0.22082E+07        -0.49997E+08         0.00000E+00
    0.00000E+00         0.00000E+00        -0.55194E+08
 
   -0.55261E+08         0.22661E+07         0.00000E+00
    0.22661E+07        -0.49999E+08         0.00000E+00
    0.00000E+00         0.00000E+00        -0.55192E+08
 
   -0.55251E+08         0.23245E+07         0.00000E+00
    0.23245E+07        -0.50002E+08         0.00000E+00
    0.00000E+00         0.00000E+00        -0.55190E+08
 
   -0.55240E+08         0.23831E+07         0.00000E+00
    0.23831E+07        -0.50004E+08         0.00000E+00
    0.00000E+00         0.00000E+00        -0.55189E+08
 
   -0.55230E+08         0.24422E+07         0.00000E+00
    0.24422E+07        -0.50008E+08         0.00000E+00
    0.00000E+00         0.00000E+00        -0.55187E+08
 
   -0.55219E+08         0.25016E+07         0.00000E+00
    0.25016E+07        -0.50011E+08         0.00000E+00
    0.00000E+00         0.00000E+00        -0.55186E+08
 
   -0.55208E+08         0.25613E+07         0.00000E+00
    0.25613E+07        -0.50015E+08         0.00000E+00
    0.00000E+00         0.00000E+00        -0.55185E+08
 
   -0.55198E+08         0.26215E+07         0.00000E+00
    0.26215E+07        -0.50019E+08         0.00000E+00
    0.00000E+00         0.00000E+00        -0.55183E+08
 
   -0.55187E+08         0.26821E+07         0.00000E+00
    0.26821E+07        -0.50024E+08         0.00000E+00
    0.00000E+00         0.00000E+00        -0.55182E+08
 
   -0.55682E+08         0.26056E+05         0.00000E+00
    0.26056E+05        -0.50000E+08         0.00000E+00
    0.00000E+00         0.00000E+00        -0.55031E+08
 
   -0.55657E+08         0.77947E+05         0.00000E+00
    0.77947E+05        -0.50000E+08         0.00000E+00
    0.00000E+00         0.00000E+00        -0.55026E+08
 
   -0.55633E+08         0.12976E+06         0.00000E+00
    0.12976E+06        -0.50000E+08         0.00000E+00
    0.00000E+00         0.00000E+00        -0.55021E+08
 
   -0.55609E+08         0.18150E+06         0.00000E+00
    0.18150E+06        -0.50000E+08         0.00000E+00
    0.00000E+00         0.00000E+00        -0.55016E+08
 
   -0.55586E+08         0.23318E+06         0.00000E+00
    0.23318E+06        -0.50000E+08         0.00000E+00
    0.00000E+00         0.00000E+00        -0.55012E+08
 
   -0.55563E+08         0.28481E+06         0.00000E+00
    0.28481E+06        -0.50000E+08         0.00000E+00
    0.00000E+00         0.00000E+00        -0.55007E+08
 
   -0.55540E+08         0.33640E+06         0.00000E+00
    0.33640E+06        -0.49999E+08         0.00000E+00
    0.00000E+00         0.00000E+00        -0.55003E+08
 
   -0.55518E+08         0.38796E+06         0.00000E+00
    0.38796E+06        -0.49999E+08         0.00000E+00
    0.00000E+00         0.00000E+00        -0.54998E+08
 
   -0.55497E+08         0.43950E+06         0.00000E+00
    0.43950E+06        -0.49999E+08         0.00000E+00
    0.00000E+00         0.00000E+00        -0.54994E+08
 
   -0.55476E+08         0.49103E+06         0.00000E+00
    0.49103E+06        -0.49998E+08         0.00000E+00
    0.00000E+00         0.00000E+00        -0.54990E+08
 
   -0.55455E+08         0.54257E+06         0.00000E+00
    0.54257E+06        -0.49998E+08         0.00000E+00
    0.00000E+00         0.00000E+00        -0.54985E+08
 
   -0.55435E+08         0.59412E+06         0.00000E+00
    0.59412E+06        -0.49998E+08         0.00000E+00
    0.00000E+00         0.00000E+00        -0.54981E+08
 
   -0.55416E+08         0.64569E+06         0.00000E+00
    0.64569E+06        -0.49997E+08         0.00000E+00
    0.00000E+00         0.00000E+00        -0.54977E+08
 
   -0.55396E+08         0.69729E+06         0.00000E+00
    0.69729E+06        -0.49997E+08         0.00000E+00
    0.00000E+00         0.00000E+00        -0.54973E+08
 
   -0.55378E+08         0.74894E+06         0.00000E+00
    0.74894E+06        -0.49996E+08         0.00000E+00
    0.00000E+00         0.00000E+00        -0.54969E+08
 
   -0.55359E+08         0.80065E+06         0.00000E+00
    0.80065E+06        -0.49996E+08         0.00000E+00
    0.00000E+00         0.00000E+00        -0.54966E+08
 
   -0.55341E+08         0.85242E+06         0.00000E+00
    0.85242E+06        -0.49996E+08         0.00000E+00
    0.00000E+00         0.00000E+00        -0.54962E+08
 
   -0.55324E+08         0.90426E+06         0.00000E+00
    0.90426E+06        -0.49995E+08         0.00000E+00
    0.00000E+00         0.00000E+00        -0.54959E+08
 
   -0.55306E+08         0.95619E+06         0.00000E+00
    0.95619E+06        -0.49995E+08         0.00000E+00
    0.00000E+00         0.00000E+00        -0.54955E+08
 
   -0.55290E+08         0.10082E+07         0.00000E+00
    0.10082E+07        -0.49995E+08         0.00000E+00
    0.00000E+00         0.00000E+00        -0.54952E+08
 
   -0.55273E+08         0.10603E+07         0.00000E+00
    0.10603E+07        -0.49995E+08         0.00000E+00
    0.00000E+00         0.00000E+00        -0.54948E+08
 
   -0.55257E+08         0.11126E+07         0.00000E+00
    0.11126E+07        -0.49994E+08         0.00000E+00
    0.00000E+00         0.00000E+00        -0.54945E+08
 
   -0.55241E+08         0.11650E+07         0.00000E+00
    0.11650E+07        -0.49994E+08         0.00000E+00
    0.00000E+00         0.00000E+00        -0.54942E+08
 
   -0.55226E+08         0.12175E+07         0.00000E+00
    0.12175E+07        -0.49994E+08         0.00000E+00
    0.00000E+00         0.00000E+00        -0.54939E+08
 
   -0.55211E+08         0.12701E+07         0.00000E+00
    0.12701E+07        -0.49994E+08         0.00000E+00
    0.00000E+00         0.00000E+00        -0.54936E+08
 
   -0.55196E+08         0.13229E+07         0.00000E+00
    0.13229E+07        -0.49994E+08         0.00000E+00
    0.00000E+00         0.00000E+00        -0.54933E+08
 
   -0.55181E+08         0.13759E+07         0.00000E+00
    0.13759E+07        -0.49995E+08         0.00000E+00
    0.00000E+00         0.00000E+00        -0.54930E+08
 
   -0.55167E+08         0.14290E+07         0.00000E+00
    0.14290E+07        -0.49995E+08         0.00000E+00
    0.00000E+00         0.00000E+00        -0.54927E+08
 
   -0.55153E+08         0.14823E+07         0.00000E+00
    0.14823E+07        -0.49995E+08         0.00000E+00
    0.00000E+00         0.00000E+00        -0.54924E+08
 
   -0.55139E+08         0.15358E+07         0.00000E+00
    0.15358E+07        -0.49996E+08         0.00000E+00
    0.00000E+00         0.00000E+00        -0.54922E+08
 
   -0.55126E+08         0.15895E+07         0.00000E+00
    0.15895E+07        -0.49997E+08         0.00000E+00
    0.00000E+00         0.00000E+00        -0.54919E+08
 
   -0.55112E+08         0.16434E+07         0.00000E+00
    0.16434E+07        -0.49997E+08         0.00000E+00
    0.00000E+00         0.00000E+00        -0.54917E+08
 
   -0.55099E+08         0.16975E+07         0.00000E+00
    0.16975E+07        -0.49998E+08         0.00000E+00
    0.00000E+00         0.00000E+00        -0.54914E+08
 
   -0.55086E+08         0.17518E+07         0.00000E+00
    0.17518E+07        -0.50000E+08         0.00000E+00
    0.00000E+00         0.00000E+00        -0.54912E+08
 
   -0.55073E+08         0.18064E+07         0.00000E+00
    0.18064E+07        -0.50001E+08         0.00000E+00
    0.00000E+00         0.00000E+00        -0.54909E+08
 
   -0.55060E+08         0.18612E+07         0.00000E+00
    0.18612E+07        -0.50002E+08         0.00000E+00
    0.00000E+00         0.00000E+00        -0.54907E+08
 
   -0.55048E+08         0.19162E+07         0.00000E+00
    0.19162E+07        -0.50004E+08         0.00000E+00
    0.00000E+00         0.00000E+00        -0.54905E+08
 
   -0.55035E+08         0.19715E+07         0.00000E+00
    0.19715E+07        -0.50006E+08         0.00000E+00
    0.00000E+00         0.00000E+00        -0.54903E+08
 
   -0.55023E+08         0.20270E+07         0.00000E+00
    0.20270E+07        -0.50008E+08         0.00000E+00
    0.00000E+00         0.00000E+00        -0.54901E+08
 
   -0.55011E+08         0.20828E+07         0.00000E+00
    0.20828E+07        -0.50010E+08         0.00000E+00
    0.00000E+00         0.00000E+00        -0.54899E+08
 
   -0.54998E+08         0.21389E+07         0.00000E+00
    0.21389E+07        -0.50013E+08         0.00000E+00
    0.00000E+00         0.00000E+00        -0.54897E+08
 
   -0.54986E+08         0.21953E+07         0.00000E+00
    0.21953E+07        -0.50016E+08         0.00000E+00
    0.00000E+00         0.00000E+00        -0.54895E+08
 
   -0.54974E+08         0.22519E+07         0.00000E+00
    0.22519E+07        -0.50019E+08         0.00000E+00
    0.00000E+00         0.00000E+00        -0.54893E+08
 
   -0.54962E+08         0.23088E+07         0.00000E+00
    0.23088E+07        -0.50022E+08         0.00000E+00
    0.00000E+00         0.00000E+00        -0.54892E+08
 
   -0.54950E+08         0.23660E+07         0.00000E+00
    0.23660E+07        -0.50026E+08         0.00000E+00
    0.00000E+00         0.00000E+00        -0.54890E+08
 
   -0.54937E+08         0.24235E+07         0.00000E+00
    0.24235E+07        -0.50030E+08         0.00000E+00
    0.00000E+00         0.00000E+00        -0.54888E+08
 
   -0.54925E+08         0.24813E+07         0.00000E+00
    0.24813E+07        -0.50034E+08         0.00000E+00
    0.00000E+00         0.00000E+00        -0.54887E+08
 
   -0.54913E+08         0.25395E+07         0.00000E+00
    0.25395E+07        -0.50039E+08         0.00000E+00
    0.00000E+00         0.00000E+00        -0.54885E+08
 
   -0.54900E+08         0.25979E+07         0.00000E+00
    0.25979E+07        -0.50044E+08         0.00000E+00
    0.00000E+00         0.00000E+00        -0.54883E+08
 
   -0.54888E+08         0.26566E+07         0.00000E+00
    0.26566E+07        -0.50049E+08         0.00000E+00
    0.00000E+00         0.00000E+00        -0.54882E+08
 
   -0.55422E+08         0.26166E+05         0.00000E+00
    0.26166E+05        -0.50000E+08         0.00000E+00
    0.00000E+00         0.00000E+00        -0.54742E+08
 
   -0.55398E+08         0.78250E+05         0.00000E+00
    0.78250E+05        -0.50000E+08         0.00000E+00
    0.00000E+00         0.00000E+00        -0.54737E+08
 
   -0.55374E+08         0.13024E+06         0.00000E+00
    0.13024E+06        -0.50000E+08         0.00000E+00
    0.00000E+00         0.00000E+00        -0.54733E+08
 
   -0.55350E+08         0.18214E+06         0.00000E+00
    0.18214E+06        -0.50000E+08         0.00000E+00
    0.00000E+00         0.00000E+00        -0.54728E+08
 
   -0.55327E+08         0.23397E+06         0.00000E+00
    0.23397E+06        -0.50000E+08         0.00000E+00
    0.00000E+00         0.00000E+00        -0.54723E+08
 
   -0.55304E+08         0.28573E+06         0.00000E+00
    0.28573E+06        -0.50000E+08         0.00000E+00
    0.00000E+00         0.00000E+00        -0.54719E+08
 
   -0.55282E+08         0.33743E+06         0.00000E+00
    0.33743E+06        -0.50000E+08         0.00000E+00
    0.00000E+00         0.00000E+00        -0.54714E+08
 
   -0.55260E+08         0.38908E+06         0.00000E+00
    0.38908E+06        -0.50000E+08         0.00000E+00
    0.00000E+00         0.00000E+00        -0.54710E+08
 
   -0.55239E+08         0.44069E+06         0.00000E+00
    0.44069E+06        -0.49999E+08         0.00000E+00
    0.00000E+00         0.00000E+00        -0.54706E+08
 
   -0.55218E+08         0.49227E+06         0.00000E+00
    0.49227E+06        -0.49999E+08         0.00000E+00
    0.00000E+00         0.00000E+00        -0.54701E+08
 
   -0.55198E+08         0.54383E+06         0.00000E+00
    0.54383E+06        -0.49999E+08         0.00000E+00
    0.00000E+00         0.00000E+00        -0.54697E+08
 
   -0.55177E+08         0.59537E+06         0.00000E+00
    0.59537E+06        -0.49999E+08         0.00000E+00
    0.00000E+00         0.00000E+00        -0.54693E+08
 
   -0.55158E+08         0.64692E+06         0.00000E+00
    0.64692E+06        -0.49999E+08         0.00000E+00
    0.00000E+00         0.00000E+00        -0.54689E+08
 
   -0.55138E+08         0.69847E+06         0.00000E+00
    0.69847E+06        -0.49999E+08         0.00000E+00
    0.00000E+00         0.00000E+00        -0.54685E+08
 
   -0.55119E+08         0.75003E+06         0.00000E+00
    0.75003E+06        -0.49999E+08         0.00000E+00
    0.00000E+00         0.00000E+00        -0.54681E+08
 
   -0.55101E+08         0.80162E+06         0.00000E+00
    0.80162E+06        -0.49999E+08         0.00000E+00
    0.00000E+00         0.00000E+00        -0.54678E+08
 
   -0.55083E+08         0.85324E+06         0.00000E+00
    0.85324E+06        -0.49999E+08         0.00000E+00
    0.00000E+00         0.00000E+00        -0.54674E+08
 
   -0.55065E+08         0.90490E+06         0.00000E+00
    0.90490E+06        -0.49999E+08         0.00000E+00
    0.00000E+00         0.00000E+00        -0.54671E+08
 
   -0.55047E+08         0.95662E+06         0.00000E+00
    0.95662E+06        -0.49999E+08         0.00000E+00
    0.00000E+00         0.00000E+00        -0.54667E+08
 
   -0.55030E+08         0.10084E+07         0.00000E+00
    0.10084E+07        -0.49999E+08         0.00000E+00
    0.00000E+00         0.00000E+00        -0.54664E+08
 
   -0.55013E+08         0.10602E+07         0.00000E+00
    0.10602E+07        -0.49999E+08         0.00000E+00
    0.00000E+00         0.00000E+00        -0.54660E+08
 
   -0.54996E+08         0.11122E+07         0.00000E+00
    0.11122E+07        -0.49999E+08         0.00000E+00
    0.00000E+00         0.00000E+00        -0.54657E+08
 
   -0.54980E+08         0.11642E+07         0.00000E+00
    0.11642E+07        -0.49999E+08         0.00000E+00
    0.00000E+00         0.00000E+00        -0.54654E+08
 
   -0.54964E+08         0.12163E+07         0.00000E+00
    0.12163E+07        -0.50000E+08         0.00000E+00
    0.00000E+00         0.00000E+00        -0.54651E+08
 
   -0.54948E+08         0.12685E+07         0.00000E+00
    0.12685E+07        -0.50000E+08         0.00000E+00
    0.00000E+00         0.00000E+00        -0.54648E+08
 
   -0.54933E+08         0.13208E+07         0.00000E+00
    0.13208E+07        -0.50001E+08         0.00000E+00
    0.00000E+00         0.00000E+00        -0.54645E+08
 
   -0.54917E+08         0.13732E+07         0.00000E+00
    0.13732E+07        -0.50002E+08         0.00000E+00
    0.00000E+00         0.00000E+00        -0.54642E+08
 
   -0.54902E+08         0.14258E+07         0.00000E+00
    0.14258E+07        -0.50003E+08         0.00000E+00
    0.00000E+00         0.00000E+00        -0.54639E+08
 
   -0.54887E+08         0.14785E+07         0.00000E+00
    0.14785E+07        -0.50003E+08         0.00000E+00
    0.00000E+00         0.00000E+00        -0.54636E+08
 
   -0.54873E+08         0.15313E+07         0.00000E+00
    0.15313E+07        -0.50005E+08         0.00000E+00
    0.00000E+00         0.00000E+00        -0.54633E+08
 
   -0.54858E+08         0.15843E+07         0.00000E+00
    0.15843E+07        -0.50006E+08         0.00000E+00
    0.00000E+00         0.00000E+00        -0.54631E+08
 
   -0.54844E+08         0.16374E+07         0.00000E+00
    0.16374E+07        -0.50007E+08         0.00000E+00
    0.00000E+00         0.00000E+00        -0.54628E+08
 
   -0.54830E+08         0.16907E+07         0.00000E+00
    0.16907E+07        -0.50009E+08         0.00000E+00
    0.00000E+00         0.00000E+00        -0.54626E+08
 
   -0.54816E+08         0.17442E+07         0.00000E+00
    0.17442E+07        -0.50010E+08         0.00000E+00
    0.00000E+00         0.00000E+00        -0.54623E+08
 
   -0.54802E+08         0.17978E+07         0.00000E+00
    0.17978E+07        -0.50012E+08         0.00000E+00
    0.00000E+00         0.00000E+00        -0.54621E+08
 
   -0.54788E+08         0.18517E+07         0.00000E+00
    0.18517E+07        -0.50014E+08         0.00000E+00
    0.00000E+00         0.00000E+00        -0.54618E+08
 
   -0.54775E+08         0.19057E+07         0.00000E+00
    0.19057E+07        -0.50017E+08         0.00000E+00
    0.00000E+00         0.00000E+00        -0.54616E+08
 
   -0.54761E+08         0.19599E+07         0.00000E+00
    0.19599E+07        -0.50019E+08         0.00000E+00
    0.00000E+00         0.00000E+00        -0.54614E+08
 
   -0.54748E+08         0.20143E+07         0.00000E+00
    0.20143E+07        -0.50022E+08         0.00000E+00
    0.00000E+00         0.00000E+00        -0.54612E+08
 
   -0.54734E+08         0.20689E+07         0.00000E+00
    0.20689E+07        -0.50025E+08         0.00000E+00
    0.00000E+00         0.00000E+00        -0.54610E+08
 
   -0.54721E+08         0.21238E+07         0.00000E+00
    0.21238E+07        -0.50028E+08         0.00000E+00
    0.00000E+00         0.00000E+00        -0.54608E+08
 
   -0.54707E+08         0.21788E+07         0.00000E+00
    0.21788E+07        -0.50032E+08         0.00000E+00
    0.00000E+00         0.00000E+00        -0.54606E+08
 
   -0.54694E+08         0.22341E+07         0.00000E+00
    0.22341E+07        -0.50035E+08         0.00000E+00
    0.00000E+00         0.00000E+00        -0.54604E+08
 
   -0.54680E+08         0.22896E+07         0.00000E+00
    0.22896E+07        -0.50039E+08         0.00000E+00
    0.00000E+00         0.00000E+00        -0.54602E+08
 
   -0.54667E+08         0.23453E+07         0.00000E+00
    0.23453E+07        -0.50044E+08         0.00000E+00
    0.00000E+00         0.00000E+00        -0.54600E+08
 
   -0.54653E+08         0.24013E+07         0.00000E+00
    0.24013E+07        -0.50048E+08         0.00000E+00
    0.00000E+00         0.00000E+00        -0.54598E+08
 
   -0.54639E+08         0.24575E+07         0.00000E+00
    0.24575E+07        -0.50053E+08         0.00000E+00
    0.00000E+00         0.00000E+00        -0.54596E+08
 
   -0.54626E+08         0.25140E+07         0.00000E+00
    0.25140E+07        -0.50058E+08         0.00000E+00
    0.00000E+00         0.00000E+00        -0.54595E+08
 
   -0.54612E+08         0.25707E+07         0.00000E+00
    0.25707E+07        -0.50064E+08         0.00000E+00
    0.00000E+00         0.00000E+00        -0.54593E+08
 
   -0.54598E+08         0.26276E+07         0.00000E+00
    0.26276E+07        -0.50070E+08         0.00000E+00
    0.00000E+00         0.00000E+00        -0.54591E+08
 
   -0.55161E+08         0.26232E+05         0.00000E+00
    0.26232E+05        -0.50000E+08         0.00000E+00
    0.00000E+00         0.00000E+00        -0.54462E+08
 
   -0.55137E+08         0.78415E+05         0.00000E+00
    0.78415E+05        -0.50000E+08         0.00000E+00
    0.00000E+00         0.00000E+00        -0.54457E+08
 
   -0.55114E+08         0.13049E+06         0.00000E+00
    0.13049E+06        -0.50000E+08         0.00000E+00
    0.00000E+00         0.00000E+00        -0.54452E+08
 
   -0.55091E+08         0.18246E+06         0.00000E+00
    0.18246E+06        -0.50000E+08         0.00000E+00
    0.00000E+00         0.00000E+00        -0.54447E+08
 
   -0.55068E+08         0.23434E+06         0.00000E+00
    0.23434E+06        -0.50000E+08         0.00000E+00
    0.00000E+00         0.00000E+00        -0.54443E+08
 
   -0.55046E+08         0.28613E+06         0.00000E+00
    0.28613E+06        -0.50000E+08         0.00000E+00
    0.00000E+00         0.00000E+00        -0.54438E+08
 
   -0.55024E+08         0.33784E+06         0.00000E+00
    0.33784E+06        -0.50000E+08         0.00000E+00
    0.00000E+00         0.00000E+00        -0.54434E+08
 
   -0.55002E+08         0.38949E+06         0.00000E+00
    0.38949E+06        -0.50000E+08         0.00000E+00
    0.00000E+00         0.00000E+00        -0.54430E+08
 
   -0.54981E+08         0.44107E+06         0.00000E+00
    0.44107E+06        -0.50000E+08         0.00000E+00
    0.00000E+00         0.00000E+00        -0.54425E+08
 
   -0.54960E+08         0.49260E+06         0.00000E+00
    0.49260E+06        -0.50000E+08         0.00000E+00
    0.00000E+00         0.00000E+00        -0.54421E+08
 
   -0.54940E+08         0.54409E+06         0.00000E+00
    0.54409E+06        -0.50000E+08         0.00000E+00
    0.00000E+00         0.00000E+00        -0.54417E+08
 
   -0.54920E+08         0.59554E+06         0.00000E+00
    0.59554E+06        -0.50000E+08         0.00000E+00
    0.00000E+00         0.00000E+00        -0.54413E+08
 
   -0.54900E+08         0.64696E+06         0.00000E+00
    0.64696E+06        -0.50000E+08         0.00000E+00
    0.00000E+00         0.00000E+00        -0.54409E+08
 
   -0.54881E+08         0.69837E+06         0.00000E+00
    0.69837E+06        -0.50000E+08         0.00000E+00
    0.00000E+00         0.00000E+00        -0.54405E+08
 
   -0.54862E+08         0.74975E+06         0.00000E+00
    0.74975E+06        -0.50000E+08         0.00000E+00
    0.00000E+00         0.00000E+00        -0.54402E+08
 
   -0.54843E+08         0.80114E+06         0.00000E+00
    0.80114E+06        -0.50001E+08         0.00000E+00
    0.00000E+00         0.00000E+00        -0.54398E+08
 
   -0.54825E+08         0.85253E+06         0.00000E+00
    0.85253E+06        -0.50001E+08         0.00000E+00
    0.00000E+00         0.00000E+00        -0.54394E+08
 
   -0.54807E+08         0.90393E+06         0.00000E+00
    0.90393E+06        -0.50001E+08         0.00000E+00
    0.00000E+00         0.00000E+00        -0.54391E+08
 
   -0.54789E+08         0.95534E+06         0.00000E+00
    0.95534E+06        -0.50001E+08         0.00000E+00
    0.00000E+00         0.00000E+00        -0.54387E+08
 
   -0.54772E+08         0.10068E+07         0.00000E+00
    0.10068E+07        -0.50002E+08         0.00000E+00
    0.00000E+00         0.00000E+00        -0.54384E+08
 
   -0.54754E+08         0.10583E+07         0.00000E+00
    0.10583E+07        -0.50002E+08         0.00000E+00
    0.00000E+00         0.00000E+00        -0.54381E+08
 
   -0.54738E+08         0.11098E+07         0.00000E+00
    0.11098E+07        -0.50003E+08         0.00000E+00
    0.00000E+00         0.00000E+00        -0.54377E+08
 
   -0.54721E+08         0.11614E+07         0.00000E+00
    0.11614E+07        -0.50004E+08         0.00000E+00
    0.00000E+00         0.00000E+00        -0.54374E+08
 
   -0.54704E+08         0.12130E+07         0.00000E+00
    0.12130E+07        -0.50005E+08         0.00000E+00
    0.00000E+00         0.00000E+00        -0.54371E+08
 
   -0.54688E+08         0.12647E+07         0.00000E+00
    0.12647E+07        -0.50005E+08         0.00000E+00
    0.00000E+00         0.00000E+00        -0.54368E+08
 
   -0.54672E+08         0.13164E+07         0.00000E+00
    0.13164E+07        -0.50006E+08         0.00000E+00
    0.00000E+00         0.00000E+00        -0.54365E+08
 
   -0.54656E+08         0.13683E+07         0.00000E+00
    0.13683E+07        -0.50008E+08         0.00000E+00
    0.00000E+00         0.00000E+00        -0.54362E+08
 
   -0.54641E+08         0.14202E+07         0.00000E+00
    0.14202E+07        -0.50009E+08         0.00000E+00
    0.00000E+00         0.00000E+00        -0.54359E+08
 
   -0.54625E+08         0.14722E+07         0.00000E+00
    0.14722E+07        -0.50010E+08         0.00000E+00
    0.00000E+00         0.00000E+00        -0.54356E+08
 
   -0.54610E+08         0.15243E+07         0.00000E+00
    0.15243E+07        -0.50012E+08         0.00000E+00
    0.00000E+00         0.00000E+00        -0.54354E+08
 
   -0.54595E+08         0.15766E+07         0.00000E+00
    0.15766E+07        -0.50013E+08         0.00000E+00
    0.00000E+00         0.00000E+00        -0.54351E+08
 
   -0.54580E+08         0.16289E+07         0.00000E+00
    0.16289E+07        -0.50015E+08         0.00000E+00
    0.00000E+00         0.00000E+00        -0.54348E+08
 
   -0.54565E+08         0.16813E+07         0.00000E+00
    0.16813E+07        -0.50017E+08         0.00000E+00
    0.00000E+00         0.00000E+00        -0.54346E+08
 
   -0.54550E+08         0.17339E+07         0.00000E+00
    0.17339E+07        -0.50019E+08         0.00000E+00
    0.00000E+00         0.00000E+00        -0.54343E+08
 
   -0.54536E+08         0.17866E+07         0.00000E+00
    0.17866E+07        -0.50022E+08         0.00000E+00
    0.00000E+00         0.00000E+00        -0.54341E+08
 
   -0.54521E+08         0.18394E+07         0.00000E+00
    0.18394E+07        -0.50024E+08         0.00000E+00
    0.00000E+00         0.00000E+00        -0.54338E+08
 
   -0.54507E+08         0.18924E+07         0.00000E+00
    0.18924E+07        -0.50027E+08         0.00000E+00
    0.00000E+00         0.00000E+00        -0.54336E+08
 
   -0.54492E+08         0.19455E+07         0.00000E+00
    0.19455E+07        -0.50030E+08         0.00000E+00
    0.00000E+00         0.00000E+00        -0.54334E+08
 
   -0.54478E+08         0.19988E+07         0.00000E+00
    0.19988E+07        -0.50033E+08         0.00000E+00
    0.00000E+00         0.00000E+00        -0.54331E+08
 
   -0.54463E+08         0.20522E+07         0.00000E+00
    0.20522E+07        -0.50037E+08         0.00000E+00
    0.00000E+00         0.00000E+00        -0.54329E+08
 
   -0.54449E+08         0.21058E+07         0.00000E+00
    0.21058E+07        -0.50041E+08         0.00000E+00
    0.00000E+00         0.00000E+00        -0.54327E+08
 
   -0.54435E+08         0.21595E+07         0.00000E+00
    0.21595E+07        -0.50045E+08         0.00000E+00
    0.00000E+00         0.00000E+00        -0.54325E+08
 
   -0.54420E+08         0.22134E+07         0.00000E+00
    0.22134E+07        -0.50049E+08         0.00000E+00
    0.00000E+00         0.00000E+00        -0.54323E+08
 
   -0.54406E+08         0.22675E+07         0.00000E+00
    0.22675E+07        -0.50053E+08         0.00000E+00
    0.00000E+00         0.00000E+00        -0.54321E+08
 
   -0.54391E+08         0.23217E+07         0.00000E+00
    0.23217E+07        -0.50058E+08         0.00000E+00
    0.00000E+00         0.00000E+00        -0.54319E+08
 
   -0.54376E+08         0.23762E+07         0.00000E+00
    0.23762E+07        -0.50063E+08         0.00000E+00
    0.00000E+00         0.00000E+00        -0.54317E+08
 
   -0.54362E+08         0.24308E+07         0.00000E+00
    0.24308E+07        -0.50069E+08         0.00000E+00
    0.00000E+00         0.00000E+00        -0.54315E+08
 
   -0.54347E+08         0.24856E+07         0.00000E+00
    0.24856E+07        -0.50074E+08         0.00000E+00
    0.00000E+00         0.00000E+00        -0.54314E+08
 
   -0.54332E+08         0.25406E+07         0.00000E+00
    0.25406E+07        -0.50080E+08         0.00000E+00
    0.00000E+00         0.00000E+00        -0.54312E+08
 
   -0.54317E+08         0.25957E+07         0.00000E+00
    0.25957E+07        -0.50087E+08         0.00000E+00
    0.00000E+00         0.00000E+00        -0.54310E+08
 
   -0.54900E+08         0.26260E+05         0.00000E+00
    0.26260E+05        -0.50000E+08         0.00000E+00
    0.00000E+00         0.00000E+00        -0.54189E+08
 
   -0.54876E+08         0.78465E+05         0.00000E+00
    0.78465E+05        -0.50000E+08         0.00000E+00
    0.00000E+00         0.00000E+00        -0.54184E+08
 
   -0.54854E+08         0.13054E+06         0.00000E+00
    0.13054E+06        -0.50000E+08         0.00000E+00
    0.00000E+00         0.00000E+00        -0.54179E+08
 
   -0.54831E+08         0.18251E+06         0.00000E+00
    0.18251E+06        -0.50000E+08         0.00000E+00
    0.00000E+00         0.00000E+00        -0.54175E+08
 
   -0.54809E+08         0.23436E+06         0.00000E+00
    0.23436E+06        -0.50000E+08         0.00000E+00
    0.00000E+00         0.00000E+00        -0.54170E+08
 
   -0.54787E+08         0.28610E+06         0.00000E+00
    0.28610E+06        -0.50000E+08         0.00000E+00
    0.00000E+00         0.00000E+00        -0.54166E+08
 
   -0.54765E+08         0.33775E+06         0.00000E+00
    0.33775E+06        -0.50000E+08         0.00000E+00
    0.00000E+00         0.00000E+00        -0.54162E+08
 
   -0.54744E+08         0.38932E+06         0.00000E+00
    0.38932E+06        -0.50000E+08         0.00000E+00
    0.00000E+00         0.00000E+00        -0.54158E+08
 
   -0.54724E+08         0.44080E+06         0.00000E+00
    0.44080E+06        -0.50000E+08         0.00000E+00
    0.00000E+00         0.00000E+00        -0.54153E+08
 
   -0.54703E+08         0.49220E+06         0.00000E+00
    0.49220E+06        -0.50001E+08         0.00000E+00
    0.00000E+00         0.00000E+00        -0.54149E+08
 
   -0.54683E+08         0.54354E+06         0.00000E+00
    0.54354E+06        -0.50001E+08         0.00000E+00
    0.00000E+00         0.00000E+00        -0.54145E+08
 
   -0.54663E+08         0.59482E+06         0.00000E+00
    0.59482E+06        -0.50001E+08         0.00000E+00
    0.00000E+00         0.00000E+00        -0.54142E+08
 
   -0.54644E+08         0.64604E+06         0.00000E+00
    0.64604E+06        -0.50001E+08         0.00000E+00
    0.00000E+00         0.00000E+00        -0.54138E+08
 
   -0.54625E+08         0.69722E+06         0.00000E+00
    0.69722E+06        -0.50001E+08         0.00000E+00
    0.00000E+00         0.00000E+00        -0.54134E+08
 
   -0.54606E+08         0.74836E+06         0.00000E+00
    0.74836E+06        -0.50002E+08         0.00000E+00
    0.00000E+00         0.00000E+00        -0.54130E+08
 
   -0.54587E+08         0.79947E+06         0.00000E+00
    0.79947E+06        -0.50002E+08         0.00000E+00
    0.00000E+00         0.00000E+00        -0.54127E+08
 
   -0.54569E+08         0.85055E+06         0.00000E+00
    0.85055E+06        -0.50003E+08         0.00000E+00
    0.00000E+00         0.00000E+00        -0.54123E+08
 
   -0.54551E+08         0.90162E+06         0.00000E+00
    0.90162E+06        -0.50003E+08         0.00000E+00
    0.00000E+00         0.00000E+00        -0.54119E+08
 
   -0.54533E+08         0.95267E+06         0.00000E+00
    0.95267E+06        -0.50004E+08         0.00000E+00
    0.00000E+00         0.00000E+00        -0.54116E+08
 
   -0.54515E+08         0.10037E+07         0.00000E+00
    0.10037E+07        -0.50005E+08         0.00000E+00
    0.00000E+00         0.00000E+00        -0.54113E+08
 
   -0.54498E+08         0.10548E+07         0.00000E+00
    0.10548E+07        -0.50005E+08         0.00000E+00
    0.00000E+00         0.00000E+00        -0.54109E+08
 
   -0.54481E+08         0.11058E+07         0.00000E+00
    0.11058E+07        -0.50006E+08         0.00000E+00
    0.00000E+00         0.00000E+00        -0.54106E+08
 
   -0.54464E+08         0.11569E+07         0.00000E+00
    0.11569E+07        -0.50007E+08         0.00000E+00
    0.00000E+00         0.00000E+00        -0.54103E+08
 
   -0.54447E+08         0.12080E+07         0.00000E+00
    0.12080E+07        -0.50008E+08         0.00000E+00
    0.00000E+00         0.00000E+00        -0.54100E+08
 
   -0.54431E+08         0.12591E+07         0.00000E+00
    0.12591E+07        -0.50009E+08         0.00000E+00
    0.00000E+00         0.00000E+00        -0.54097E+08
 
   -0.54415E+08         0.13103E+07         0.00000E+00
    0.13103E+07        -0.50011E+08         0.00000E+00
    0.00000E+00         0.00000E+00        -0.54094E+08
 
   -0.54399E+08         0.13615E+07         0.00000E+00
    0.13615E+07        -0.50012E+08         0.00000E+00
    0.00000E+00         0.00000E+00        -0.54091E+08
 
   -0.54383E+08         0.14127E+07         0.00000E+00
    0.14127E+07        -0.50014E+08         0.00000E+00
    0.00000E+00         0.00000E+00        -0.54088E+08
 
   -0.54367E+08         0.14640E+07         0.00000E+00
    0.14640E+07        -0.50016E+08         0.00000E+00
    0.00000E+00         0.00000E+00        -0.54085E+08
 
   -0.54351E+08         0.15154E+07         0.00000E+00
    0.15154E+07        -0.50017E+08         0.00000E+00
    0.00000E+00         0.00000E+00        -0.54082E+08
 
   -0.54336E+08         0.15668E+07         0.00000E+00
    0.15668E+07        -0.50019E+08         0.00000E+00
    0.00000E+00         0.00000E+00        -0.54080E+08
 
   -0.54320E+08         0.16183E+07         0.00000E+00
    0.16183E+07        -0.50022E+08         0.00000E+00
    0.00000E+00         0.00000E+00        -0.54077E+08
 
   -0.54305E+08         0.16699E+07         0.00000E+00
    0.16699E+07        -0.50024E+08         0.00000E+00
    0.00000E+00         0.00000E+00        -0.54074E+08
 
   -0.54290E+08         0.17215E+07         0.00000E+00
    0.17215E+07        -0.50027E+08         0.00000E+00
    0.00000E+00         0.00000E+00        -0.54072E+08
 
   -0.54274E+08         0.17732E+07         0.00000E+00
    0.17732E+07        -0.50029E+08         0.00000E+00
    0.00000E+00         0.00000E+00        -0.54069E+08
 
   -0.54259E+08         0.18250E+07         0.00000E+00
    0.18250E+07        -0.50032E+08         0.00000E+00
    0.00000E+00         0.00000E+00        -0.54067E+08
 
   -0.54244E+08         0.18769E+07         0.00000E+00
    0.18769E+07        -0.50036E+08         0.00000E+00
    0.00000E+00         0.00000E+00        -0.54065E+08
 
   -0.54229E+08         0.19289E+07         0.00000E+00
    0.19289E+07        -0.50039E+08         0.00000E+00
    0.00000E+00         0.00000E+00        -0.54062E+08
 
   -0.54214E+08         0.19810E+07         0.00000E+00
    0.19810E+07        -0.50043E+08         0.00000E+00
    0.00000E+00         0.00000E+00        -0.54060E+08
 
   -0.54199E+08         0.20332E+07         0.00000E+00
    0.20332E+07        -0.50046E+08         0.00000E+00
    0.00000E+00         0.00000E+00        -0.54058E+08
 
   -0.54184E+08         0.20855E+07         0.00000E+00
    0.20855E+07        -0.50050E+08         0.00000E+00
    0.00000E+00         0.00000E+00        -0.54056E+08
 
   -0.54169E+08         0.21379E+07         0.00000E+00
    0.21379E+07        -0.50055E+08         0.00000E+00
    0.00000E+00         0.00000E+00        -0.54053E+08
 
   -0.54154E+08         0.21905E+07         0.00000E+00
    0.21905E+07        -0.50059E+08         0.00000E+00
    0.00000E+00         0.00000E+00        -0.54051E+08
 
   -0.54138E+08         0.22431E+07         0.00000E+00
    0.22431E+07        -0.50064E+08         0.00000E+00
    0.00000E+00         0.00000E+00        -0.54049E+08
 
   -0.54123E+08         0.22959E+07         0.00000E+00
    0.22959E+07        -0.50070E+08         0.00000E+00
    0.00000E+00         0.00000E+00        -0.54047E+08
 
   -0.54108E+08         0.23488E+07         0.00000E+00
    0.23488E+07        -0.50075E+08         0.00000E+00
    0.00000E+00         0.00000E+00        -0.54045E+08
 
   -0.54092E+08         0.24018E+07         0.00000E+00
    0.24018E+07        -0.50081E+08         0.00000E+00
    0.00000E+00         0.00000E+00        -0.54043E+08
 
   -0.54077E+08         0.24550E+07         0.00000E+00
    0.24550E+07        -0.50087E+08         0.00000E+00
    0.00000E+00         0.00000E+00        -0.54041E+08
 
   -0.54061E+08         0.25083E+07         0.00000E+00
    0.25083E+07        -0.50094E+08         0.00000E+00
    0.00000E+00         0.00000E+00        -0.54040E+08
 
   -0.54045E+08         0.25617E+07         0.00000E+00
    0.25617E+07        -0.50100E+08         0.00000E+00
    0.00000E+00         0.00000E+00        -0.54038E+08
 
   -0.54639E+08         0.26257E+05         0.00000E+00
    0.26257E+05        -0.50000E+08         0.00000E+00
    0.00000E+00         0.00000E+00        -0.53924E+08
 
   -0.54616E+08         0.78420E+05         0.00000E+00
    0.78420E+05        -0.50000E+08         0.00000E+00
    0.00000E+00         0.00000E+00        -0.53919E+08
 
   -0.54594E+08         0.13044E+06         0.00000E+00
    0.13044E+06        -0.50000E+08         0.00000E+00
    0.00000E+00         0.00000E+00        -0.53915E+08
 
   -0.54572E+08         0.18233E+06         0.00000E+00
    0.18233E+06        -0.50000E+08         0.00000E+00
    0.00000E+00         0.00000E+00        -0.53910E+08
 
   -0.54550E+08         0.23409E+06         0.00000E+00
    0.23409E+06        -0.50000E+08         0.00000E+00
    0.00000E+00         0.00000E+00        -0.53906E+08
 
   -0.54529E+08         0.28573E+06         0.00000E+00
    0.28573E+06        -0.50000E+08         0.00000E+00
    0.00000E+00         0.00000E+00        -0.53902E+08
 
   -0.54508E+08         0.33725E+06         0.00000E+00
    0.33725E+06        -0.50001E+08         0.00000E+00
    0.00000E+00         0.00000E+00        -0.53898E+08
 
   -0.54487E+08         0.38867E+06         0.00000E+00
    0.38867E+06        -0.50001E+08         0.00000E+00
    0.00000E+00         0.00000E+00        -0.53894E+08
 
   -0.54467E+08         0.43998E+06         0.00000E+00
    0.43998E+06        -0.50001E+08         0.00000E+00
    0.00000E+00         0.00000E+00        -0.53890E+08
 
   -0.54447E+08         0.49120E+06         0.00000E+00
    0.49120E+06        -0.50001E+08         0.00000E+00
    0.00000E+00         0.00000E+00        -0.53886E+08
 
   -0.54427E+08         0.54232E+06         0.00000E+00
    0.54232E+06        -0.50001E+08         0.00000E+00
    0.00000E+00         0.00000E+00        -0.53882E+08
 
   -0.54408E+08         0.59337E+06         0.00000E+00
    0.59337E+06        -0.50002E+08         0.00000E+00
    0.00000E+00         0.00000E+00        -0.53878E+08
 
   -0.54388E+08         0.64434E+06         0.00000E+00
    0.64434E+06        -0.50002E+08         0.00000E+00
    0.00000E+00         0.00000E+00        -0.53874E+08
 
   -0.54369E+08         0.69523E+06         0.00000E+00
    0.69523E+06        -0.50003E+08         0.00000E+00
    0.00000E+00         0.00000E+00        -0.53870E+08
 
   -0.54351E+08         0.74607E+06         0.00000E+00
    0.74607E+06        -0.50003E+08         0.00000E+00
    0.00000E+00         0.00000E+00        -0.53867E+08
 
   -0.54332E+08         0.79684E+06         0.00000E+00
    0.79684E+06        -0.50004E+08         0.00000E+00
    0.00000E+00         0.00000E+00        -0.53863E+08
 
   -0.54314E+08         0.84757E+06         0.00000E+00
    0.84757E+06        -0.50004E+08         0.00000E+00
    0.00000E+00         0.00000E+00        -0.53860E+08
 
   -0.54296E+08         0.89824E+06         0.00000E+00
    0.89824E+06        -0.50005E+08         0.00000E+00
    0.00000E+00         0.00000E+00        -0.53856E+08
 
   -0.54279E+08         0.94888E+06         0.00000E+00
    0.94888E+06        -0.50006E+08         0.00000E+00
    0.00000E+00         0.00000E+00        -0.53853E+08
 
   -0.54261E+08         0.99949E+06         0.00000E+00
    0.99949E+06        -0.50007E+08         0.00000E+00
    0.00000E+00         0.00000E+00        -0.53850E+08
 
   -0.54244E+08         0.10501E+07         0.00000E+00
    0.10501E+07        -0.50008E+08         0.00000E+00
    0.00000E+00         0.00000E+00        -0.53846E+08
 
   -0.54227E+08         0.11006E+07         0.00000E+00
    0.11006E+07        -0.50009E+08         0.00000E+00
    0.00000E+00         0.00000E+00        -0.53843E+08
 
   -0.54210E+08         0.11512E+07         0.00000E+00
    0.11512E+07        -0.50010E+08         0.00000E+00
    0.00000E+00         0.00000E+00        -0.53840E+08
 
   -0.54193E+08         0.12017E+07         0.00000E+00
    0.12017E+07        -0.50011E+08         0.00000E+00
    0.00000E+00         0.00000E+00        -0.53837E+08
 
   -0.54177E+08         0.12522E+07         0.00000E+00
    0.12522E+07        -0.50013E+08         0.00000E+00
    0.00000E+00         0.00000E+00        -0.53834E+08
 
   -0.54160E+08         0.13027E+07         0.00000E+00
    0.13027E+07        -0.50014E+08         0.00000E+00
    0.00000E+00         0.00000E+00        -0.53831E+08
 
   -0.54144E+08         0.13532E+07         0.00000E+00
    0.13532E+07        -0.50016E+08         0.00000E+00
    0.00000E+00         0.00000E+00        -0.53828E+08
 
   -0.54128E+08         0.14038E+07         0.00000E+00
    0.14038E+07        -0.50018E+08         0.00000E+00
    0.00000E+00         0.00000E+00        -0.53825E+08
 
   -0.54112E+08         0.14543E+07         0.00000E+00
    0.14543E+07        -0.50020E+08         0.00000E+00
    0.00000E+00         0.00000E+00        -0.53822E+08
 
   -0.54096E+08         0.15049E+07         0.00000E+00
    0.15049E+07        -0.50022E+08         0.00000E+00
    0.00000E+00         0.00000E+00        -0.53820E+08
 
   -0.54081E+08         0.15555E+07         0.00000E+00
    0.15555E+07        -0.50024E+08         0.00000E+00
    0.00000E+00         0.00000E+00        -0.53817E+08
 
   -0.54065E+08         0.16061E+07         0.00000E+00
    0.16061E+07        -0.50027E+08         0.00000E+00
    0.00000E+00         0.00000E+00        -0.53814E+08
 
   -0.54049E+08         0.16567E+07         0.00000E+00
    0.16567E+07        -0.50029E+08         0.00000E+00
    0.00000E+00         0.00000E+00        -0.53812E+08
 
   -0.54034E+08         0.17074E+07         0.00000E+00
    0.17074E+07        -0.50032E+08         0.00000E+00
    0.00000E+00         0.00000E+00        -0.53809E+08
 
   -0.54018E+08         0.17581E+07         0.00000E+00
    0.17581E+07        -0.50035E+08         0.00000E+00
    0.00000E+00         0.00000E+00        -0.53807E+08
 
   -0.54003E+08         0.18089E+07         0.00000E+00
    0.18089E+07        -0.50039E+08         0.00000E+00
    0.00000E+00         0.00000E+00        -0.53804E+08
 
   -0.53987E+08         0.18597E+07         0.00000E+00
    0.18597E+07        -0.50042E+08         0.00000E+00
    0.00000E+00         0.00000E+00        -0.53802E+08
 
   -0.53972E+08         0.19106E+07         0.00000E+00
    0.19106E+07        -0.50046E+08         0.00000E+00
    0.00000E+00         0.00000E+00        -0.53799E+08
 
   -0.53956E+08         0.19615E+07         0.00000E+00
    0.19615E+07        -0.50050E+08         0.00000E+00
    0.00000E+00         0.00000E+00        -0.53797E+08
 
   -0.53941E+08         0.20125E+07         0.00000E+00
    0.20125E+07        -0.50054E+08         0.00000E+00
    0.00000E+00         0.00000E+00        -0.53795E+08
 
   -0.53925E+08         0.20635E+07         0.00000E+00
    0.20635E+07        -0.50058E+08         0.00000E+00
    0.00000E+00         0.00000E+00        -0.53793E+08
 
   -0.53910E+08         0.21147E+07         0.00000E+00
    0.21147E+07        -0.50063E+08         0.00000E+00
    0.00000E+00         0.00000E+00        -0.53791E+08
 
   -0.53894E+08         0.21658E+07         0.00000E+00
    0.21658E+07        -0.50068E+08         0.00000E+00
    0.00000E+00         0.00000E+00        -0.53788E+08
 
   -0.53878E+08         0.22171E+07         0.00000E+00
    0.22171E+07        -0.50073E+08         0.00000E+00
    0.00000E+00         0.00000E+00        -0.53786E+08
 
   -0.53863E+08         0.22684E+07         0.00000E+00
    0.22684E+07        -0.50078E+08         0.00000E+00
    0.00000E+00         0.00000E+00        -0.53784E+08
 
   -0.53847E+08         0.23198E+07         0.00000E+00
    0.23198E+07        -0.50084E+08         0.00000E+00
    0.00000E+00         0.00000E+00        -0.53782E+08
 
   -0.53831E+08         0.23712E+07         0.00000E+00
    0.23712E+07        -0.50090E+08         0.00000E+00
    0.00000E+00         0.00000E+00        -0.53780E+08
 
   -0.53815E+08         0.24228E+07         0.00000E+00
    0.24228E+07        -0.50097E+08         0.00000E+00
    0.00000E+00         0.00000E+00        -0.53778E+08
 
   -0.53798E+08         0.24744E+07         0.00000E+00
    0.24744E+07        -0.50103E+08         0.00000E+00
    0.00000E+00         0.00000E+00        -0.53776E+08
 
   -0.53782E+08         0.25261E+07         0.00000E+00
    0.25261E+07        -0.50110E+08         0.00000E+00
    0.00000E+00         0.00000E+00        -0.53774E+08
 
   -0.54378E+08         0.26228E+05         0.00000E+00
    0.26228E+05        -0.50000E+08         0.00000E+00
    0.00000E+00         0.00000E+00        -0.53666E+08
 
   -0.54356E+08         0.78300E+05         0.00000E+00
    0.78300E+05        -0.50000E+08         0.00000E+00
    0.00000E+00         0.00000E+00        -0.53662E+08
 
   -0.54334E+08         0.13021E+06         0.00000E+00
    0.13021E+06        -0.50000E+08         0.00000E+00
    0.00000E+00         0.00000E+00        -0.53658E+08
 
   -0.54313E+08         0.18198E+06         0.00000E+00
    0.18198E+06        -0.50000E+08         0.00000E+00
    0.00000E+00         0.00000E+00        -0.53654E+08
 
   -0.54292E+08         0.23360E+06         0.00000E+00
    0.23360E+06        -0.50000E+08         0.00000E+00
    0.00000E+00         0.00000E+00        -0.53649E+08
 
   -0.54271E+08         0.28508E+06         0.00000E+00
    0.28508E+06        -0.50001E+08         0.00000E+00
    0.00000E+00         0.00000E+00        -0.53645E+08
 
   -0.54251E+08         0.33642E+06         0.00000E+00
    0.33642E+06        -0.50001E+08         0.00000E+00
    0.00000E+00         0.00000E+00        -0.53641E+08
 
   -0.54231E+08         0.38764E+06         0.00000E+00
    0.38764E+06        -0.50001E+08         0.00000E+00
    0.00000E+00         0.00000E+00        -0.53637E+08
 
   -0.54211E+08         0.43873E+06         0.00000E+00
    0.43873E+06        -0.50001E+08         0.00000E+00
    0.00000E+00         0.00000E+00        -0.53633E+08
 
   -0.54191E+08         0.48971E+06         0.00000E+00
    0.48971E+06        -0.50001E+08         0.00000E+00
    0.00000E+00         0.00000E+00        -0.53629E+08
 
   -0.54172E+08         0.54058E+06         0.00000E+00
    0.54058E+06        -0.50002E+08         0.00000E+00
    0.00000E+00         0.00000E+00        -0.53626E+08
 
   -0.54153E+08         0.59135E+06         0.00000E+00
    0.59135E+06        -0.50002E+08         0.00000E+00
    0.00000E+00         0.00000E+00        -0.53622E+08
 
   -0.54134E+08         0.64201E+06         0.00000E+00
    0.64201E+06        -0.50003E+08         0.00000E+00
    0.00000E+00         0.00000E+00        -0.53618E+08
 
   -0.54116E+08         0.69258E+06         0.00000E+00
    0.69258E+06        -0.50003E+08         0.00000E+00
    0.00000E+00         0.00000E+00        -0.53615E+08
 
   -0.54098E+08         0.74307E+06         0.00000E+00
    0.74307E+06        -0.50004E+08         0.00000E+00
    0.00000E+00         0.00000E+00        -0.53611E+08
 
   -0.54080E+08         0.79347E+06         0.00000E+00
    0.79347E+06        -0.50005E+08         0.00000E+00
    0.00000E+00         0.00000E+00        -0.53608E+08
 
   -0.54062E+08         0.84379E+06         0.00000E+00
    0.84379E+06        -0.50005E+08         0.00000E+00
    0.00000E+00         0.00000E+00        -0.53604E+08
 
   -0.54044E+08         0.89404E+06         0.00000E+00
    0.89404E+06        -0.50006E+08         0.00000E+00
    0.00000E+00         0.00000E+00        -0.53601E+08
 
   -0.54027E+08         0.94422E+06         0.00000E+00
    0.94422E+06        -0.50007E+08         0.00000E+00
    0.00000E+00         0.00000E+00        -0.53598E+08
 
   -0.54010E+08         0.99434E+06         0.00000E+00
    0.99434E+06        -0.50008E+08         0.00000E+00
    0.00000E+00         0.00000E+00        -0.53594E+08
 
   -0.53992E+08         0.10444E+07         0.00000E+00
    0.10444E+07        -0.50009E+08         0.00000E+00
    0.00000E+00         0.00000E+00        -0.53591E+08
 
   -0.53976E+08         0.10944E+07         0.00000E+00
    0.10944E+07        -0.50011E+08         0.00000E+00
    0.00000E+00         0.00000E+00        -0.53588E+08
 
   -0.53959E+08         0.11444E+07         0.00000E+00
    0.11444E+07        -0.50012E+08         0.00000E+00
    0.00000E+00         0.00000E+00        -0.53585E+08
 
   -0.53942E+08         0.11943E+07         0.00000E+00
    0.11943E+07        -0.50014E+08         0.00000E+00
    0.00000E+00         0.00000E+00        -0.53582E+08
 
   -0.53926E+08         0.12442E+07         0.00000E+00
    0.12442E+07        -0.50015E+08         0.00000E+00
    0.00000E+00         0.00000E+00        -0.53579E+08
 
   -0.53910E+08         0.12940E+07         0.00000E+00
    0.12940E+07        -0.50017E+08         0.00000E+00
    0.00000E+00         0.00000E+00        -0.53576E+08
 
   -0.53893E+08         0.13438E+07         0.00000E+00
    0.13438E+07        -0.50019E+08         0.00000E+00
    0.00000E+00         0.00000E+00        -0.53573E+08
 
   -0.53877E+08         0.13936E+07         0.00000E+00
    0.13936E+07        -0.50021E+08         0.00000E+00
    0.00000E+00         0.00000E+00        -0.53571E+08
 
   -0.53861E+08         0.14434E+07         0.00000E+00
    0.14434E+07        -0.50023E+08         0.00000E+00
    0.00000E+00         0.00000E+00        -0.53568E+08
 
   -0.53845E+08         0.14932E+07         0.00000E+00
    0.14932E+07        -0.50025E+08         0.00000E+00
    0.00000E+00         0.00000E+00        -0.53565E+08
 
   -0.53830E+08         0.15429E+07         0.00000E+00
    0.15429E+07        -0.50028E+08         0.00000E+00
    0.00000E+00         0.00000E+00        -0.53562E+08
 
   -0.53814E+08         0.15926E+07         0.00000E+00
    0.15926E+07        -0.50031E+08         0.00000E+00
    0.00000E+00         0.00000E+00        -0.53560E+08
 
   -0.53798E+08         0.16424E+07         0.00000E+00
    0.16424E+07        -0.50033E+08         0.00000E+00
    0.00000E+00         0.00000E+00        -0.53557E+08
 
   -0.53783E+08         0.16921E+07         0.00000E+00
    0.16921E+07        -0.50037E+08         0.00000E+00
    0.00000E+00         0.00000E+00        -0.53555E+08
 
   -0.53767E+08         0.17418E+07         0.00000E+00
    0.17418E+07        -0.50040E+08         0.00000E+00
    0.00000E+00         0.00000E+00        -0.53552E+08
 
   -0.53751E+08         0.17916E+07         0.00000E+00
    0.17916E+07        -0.50043E+08         0.00000E+00
    0.00000E+00         0.00000E+00        -0.53550E+08
 
   -0.53736E+08         0.18413E+07         0.00000E+00
    0.18413E+07        -0.50047E+08         0.00000E+00
    0.00000E+00         0.00000E+00        -0.53547E+08
 
   -0.53720E+08         0.18911E+07         0.00000E+00
    0.18911E+07        -0.50051E+08         0.00000E+00
    0.00000E+00         0.00000E+00        -0.53545E+08
 
   -0.53705E+08         0.19408E+07         0.00000E+00
    0.19408E+07        -0.50055E+08         0.00000E+00
    0.00000E+00         0.00000E+00        -0.53543E+08
 
   -0.53689E+08         0.19906E+07         0.00000E+00
    0.19906E+07        -0.50059E+08         0.00000E+00
    0.00000E+00         0.00000E+00        -0.53541E+08
 
   -0.53673E+08         0.20404E+07         0.00000E+00
    0.20404E+07        -0.50064E+08         0.00000E+00
    0.00000E+00         0.00000E+00        -0.53538E+08
 
   -0.53657E+08         0.20902E+07         0.00000E+00
    0.20902E+07        -0.50069E+08         0.00000E+00
    0.00000E+00         0.00000E+00        -0.53536E+08
 
   -0.53642E+08         0.21400E+07         0.00000E+00
    0.21400E+07        -0.50074E+08         0.00000E+00
    0.00000E+00         0.00000E+00        -0.53534E+08
 
   -0.53626E+08         0.21899E+07         0.00000E+00
    0.21899E+07        -0.50079E+08         0.00000E+00
    0.00000E+00         0.00000E+00        -0.53532E+08
 
   -0.53610E+08         0.22398E+07         0.00000E+00
    0.22398E+07        -0.50085E+08         0.00000E+00
    0.00000E+00         0.00000E+00        -0.53530E+08
 
   -0.53593E+08         0.22897E+07         0.00000E+00
    0.22897E+07        -0.50091E+08         0.00000E+00
    0.00000E+00         0.00000E+00        -0.53528E+08
 
   -0.53577E+08         0.23396E+07         0.00000E+00
    0.23396E+07        -0.50097E+08         0.00000E+00
    0.00000E+00         0.00000E+00        -0.53526E+08
 
   -0.53561E+08         0.23896E+07         0.00000E+00
    0.23896E+07        -0.50104E+08         0.00000E+00
    0.00000E+00         0.00000E+00        -0.53524E+08
 
   -0.53544E+08         0.24396E+07         0.00000E+00
    0.24396E+07        -0.50110E+08         0.00000E+00
    0.00000E+00         0.00000E+00        -0.53522E+08
 
   -0.53527E+08         0.24896E+07         0.00000E+00
    0.24896E+07        -0.50118E+08         0.00000E+00
    0.00000E+00         0.00000E+00        -0.53520E+08
 
   -0.54117E+08         0.26180E+05         0.00000E+00
    0.26180E+05        -0.50000E+08         0.00000E+00
    0.00000E+00         0.00000E+00        -0.53417E+08
 
   -0.54096E+08         0.78120E+05         0.00000E+00
    0.78120E+05        -0.50000E+08         0.00000E+00
    0.00000E+00         0.00000E+00        -0.53412E+08
 
   -0.54075E+08         0.12989E+06         0.00000E+00
    0.12989E+06        -0.50000E+08         0.00000E+00
    0.00000E+00         0.00000E+00        -0.53408E+08
 
   -0.54055E+08         0.18149E+06         0.00000E+00
    0.18149E+06        -0.50000E+08         0.00000E+00
    0.00000E+00         0.00000E+00        -0.53404E+08
 
   -0.54035E+08         0.23292E+06         0.00000E+00
    0.23292E+06        -0.50000E+08         0.00000E+00
    0.00000E+00         0.00000E+00        -0.53400E+08
 
   -0.54015E+08         0.28421E+06         0.00000E+00
    0.28421E+06        -0.50001E+08         0.00000E+00
    0.00000E+00         0.00000E+00        -0.53396E+08
 
   -0.53995E+08         0.33534E+06         0.00000E+00
    0.33534E+06        -0.50001E+08         0.00000E+00
    0.00000E+00         0.00000E+00        -0.53392E+08
 
   -0.53976E+08         0.38632E+06         0.00000E+00
    0.38632E+06        -0.50001E+08         0.00000E+00
    0.00000E+00         0.00000E+00        -0.53389E+08
 
   -0.53956E+08         0.43716E+06         0.00000E+00
    0.43716E+06        -0.50001E+08         0.00000E+00
    0.00000E+00         0.00000E+00        -0.53385E+08
 
   -0.53938E+08         0.48787E+06         0.00000E+00
    0.48787E+06        -0.50002E+08         0.00000E+00
    0.00000E+00         0.00000E+00        -0.53381E+08
 
   -0.53919E+08         0.53845E+06         0.00000E+00
    0.53845E+06        -0.50002E+08         0.00000E+00
    0.00000E+00         0.00000E+00        -0.53377E+08
 
   -0.53900E+08         0.58889E+06         0.00000E+00
    0.58889E+06        -0.50003E+08         0.00000E+00
    0.00000E+00         0.00000E+00        -0.53374E+08
 
   -0.53882E+08         0.63922E+06         0.00000E+00
    0.63922E+06        -0.50003E+08         0.00000E+00
    0.00000E+00         0.00000E+00        -0.53370E+08
 
   -0.53864E+08         0.68943E+06         0.00000E+00
    0.68943E+06        -0.50004E+08         0.00000E+00
    0.00000E+00         0.00000E+00        -0.53367E+08
 
   -0.53846E+08         0.73954E+06         0.00000E+00
    0.73954E+06        -0.50005E+08         0.00000E+00
    0.00000E+00         0.00000E+00        -0.53363E+08
 
   -0.53829E+08         0.78953E+06         0.00000E+00
    0.78953E+06        -0.50005E+08         0.00000E+00
    0.00000E+00         0.00000E+00        -0.53360E+08
 
   -0.53811E+08         0.83942E+06         0.00000E+00
    0.83942E+06        -0.50006E+08         0.00000E+00
    0.00000E+00         0.00000E+00        -0.53357E+08
 
   -0.53794E+08         0.88921E+06         0.00000E+00
    0.88921E+06        -0.50007E+08         0.00000E+00
    0.00000E+00         0.00000E+00        -0.53353E+08
 
   -0.53777E+08         0.93891E+06         0.00000E+00
    0.93891E+06        -0.50008E+08         0.00000E+00
    0.00000E+00         0.00000E+00        -0.53350E+08
 
   -0.53760E+08         0.98853E+06         0.00000E+00
    0.98853E+06        -0.50009E+08         0.00000E+00
    0.00000E+00         0.00000E+00        -0.53347E+08
 
   -0.53744E+08         0.10381E+07         0.00000E+00
    0.10381E+07        -0.50011E+08         0.00000E+00
    0.00000E+00         0.00000E+00        -0.53344E+08
 
   -0.53727E+08         0.10875E+07         0.00000E+00
    0.10875E+07        -0.50012E+08         0.00000E+00
    0.00000E+00         0.00000E+00        -0.53341E+08
 
   -0.53711E+08         0.11369E+07         0.00000E+00
    0.11369E+07        -0.50014E+08         0.00000E+00
    0.00000E+00         0.00000E+00        -0.53338E+08
 
   -0.53694E+08         0.11862E+07         0.00000E+00
    0.11862E+07        -0.50015E+08         0.00000E+00
    0.00000E+00         0.00000E+00        -0.53335E+08
 
   -0.53678E+08         0.12354E+07         0.00000E+00
    0.12354E+07        -0.50017E+08         0.00000E+00
    0.00000E+00         0.00000E+00        -0.53332E+08
 
   -0.53662E+08         0.12846E+07         0.00000E+00
    0.12846E+07        -0.50019E+08         0.00000E+00
    0.00000E+00         0.00000E+00        -0.53329E+08
 
   -0.53646E+08         0.13337E+07         0.00000E+00
    0.13337E+07        -0.50021E+08         0.00000E+00
    0.00000E+00         0.00000E+00        -0.53327E+08
 
   -0.53630E+08         0.13827E+07         0.00000E+00
    0.13827E+07        -0.50023E+08         0.00000E+00
    0.00000E+00         0.00000E+00        -0.53324E+08
 
   -0.53614E+08         0.14317E+07         0.00000E+00
    0.14317E+07        -0.50025E+08         0.00000E+00
    0.00000E+00         0.00000E+00        -0.53321E+08
 
   -0.53599E+08         0.14807E+07         0.00000E+00
    0.14807E+07        -0.50028E+08         0.00000E+00
    0.00000E+00         0.00000E+00        -0.53318E+08
 
   -0.53583E+08         0.15295E+07         0.00000E+00
    0.15295E+07        -0.50030E+08         0.00000E+00
    0.00000E+00         0.00000E+00        -0.53316E+08
 
   -0.53568E+08         0.15784E+07         0.00000E+00
    0.15784E+07        -0.50033E+08         0.00000E+00
    0.00000E+00         0.00000E+00        -0.53313E+08
 
   -0.53552E+08         0.16272E+07         0.00000E+00
    0.16272E+07        -0.50036E+08         0.00000E+00
    0.00000E+00         0.00000E+00        -0.53311E+08
 
   -0.53536E+08         0.16760E+07         0.00000E+00
    0.16760E+07        -0.50039E+08         0.00000E+00
    0.00000E+00         0.00000E+00        -0.53308E+08
 
   -0.53521E+08         0.17247E+07         0.00000E+00
    0.17247E+07        -0.50043E+08         0.00000E+00
    0.00000E+00         0.00000E+00        -0.53306E+08
 
   -0.53505E+08         0.17734E+07         0.00000E+00
    0.17734E+07        -0.50046E+08         0.00000E+00
    0.00000E+00         0.00000E+00        -0.53304E+08
 
   -0.53490E+08         0.18221E+07         0.00000E+00
    0.18221E+07        -0.50050E+08         0.00000E+00
    0.00000E+00         0.00000E+00        -0.53301E+08
 
   -0.53474E+08         0.18707E+07         0.00000E+00
    0.18707E+07        -0.50054E+08         0.00000E+00
    0.00000E+00         0.00000E+00        -0.53299E+08
 
   -0.53459E+08         0.19193E+07         0.00000E+00
    0.19193E+07        -0.50058E+08         0.00000E+00
    0.00000E+00         0.00000E+00        -0.53297E+08
 
   -0.53443E+08         0.19679E+07         0.00000E+00
    0.19679E+07        -0.50063E+08         0.00000E+00
    0.00000E+00         0.00000E+00        -0.53294E+08
 
   -0.53427E+08         0.20165E+07         0.00000E+00
    0.20165E+07        -0.50068E+08         0.00000E+00
    0.00000E+00         0.00000E+00        -0.53292E+08
 
   -0.53412E+08         0.20650E+07         0.00000E+00
    0.20650E+07        -0.50072E+08         0.00000E+00
    0.00000E+00         0.00000E+00        -0.53290E+08
 
   -0.53396E+08         0.21136E+07         0.00000E+00
    0.21136E+07        -0.50078E+08         0.00000E+00
    0.00000E+00         0.00000E+00        -0.53288E+08
 
   -0.53380E+08         0.21621E+07         0.00000E+00
    0.21621E+07        -0.50083E+08         0.00000E+00
    0.00000E+00         0.00000E+00        -0.53286E+08
 
   -0.53364E+08         0.22106E+07         0.00000E+00
    0.22106E+07        -0.50089E+08         0.00000E+00
    0.00000E+00         0.00000E+00        -0.53284E+08
 
   -0.53347E+08         0.22590E+07         0.00000E+00
    0.22590E+07        -0.50095E+08         0.00000E+00
    0.00000E+00         0.00000E+00        -0.53282E+08
 
   -0.53331E+08         0.23075E+07         0.00000E+00
    0.23075E+07        -0.50101E+08         0.00000E+00
    0.00000E+00         0.00000E+00        -0.53280E+08
 
   -0.53315E+08         0.23559E+07         0.00000E+00
    0.23559E+07        -0.50108E+08         0.00000E+00
    0.00000E+00         0.00000E+00        -0.53278E+08
 
   -0.53298E+08         0.24043E+07         0.00000E+00
    0.24043E+07        -0.50115E+08         0.00000E+00
    0.00000E+00         0.00000E+00        -0.53276E+08
 
   -0.53281E+08         0.24527E+07         0.00000E+00
    0.24527E+07        -0.50122E+08         0.00000E+00
    0.00000E+00         0.00000E+00        -0.53274E+08
 
   -0.53857E+08         0.26116E+05         0.00000E+00
    0.26116E+05        -0.50000E+08         0.00000E+00
    0.00000E+00         0.00000E+00        -0.53174E+08
 
   -0.53837E+08         0.77895E+05         0.00000E+00
    0.77895E+05        -0.50000E+08         0.00000E+00
    0.00000E+00         0.00000E+00        -0.53170E+08
 
   -0.53817E+08         0.12949E+06         0.00000E+00
    0.12949E+06        -0.50000E+08         0.00000E+00
    0.00000E+00         0.00000E+00        -0.53166E+08
 
   -0.53798E+08         0.18089E+06         0.00000E+00
    0.18089E+06        -0.50000E+08         0.00000E+00
    0.00000E+00         0.00000E+00        -0.53162E+08
 
   -0.53778E+08         0.23212E+06         0.00000E+00
    0.23212E+06        -0.50001E+08         0.00000E+00
    0.00000E+00         0.00000E+00        -0.53158E+08
 
   -0.53759E+08         0.28318E+06         0.00000E+00
    0.28318E+06        -0.50001E+08         0.00000E+00
    0.00000E+00         0.00000E+00        -0.53155E+08
 
   -0.53740E+08         0.33407E+06         0.00000E+00
    0.33407E+06        -0.50001E+08         0.00000E+00
    0.00000E+00         0.00000E+00        -0.53151E+08
 
   -0.53722E+08         0.38479E+06         0.00000E+00
    0.38479E+06        -0.50001E+08         0.00000E+00
    0.00000E+00         0.00000E+00        -0.53147E+08
 
   -0.53703E+08         0.43535E+06         0.00000E+00
    0.43535E+06        -0.50002E+08         0.00000E+00
    0.00000E+00         0.00000E+00        -0.53144E+08
 
   -0.53685E+08         0.48576E+06         0.00000E+00
    0.48576E+06        -0.50002E+08         0.00000E+00
    0.00000E+00         0.00000E+00        -0.53140E+08
 
   -0.53667E+08         0.53602E+06         0.00000E+00
    0.53602E+06        -0.50002E+08         0.00000E+00
    0.00000E+00         0.00000E+00        -0.53136E+08
 
   -0.53649E+08         0.58613E+06         0.00000E+00
    0.58613E+06        -0.50003E+08         0.00000E+00
    0.00000E+00         0.00000E+00        -0.53133E+08
 
   -0.53632E+08         0.63610E+06         0.00000E+00
    0.63610E+06        -0.50004E+08         0.00000E+00
    0.00000E+00         0.00000E+00        -0.53130E+08
 
   -0.53614E+08         0.68594E+06         0.00000E+00
    0.68594E+06        -0.50004E+08         0.00000E+00
    0.00000E+00         0.00000E+00        -0.53126E+08
 
   -0.53597E+08         0.73563E+06         0.00000E+00
    0.73563E+06        -0.50005E+08         0.00000E+00
    0.00000E+00         0.00000E+00        -0.53123E+08
 
   -0.53580E+08         0.78520E+06         0.00000E+00
    0.78520E+06        -0.50006E+08         0.00000E+00
    0.00000E+00         0.00000E+00        -0.53120E+08
 
   -0.53563E+08         0.83465E+06         0.00000E+00
    0.83465E+06        -0.50007E+08         0.00000E+00
    0.00000E+00         0.00000E+00        -0.53117E+08
 
   -0.53547E+08         0.88397E+06         0.00000E+00
    0.88397E+06        -0.50008E+08         0.00000E+00
    0.00000E+00         0.00000E+00        -0.53113E+08
 
   -0.53530E+08         0.93317E+06         0.00000E+00
    0.93317E+06        -0.50009E+08         0.00000E+00
    0.00000E+00         0.00000E+00        -0.53110E+08
 
   -0.53514E+08         0.98226E+06         0.00000E+00
    0.98226E+06        -0.50010E+08         0.00000E+00
    0.00000E+00         0.00000E+00        -0.53107E+08
 
   -0.53498E+08         0.10312E+07         0.00000E+00
    0.10312E+07        -0.50012E+08         0.00000E+00
    0.00000E+00         0.00000E+00        -0.53104E+08
 
   -0.53481E+08         0.10801E+07         0.00000E+00
    0.10801E+07        -0.50013E+08         0.00000E+00
    0.00000E+00         0.00000E+00        -0.53101E+08
 
   -0.53466E+08         0.11289E+07         0.00000E+00
    0.11289E+07        -0.50015E+08         0.00000E+00
    0.00000E+00         0.00000E+00        -0.53099E+08
 
   -0.53450E+08         0.11776E+07         0.00000E+00
    0.11776E+07        -0.50016E+08         0.00000E+00
    0.00000E+00         0.00000E+00        -0.53096E+08
 
   -0.53434E+08         0.12261E+07         0.00000E+00
    0.12261E+07        -0.50018E+08         0.00000E+00
    0.00000E+00         0.00000E+00        -0.53093E+08
 
   -0.53418E+08         0.12746E+07         0.00000E+00
    0.12746E+07        -0.50020E+08         0.00000E+00
    0.00000E+00         0.00000E+00        -0.53090E+08
 
   -0.53403E+08         0.13230E+07         0.00000E+00
    0.13230E+07        -0.50022E+08         0.00000E+00
    0.00000E+00         0.00000E+00        -0.53087E+08
 
   -0.53387E+08         0.13713E+07         0.00000E+00
    0.13713E+07        -0.50024E+08         0.00000E+00
    0.00000E+00         0.00000E+00        -0.53085E+08
 
   -0.53372E+08         0.14195E+07         0.00000E+00
    0.14195E+07        -0.50027E+08         0.00000E+00
    0.00000E+00         0.00000E+00        -0.53082E+08
 
   -0.53356E+08         0.14676E+07         0.00000E+00
    0.14676E+07        -0.50029E+08         0.00000E+00
    0.00000E+00         0.00000E+00        -0.53080E+08
 
   -0.53341E+08         0.15157E+07         0.00000E+00
    0.15157E+07        -0.50032E+08         0.00000E+00
    0.00000E+00         0.00000E+00        -0.53077E+08
 
   -0.53326E+08         0.15637E+07         0.00000E+00
    0.15637E+07        -0.50035E+08         0.00000E+00
    0.00000E+00         0.00000E+00        -0.53075E+08
 
   -0.53310E+08         0.16116E+07         0.00000E+00
    0.16116E+07        -0.50038E+08         0.00000E+00
    0.00000E+00         0.00000E+00        -0.53072E+08
 
   -0.53295E+08         0.16594E+07         0.00000E+00
    0.16594E+07        -0.50041E+08         0.00000E+00
    0.00000E+00         0.00000E+00        -0.53070E+08
 
   -0.53280E+08         0.17072E+07         0.00000E+00
    0.17072E+07        -0.50045E+08         0.00000E+00
    0.00000E+00         0.00000E+00        -0.53067E+08
 
   -0.53264E+08         0.17549E+07         0.00000E+00
    0.17549E+07        -0.50048E+08         0.00000E+00
    0.00000E+00         0.00000E+00        -0.53065E+08
 
   -0.53249E+08         0.18025E+07         0.00000E+00
    0.18025E+07        -0.50052E+08         0.00000E+00
    0.00000E+00         0.00000E+00        -0.53063E+08
 
   -0.53234E+08         0.18500E+07         0.00000E+00
    0.18500E+07        -0.50056E+08         0.00000E+00
    0.00000E+00         0.00000E+00        -0.53061E+08
 
   -0.53218E+08         0.18975E+07         0.00000E+00
    0.18975E+07        -0.50060E+08         0.00000E+00
    0.00000E+00         0.00000E+00        -0.53058E+08
 
   -0.53203E+08         0.19450E+07         0.00000E+00
    0.19450E+07        -0.50065E+08         0.00000E+00
    0.00000E+00         0.00000E+00        -0.53056E+08
 
   -0.53188E+08         0.19923E+07         0.00000E+00
    0.19923E+07        -0.50070E+08         0.00000E+00
    0.00000E+00         0.00000E+00        -0.53054E+08
 
   -0.53172E+08         0.20397E+07         0.00000E+00
    0.20397E+07        -0.50074E+08         0.00000E+00
    0.00000E+00         0.00000E+00        -0.53052E+08
 
   -0.53156E+08         0.20869E+07         0.00000E+00
    0.20869E+07        -0.50080E+08         0.00000E+00
    0.00000E+00         0.00000E+00        -0.53050E+08
 
   -0.53141E+08         0.21341E+07         0.00000E+00
    0.21341E+07        -0.50085E+08         0.00000E+00
    0.00000E+00         0.00000E+00        -0.53048E+08
 
   -0.53125E+08         0.21812E+07         0.00000E+00
    0.21812E+07        -0.50091E+08         0.00000E+00
    0.00000E+00         0.00000E+00        -0.53046E+08
 
   -0.53109E+08         0.22283E+07         0.00000E+00
    0.22283E+07        -0.50097E+08         0.00000E+00
    0.00000E+00         0.00000E+00        -0.53044E+08
 
   -0.53093E+08         0.22753E+07         0.00000E+00
    0.22753E+07        -0.50103E+08         0.00000E+00
    0.00000E+00         0.00000E+00        -0.53042E+08
 
   -0.53076E+08         0.23223E+07         0.00000E+00
    0.23223E+07        -0.50110E+08         0.00000E+00
    0.00000E+00         0.00000E+00        -0.53040E+08
 
   -0.53060E+08         0.23692E+07         0.00000E+00
    0.23692E+07        -0.50116E+08         0.00000E+00
    0.00000E+00         0.00000E+00        -0.53038E+08
 
   -0.53043E+08         0.24160E+07         0.00000E+00
    0.24160E+07        -0.50124E+08         0.00000E+00
    0.00000E+00         0.00000E+00        -0.53036E+08
 
   -0.53598E+08         0.26042E+05         0.00000E+00
    0.26042E+05        -0.50000E+08         0.00000E+00
    0.00000E+00         0.00000E+00        -0.52938E+08
 
   -0.53579E+08         0.77640E+05         0.00000E+00
    0.77640E+05        -0.50000E+08         0.00000E+00
    0.00000E+00         0.00000E+00        -0.52935E+08
 
   -0.53560E+08         0.12903E+06         0.00000E+00
    0.12903E+06        -0.50000E+08         0.00000E+00
    0.00000E+00         0.00000E+00        -0.52931E+08
 
   -0.53542E+08         0.18023E+06         0.00000E+00
    0.18023E+06        -0.50000E+08         0.00000E+00
    0.00000E+00         0.00000E+00        -0.52927E+08
 
   -0.53523E+08         0.23124E+06         0.00000E+00
    0.23124E+06        -0.50001E+08         0.00000E+00
    0.00000E+00         0.00000E+00        -0.52923E+08
 
   -0.53505E+08         0.28205E+06         0.00000E+00
    0.28205E+06        -0.50001E+08         0.00000E+00
    0.00000E+00         0.00000E+00        -0.52920E+08
 
   -0.53487E+08         0.33268E+06         0.00000E+00
    0.33268E+06        -0.50001E+08         0.00000E+00
    0.00000E+00         0.00000E+00        -0.52916E+08
 
   -0.53469E+08         0.38313E+06         0.00000E+00
    0.38313E+06        -0.50001E+08         0.00000E+00
    0.00000E+00         0.00000E+00        -0.52913E+08
 
   -0.53452E+08         0.43340E+06         0.00000E+00
    0.43340E+06        -0.50002E+08         0.00000E+00
    0.00000E+00         0.00000E+00        -0.52909E+08
 
   -0.53434E+08         0.48349E+06         0.00000E+00
    0.48349E+06        -0.50002E+08         0.00000E+00
    0.00000E+00         0.00000E+00        -0.52906E+08
 
   -0.53417E+08         0.53342E+06         0.00000E+00
    0.53342E+06        -0.50003E+08         0.00000E+00
    0.00000E+00         0.00000E+00        -0.52903E+08
 
   -0.53400E+08         0.58318E+06         0.00000E+00
    0.58318E+06        -0.50003E+08         0.00000E+00
    0.00000E+00         0.00000E+00        -0.52899E+08
 
   -0.53383E+08         0.63278E+06         0.00000E+00
    0.63278E+06        -0.50004E+08         0.00000E+00
    0.00000E+00         0.00000E+00        -0.52896E+08
 
   -0.53367E+08         0.68222E+06         0.00000E+00
    0.68222E+06        -0.50005E+08         0.00000E+00
    0.00000E+00         0.00000E+00        -0.52893E+08
 
   -0.53350E+08         0.73151E+06         0.00000E+00
    0.73151E+06        -0.50005E+08         0.00000E+00
    0.00000E+00         0.00000E+00        -0.52890E+08
 
   -0.53334E+08         0.78064E+06         0.00000E+00
    0.78064E+06        -0.50006E+08         0.00000E+00
    0.00000E+00         0.00000E+00        -0.52887E+08
 
   -0.53318E+08         0.82963E+06         0.00000E+00
    0.82963E+06        -0.50007E+08         0.00000E+00
    0.00000E+00         0.00000E+00        -0.52884E+08
 
   -0.53302E+08         0.87848E+06         0.00000E+00
    0.87848E+06        -0.50008E+08         0.00000E+00
    0.00000E+00         0.00000E+00        -0.52881E+08
 
   -0.53286E+08         0.92718E+06         0.00000E+00
    0.92718E+06        -0.50009E+08         0.00000E+00
    0.00000E+00         0.00000E+00        -0.52878E+08
 
   -0.53270E+08         0.97574E+06         0.00000E+00
    0.97574E+06        -0.50011E+08         0.00000E+00
    0.00000E+00         0.00000E+00        -0.52875E+08
 
   -0.53254E+08         0.10242E+07         0.00000E+00
    0.10242E+07        -0.50012E+08         0.00000E+00
    0.00000E+00         0.00000E+00        -0.52872E+08
 
   -0.53239E+08         0.10725E+07         0.00000E+00
    0.10725E+07        -0.50013E+08         0.00000E+00
    0.00000E+00         0.00000E+00        -0.52869E+08
 
   -0.53223E+08         0.11206E+07         0.00000E+00
    0.11206E+07        -0.50015E+08         0.00000E+00
    0.00000E+00         0.00000E+00        -0.52866E+08
 
   -0.53208E+08         0.11687E+07         0.00000E+00
    0.11687E+07        -0.50017E+08         0.00000E+00
    0.00000E+00         0.00000E+00        -0.52864E+08
 
   -0.53193E+08         0.12166E+07         0.00000E+00
    0.12166E+07        -0.50019E+08         0.00000E+00
    0.00000E+00         0.00000E+00        -0.52861E+08
 
   -0.53178E+08         0.12644E+07         0.00000E+00
    0.12644E+07        -0.50021E+08         0.00000E+00
    0.00000E+00         0.00000E+00        -0.52858E+08
 
   -0.53163E+08         0.13121E+07         0.00000E+00
    0.13121E+07        -0.50023E+08         0.00000E+00
    0.00000E+00         0.00000E+00        -0.52856E+08
 
   -0.53148E+08         0.13597E+07         0.00000E+00
    0.13597E+07        -0.50025E+08         0.00000E+00
    0.00000E+00         0.00000E+00        -0.52853E+08
 
   -0.53133E+08         0.14071E+07         0.00000E+00
    0.14071E+07        -0.50027E+08         0.00000E+00
    0.00000E+00         0.00000E+00        -0.52851E+08
 
   -0.53118E+08         0.14544E+07         0.00000E+00
    0.14544E+07        -0.50030E+08         0.00000E+00
    0.00000E+00         0.00000E+00        -0.52848E+08
 
   -0.53103E+08         0.15017E+07         0.00000E+00
    0.15017E+07        -0.50033E+08         0.00000E+00
    0.00000E+00         0.00000E+00        -0.52846E+08
 
   -0.53088E+08         0.15488E+07         0.00000E+00
    0.15488E+07        -0.50036E+08         0.00000E+00
    0.00000E+00         0.00000E+00        -0.52843E+08
 
   -0.53073E+08         0.15958E+07         0.00000E+00
    0.15958E+07        -0.50039E+08         0.00000E+00
    0.00000E+00         0.00000E+00        -0.52841E+08
 
   -0.53058E+08         0.16427E+07         0.00000E+00
    0.16427E+07        -0.50042E+08         0.00000E+00
    0.00000E+00         0.00000E+00        -0.52839E+08
 
   -0.53044E+08         0.16895E+07         0.00000E+00
    0.16895E+07        -0.50045E+08         0.00000E+00
    0.00000E+00         0.00000E+00        -0.52836E+08
 
   -0.53029E+08         0.17363E+07         0.00000E+00
    0.17363E+07        -0.50049E+08         0.00000E+00
    0.00000E+00         0.00000E+00        -0.52834E+08
 
   -0.53014E+08         0.17829E+07         0.00000E+00
    0.17829E+07        -0.50053E+08         0.00000E+00
    0.00000E+00         0.00000E+00        -0.52832E+08
 
   -0.52999E+08         0.18294E+07         0.00000E+00
    0.18294E+07        -0.50057E+08         0.00000E+00
    0.00000E+00         0.00000E+00        -0.52830E+08
 
   -0.52984E+08         0.18758E+07         0.00000E+00
    0.18758E+07        -0.50061E+08         0.00000E+00
    0.00000E+00         0.00000E+00        -0.52828E+08
 
   -0.52969E+08         0.19221E+07         0.00000E+00
    0.19221E+07        -0.50065E+08         0.00000E+00
    0.00000E+00         0.00000E+00        -0.52825E+08
 
   -0.52954E+08         0.19683E+07         0.00000E+00
    0.19683E+07        -0.50070E+08         0.00000E+00
    0.00000E+00         0.00000E+00        -0.52823E+08
 
   -0.52939E+08         0.20144E+07         0.00000E+00
    0.20144E+07        -0.50075E+08         0.00000E+00
    0.00000E+00         0.00000E+00        -0.52821E+08
 
   -0.52923E+08         0.20605E+07         0.00000E+00
    0.20605E+07        -0.50080E+08         0.00000E+00
    0.00000E+00         0.00000E+00        -0.52819E+08
 
   -0.52908E+08         0.21064E+07         0.00000E+00
    0.21064E+07        -0.50085E+08         0.00000E+00
    0.00000E+00         0.00000E+00        -0.52817E+08
 
   -0.52893E+08         0.21522E+07         0.00000E+00
    0.21522E+07        -0.50091E+08         0.00000E+00
    0.00000E+00         0.00000E+00        -0.52815E+08
 
   -0.52877E+08         0.21980E+07         0.00000E+00
    0.21980E+07        -0.50097E+08         0.00000E+00
    0.00000E+00         0.00000E+00        -0.52813E+08
 
   -0.52861E+08         0.22436E+07         0.00000E+00
    0.22436E+07        -0.50103E+08         0.00000E+00
    0.00000E+00         0.00000E+00        -0.52811E+08
 
   -0.52845E+08         0.22891E+07         0.00000E+00
    0.22891E+07        -0.50109E+08         0.00000E+00
    0.00000E+00         0.00000E+00        -0.52810E+08
 
   -0.52829E+08         0.23346E+07         0.00000E+00
    0.23346E+07        -0.50116E+08         0.00000E+00
    0.00000E+00         0.00000E+00        -0.52808E+08
 
   -0.52813E+08         0.23799E+07         0.00000E+00
    0.23799E+07        -0.50123E+08         0.00000E+00
    0.00000E+00         0.00000E+00        -0.52806E+08
 
   -0.53340E+08         0.25962E+05         0.00000E+00
    0.25962E+05        -0.50000E+08         0.00000E+00
    0.00000E+00         0.00000E+00        -0.52709E+08
 
   -0.53322E+08         0.77368E+05         0.00000E+00
    0.77368E+05        -0.50000E+08         0.00000E+00
    0.00000E+00         0.00000E+00        -0.52706E+08
 
   -0.53304E+08         0.12856E+06         0.00000E+00
    0.12856E+06        -0.50000E+08         0.00000E+00
    0.00000E+00         0.00000E+00        -0.52702E+08
 
   -0.53287E+08         0.17953E+06         0.00000E+00
    0.17953E+06        -0.50000E+08         0.00000E+00
    0.00000E+00         0.00000E+00        -0.52699E+08
 
   -0.53269E+08         0.23030E+06         0.00000E+00
    0.23030E+06        -0.50001E+08         0.00000E+00
    0.00000E+00         0.00000E+00        -0.52695E+08
 
   -0.53252E+08         0.28087E+06         0.00000E+00
    0.28087E+06        -0.50001E+08         0.00000E+00
    0.00000E+00         0.00000E+00        -0.52692E+08
 
   -0.53235E+08         0.33123E+06         0.00000E+00
    0.33123E+06        -0.50001E+08         0.00000E+00
    0.00000E+00         0.00000E+00        -0.52688E+08
 
   -0.53218E+08         0.38139E+06         0.00000E+00
    0.38139E+06        -0.50001E+08         0.00000E+00
    0.00000E+00         0.00000E+00        -0.52685E+08
 
   -0.53201E+08         0.43136E+06         0.00000E+00
    0.43136E+06        -0.50002E+08         0.00000E+00
    0.00000E+00         0.00000E+00        -0.52682E+08
 
   -0.53185E+08         0.48114E+06         0.00000E+00
    0.48114E+06        -0.50002E+08         0.00000E+00
    0.00000E+00         0.00000E+00        -0.52679E+08
 
   -0.53169E+08         0.53073E+06         0.00000E+00
    0.53073E+06        -0.50003E+08         0.00000E+00
    0.00000E+00         0.00000E+00        -0.52675E+08
 
   -0.53153E+08         0.58014E+06         0.00000E+00
    0.58014E+06        -0.50003E+08         0.00000E+00
    0.00000E+00         0.00000E+00        -0.52672E+08
 
   -0.53137E+08         0.62937E+06         0.00000E+00
    0.62937E+06        -0.50004E+08         0.00000E+00
    0.00000E+00         0.00000E+00        -0.52669E+08
 
   -0.53121E+08         0.67842E+06         0.00000E+00
    0.67842E+06        -0.50005E+08         0.00000E+00
    0.00000E+00         0.00000E+00        -0.52666E+08
 
   -0.53105E+08         0.72730E+06         0.00000E+00
    0.72730E+06        -0.50005E+08         0.00000E+00
    0.00000E+00         0.00000E+00        -0.52663E+08
 
   -0.53090E+08         0.77600E+06         0.00000E+00
    0.77600E+06        -0.50006E+08         0.00000E+00
    0.00000E+00         0.00000E+00        -0.52660E+08
 
   -0.53074E+08         0.82454E+06         0.00000E+00
    0.82454E+06        -0.50007E+08         0.00000E+00
    0.00000E+00         0.00000E+00        -0.52657E+08
 
   -0.53059E+08         0.87291E+06         0.00000E+00
    0.87291E+06        -0.50008E+08         0.00000E+00
    0.00000E+00         0.00000E+00        -0.52655E+08
 
   -0.53044E+08         0.92112E+06         0.00000E+00
    0.92112E+06        -0.50009E+08         0.00000E+00
    0.00000E+00         0.00000E+00        -0.52652E+08
 
   -0.53029E+08         0.96916E+06         0.00000E+00
    0.96916E+06        -0.50011E+08         0.00000E+00
    0.00000E+00         0.00000E+00        -0.52649E+08
 
   -0.53014E+08         0.10171E+07         0.00000E+00
    0.10171E+07        -0.50012E+08         0.00000E+00
    0.00000E+00         0.00000E+00        -0.52646E+08
 
   -0.52999E+08         0.10648E+07         0.00000E+00
    0.10648E+07        -0.50014E+08         0.00000E+00
    0.00000E+00         0.00000E+00        -0.52644E+08
 
   -0.52984E+08         0.11124E+07         0.00000E+00
    0.11124E+07        -0.50015E+08         0.00000E+00
    0.00000E+00         0.00000E+00        -0.52641E+08
 
   -0.52970E+08         0.11598E+07         0.00000E+00
    0.11598E+07        -0.50017E+08         0.00000E+00
    0.00000E+00         0.00000E+00        -0.52639E+08
 
   -0.52955E+08         0.12071E+07         0.00000E+00
    0.12071E+07        -0.50019E+08         0.00000E+00
    0.00000E+00         0.00000E+00        -0.52636E+08
 
   -0.52941E+08         0.12542E+07         0.00000E+00
    0.12542E+07        -0.50021E+08         0.00000E+00
    0.00000E+00         0.00000E+00        -0.52633E+08
 
   -0.52926E+08         0.13012E+07         0.00000E+00
    0.13012E+07        -0.50023E+08         0.00000E+00
    0.00000E+00         0.00000E+00        -0.52631E+08
 
   -0.52912E+08         0.13481E+07         0.00000E+00
    0.13481E+07        -0.50025E+08         0.00000E+00
    0.00000E+00         0.00000E+00        -0.52629E+08
 
   -0.52898E+08         0.13948E+07         0.00000E+00
    0.13948E+07        -0.50027E+08         0.00000E+00
    0.00000E+00         0.00000E+00        -0.52626E+08
 
   -0.52883E+08         0.14414E+07         0.00000E+00
    0.14414E+07        -0.50030E+08         0.00000E+00
    0.00000E+00         0.00000E+00        -0.52624E+08
 
   -0.52869E+08         0.14878E+07         0.00000E+00
    0.14878E+07        -0.50032E+08         0.00000E+00
    0.00000E+00         0.00000E+00        -0.52622E+08
 
   -0.52855E+08         0.15341E+07         0.00000E+00
    0.15341E+07        -0.50035E+08         0.00000E+00
    0.00000E+00         0.00000E+00        -0.52619E+08
 
   -0.52841E+08         0.15802E+07         0.00000E+00
    0.15802E+07        -0.50038E+08         0.00000E+00
    0.00000E+00         0.00000E+00        -0.52617E+08
 
   -0.52826E+08         0.16263E+07         0.00000E+00
    0.16263E+07        -0.50041E+08         0.00000E+00
    0.00000E+00         0.00000E+00        -0.52615E+08
 
   -0.52812E+08         0.16722E+07         0.00000E+00
    0.16722E+07        -0.50045E+08         0.00000E+00
    0.00000E+00         0.00000E+00        -0.52613E+08
 
   -0.52798E+08         0.17179E+07         0.00000E+00
    0.17179E+07        -0.50048E+08         0.00000E+00
    0.00000E+00         0.00000E+00        -0.52610E+08
 
   -0.52783E+08         0.17636E+07         0.00000E+00
    0.17636E+07        -0.50052E+08         0.00000E+00
    0.00000E+00         0.00000E+00        -0.52608E+08
 
   -0.52769E+08         0.18091E+07         0.00000E+00
    0.18091E+07        -0.50056E+08         0.00000E+00
    0.00000E+00         0.00000E+00        -0.52606E+08
 
   -0.52755E+08         0.18544E+07         0.00000E+00
    0.18544E+07        -0.50060E+08         0.00000E+00
    0.00000E+00         0.00000E+00        -0.52604E+08
 
   -0.52740E+08         0.18997E+07         0.00000E+00
    0.18997E+07        -0.50064E+08         0.00000E+00
    0.00000E+00         0.00000E+00        -0.52602E+08
 
   -0.52726E+08         0.19448E+07         0.00000E+00
    0.19448E+07        -0.50069E+08         0.00000E+00
    0.00000E+00         0.00000E+00        -0.52600E+08
 
   -0.52711E+08         0.19898E+07         0.00000E+00
    0.19898E+07        -0.50074E+08         0.00000E+00
    0.00000E+00         0.00000E+00        -0.52598E+08
 
   -0.52696E+08         0.20346E+07         0.00000E+00
    0.20346E+07        -0.50079E+08         0.00000E+00
    0.00000E+00         0.00000E+00        -0.52596E+08
 
   -0.52682E+08         0.20794E+07         0.00000E+00
    0.20794E+07        -0.50084E+08         0.00000E+00
    0.00000E+00         0.00000E+00        -0.52594E+08
 
   -0.52667E+08         0.21240E+07         0.00000E+00
    0.21240E+07        -0.50089E+08         0.00000E+00
    0.00000E+00         0.00000E+00        -0.52592E+08
 
   -0.52652E+08         0.21684E+07         0.00000E+00
    0.21684E+07        -0.50095E+08         0.00000E+00
    0.00000E+00         0.00000E+00        -0.52591E+08
 
   -0.52637E+08         0.22127E+07         0.00000E+00
    0.22127E+07        -0.50101E+08         0.00000E+00
    0.00000E+00         0.00000E+00        -0.52589E+08
 
   -0.52621E+08         0.22569E+07         0.00000E+00
    0.22569E+07        -0.50107E+08         0.00000E+00
    0.00000E+00         0.00000E+00        -0.52587E+08
 
   -0.52606E+08         0.23010E+07         0.00000E+00
    0.23010E+07        -0.50113E+08         0.00000E+00
    0.00000E+00         0.00000E+00        -0.52585E+08
 
   -0.52590E+08         0.23449E+07         0.00000E+00
    0.23449E+07        -0.50120E+08         0.00000E+00
    0.00000E+00         0.00000E+00        -0.52583E+08
 
   -0.53083E+08         0.25880E+05         0.00000E+00
    0.25880E+05        -0.50000E+08         0.00000E+00
    0.00000E+00         0.00000E+00        -0.52486E+08
 
   -0.53066E+08         0.77091E+05         0.00000E+00
    0.77091E+05        -0.50000E+08         0.00000E+00
    0.00000E+00         0.00000E+00        -0.52483E+08
 
   -0.53049E+08         0.12807E+06         0.00000E+00
    0.12807E+06        -0.50000E+08         0.00000E+00
    0.00000E+00         0.00000E+00        -0.52480E+08
 
   -0.53033E+08         0.17883E+06         0.00000E+00
    0.17883E+06        -0.50000E+08         0.00000E+00
    0.00000E+00         0.00000E+00        -0.52476E+08
 
   -0.53016E+08         0.22936E+06         0.00000E+00
    0.22936E+06        -0.50001E+08         0.00000E+00
    0.00000E+00         0.00000E+00        -0.52473E+08
 
   -0.53000E+08         0.27967E+06         0.00000E+00
    0.27967E+06        -0.50001E+08         0.00000E+00
    0.00000E+00         0.00000E+00        -0.52470E+08
 
   -0.52984E+08         0.32977E+06         0.00000E+00
    0.32977E+06        -0.50001E+08         0.00000E+00
    0.00000E+00         0.00000E+00        -0.52467E+08
 
   -0.52968E+08         0.37965E+06         0.00000E+00
    0.37965E+06        -0.50001E+08         0.00000E+00
    0.00000E+00         0.00000E+00        -0.52464E+08
 
   -0.52953E+08         0.42933E+06         0.00000E+00
    0.42933E+06        -0.50002E+08         0.00000E+00
    0.00000E+00         0.00000E+00        -0.52461E+08
 
   -0.52937E+08         0.47880E+06         0.00000E+00
    0.47880E+06        -0.50002E+08         0.00000E+00
    0.00000E+00         0.00000E+00        -0.52458E+08
 
   -0.52922E+08         0.52806E+06         0.00000E+00
    0.52806E+06        -0.50003E+08         0.00000E+00
    0.00000E+00         0.00000E+00        -0.52455E+08
 
   -0.52907E+08         0.57712E+06         0.00000E+00
    0.57712E+06        -0.50003E+08         0.00000E+00
    0.00000E+00         0.00000E+00        -0.52452E+08
 
   -0.52892E+08         0.62598E+06         0.00000E+00
    0.62598E+06        -0.50004E+08         0.00000E+00
    0.00000E+00         0.00000E+00        -0.52449E+08
 
   -0.52877E+08         0.67465E+06         0.00000E+00
    0.67465E+06        -0.50004E+08         0.00000E+00
    0.00000E+00         0.00000E+00        -0.52446E+08
 
   -0.52862E+08         0.72313E+06         0.00000E+00
    0.72313E+06        -0.50005E+08         0.00000E+00
    0.00000E+00         0.00000E+00        -0.52443E+08
 
   -0.52848E+08         0.77141E+06         0.00000E+00
    0.77141E+06        -0.50006E+08         0.00000E+00
    0.00000E+00         0.00000E+00        -0.52441E+08
 
   -0.52833E+08         0.81951E+06         0.00000E+00
    0.81951E+06        -0.50007E+08         0.00000E+00
    0.00000E+00         0.00000E+00        -0.52438E+08
 
   -0.52819E+08         0.86742E+06         0.00000E+00
    0.86742E+06        -0.50008E+08         0.00000E+00
    0.00000E+00         0.00000E+00        -0.52435E+08
 
   -0.52804E+08         0.91515E+06         0.00000E+00
    0.91515E+06        -0.50009E+08         0.00000E+00
    0.00000E+00         0.00000E+00        -0.52433E+08
 
   -0.52790E+08         0.96269E+06         0.00000E+00
    0.96269E+06        -0.50010E+08         0.00000E+00
    0.00000E+00         0.00000E+00        -0.52430E+08
 
   -0.52776E+08         0.10101E+07         0.00000E+00
    0.10101E+07        -0.50012E+08         0.00000E+00
    0.00000E+00         0.00000E+00        -0.52427E+08
 
   -0.52762E+08         0.10572E+07         0.00000E+00
    0.10572E+07        -0.50013E+08         0.00000E+00
    0.00000E+00         0.00000E+00        -0.52425E+08
 
   -0.52748E+08         0.11043E+07         0.00000E+00
    0.11043E+07        -0.50015E+08         0.00000E+00
    0.00000E+00         0.00000E+00        -0.52422E+08
 
   -0.52734E+08         0.11511E+07         0.00000E+00
    0.11511E+07        -0.50016E+08         0.00000E+00
    0.00000E+00         0.00000E+00        -0.52420E+08
 
   -0.52721E+08         0.11978E+07         0.00000E+00
    0.11978E+07        -0.50018E+08         0.00000E+00
    0.00000E+00         0.00000E+00        -0.52418E+08
 
   -0.52707E+08         0.12443E+07         0.00000E+00
    0.12443E+07        -0.50020E+08         0.00000E+00
    0.00000E+00         0.00000E+00        -0.52415E+08
 
   -0.52693E+08         0.12906E+07         0.00000E+00
    0.12906E+07        -0.50022E+08         0.00000E+00
    0.00000E+00         0.00000E+00        -0.52413E+08
 
   -0.52680E+08         0.13368E+07         0.00000E+00
    0.13368E+07        -0.50024E+08         0.00000E+00
    0.00000E+00         0.00000E+00        -0.52411E+08
 
   -0.52666E+08         0.13828E+07         0.00000E+00
    0.13828E+07        -0.50026E+08         0.00000E+00
    0.00000E+00         0.00000E+00        -0.52408E+08
 
   -0.52653E+08         0.14286E+07         0.00000E+00
    0.14286E+07        -0.50029E+08         0.00000E+00
    0.00000E+00         0.00000E+00        -0.52406E+08
 
   -0.52639E+08         0.14743E+07         0.00000E+00
    0.14743E+07        -0.50031E+08         0.00000E+00
    0.00000E+00         0.00000E+00        -0.52404E+08
 
   -0.52626E+08         0.15198E+07         0.00000E+00
    0.15198E+07        -0.50034E+08         0.00000E+00
    0.00000E+00         0.00000E+00        -0.52402E+08
 
   -0.52612E+08         0.15651E+07         0.00000E+00
    0.15651E+07        -0.50037E+08         0.00000E+00
    0.00000E+00         0.00000E+00        -0.52400E+08
 
   -0.52599E+08         0.16103E+07         0.00000E+00
    0.16103E+07        -0.50040E+08         0.00000E+00
    0.00000E+00         0.00000E+00        -0.52398E+08
 
   -0.52585E+08         0.16553E+07         0.00000E+00
    0.16553E+07        -0.50043E+08         0.00000E+00
    0.00000E+00         0.00000E+00        -0.52396E+08
 
   -0.52572E+08         0.17002E+07         0.00000E+00
    0.17002E+07        -0.50047E+08         0.00000E+00
    0.00000E+00         0.00000E+00        -0.52393E+08
 
   -0.52558E+08         0.17449E+07         0.00000E+00
    0.17449E+07        -0.50050E+08         0.00000E+00
    0.00000E+00         0.00000E+00        -0.52391E+08
 
   -0.52544E+08         0.17895E+07         0.00000E+00
    0.17895E+07        -0.50054E+08         0.00000E+00
    0.00000E+00         0.00000E+00        -0.52389E+08
 
   -0.52531E+08         0.18339E+07         0.00000E+00
    0.18339E+07        -0.50058E+08         0.00000E+00
    0.00000E+00         0.00000E+00        -0.52388E+08
 
   -0.52517E+08         0.18781E+07         0.00000E+00
    0.18781E+07        -0.50062E+08         0.00000E+00
    0.00000E+00         0.00000E+00        -0.52386E+08
 
   -0.52503E+08         0.19221E+07         0.00000E+00
    0.19221E+07        -0.50066E+08         0.00000E+00
    0.00000E+00         0.00000E+00        -0.52384E+08
 
   -0.52489E+08         0.19660E+07         0.00000E+00
    0.19660E+07        -0.50071E+08         0.00000E+00
    0.00000E+00         0.00000E+00        -0.52382E+08
 
   -0.52475E+08         0.20098E+07         0.00000E+00
    0.20098E+07        -0.50076E+08         0.00000E+00
    0.00000E+00         0.00000E+00        -0.52380E+08
 
   -0.52461E+08         0.20534E+07         0.00000E+00
    0.20534E+07        -0.50081E+08         0.00000E+00
    0.00000E+00         0.00000E+00        -0.52378E+08
 
   -0.52447E+08         0.20968E+07         0.00000E+00
    0.20968E+07        -0.50086E+08         0.00000E+00
    0.00000E+00         0.00000E+00        -0.52376E+08
 
   -0.52433E+08         0.21400E+07         0.00000E+00
    0.21400E+07        -0.50091E+08         0.00000E+00
    0.00000E+00         0.00000E+00        -0.52375E+08
 
   -0.52418E+08         0.21831E+07         0.00000E+00
    0.21831E+07        -0.50097E+08         0.00000E+00
    0.00000E+00         0.00000E+00        -0.52373E+08
 
   -0.52404E+08         0.22261E+07         0.00000E+00
    0.22261E+07        -0.50103E+08         0.00000E+00
    0.00000E+00         0.00000E+00        -0.52371E+08
 
   -0.52389E+08         0.22688E+07         0.00000E+00
    0.22688E+07        -0.50109E+08         0.00000E+00
    0.00000E+00         0.00000E+00        -0.52369E+08
 
   -0.52374E+08         0.23114E+07         0.00000E+00
    0.23114E+07        -0.50115E+08         0.00000E+00
    0.00000E+00         0.00000E+00        -0.52368E+08
 
   -0.52827E+08         0.25799E+05         0.00000E+00
    0.25799E+05        -0.50000E+08         0.00000E+00
    0.00000E+00         0.00000E+00        -0.52270E+08
 
   -0.52811E+08         0.76821E+05         0.00000E+00
    0.76821E+05        -0.50000E+08         0.00000E+00
    0.00000E+00         0.00000E+00        -0.52266E+08
 
   -0.52796E+08         0.12760E+06         0.00000E+00
    0.12760E+06        -0.50000E+08         0.00000E+00
    0.00000E+00         0.00000E+00        -0.52263E+08
 
   -0.52780E+08         0.17814E+06         0.00000E+00
    0.17814E+06        -0.50000E+08         0.00000E+00
    0.00000E+00         0.00000E+00        -0.52260E+08
 
   -0.52765E+08         0.22845E+06         0.00000E+00
    0.22845E+06        -0.50000E+08         0.00000E+00
    0.00000E+00         0.00000E+00        -0.52257E+08
 
   -0.52750E+08         0.27852E+06         0.00000E+00
    0.27852E+06        -0.50001E+08         0.00000E+00
    0.00000E+00         0.00000E+00        -0.52254E+08
 
   -0.52735E+08         0.32836E+06         0.00000E+00
    0.32836E+06        -0.50001E+08         0.00000E+00
    0.00000E+00         0.00000E+00        -0.52251E+08
 
   -0.52720E+08         0.37797E+06         0.00000E+00
    0.37797E+06        -0.50001E+08         0.00000E+00
    0.00000E+00         0.00000E+00        -0.52248E+08
 
   -0.52706E+08         0.42736E+06         0.00000E+00
    0.42736E+06        -0.50002E+08         0.00000E+00
    0.00000E+00         0.00000E+00        -0.52246E+08
 
   -0.52691E+08         0.47653E+06         0.00000E+00
    0.47653E+06        -0.50002E+08         0.00000E+00
    0.00000E+00         0.00000E+00        -0.52243E+08
 
   -0.52677E+08         0.52548E+06         0.00000E+00
    0.52548E+06        -0.50002E+08         0.00000E+00
    0.00000E+00         0.00000E+00        -0.52240E+08
 
   -0.52663E+08         0.57421E+06         0.00000E+00
    0.57421E+06        -0.50003E+08         0.00000E+00
    0.00000E+00         0.00000E+00        -0.52237E+08
 
   -0.52649E+08         0.62272E+06         0.00000E+00
    0.62272E+06        -0.50004E+08         0.00000E+00
    0.00000E+00         0.00000E+00        -0.52235E+08
 
   -0.52635E+08         0.67102E+06         0.00000E+00
    0.67102E+06        -0.50004E+08         0.00000E+00
    0.00000E+00         0.00000E+00        -0.52232E+08
 
   -0.52621E+08         0.71911E+06         0.00000E+00
    0.71911E+06        -0.50005E+08         0.00000E+00
    0.00000E+00         0.00000E+00        -0.52229E+08
 
   -0.52608E+08         0.76700E+06         0.00000E+00
    0.76700E+06        -0.50006E+08         0.00000E+00
    0.00000E+00         0.00000E+00        -0.52227E+08
 
   -0.52594E+08         0.81467E+06         0.00000E+00
    0.81467E+06        -0.50007E+08         0.00000E+00
    0.00000E+00         0.00000E+00        -0.52224E+08
 
   -0.52581E+08         0.86215E+06         0.00000E+00
    0.86215E+06        -0.50008E+08         0.00000E+00
    0.00000E+00         0.00000E+00        -0.52222E+08
 
   -0.52567E+08         0.90942E+06         0.00000E+00
    0.90942E+06        -0.50009E+08         0.00000E+00
    0.00000E+00         0.00000E+00        -0.52219E+08
 
   -0.52554E+08         0.95648E+06         0.00000E+00
    0.95648E+06        -0.50010E+08         0.00000E+00
    0.00000E+00         0.00000E+00        -0.52217E+08
 
   -0.52541E+08         0.10034E+07         0.00000E+00
    0.10034E+07        -0.50011E+08         0.00000E+00
    0.00000E+00         0.00000E+00        -0.52215E+08
 
   -0.52528E+08         0.10500E+07         0.00000E+00
    0.10500E+07        -0.50013E+08         0.00000E+00
    0.00000E+00         0.00000E+00        -0.52212E+08
 
   -0.52515E+08         0.10965E+07         0.00000E+00
    0.10965E+07        -0.50014E+08         0.00000E+00
    0.00000E+00         0.00000E+00        -0.52210E+08
 
   -0.52502E+08         0.11428E+07         0.00000E+00
    0.11428E+07        -0.50016E+08         0.00000E+00
    0.00000E+00         0.00000E+00        -0.52208E+08
 
   -0.52489E+08         0.11889E+07         0.00000E+00
    0.11889E+07        -0.50017E+08         0.00000E+00
    0.00000E+00         0.00000E+00        -0.52205E+08
 
   -0.52476E+08         0.12348E+07         0.00000E+00
    0.12348E+07        -0.50019E+08         0.00000E+00
    0.00000E+00         0.00000E+00        -0.52203E+08
 
   -0.52464E+08         0.12805E+07         0.00000E+00
    0.12805E+07        -0.50021E+08         0.00000E+00
    0.00000E+00         0.00000E+00        -0.52201E+08
 
   -0.52451E+08         0.13260E+07         0.00000E+00
    0.13260E+07        -0.50023E+08         0.00000E+00
    0.00000E+00         0.00000E+00        -0.52199E+08
 
   -0.52438E+08         0.13713E+07         0.00000E+00
    0.13713E+07        -0.50025E+08         0.00000E+00
    0.00000E+00         0.00000E+00        -0.52197E+08
 
   -0.52426E+08         0.14165E+07         0.00000E+00
    0.14165E+07        -0.50027E+08         0.00000E+00
    0.00000E+00         0.00000E+00        -0.52195E+08
 
   -0.52413E+08         0.14614E+07         0.00000E+00
    0.14614E+07        -0.50030E+08         0.00000E+00
    0.00000E+00         0.00000E+00        -0.52193E+08
 
   -0.52400E+08         0.15062E+07         0.00000E+00
    0.15062E+07        -0.50032E+08         0.00000E+00
    0.00000E+00         0.00000E+00        -0.52191E+08
 
   -0.52388E+08         0.15508E+07         0.00000E+00
    0.15508E+07        -0.50035E+08         0.00000E+00
    0.00000E+00         0.00000E+00        -0.52189E+08
 
   -0.52375E+08         0.15951E+07         0.00000E+00
    0.15951E+07        -0.50038E+08         0.00000E+00
    0.00000E+00         0.00000E+00        -0.52187E+08
 
   -0.52362E+08         0.16394E+07         0.00000E+00
    0.16394E+07        -0.50041E+08         0.00000E+00
    0.00000E+00         0.00000E+00        -0.52185E+08
 
   -0.52350E+08         0.16834E+07         0.00000E+00
    0.16834E+07        -0.50044E+08         0.00000E+00
    0.00000E+00         0.00000E+00        -0.52183E+08
 
   -0.52337E+08         0.17272E+07         0.00000E+00
    0.17272E+07        -0.50047E+08         0.00000E+00
    0.00000E+00         0.00000E+00        -0.52181E+08
 
   -0.52324E+08         0.17708E+07         0.00000E+00
    0.17708E+07        -0.50051E+08         0.00000E+00
    0.00000E+00         0.00000E+00        -0.52179E+08
 
   -0.52311E+08         0.18143E+07         0.00000E+00
    0.18143E+07        -0.50055E+08         0.00000E+00
    0.00000E+00         0.00000E+00        -0.52177E+08
 
   -0.52299E+08         0.18576E+07         0.00000E+00
    0.18576E+07        -0.50059E+08         0.00000E+00
    0.00000E+00         0.00000E+00        -0.52176E+08
 
   -0.52286E+08         0.19007E+07         0.00000E+00
    0.19007E+07        -0.50063E+08         0.00000E+00
    0.00000E+00         0.00000E+00        -0.52174E+08
 
   -0.52273E+08         0.19436E+07         0.00000E+00
    0.19436E+07        -0.50067E+08         0.00000E+00
    0.00000E+00         0.00000E+00        -0.52172E+08
 
   -0.52260E+08         0.19863E+07         0.00000E+00
    0.19863E+07        -0.50071E+08         0.00000E+00
    0.00000E+00         0.00000E+00        -0.52170E+08
 
   -0.52246E+08         0.20288E+07         0.00000E+00
    0.20288E+07        -0.50076E+08         0.00000E+00
    0.00000E+00         0.00000E+00        -0.52169E+08
 
   -0.52233E+08         0.20711E+07         0.00000E+00
    0.20711E+07        -0.50081E+08         0.00000E+00
    0.00000E+00         0.00000E+00        -0.52167E+08
 
   -0.52220E+08         0.21132E+07         0.00000E+00
    0.21132E+07        -0.50086E+08         0.00000E+00
    0.00000E+00         0.00000E+00        -0.52165E+08
 
   -0.52206E+08         0.21551E+07         0.00000E+00
    0.21551E+07        -0.50091E+08         0.00000E+00
    0.00000E+00         0.00000E+00        -0.52164E+08
 
   -0.52193E+08         0.21969E+07         0.00000E+00
    0.21969E+07        -0.50097E+08         0.00000E+00
    0.00000E+00         0.00000E+00        -0.52162E+08
 
   -0.52179E+08         0.22384E+07         0.00000E+00
    0.22384E+07        -0.50102E+08         0.00000E+00
    0.00000E+00         0.00000E+00        -0.52160E+08
 
   -0.52165E+08         0.22798E+07         0.00000E+00
    0.22798E+07        -0.50108E+08         0.00000E+00
    0.00000E+00         0.00000E+00        -0.52159E+08
 
   -0.52572E+08         0.25724E+05         0.00000E+00
    0.25724E+05        -0.50000E+08         0.00000E+00
    0.00000E+00         0.00000E+00        -0.52058E+08
 
   -0.52557E+08         0.76569E+05         0.00000E+00
    0.76569E+05        -0.50000E+08         0.00000E+00
    0.00000E+00         0.00000E+00        -0.52055E+08
 
   -0.52543E+08         0.12716E+06         0.00000E+00
    0.12716E+06        -0.50000E+08         0.00000E+00
    0.00000E+00         0.00000E+00        -0.52052E+08
 
   -0.52529E+08         0.17750E+06         0.00000E+00
    0.17750E+06        -0.50000E+08         0.00000E+00
    0.00000E+00         0.00000E+00        -0.52050E+08
 
   -0.52515E+08         0.22759E+06         0.00000E+00
    0.22759E+06        -0.50000E+08         0.00000E+00
    0.00000E+00         0.00000E+00        -0.52047E+08
 
   -0.52501E+08         0.27744E+06         0.00000E+00
    0.27744E+06        -0.50001E+08         0.00000E+00
    0.00000E+00         0.00000E+00        -0.52044E+08
 
   -0.52487E+08         0.32704E+06         0.00000E+00
    0.32704E+06        -0.50001E+08         0.00000E+00
    0.00000E+00         0.00000E+00        -0.52041E+08
 
   -0.52473E+08         0.37641E+06         0.00000E+00
    0.37641E+06        -0.50001E+08         0.00000E+00
    0.00000E+00         0.00000E+00        -0.52039E+08
 
   -0.52460E+08         0.42553E+06         0.00000E+00
    0.42553E+06        -0.50001E+08         0.00000E+00
    0.00000E+00         0.00000E+00        -0.52036E+08
 
   -0.52447E+08         0.47441E+06         0.00000E+00
    0.47441E+06        -0.50002E+08         0.00000E+00
    0.00000E+00         0.00000E+00        -0.52033E+08
 
   -0.52434E+08         0.52307E+06         0.00000E+00
    0.52307E+06        -0.50002E+08         0.00000E+00
    0.00000E+00         0.00000E+00        -0.52031E+08
 
   -0.52421E+08         0.57148E+06         0.00000E+00
    0.57148E+06        -0.50003E+08         0.00000E+00
    0.00000E+00         0.00000E+00        -0.52028E+08
 
   -0.52408E+08         0.61967E+06         0.00000E+00
    0.61967E+06        -0.50003E+08         0.00000E+00
    0.00000E+00         0.00000E+00        -0.52026E+08
 
   -0.52395E+08         0.66763E+06         0.00000E+00
    0.66763E+06        -0.50004E+08         0.00000E+00
    0.00000E+00         0.00000E+00        -0.52023E+08
 
   -0.52382E+08         0.71537E+06         0.00000E+00
    0.71537E+06        -0.50005E+08         0.00000E+00
    0.00000E+00         0.00000E+00        -0.52021E+08
 
   -0.52370E+08         0.76287E+06         0.00000E+00
    0.76287E+06        -0.50005E+08         0.00000E+00
    0.00000E+00         0.00000E+00        -0.52019E+08
 
   -0.52357E+08         0.81016E+06         0.00000E+00
    0.81016E+06        -0.50006E+08         0.00000E+00
    0.00000E+00         0.00000E+00        -0.52016E+08
 
   -0.52345E+08         0.85722E+06         0.00000E+00
    0.85722E+06        -0.50007E+08         0.00000E+00
    0.00000E+00         0.00000E+00        -0.52014E+08
 
   -0.52333E+08         0.90407E+06         0.00000E+00
    0.90407E+06        -0.50008E+08         0.00000E+00
    0.00000E+00         0.00000E+00        -0.52012E+08
 
   -0.52320E+08         0.95069E+06         0.00000E+00
    0.95069E+06        -0.50009E+08         0.00000E+00
    0.00000E+00         0.00000E+00        -0.52010E+08
 
   -0.52308E+08         0.99710E+06         0.00000E+00
    0.99710E+06        -0.50010E+08         0.00000E+00
    0.00000E+00         0.00000E+00        -0.52007E+08
 
   -0.52296E+08         0.10433E+07         0.00000E+00
    0.10433E+07        -0.50011E+08         0.00000E+00
    0.00000E+00         0.00000E+00        -0.52005E+08
 
   -0.52284E+08         0.10893E+07         0.00000E+00
    0.10893E+07        -0.50013E+08         0.00000E+00
    0.00000E+00         0.00000E+00        -0.52003E+08
 
   -0.52273E+08         0.11350E+07         0.00000E+00
    0.11350E+07        -0.50014E+08         0.00000E+00
    0.00000E+00         0.00000E+00        -0.52001E+08
 
   -0.52261E+08         0.11806E+07         0.00000E+00
    0.11806E+07        -0.50016E+08         0.00000E+00
    0.00000E+00         0.00000E+00        -0.51999E+08
 
   -0.52249E+08         0.12259E+07         0.00000E+00
    0.12259E+07        -0.50017E+08         0.00000E+00
    0.00000E+00         0.00000E+00        -0.51997E+08
 
   -0.52237E+08         0.12710E+07         0.00000E+00
    0.12710E+07        -0.50019E+08         0.00000E+00
    0.00000E+00         0.00000E+00        -0.51995E+08
 
   -0.52225E+08         0.13159E+07         0.00000E+00
    0.13159E+07        -0.50021E+08         0.00000E+00
    0.00000E+00         0.00000E+00        -0.51993E+08
 
   -0.52214E+08         0.13606E+07         0.00000E+00
    0.13606E+07        -0.50023E+08         0.00000E+00
    0.00000E+00         0.00000E+00        -0.51991E+08
 
   -0.52202E+08         0.14051E+07         0.00000E+00
    0.14051E+07        -0.50025E+08         0.00000E+00
    0.00000E+00         0.00000E+00        -0.51989E+08
 
   -0.52190E+08         0.14494E+07         0.00000E+00
    0.14494E+07        -0.50027E+08         0.00000E+00
    0.00000E+00         0.00000E+00        -0.51987E+08
 
   -0.52179E+08         0.14935E+07         0.00000E+00
    0.14935E+07        -0.50030E+08         0.00000E+00
    0.00000E+00         0.00000E+00        -0.51985E+08
 
   -0.52167E+08         0.15373E+07         0.00000E+00
    0.15373E+07        -0.50032E+08         0.00000E+00
    0.00000E+00         0.00000E+00        -0.51984E+08
 
   -0.52155E+08         0.15810E+07         0.00000E+00
    0.15810E+07        -0.50035E+08         0.00000E+00
    0.00000E+00         0.00000E+00        -0.51982E+08
 
   -0.52144E+08         0.16244E+07         0.00000E+00
    0.16244E+07        -0.50038E+08         0.00000E+00
    0.00000E+00         0.00000E+00        -0.51980E+08
 
   -0.52132E+08         0.16677E+07         0.00000E+00
    0.16677E+07        -0.50041E+08         0.00000E+00
    0.00000E+00         0.00000E+00        -0.51978E+08
 
   -0.52120E+08         0.17107E+07         0.00000E+00
    0.17107E+07        -0.50044E+08         0.00000E+00
    0.00000E+00         0.00000E+00        -0.51977E+08
 
   -0.52109E+08         0.17535E+07         0.00000E+00
    0.17535E+07        -0.50047E+08         0.00000E+00
    0.00000E+00         0.00000E+00        -0.51975E+08
 
   -0.52097E+08         0.17961E+07         0.00000E+00
    0.17961E+07        -0.50050E+08         0.00000E+00
    0.00000E+00         0.00000E+00        -0.51973E+08
 
   -0.52085E+08         0.18385E+07         0.00000E+00
    0.18385E+07        -0.50054E+08         0.00000E+00
    0.00000E+00         0.00000E+00        -0.51972E+08
 
   -0.52073E+08         0.18806E+07         0.00000E+00
    0.18806E+07        -0.50058E+08         0.00000E+00
    0.00000E+00         0.00000E+00        -0.51970E+08
 
   -0.52061E+08         0.19226E+07         0.00000E+00
    0.19226E+07        -0.50062E+08         0.00000E+00
    0.00000E+00         0.00000E+00        -0.51968E+08
 
   -0.52049E+08         0.19643E+07         0.00000E+00
    0.19643E+07        -0.50066E+08         0.00000E+00
    0.00000E+00         0.00000E+00        -0.51967E+08
 
   -0.52037E+08         0.20059E+07         0.00000E+00
    0.20059E+07        -0.50070E+08         0.00000E+00
    0.00000E+00         0.00000E+00        -0.51965E+08
 
   -0.52025E+08         0.20472E+07         0.00000E+00
    0.20472E+07        -0.50074E+08         0.00000E+00
    0.00000E+00         0.00000E+00        -0.51964E+08
 
   -0.52012E+08         0.20882E+07         0.00000E+00
    0.20882E+07        -0.50079E+08         0.00000E+00
    0.00000E+00         0.00000E+00        -0.51962E+08
 
   -0.52000E+08         0.21291E+07         0.00000E+00
    0.21291E+07        -0.50084E+08         0.00000E+00
    0.00000E+00         0.00000E+00        -0.51961E+08
 
   -0.51987E+08         0.21697E+07         0.00000E+00
    0.21697E+07        -0.50089E+08         0.00000E+00
    0.00000E+00         0.00000E+00        -0.51959E+08
 
   -0.51975E+08         0.22101E+07         0.00000E+00
    0.22101E+07        -0.50094E+08         0.00000E+00
    0.00000E+00         0.00000E+00        -0.51958E+08
 
   -0.51962E+08         0.22503E+07         0.00000E+00
    0.22503E+07        -0.50100E+08         0.00000E+00
    0.00000E+00         0.00000E+00        -0.51956E+08
 
   -0.52317E+08         0.25658E+05         0.00000E+00
    0.25658E+05        -0.50000E+08         0.00000E+00
    0.00000E+00         0.00000E+00        -0.51852E+08
 
   -0.52304E+08         0.76346E+05         0.00000E+00
    0.76346E+05        -0.50000E+08         0.00000E+00
    0.00000E+00         0.00000E+00        -0.51849E+08
 
   -0.52291E+08         0.12677E+06         0.00000E+00
    0.12677E+06        -0.50000E+08         0.00000E+00
    0.00000E+00         0.00000E+00        -0.51846E+08
 
   -0.52278E+08         0.17693E+06         0.00000E+00
    0.17693E+06        -0.50000E+08         0.00000E+00
    0.00000E+00         0.00000E+00        -0.51844E+08
 
   -0.52265E+08         0.22683E+06         0.00000E+00
    0.22683E+06        -0.50000E+08         0.00000E+00
    0.00000E+00         0.00000E+00        -0.51841E+08
 
   -0.52253E+08         0.27648E+06         0.00000E+00
    0.27648E+06        -0.50001E+08         0.00000E+00
    0.00000E+00         0.00000E+00        -0.51839E+08
 
   -0.52240E+08         0.32587E+06         0.00000E+00
    0.32587E+06        -0.50001E+08         0.00000E+00
    0.00000E+00         0.00000E+00        -0.51836E+08
 
   -0.52228E+08         0.37500E+06         0.00000E+00
    0.37500E+06        -0.50001E+08         0.00000E+00
    0.00000E+00         0.00000E+00        -0.51834E+08
 
   -0.52216E+08         0.42388E+06         0.00000E+00
    0.42388E+06        -0.50001E+08         0.00000E+00
    0.00000E+00         0.00000E+00        -0.51832E+08
 
   -0.52203E+08         0.47252E+06         0.00000E+00
    0.47252E+06        -0.50002E+08         0.00000E+00
    0.00000E+00         0.00000E+00        -0.51829E+08
 
   -0.52192E+08         0.52090E+06         0.00000E+00
    0.52090E+06        -0.50002E+08         0.00000E+00
    0.00000E+00         0.00000E+00        -0.51827E+08
 
   -0.52180E+08         0.56904E+06         0.00000E+00
    0.56904E+06        -0.50002E+08         0.00000E+00
    0.00000E+00         0.00000E+00        -0.51825E+08
 
   -0.52168E+08         0.61693E+06         0.00000E+00
    0.61693E+06        -0.50003E+08         0.00000E+00
    0.00000E+00         0.00000E+00        -0.51822E+08
 
   -0.52156E+08         0.66458E+06         0.00000E+00
    0.66458E+06        -0.50003E+08         0.00000E+00
    0.00000E+00         0.00000E+00        -0.51820E+08
 
   -0.52145E+08         0.71199E+06         0.00000E+00
    0.71199E+06        -0.50004E+08         0.00000E+00
    0.00000E+00         0.00000E+00        -0.51818E+08
 
   -0.52134E+08         0.75915E+06         0.00000E+00
    0.75915E+06        -0.50005E+08         0.00000E+00
    0.00000E+00         0.00000E+00        -0.51816E+08
 
   -0.52122E+08         0.80608E+06         0.00000E+00
    0.80608E+06        -0.50005E+08         0.00000E+00
    0.00000E+00         0.00000E+00        -0.51814E+08
 
   -0.52111E+08         0.85277E+06         0.00000E+00
    0.85277E+06        -0.50006E+08         0.00000E+00
    0.00000E+00         0.00000E+00        -0.51812E+08
 
   -0.52100E+08         0.89923E+06         0.00000E+00
    0.89923E+06        -0.50007E+08         0.00000E+00
    0.00000E+00         0.00000E+00        -0.51810E+08
 
   -0.52089E+08         0.94544E+06         0.00000E+00
    0.94544E+06        -0.50008E+08         0.00000E+00
    0.00000E+00         0.00000E+00        -0.51808E+08
 
   -0.52078E+08         0.99143E+06         0.00000E+00
    0.99143E+06        -0.50009E+08         0.00000E+00
    0.00000E+00         0.00000E+00        -0.51806E+08
 
   -0.52067E+08         0.10372E+07         0.00000E+00
    0.10372E+07        -0.50010E+08         0.00000E+00
    0.00000E+00         0.00000E+00        -0.51804E+08
 
   -0.52056E+08         0.10827E+07         0.00000E+00
    0.10827E+07        -0.50011E+08         0.00000E+00
    0.00000E+00         0.00000E+00        -0.51802E+08
 
   -0.52045E+08         0.11280E+07         0.00000E+00
    0.11280E+07        -0.50013E+08         0.00000E+00
    0.00000E+00         0.00000E+00        -0.51800E+08
 
   -0.52035E+08         0.11730E+07         0.00000E+00
    0.11730E+07        -0.50014E+08         0.00000E+00
    0.00000E+00         0.00000E+00        -0.51798E+08
 
   -0.52024E+08         0.12178E+07         0.00000E+00
    0.12178E+07        -0.50015E+08         0.00000E+00
    0.00000E+00         0.00000E+00        -0.51796E+08
 
   -0.52013E+08         0.12624E+07         0.00000E+00
    0.12624E+07        -0.50017E+08         0.00000E+00
    0.00000E+00         0.00000E+00        -0.51794E+08
 
   -0.52003E+08         0.13068E+07         0.00000E+00
    0.13068E+07        -0.50019E+08         0.00000E+00
    0.00000E+00         0.00000E+00        -0.51793E+08
 
   -0.51992E+08         0.13509E+07         0.00000E+00
    0.13509E+07        -0.50020E+08         0.00000E+00
    0.00000E+00         0.00000E+00        -0.51791E+08
 
   -0.51982E+08         0.13948E+07         0.00000E+00
    0.13948E+07        -0.50022E+08         0.00000E+00
    0.00000E+00         0.00000E+00        -0.51789E+08
 
   -0.51971E+08         0.14385E+07         0.00000E+00
    0.14385E+07        -0.50024E+08         0.00000E+00
    0.00000E+00         0.00000E+00        -0.51787E+08
 
   -0.51961E+08         0.14819E+07         0.00000E+00
    0.14819E+07        -0.50027E+08         0.00000E+00
    0.00000E+00         0.00000E+00        -0.51786E+08
 
   -0.51950E+08         0.15251E+07         0.00000E+00
    0.15251E+07        -0.50029E+08         0.00000E+00
    0.00000E+00         0.00000E+00        -0.51784E+08
 
   -0.51939E+08         0.15681E+07         0.00000E+00
    0.15681E+07        -0.50031E+08         0.00000E+00
    0.00000E+00         0.00000E+00        -0.51782E+08
 
   -0.51929E+08         0.16108E+07         0.00000E+00
    0.16108E+07        -0.50034E+08         0.00000E+00
    0.00000E+00         0.00000E+00        -0.51781E+08
 
   -0.51918E+08         0.16534E+07         0.00000E+00
    0.16534E+07        -0.50036E+08         0.00000E+00
    0.00000E+00         0.00000E+00        -0.51779E+08
 
   -0.51908E+08         0.16956E+07         0.00000E+00
    0.16956E+07        -0.50039E+08         0.00000E+00
    0.00000E+00         0.00000E+00        -0.51778E+08
 
   -0.51897E+08         0.17377E+07         0.00000E+00
    0.17377E+07        -0.50042E+08         0.00000E+00
    0.00000E+00         0.00000E+00        -0.51776E+08
 
   -0.51886E+08         0.17795E+07         0.00000E+00
    0.17795E+07        -0.50045E+08         0.00000E+00
    0.00000E+00         0.00000E+00        -0.51774E+08
 
   -0.51876E+08         0.18210E+07         0.00000E+00
    0.18210E+07        -0.50048E+08         0.00000E+00
    0.00000E+00         0.00000E+00        -0.51773E+08
 
   -0.51865E+08         0.18624E+07         0.00000E+00
    0.18624E+07        -0.50052E+08         0.00000E+00
    0.00000E+00         0.00000E+00        -0.51772E+08
 
   -0.51854E+08         0.19035E+07         0.00000E+00
    0.19035E+07        -0.50055E+08         0.00000E+00
    0.00000E+00         0.00000E+00        -0.51770E+08
 
   -0.51843E+08         0.19443E+07         0.00000E+00
    0.19443E+07        -0.50059E+08         0.00000E+00
    0.00000E+00         0.00000E+00        -0.51769E+08
 
   -0.51832E+08         0.19849E+07         0.00000E+00
    0.19849E+07        -0.50063E+08         0.00000E+00
    0.00000E+00         0.00000E+00        -0.51767E+08
 
   -0.51821E+08         0.20253E+07         0.00000E+00
    0.20253E+07        -0.50067E+08         0.00000E+00
    0.00000E+00         0.00000E+00        -0.51766E+08
 
   -0.51810E+08         0.20654E+07         0.00000E+00
    0.20654E+07        -0.50071E+08         0.00000E+00
    0.00000E+00         0.00000E+00        -0.51764E+08
 
   -0.51799E+08         0.21053E+07         0.00000E+00
    0.21053E+07        -0.50075E+08         0.00000E+00
    0.00000E+00         0.00000E+00        -0.51763E+08
 
   -0.51787E+08         0.21449E+07         0.00000E+00
    0.21449E+07        -0.50080E+08         0.00000E+00
    0.00000E+00         0.00000E+00        -0.51762E+08
 
   -0.51776E+08         0.21843E+07         0.00000E+00
    0.21843E+07        -0.50085E+08         0.00000E+00
    0.00000E+00         0.00000E+00        -0.51760E+08
 
   -0.51764E+08         0.22234E+07         0.00000E+00
    0.22234E+07        -0.50090E+08         0.00000E+00
    0.00000E+00         0.00000E+00        -0.51759E+08
 
   -0.52063E+08         0.25604E+05         0.00000E+00
    0.25604E+05        -0.50000E+08         0.00000E+00
    0.00000E+00         0.00000E+00        -0.51650E+08
 
   -0.52051E+08         0.76162E+05         0.00000E+00
    0.76162E+05        -0.50000E+08         0.00000E+00
    0.00000E+00         0.00000E+00        -0.51647E+08
 
   -0.52040E+08         0.12645E+06         0.00000E+00
    0.12645E+06        -0.50000E+08         0.00000E+00
    0.00000E+00         0.00000E+00        -0.51645E+08
 
   -0.52028E+08         0.17646E+06         0.00000E+00
    0.17646E+06        -0.50000E+08         0.00000E+00
    0.00000E+00         0.00000E+00        -0.51643E+08
 
   -0.52017E+08         0.22620E+06         0.00000E+00
    0.22620E+06        -0.50000E+08         0.00000E+00
    0.00000E+00         0.00000E+00        -0.51641E+08
 
   -0.52005E+08         0.27567E+06         0.00000E+00
    0.27567E+06        -0.50000E+08         0.00000E+00
    0.00000E+00         0.00000E+00        -0.51638E+08
 
   -0.51994E+08         0.32487E+06         0.00000E+00
    0.32487E+06        -0.50001E+08         0.00000E+00
    0.00000E+00         0.00000E+00        -0.51636E+08
 
   -0.51983E+08         0.37381E+06         0.00000E+00
    0.37381E+06        -0.50001E+08         0.00000E+00
    0.00000E+00         0.00000E+00        -0.51634E+08
 
   -0.51972E+08         0.42248E+06         0.00000E+00
    0.42248E+06        -0.50001E+08         0.00000E+00
    0.00000E+00         0.00000E+00        -0.51632E+08
 
   -0.51961E+08         0.47089E+06         0.00000E+00
    0.47089E+06        -0.50001E+08         0.00000E+00
    0.00000E+00         0.00000E+00        -0.51630E+08
 
   -0.51951E+08         0.51905E+06         0.00000E+00
    0.51905E+06        -0.50002E+08         0.00000E+00
    0.00000E+00         0.00000E+00        -0.51628E+08
 
   -0.51940E+08         0.56694E+06         0.00000E+00
    0.56694E+06        -0.50002E+08         0.00000E+00
    0.00000E+00         0.00000E+00        -0.51626E+08
 
   -0.51930E+08         0.61457E+06         0.00000E+00
    0.61457E+06        -0.50002E+08         0.00000E+00
    0.00000E+00         0.00000E+00        -0.51624E+08
 
   -0.51919E+08         0.66195E+06         0.00000E+00
    0.66195E+06        -0.50003E+08         0.00000E+00
    0.00000E+00         0.00000E+00        -0.51622E+08
 
   -0.51909E+08         0.70907E+06         0.00000E+00
    0.70907E+06        -0.50003E+08         0.00000E+00
    0.00000E+00         0.00000E+00        -0.51620E+08
 
   -0.51899E+08         0.75593E+06         0.00000E+00
    0.75593E+06        -0.50004E+08         0.00000E+00
    0.00000E+00         0.00000E+00        -0.51618E+08
 
   -0.51889E+08         0.80255E+06         0.00000E+00
    0.80255E+06        -0.50005E+08         0.00000E+00
    0.00000E+00         0.00000E+00        -0.51616E+08
 
   -0.51879E+08         0.84890E+06         0.00000E+00
    0.84890E+06        -0.50005E+08         0.00000E+00
    0.00000E+00         0.00000E+00        -0.51614E+08
 
   -0.51869E+08         0.89501E+06         0.00000E+00
    0.89501E+06        -0.50006E+08         0.00000E+00
    0.00000E+00         0.00000E+00        -0.51612E+08
 
   -0.51859E+08         0.94087E+06         0.00000E+00
    0.94087E+06        -0.50007E+08         0.00000E+00
    0.00000E+00         0.00000E+00        -0.51610E+08
 
   -0.51850E+08         0.98647E+06         0.00000E+00
    0.98647E+06        -0.50008E+08         0.00000E+00
    0.00000E+00         0.00000E+00        -0.51609E+08
 
   -0.51840E+08         0.10318E+07         0.00000E+00
    0.10318E+07        -0.50009E+08         0.00000E+00
    0.00000E+00         0.00000E+00        -0.51607E+08
 
   -0.51830E+08         0.10769E+07         0.00000E+00
    0.10769E+07        -0.50010E+08         0.00000E+00
    0.00000E+00         0.00000E+00        -0.51605E+08
 
   -0.51821E+08         0.11218E+07         0.00000E+00
    0.11218E+07        -0.50011E+08         0.00000E+00
    0.00000E+00         0.00000E+00        -0.51603E+08
 
   -0.51811E+08         0.11664E+07         0.00000E+00
    0.11664E+07        -0.50012E+08         0.00000E+00
    0.00000E+00         0.00000E+00        -0.51602E+08
 
   -0.51802E+08         0.12108E+07         0.00000E+00
    0.12108E+07        -0.50013E+08         0.00000E+00
    0.00000E+00         0.00000E+00        -0.51600E+08
 
   -0.51792E+08         0.12549E+07         0.00000E+00
    0.12549E+07        -0.50014E+08         0.00000E+00
    0.00000E+00         0.00000E+00        -0.51598E+08
 
   -0.51783E+08         0.12987E+07         0.00000E+00
    0.12987E+07        -0.50016E+08         0.00000E+00
    0.00000E+00         0.00000E+00        -0.51597E+08
 
   -0.51773E+08         0.13423E+07         0.00000E+00
    0.13423E+07        -0.50017E+08         0.00000E+00
    0.00000E+00         0.00000E+00        -0.51595E+08
 
   -0.51764E+08         0.13857E+07         0.00000E+00
    0.13857E+07        -0.50019E+08         0.00000E+00
    0.00000E+00         0.00000E+00        -0.51594E+08
 
   -0.51755E+08         0.14288E+07         0.00000E+00
    0.14288E+07        -0.50021E+08         0.00000E+00
    0.00000E+00         0.00000E+00        -0.51592E+08
 
   -0.51745E+08         0.14717E+07         0.00000E+00
    0.14717E+07        -0.50023E+08         0.00000E+00
    0.00000E+00         0.00000E+00        -0.51591E+08
 
   -0.51736E+08         0.15143E+07         0.00000E+00
    0.15143E+07        -0.50025E+08         0.00000E+00
    0.00000E+00         0.00000E+00        -0.51589E+08
 
   -0.51727E+08         0.15567E+07         0.00000E+00
    0.15567E+07        -0.50027E+08         0.00000E+00
    0.00000E+00         0.00000E+00        -0.51588E+08
 
   -0.51717E+08         0.15988E+07         0.00000E+00
    0.15988E+07        -0.50029E+08         0.00000E+00
    0.00000E+00         0.00000E+00        -0.51586E+08
 
   -0.51708E+08         0.16406E+07         0.00000E+00
    0.16406E+07        -0.50031E+08         0.00000E+00
    0.00000E+00         0.00000E+00        -0.51585E+08
 
   -0.51699E+08         0.16822E+07         0.00000E+00
    0.16822E+07        -0.50034E+08         0.00000E+00
    0.00000E+00         0.00000E+00        -0.51584E+08
 
   -0.51689E+08         0.17236E+07         0.00000E+00
    0.17236E+07        -0.50036E+08         0.00000E+00
    0.00000E+00         0.00000E+00        -0.51582E+08
 
   -0.51680E+08         0.17647E+07         0.00000E+00
    0.17647E+07        -0.50039E+08         0.00000E+00
    0.00000E+00         0.00000E+00        -0.51581E+08
 
   -0.51670E+08         0.18055E+07         0.00000E+00
    0.18055E+07        -0.50042E+08         0.00000E+00
    0.00000E+00         0.00000E+00        -0.51580E+08
 
   -0.51661E+08         0.18461E+07         0.00000E+00
    0.18461E+07        -0.50045E+08         0.00000E+00
    0.00000E+00         0.00000E+00        -0.51578E+08
 
   -0.51651E+08         0.18864E+07         0.00000E+00
    0.18864E+07        -0.50048E+08         0.00000E+00
    0.00000E+00         0.00000E+00        -0.51577E+08
 
   -0.51642E+08         0.19265E+07         0.00000E+00
    0.19265E+07        -0.50051E+08         0.00000E+00
    0.00000E+00         0.00000E+00        -0.51576E+08
 
   -0.51632E+08         0.19663E+07         0.00000E+00
    0.19663E+07        -0.50054E+08         0.00000E+00
    0.00000E+00         0.00000E+00        -0.51574E+08
 
   -0.51622E+08         0.20058E+07         0.00000E+00
    0.20058E+07        -0.50058E+08         0.00000E+00
    0.00000E+00         0.00000E+00        -0.51573E+08
 
   -0.51612E+08         0.20450E+07         0.00000E+00
    0.20450E+07        -0.50062E+08         0.00000E+00
    0.00000E+00         0.00000E+00        -0.51572E+08
 
   -0.51602E+08         0.20840E+07         0.00000E+00
    0.20840E+07        -0.50066E+08         0.00000E+00
    0.00000E+00         0.00000E+00        -0.51571E+08
 
   -0.51592E+08         0.21227E+07         0.00000E+00
    0.21227E+07        -0.50070E+08         0.00000E+00
    0.00000E+00         0.00000E+00        -0.51569E+08
 
   -0.51582E+08         0.21612E+07         0.00000E+00
    0.21612E+07        -0.50074E+08         0.00000E+00
    0.00000E+00         0.00000E+00        -0.51568E+08
 
   -0.51572E+08         0.21993E+07         0.00000E+00
    0.21993E+07        -0.50078E+08         0.00000E+00
    0.00000E+00         0.00000E+00        -0.51567E+08
 
   -0.51810E+08         0.25565E+05         0.00000E+00
    0.25565E+05        -0.50000E+08         0.00000E+00
    0.00000E+00         0.00000E+00        -0.51452E+08
 
   -0.51800E+08         0.76024E+05         0.00000E+00
    0.76024E+05        -0.50000E+08         0.00000E+00
    0.00000E+00         0.00000E+00        -0.51450E+08
 
   -0.51789E+08         0.12620E+06         0.00000E+00
    0.12620E+06        -0.50000E+08         0.00000E+00
    0.00000E+00         0.00000E+00        -0.51448E+08
 
   -0.51779E+08         0.17609E+06         0.00000E+00
    0.17609E+06        -0.50000E+08         0.00000E+00
    0.00000E+00         0.00000E+00        -0.51446E+08
 
   -0.51769E+08         0.22570E+06         0.00000E+00
    0.22570E+06        -0.50000E+08         0.00000E+00
    0.00000E+00         0.00000E+00        -0.51444E+08
 
   -0.51759E+08         0.27504E+06         0.00000E+00
    0.27504E+06        -0.50000E+08         0.00000E+00
    0.00000E+00         0.00000E+00        -0.51442E+08
 
   -0.51749E+08         0.32409E+06         0.00000E+00
    0.32409E+06        -0.50000E+08         0.00000E+00
    0.00000E+00         0.00000E+00        -0.51440E+08
 
   -0.51740E+08         0.37287E+06         0.00000E+00
    0.37287E+06        -0.50001E+08         0.00000E+00
    0.00000E+00         0.00000E+00        -0.51438E+08
 
   -0.51730E+08         0.42138E+06         0.00000E+00
    0.42138E+06        -0.50001E+08         0.00000E+00
    0.00000E+00         0.00000E+00        -0.51436E+08
 
   -0.51721E+08         0.46961E+06         0.00000E+00
    0.46961E+06        -0.50001E+08         0.00000E+00
    0.00000E+00         0.00000E+00        -0.51434E+08
 
   -0.51711E+08         0.51757E+06         0.00000E+00
    0.51757E+06        -0.50001E+08         0.00000E+00
    0.00000E+00         0.00000E+00        -0.51432E+08
 
   -0.51702E+08         0.56525E+06         0.00000E+00
    0.56525E+06        -0.50001E+08         0.00000E+00
    0.00000E+00         0.00000E+00        -0.51431E+08
 
   -0.51693E+08         0.61267E+06         0.00000E+00
    0.61267E+06        -0.50002E+08         0.00000E+00
    0.00000E+00         0.00000E+00        -0.51429E+08
 
   -0.51684E+08         0.65982E+06         0.00000E+00
    0.65982E+06        -0.50002E+08         0.00000E+00
    0.00000E+00         0.00000E+00        -0.51427E+08
 
   -0.51675E+08         0.70669E+06         0.00000E+00
    0.70669E+06        -0.50003E+08         0.00000E+00
    0.00000E+00         0.00000E+00        -0.51425E+08
 
   -0.51666E+08         0.75330E+06         0.00000E+00
    0.75330E+06        -0.50003E+08         0.00000E+00
    0.00000E+00         0.00000E+00        -0.51424E+08
 
   -0.51657E+08         0.79965E+06         0.00000E+00
    0.79965E+06        -0.50003E+08         0.00000E+00
    0.00000E+00         0.00000E+00        -0.51422E+08
 
   -0.51649E+08         0.84572E+06         0.00000E+00
    0.84572E+06        -0.50004E+08         0.00000E+00
    0.00000E+00         0.00000E+00        -0.51421E+08
 
   -0.51640E+08         0.89153E+06         0.00000E+00
    0.89153E+06        -0.50005E+08         0.00000E+00
    0.00000E+00         0.00000E+00        -0.51419E+08
 
   -0.51631E+08         0.93708E+06         0.00000E+00
    0.93708E+06        -0.50005E+08         0.00000E+00
    0.00000E+00         0.00000E+00        -0.51417E+08
 
   -0.51623E+08         0.98236E+06         0.00000E+00
    0.98236E+06        -0.50006E+08         0.00000E+00
    0.00000E+00         0.00000E+00        -0.51416E+08
 
   -0.51615E+08         0.10274E+07         0.00000E+00
    0.10274E+07        -0.50007E+08         0.00000E+00
    0.00000E+00         0.00000E+00        -0.51414E+08
 
   -0.51606E+08         0.10721E+07         0.00000E+00
    0.10721E+07        -0.50008E+08         0.00000E+00
    0.00000E+00         0.00000E+00        -0.51413E+08
 
   -0.51598E+08         0.11166E+07         0.00000E+00
    0.11166E+07        -0.50008E+08         0.00000E+00
    0.00000E+00         0.00000E+00        -0.51411E+08
 
   -0.51590E+08         0.11608E+07         0.00000E+00
    0.11608E+07        -0.50009E+08         0.00000E+00
    0.00000E+00         0.00000E+00        -0.51410E+08
 
   -0.51582E+08         0.12048E+07         0.00000E+00
    0.12048E+07        -0.50010E+08         0.00000E+00
    0.00000E+00         0.00000E+00        -0.51408E+08
 
   -0.51573E+08         0.12485E+07         0.00000E+00
    0.12485E+07        -0.50011E+08         0.00000E+00
    0.00000E+00         0.00000E+00        -0.51407E+08
 
   -0.51565E+08         0.12919E+07         0.00000E+00
    0.12919E+07        -0.50013E+08         0.00000E+00
    0.00000E+00         0.00000E+00        -0.51406E+08
 
   -0.51557E+08         0.13351E+07         0.00000E+00
    0.13351E+07        -0.50014E+08         0.00000E+00
    0.00000E+00         0.00000E+00        -0.51404E+08
 
   -0.51549E+08         0.13780E+07         0.00000E+00
    0.13780E+07        -0.50015E+08         0.00000E+00
    0.00000E+00         0.00000E+00        -0.51403E+08
 
   -0.51541E+08         0.14206E+07         0.00000E+00
    0.14206E+07        -0.50017E+08         0.00000E+00
    0.00000E+00         0.00000E+00        -0.51402E+08
 
   -0.51533E+08         0.14630E+07         0.00000E+00
    0.14630E+07        -0.50018E+08         0.00000E+00
    0.00000E+00         0.00000E+00        -0.51400E+08
 
   -0.51525E+08         0.15051E+07         0.00000E+00
    0.15051E+07        -0.50020E+08         0.00000E+00
    0.00000E+00         0.00000E+00        -0.51399E+08
 
   -0.51517E+08         0.15469E+07         0.00000E+00
    0.15469E+07        -0.50022E+08         0.00000E+00
    0.00000E+00         0.00000E+00        -0.51398E+08
 
   -0.51509E+08         0.15884E+07         0.00000E+00
    0.15884E+07        -0.50023E+08         0.00000E+00
    0.00000E+00         0.00000E+00        -0.51396E+08
 
   -0.51501E+08         0.16297E+07         0.00000E+00
    0.16297E+07        -0.50025E+08         0.00000E+00
    0.00000E+00         0.00000E+00        -0.51395E+08
 
   -0.51493E+08         0.16707E+07         0.00000E+00
    0.16707E+07        -0.50027E+08         0.00000E+00
    0.00000E+00         0.00000E+00        -0.51394E+08
 
   -0.51485E+08         0.17115E+07         0.00000E+00
    0.17115E+07        -0.50030E+08         0.00000E+00
    0.00000E+00         0.00000E+00        -0.51393E+08
 
   -0.51477E+08         0.17519E+07         0.00000E+00
    0.17519E+07        -0.50032E+08         0.00000E+00
    0.00000E+00         0.00000E+00        -0.51392E+08
 
   -0.51468E+08         0.17921E+07         0.00000E+00
    0.17921E+07        -0.50034E+08         0.00000E+00
    0.00000E+00         0.00000E+00        -0.51391E+08
 
   -0.51460E+08         0.18320E+07         0.00000E+00
    0.18320E+07        -0.50037E+08         0.00000E+00
    0.00000E+00         0.00000E+00        -0.51389E+08
 
   -0.51452E+08         0.18717E+07         0.00000E+00
    0.18717E+07        -0.50039E+08         0.00000E+00
    0.00000E+00         0.00000E+00        -0.51388E+08
 
   -0.51444E+08         0.19110E+07         0.00000E+00
    0.19110E+07        -0.50042E+08         0.00000E+00
    0.00000E+00         0.00000E+00        -0.51387E+08
 
   -0.51435E+08         0.19501E+07         0.00000E+00
    0.19501E+07        -0.50045E+08         0.00000E+00
    0.00000E+00         0.00000E+00        -0.51386E+08
 
   -0.51427E+08         0.19889E+07         0.00000E+00
    0.19889E+07        -0.50048E+08         0.00000E+00
    0.00000E+00         0.00000E+00        -0.51385E+08
 
   -0.51419E+08         0.20273E+07         0.00000E+00
    0.20273E+07        -0.50051E+08         0.00000E+00
    0.00000E+00         0.00000E+00        -0.51384E+08
 
   -0.51410E+08         0.20655E+07         0.00000E+00
    0.20655E+07        -0.50055E+08         0.00000E+00
    0.00000E+00         0.00000E+00        -0.51383E+08
 
   -0.51401E+08         0.21034E+07         0.00000E+00
    0.21034E+07        -0.50058E+08         0.00000E+00
    0.00000E+00         0.00000E+00        -0.51382E+08
 
   -0.51393E+08         0.21410E+07         0.00000E+00
    0.21410E+07        -0.50062E+08         0.00000E+00
    0.00000E+00         0.00000E+00        -0.51381E+08
 
   -0.51384E+08         0.21783E+07         0.00000E+00
    0.21783E+07        -0.50066E+08         0.00000E+00
    0.00000E+00         0.00000E+00        -0.51380E+08
 
   -0.51557E+08         0.25544E+05         0.00000E+00
    0.25544E+05        -0.50000E+08         0.00000E+00
    0.00000E+00         0.00000E+00        -0.51258E+08
 
   -0.51548E+08         0.75942E+05         0.00000E+00
    0.75942E+05        -0.50000E+08         0.00000E+00
    0.00000E+00         0.00000E+00        -0.51256E+08
 
   -0.51539E+08         0.12605E+06         0.00000E+00
    0.12605E+06        -0.50000E+08         0.00000E+00
    0.00000E+00         0.00000E+00        -0.51254E+08
 
   -0.51531E+08         0.17586E+06         0.00000E+00
    0.17586E+06        -0.50000E+08         0.00000E+00
    0.00000E+00         0.00000E+00        -0.51253E+08
 
   -0.51522E+08         0.22539E+06         0.00000E+00
    0.22539E+06        -0.50000E+08         0.00000E+00
    0.00000E+00         0.00000E+00        -0.51251E+08
 
   -0.51513E+08         0.27462E+06         0.00000E+00
    0.27462E+06        -0.50000E+08         0.00000E+00
    0.00000E+00         0.00000E+00        -0.51249E+08
 
   -0.51505E+08         0.32357E+06         0.00000E+00
    0.32357E+06        -0.50000E+08         0.00000E+00
    0.00000E+00         0.00000E+00        -0.51247E+08
 
   -0.51497E+08         0.37223E+06         0.00000E+00
    0.37223E+06        -0.50000E+08         0.00000E+00
    0.00000E+00         0.00000E+00        -0.51246E+08
 
   -0.51488E+08         0.42061E+06         0.00000E+00
    0.42061E+06        -0.50000E+08         0.00000E+00
    0.00000E+00         0.00000E+00        -0.51244E+08
 
   -0.51480E+08         0.46871E+06         0.00000E+00
    0.46871E+06        -0.50001E+08         0.00000E+00
    0.00000E+00         0.00000E+00        -0.51243E+08
 
   -0.51472E+08         0.51652E+06         0.00000E+00
    0.51652E+06        -0.50001E+08         0.00000E+00
    0.00000E+00         0.00000E+00        -0.51241E+08
 
   -0.51465E+08         0.56404E+06         0.00000E+00
    0.56404E+06        -0.50001E+08         0.00000E+00
    0.00000E+00         0.00000E+00        -0.51240E+08
 
   -0.51457E+08         0.61129E+06         0.00000E+00
    0.61129E+06        -0.50001E+08         0.00000E+00
    0.00000E+00         0.00000E+00        -0.51238E+08
 
   -0.51449E+08         0.65826E+06         0.00000E+00
    0.65826E+06        -0.50001E+08         0.00000E+00
    0.00000E+00         0.00000E+00        -0.51237E+08
 
   -0.51442E+08         0.70494E+06         0.00000E+00
    0.70494E+06        -0.50002E+08         0.00000E+00
    0.00000E+00         0.00000E+00        -0.51235E+08
 
   -0.51434E+08         0.75135E+06         0.00000E+00
    0.75135E+06        -0.50002E+08         0.00000E+00
    0.00000E+00         0.00000E+00        -0.51234E+08
 
   -0.51427E+08         0.79747E+06         0.00000E+00
    0.79747E+06        -0.50002E+08         0.00000E+00
    0.00000E+00         0.00000E+00        -0.51232E+08
 
   -0.51419E+08         0.84332E+06         0.00000E+00
    0.84332E+06        -0.50003E+08         0.00000E+00
    0.00000E+00         0.00000E+00        -0.51231E+08
 
   -0.51412E+08         0.88889E+06         0.00000E+00
    0.88889E+06        -0.50003E+08         0.00000E+00
    0.00000E+00         0.00000E+00        -0.51229E+08
 
   -0.51405E+08         0.93418E+06         0.00000E+00
    0.93418E+06        -0.50004E+08         0.00000E+00
    0.00000E+00         0.00000E+00        -0.51228E+08
 
   -0.51398E+08         0.97919E+06         0.00000E+00
    0.97919E+06        -0.50004E+08         0.00000E+00
    0.00000E+00         0.00000E+00        -0.51227E+08
 
   -0.51391E+08         0.10239E+07         0.00000E+00
    0.10239E+07        -0.50005E+08         0.00000E+00
    0.00000E+00         0.00000E+00        -0.51226E+08
 
   -0.51384E+08         0.10684E+07         0.00000E+00
    0.10684E+07        -0.50005E+08         0.00000E+00
    0.00000E+00         0.00000E+00        -0.51224E+08
 
   -0.51377E+08         0.11126E+07         0.00000E+00
    0.11126E+07        -0.50006E+08         0.00000E+00
    0.00000E+00         0.00000E+00        -0.51223E+08
 
   -0.51370E+08         0.11565E+07         0.00000E+00
    0.11565E+07        -0.50007E+08         0.00000E+00
    0.00000E+00         0.00000E+00        -0.51222E+08
 
   -0.51363E+08         0.12001E+07         0.00000E+00
    0.12001E+07        -0.50007E+08         0.00000E+00
    0.00000E+00         0.00000E+00        -0.51221E+08
 
   -0.51357E+08         0.12434E+07         0.00000E+00
    0.12434E+07        -0.50008E+08         0.00000E+00
    0.00000E+00         0.00000E+00        -0.51219E+08
 
   -0.51350E+08         0.12865E+07         0.00000E+00
    0.12865E+07        -0.50009E+08         0.00000E+00
    0.00000E+00         0.00000E+00        -0.51218E+08
 
   -0.51343E+08         0.13293E+07         0.00000E+00
    0.13293E+07        -0.50010E+08         0.00000E+00
    0.00000E+00         0.00000E+00        -0.51217E+08
 
   -0.51336E+08         0.13718E+07         0.00000E+00
    0.13718E+07        -0.50011E+08         0.00000E+00
    0.00000E+00         0.00000E+00        -0.51216E+08
 
   -0.51330E+08         0.14140E+07         0.00000E+00
    0.14140E+07        -0.50012E+08         0.00000E+00
    0.00000E+00         0.00000E+00        -0.51215E+08
 
   -0.51323E+08         0.14559E+07         0.00000E+00
    0.14559E+07        -0.50013E+08         0.00000E+00
    0.00000E+00         0.00000E+00        -0.51214E+08
 
   -0.51316E+08         0.14976E+07         0.00000E+00
    0.14976E+07        -0.50015E+08         0.00000E+00
    0.00000E+00         0.00000E+00        -0.51213E+08
 
   -0.51310E+08         0.15389E+07         0.00000E+00
    0.15389E+07        -0.50016E+08         0.00000E+00
    0.00000E+00         0.00000E+00        -0.51212E+08
 
   -0.51303E+08         0.15800E+07         0.00000E+00
    0.15800E+07        -0.50017E+08         0.00000E+00
    0.00000E+00         0.00000E+00        -0.51211E+08
 
   -0.51296E+08         0.16208E+07         0.00000E+00
    0.16208E+07        -0.50019E+08         0.00000E+00
    0.00000E+00         0.00000E+00        -0.51209E+08
 
   -0.51290E+08         0.16613E+07         0.00000E+00
    0.16613E+07        -0.50021E+08         0.00000E+00
    0.00000E+00         0.00000E+00        -0.51208E+08
 
   -0.51283E+08         0.17015E+07         0.00000E+00
    0.17015E+07        -0.50022E+08         0.00000E+00
    0.00000E+00         0.00000E+00        -0.51207E+08
 
   -0.51276E+08         0.17414E+07         0.00000E+00
    0.17414E+07        -0.50024E+08         0.00000E+00
    0.00000E+00         0.00000E+00        -0.51207E+08
 
   -0.51270E+08         0.17811E+07         0.00000E+00
    0.17811E+07        -0.50026E+08         0.00000E+00
    0.00000E+00         0.00000E+00        -0.51206E+08
 
   -0.51263E+08         0.18204E+07         0.00000E+00
    0.18204E+07        -0.50028E+08         0.00000E+00
    0.00000E+00         0.00000E+00        -0.51205E+08
 
   -0.51256E+08         0.18594E+07         0.00000E+00
    0.18594E+07        -0.50030E+08         0.00000E+00
    0.00000E+00         0.00000E+00        -0.51204E+08
 
   -0.51249E+08         0.18982E+07         0.00000E+00
    0.18982E+07        -0.50032E+08         0.00000E+00
    0.00000E+00         0.00000E+00        -0.51203E+08
 
   -0.51242E+08         0.19366E+07         0.00000E+00
    0.19366E+07        -0.50035E+08         0.00000E+00
    0.00000E+00         0.00000E+00        -0.51202E+08
 
   -0.51235E+08         0.19747E+07         0.00000E+00
    0.19747E+07        -0.50037E+08         0.00000E+00
    0.00000E+00         0.00000E+00        -0.51201E+08
 
   -0.51229E+08         0.20125E+07         0.00000E+00
    0.20125E+07        -0.50040E+08         0.00000E+00
    0.00000E+00         0.00000E+00        -0.51200E+08
 
   -0.51221E+08         0.20500E+07         0.00000E+00
    0.20500E+07        -0.50043E+08         0.00000E+00
    0.00000E+00         0.00000E+00        -0.51199E+08
 
   -0.51214E+08         0.20872E+07         0.00000E+00
    0.20872E+07        -0.50045E+08         0.00000E+00
    0.00000E+00         0.00000E+00        -0.51198E+08
 
   -0.51207E+08         0.21241E+07         0.00000E+00
    0.21241E+07        -0.50048E+08         0.00000E+00
    0.00000E+00         0.00000E+00        -0.51198E+08
 
   -0.51200E+08         0.21607E+07         0.00000E+00
    0.21607E+07        -0.50052E+08         0.00000E+00
    0.00000E+00         0.00000E+00        -0.51197E+08
 
   -0.51305E+08         0.25543E+05         0.00000E+00
    0.25543E+05        -0.50000E+08         0.00000E+00
    0.00000E+00         0.00000E+00        -0.51067E+08
 
   -0.51297E+08         0.75922E+05         0.00000E+00
    0.75922E+05        -0.50000E+08         0.00000E+00
    0.00000E+00         0.00000E+00        -0.51065E+08
 
   -0.51290E+08         0.12600E+06         0.00000E+00
    0.12600E+06        -0.50000E+08         0.00000E+00
    0.00000E+00         0.00000E+00        -0.51064E+08
 
   -0.51282E+08         0.17578E+06         0.00000E+00
    0.17578E+06        -0.50000E+08         0.00000E+00
    0.00000E+00         0.00000E+00        -0.51062E+08
 
   -0.51275E+08         0.22526E+06         0.00000E+00
    0.22526E+06        -0.50000E+08         0.00000E+00
    0.00000E+00         0.00000E+00        -0.51061E+08
 
   -0.51268E+08         0.27445E+06         0.00000E+00
    0.27445E+06        -0.50000E+08         0.00000E+00
    0.00000E+00         0.00000E+00        -0.51059E+08
 
   -0.51261E+08         0.32334E+06         0.00000E+00
    0.32334E+06        -0.50000E+08         0.00000E+00
    0.00000E+00         0.00000E+00        -0.51058E+08
 
   -0.51254E+08         0.37193E+06         0.00000E+00
    0.37193E+06        -0.50000E+08         0.00000E+00
    0.00000E+00         0.00000E+00        -0.51057E+08
 
   -0.51248E+08         0.42023E+06         0.00000E+00
    0.42023E+06        -0.50000E+08         0.00000E+00
    0.00000E+00         0.00000E+00        -0.51055E+08
 
   -0.51241E+08         0.46823E+06         0.00000E+00
    0.46823E+06        -0.50000E+08         0.00000E+00
    0.00000E+00         0.00000E+00        -0.51054E+08
 
   -0.51234E+08         0.51595E+06         0.00000E+00
    0.51595E+06        -0.50000E+08         0.00000E+00
    0.00000E+00         0.00000E+00        -0.51053E+08
 
   -0.51228E+08         0.56337E+06         0.00000E+00
    0.56337E+06        -0.50000E+08         0.00000E+00
    0.00000E+00         0.00000E+00        -0.51052E+08
 
   -0.51222E+08         0.61050E+06         0.00000E+00
    0.61050E+06        -0.50000E+08         0.00000E+00
    0.00000E+00         0.00000E+00        -0.51050E+08
 
   -0.51215E+08         0.65734E+06         0.00000E+00
    0.65734E+06        -0.50000E+08         0.00000E+00
    0.00000E+00         0.00000E+00        -0.51049E+08
 
   -0.51209E+08         0.70388E+06         0.00000E+00
    0.70388E+06        -0.50001E+08         0.00000E+00
    0.00000E+00         0.00000E+00        -0.51048E+08
 
   -0.51203E+08         0.75014E+06         0.00000E+00
    0.75014E+06        -0.50001E+08         0.00000E+00
    0.00000E+00         0.00000E+00        -0.51047E+08
 
   -0.51197E+08         0.79610E+06         0.00000E+00
    0.79610E+06        -0.50001E+08         0.00000E+00
    0.00000E+00         0.00000E+00        -0.51046E+08
 
   -0.51191E+08         0.84178E+06         0.00000E+00
    0.84178E+06        -0.50001E+08         0.00000E+00
    0.00000E+00         0.00000E+00        -0.51044E+08
 
   -0.51186E+08         0.88717E+06         0.00000E+00
    0.88717E+06        -0.50001E+08         0.00000E+00
    0.00000E+00         0.00000E+00        -0.51043E+08
 
   -0.51180E+08         0.93226E+06         0.00000E+00
    0.93226E+06        -0.50002E+08         0.00000E+00
    0.00000E+00         0.00000E+00        -0.51042E+08
 
   -0.51174E+08         0.97707E+06         0.00000E+00
    0.97707E+06        -0.50002E+08         0.00000E+00
    0.00000E+00         0.00000E+00        -0.51041E+08
 
   -0.51169E+08         0.10216E+07         0.00000E+00
    0.10216E+07        -0.50002E+08         0.00000E+00
    0.00000E+00         0.00000E+00        -0.51040E+08
 
   -0.51163E+08         0.10658E+07         0.00000E+00
    0.10658E+07        -0.50003E+08         0.00000E+00
    0.00000E+00         0.00000E+00        -0.51039E+08
 
   -0.51157E+08         0.11097E+07         0.00000E+00
    0.11097E+07        -0.50003E+08         0.00000E+00
    0.00000E+00         0.00000E+00        -0.51038E+08
 
   -0.51152E+08         0.11534E+07         0.00000E+00
    0.11534E+07        -0.50003E+08         0.00000E+00
    0.00000E+00         0.00000E+00        -0.51037E+08
 
   -0.51147E+08         0.11967E+07         0.00000E+00
    0.11967E+07        -0.50004E+08         0.00000E+00
    0.00000E+00         0.00000E+00        -0.51036E+08
 
   -0.51141E+08         0.12398E+07         0.00000E+00
    0.12398E+07        -0.50005E+08         0.00000E+00
    0.00000E+00         0.00000E+00        -0.51035E+08
 
   -0.51136E+08         0.12826E+07         0.00000E+00
    0.12826E+07        -0.50005E+08         0.00000E+00
    0.00000E+00         0.00000E+00        -0.51034E+08
 
   -0.51131E+08         0.13250E+07         0.00000E+00
    0.13250E+07        -0.50006E+08         0.00000E+00
    0.00000E+00         0.00000E+00        -0.51033E+08
 
   -0.51125E+08         0.13672E+07         0.00000E+00
    0.13672E+07        -0.50006E+08         0.00000E+00
    0.00000E+00         0.00000E+00        -0.51032E+08
 
   -0.51120E+08         0.14091E+07         0.00000E+00
    0.14091E+07        -0.50007E+08         0.00000E+00
    0.00000E+00         0.00000E+00        -0.51031E+08
 
   -0.51115E+08         0.14507E+07         0.00000E+00
    0.14507E+07        -0.50008E+08         0.00000E+00
    0.00000E+00         0.00000E+00        -0.51030E+08
 
   -0.51110E+08         0.14920E+07         0.00000E+00
    0.14920E+07        -0.50009E+08         0.00000E+00
    0.00000E+00         0.00000E+00        -0.51030E+08
 
   -0.51105E+08         0.15330E+07         0.00000E+00
    0.15330E+07        -0.50010E+08         0.00000E+00
    0.00000E+00         0.00000E+00        -0.51029E+08
 
   -0.51099E+08         0.15736E+07         0.00000E+00
    0.15736E+07        -0.50011E+08         0.00000E+00
    0.00000E+00         0.00000E+00        -0.51028E+08
 
   -0.51094E+08         0.16140E+07         0.00000E+00
    0.16140E+07        -0.50012E+08         0.00000E+00
    0.00000E+00         0.00000E+00        -0.51027E+08
 
   -0.51089E+08         0.16541E+07         0.00000E+00
    0.16541E+07        -0.50013E+08         0.00000E+00
    0.00000E+00         0.00000E+00        -0.51026E+08
 
   -0.51084E+08         0.16939E+07         0.00000E+00
    0.16939E+07        -0.50014E+08         0.00000E+00
    0.00000E+00         0.00000E+00        -0.51026E+08
 
   -0.51079E+08         0.17334E+07         0.00000E+00
    0.17334E+07        -0.50016E+08         0.00000E+00
    0.00000E+00         0.00000E+00        -0.51025E+08
 
   -0.51073E+08         0.17725E+07         0.00000E+00
    0.17725E+07        -0.50017E+08         0.00000E+00
    0.00000E+00         0.00000E+00        -0.51024E+08
 
   -0.51068E+08         0.18114E+07         0.00000E+00
    0.18114E+07        -0.50019E+08         0.00000E+00
    0.00000E+00         0.00000E+00        -0.51023E+08
 
   -0.51063E+08         0.18499E+07         0.00000E+00
    0.18499E+07        -0.50020E+08         0.00000E+00
    0.00000E+00         0.00000E+00        -0.51023E+08
 
   -0.51058E+08         0.18881E+07         0.00000E+00
    0.18881E+07        -0.50022E+08         0.00000E+00
    0.00000E+00         0.00000E+00        -0.51022E+08
 
   -0.51052E+08         0.19260E+07         0.00000E+00
    0.19260E+07        -0.50024E+08         0.00000E+00
    0.00000E+00         0.00000E+00        -0.51021E+08
 
   -0.51047E+08         0.19636E+07         0.00000E+00
    0.19636E+07        -0.50026E+08         0.00000E+00
    0.00000E+00         0.00000E+00        -0.51020E+08
 
   -0.51042E+08         0.20008E+07         0.00000E+00
    0.20008E+07        -0.50028E+08         0.00000E+00
    0.00000E+00         0.00000E+00        -0.51020E+08
 
   -0.51036E+08         0.20377E+07         0.00000E+00
    0.20377E+07        -0.50030E+08         0.00000E+00
    0.00000E+00         0.00000E+00        -0.51019E+08
 
   -0.51031E+08         0.20743E+07         0.00000E+00
    0.20743E+07        -0.50032E+08         0.00000E+00
    0.00000E+00         0.00000E+00        -0.51018E+08
 
   -0.51025E+08         0.21106E+07         0.00000E+00
    0.21106E+07        -0.50034E+08         0.00000E+00
    0.00000E+00         0.00000E+00        -0.51018E+08
 
   -0.51020E+08         0.21465E+07         0.00000E+00
    0.21465E+07        -0.50036E+08         0.00000E+00
    0.00000E+00         0.00000E+00        -0.51017E+08
 
   -0.51052E+08         0.25565E+05         0.00000E+00
    0.25565E+05        -0.50000E+08         0.00000E+00
    0.00000E+00         0.00000E+00        -0.50878E+08
 
   -0.51046E+08         0.75972E+05         0.00000E+00
    0.75972E+05        -0.50000E+08         0.00000E+00
    0.00000E+00         0.00000E+00        -0.50877E+08
 
   -0.51040E+08         0.12607E+06         0.00000E+00
    0.12607E+06        -0.50000E+08         0.00000E+00
    0.00000E+00         0.00000E+00        -0.50876E+08
 
   -0.51034E+08         0.17587E+06         0.00000E+00
    0.17587E+06        -0.50000E+08         0.00000E+00
    0.00000E+00         0.00000E+00        -0.50875E+08
 
   -0.51028E+08         0.22535E+06         0.00000E+00
    0.22535E+06        -0.50000E+08         0.00000E+00
    0.00000E+00         0.00000E+00        -0.50874E+08
 
   -0.51023E+08         0.27454E+06         0.00000E+00
    0.27454E+06        -0.50000E+08         0.00000E+00
    0.00000E+00         0.00000E+00        -0.50872E+08
 
   -0.51017E+08         0.32342E+06         0.00000E+00
    0.32342E+06        -0.50000E+08         0.00000E+00
    0.00000E+00         0.00000E+00        -0.50871E+08
 
   -0.51012E+08         0.37199E+06         0.00000E+00
    0.37199E+06        -0.50000E+08         0.00000E+00
    0.00000E+00         0.00000E+00        -0.50870E+08
 
   -0.51007E+08         0.42027E+06         0.00000E+00
    0.42027E+06        -0.50000E+08         0.00000E+00
    0.00000E+00         0.00000E+00        -0.50869E+08
 
   -0.51002E+08         0.46824E+06         0.00000E+00
    0.46824E+06        -0.50000E+08         0.00000E+00
    0.00000E+00         0.00000E+00        -0.50868E+08
 
   -0.50997E+08         0.51591E+06         0.00000E+00
    0.51591E+06        -0.50000E+08         0.00000E+00
    0.00000E+00         0.00000E+00        -0.50867E+08
 
   -0.50992E+08         0.56327E+06         0.00000E+00
    0.56327E+06        -0.50000E+08         0.00000E+00
    0.00000E+00         0.00000E+00        -0.50866E+08
 
   -0.50987E+08         0.61034E+06         0.00000E+00
    0.61034E+06        -0.50000E+08         0.00000E+00
    0.00000E+00         0.00000E+00        -0.50865E+08
 
   -0.50982E+08         0.65711E+06         0.00000E+00
    0.65711E+06        -0.50000E+08         0.00000E+00
    0.00000E+00         0.00000E+00        -0.50864E+08
 
   -0.50977E+08         0.70358E+06         0.00000E+00
    0.70358E+06        -0.50000E+08         0.00000E+00
    0.00000E+00         0.00000E+00        -0.50863E+08
 
   -0.50973E+08         0.74974E+06         0.00000E+00
    0.74974E+06        -0.49999E+08         0.00000E+00
    0.00000E+00         0.00000E+00        -0.50862E+08
 
   -0.50968E+08         0.79561E+06         0.00000E+00
    0.79561E+06        -0.49999E+08         0.00000E+00
    0.00000E+00         0.00000E+00        -0.50861E+08
 
   -0.50964E+08         0.84118E+06         0.00000E+00
    0.84118E+06        -0.50000E+08         0.00000E+00
    0.00000E+00         0.00000E+00        -0.50861E+08
 
   -0.50960E+08         0.88644E+06         0.00000E+00
    0.88644E+06        -0.50000E+08         0.00000E+00
    0.00000E+00         0.00000E+00        -0.50860E+08
 
   -0.50955E+08         0.93141E+06         0.00000E+00
    0.93141E+06        -0.50000E+08         0.00000E+00
    0.00000E+00         0.00000E+00        -0.50859E+08
 
   -0.50951E+08         0.97608E+06         0.00000E+00
    0.97608E+06        -0.50000E+08         0.00000E+00
    0.00000E+00         0.00000E+00        -0.50858E+08
 
   -0.50947E+08         0.10204E+07         0.00000E+00
    0.10204E+07        -0.50000E+08         0.00000E+00
    0.00000E+00         0.00000E+00        -0.50857E+08
 
   -0.50943E+08         0.10645E+07         0.00000E+00
    0.10645E+07        -0.50000E+08         0.00000E+00
    0.00000E+00         0.00000E+00        -0.50856E+08
 
   -0.50939E+08         0.11083E+07         0.00000E+00
    0.11083E+07        -0.50000E+08         0.00000E+00
    0.00000E+00         0.00000E+00        -0.50856E+08
 
   -0.50935E+08         0.11517E+07         0.00000E+00
    0.11517E+07        -0.50000E+08         0.00000E+00
    0.00000E+00         0.00000E+00        -0.50855E+08
 
   -0.50931E+08         0.11949E+07         0.00000E+00
    0.11949E+07        -0.50000E+08         0.00000E+00
    0.00000E+00         0.00000E+00        -0.50854E+08
 
   -0.50927E+08         0.12377E+07         0.00000E+00
    0.12377E+07        -0.50001E+08         0.00000E+00
    0.00000E+00         0.00000E+00        -0.50853E+08
 
   -0.50923E+08         0.12803E+07         0.00000E+00
    0.12803E+07        -0.50001E+08         0.00000E+00
    0.00000E+00         0.00000E+00        -0.50853E+08
 
   -0.50920E+08         0.13225E+07         0.00000E+00
    0.13225E+07        -0.50001E+08         0.00000E+00
    0.00000E+00         0.00000E+00        -0.50852E+08
 
   -0.50916E+08         0.13645E+07         0.00000E+00
    0.13645E+07        -0.50002E+08         0.00000E+00
    0.00000E+00         0.00000E+00        -0.50851E+08
 
   -0.50912E+08         0.14061E+07         0.00000E+00
    0.14061E+07        -0.50002E+08         0.00000E+00
    0.00000E+00         0.00000E+00        -0.50851E+08
 
   -0.50908E+08         0.14474E+07         0.00000E+00
    0.14474E+07        -0.50002E+08         0.00000E+00
    0.00000E+00         0.00000E+00        -0.50850E+08
 
   -0.50905E+08         0.14884E+07         0.00000E+00
    0.14884E+07        -0.50003E+08         0.00000E+00
    0.00000E+00         0.00000E+00        -0.50849E+08
 
   -0.50901E+08         0.15291E+07         0.00000E+00
    0.15291E+07        -0.50003E+08         0.00000E+00
    0.00000E+00         0.00000E+00        -0.50849E+08
 
   -0.50897E+08         0.15695E+07         0.00000E+00
    0.15695E+07        -0.50004E+08         0.00000E+00
    0.00000E+00         0.00000E+00        -0.50848E+08
 
   -0.50894E+08         0.16095E+07         0.00000E+00
    0.16095E+07        -0.50005E+08         0.00000E+00
    0.00000E+00         0.00000E+00        -0.50848E+08
 
   -0.50890E+08         0.16493E+07         0.00000E+00
    0.16493E+07        -0.50005E+08         0.00000E+00
    0.00000E+00         0.00000E+00        -0.50847E+08
 
   -0.50887E+08         0.16887E+07         0.00000E+00
    0.16887E+07        -0.50006E+08         0.00000E+00
    0.00000E+00         0.00000E+00        -0.50846E+08
 
   -0.50883E+08         0.17278E+07         0.00000E+00
    0.17278E+07        -0.50007E+08         0.00000E+00
    0.00000E+00         0.00000E+00        -0.50846E+08
 
   -0.50879E+08         0.17666E+07         0.00000E+00
    0.17666E+07        -0.50008E+08         0.00000E+00
    0.00000E+00         0.00000E+00        -0.50845E+08
 
   -0.50876E+08         0.18051E+07         0.00000E+00
    0.18051E+07        -0.50009E+08         0.00000E+00
    0.00000E+00         0.00000E+00        -0.50845E+08
 
   -0.50872E+08         0.18432E+07         0.00000E+00
    0.18432E+07        -0.50010E+08         0.00000E+00
    0.00000E+00         0.00000E+00        -0.50844E+08
 
   -0.50868E+08         0.18810E+07         0.00000E+00
    0.18810E+07        -0.50011E+08         0.00000E+00
    0.00000E+00         0.00000E+00        -0.50844E+08
 
   -0.50865E+08         0.19185E+07         0.00000E+00
    0.19185E+07        -0.50012E+08         0.00000E+00
    0.00000E+00         0.00000E+00        -0.50843E+08
 
   -0.50861E+08         0.19556E+07         0.00000E+00
    0.19556E+07        -0.50013E+08         0.00000E+00
    0.00000E+00         0.00000E+00        -0.50843E+08
 
   -0.50857E+08         0.19924E+07         0.00000E+00
    0.19924E+07        -0.50014E+08         0.00000E+00
    0.00000E+00         0.00000E+00        -0.50842E+08
 
   -0.50854E+08         0.20288E+07         0.00000E+00
    0.20288E+07        -0.50016E+08         0.00000E+00
    0.00000E+00         0.00000E+00        -0.50842E+08
 
   -0.50850E+08         0.20649E+07         0.00000E+00
    0.20649E+07        -0.50017E+08         0.00000E+00
    0.00000E+00         0.00000E+00        -0.50841E+08
 
   -0.50846E+08         0.21007E+07         0.00000E+00
    0.21007E+07        -0.50019E+08         0.00000E+00
    0.00000E+00         0.00000E+00        -0.50841E+08
 
   -0.50842E+08         0.21361E+07         0.00000E+00
    0.21361E+07        -0.50020E+08         0.00000E+00
    0.00000E+00         0.00000E+00        -0.50840E+08
 
   -0.50799E+08         0.25612E+05         0.00000E+00
    0.25612E+05        -0.50000E+08         0.00000E+00
    0.00000E+00         0.00000E+00        -0.50692E+08
 
   -0.50794E+08         0.76098E+05         0.00000E+00
    0.76098E+05        -0.50000E+08         0.00000E+00
    0.00000E+00         0.00000E+00        -0.50691E+08
 
   -0.50790E+08         0.12627E+06         0.00000E+00
    0.12627E+06        -0.50000E+08         0.00000E+00
    0.00000E+00         0.00000E+00        -0.50690E+08
 
   -0.50786E+08         0.17613E+06         0.00000E+00
    0.17613E+06        -0.50000E+08         0.00000E+00
    0.00000E+00         0.00000E+00        -0.50689E+08
 
   -0.50782E+08         0.22568E+06         0.00000E+00
    0.22568E+06        -0.50000E+08         0.00000E+00
    0.00000E+00         0.00000E+00        -0.50688E+08
 
   -0.50778E+08         0.27491E+06         0.00000E+00
    0.27491E+06        -0.50000E+08         0.00000E+00
    0.00000E+00         0.00000E+00        -0.50687E+08
 
   -0.50774E+08         0.32383E+06         0.00000E+00
    0.32383E+06        -0.50000E+08         0.00000E+00
    0.00000E+00         0.00000E+00        -0.50687E+08
 
   -0.50770E+08         0.37245E+06         0.00000E+00
    0.37245E+06        -0.49999E+08         0.00000E+00
    0.00000E+00         0.00000E+00        -0.50686E+08
 
   -0.50766E+08         0.42075E+06         0.00000E+00
    0.42075E+06        -0.49999E+08         0.00000E+00
    0.00000E+00         0.00000E+00        -0.50685E+08
 
   -0.50763E+08         0.46875E+06         0.00000E+00
    0.46875E+06        -0.49999E+08         0.00000E+00
    0.00000E+00         0.00000E+00        -0.50684E+08
 
   -0.50759E+08         0.51643E+06         0.00000E+00
    0.51643E+06        -0.49999E+08         0.00000E+00
    0.00000E+00         0.00000E+00        -0.50684E+08
 
   -0.50756E+08         0.56381E+06         0.00000E+00
    0.56381E+06        -0.49999E+08         0.00000E+00
    0.00000E+00         0.00000E+00        -0.50683E+08
 
   -0.50752E+08         0.61087E+06         0.00000E+00
    0.61087E+06        -0.49999E+08         0.00000E+00
    0.00000E+00         0.00000E+00        -0.50682E+08
 
   -0.50749E+08         0.65763E+06         0.00000E+00
    0.65763E+06        -0.49999E+08         0.00000E+00
    0.00000E+00         0.00000E+00        -0.50682E+08
 
   -0.50746E+08         0.70408E+06         0.00000E+00
    0.70408E+06        -0.49998E+08         0.00000E+00
    0.00000E+00         0.00000E+00        -0.50681E+08
 
   -0.50743E+08         0.75022E+06         0.00000E+00
    0.75022E+06        -0.49998E+08         0.00000E+00
    0.00000E+00         0.00000E+00        -0.50680E+08
 
   -0.50740E+08         0.79605E+06         0.00000E+00
    0.79605E+06        -0.49998E+08         0.00000E+00
    0.00000E+00         0.00000E+00        -0.50680E+08
 
   -0.50737E+08         0.84158E+06         0.00000E+00
    0.84158E+06        -0.49998E+08         0.00000E+00
    0.00000E+00         0.00000E+00        -0.50679E+08
 
   -0.50734E+08         0.88679E+06         0.00000E+00
    0.88679E+06        -0.49998E+08         0.00000E+00
    0.00000E+00         0.00000E+00        -0.50678E+08
 
   -0.50731E+08         0.93170E+06         0.00000E+00
    0.93170E+06        -0.49997E+08         0.00000E+00
    0.00000E+00         0.00000E+00        -0.50678E+08
 
   -0.50729E+08         0.97629E+06         0.00000E+00
    0.97629E+06        -0.49997E+08         0.00000E+00
    0.00000E+00         0.00000E+00        -0.50677E+08
 
   -0.50726E+08         0.10206E+07         0.00000E+00
    0.10206E+07        -0.49997E+08         0.00000E+00
    0.00000E+00         0.00000E+00        -0.50677E+08
 
   -0.50724E+08         0.10645E+07         0.00000E+00
    0.10645E+07        -0.49997E+08         0.00000E+00
    0.00000E+00         0.00000E+00        -0.50676E+08
 
   -0.50721E+08         0.11082E+07         0.00000E+00
    0.11082E+07        -0.49997E+08         0.00000E+00
    0.00000E+00         0.00000E+00        -0.50676E+08
 
   -0.50719E+08         0.11516E+07         0.00000E+00
    0.11516E+07        -0.49997E+08         0.00000E+00
    0.00000E+00         0.00000E+00        -0.50675E+08
 
   -0.50716E+08         0.11946E+07         0.00000E+00
    0.11946E+07        -0.49997E+08         0.00000E+00
    0.00000E+00         0.00000E+00        -0.50675E+08
 
   -0.50714E+08         0.12373E+07         0.00000E+00
    0.12373E+07        -0.49996E+08         0.00000E+00
    0.00000E+00         0.00000E+00        -0.50674E+08
 
   -0.50712E+08         0.12797E+07         0.00000E+00
    0.12797E+07        -0.49996E+08         0.00000E+00
    0.00000E+00         0.00000E+00        -0.50674E+08
 
   -0.50710E+08         0.13218E+07         0.00000E+00
    0.13218E+07        -0.49996E+08         0.00000E+00
    0.00000E+00         0.00000E+00        -0.50673E+08
 
   -0.50707E+08         0.13636E+07         0.00000E+00
    0.13636E+07        -0.49996E+08         0.00000E+00
    0.00000E+00         0.00000E+00        -0.50673E+08
 
   -0.50705E+08         0.14050E+07         0.00000E+00
    0.14050E+07        -0.49996E+08         0.00000E+00
    0.00000E+00         0.00000E+00        -0.50672E+08
 
   -0.50703E+08         0.14462E+07         0.00000E+00
    0.14462E+07        -0.49996E+08         0.00000E+00
    0.00000E+00         0.00000E+00        -0.50672E+08
 
   -0.50701E+08         0.14870E+07         0.00000E+00
    0.14870E+07        -0.49996E+08         0.00000E+00
    0.00000E+00         0.00000E+00        -0.50671E+08
 
   -0.50699E+08         0.15275E+07         0.00000E+00
    0.15275E+07        -0.49996E+08         0.00000E+00
    0.00000E+00         0.00000E+00        -0.50671E+08
 
   -0.50697E+08         0.15676E+07         0.00000E+00
    0.15676E+07        -0.49997E+08         0.00000E+00
    0.00000E+00         0.00000E+00        -0.50671E+08
 
   -0.50695E+08         0.16075E+07         0.00000E+00
    0.16075E+07        -0.49997E+08         0.00000E+00
    0.00000E+00         0.00000E+00        -0.50670E+08
 
   -0.50693E+08         0.16470E+07         0.00000E+00
    0.16470E+07        -0.49997E+08         0.00000E+00
    0.00000E+00         0.00000E+00        -0.50670E+08
 
   -0.50691E+08         0.16862E+07         0.00000E+00
    0.16862E+07        -0.49997E+08         0.00000E+00
    0.00000E+00         0.00000E+00        -0.50670E+08
 
   -0.50689E+08         0.17250E+07         0.00000E+00
    0.17250E+07        -0.49997E+08         0.00000E+00
    0.00000E+00         0.00000E+00        -0.50669E+08
 
   -0.50687E+08         0.17635E+07         0.00000E+00
    0.17635E+07        -0.49998E+08         0.00000E+00
    0.00000E+00         0.00000E+00        -0.50669E+08
 
   -0.50685E+08         0.18017E+07         0.00000E+00
    0.18017E+07        -0.49998E+08         0.00000E+00
    0.00000E+00         0.00000E+00        -0.50669E+08
 
   -0.50683E+08         0.18395E+07         0.00000E+00
    0.18395E+07        -0.49998E+08         0.00000E+00
    0.00000E+00         0.00000E+00        -0.50668E+08
 
   -0.50681E+08         0.18770E+07         0.00000E+00
    0.18770E+07        -0.49999E+08         0.00000E+00
    0.00000E+00         0.00000E+00        -0.50668E+08
 
   -0.50679E+08         0.19142E+07         0.00000E+00
    0.19142E+07        -0.49999E+08         0.00000E+00
    0.00000E+00         0.00000E+00        -0.50668E+08
 
   -0.50677E+08         0.19510E+07         0.00000E+00
    0.19510E+07        -0.50000E+08         0.00000E+00
    0.00000E+00         0.00000E+00        -0.50667E+08
 
   -0.50675E+08         0.19874E+07         0.00000E+00
    0.19874E+07        -0.50000E+08         0.00000E+00
    0.00000E+00         0.00000E+00        -0.50667E+08
 
   -0.50673E+08         0.20235E+07         0.00000E+00
    0.20235E+07        -0.50001E+08         0.00000E+00
    0.00000E+00         0.00000E+00        -0.50667E+08
 
   -0.50671E+08         0.20592E+07         0.00000E+00
    0.20592E+07        -0.50002E+08         0.00000E+00
    0.00000E+00         0.00000E+00        -0.50667E+08
 
   -0.50669E+08         0.20946E+07         0.00000E+00
    0.20946E+07        -0.50003E+08         0.00000E+00
    0.00000E+00         0.00000E+00        -0.50666E+08
 
   -0.50667E+08         0.21296E+07         0.00000E+00
    0.21296E+07        -0.50004E+08         0.00000E+00
    0.00000E+00         0.00000E+00        -0.50666E+08
 
   -0.50545E+08         0.25685E+05         0.00000E+00
    0.25685E+05        -0.50000E+08         0.00000E+00
    0.00000E+00         0.00000E+00        -0.50507E+08
 
   -0.50542E+08         0.76303E+05         0.00000E+00
    0.76303E+05        -0.50000E+08         0.00000E+00
    0.00000E+00         0.00000E+00        -0.50506E+08
 
   -0.50540E+08         0.12660E+06         0.00000E+00
    0.12660E+06        -0.50000E+08         0.00000E+00
    0.00000E+00         0.00000E+00        -0.50506E+08
 
   -0.50537E+08         0.17658E+06         0.00000E+00
    0.17658E+06        -0.50000E+08         0.00000E+00
    0.00000E+00         0.00000E+00        -0.50505E+08
 
   -0.50534E+08         0.22624E+06         0.00000E+00
    0.22624E+06        -0.50000E+08         0.00000E+00
    0.00000E+00         0.00000E+00        -0.50504E+08
 
   -0.50532E+08         0.27559E+06         0.00000E+00
    0.27559E+06        -0.50000E+08         0.00000E+00
    0.00000E+00         0.00000E+00        -0.50504E+08
 
   -0.50530E+08         0.32461E+06         0.00000E+00
    0.32461E+06        -0.49999E+08         0.00000E+00
    0.00000E+00         0.00000E+00        -0.50503E+08
 
   -0.50527E+08         0.37332E+06         0.00000E+00
    0.37332E+06        -0.49999E+08         0.00000E+00
    0.00000E+00         0.00000E+00        -0.50503E+08
 
   -0.50525E+08         0.42172E+06         0.00000E+00
    0.42172E+06        -0.49999E+08         0.00000E+00
    0.00000E+00         0.00000E+00        -0.50502E+08
 
   -0.50523E+08         0.46979E+06         0.00000E+00
    0.46979E+06        -0.49999E+08         0.00000E+00
    0.00000E+00         0.00000E+00        -0.50502E+08
 
   -0.50521E+08         0.51756E+06         0.00000E+00
    0.51756E+06        -0.49998E+08         0.00000E+00
    0.00000E+00         0.00000E+00        -0.50502E+08
 
   -0.50519E+08         0.56500E+06         0.00000E+00
    0.56500E+06        -0.49998E+08         0.00000E+00
    0.00000E+00         0.00000E+00        -0.50501E+08
 
   -0.50518E+08         0.61213E+06         0.00000E+00
    0.61213E+06        -0.49998E+08         0.00000E+00
    0.00000E+00         0.00000E+00        -0.50501E+08
 
   -0.50516E+08         0.65894E+06         0.00000E+00
    0.65894E+06        -0.49997E+08         0.00000E+00
    0.00000E+00         0.00000E+00        -0.50500E+08
 
   -0.50514E+08         0.70544E+06         0.00000E+00
    0.70544E+06        -0.49997E+08         0.00000E+00
    0.00000E+00         0.00000E+00        -0.50500E+08
 
   -0.50513E+08         0.75162E+06         0.00000E+00
    0.75162E+06        -0.49997E+08         0.00000E+00
    0.00000E+00         0.00000E+00        -0.50500E+08
 
   -0.50511E+08         0.79749E+06         0.00000E+00
    0.79749E+06        -0.49996E+08         0.00000E+00
    0.00000E+00         0.00000E+00        -0.50499E+08
 
   -0.50510E+08         0.84303E+06         0.00000E+00
    0.84303E+06        -0.49996E+08         0.00000E+00
    0.00000E+00         0.00000E+00        -0.50499E+08
 
   -0.50509E+08         0.88827E+06         0.00000E+00
    0.88827E+06        -0.49996E+08         0.00000E+00
    0.00000E+00         0.00000E+00        -0.50499E+08
 
   -0.50508E+08         0.93318E+06         0.00000E+00
    0.93318E+06        -0.49995E+08         0.00000E+00
    0.00000E+00         0.00000E+00        -0.50498E+08
 
   -0.50507E+08         0.97778E+06         0.00000E+00
    0.97778E+06        -0.49995E+08         0.00000E+00
    0.00000E+00         0.00000E+00        -0.50498E+08
 
   -0.50506E+08         0.10221E+07         0.00000E+00
    0.10221E+07        -0.49994E+08         0.00000E+00
    0.00000E+00         0.00000E+00        -0.50498E+08
 
   -0.50505E+08         0.10660E+07         0.00000E+00
    0.10660E+07        -0.49994E+08         0.00000E+00
    0.00000E+00         0.00000E+00        -0.50497E+08
 
   -0.50504E+08         0.11097E+07         0.00000E+00
    0.11097E+07        -0.49993E+08         0.00000E+00
    0.00000E+00         0.00000E+00        -0.50497E+08
 
   -0.50503E+08         0.11530E+07         0.00000E+00
    0.11530E+07        -0.49993E+08         0.00000E+00
    0.00000E+00         0.00000E+00        -0.50497E+08
 
   -0.50502E+08         0.11960E+07         0.00000E+00
    0.11960E+07        -0.49993E+08         0.00000E+00
    0.00000E+00         0.00000E+00        -0.50497E+08
 
   -0.50501E+08         0.12386E+07         0.00000E+00
    0.12386E+07        -0.49992E+08         0.00000E+00
    0.00000E+00         0.00000E+00        -0.50496E+08
 
   -0.50501E+08         0.12810E+07         0.00000E+00
    0.12810E+07        -0.49992E+08         0.00000E+00
    0.00000E+00         0.00000E+00        -0.50496E+08
 
   -0.50500E+08         0.13230E+07         0.00000E+00
    0.13230E+07        -0.49991E+08         0.00000E+00
    0.00000E+00         0.00000E+00        -0.50496E+08
 
   -0.50499E+08         0.13647E+07         0.00000E+00
    0.13647E+07        -0.49991E+08         0.00000E+00
    0.00000E+00         0.00000E+00        -0.50496E+08
 
   -0.50499E+08         0.14061E+07         0.00000E+00
    0.14061E+07        -0.49990E+08         0.00000E+00
    0.00000E+00         0.00000E+00        -0.50495E+08
 
   -0.50498E+08         0.14471E+07         0.00000E+00
    0.14471E+07        -0.49990E+08         0.00000E+00
    0.00000E+00         0.00000E+00        -0.50495E+08
 
   -0.50498E+08         0.14878E+07         0.00000E+00
    0.14878E+07        -0.49990E+08         0.00000E+00
    0.00000E+00         0.00000E+00        -0.50495E+08
 
   -0.50498E+08         0.15282E+07         0.00000E+00
    0.15282E+07        -0.49989E+08         0.00000E+00
    0.00000E+00         0.00000E+00        -0.50495E+08
 
   -0.50497E+08         0.15682E+07         0.00000E+00
    0.15682E+07        -0.49989E+08         0.00000E+00
    0.00000E+00         0.00000E+00        -0.50495E+08
 
   -0.50497E+08         0.16079E+07         0.00000E+00
    0.16079E+07        -0.49988E+08         0.00000E+00
    0.00000E+00         0.00000E+00        -0.50495E+08
 
   -0.50497E+08         0.16473E+07         0.00000E+00
    0.16473E+07        -0.49988E+08         0.00000E+00
    0.00000E+00         0.00000E+00        -0.50495E+08
 
   -0.50496E+08         0.16863E+07         0.00000E+00
    0.16863E+07        -0.49988E+08         0.00000E+00
    0.00000E+00         0.00000E+00        -0.50494E+08
 
   -0.50496E+08         0.17250E+07         0.00000E+00
    0.17250E+07        -0.49987E+08         0.00000E+00
    0.00000E+00         0.00000E+00        -0.50494E+08
 
   -0.50496E+08         0.17634E+07         0.00000E+00
    0.17634E+07        -0.49987E+08         0.00000E+00
    0.00000E+00         0.00000E+00        -0.50494E+08
 
   -0.50496E+08         0.18013E+07         0.00000E+00
    0.18013E+07        -0.49987E+08         0.00000E+00
    0.00000E+00         0.00000E+00        -0.50494E+08
 
   -0.50495E+08         0.18390E+07         0.00000E+00
    0.18390E+07        -0.49987E+08         0.00000E+00
    0.00000E+00         0.00000E+00        -0.50494E+08
 
   -0.50495E+08         0.18763E+07         0.00000E+00
    0.18763E+07        -0.49986E+08         0.00000E+00
    0.00000E+00         0.00000E+00        -0.50494E+08
 
   -0.50495E+08         0.19132E+07         0.00000E+00
    0.19132E+07        -0.49986E+08         0.00000E+00
    0.00000E+00         0.00000E+00        -0.50494E+08
 
   -0.50495E+08         0.19498E+07         0.00000E+00
    0.19498E+07        -0.49986E+08         0.00000E+00
    0.00000E+00         0.00000E+00        -0.50494E+08
 
   -0.50494E+08         0.19860E+07         0.00000E+00
    0.19860E+07        -0.49986E+08         0.00000E+00
    0.00000E+00         0.00000E+00        -0.50494E+08
 
   -0.50494E+08         0.20218E+07         0.00000E+00
    0.20218E+07        -0.49986E+08         0.00000E+00
    0.00000E+00         0.00000E+00        -0.50494E+08
 
   -0.50494E+08         0.20573E+07         0.00000E+00
    0.20573E+07        -0.49986E+08         0.00000E+00
    0.00000E+00         0.00000E+00        -0.50494E+08
 
   -0.50494E+08         0.20924E+07         0.00000E+00
    0.20924E+07        -0.49986E+08         0.00000E+00
    0.00000E+00         0.00000E+00        -0.50494E+08
 
   -0.50494E+08         0.21271E+07         0.00000E+00
    0.21271E+07        -0.49986E+08         0.00000E+00
    0.00000E+00         0.00000E+00        -0.50494E+08
 
   -0.50291E+08         0.25785E+05         0.00000E+00
    0.25785E+05        -0.50000E+08         0.00000E+00
    0.00000E+00         0.00000E+00        -0.50322E+08
 
   -0.50290E+08         0.76593E+05         0.00000E+00
    0.76593E+05        -0.50000E+08         0.00000E+00
    0.00000E+00         0.00000E+00        -0.50322E+08
 
   -0.50288E+08         0.12708E+06         0.00000E+00
    0.12708E+06        -0.50000E+08         0.00000E+00
    0.00000E+00         0.00000E+00        -0.50322E+08
 
   -0.50287E+08         0.17724E+06         0.00000E+00
    0.17724E+06        -0.50000E+08         0.00000E+00
    0.00000E+00         0.00000E+00        -0.50322E+08
 
   -0.50286E+08         0.22707E+06         0.00000E+00
    0.22707E+06        -0.50000E+08         0.00000E+00
    0.00000E+00         0.00000E+00        -0.50321E+08
 
   -0.50286E+08         0.27658E+06         0.00000E+00
    0.27658E+06        -0.49999E+08         0.00000E+00
    0.00000E+00         0.00000E+00        -0.50321E+08
 
   -0.50285E+08         0.32577E+06         0.00000E+00
    0.32577E+06        -0.49999E+08         0.00000E+00
    0.00000E+00         0.00000E+00        -0.50321E+08
 
   -0.50284E+08         0.37464E+06         0.00000E+00
    0.37464E+06        -0.49999E+08         0.00000E+00
    0.00000E+00         0.00000E+00        -0.50321E+08
 
   -0.50284E+08         0.42319E+06         0.00000E+00
    0.42319E+06        -0.49999E+08         0.00000E+00
    0.00000E+00         0.00000E+00        -0.50321E+08
 
   -0.50283E+08         0.47141E+06         0.00000E+00
    0.47141E+06        -0.49998E+08         0.00000E+00
    0.00000E+00         0.00000E+00        -0.50321E+08
 
   -0.50283E+08         0.51931E+06         0.00000E+00
    0.51931E+06        -0.49998E+08         0.00000E+00
    0.00000E+00         0.00000E+00        -0.50320E+08
 
   -0.50283E+08         0.56689E+06         0.00000E+00
    0.56689E+06        -0.49997E+08         0.00000E+00
    0.00000E+00         0.00000E+00        -0.50320E+08
 
   -0.50282E+08         0.61415E+06         0.00000E+00
    0.61415E+06        -0.49997E+08         0.00000E+00
    0.00000E+00         0.00000E+00        -0.50320E+08
 
   -0.50282E+08         0.66108E+06         0.00000E+00
    0.66108E+06        -0.49996E+08         0.00000E+00
    0.00000E+00         0.00000E+00        -0.50320E+08
 
   -0.50282E+08         0.70769E+06         0.00000E+00
    0.70769E+06        -0.49996E+08         0.00000E+00
    0.00000E+00         0.00000E+00        -0.50320E+08
 
   -0.50283E+08         0.75398E+06         0.00000E+00
    0.75398E+06        -0.49995E+08         0.00000E+00
    0.00000E+00         0.00000E+00        -0.50320E+08
 
   -0.50283E+08         0.79995E+06         0.00000E+00
    0.79995E+06        -0.49995E+08         0.00000E+00
    0.00000E+00         0.00000E+00        -0.50320E+08
 
   -0.50283E+08         0.84560E+06         0.00000E+00
    0.84560E+06        -0.49994E+08         0.00000E+00
    0.00000E+00         0.00000E+00        -0.50320E+08
 
   -0.50283E+08         0.89092E+06         0.00000E+00
    0.89092E+06        -0.49993E+08         0.00000E+00
    0.00000E+00         0.00000E+00        -0.50320E+08
 
   -0.50284E+08         0.93592E+06         0.00000E+00
    0.93592E+06        -0.49993E+08         0.00000E+00
    0.00000E+00         0.00000E+00        -0.50320E+08
 
   -0.50284E+08         0.98059E+06         0.00000E+00
    0.98059E+06        -0.49992E+08         0.00000E+00
    0.00000E+00         0.00000E+00        -0.50320E+08
 
   -0.50285E+08         0.10249E+07         0.00000E+00
    0.10249E+07        -0.49991E+08         0.00000E+00
    0.00000E+00         0.00000E+00        -0.50320E+08
 
   -0.50285E+08         0.10690E+07         0.00000E+00
    0.10690E+07        -0.49991E+08         0.00000E+00
    0.00000E+00         0.00000E+00        -0.50320E+08
 
   -0.50286E+08         0.11127E+07         0.00000E+00
    0.11127E+07        -0.49990E+08         0.00000E+00
    0.00000E+00         0.00000E+00        -0.50319E+08
 
   -0.50287E+08         0.11560E+07         0.00000E+00
    0.11560E+07        -0.49989E+08         0.00000E+00
    0.00000E+00         0.00000E+00        -0.50319E+08
 
   -0.50288E+08         0.11991E+07         0.00000E+00
    0.11991E+07        -0.49988E+08         0.00000E+00
    0.00000E+00         0.00000E+00        -0.50320E+08
 
   -0.50289E+08         0.12418E+07         0.00000E+00
    0.12418E+07        -0.49988E+08         0.00000E+00
    0.00000E+00         0.00000E+00        -0.50320E+08
 
   -0.50290E+08         0.12841E+07         0.00000E+00
    0.12841E+07        -0.49987E+08         0.00000E+00
    0.00000E+00         0.00000E+00        -0.50320E+08
 
   -0.50291E+08         0.13262E+07         0.00000E+00
    0.13262E+07        -0.49986E+08         0.00000E+00
    0.00000E+00         0.00000E+00        -0.50320E+08
 
   -0.50292E+08         0.13679E+07         0.00000E+00
    0.13679E+07        -0.49985E+08         0.00000E+00
    0.00000E+00         0.00000E+00        -0.50320E+08
 
   -0.50293E+08         0.14093E+07         0.00000E+00
    0.14093E+07        -0.49984E+08         0.00000E+00
    0.00000E+00         0.00000E+00        -0.50320E+08
 
   -0.50294E+08         0.14503E+07         0.00000E+00
    0.14503E+07        -0.49983E+08         0.00000E+00
    0.00000E+00         0.00000E+00        -0.50320E+08
 
   -0.50295E+08         0.14910E+07         0.00000E+00
    0.14910E+07        -0.49982E+08         0.00000E+00
    0.00000E+00         0.00000E+00        -0.50320E+08
 
   -0.50297E+08         0.15314E+07         0.00000E+00
    0.15314E+07        -0.49982E+08         0.00000E+00
    0.00000E+00         0.00000E+00        -0.50320E+08
 
   -0.50298E+08         0.15714E+07         0.00000E+00
    0.15714E+07        -0.49981E+08         0.00000E+00
    0.00000E+00         0.00000E+00        -0.50320E+08
 
   -0.50299E+08         0.16110E+07         0.00000E+00
    0.16110E+07        -0.49980E+08         0.00000E+00
    0.00000E+00         0.00000E+00        -0.50320E+08
 
   -0.50301E+08         0.16504E+07         0.00000E+00
    0.16504E+07        -0.49979E+08         0.00000E+00
    0.00000E+00         0.00000E+00        -0.50320E+08
 
   -0.50302E+08         0.16893E+07         0.00000E+00
    0.16893E+07        -0.49978E+08         0.00000E+00
    0.00000E+00         0.00000E+00        -0.50320E+08
 
   -0.50304E+08         0.17279E+07         0.00000E+00
    0.17279E+07        -0.49977E+08         0.00000E+00
    0.00000E+00         0.00000E+00        -0.50320E+08
 
   -0.50305E+08         0.17662E+07         0.00000E+00
    0.17662E+07        -0.49976E+08         0.00000E+00
    0.00000E+00         0.00000E+00        -0.50321E+08
 
   -0.50307E+08         0.18041E+07         0.00000E+00
    0.18041E+07        -0.49975E+08         0.00000E+00
    0.00000E+00         0.00000E+00        -0.50321E+08
 
   -0.50308E+08         0.18417E+07         0.00000E+00
    0.18417E+07        -0.49975E+08         0.00000E+00
    0.00000E+00         0.00000E+00        -0.50321E+08
 
   -0.50310E+08         0.18789E+07         0.00000E+00
    0.18789E+07        -0.49974E+08         0.00000E+00
    0.00000E+00         0.00000E+00        -0.50321E+08
 
   -0.50311E+08         0.19157E+07         0.00000E+00
    0.19157E+07        -0.49973E+08         0.00000E+00
    0.00000E+00         0.00000E+00        -0.50321E+08
 
   -0.50313E+08         0.19521E+07         0.00000E+00
    0.19521E+07        -0.49972E+08         0.00000E+00
    0.00000E+00         0.00000E+00        -0.50321E+08
 
   -0.50315E+08         0.19882E+07         0.00000E+00
    0.19882E+07        -0.49971E+08         0.00000E+00
    0.00000E+00         0.00000E+00        -0.50321E+08
 
   -0.50316E+08         0.20239E+07         0.00000E+00
    0.20239E+07        -0.49970E+08         0.00000E+00
    0.00000E+00         0.00000E+00        -0.50322E+08
 
   -0.50318E+08         0.20593E+07         0.00000E+00
    0.20593E+07        -0.49969E+08         0.00000E+00
    0.00000E+00         0.00000E+00        -0.50322E+08
 
   -0.50320E+08         0.20942E+07         0.00000E+00
    0.20942E+07        -0.49969E+08         0.00000E+00
    0.00000E+00         0.00000E+00        -0.50322E+08
 
   -0.50321E+08         0.21288E+07         0.00000E+00
    0.21288E+07        -0.49968E+08         0.00000E+00
    0.00000E+00         0.00000E+00        -0.50322E+08
 
   -0.50035E+08         0.25915E+05         0.00000E+00
    0.25915E+05        -0.50000E+08         0.00000E+00
    0.00000E+00         0.00000E+00        -0.50139E+08
 
   -0.50036E+08         0.76971E+05         0.00000E+00
    0.76971E+05        -0.50000E+08         0.00000E+00
    0.00000E+00         0.00000E+00        -0.50139E+08
 
   -0.50036E+08         0.12770E+06         0.00000E+00
    0.12770E+06        -0.50000E+08         0.00000E+00
    0.00000E+00         0.00000E+00        -0.50139E+08
 
   -0.50037E+08         0.17810E+06         0.00000E+00
    0.17810E+06        -0.50000E+08         0.00000E+00
    0.00000E+00         0.00000E+00        -0.50139E+08
 
   -0.50037E+08         0.22817E+06         0.00000E+00
    0.22817E+06        -0.49999E+08         0.00000E+00
    0.00000E+00         0.00000E+00        -0.50139E+08
 
   -0.50038E+08         0.27791E+06         0.00000E+00
    0.27791E+06        -0.49999E+08         0.00000E+00
    0.00000E+00         0.00000E+00        -0.50139E+08
 
   -0.50039E+08         0.32733E+06         0.00000E+00
    0.32733E+06        -0.49999E+08         0.00000E+00
    0.00000E+00         0.00000E+00        -0.50139E+08
 
   -0.50040E+08         0.37641E+06         0.00000E+00
    0.37641E+06        -0.49998E+08         0.00000E+00
    0.00000E+00         0.00000E+00        -0.50139E+08
 
   -0.50041E+08         0.42517E+06         0.00000E+00
    0.42517E+06        -0.49998E+08         0.00000E+00
    0.00000E+00         0.00000E+00        -0.50139E+08
 
   -0.50042E+08         0.47361E+06         0.00000E+00
    0.47361E+06        -0.49998E+08         0.00000E+00
    0.00000E+00         0.00000E+00        -0.50139E+08
 
   -0.50044E+08         0.52172E+06         0.00000E+00
    0.52172E+06        -0.49997E+08         0.00000E+00
    0.00000E+00         0.00000E+00        -0.50140E+08
 
   -0.50045E+08         0.56950E+06         0.00000E+00
    0.56950E+06        -0.49996E+08         0.00000E+00
    0.00000E+00         0.00000E+00        -0.50140E+08
 
   -0.50046E+08         0.61695E+06         0.00000E+00
    0.61695E+06        -0.49996E+08         0.00000E+00
    0.00000E+00         0.00000E+00        -0.50140E+08
 
   -0.50048E+08         0.66408E+06         0.00000E+00
    0.66408E+06        -0.49995E+08         0.00000E+00
    0.00000E+00         0.00000E+00        -0.50140E+08
 
   -0.50050E+08         0.71087E+06         0.00000E+00
    0.71087E+06        -0.49994E+08         0.00000E+00
    0.00000E+00         0.00000E+00        -0.50140E+08
 
   -0.50051E+08         0.75734E+06         0.00000E+00
    0.75734E+06        -0.49994E+08         0.00000E+00
    0.00000E+00         0.00000E+00        -0.50140E+08
 
   -0.50053E+08         0.80349E+06         0.00000E+00
    0.80349E+06        -0.49993E+08         0.00000E+00
    0.00000E+00         0.00000E+00        -0.50141E+08
 
   -0.50055E+08         0.84930E+06         0.00000E+00
    0.84930E+06        -0.49992E+08         0.00000E+00
    0.00000E+00         0.00000E+00        -0.50141E+08
 
   -0.50057E+08         0.89479E+06         0.00000E+00
    0.89479E+06        -0.49991E+08         0.00000E+00
    0.00000E+00         0.00000E+00        -0.50141E+08
 
   -0.50059E+08         0.93994E+06         0.00000E+00
    0.93994E+06        -0.49990E+08         0.00000E+00
    0.00000E+00         0.00000E+00        -0.50141E+08
 
   -0.50061E+08         0.98477E+06         0.00000E+00
    0.98477E+06        -0.49989E+08         0.00000E+00
    0.00000E+00         0.00000E+00        -0.50142E+08
 
   -0.50064E+08         0.10293E+07         0.00000E+00
    0.10293E+07        -0.49988E+08         0.00000E+00
    0.00000E+00         0.00000E+00        -0.50142E+08
 
   -0.50066E+08         0.10734E+07         0.00000E+00
    0.10734E+07        -0.49987E+08         0.00000E+00
    0.00000E+00         0.00000E+00        -0.50142E+08
 
   -0.50068E+08         0.11173E+07         0.00000E+00
    0.11173E+07        -0.49986E+08         0.00000E+00
    0.00000E+00         0.00000E+00        -0.50142E+08
 
   -0.50071E+08         0.11608E+07         0.00000E+00
    0.11608E+07        -0.49985E+08         0.00000E+00
    0.00000E+00         0.00000E+00        -0.50143E+08
 
   -0.50073E+08         0.12039E+07         0.00000E+00
    0.12039E+07        -0.49984E+08         0.00000E+00
    0.00000E+00         0.00000E+00        -0.50143E+08
 
   -0.50076E+08         0.12467E+07         0.00000E+00
    0.12467E+07        -0.49983E+08         0.00000E+00
    0.00000E+00         0.00000E+00        -0.50143E+08
 
   -0.50078E+08         0.12892E+07         0.00000E+00
    0.12892E+07        -0.49982E+08         0.00000E+00
    0.00000E+00         0.00000E+00        -0.50143E+08
 
   -0.50081E+08         0.13314E+07         0.00000E+00
    0.13314E+07        -0.49980E+08         0.00000E+00
    0.00000E+00         0.00000E+00        -0.50144E+08
 
   -0.50084E+08         0.13732E+07         0.00000E+00
    0.13732E+07        -0.49979E+08         0.00000E+00
    0.00000E+00         0.00000E+00        -0.50144E+08
 
   -0.50087E+08         0.14147E+07         0.00000E+00
    0.14147E+07        -0.49978E+08         0.00000E+00
    0.00000E+00         0.00000E+00        -0.50144E+08
 
   -0.50090E+08         0.14558E+07         0.00000E+00
    0.14558E+07        -0.49977E+08         0.00000E+00
    0.00000E+00         0.00000E+00        -0.50145E+08
 
   -0.50093E+08         0.14966E+07         0.00000E+00
    0.14966E+07        -0.49975E+08         0.00000E+00
    0.00000E+00         0.00000E+00        -0.50145E+08
 
   -0.50096E+08         0.15370E+07         0.00000E+00
    0.15370E+07        -0.49974E+08         0.00000E+00
    0.00000E+00         0.00000E+00        -0.50145E+08
 
   -0.50099E+08         0.15771E+07         0.00000E+00
    0.15771E+07        -0.49972E+08         0.00000E+00
    0.00000E+00         0.00000E+00        -0.50146E+08
 
   -0.50102E+08         0.16168E+07         0.00000E+00
    0.16168E+07        -0.49971E+08         0.00000E+00
    0.00000E+00         0.00000E+00        -0.50146E+08
 
   -0.50105E+08         0.16562E+07         0.00000E+00
    0.16562E+07        -0.49970E+08         0.00000E+00
    0.00000E+00         0.00000E+00        -0.50146E+08
 
   -0.50108E+08         0.16952E+07         0.00000E+00
    0.16952E+07        -0.49968E+08         0.00000E+00
    0.00000E+00         0.00000E+00        -0.50147E+08
 
   -0.50111E+08         0.17339E+07         0.00000E+00
    0.17339E+07        -0.49967E+08         0.00000E+00
    0.00000E+00         0.00000E+00        -0.50147E+08
 
   -0.50115E+08         0.17722E+07         0.00000E+00
    0.17722E+07        -0.49965E+08         0.00000E+00
    0.00000E+00         0.00000E+00        -0.50147E+08
 
   -0.50118E+08         0.18101E+07         0.00000E+00
    0.18101E+07        -0.49964E+08         0.00000E+00
    0.00000E+00         0.00000E+00        -0.50148E+08
 
   -0.50121E+08         0.18477E+07         0.00000E+00
    0.18477E+07        -0.49962E+08         0.00000E+00
    0.00000E+00         0.00000E+00        -0.50148E+08
 
   -0.50125E+08         0.18849E+07         0.00000E+00
    0.18849E+07        -0.49961E+08         0.00000E+00
    0.00000E+00         0.00000E+00        -0.50149E+08
 
   -0.50128E+08         0.19217E+07         0.00000E+00
    0.19217E+07        -0.49959E+08         0.00000E+00
    0.00000E+00         0.00000E+00        -0.50149E+08
 
   -0.50132E+08         0.19582E+07         0.00000E+00
    0.19582E+07        -0.49957E+08         0.00000E+00
    0.00000E+00         0.00000E+00        -0.50149E+08
 
   -0.50135E+08         0.19943E+07         0.00000E+00
    0.19943E+07        -0.49956E+08         0.00000E+00
    0.00000E+00         0.00000E+00        -0.50150E+08
 
   -0.50139E+08         0.20300E+07         0.00000E+00
    0.20300E+07        -0.49954E+08         0.00000E+00
    0.00000E+00         0.00000E+00        -0.50150E+08
 
   -0.50142E+08         0.20653E+07         0.00000E+00
    0.20653E+07        -0.49953E+08         0.00000E+00
    0.00000E+00         0.00000E+00        -0.50150E+08
 
   -0.50146E+08         0.21002E+07         0.00000E+00
    0.21002E+07        -0.49951E+08         0.00000E+00
    0.00000E+00         0.00000E+00        -0.50151E+08
 
   -0.50150E+08         0.21348E+07         0.00000E+00
    0.21348E+07        -0.49949E+08         0.00000E+00
    0.00000E+00         0.00000E+00        -0.50151E+08
 
   -0.49779E+08         0.26074E+05         0.00000E+00
    0.26074E+05        -0.50000E+08         0.00000E+00
    0.00000E+00         0.00000E+00        -0.49954E+08
 
   -0.49781E+08         0.77439E+05         0.00000E+00
    0.77439E+05        -0.50000E+08         0.00000E+00
    0.00000E+00         0.00000E+00        -0.49955E+08
 
   -0.49783E+08         0.12847E+06         0.00000E+00
    0.12847E+06        -0.50000E+08         0.00000E+00
    0.00000E+00         0.00000E+00        -0.49955E+08
 
   -0.49785E+08         0.17917E+06         0.00000E+00
    0.17917E+06        -0.50000E+08         0.00000E+00
    0.00000E+00         0.00000E+00        -0.49955E+08
 
   -0.49787E+08         0.22954E+06         0.00000E+00
    0.22954E+06        -0.49999E+08         0.00000E+00
    0.00000E+00         0.00000E+00        -0.49956E+08
 
   -0.49790E+08         0.27958E+06         0.00000E+00
    0.27958E+06        -0.49999E+08         0.00000E+00
    0.00000E+00         0.00000E+00        -0.49956E+08
 
   -0.49792E+08         0.32928E+06         0.00000E+00
    0.32928E+06        -0.49999E+08         0.00000E+00
    0.00000E+00         0.00000E+00        -0.49957E+08
 
   -0.49795E+08         0.37865E+06         0.00000E+00
    0.37865E+06        -0.49998E+08         0.00000E+00
    0.00000E+00         0.00000E+00        -0.49957E+08
 
   -0.49798E+08         0.42770E+06         0.00000E+00
    0.42770E+06        -0.49998E+08         0.00000E+00
    0.00000E+00         0.00000E+00        -0.49958E+08
 
   -0.49800E+08         0.47641E+06         0.00000E+00
    0.47641E+06        -0.49997E+08         0.00000E+00
    0.00000E+00         0.00000E+00        -0.49958E+08
 
   -0.49803E+08         0.52479E+06         0.00000E+00
    0.52479E+06        -0.49996E+08         0.00000E+00
    0.00000E+00         0.00000E+00        -0.49959E+08
 
   -0.49806E+08         0.57284E+06         0.00000E+00
    0.57284E+06        -0.49996E+08         0.00000E+00
    0.00000E+00         0.00000E+00        -0.49959E+08
 
   -0.49809E+08         0.62056E+06         0.00000E+00
    0.62056E+06        -0.49995E+08         0.00000E+00
    0.00000E+00         0.00000E+00        -0.49959E+08
 
   -0.49813E+08         0.66795E+06         0.00000E+00
    0.66795E+06        -0.49994E+08         0.00000E+00
    0.00000E+00         0.00000E+00        -0.49960E+08
 
   -0.49816E+08         0.71500E+06         0.00000E+00
    0.71500E+06        -0.49993E+08         0.00000E+00
    0.00000E+00         0.00000E+00        -0.49960E+08
 
   -0.49819E+08         0.76173E+06         0.00000E+00
    0.76173E+06        -0.49992E+08         0.00000E+00
    0.00000E+00         0.00000E+00        -0.49961E+08
 
   -0.49823E+08         0.80812E+06         0.00000E+00
    0.80812E+06        -0.49991E+08         0.00000E+00
    0.00000E+00         0.00000E+00        -0.49961E+08
 
   -0.49826E+08         0.85418E+06         0.00000E+00
    0.85418E+06        -0.49990E+08         0.00000E+00
    0.00000E+00         0.00000E+00        -0.49962E+08
 
   -0.49830E+08         0.89990E+06         0.00000E+00
    0.89990E+06        -0.49989E+08         0.00000E+00
    0.00000E+00         0.00000E+00        -0.49962E+08
 
   -0.49834E+08         0.94530E+06         0.00000E+00
    0.94530E+06        -0.49988E+08         0.00000E+00
    0.00000E+00         0.00000E+00        -0.49963E+08
 
   -0.49837E+08         0.99036E+06         0.00000E+00
    0.99036E+06        -0.49987E+08         0.00000E+00
    0.00000E+00         0.00000E+00        -0.49963E+08
 
   -0.49841E+08         0.10351E+07         0.00000E+00
    0.10351E+07        -0.49985E+08         0.00000E+00
    0.00000E+00         0.00000E+00        -0.49964E+08
 
   -0.49845E+08         0.10795E+07         0.00000E+00
    0.10795E+07        -0.49984E+08         0.00000E+00
    0.00000E+00         0.00000E+00        -0.49964E+08
 
   -0.49849E+08         0.11235E+07         0.00000E+00
    0.11235E+07        -0.49983E+08         0.00000E+00
    0.00000E+00         0.00000E+00        -0.49965E+08
 
   -0.49853E+08         0.11672E+07         0.00000E+00
    0.11672E+07        -0.49981E+08         0.00000E+00
    0.00000E+00         0.00000E+00        -0.49966E+08
 
   -0.49858E+08         0.12106E+07         0.00000E+00
    0.12106E+07        -0.49980E+08         0.00000E+00
    0.00000E+00         0.00000E+00        -0.49966E+08
 
   -0.49862E+08         0.12536E+07         0.00000E+00
    0.12536E+07        -0.49978E+08         0.00000E+00
    0.00000E+00         0.00000E+00        -0.49967E+08
 
   -0.49866E+08         0.12963E+07         0.00000E+00
    0.12963E+07        -0.49976E+08         0.00000E+00
    0.00000E+00         0.00000E+00        -0.49967E+08
 
   -0.49871E+08         0.13387E+07         0.00000E+00
    0.13387E+07        -0.49975E+08         0.00000E+00
    0.00000E+00         0.00000E+00        -0.49968E+08
 
   -0.49875E+08         0.13807E+07         0.00000E+00
    0.13807E+07        -0.49973E+08         0.00000E+00
    0.00000E+00         0.00000E+00        -0.49968E+08
 
   -0.49880E+08         0.14223E+07         0.00000E+00
    0.14223E+07        -0.49971E+08         0.00000E+00
    0.00000E+00         0.00000E+00        -0.49969E+08
 
   -0.49884E+08         0.14636E+07         0.00000E+00
    0.14636E+07        -0.49970E+08         0.00000E+00
    0.00000E+00         0.00000E+00        -0.49969E+08
 
   -0.49889E+08         0.15046E+07         0.00000E+00
    0.15046E+07        -0.49968E+08         0.00000E+00
    0.00000E+00         0.00000E+00        -0.49970E+08
 
   -0.49894E+08         0.15452E+07         0.00000E+00
    0.15452E+07        -0.49966E+08         0.00000E+00
    0.00000E+00         0.00000E+00        -0.49971E+08
 
   -0.49899E+08         0.15855E+07         0.00000E+00
    0.15855E+07        -0.49964E+08         0.00000E+00
    0.00000E+00         0.00000E+00        -0.49971E+08
 
   -0.49904E+08         0.16253E+07         0.00000E+00
    0.16253E+07        -0.49962E+08         0.00000E+00
    0.00000E+00         0.00000E+00        -0.49972E+08
 
   -0.49908E+08         0.16649E+07         0.00000E+00
    0.16649E+07        -0.49960E+08         0.00000E+00
    0.00000E+00         0.00000E+00        -0.49972E+08
 
   -0.49913E+08         0.17041E+07         0.00000E+00
    0.17041E+07        -0.49958E+08         0.00000E+00
    0.00000E+00         0.00000E+00        -0.49973E+08
 
   -0.49919E+08         0.17429E+07         0.00000E+00
    0.17429E+07        -0.49956E+08         0.00000E+00
    0.00000E+00         0.00000E+00        -0.49973E+08
 
   -0.49924E+08         0.17813E+07         0.00000E+00
    0.17813E+07        -0.49954E+08         0.00000E+00
    0.00000E+00         0.00000E+00        -0.49974E+08
 
   -0.49929E+08         0.18194E+07         0.00000E+00
    0.18194E+07        -0.49952E+08         0.00000E+00
    0.00000E+00         0.00000E+00        -0.49975E+08
 
   -0.49934E+08         0.18571E+07         0.00000E+00
    0.18571E+07        -0.49949E+08         0.00000E+00
    0.00000E+00         0.00000E+00        -0.49975E+08
 
   -0.49939E+08         0.18945E+07         0.00000E+00
    0.18945E+07        -0.49947E+08         0.00000E+00
    0.00000E+00         0.00000E+00        -0.49976E+08
 
   -0.49945E+08         0.19314E+07         0.00000E+00
    0.19314E+07        -0.49945E+08         0.00000E+00
    0.00000E+00         0.00000E+00        -0.49977E+08
 
   -0.49950E+08         0.19680E+07         0.00000E+00
    0.19680E+07        -0.49943E+08         0.00000E+00
    0.00000E+00         0.00000E+00        -0.49977E+08
 
   -0.49956E+08         0.20042E+07         0.00000E+00
    0.20042E+07        -0.49940E+08         0.00000E+00
    0.00000E+00         0.00000E+00        -0.49978E+08
 
   -0.49961E+08         0.20400E+07         0.00000E+00
    0.20400E+07        -0.49938E+08         0.00000E+00
    0.00000E+00         0.00000E+00        -0.49978E+08
 
   -0.49967E+08         0.20754E+07         0.00000E+00
    0.20754E+07        -0.49935E+08         0.00000E+00
    0.00000E+00         0.00000E+00        -0.49979E+08
 
   -0.49972E+08         0.21104E+07         0.00000E+00
    0.21104E+07        -0.49933E+08         0.00000E+00
    0.00000E+00         0.00000E+00        -0.49980E+08
 
   -0.49978E+08         0.21451E+07         0.00000E+00
    0.21451E+07        -0.49930E+08         0.00000E+00
    0.00000E+00         0.00000E+00        -0.49980E+08
 
   -0.49520E+08         0.26263E+05         0.00000E+00
    0.26263E+05        -0.50000E+08         0.00000E+00
    0.00000E+00         0.00000E+00        -0.49769E+08
 
   -0.49524E+08         0.77999E+05         0.00000E+00
    0.77999E+05        -0.50000E+08         0.00000E+00
    0.00000E+00         0.00000E+00        -0.49770E+08
 
   -0.49527E+08         0.12940E+06         0.00000E+00
    0.12940E+06        -0.50000E+08         0.00000E+00
    0.00000E+00         0.00000E+00        -0.49771E+08
 
   -0.49531E+08         0.18046E+06         0.00000E+00
    0.18046E+06        -0.50000E+08         0.00000E+00
    0.00000E+00         0.00000E+00        -0.49771E+08
 
   -0.49535E+08         0.23119E+06         0.00000E+00
    0.23119E+06        -0.49999E+08         0.00000E+00
    0.00000E+00         0.00000E+00        -0.49772E+08
 
   -0.49539E+08         0.28159E+06         0.00000E+00
    0.28159E+06        -0.49999E+08         0.00000E+00
    0.00000E+00         0.00000E+00        -0.49773E+08
 
   -0.49544E+08         0.33165E+06         0.00000E+00
    0.33165E+06        -0.49998E+08         0.00000E+00
    0.00000E+00         0.00000E+00        -0.49774E+08
 
   -0.49548E+08         0.38137E+06         0.00000E+00
    0.38137E+06        -0.49998E+08         0.00000E+00
    0.00000E+00         0.00000E+00        -0.49774E+08
 
   -0.49552E+08         0.43076E+06         0.00000E+00
    0.43076E+06        -0.49997E+08         0.00000E+00
    0.00000E+00         0.00000E+00        -0.49775E+08
 
   -0.49557E+08         0.47982E+06         0.00000E+00
    0.47982E+06        -0.49996E+08         0.00000E+00
    0.00000E+00         0.00000E+00        -0.49776E+08
 
   -0.49561E+08         0.52854E+06         0.00000E+00
    0.52854E+06        -0.49996E+08         0.00000E+00
    0.00000E+00         0.00000E+00        -0.49777E+08
 
   -0.49566E+08         0.57693E+06         0.00000E+00
    0.57693E+06        -0.49995E+08         0.00000E+00
    0.00000E+00         0.00000E+00        -0.49777E+08
 
   -0.49571E+08         0.62499E+06         0.00000E+00
    0.62499E+06        -0.49994E+08         0.00000E+00
    0.00000E+00         0.00000E+00        -0.49778E+08
 
   -0.49576E+08         0.67271E+06         0.00000E+00
    0.67271E+06        -0.49993E+08         0.00000E+00
    0.00000E+00         0.00000E+00        -0.49779E+08
 
   -0.49581E+08         0.72009E+06         0.00000E+00
    0.72009E+06        -0.49992E+08         0.00000E+00
    0.00000E+00         0.00000E+00        -0.49780E+08
 
   -0.49586E+08         0.76715E+06         0.00000E+00
    0.76715E+06        -0.49991E+08         0.00000E+00
    0.00000E+00         0.00000E+00        -0.49780E+08
 
   -0.49591E+08         0.81386E+06         0.00000E+00
    0.81386E+06        -0.49989E+08         0.00000E+00
    0.00000E+00         0.00000E+00        -0.49781E+08
 
   -0.49596E+08         0.86024E+06         0.00000E+00
    0.86024E+06        -0.49988E+08         0.00000E+00
    0.00000E+00         0.00000E+00        -0.49782E+08
 
   -0.49601E+08         0.90629E+06         0.00000E+00
    0.90629E+06        -0.49987E+08         0.00000E+00
    0.00000E+00         0.00000E+00        -0.49783E+08
 
   -0.49607E+08         0.95200E+06         0.00000E+00
    0.95200E+06        -0.49985E+08         0.00000E+00
    0.00000E+00         0.00000E+00        -0.49784E+08
 
   -0.49612E+08         0.99737E+06         0.00000E+00
    0.99737E+06        -0.49984E+08         0.00000E+00
    0.00000E+00         0.00000E+00        -0.49784E+08
 
   -0.49618E+08         0.10424E+07         0.00000E+00
    0.10424E+07        -0.49982E+08         0.00000E+00
    0.00000E+00         0.00000E+00        -0.49785E+08
 
   -0.49623E+08         0.10871E+07         0.00000E+00
    0.10871E+07        -0.49981E+08         0.00000E+00
    0.00000E+00         0.00000E+00        -0.49786E+08
 
   -0.49629E+08         0.11314E+07         0.00000E+00
    0.11314E+07        -0.49979E+08         0.00000E+00
    0.00000E+00         0.00000E+00        -0.49787E+08
 
   -0.49635E+08         0.11755E+07         0.00000E+00
    0.11755E+07        -0.49977E+08         0.00000E+00
    0.00000E+00         0.00000E+00        -0.49788E+08
 
   -0.49641E+08         0.12191E+07         0.00000E+00
    0.12191E+07        -0.49975E+08         0.00000E+00
    0.00000E+00         0.00000E+00        -0.49788E+08
 
   -0.49647E+08         0.12625E+07         0.00000E+00
    0.12625E+07        -0.49973E+08         0.00000E+00
    0.00000E+00         0.00000E+00        -0.49789E+08
 
   -0.49653E+08         0.13054E+07         0.00000E+00
    0.13054E+07        -0.49971E+08         0.00000E+00
    0.00000E+00         0.00000E+00        -0.49790E+08
 
   -0.49659E+08         0.13481E+07         0.00000E+00
    0.13481E+07        -0.49969E+08         0.00000E+00
    0.00000E+00         0.00000E+00        -0.49791E+08
 
   -0.49665E+08         0.13904E+07         0.00000E+00
    0.13904E+07        -0.49967E+08         0.00000E+00
    0.00000E+00         0.00000E+00        -0.49792E+08
 
   -0.49672E+08         0.14323E+07         0.00000E+00
    0.14323E+07        -0.49965E+08         0.00000E+00
    0.00000E+00         0.00000E+00        -0.49793E+08
 
   -0.49678E+08         0.14739E+07         0.00000E+00
    0.14739E+07        -0.49963E+08         0.00000E+00
    0.00000E+00         0.00000E+00        -0.49793E+08
 
   -0.49685E+08         0.15151E+07         0.00000E+00
    0.15151E+07        -0.49960E+08         0.00000E+00
    0.00000E+00         0.00000E+00        -0.49794E+08
 
   -0.49691E+08         0.15560E+07         0.00000E+00
    0.15560E+07        -0.49958E+08         0.00000E+00
    0.00000E+00         0.00000E+00        -0.49795E+08
 
   -0.49698E+08         0.15965E+07         0.00000E+00
    0.15965E+07        -0.49955E+08         0.00000E+00
    0.00000E+00         0.00000E+00        -0.49796E+08
 
   -0.49704E+08         0.16367E+07         0.00000E+00
    0.16367E+07        -0.49953E+08         0.00000E+00
    0.00000E+00         0.00000E+00        -0.49797E+08
 
   -0.49711E+08         0.16765E+07         0.00000E+00
    0.16765E+07        -0.49950E+08         0.00000E+00
    0.00000E+00         0.00000E+00        -0.49797E+08
 
   -0.49718E+08         0.17159E+07         0.00000E+00
    0.17159E+07        -0.49948E+08         0.00000E+00
    0.00000E+00         0.00000E+00        -0.49798E+08
 
   -0.49725E+08         0.17550E+07         0.00000E+00
    0.17550E+07        -0.49945E+08         0.00000E+00
    0.00000E+00         0.00000E+00        -0.49799E+08
 
   -0.49732E+08         0.17937E+07         0.00000E+00
    0.17937E+07        -0.49942E+08         0.00000E+00
    0.00000E+00         0.00000E+00        -0.49800E+08
 
   -0.49739E+08         0.18320E+07         0.00000E+00
    0.18320E+07        -0.49939E+08         0.00000E+00
    0.00000E+00         0.00000E+00        -0.49801E+08
 
   -0.49746E+08         0.18700E+07         0.00000E+00
    0.18700E+07        -0.49937E+08         0.00000E+00
    0.00000E+00         0.00000E+00        -0.49802E+08
 
   -0.49753E+08         0.19076E+07         0.00000E+00
    0.19076E+07        -0.49934E+08         0.00000E+00
    0.00000E+00         0.00000E+00        -0.49803E+08
 
   -0.49760E+08         0.19448E+07         0.00000E+00
    0.19448E+07        -0.49931E+08         0.00000E+00
    0.00000E+00         0.00000E+00        -0.49803E+08
 
   -0.49768E+08         0.19816E+07         0.00000E+00
    0.19816E+07        -0.49928E+08         0.00000E+00
    0.00000E+00         0.00000E+00        -0.49804E+08
 
   -0.49775E+08         0.20180E+07         0.00000E+00
    0.20180E+07        -0.49924E+08         0.00000E+00
    0.00000E+00         0.00000E+00        -0.49805E+08
 
   -0.49782E+08         0.20540E+07         0.00000E+00
    0.20540E+07        -0.49921E+08         0.00000E+00
    0.00000E+00         0.00000E+00        -0.49806E+08
 
   -0.49790E+08         0.20897E+07         0.00000E+00
    0.20897E+07        -0.49918E+08         0.00000E+00
    0.00000E+00         0.00000E+00        -0.49807E+08
 
   -0.49797E+08         0.21249E+07         0.00000E+00
    0.21249E+07        -0.49915E+08         0.00000E+00
    0.00000E+00         0.00000E+00        -0.49808E+08
 
   -0.49805E+08         0.21598E+07         0.00000E+00
    0.21598E+07        -0.49911E+08         0.00000E+00
    0.00000E+00         0.00000E+00        -0.49808E+08
 
   -0.49259E+08         0.26482E+05         0.00000E+00
    0.26482E+05        -0.50000E+08         0.00000E+00
    0.00000E+00         0.00000E+00        -0.49583E+08
 
   -0.49265E+08         0.78651E+05         0.00000E+00
    0.78651E+05        -0.50000E+08         0.00000E+00
    0.00000E+00         0.00000E+00        -0.49584E+08
 
   -0.49270E+08         0.13048E+06         0.00000E+00
    0.13048E+06        -0.50000E+08         0.00000E+00
    0.00000E+00         0.00000E+00        -0.49585E+08
 
   -0.49276E+08         0.18197E+06         0.00000E+00
    0.18197E+06        -0.49999E+08         0.00000E+00
    0.00000E+00         0.00000E+00        -0.49586E+08
 
   -0.49281E+08         0.23313E+06         0.00000E+00
    0.23313E+06        -0.49999E+08         0.00000E+00
    0.00000E+00         0.00000E+00        -0.49587E+08
 
   -0.49287E+08         0.28394E+06         0.00000E+00
    0.28394E+06        -0.49999E+08         0.00000E+00
    0.00000E+00         0.00000E+00        -0.49588E+08
 
   -0.49293E+08         0.33443E+06         0.00000E+00
    0.33443E+06        -0.49998E+08         0.00000E+00
    0.00000E+00         0.00000E+00        -0.49589E+08
 
   -0.49299E+08         0.38457E+06         0.00000E+00
    0.38457E+06        -0.49997E+08         0.00000E+00
    0.00000E+00         0.00000E+00        -0.49590E+08
 
   -0.49305E+08         0.43438E+06         0.00000E+00
    0.43438E+06        -0.49997E+08         0.00000E+00
    0.00000E+00         0.00000E+00        -0.49591E+08
 
   -0.49311E+08         0.48385E+06         0.00000E+00
    0.48385E+06        -0.49996E+08         0.00000E+00
    0.00000E+00         0.00000E+00        -0.49592E+08
 
   -0.49318E+08         0.53298E+06         0.00000E+00
    0.53298E+06        -0.49995E+08         0.00000E+00
    0.00000E+00         0.00000E+00        -0.49593E+08
 
   -0.49324E+08         0.58178E+06         0.00000E+00
    0.58178E+06        -0.49994E+08         0.00000E+00
    0.00000E+00         0.00000E+00        -0.49594E+08
 
   -0.49330E+08         0.63024E+06         0.00000E+00
    0.63024E+06        -0.49993E+08         0.00000E+00
    0.00000E+00         0.00000E+00        -0.49595E+08
 
   -0.49337E+08         0.67837E+06         0.00000E+00
    0.67837E+06        -0.49992E+08         0.00000E+00
    0.00000E+00         0.00000E+00        -0.49596E+08
 
   -0.49344E+08         0.72616E+06         0.00000E+00
    0.72616E+06        -0.49990E+08         0.00000E+00
    0.00000E+00         0.00000E+00        -0.49597E+08
 
   -0.49350E+08         0.77361E+06         0.00000E+00
    0.77361E+06        -0.49989E+08         0.00000E+00
    0.00000E+00         0.00000E+00        -0.49599E+08
 
   -0.49357E+08         0.82073E+06         0.00000E+00
    0.82073E+06        -0.49988E+08         0.00000E+00
    0.00000E+00         0.00000E+00        -0.49600E+08
 
   -0.49364E+08         0.86751E+06         0.00000E+00
    0.86751E+06        -0.49986E+08         0.00000E+00
    0.00000E+00         0.00000E+00        -0.49601E+08
 
   -0.49371E+08         0.91395E+06         0.00000E+00
    0.91395E+06        -0.49984E+08         0.00000E+00
    0.00000E+00         0.00000E+00        -0.49602E+08
 
   -0.49378E+08         0.96005E+06         0.00000E+00
    0.96005E+06        -0.49983E+08         0.00000E+00
    0.00000E+00         0.00000E+00        -0.49603E+08
 
   -0.49385E+08         0.10058E+07         0.00000E+00
    0.10058E+07        -0.49981E+08         0.00000E+00
    0.00000E+00         0.00000E+00        -0.49604E+08
 
   -0.49393E+08         0.10512E+07         0.00000E+00
    0.10512E+07        -0.49979E+08         0.00000E+00
    0.00000E+00         0.00000E+00        -0.49605E+08
 
   -0.49400E+08         0.10963E+07         0.00000E+00
    0.10963E+07        -0.49977E+08         0.00000E+00
    0.00000E+00         0.00000E+00        -0.49606E+08
 
   -0.49407E+08         0.11411E+07         0.00000E+00
    0.11411E+07        -0.49975E+08         0.00000E+00
    0.00000E+00         0.00000E+00        -0.49607E+08
 
   -0.49415E+08         0.11855E+07         0.00000E+00
    0.11855E+07        -0.49973E+08         0.00000E+00
    0.00000E+00         0.00000E+00        -0.49608E+08
 
   -0.49423E+08         0.12295E+07         0.00000E+00
    0.12295E+07        -0.49971E+08         0.00000E+00
    0.00000E+00         0.00000E+00        -0.49609E+08
 
   -0.49430E+08         0.12732E+07         0.00000E+00
    0.12732E+07        -0.49968E+08         0.00000E+00
    0.00000E+00         0.00000E+00        -0.49610E+08
 
   -0.49438E+08         0.13166E+07         0.00000E+00
    0.13166E+07        -0.49966E+08         0.00000E+00
    0.00000E+00         0.00000E+00        -0.49611E+08
 
   -0.49446E+08         0.13596E+07         0.00000E+00
    0.13596E+07        -0.49964E+08         0.00000E+00
    0.00000E+00         0.00000E+00        -0.49613E+08
 
   -0.49454E+08         0.14023E+07         0.00000E+00
    0.14023E+07        -0.49961E+08         0.00000E+00
    0.00000E+00         0.00000E+00        -0.49614E+08
 
   -0.49462E+08         0.14446E+07         0.00000E+00
    0.14446E+07        -0.49958E+08         0.00000E+00
    0.00000E+00         0.00000E+00        -0.49615E+08
 
   -0.49470E+08         0.14865E+07         0.00000E+00
    0.14865E+07        -0.49956E+08         0.00000E+00
    0.00000E+00         0.00000E+00        -0.49616E+08
 
   -0.49478E+08         0.15281E+07         0.00000E+00
    0.15281E+07        -0.49953E+08         0.00000E+00
    0.00000E+00         0.00000E+00        -0.49617E+08
 
   -0.49487E+08         0.15694E+07         0.00000E+00
    0.15694E+07        -0.49950E+08         0.00000E+00
    0.00000E+00         0.00000E+00        -0.49618E+08
 
   -0.49495E+08         0.16103E+07         0.00000E+00
    0.16103E+07        -0.49947E+08         0.00000E+00
    0.00000E+00         0.00000E+00        -0.49619E+08
 
   -0.49503E+08         0.16508E+07         0.00000E+00
    0.16508E+07        -0.49944E+08         0.00000E+00
    0.00000E+00         0.00000E+00        -0.49620E+08
 
   -0.49512E+08         0.16910E+07         0.00000E+00
    0.16910E+07        -0.49941E+08         0.00000E+00
    0.00000E+00         0.00000E+00        -0.49621E+08
 
   -0.49521E+08         0.17308E+07         0.00000E+00
    0.17308E+07        -0.49937E+08         0.00000E+00
    0.00000E+00         0.00000E+00        -0.49622E+08
 
   -0.49529E+08         0.17702E+07         0.00000E+00
    0.17702E+07        -0.49934E+08         0.00000E+00
    0.00000E+00         0.00000E+00        -0.49623E+08
 
   -0.49538E+08         0.18093E+07         0.00000E+00
    0.18093E+07        -0.49931E+08         0.00000E+00
    0.00000E+00         0.00000E+00        -0.49624E+08
 
   -0.49547E+08         0.18480E+07         0.00000E+00
    0.18480E+07        -0.49927E+08         0.00000E+00
    0.00000E+00         0.00000E+00        -0.49626E+08
 
   -0.49556E+08         0.18863E+07         0.00000E+00
    0.18863E+07        -0.49924E+08         0.00000E+00
    0.00000E+00         0.00000E+00        -0.49627E+08
 
   -0.49565E+08         0.19242E+07         0.00000E+00
    0.19242E+07        -0.49920E+08         0.00000E+00
    0.00000E+00         0.00000E+00        -0.49628E+08
 
   -0.49574E+08         0.19618E+07         0.00000E+00
    0.19618E+07        -0.49916E+08         0.00000E+00
    0.00000E+00         0.00000E+00        -0.49629E+08
 
   -0.49584E+08         0.19990E+07         0.00000E+00
    0.19990E+07        -0.49912E+08         0.00000E+00
    0.00000E+00         0.00000E+00        -0.49630E+08
 
   -0.49593E+08         0.20358E+07         0.00000E+00
    0.20358E+07        -0.49909E+08         0.00000E+00
    0.00000E+00         0.00000E+00        -0.49631E+08
 
   -0.49602E+08         0.20722E+07         0.00000E+00
    0.20722E+07        -0.49905E+08         0.00000E+00
    0.00000E+00         0.00000E+00        -0.49632E+08
 
   -0.49612E+08         0.21082E+07         0.00000E+00
    0.21082E+07        -0.49900E+08         0.00000E+00
    0.00000E+00         0.00000E+00        -0.49633E+08
 
   -0.49621E+08         0.21438E+07         0.00000E+00
    0.21438E+07        -0.49896E+08         0.00000E+00
    0.00000E+00         0.00000E+00        -0.49634E+08
 
   -0.49631E+08         0.21790E+07         0.00000E+00
    0.21790E+07        -0.49892E+08         0.00000E+00
    0.00000E+00         0.00000E+00        -0.49635E+08
 
   -0.48996E+08         0.26732E+05         0.00000E+00
    0.26732E+05        -0.50000E+08         0.00000E+00
    0.00000E+00         0.00000E+00        -0.49394E+08
 
   -0.49003E+08         0.79395E+05         0.00000E+00
    0.79395E+05        -0.50000E+08         0.00000E+00
    0.00000E+00         0.00000E+00        -0.49395E+08
 
   -0.49011E+08         0.13172E+06         0.00000E+00
    0.13172E+06        -0.50000E+08         0.00000E+00
    0.00000E+00         0.00000E+00        -0.49397E+08
 
   -0.49018E+08         0.18370E+06         0.00000E+00
    0.18370E+06        -0.49999E+08         0.00000E+00
    0.00000E+00         0.00000E+00        -0.49398E+08
 
   -0.49025E+08         0.23534E+06         0.00000E+00
    0.23534E+06        -0.49999E+08         0.00000E+00
    0.00000E+00         0.00000E+00        -0.49399E+08
 
   -0.49033E+08         0.28665E+06         0.00000E+00
    0.28665E+06        -0.49998E+08         0.00000E+00
    0.00000E+00         0.00000E+00        -0.49401E+08
 
   -0.49040E+08         0.33762E+06         0.00000E+00
    0.33762E+06        -0.49998E+08         0.00000E+00
    0.00000E+00         0.00000E+00        -0.49402E+08
 
   -0.49048E+08         0.38824E+06         0.00000E+00
    0.38824E+06        -0.49997E+08         0.00000E+00
    0.00000E+00         0.00000E+00        -0.49403E+08
 
   -0.49056E+08         0.43853E+06         0.00000E+00
    0.43853E+06        -0.49996E+08         0.00000E+00
    0.00000E+00         0.00000E+00        -0.49405E+08
 
   -0.49064E+08         0.48849E+06         0.00000E+00
    0.48849E+06        -0.49995E+08         0.00000E+00
    0.00000E+00         0.00000E+00        -0.49406E+08
 
   -0.49072E+08         0.53810E+06         0.00000E+00
    0.53810E+06        -0.49994E+08         0.00000E+00
    0.00000E+00         0.00000E+00        -0.49408E+08
 
   -0.49080E+08         0.58738E+06         0.00000E+00
    0.58738E+06        -0.49993E+08         0.00000E+00
    0.00000E+00         0.00000E+00        -0.49409E+08
 
   -0.49088E+08         0.63632E+06         0.00000E+00
    0.63632E+06        -0.49992E+08         0.00000E+00
    0.00000E+00         0.00000E+00        -0.49410E+08
 
   -0.49096E+08         0.68493E+06         0.00000E+00
    0.68493E+06        -0.49990E+08         0.00000E+00
    0.00000E+00         0.00000E+00        -0.49412E+08
 
   -0.49104E+08         0.73319E+06         0.00000E+00
    0.73319E+06        -0.49989E+08         0.00000E+00
    0.00000E+00         0.00000E+00        -0.49413E+08
 
   -0.49113E+08         0.78112E+06         0.00000E+00
    0.78112E+06        -0.49987E+08         0.00000E+00
    0.00000E+00         0.00000E+00        -0.49415E+08
 
   -0.49121E+08         0.82871E+06         0.00000E+00
    0.82871E+06        -0.49986E+08         0.00000E+00
    0.00000E+00         0.00000E+00        -0.49416E+08
 
   -0.49130E+08         0.87597E+06         0.00000E+00
    0.87597E+06        -0.49984E+08         0.00000E+00
    0.00000E+00         0.00000E+00        -0.49417E+08
 
   -0.49138E+08         0.92288E+06         0.00000E+00
    0.92288E+06        -0.49982E+08         0.00000E+00
    0.00000E+00         0.00000E+00        -0.49419E+08
 
   -0.49147E+08         0.96946E+06         0.00000E+00
    0.96946E+06        -0.49980E+08         0.00000E+00
    0.00000E+00         0.00000E+00        -0.49420E+08
 
   -0.49156E+08         0.10157E+07         0.00000E+00
    0.10157E+07        -0.49978E+08         0.00000E+00
    0.00000E+00         0.00000E+00        -0.49421E+08
 
   -0.49165E+08         0.10616E+07         0.00000E+00
    0.10616E+07        -0.49976E+08         0.00000E+00
    0.00000E+00         0.00000E+00        -0.49423E+08
 
   -0.49174E+08         0.11071E+07         0.00000E+00
    0.11071E+07        -0.49974E+08         0.00000E+00
    0.00000E+00         0.00000E+00        -0.49424E+08
 
   -0.49183E+08         0.11524E+07         0.00000E+00
    0.11524E+07        -0.49971E+08         0.00000E+00
    0.00000E+00         0.00000E+00        -0.49425E+08
 
   -0.49193E+08         0.11972E+07         0.00000E+00
    0.11972E+07        -0.49969E+08         0.00000E+00
    0.00000E+00         0.00000E+00        -0.49427E+08
 
   -0.49202E+08         0.12418E+07         0.00000E+00
    0.12418E+07        -0.49966E+08         0.00000E+00
    0.00000E+00         0.00000E+00        -0.49428E+08
 
   -0.49211E+08         0.12859E+07         0.00000E+00
    0.12859E+07        -0.49964E+08         0.00000E+00
    0.00000E+00         0.00000E+00        -0.49429E+08
 
   -0.49221E+08         0.13298E+07         0.00000E+00
    0.13298E+07        -0.49961E+08         0.00000E+00
    0.00000E+00         0.00000E+00        -0.49431E+08
 
   -0.49231E+08         0.13733E+07         0.00000E+00
    0.13733E+07        -0.49958E+08         0.00000E+00
    0.00000E+00         0.00000E+00        -0.49432E+08
 
   -0.49240E+08         0.14164E+07         0.00000E+00
    0.14164E+07        -0.49955E+08         0.00000E+00
    0.00000E+00         0.00000E+00        -0.49434E+08
 
   -0.49250E+08         0.14592E+07         0.00000E+00
    0.14592E+07        -0.49952E+08         0.00000E+00
    0.00000E+00         0.00000E+00        -0.49435E+08
 
   -0.49260E+08         0.15016E+07         0.00000E+00
    0.15016E+07        -0.49949E+08         0.00000E+00
    0.00000E+00         0.00000E+00        -0.49436E+08
 
   -0.49270E+08         0.15437E+07         0.00000E+00
    0.15437E+07        -0.49945E+08         0.00000E+00
    0.00000E+00         0.00000E+00        -0.49438E+08
 
   -0.49280E+08         0.15854E+07         0.00000E+00
    0.15854E+07        -0.49942E+08         0.00000E+00
    0.00000E+00         0.00000E+00        -0.49439E+08
 
   -0.49290E+08         0.16268E+07         0.00000E+00
    0.16268E+07        -0.49938E+08         0.00000E+00
    0.00000E+00         0.00000E+00        -0.49440E+08
 
   -0.49301E+08         0.16678E+07         0.00000E+00
    0.16678E+07        -0.49935E+08         0.00000E+00
    0.00000E+00         0.00000E+00        -0.49442E+08
 
   -0.49311E+08         0.17084E+07         0.00000E+00
    0.17084E+07        -0.49931E+08         0.00000E+00
    0.00000E+00         0.00000E+00        -0.49443E+08
 
   -0.49321E+08         0.17487E+07         0.00000E+00
    0.17487E+07        -0.49927E+08         0.00000E+00
    0.00000E+00         0.00000E+00        -0.49444E+08
 
   -0.49332E+08         0.17886E+07         0.00000E+00
    0.17886E+07        -0.49923E+08         0.00000E+00
    0.00000E+00         0.00000E+00        -0.49446E+08
 
   -0.49343E+08         0.18282E+07         0.00000E+00
    0.18282E+07        -0.49919E+08         0.00000E+00
    0.00000E+00         0.00000E+00        -0.49447E+08
 
   -0.49353E+08         0.18673E+07         0.00000E+00
    0.18673E+07        -0.49915E+08         0.00000E+00
    0.00000E+00         0.00000E+00        -0.49448E+08
 
   -0.49364E+08         0.19061E+07         0.00000E+00
    0.19061E+07        -0.49911E+08         0.00000E+00
    0.00000E+00         0.00000E+00        -0.49450E+08
 
   -0.49375E+08         0.19445E+07         0.00000E+00
    0.19445E+07        -0.49906E+08         0.00000E+00
    0.00000E+00         0.00000E+00        -0.49451E+08
 
   -0.49386E+08         0.19826E+07         0.00000E+00
    0.19826E+07        -0.49902E+08         0.00000E+00
    0.00000E+00         0.00000E+00        -0.49452E+08
 
   -0.49398E+08         0.20202E+07         0.00000E+00
    0.20202E+07        -0.49897E+08         0.00000E+00
    0.00000E+00         0.00000E+00        -0.49453E+08
 
   -0.49409E+08         0.20575E+07         0.00000E+00
    0.20575E+07        -0.49893E+08         0.00000E+00
    0.00000E+00         0.00000E+00        -0.49455E+08
 
   -0.49420E+08         0.20944E+07         0.00000E+00
    0.20944E+07        -0.49888E+08         0.00000E+00
    0.00000E+00         0.00000E+00        -0.49456E+08
 
   -0.49432E+08         0.21308E+07         0.00000E+00
    0.21308E+07        -0.49883E+08         0.00000E+00
    0.00000E+00         0.00000E+00        -0.49457E+08
 
   -0.49443E+08         0.21669E+07         0.00000E+00
    0.21669E+07        -0.49878E+08         0.00000E+00
    0.00000E+00         0.00000E+00        -0.49459E+08
 
   -0.49455E+08         0.22026E+07         0.00000E+00
    0.22026E+07        -0.49873E+08         0.00000E+00
    0.00000E+00         0.00000E+00        -0.49460E+08
 
   -0.48731E+08         0.27012E+05         0.00000E+00
    0.27012E+05        -0.50000E+08         0.00000E+00
    0.00000E+00         0.00000E+00        -0.49202E+08
 
   -0.48740E+08         0.80231E+05         0.00000E+00
    0.80231E+05        -0.50000E+08         0.00000E+00
    0.00000E+00         0.00000E+00        -0.49204E+08
 
   -0.48749E+08         0.13311E+06         0.00000E+00
    0.13311E+06        -0.50000E+08         0.00000E+00
    0.00000E+00         0.00000E+00        -0.49206E+08
 
   -0.48757E+08         0.18564E+06         0.00000E+00
    0.18564E+06        -0.49999E+08         0.00000E+00
    0.00000E+00         0.00000E+00        -0.49207E+08
 
   -0.48767E+08         0.23784E+06         0.00000E+00
    0.23784E+06        -0.49999E+08         0.00000E+00
    0.00000E+00         0.00000E+00        -0.49209E+08
 
   -0.48776E+08         0.28970E+06         0.00000E+00
    0.28970E+06        -0.49998E+08         0.00000E+00
    0.00000E+00         0.00000E+00        -0.49211E+08
 
   -0.48785E+08         0.34121E+06         0.00000E+00
    0.34121E+06        -0.49998E+08         0.00000E+00
    0.00000E+00         0.00000E+00        -0.49213E+08
 
   -0.48794E+08         0.39239E+06         0.00000E+00
    0.39239E+06        -0.49997E+08         0.00000E+00
    0.00000E+00         0.00000E+00        -0.49214E+08
 
   -0.48804E+08         0.44323E+06         0.00000E+00
    0.44323E+06        -0.49996E+08         0.00000E+00
    0.00000E+00         0.00000E+00        -0.49216E+08
 
   -0.48813E+08         0.49373E+06         0.00000E+00
    0.49373E+06        -0.49995E+08         0.00000E+00
    0.00000E+00         0.00000E+00        -0.49218E+08
 
   -0.48823E+08         0.54390E+06         0.00000E+00
    0.54390E+06        -0.49994E+08         0.00000E+00
    0.00000E+00         0.00000E+00        -0.49219E+08
 
   -0.48833E+08         0.59373E+06         0.00000E+00
    0.59373E+06        -0.49992E+08         0.00000E+00
    0.00000E+00         0.00000E+00        -0.49221E+08
 
   -0.48842E+08         0.64322E+06         0.00000E+00
    0.64322E+06        -0.49991E+08         0.00000E+00
    0.00000E+00         0.00000E+00        -0.49223E+08
 
   -0.48852E+08         0.69237E+06         0.00000E+00
    0.69237E+06        -0.49989E+08         0.00000E+00
    0.00000E+00         0.00000E+00        -0.49224E+08
 
   -0.48862E+08         0.74119E+06         0.00000E+00
    0.74119E+06        -0.49988E+08         0.00000E+00
    0.00000E+00         0.00000E+00        -0.49226E+08
 
   -0.48872E+08         0.78967E+06         0.00000E+00
    0.78967E+06        -0.49986E+08         0.00000E+00
    0.00000E+00         0.00000E+00        -0.49228E+08
 
   -0.48883E+08         0.83781E+06         0.00000E+00
    0.83781E+06        -0.49984E+08         0.00000E+00
    0.00000E+00         0.00000E+00        -0.49229E+08
 
   -0.48893E+08         0.88561E+06         0.00000E+00
    0.88561E+06        -0.49982E+08         0.00000E+00
    0.00000E+00         0.00000E+00        -0.49231E+08
 
   -0.48903E+08         0.93308E+06         0.00000E+00
    0.93308E+06        -0.49980E+08         0.00000E+00
    0.00000E+00         0.00000E+00        -0.49233E+08
 
   -0.48914E+08         0.98021E+06         0.00000E+00
    0.98021E+06        -0.49978E+08         0.00000E+00
    0.00000E+00         0.00000E+00        -0.49234E+08
 
   -0.48924E+08         0.10270E+07         0.00000E+00
    0.10270E+07        -0.49975E+08         0.00000E+00
    0.00000E+00         0.00000E+00        -0.49236E+08
 
   -0.48935E+08         0.10734E+07         0.00000E+00
    0.10734E+07        -0.49973E+08         0.00000E+00
    0.00000E+00         0.00000E+00        -0.49238E+08
 
   -0.48946E+08         0.11196E+07         0.00000E+00
    0.11196E+07        -0.49970E+08         0.00000E+00
    0.00000E+00         0.00000E+00        -0.49239E+08
 
   -0.48957E+08         0.11653E+07         0.00000E+00
    0.11653E+07        -0.49968E+08         0.00000E+00
    0.00000E+00         0.00000E+00        -0.49241E+08
 
   -0.48968E+08         0.12108E+07         0.00000E+00
    0.12108E+07        -0.49965E+08         0.00000E+00
    0.00000E+00         0.00000E+00        -0.49243E+08
 
   -0.48979E+08         0.12558E+07         0.00000E+00
    0.12558E+07        -0.49962E+08         0.00000E+00
    0.00000E+00         0.00000E+00        -0.49244E+08
 
   -0.48990E+08         0.13006E+07         0.00000E+00
    0.13006E+07        -0.49959E+08         0.00000E+00
    0.00000E+00         0.00000E+00        -0.49246E+08
 
   -0.49001E+08         0.13450E+07         0.00000E+00
    0.13450E+07        -0.49956E+08         0.00000E+00
    0.00000E+00         0.00000E+00        -0.49247E+08
 
   -0.49013E+08         0.13890E+07         0.00000E+00
    0.13890E+07        -0.49952E+08         0.00000E+00
    0.00000E+00         0.00000E+00        -0.49249E+08
 
   -0.49024E+08         0.14327E+07         0.00000E+00
    0.14327E+07        -0.49949E+08         0.00000E+00
    0.00000E+00         0.00000E+00        -0.49251E+08
 
   -0.49036E+08         0.14761E+07         0.00000E+00
    0.14761E+07        -0.49945E+08         0.00000E+00
    0.00000E+00         0.00000E+00        -0.49252E+08
 
   -0.49047E+08         0.15191E+07         0.00000E+00
    0.15191E+07        -0.49942E+08         0.00000E+00
    0.00000E+00         0.00000E+00        -0.49254E+08
 
   -0.49059E+08         0.15617E+07         0.00000E+00
    0.15617E+07        -0.49938E+08         0.00000E+00
    0.00000E+00         0.00000E+00        -0.49255E+08
 
   -0.49071E+08         0.16040E+07         0.00000E+00
    0.16040E+07        -0.49934E+08         0.00000E+00
    0.00000E+00         0.00000E+00        -0.49257E+08
 
   -0.49083E+08         0.16460E+07         0.00000E+00
    0.16460E+07        -0.49930E+08         0.00000E+00
    0.00000E+00         0.00000E+00        -0.49259E+08
 
   -0.49095E+08         0.16876E+07         0.00000E+00
    0.16876E+07        -0.49926E+08         0.00000E+00
    0.00000E+00         0.00000E+00        -0.49260E+08
 
   -0.49107E+08         0.17288E+07         0.00000E+00
    0.17288E+07        -0.49921E+08         0.00000E+00
    0.00000E+00         0.00000E+00        -0.49262E+08
 
   -0.49120E+08         0.17696E+07         0.00000E+00
    0.17696E+07        -0.49917E+08         0.00000E+00
    0.00000E+00         0.00000E+00        -0.49263E+08
 
   -0.49132E+08         0.18101E+07         0.00000E+00
    0.18101E+07        -0.49913E+08         0.00000E+00
    0.00000E+00         0.00000E+00        -0.49265E+08
 
   -0.49144E+08         0.18503E+07         0.00000E+00
    0.18503E+07        -0.49908E+08         0.00000E+00
    0.00000E+00         0.00000E+00        -0.49267E+08
 
   -0.49157E+08         0.18900E+07         0.00000E+00
    0.18900E+07        -0.49903E+08         0.00000E+00
    0.00000E+00         0.00000E+00        -0.49268E+08
 
   -0.49170E+08         0.19294E+07         0.00000E+00
    0.19294E+07        -0.49898E+08         0.00000E+00
    0.00000E+00         0.00000E+00        -0.49270E+08
 
   -0.49183E+08         0.19684E+07         0.00000E+00
    0.19684E+07        -0.49893E+08         0.00000E+00
    0.00000E+00         0.00000E+00        -0.49271E+08
 
   -0.49196E+08         0.20070E+07         0.00000E+00
    0.20070E+07        -0.49888E+08         0.00000E+00
    0.00000E+00         0.00000E+00        -0.49273E+08
 
   -0.49209E+08         0.20453E+07         0.00000E+00
    0.20453E+07        -0.49883E+08         0.00000E+00
    0.00000E+00         0.00000E+00        -0.49274E+08
 
   -0.49222E+08         0.20831E+07         0.00000E+00
    0.20831E+07        -0.49877E+08         0.00000E+00
    0.00000E+00         0.00000E+00        -0.49276E+08
 
   -0.49235E+08         0.21206E+07         0.00000E+00
    0.21206E+07        -0.49871E+08         0.00000E+00
    0.00000E+00         0.00000E+00        -0.49277E+08
 
   -0.49249E+08         0.21577E+07         0.00000E+00
    0.21577E+07        -0.49866E+08         0.00000E+00
    0.00000E+00         0.00000E+00        -0.49279E+08
 
   -0.49262E+08         0.21944E+07         0.00000E+00
    0.21944E+07        -0.49860E+08         0.00000E+00
    0.00000E+00         0.00000E+00        -0.49281E+08
 
   -0.49276E+08         0.22307E+07         0.00000E+00
    0.22307E+07        -0.49854E+08         0.00000E+00
    0.00000E+00         0.00000E+00        -0.49282E+08
 
   -0.48462E+08         0.27320E+05         0.00000E+00
    0.27320E+05        -0.50000E+08         0.00000E+00
    0.00000E+00         0.00000E+00        -0.49007E+08
 
   -0.48473E+08         0.81154E+05         0.00000E+00
    0.81154E+05        -0.50000E+08         0.00000E+00
    0.00000E+00         0.00000E+00        -0.49009E+08
 
   -0.48483E+08         0.13465E+06         0.00000E+00
    0.13465E+06        -0.50000E+08         0.00000E+00
    0.00000E+00         0.00000E+00        -0.49012E+08
 
   -0.48494E+08         0.18780E+06         0.00000E+00
    0.18780E+06        -0.49999E+08         0.00000E+00
    0.00000E+00         0.00000E+00        -0.49014E+08
 
   -0.48505E+08         0.24061E+06         0.00000E+00
    0.24061E+06        -0.49999E+08         0.00000E+00
    0.00000E+00         0.00000E+00        -0.49016E+08
 
   -0.48516E+08         0.29308E+06         0.00000E+00
    0.29308E+06        -0.49998E+08         0.00000E+00
    0.00000E+00         0.00000E+00        -0.49018E+08
 
   -0.48527E+08         0.34521E+06         0.00000E+00
    0.34521E+06        -0.49997E+08         0.00000E+00
    0.00000E+00         0.00000E+00        -0.49020E+08
 
   -0.48538E+08         0.39700E+06         0.00000E+00
    0.39700E+06        -0.49996E+08         0.00000E+00
    0.00000E+00         0.00000E+00        -0.49022E+08
 
   -0.48549E+08         0.44846E+06         0.00000E+00
    0.44846E+06        -0.49995E+08         0.00000E+00
    0.00000E+00         0.00000E+00        -0.49024E+08
 
   -0.48560E+08         0.49958E+06         0.00000E+00
    0.49958E+06        -0.49994E+08         0.00000E+00
    0.00000E+00         0.00000E+00        -0.49026E+08
 
   -0.48571E+08         0.55036E+06         0.00000E+00
    0.55036E+06        -0.49993E+08         0.00000E+00
    0.00000E+00         0.00000E+00        -0.49028E+08
 
   -0.48583E+08         0.60080E+06         0.00000E+00
    0.60080E+06        -0.49991E+08         0.00000E+00
    0.00000E+00         0.00000E+00        -0.49030E+08
 
   -0.48594E+08         0.65091E+06         0.00000E+00
    0.65091E+06        -0.49990E+08         0.00000E+00
    0.00000E+00         0.00000E+00        -0.49032E+08
 
   -0.48606E+08         0.70069E+06         0.00000E+00
    0.70069E+06        -0.49988E+08         0.00000E+00
    0.00000E+00         0.00000E+00        -0.49034E+08
 
   -0.48618E+08         0.75012E+06         0.00000E+00
    0.75012E+06        -0.49986E+08         0.00000E+00
    0.00000E+00         0.00000E+00        -0.49036E+08
 
   -0.48629E+08         0.79923E+06         0.00000E+00
    0.79923E+06        -0.49984E+08         0.00000E+00
    0.00000E+00         0.00000E+00        -0.49038E+08
 
   -0.48641E+08         0.84799E+06         0.00000E+00
    0.84799E+06        -0.49982E+08         0.00000E+00
    0.00000E+00         0.00000E+00        -0.49040E+08
 
   -0.48653E+08         0.89642E+06         0.00000E+00
    0.89642E+06        -0.49980E+08         0.00000E+00
    0.00000E+00         0.00000E+00        -0.49042E+08
 
   -0.48665E+08         0.94452E+06         0.00000E+00
    0.94452E+06        -0.49978E+08         0.00000E+00
    0.00000E+00         0.00000E+00        -0.49044E+08
 
   -0.48677E+08         0.99228E+06         0.00000E+00
    0.99228E+06        -0.49975E+08         0.00000E+00
    0.00000E+00         0.00000E+00        -0.49045E+08
 
   -0.48690E+08         0.10397E+07         0.00000E+00
    0.10397E+07        -0.49973E+08         0.00000E+00
    0.00000E+00         0.00000E+00        -0.49047E+08
 
   -0.48702E+08         0.10868E+07         0.00000E+00
    0.10868E+07        -0.49970E+08         0.00000E+00
    0.00000E+00         0.00000E+00        -0.49049E+08
 
   -0.48715E+08         0.11335E+07         0.00000E+00
    0.11335E+07        -0.49967E+08         0.00000E+00
    0.00000E+00         0.00000E+00        -0.49051E+08
 
   -0.48727E+08         0.11799E+07         0.00000E+00
    0.11799E+07        -0.49964E+08         0.00000E+00
    0.00000E+00         0.00000E+00        -0.49053E+08
 
   -0.48740E+08         0.12260E+07         0.00000E+00
    0.12260E+07        -0.49961E+08         0.00000E+00
    0.00000E+00         0.00000E+00        -0.49055E+08
 
   -0.48753E+08         0.12717E+07         0.00000E+00
    0.12717E+07        -0.49958E+08         0.00000E+00
    0.00000E+00         0.00000E+00        -0.49057E+08
 
   -0.48765E+08         0.13171E+07         0.00000E+00
    0.13171E+07        -0.49954E+08         0.00000E+00
    0.00000E+00         0.00000E+00        -0.49059E+08
 
   -0.48778E+08         0.13622E+07         0.00000E+00
    0.13622E+07        -0.49951E+08         0.00000E+00
    0.00000E+00         0.00000E+00        -0.49061E+08
 
   -0.48792E+08         0.14069E+07         0.00000E+00
    0.14069E+07        -0.49947E+08         0.00000E+00
    0.00000E+00         0.00000E+00        -0.49063E+08
 
   -0.48805E+08         0.14513E+07         0.00000E+00
    0.14513E+07        -0.49943E+08         0.00000E+00
    0.00000E+00         0.00000E+00        -0.49064E+08
 
   -0.48818E+08         0.14953E+07         0.00000E+00
    0.14953E+07        -0.49939E+08         0.00000E+00
    0.00000E+00         0.00000E+00        -0.49066E+08
 
   -0.48831E+08         0.15389E+07         0.00000E+00
    0.15389E+07        -0.49935E+08         0.00000E+00
    0.00000E+00         0.00000E+00        -0.49068E+08
 
   -0.48845E+08         0.15823E+07         0.00000E+00
    0.15823E+07        -0.49931E+08         0.00000E+00
    0.00000E+00         0.00000E+00        -0.49070E+08
 
   -0.48859E+08         0.16252E+07         0.00000E+00
    0.16252E+07        -0.49926E+08         0.00000E+00
    0.00000E+00         0.00000E+00        -0.49072E+08
 
   -0.48872E+08         0.16678E+07         0.00000E+00
    0.16678E+07        -0.49922E+08         0.00000E+00
    0.00000E+00         0.00000E+00        -0.49074E+08
 
   -0.48886E+08         0.17101E+07         0.00000E+00
    0.17101E+07        -0.49917E+08         0.00000E+00
    0.00000E+00         0.00000E+00        -0.49076E+08
 
   -0.48900E+08         0.17520E+07         0.00000E+00
    0.17520E+07        -0.49912E+08         0.00000E+00
    0.00000E+00         0.00000E+00        -0.49077E+08
 
   -0.48914E+08         0.17936E+07         0.00000E+00
    0.17936E+07        -0.49907E+08         0.00000E+00
    0.00000E+00         0.00000E+00        -0.49079E+08
 
   -0.48929E+08         0.18347E+07         0.00000E+00
    0.18347E+07        -0.49902E+08         0.00000E+00
    0.00000E+00         0.00000E+00        -0.49081E+08
 
   -0.48943E+08         0.18756E+07         0.00000E+00
    0.18756E+07        -0.49897E+08         0.00000E+00
    0.00000E+00         0.00000E+00        -0.49083E+08
 
   -0.48958E+08         0.19160E+07         0.00000E+00
    0.19160E+07        -0.49891E+08         0.00000E+00
    0.00000E+00         0.00000E+00        -0.49085E+08
 
   -0.48972E+08         0.19561E+07         0.00000E+00
    0.19561E+07        -0.49886E+08         0.00000E+00
    0.00000E+00         0.00000E+00        -0.49086E+08
 
   -0.48987E+08         0.19958E+07         0.00000E+00
    0.19958E+07        -0.49880E+08         0.00000E+00
    0.00000E+00         0.00000E+00        -0.49088E+08
 
   -0.49002E+08         0.20352E+07         0.00000E+00
    0.20352E+07        -0.49874E+08         0.00000E+00
    0.00000E+00         0.00000E+00        -0.49090E+08
 
   -0.49017E+08         0.20741E+07         0.00000E+00
    0.20741E+07        -0.49868E+08         0.00000E+00
    0.00000E+00         0.00000E+00        -0.49092E+08
 
   -0.49032E+08         0.21127E+07         0.00000E+00
    0.21127E+07        -0.49862E+08         0.00000E+00
    0.00000E+00         0.00000E+00        -0.49094E+08
 
   -0.49047E+08         0.21509E+07         0.00000E+00
    0.21509E+07        -0.49855E+08         0.00000E+00
    0.00000E+00         0.00000E+00        -0.49095E+08
 
   -0.49062E+08         0.21887E+07         0.00000E+00
    0.21887E+07        -0.49849E+08         0.00000E+00
    0.00000E+00         0.00000E+00        -0.49097E+08
 
   -0.49078E+08         0.22262E+07         0.00000E+00
    0.22262E+07        -0.49842E+08         0.00000E+00
    0.00000E+00         0.00000E+00        -0.49099E+08
 
   -0.49094E+08         0.22632E+07         0.00000E+00
    0.22632E+07        -0.49835E+08         0.00000E+00
    0.00000E+00         0.00000E+00        -0.49101E+08
 
   -0.48191E+08         0.27657E+05         0.00000E+00
    0.27657E+05        -0.50000E+08         0.00000E+00
    0.00000E+00         0.00000E+00        -0.48809E+08
 
   -0.48203E+08         0.82164E+05         0.00000E+00
    0.82164E+05        -0.50000E+08         0.00000E+00
    0.00000E+00         0.00000E+00        -0.48811E+08
 
   -0.48215E+08         0.13633E+06         0.00000E+00
    0.13633E+06        -0.50000E+08         0.00000E+00
    0.00000E+00         0.00000E+00        -0.48813E+08
 
   -0.48228E+08         0.19015E+06         0.00000E+00
    0.19015E+06        -0.49999E+08         0.00000E+00
    0.00000E+00         0.00000E+00        -0.48816E+08
 
   -0.48240E+08         0.24364E+06         0.00000E+00
    0.24364E+06        -0.49999E+08         0.00000E+00
    0.00000E+00         0.00000E+00        -0.48818E+08
 
   -0.48253E+08         0.29678E+06         0.00000E+00
    0.29678E+06        -0.49998E+08         0.00000E+00
    0.00000E+00         0.00000E+00        -0.48820E+08
 
   -0.48265E+08         0.34959E+06         0.00000E+00
    0.34959E+06        -0.49997E+08         0.00000E+00
    0.00000E+00         0.00000E+00        -0.48823E+08
 
   -0.48278E+08         0.40206E+06         0.00000E+00
    0.40206E+06        -0.49996E+08         0.00000E+00
    0.00000E+00         0.00000E+00        -0.48825E+08
 
   -0.48291E+08         0.45420E+06         0.00000E+00
    0.45420E+06        -0.49995E+08         0.00000E+00
    0.00000E+00         0.00000E+00        -0.48828E+08
 
   -0.48304E+08         0.50599E+06         0.00000E+00
    0.50599E+06        -0.49994E+08         0.00000E+00
    0.00000E+00         0.00000E+00        -0.48830E+08
 
   -0.48317E+08         0.55746E+06         0.00000E+00
    0.55746E+06        -0.49992E+08         0.00000E+00
    0.00000E+00         0.00000E+00        -0.48832E+08
 
   -0.48330E+08         0.60859E+06         0.00000E+00
    0.60859E+06        -0.49991E+08         0.00000E+00
    0.00000E+00         0.00000E+00        -0.48834E+08
 
   -0.48343E+08         0.65938E+06         0.00000E+00
    0.65938E+06        -0.49989E+08         0.00000E+00
    0.00000E+00         0.00000E+00        -0.48837E+08
 
   -0.48356E+08         0.70985E+06         0.00000E+00
    0.70985E+06        -0.49987E+08         0.00000E+00
    0.00000E+00         0.00000E+00        -0.48839E+08
 
   -0.48369E+08         0.75998E+06         0.00000E+00
    0.75998E+06        -0.49985E+08         0.00000E+00
    0.00000E+00         0.00000E+00        -0.48841E+08
 
   -0.48383E+08         0.80977E+06         0.00000E+00
    0.80977E+06        -0.49983E+08         0.00000E+00
    0.00000E+00         0.00000E+00        -0.48844E+08
 
   -0.48397E+08         0.85924E+06         0.00000E+00
    0.85924E+06        -0.49981E+08         0.00000E+00
    0.00000E+00         0.00000E+00        -0.48846E+08
 
   -0.48410E+08         0.90837E+06         0.00000E+00
    0.90837E+06        -0.49978E+08         0.00000E+00
    0.00000E+00         0.00000E+00        -0.48848E+08
 
   -0.48424E+08         0.95717E+06         0.00000E+00
    0.95717E+06        -0.49976E+08         0.00000E+00
    0.00000E+00         0.00000E+00        -0.48850E+08
 
   -0.48438E+08         0.10056E+07         0.00000E+00
    0.10056E+07        -0.49973E+08         0.00000E+00
    0.00000E+00         0.00000E+00        -0.48853E+08
 
   -0.48452E+08         0.10538E+07         0.00000E+00
    0.10538E+07        -0.49970E+08         0.00000E+00
    0.00000E+00         0.00000E+00        -0.48855E+08
 
   -0.48466E+08         0.11016E+07         0.00000E+00
    0.11016E+07        -0.49967E+08         0.00000E+00
    0.00000E+00         0.00000E+00        -0.48857E+08
 
   -0.48480E+08         0.11490E+07         0.00000E+00
    0.11490E+07        -0.49964E+08         0.00000E+00
    0.00000E+00         0.00000E+00        -0.48859E+08
 
   -0.48494E+08         0.11962E+07         0.00000E+00
    0.11962E+07        -0.49961E+08         0.00000E+00
    0.00000E+00         0.00000E+00        -0.48861E+08
 
   -0.48508E+08         0.12430E+07         0.00000E+00
    0.12430E+07        -0.49957E+08         0.00000E+00
    0.00000E+00         0.00000E+00        -0.48864E+08
 
   -0.48523E+08         0.12894E+07         0.00000E+00
    0.12894E+07        -0.49953E+08         0.00000E+00
    0.00000E+00         0.00000E+00        -0.48866E+08
 
   -0.48538E+08         0.13356E+07         0.00000E+00
    0.13356E+07        -0.49950E+08         0.00000E+00
    0.00000E+00         0.00000E+00        -0.48868E+08
 
   -0.48552E+08         0.13814E+07         0.00000E+00
    0.13814E+07        -0.49946E+08         0.00000E+00
    0.00000E+00         0.00000E+00        -0.48870E+08
 
   -0.48567E+08         0.14268E+07         0.00000E+00
    0.14268E+07        -0.49942E+08         0.00000E+00
    0.00000E+00         0.00000E+00        -0.48872E+08
 
   -0.48582E+08         0.14719E+07         0.00000E+00
    0.14719E+07        -0.49937E+08         0.00000E+00
    0.00000E+00         0.00000E+00        -0.48874E+08
 
   -0.48597E+08         0.15167E+07         0.00000E+00
    0.15167E+07        -0.49933E+08         0.00000E+00
    0.00000E+00         0.00000E+00        -0.48876E+08
 
   -0.48612E+08         0.15611E+07         0.00000E+00
    0.15611E+07        -0.49928E+08         0.00000E+00
    0.00000E+00         0.00000E+00        -0.48878E+08
 
   -0.48627E+08         0.16052E+07         0.00000E+00
    0.16052E+07        -0.49924E+08         0.00000E+00
    0.00000E+00         0.00000E+00        -0.48881E+08
 
   -0.48643E+08         0.16489E+07         0.00000E+00
    0.16489E+07        -0.49919E+08         0.00000E+00
    0.00000E+00         0.00000E+00        -0.48883E+08
 
   -0.48658E+08         0.16923E+07         0.00000E+00
    0.16923E+07        -0.49914E+08         0.00000E+00
    0.00000E+00         0.00000E+00        -0.48885E+08
 
   -0.48674E+08         0.17354E+07         0.00000E+00
    0.17354E+07        -0.49908E+08         0.00000E+00
    0.00000E+00         0.00000E+00        -0.48887E+08
 
   -0.48690E+08         0.17781E+07         0.00000E+00
    0.17781E+07        -0.49903E+08         0.00000E+00
    0.00000E+00         0.00000E+00        -0.48889E+08
 
   -0.48706E+08         0.18204E+07         0.00000E+00
    0.18204E+07        -0.49897E+08         0.00000E+00
    0.00000E+00         0.00000E+00        -0.48891E+08
 
   -0.48722E+08         0.18624E+07         0.00000E+00
    0.18624E+07        -0.49892E+08         0.00000E+00
    0.00000E+00         0.00000E+00        -0.48893E+08
 
   -0.48738E+08         0.19040E+07         0.00000E+00
    0.19040E+07        -0.49886E+08         0.00000E+00
    0.00000E+00         0.00000E+00        -0.48895E+08
 
   -0.48754E+08         0.19453E+07         0.00000E+00
    0.19453E+07        -0.49880E+08         0.00000E+00
    0.00000E+00         0.00000E+00        -0.48897E+08
 
   -0.48771E+08         0.19862E+07         0.00000E+00
    0.19862E+07        -0.49873E+08         0.00000E+00
    0.00000E+00         0.00000E+00        -0.48899E+08
 
   -0.48787E+08         0.20268E+07         0.00000E+00
    0.20268E+07        -0.49867E+08         0.00000E+00
    0.00000E+00         0.00000E+00        -0.48901E+08
 
   -0.48804E+08         0.20669E+07         0.00000E+00
    0.20669E+07        -0.49860E+08         0.00000E+00
    0.00000E+00         0.00000E+00        -0.48903E+08
 
   -0.48821E+08         0.21067E+07         0.00000E+00
    0.21067E+07        -0.49854E+08         0.00000E+00
    0.00000E+00         0.00000E+00        -0.48905E+08
 
   -0.48838E+08         0.21462E+07         0.00000E+00
    0.21462E+07        -0.49847E+08         0.00000E+00
    0.00000E+00         0.00000E+00        -0.48907E+08
 
   -0.48855E+08         0.21852E+07         0.00000E+00
    0.21852E+07        -0.49839E+08         0.00000E+00
    0.00000E+00         0.00000E+00        -0.48909E+08
 
   -0.48872E+08         0.22239E+07         0.00000E+00
    0.22239E+07        -0.49832E+08         0.00000E+00
    0.00000E+00         0.00000E+00        -0.48911E+08
 
   -0.48890E+08         0.22622E+07         0.00000E+00
    0.22622E+07        -0.49825E+08         0.00000E+00
    0.00000E+00         0.00000E+00        -0.48913E+08
 
   -0.48907E+08         0.23001E+07         0.00000E+00
    0.23001E+07        -0.49817E+08         0.00000E+00
    0.00000E+00         0.00000E+00        -0.48915E+08
 
   -0.47915E+08         0.28020E+05         0.00000E+00
    0.28020E+05        -0.50000E+08         0.00000E+00
    0.00000E+00         0.00000E+00        -0.48605E+08
 
   -0.47929E+08         0.83255E+05         0.00000E+00
    0.83255E+05        -0.50000E+08         0.00000E+00
    0.00000E+00         0.00000E+00        -0.48608E+08
 
   -0.47943E+08         0.13815E+06         0.00000E+00
    0.13815E+06        -0.49999E+08         0.00000E+00
    0.00000E+00         0.00000E+00        -0.48611E+08
 
   -0.47957E+08         0.19270E+06         0.00000E+00
    0.19270E+06        -0.49999E+08         0.00000E+00
    0.00000E+00         0.00000E+00        -0.48613E+08
 
   -0.47972E+08         0.24692E+06         0.00000E+00
    0.24692E+06        -0.49998E+08         0.00000E+00
    0.00000E+00         0.00000E+00        -0.48616E+08
 
   -0.47986E+08         0.30080E+06         0.00000E+00
    0.30080E+06        -0.49998E+08         0.00000E+00
    0.00000E+00         0.00000E+00        -0.48619E+08
 
   -0.48000E+08         0.35434E+06         0.00000E+00
    0.35434E+06        -0.49997E+08         0.00000E+00
    0.00000E+00         0.00000E+00        -0.48621E+08
 
   -0.48015E+08         0.40755E+06         0.00000E+00
    0.40755E+06        -0.49996E+08         0.00000E+00
    0.00000E+00         0.00000E+00        -0.48624E+08
 
   -0.48029E+08         0.46042E+06         0.00000E+00
    0.46042E+06        -0.49994E+08         0.00000E+00
    0.00000E+00         0.00000E+00        -0.48627E+08
 
   -0.48044E+08         0.51296E+06         0.00000E+00
    0.51296E+06        -0.49993E+08         0.00000E+00
    0.00000E+00         0.00000E+00        -0.48629E+08
 
   -0.48058E+08         0.56517E+06         0.00000E+00
    0.56517E+06        -0.49992E+08         0.00000E+00
    0.00000E+00         0.00000E+00        -0.48632E+08
 
   -0.48073E+08         0.61705E+06         0.00000E+00
    0.61705E+06        -0.49990E+08         0.00000E+00
    0.00000E+00         0.00000E+00        -0.48635E+08
 
   -0.48088E+08         0.66860E+06         0.00000E+00
    0.66860E+06        -0.49988E+08         0.00000E+00
    0.00000E+00         0.00000E+00        -0.48637E+08
 
   -0.48103E+08         0.71982E+06         0.00000E+00
    0.71982E+06        -0.49986E+08         0.00000E+00
    0.00000E+00         0.00000E+00        -0.48640E+08
 
   -0.48118E+08         0.77071E+06         0.00000E+00
    0.77071E+06        -0.49984E+08         0.00000E+00
    0.00000E+00         0.00000E+00        -0.48642E+08
 
   -0.48133E+08         0.82127E+06         0.00000E+00
    0.82127E+06        -0.49982E+08         0.00000E+00
    0.00000E+00         0.00000E+00        -0.48645E+08
 
   -0.48148E+08         0.87151E+06         0.00000E+00
    0.87151E+06        -0.49979E+08         0.00000E+00
    0.00000E+00         0.00000E+00        -0.48647E+08
 
   -0.48163E+08         0.92141E+06         0.00000E+00
    0.92141E+06        -0.49977E+08         0.00000E+00
    0.00000E+00         0.00000E+00        -0.48650E+08
 
   -0.48179E+08         0.97099E+06         0.00000E+00
    0.97099E+06        -0.49974E+08         0.00000E+00
    0.00000E+00         0.00000E+00        -0.48652E+08
 
   -0.48194E+08         0.10202E+07         0.00000E+00
    0.10202E+07        -0.49971E+08         0.00000E+00
    0.00000E+00         0.00000E+00        -0.48655E+08
 
   -0.48210E+08         0.10692E+07         0.00000E+00
    0.10692E+07        -0.49968E+08         0.00000E+00
    0.00000E+00         0.00000E+00        -0.48657E+08
 
   -0.48226E+08         0.11178E+07         0.00000E+00
    0.11178E+07        -0.49964E+08         0.00000E+00
    0.00000E+00         0.00000E+00        -0.48660E+08
 
   -0.48241E+08         0.11660E+07         0.00000E+00
    0.11660E+07        -0.49961E+08         0.00000E+00
    0.00000E+00         0.00000E+00        -0.48662E+08
 
   -0.48257E+08         0.12140E+07         0.00000E+00
    0.12140E+07        -0.49957E+08         0.00000E+00
    0.00000E+00         0.00000E+00        -0.48665E+08
 
   -0.48273E+08         0.12616E+07         0.00000E+00
    0.12616E+07        -0.49953E+08         0.00000E+00
    0.00000E+00         0.00000E+00        -0.48667E+08
 
   -0.48289E+08         0.13088E+07         0.00000E+00
    0.13088E+07        -0.49950E+08         0.00000E+00
    0.00000E+00         0.00000E+00        -0.48670E+08
 
   -0.48306E+08         0.13558E+07         0.00000E+00
    0.13558E+07        -0.49945E+08         0.00000E+00
    0.00000E+00         0.00000E+00        -0.48672E+08
 
   -0.48322E+08         0.14024E+07         0.00000E+00
    0.14024E+07        -0.49941E+08         0.00000E+00
    0.00000E+00         0.00000E+00        -0.48675E+08
 
   -0.48339E+08         0.14487E+07         0.00000E+00
    0.14487E+07        -0.49937E+08         0.00000E+00
    0.00000E+00         0.00000E+00        -0.48677E+08
 
   -0.48355E+08         0.14947E+07         0.00000E+00
    0.14947E+07        -0.49932E+08         0.00000E+00
    0.00000E+00         0.00000E+00        -0.48679E+08
 
   -0.48372E+08         0.15403E+07         0.00000E+00
    0.15403E+07        -0.49927E+08         0.00000E+00
    0.00000E+00         0.00000E+00        -0.48682E+08
 
   -0.48389E+08         0.15856E+07         0.00000E+00
    0.15856E+07        -0.49922E+08         0.00000E+00
    0.00000E+00         0.00000E+00        -0.48684E+08
 
   -0.48406E+08         0.16305E+07         0.00000E+00
    0.16305E+07        -0.49917E+08         0.00000E+00
    0.00000E+00         0.00000E+00        -0.48687E+08
 
   -0.48423E+08         0.16751E+07         0.00000E+00
    0.16751E+07        -0.49911E+08         0.00000E+00
    0.00000E+00         0.00000E+00        -0.48689E+08
 
   -0.48440E+08         0.17194E+07         0.00000E+00
    0.17194E+07        -0.49906E+08         0.00000E+00
    0.00000E+00         0.00000E+00        -0.48691E+08
 
   -0.48457E+08         0.17633E+07         0.00000E+00
    0.17633E+07        -0.49900E+08         0.00000E+00
    0.00000E+00         0.00000E+00        -0.48694E+08
 
   -0.48475E+08         0.18069E+07         0.00000E+00
    0.18069E+07        -0.49894E+08         0.00000E+00
    0.00000E+00         0.00000E+00        -0.48696E+08
 
   -0.48493E+08         0.18502E+07         0.00000E+00
    0.18502E+07        -0.49888E+08         0.00000E+00
    0.00000E+00         0.00000E+00        -0.48698E+08
 
   -0.48510E+08         0.18931E+07         0.00000E+00
    0.18931E+07        -0.49882E+08         0.00000E+00
    0.00000E+00         0.00000E+00        -0.48700E+08
 
   -0.48528E+08         0.19356E+07         0.00000E+00
    0.19356E+07        -0.49875E+08         0.00000E+00
    0.00000E+00         0.00000E+00        -0.48703E+08
 
   -0.48546E+08         0.19778E+07         0.00000E+00
    0.19778E+07        -0.49869E+08         0.00000E+00
    0.00000E+00         0.00000E+00        -0.48705E+08
 
   -0.48565E+08         0.20196E+07         0.00000E+00
    0.20196E+07        -0.49862E+08         0.00000E+00
    0.00000E+00         0.00000E+00        -0.48707E+08
 
   -0.48583E+08         0.20611E+07         0.00000E+00
    0.20611E+07        -0.49855E+08         0.00000E+00
    0.00000E+00         0.00000E+00        -0.48709E+08
 
   -0.48602E+08         0.21023E+07         0.00000E+00
    0.21023E+07        -0.49847E+08         0.00000E+00
    0.00000E+00         0.00000E+00        -0.48712E+08
 
   -0.48620E+08         0.21430E+07         0.00000E+00
    0.21430E+07        -0.49840E+08         0.00000E+00
    0.00000E+00         0.00000E+00        -0.48714E+08
 
   -0.48639E+08         0.21834E+07         0.00000E+00
    0.21834E+07        -0.49832E+08         0.00000E+00
    0.00000E+00         0.00000E+00        -0.48716E+08
 
   -0.48658E+08         0.22235E+07         0.00000E+00
    0.22235E+07        -0.49824E+08         0.00000E+00
    0.00000E+00         0.00000E+00        -0.48718E+08
 
   -0.48677E+08         0.22631E+07         0.00000E+00
    0.22631E+07        -0.49816E+08         0.00000E+00
    0.00000E+00         0.00000E+00        -0.48721E+08
 
   -0.48697E+08         0.23024E+07         0.00000E+00
    0.23024E+07        -0.49808E+08         0.00000E+00
    0.00000E+00         0.00000E+00        -0.48723E+08
 
   -0.48716E+08         0.23413E+07         0.00000E+00
    0.23413E+07        -0.49799E+08         0.00000E+00
    0.00000E+00         0.00000E+00        -0.48725E+08
 
   -0.47636E+08         0.28408E+05         0.00000E+00
    0.28408E+05        -0.50000E+08         0.00000E+00
    0.00000E+00         0.00000E+00        -0.48396E+08
 
   -0.47652E+08         0.84422E+05         0.00000E+00
    0.84422E+05        -0.50000E+08         0.00000E+00
    0.00000E+00         0.00000E+00        -0.48400E+08
 
   -0.47668E+08         0.14010E+06         0.00000E+00
    0.14010E+06        -0.49999E+08         0.00000E+00
    0.00000E+00         0.00000E+00        -0.48403E+08
 
   -0.47684E+08         0.19543E+06         0.00000E+00
    0.19543E+06        -0.49999E+08         0.00000E+00
    0.00000E+00         0.00000E+00        -0.48406E+08
 
   -0.47699E+08         0.25044E+06         0.00000E+00
    0.25044E+06        -0.49998E+08         0.00000E+00
    0.00000E+00         0.00000E+00        -0.48409E+08
 
   -0.47715E+08         0.30510E+06         0.00000E+00
    0.30510E+06        -0.49998E+08         0.00000E+00
    0.00000E+00         0.00000E+00        -0.48412E+08
 
   -0.47731E+08         0.35944E+06         0.00000E+00
    0.35944E+06        -0.49997E+08         0.00000E+00
    0.00000E+00         0.00000E+00        -0.48415E+08
 
   -0.47747E+08         0.41344E+06         0.00000E+00
    0.41344E+06        -0.49995E+08         0.00000E+00
    0.00000E+00         0.00000E+00        -0.48418E+08
 
   -0.47763E+08         0.46711E+06         0.00000E+00
    0.46711E+06        -0.49994E+08         0.00000E+00
    0.00000E+00         0.00000E+00        -0.48421E+08
 
   -0.47780E+08         0.52046E+06         0.00000E+00
    0.52046E+06        -0.49993E+08         0.00000E+00
    0.00000E+00         0.00000E+00        -0.48424E+08
 
   -0.47796E+08         0.57347E+06         0.00000E+00
    0.57347E+06        -0.49991E+08         0.00000E+00
    0.00000E+00         0.00000E+00        -0.48427E+08
 
   -0.47812E+08         0.62616E+06         0.00000E+00
    0.62616E+06        -0.49989E+08         0.00000E+00
    0.00000E+00         0.00000E+00        -0.48429E+08
 
   -0.47829E+08         0.67853E+06         0.00000E+00
    0.67853E+06        -0.49987E+08         0.00000E+00
    0.00000E+00         0.00000E+00        -0.48432E+08
 
   -0.47845E+08         0.73057E+06         0.00000E+00
    0.73057E+06        -0.49985E+08         0.00000E+00
    0.00000E+00         0.00000E+00        -0.48435E+08
 
   -0.47862E+08         0.78228E+06         0.00000E+00
    0.78228E+06        -0.49983E+08         0.00000E+00
    0.00000E+00         0.00000E+00        -0.48438E+08
 
   -0.47879E+08         0.83367E+06         0.00000E+00
    0.83367E+06        -0.49980E+08         0.00000E+00
    0.00000E+00         0.00000E+00        -0.48441E+08
 
   -0.47896E+08         0.88474E+06         0.00000E+00
    0.88474E+06        -0.49978E+08         0.00000E+00
    0.00000E+00         0.00000E+00        -0.48444E+08
 
   -0.47913E+08         0.93549E+06         0.00000E+00
    0.93549E+06        -0.49975E+08         0.00000E+00
    0.00000E+00         0.00000E+00        -0.48447E+08
 
   -0.47930E+08         0.98592E+06         0.00000E+00
    0.98592E+06        -0.49972E+08         0.00000E+00
    0.00000E+00         0.00000E+00        -0.48449E+08
 
   -0.47947E+08         0.10360E+07         0.00000E+00
    0.10360E+07        -0.49969E+08         0.00000E+00
    0.00000E+00         0.00000E+00        -0.48452E+08
 
   -0.47964E+08         0.10858E+07         0.00000E+00
    0.10858E+07        -0.49965E+08         0.00000E+00
    0.00000E+00         0.00000E+00        -0.48455E+08
 
   -0.47981E+08         0.11353E+07         0.00000E+00
    0.11353E+07        -0.49962E+08         0.00000E+00
    0.00000E+00         0.00000E+00        -0.48458E+08
 
   -0.47999E+08         0.11844E+07         0.00000E+00
    0.11844E+07        -0.49958E+08         0.00000E+00
    0.00000E+00         0.00000E+00        -0.48460E+08
 
   -0.48016E+08         0.12332E+07         0.00000E+00
    0.12332E+07        -0.49954E+08         0.00000E+00
    0.00000E+00         0.00000E+00        -0.48463E+08
 
   -0.48034E+08         0.12817E+07         0.00000E+00
    0.12817E+07        -0.49950E+08         0.00000E+00
    0.00000E+00         0.00000E+00        -0.48466E+08
 
   -0.48052E+08         0.13299E+07         0.00000E+00
    0.13299E+07        -0.49946E+08         0.00000E+00
    0.00000E+00         0.00000E+00        -0.48469E+08
 
   -0.48069E+08         0.13778E+07         0.00000E+00
    0.13778E+07        -0.49941E+08         0.00000E+00
    0.00000E+00         0.00000E+00        -0.48471E+08
 
   -0.48087E+08         0.14253E+07         0.00000E+00
    0.14253E+07        -0.49937E+08         0.00000E+00
    0.00000E+00         0.00000E+00        -0.48474E+08
 
   -0.48106E+08         0.14725E+07         0.00000E+00
    0.14725E+07        -0.49932E+08         0.00000E+00
    0.00000E+00         0.00000E+00        -0.48477E+08
 
   -0.48124E+08         0.15194E+07         0.00000E+00
    0.15194E+07        -0.49927E+08         0.00000E+00
    0.00000E+00         0.00000E+00        -0.48479E+08
 
   -0.48142E+08         0.15660E+07         0.00000E+00
    0.15660E+07        -0.49921E+08         0.00000E+00
    0.00000E+00         0.00000E+00        -0.48482E+08
 
   -0.48161E+08         0.16122E+07         0.00000E+00
    0.16122E+07        -0.49916E+08         0.00000E+00
    0.00000E+00         0.00000E+00        -0.48484E+08
 
   -0.48179E+08         0.16581E+07         0.00000E+00
    0.16581E+07        -0.49910E+08         0.00000E+00
    0.00000E+00         0.00000E+00        -0.48487E+08
 
   -0.48198E+08         0.17037E+07         0.00000E+00
    0.17037E+07        -0.49905E+08         0.00000E+00
    0.00000E+00         0.00000E+00        -0.48490E+08
 
   -0.48217E+08         0.17489E+07         0.00000E+00
    0.17489E+07        -0.49899E+08         0.00000E+00
    0.00000E+00         0.00000E+00        -0.48492E+08
 
   -0.48236E+08         0.17939E+07         0.00000E+00
    0.17939E+07        -0.49892E+08         0.00000E+00
    0.00000E+00         0.00000E+00        -0.48495E+08
 
   -0.48255E+08         0.18384E+07         0.00000E+00
    0.18384E+07        -0.49886E+08         0.00000E+00
    0.00000E+00         0.00000E+00        -0.48497E+08
 
   -0.48275E+08         0.18827E+07         0.00000E+00
    0.18827E+07        -0.49879E+08         0.00000E+00
    0.00000E+00         0.00000E+00        -0.48500E+08
 
   -0.48294E+08         0.19266E+07         0.00000E+00
    0.19266E+07        -0.49872E+08         0.00000E+00
    0.00000E+00         0.00000E+00        -0.48502E+08
 
   -0.48314E+08         0.19702E+07         0.00000E+00
    0.19702E+07        -0.49865E+08         0.00000E+00
    0.00000E+00         0.00000E+00        -0.48505E+08
 
   -0.48334E+08         0.20134E+07         0.00000E+00
    0.20134E+07        -0.49858E+08         0.00000E+00
    0.00000E+00         0.00000E+00        -0.48507E+08
 
   -0.48354E+08         0.20563E+07         0.00000E+00
    0.20563E+07        -0.49850E+08         0.00000E+00
    0.00000E+00         0.00000E+00        -0.48510E+08
 
   -0.48374E+08         0.20988E+07         0.00000E+00
    0.20988E+07        -0.49843E+08         0.00000E+00
    0.00000E+00         0.00000E+00        -0.48512E+08
 
   -0.48394E+08         0.21410E+07         0.00000E+00
    0.21410E+07        -0.49835E+08         0.00000E+00
    0.00000E+00         0.00000E+00        -0.48515E+08
 
   -0.48415E+08         0.21829E+07         0.00000E+00
    0.21829E+07        -0.49826E+08         0.00000E+00
    0.00000E+00         0.00000E+00        -0.48517E+08
 
   -0.48435E+08         0.22244E+07         0.00000E+00
    0.22244E+07        -0.49818E+08         0.00000E+00
    0.00000E+00         0.00000E+00        -0.48520E+08
 
   -0.48456E+08         0.22655E+07         0.00000E+00
    0.22655E+07        -0.49809E+08         0.00000E+00
    0.00000E+00         0.00000E+00        -0.48522E+08
 
   -0.48477E+08         0.23063E+07         0.00000E+00
    0.23063E+07        -0.49800E+08         0.00000E+00
    0.00000E+00         0.00000E+00        -0.48525E+08
 
   -0.48499E+08         0.23467E+07         0.00000E+00
    0.23467E+07        -0.49791E+08         0.00000E+00
    0.00000E+00         0.00000E+00        -0.48527E+08
 
   -0.48520E+08         0.23867E+07         0.00000E+00
    0.23867E+07        -0.49782E+08         0.00000E+00
    0.00000E+00         0.00000E+00        -0.48530E+08
 
   -0.47353E+08         0.28818E+05         0.00000E+00
    0.28818E+05        -0.50000E+08         0.00000E+00
    0.00000E+00         0.00000E+00        -0.48182E+08
 
   -0.47371E+08         0.85659E+05         0.00000E+00
    0.85659E+05        -0.50000E+08         0.00000E+00
    0.00000E+00         0.00000E+00        -0.48185E+08
 
   -0.47388E+08         0.14216E+06         0.00000E+00
    0.14216E+06        -0.49999E+08         0.00000E+00
    0.00000E+00         0.00000E+00        -0.48189E+08
 
   -0.47406E+08         0.19833E+06         0.00000E+00
    0.19833E+06        -0.49999E+08         0.00000E+00
    0.00000E+00         0.00000E+00        -0.48192E+08
 
   -0.47423E+08         0.25417E+06         0.00000E+00
    0.25417E+06        -0.49998E+08         0.00000E+00
    0.00000E+00         0.00000E+00        -0.48196E+08
 
   -0.47441E+08         0.30968E+06         0.00000E+00
    0.30968E+06        -0.49997E+08         0.00000E+00
    0.00000E+00         0.00000E+00        -0.48199E+08
 
   -0.47458E+08         0.36486E+06         0.00000E+00
    0.36486E+06        -0.49996E+08         0.00000E+00
    0.00000E+00         0.00000E+00        -0.48202E+08
 
   -0.47476E+08         0.41971E+06         0.00000E+00
    0.41971E+06        -0.49995E+08         0.00000E+00
    0.00000E+00         0.00000E+00        -0.48206E+08
 
   -0.47494E+08         0.47423E+06         0.00000E+00
    0.47423E+06        -0.49994E+08         0.00000E+00
    0.00000E+00         0.00000E+00        -0.48209E+08
 
   -0.47512E+08         0.52844E+06         0.00000E+00
    0.52844E+06        -0.49992E+08         0.00000E+00
    0.00000E+00         0.00000E+00        -0.48212E+08
 
   -0.47530E+08         0.58231E+06         0.00000E+00
    0.58231E+06        -0.49990E+08         0.00000E+00
    0.00000E+00         0.00000E+00        -0.48215E+08
 
   -0.47548E+08         0.63587E+06         0.00000E+00
    0.63587E+06        -0.49989E+08         0.00000E+00
    0.00000E+00         0.00000E+00        -0.48219E+08
 
   -0.47566E+08         0.68911E+06         0.00000E+00
    0.68911E+06        -0.49986E+08         0.00000E+00
    0.00000E+00         0.00000E+00        -0.48222E+08
 
   -0.47584E+08         0.74203E+06         0.00000E+00
    0.74203E+06        -0.49984E+08         0.00000E+00
    0.00000E+00         0.00000E+00        -0.48225E+08
 
   -0.47602E+08         0.79464E+06         0.00000E+00
    0.79464E+06        -0.49982E+08         0.00000E+00
    0.00000E+00         0.00000E+00        -0.48228E+08
 
   -0.47620E+08         0.84692E+06         0.00000E+00
    0.84692E+06        -0.49979E+08         0.00000E+00
    0.00000E+00         0.00000E+00        -0.48231E+08
 
   -0.47639E+08         0.89890E+06         0.00000E+00
    0.89890E+06        -0.49976E+08         0.00000E+00
    0.00000E+00         0.00000E+00        -0.48234E+08
 
   -0.47657E+08         0.95055E+06         0.00000E+00
    0.95055E+06        -0.49973E+08         0.00000E+00
    0.00000E+00         0.00000E+00        -0.48237E+08
 
   -0.47676E+08         0.10019E+07         0.00000E+00
    0.10019E+07        -0.49970E+08         0.00000E+00
    0.00000E+00         0.00000E+00        -0.48240E+08
 
   -0.47695E+08         0.10529E+07         0.00000E+00
    0.10529E+07        -0.49967E+08         0.00000E+00
    0.00000E+00         0.00000E+00        -0.48244E+08
 
   -0.47713E+08         0.11036E+07         0.00000E+00
    0.11036E+07        -0.49963E+08         0.00000E+00
    0.00000E+00         0.00000E+00        -0.48247E+08
 
   -0.47732E+08         0.11540E+07         0.00000E+00
    0.11540E+07        -0.49959E+08         0.00000E+00
    0.00000E+00         0.00000E+00        -0.48250E+08
 
   -0.47751E+08         0.12041E+07         0.00000E+00
    0.12041E+07        -0.49955E+08         0.00000E+00
    0.00000E+00         0.00000E+00        -0.48253E+08
 
   -0.47770E+08         0.12539E+07         0.00000E+00
    0.12539E+07        -0.49951E+08         0.00000E+00
    0.00000E+00         0.00000E+00        -0.48256E+08
 
   -0.47790E+08         0.13034E+07         0.00000E+00
    0.13034E+07        -0.49947E+08         0.00000E+00
    0.00000E+00         0.00000E+00        -0.48259E+08
 
   -0.47809E+08         0.13525E+07         0.00000E+00
    0.13525E+07        -0.49942E+08         0.00000E+00
    0.00000E+00         0.00000E+00        -0.48262E+08
 
   -0.47829E+08         0.14014E+07         0.00000E+00
    0.14014E+07        -0.49937E+08         0.00000E+00
    0.00000E+00         0.00000E+00        -0.48264E+08
 
   -0.47848E+08         0.14499E+07         0.00000E+00
    0.14499E+07        -0.49932E+08         0.00000E+00
    0.00000E+00         0.00000E+00        -0.48267E+08
 
   -0.47868E+08         0.14981E+07         0.00000E+00
    0.14981E+07        -0.49927E+08         0.00000E+00
    0.00000E+00         0.00000E+00        -0.48270E+08
 
   -0.47888E+08         0.15460E+07         0.00000E+00
    0.15460E+07        -0.49922E+08         0.00000E+00
    0.00000E+00         0.00000E+00        -0.48273E+08
 
   -0.47908E+08         0.15936E+07         0.00000E+00
    0.15936E+07        -0.49916E+08         0.00000E+00
    0.00000E+00         0.00000E+00        -0.48276E+08
 
   -0.47928E+08         0.16409E+07         0.00000E+00
    0.16409E+07        -0.49910E+08         0.00000E+00
    0.00000E+00         0.00000E+00        -0.48279E+08
 
   -0.47948E+08         0.16879E+07         0.00000E+00
    0.16879E+07        -0.49904E+08         0.00000E+00
    0.00000E+00         0.00000E+00        -0.48282E+08
 
   -0.47968E+08         0.17345E+07         0.00000E+00
    0.17345E+07        -0.49898E+08         0.00000E+00
    0.00000E+00         0.00000E+00        -0.48285E+08
 
   -0.47989E+08         0.17808E+07         0.00000E+00
    0.17808E+07        -0.49892E+08         0.00000E+00
    0.00000E+00         0.00000E+00        -0.48287E+08
 
   -0.48010E+08         0.18268E+07         0.00000E+00
    0.18268E+07        -0.49885E+08         0.00000E+00
    0.00000E+00         0.00000E+00        -0.48290E+08
 
   -0.48030E+08         0.18725E+07         0.00000E+00
    0.18725E+07        -0.49878E+08         0.00000E+00
    0.00000E+00         0.00000E+00        -0.48293E+08
 
   -0.48051E+08         0.19179E+07         0.00000E+00
    0.19179E+07        -0.49871E+08         0.00000E+00
    0.00000E+00         0.00000E+00        -0.48296E+08
 
   -0.48073E+08         0.19629E+07         0.00000E+00
    0.19629E+07        -0.49863E+08         0.00000E+00
    0.00000E+00         0.00000E+00        -0.48298E+08
 
   -0.48094E+08         0.20076E+07         0.00000E+00
    0.20076E+07        -0.49856E+08         0.00000E+00
    0.00000E+00         0.00000E+00        -0.48301E+08
 
   -0.48116E+08         0.20520E+07         0.00000E+00
    0.20520E+07        -0.49848E+08         0.00000E+00
    0.00000E+00         0.00000E+00        -0.48304E+08
 
   -0.48137E+08         0.20960E+07         0.00000E+00
    0.20960E+07        -0.49840E+08         0.00000E+00
    0.00000E+00         0.00000E+00        -0.48307E+08
 
   -0.48159E+08         0.21398E+07         0.00000E+00
    0.21398E+07        -0.49831E+08         0.00000E+00
    0.00000E+00         0.00000E+00        -0.48309E+08
 
   -0.48181E+08         0.21831E+07         0.00000E+00
    0.21831E+07        -0.49823E+08         0.00000E+00
    0.00000E+00         0.00000E+00        -0.48312E+08
 
   -0.48203E+08         0.22262E+07         0.00000E+00
    0.22262E+07        -0.49814E+08         0.00000E+00
    0.00000E+00         0.00000E+00        -0.48315E+08
 
   -0.48226E+08         0.22689E+07         0.00000E+00
    0.22689E+07        -0.49805E+08         0.00000E+00
    0.00000E+00         0.00000E+00        -0.48317E+08
 
   -0.48248E+08         0.23112E+07         0.00000E+00
    0.23112E+07        -0.49795E+08         0.00000E+00
    0.00000E+00         0.00000E+00        -0.48320E+08
 
   -0.48271E+08         0.23532E+07         0.00000E+00
    0.23532E+07        -0.49786E+08         0.00000E+00
    0.00000E+00         0.00000E+00        -0.48323E+08
 
   -0.48294E+08         0.23949E+07         0.00000E+00
    0.23949E+07        -0.49776E+08         0.00000E+00
    0.00000E+00         0.00000E+00        -0.48325E+08
 
   -0.48318E+08         0.24362E+07         0.00000E+00
    0.24362E+07        -0.49766E+08         0.00000E+00
    0.00000E+00         0.00000E+00        -0.48328E+08
 
   -0.47066E+08         0.29249E+05         0.00000E+00
    0.29249E+05        -0.50000E+08         0.00000E+00
    0.00000E+00         0.00000E+00        -0.47961E+08
 
   -0.47085E+08         0.86960E+05         0.00000E+00
    0.86960E+05        -0.50000E+08         0.00000E+00
    0.00000E+00         0.00000E+00        -0.47965E+08
 
   -0.47104E+08         0.14434E+06         0.00000E+00
    0.14434E+06        -0.49999E+08         0.00000E+00
    0.00000E+00         0.00000E+00        -0.47969E+08
 
   -0.47123E+08         0.20139E+06         0.00000E+00
    0.20139E+06        -0.49999E+08         0.00000E+00
    0.00000E+00         0.00000E+00        -0.47972E+08
 
   -0.47143E+08         0.25810E+06         0.00000E+00
    0.25810E+06        -0.49998E+08         0.00000E+00
    0.00000E+00         0.00000E+00        -0.47976E+08
 
   -0.47162E+08         0.31450E+06         0.00000E+00
    0.31450E+06        -0.49997E+08         0.00000E+00
    0.00000E+00         0.00000E+00        -0.47980E+08
 
   -0.47181E+08         0.37057E+06         0.00000E+00
    0.37057E+06        -0.49996E+08         0.00000E+00
    0.00000E+00         0.00000E+00        -0.47983E+08
 
   -0.47200E+08         0.42632E+06         0.00000E+00
    0.42632E+06        -0.49995E+08         0.00000E+00
    0.00000E+00         0.00000E+00        -0.47987E+08
 
   -0.47220E+08         0.48175E+06         0.00000E+00
    0.48175E+06        -0.49993E+08         0.00000E+00
    0.00000E+00         0.00000E+00        -0.47990E+08
 
   -0.47239E+08         0.53686E+06         0.00000E+00
    0.53686E+06        -0.49992E+08         0.00000E+00
    0.00000E+00         0.00000E+00        -0.47994E+08
 
   -0.47259E+08         0.59165E+06         0.00000E+00
    0.59165E+06        -0.49990E+08         0.00000E+00
    0.00000E+00         0.00000E+00        -0.47998E+08
 
   -0.47278E+08         0.64613E+06         0.00000E+00
    0.64613E+06        -0.49988E+08         0.00000E+00
    0.00000E+00         0.00000E+00        -0.48001E+08
 
   -0.47298E+08         0.70030E+06         0.00000E+00
    0.70030E+06        -0.49986E+08         0.00000E+00
    0.00000E+00         0.00000E+00        -0.48005E+08
 
   -0.47318E+08         0.75416E+06         0.00000E+00
    0.75416E+06        -0.49983E+08         0.00000E+00
    0.00000E+00         0.00000E+00        -0.48008E+08
 
   -0.47337E+08         0.80771E+06         0.00000E+00
    0.80771E+06        -0.49981E+08         0.00000E+00
    0.00000E+00         0.00000E+00        -0.48011E+08
 
   -0.47357E+08         0.86095E+06         0.00000E+00
    0.86095E+06        -0.49978E+08         0.00000E+00
    0.00000E+00         0.00000E+00        -0.48015E+08
 
   -0.47377E+08         0.91389E+06         0.00000E+00
    0.91389E+06        -0.49975E+08         0.00000E+00
    0.00000E+00         0.00000E+00        -0.48018E+08
 
   -0.47397E+08         0.96652E+06         0.00000E+00
    0.96652E+06        -0.49972E+08         0.00000E+00
    0.00000E+00         0.00000E+00        -0.48022E+08
 
   -0.47418E+08         0.10188E+07         0.00000E+00
    0.10188E+07        -0.49968E+08         0.00000E+00
    0.00000E+00         0.00000E+00        -0.48025E+08
 
   -0.47438E+08         0.10709E+07         0.00000E+00
    0.10709E+07        -0.49965E+08         0.00000E+00
    0.00000E+00         0.00000E+00        -0.48028E+08
 
   -0.47458E+08         0.11226E+07         0.00000E+00
    0.11226E+07        -0.49961E+08         0.00000E+00
    0.00000E+00         0.00000E+00        -0.48032E+08
 
   -0.47479E+08         0.11740E+07         0.00000E+00
    0.11740E+07        -0.49957E+08         0.00000E+00
    0.00000E+00         0.00000E+00        -0.48035E+08
 
   -0.47499E+08         0.12251E+07         0.00000E+00
    0.12251E+07        -0.49953E+08         0.00000E+00
    0.00000E+00         0.00000E+00        -0.48038E+08
 
   -0.47520E+08         0.12759E+07         0.00000E+00
    0.12759E+07        -0.49949E+08         0.00000E+00
    0.00000E+00         0.00000E+00        -0.48041E+08
 
   -0.47541E+08         0.13264E+07         0.00000E+00
    0.13264E+07        -0.49944E+08         0.00000E+00
    0.00000E+00         0.00000E+00        -0.48045E+08
 
   -0.47561E+08         0.13766E+07         0.00000E+00
    0.13766E+07        -0.49939E+08         0.00000E+00
    0.00000E+00         0.00000E+00        -0.48048E+08
 
   -0.47582E+08         0.14266E+07         0.00000E+00
    0.14266E+07        -0.49934E+08         0.00000E+00
    0.00000E+00         0.00000E+00        -0.48051E+08
 
   -0.47604E+08         0.14762E+07         0.00000E+00
    0.14762E+07        -0.49929E+08         0.00000E+00
    0.00000E+00         0.00000E+00        -0.48054E+08
 
   -0.47625E+08         0.15255E+07         0.00000E+00
    0.15255E+07        -0.49923E+08         0.00000E+00
    0.00000E+00         0.00000E+00        -0.48057E+08
 
   -0.47646E+08         0.15745E+07         0.00000E+00
    0.15745E+07        -0.49917E+08         0.00000E+00
    0.00000E+00         0.00000E+00        -0.48061E+08
 
   -0.47668E+08         0.16232E+07         0.00000E+00
    0.16232E+07        -0.49911E+08         0.00000E+00
    0.00000E+00         0.00000E+00        -0.48064E+08
 
   -0.47689E+08         0.16716E+07         0.00000E+00
    0.16716E+07        -0.49905E+08         0.00000E+00
    0.00000E+00         0.00000E+00        -0.48067E+08
 
   -0.47711E+08         0.17197E+07         0.00000E+00
    0.17197E+07        -0.49899E+08         0.00000E+00
    0.00000E+00         0.00000E+00        -0.48070E+08
 
   -0.47733E+08         0.17675E+07         0.00000E+00
    0.17675E+07        -0.49892E+08         0.00000E+00
    0.00000E+00         0.00000E+00        -0.48073E+08
 
   -0.47755E+08         0.18150E+07         0.00000E+00
    0.18150E+07        -0.49885E+08         0.00000E+00
    0.00000E+00         0.00000E+00        -0.48076E+08
 
   -0.47777E+08         0.18622E+07         0.00000E+00
    0.18622E+07        -0.49878E+08         0.00000E+00
    0.00000E+00         0.00000E+00        -0.48079E+08
 
   -0.47800E+08         0.19090E+07         0.00000E+00
    0.19090E+07        -0.49871E+08         0.00000E+00
    0.00000E+00         0.00000E+00        -0.48082E+08
 
   -0.47822E+08         0.19556E+07         0.00000E+00
    0.19556E+07        -0.49863E+08         0.00000E+00
    0.00000E+00         0.00000E+00        -0.48085E+08
 
   -0.47845E+08         0.20019E+07         0.00000E+00
    0.20019E+07        -0.49855E+08         0.00000E+00
    0.00000E+00         0.00000E+00        -0.48088E+08
 
   -0.47868E+08         0.20478E+07         0.00000E+00
    0.20478E+07        -0.49847E+08         0.00000E+00
    0.00000E+00         0.00000E+00        -0.48091E+08
 
   -0.47891E+08         0.20934E+07         0.00000E+00
    0.20934E+07        -0.49838E+08         0.00000E+00
    0.00000E+00         0.00000E+00        -0.48094E+08
 
   -0.47915E+08         0.21387E+07         0.00000E+00
    0.21387E+07        -0.49830E+08         0.00000E+00
    0.00000E+00         0.00000E+00        -0.48097E+08
 
   -0.47938E+08         0.21837E+07         0.00000E+00
    0.21837E+07        -0.49821E+08         0.00000E+00
    0.00000E+00         0.00000E+00        -0.48100E+08
 
   -0.47962E+08         0.22284E+07         0.00000E+00
    0.22284E+07        -0.49812E+08         0.00000E+00
    0.00000E+00         0.00000E+00        -0.48103E+08
 
   -0.47986E+08         0.22728E+07         0.00000E+00
    0.22728E+07        -0.49802E+08         0.00000E+00
    0.00000E+00         0.00000E+00        -0.48105E+08
 
   -0.48010E+08         0.23168E+07         0.00000E+00
    0.23168E+07        -0.49792E+08         0.00000E+00
    0.00000E+00         0.00000E+00        -0.48108E+08
 
   -0.48034E+08         0.23605E+07         0.00000E+00
    0.23605E+07        -0.49782E+08         0.00000E+00
    0.00000E+00         0.00000E+00        -0.48111E+08
 
   -0.48059E+08         0.24039E+07         0.00000E+00
    0.24039E+07        -0.49772E+08         0.00000E+00
    0.00000E+00         0.00000E+00        -0.48114E+08
 
   -0.48083E+08         0.24469E+07         0.00000E+00
    0.24469E+07        -0.49761E+08         0.00000E+00
    0.00000E+00         0.00000E+00        -0.48117E+08
 
   -0.48108E+08         0.24896E+07         0.00000E+00
    0.24896E+07        -0.49750E+08         0.00000E+00
    0.00000E+00         0.00000E+00        -0.48120E+08
 
   -0.46775E+08         0.29698E+05         0.00000E+00
    0.29698E+05        -0.50000E+08         0.00000E+00
    0.00000E+00         0.00000E+00        -0.47733E+08
 
   -0.46795E+08         0.88316E+05         0.00000E+00
    0.88316E+05        -0.50000E+08         0.00000E+00
    0.00000E+00         0.00000E+00        -0.47737E+08
 
   -0.46816E+08         0.14661E+06         0.00000E+00
    0.14661E+06        -0.49999E+08         0.00000E+00
    0.00000E+00         0.00000E+00        -0.47741E+08
 
   -0.46837E+08         0.20457E+06         0.00000E+00
    0.20457E+06        -0.49999E+08         0.00000E+00
    0.00000E+00         0.00000E+00        -0.47745E+08
 
   -0.46857E+08         0.26221E+06         0.00000E+00
    0.26221E+06        -0.49998E+08         0.00000E+00
    0.00000E+00         0.00000E+00        -0.47749E+08
 
   -0.46878E+08         0.31953E+06         0.00000E+00
    0.31953E+06        -0.49997E+08         0.00000E+00
    0.00000E+00         0.00000E+00        -0.47753E+08
 
   -0.46899E+08         0.37654E+06         0.00000E+00
    0.37654E+06        -0.49996E+08         0.00000E+00
    0.00000E+00         0.00000E+00        -0.47757E+08
 
   -0.46920E+08         0.43323E+06         0.00000E+00
    0.43323E+06        -0.49995E+08         0.00000E+00
    0.00000E+00         0.00000E+00        -0.47761E+08
 
   -0.46941E+08         0.48961E+06         0.00000E+00
    0.48961E+06        -0.49993E+08         0.00000E+00
    0.00000E+00         0.00000E+00        -0.47765E+08
 
   -0.46962E+08         0.54567E+06         0.00000E+00
    0.54567E+06        -0.49991E+08         0.00000E+00
    0.00000E+00         0.00000E+00        -0.47769E+08
 
   -0.46983E+08         0.60143E+06         0.00000E+00
    0.60143E+06        -0.49990E+08         0.00000E+00
    0.00000E+00         0.00000E+00        -0.47773E+08
 
   -0.47004E+08         0.65689E+06         0.00000E+00
    0.65689E+06        -0.49987E+08         0.00000E+00
    0.00000E+00         0.00000E+00        -0.47777E+08
 
   -0.47025E+08         0.71204E+06         0.00000E+00
    0.71204E+06        -0.49985E+08         0.00000E+00
    0.00000E+00         0.00000E+00        -0.47780E+08
 
   -0.47047E+08         0.76689E+06         0.00000E+00
    0.76689E+06        -0.49983E+08         0.00000E+00
    0.00000E+00         0.00000E+00        -0.47784E+08
 
   -0.47068E+08         0.82144E+06         0.00000E+00
    0.82144E+06        -0.49980E+08         0.00000E+00
    0.00000E+00         0.00000E+00        -0.47788E+08
 
   -0.47089E+08         0.87569E+06         0.00000E+00
    0.87569E+06        -0.49977E+08         0.00000E+00
    0.00000E+00         0.00000E+00        -0.47792E+08
 
   -0.47111E+08         0.92964E+06         0.00000E+00
    0.92964E+06        -0.49974E+08         0.00000E+00
    0.00000E+00         0.00000E+00        -0.47795E+08
 
   -0.47132E+08         0.98330E+06         0.00000E+00
    0.98330E+06        -0.49971E+08         0.00000E+00
    0.00000E+00         0.00000E+00        -0.47799E+08
 
   -0.47154E+08         0.10367E+07         0.00000E+00
    0.10367E+07        -0.49967E+08         0.00000E+00
    0.00000E+00         0.00000E+00        -0.47802E+08
 
   -0.47176E+08         0.10897E+07         0.00000E+00
    0.10897E+07        -0.49963E+08         0.00000E+00
    0.00000E+00         0.00000E+00        -0.47806E+08
 
   -0.47198E+08         0.11425E+07         0.00000E+00
    0.11425E+07        -0.49959E+08         0.00000E+00
    0.00000E+00         0.00000E+00        -0.47810E+08
 
   -0.47220E+08         0.11950E+07         0.00000E+00
    0.11950E+07        -0.49955E+08         0.00000E+00
    0.00000E+00         0.00000E+00        -0.47813E+08
 
   -0.47242E+08         0.12472E+07         0.00000E+00
    0.12472E+07        -0.49951E+08         0.00000E+00
    0.00000E+00         0.00000E+00        -0.47817E+08
 
   -0.47264E+08         0.12991E+07         0.00000E+00
    0.12991E+07        -0.49946E+08         0.00000E+00
    0.00000E+00         0.00000E+00        -0.47820E+08
 
   -0.47286E+08         0.13508E+07         0.00000E+00
    0.13508E+07        -0.49941E+08         0.00000E+00
    0.00000E+00         0.00000E+00        -0.47824E+08
 
   -0.47308E+08         0.14021E+07         0.00000E+00
    0.14021E+07        -0.49936E+08         0.00000E+00
    0.00000E+00         0.00000E+00        -0.47827E+08
 
   -0.47331E+08         0.14531E+07         0.00000E+00
    0.14531E+07        -0.49931E+08         0.00000E+00
    0.00000E+00         0.00000E+00        -0.47831E+08
 
   -0.47353E+08         0.15039E+07         0.00000E+00
    0.15039E+07        -0.49925E+08         0.00000E+00
    0.00000E+00         0.00000E+00        -0.47834E+08
 
   -0.47376E+08         0.15544E+07         0.00000E+00
    0.15544E+07        -0.49919E+08         0.00000E+00
    0.00000E+00         0.00000E+00        -0.47837E+08
 
   -0.47399E+08         0.16046E+07         0.00000E+00
    0.16046E+07        -0.49913E+08         0.00000E+00
    0.00000E+00         0.00000E+00        -0.47841E+08
 
   -0.47422E+08         0.16545E+07         0.00000E+00
    0.16545E+07        -0.49907E+08         0.00000E+00
    0.00000E+00         0.00000E+00        -0.47844E+08
 
   -0.47445E+08         0.17041E+07         0.00000E+00
    0.17041E+07        -0.49901E+08         0.00000E+00
    0.00000E+00         0.00000E+00        -0.47847E+08
 
   -0.47468E+08         0.17534E+07         0.00000E+00
    0.17534E+07        -0.49894E+08         0.00000E+00
    0.00000E+00         0.00000E+00        -0.47851E+08
 
   -0.47492E+08         0.18024E+07         0.00000E+00
    0.18024E+07        -0.49887E+08         0.00000E+00
    0.00000E+00         0.00000E+00        -0.47854E+08
 
   -0.47515E+08         0.18512E+07         0.00000E+00
    0.18512E+07        -0.49879E+08         0.00000E+00
    0.00000E+00         0.00000E+00        -0.47857E+08
 
   -0.47539E+08         0.18997E+07         0.00000E+00
    0.18997E+07        -0.49872E+08         0.00000E+00
    0.00000E+00         0.00000E+00        -0.47860E+08
 
   -0.47563E+08         0.19478E+07         0.00000E+00
    0.19478E+07        -0.49864E+08         0.00000E+00
    0.00000E+00         0.00000E+00        -0.47864E+08
 
   -0.47587E+08         0.19957E+07         0.00000E+00
    0.19957E+07        -0.49856E+08         0.00000E+00
    0.00000E+00         0.00000E+00        -0.47867E+08
 
   -0.47611E+08         0.20433E+07         0.00000E+00
    0.20433E+07        -0.49848E+08         0.00000E+00
    0.00000E+00         0.00000E+00        -0.47870E+08
 
   -0.47636E+08         0.20906E+07         0.00000E+00
    0.20906E+07        -0.49839E+08         0.00000E+00
    0.00000E+00         0.00000E+00        -0.47873E+08
 
   -0.47661E+08         0.21376E+07         0.00000E+00
    0.21376E+07        -0.49830E+08         0.00000E+00
    0.00000E+00         0.00000E+00        -0.47876E+08
 
   -0.47685E+08         0.21842E+07         0.00000E+00
    0.21842E+07        -0.49821E+08         0.00000E+00
    0.00000E+00         0.00000E+00        -0.47879E+08
 
   -0.47710E+08         0.22306E+07         0.00000E+00
    0.22306E+07        -0.49811E+08         0.00000E+00
    0.00000E+00         0.00000E+00        -0.47883E+08
 
   -0.47736E+08         0.22767E+07         0.00000E+00
    0.22767E+07        -0.49801E+08         0.00000E+00
    0.00000E+00         0.00000E+00        -0.47886E+08
 
   -0.47761E+08         0.23225E+07         0.00000E+00
    0.23225E+07        -0.49791E+08         0.00000E+00
    0.00000E+00         0.00000E+00        -0.47889E+08
 
   -0.47787E+08         0.23680E+07         0.00000E+00
    0.23680E+07        -0.49781E+08         0.00000E+00
    0.00000E+00         0.00000E+00        -0.47892E+08
 
   -0.47813E+08         0.24131E+07         0.00000E+00
    0.24131E+07        -0.49770E+08         0.00000E+00
    0.00000E+00         0.00000E+00        -0.47895E+08
 
   -0.47839E+08         0.24580E+07         0.00000E+00
    0.24580E+07        -0.49759E+08         0.00000E+00
    0.00000E+00         0.00000E+00        -0.47898E+08
 
   -0.47865E+08         0.25025E+07         0.00000E+00
    0.25025E+07        -0.49748E+08         0.00000E+00
    0.00000E+00         0.00000E+00        -0.47901E+08
 
   -0.47892E+08         0.25467E+07         0.00000E+00
    0.25467E+07        -0.49736E+08         0.00000E+00
    0.00000E+00         0.00000E+00        -0.47904E+08
 
   -0.46478E+08         0.30161E+05         0.00000E+00
    0.30161E+05        -0.50000E+08         0.00000E+00
    0.00000E+00         0.00000E+00        -0.47498E+08
 
   -0.46501E+08         0.89717E+05         0.00000E+00
    0.89717E+05        -0.50000E+08         0.00000E+00
    0.00000E+00         0.00000E+00        -0.47502E+08
 
   -0.46523E+08         0.14895E+06         0.00000E+00
    0.14895E+06        -0.49999E+08         0.00000E+00
    0.00000E+00         0.00000E+00        -0.47506E+08
 
   -0.46545E+08         0.20787E+06         0.00000E+00
    0.20787E+06        -0.49999E+08         0.00000E+00
    0.00000E+00         0.00000E+00        -0.47511E+08
 
   -0.46568E+08         0.26646E+06         0.00000E+00
    0.26646E+06        -0.49998E+08         0.00000E+00
    0.00000E+00         0.00000E+00        -0.47515E+08
 
   -0.46590E+08         0.32475E+06         0.00000E+00
    0.32475E+06        -0.49997E+08         0.00000E+00
    0.00000E+00         0.00000E+00        -0.47519E+08
 
   -0.46612E+08         0.38273E+06         0.00000E+00
    0.38273E+06        -0.49996E+08         0.00000E+00
    0.00000E+00         0.00000E+00        -0.47524E+08
 
   -0.46635E+08         0.44040E+06         0.00000E+00
    0.44040E+06        -0.49994E+08         0.00000E+00
    0.00000E+00         0.00000E+00        -0.47528E+08
 
   -0.46657E+08         0.49776E+06         0.00000E+00
    0.49776E+06        -0.49993E+08         0.00000E+00
    0.00000E+00         0.00000E+00        -0.47532E+08
 
   -0.46680E+08         0.55483E+06         0.00000E+00
    0.55483E+06        -0.49991E+08         0.00000E+00
    0.00000E+00         0.00000E+00        -0.47536E+08
 
   -0.46702E+08         0.61159E+06         0.00000E+00
    0.61159E+06        -0.49989E+08         0.00000E+00
    0.00000E+00         0.00000E+00        -0.47540E+08
 
   -0.46725E+08         0.66807E+06         0.00000E+00
    0.66807E+06        -0.49987E+08         0.00000E+00
    0.00000E+00         0.00000E+00        -0.47544E+08
 
   -0.46748E+08         0.72424E+06         0.00000E+00
    0.72424E+06        -0.49985E+08         0.00000E+00
    0.00000E+00         0.00000E+00        -0.47549E+08
 
   -0.46771E+08         0.78013E+06         0.00000E+00
    0.78013E+06        -0.49982E+08         0.00000E+00
    0.00000E+00         0.00000E+00        -0.47553E+08
 
   -0.46793E+08         0.83573E+06         0.00000E+00
    0.83573E+06        -0.49979E+08         0.00000E+00
    0.00000E+00         0.00000E+00        -0.47557E+08
 
   -0.46816E+08         0.89104E+06         0.00000E+00
    0.89104E+06        -0.49976E+08         0.00000E+00
    0.00000E+00         0.00000E+00        -0.47561E+08
 
   -0.46839E+08         0.94606E+06         0.00000E+00
    0.94606E+06        -0.49973E+08         0.00000E+00
    0.00000E+00         0.00000E+00        -0.47564E+08
 
   -0.46862E+08         0.10008E+07         0.00000E+00
    0.10008E+07        -0.49970E+08         0.00000E+00
    0.00000E+00         0.00000E+00        -0.47568E+08
 
   -0.46885E+08         0.10553E+07         0.00000E+00
    0.10553E+07        -0.49966E+08         0.00000E+00
    0.00000E+00         0.00000E+00        -0.47572E+08
 
   -0.46908E+08         0.11095E+07         0.00000E+00
    0.11095E+07        -0.49962E+08         0.00000E+00
    0.00000E+00         0.00000E+00        -0.47576E+08
 
   -0.46932E+08         0.11634E+07         0.00000E+00
    0.11634E+07        -0.49958E+08         0.00000E+00
    0.00000E+00         0.00000E+00        -0.47580E+08
 
   -0.46955E+08         0.12170E+07         0.00000E+00
    0.12170E+07        -0.49954E+08         0.00000E+00
    0.00000E+00         0.00000E+00        -0.47584E+08
 
   -0.46978E+08         0.12703E+07         0.00000E+00
    0.12703E+07        -0.49949E+08         0.00000E+00
    0.00000E+00         0.00000E+00        -0.47587E+08
 
   -0.47002E+08         0.13234E+07         0.00000E+00
    0.13234E+07        -0.49944E+08         0.00000E+00
    0.00000E+00         0.00000E+00        -0.47591E+08
 
   -0.47026E+08         0.13762E+07         0.00000E+00
    0.13762E+07        -0.49939E+08         0.00000E+00
    0.00000E+00         0.00000E+00        -0.47595E+08
 
   -0.47049E+08         0.14288E+07         0.00000E+00
    0.14288E+07        -0.49934E+08         0.00000E+00
    0.00000E+00         0.00000E+00        -0.47599E+08
 
   -0.47073E+08         0.14810E+07         0.00000E+00
    0.14810E+07        -0.49928E+08         0.00000E+00
    0.00000E+00         0.00000E+00        -0.47602E+08
 
   -0.47097E+08         0.15330E+07         0.00000E+00
    0.15330E+07        -0.49922E+08         0.00000E+00
    0.00000E+00         0.00000E+00        -0.47606E+08
 
   -0.47121E+08         0.15847E+07         0.00000E+00
    0.15847E+07        -0.49916E+08         0.00000E+00
    0.00000E+00         0.00000E+00        -0.47610E+08
 
   -0.47146E+08         0.16362E+07         0.00000E+00
    0.16362E+07        -0.49910E+08         0.00000E+00
    0.00000E+00         0.00000E+00        -0.47613E+08
 
   -0.47170E+08         0.16873E+07         0.00000E+00
    0.16873E+07        -0.49903E+08         0.00000E+00
    0.00000E+00         0.00000E+00        -0.47617E+08
 
   -0.47194E+08         0.17383E+07         0.00000E+00
    0.17383E+07        -0.49896E+08         0.00000E+00
    0.00000E+00         0.00000E+00        -0.47620E+08
 
   -0.47219E+08         0.17889E+07         0.00000E+00
    0.17889E+07        -0.49889E+08         0.00000E+00
    0.00000E+00         0.00000E+00        -0.47624E+08
 
   -0.47244E+08         0.18393E+07         0.00000E+00
    0.18393E+07        -0.49882E+08         0.00000E+00
    0.00000E+00         0.00000E+00        -0.47627E+08
 
   -0.47269E+08         0.18893E+07         0.00000E+00
    0.18893E+07        -0.49874E+08         0.00000E+00
    0.00000E+00         0.00000E+00        -0.47631E+08
 
   -0.47294E+08         0.19392E+07         0.00000E+00
    0.19392E+07        -0.49866E+08         0.00000E+00
    0.00000E+00         0.00000E+00        -0.47634E+08
 
   -0.47319E+08         0.19887E+07         0.00000E+00
    0.19887E+07        -0.49858E+08         0.00000E+00
    0.00000E+00         0.00000E+00        -0.47638E+08
 
   -0.47345E+08         0.20380E+07         0.00000E+00
    0.20380E+07        -0.49850E+08         0.00000E+00
    0.00000E+00         0.00000E+00        -0.47641E+08
 
   -0.47371E+08         0.20870E+07         0.00000E+00
    0.20870E+07        -0.49841E+08         0.00000E+00
    0.00000E+00         0.00000E+00        -0.47644E+08
 
   -0.47397E+08         0.21357E+07         0.00000E+00
    0.21357E+07        -0.49832E+08         0.00000E+00
    0.00000E+00         0.00000E+00        -0.47648E+08
 
   -0.47423E+08         0.21842E+07         0.00000E+00
    0.21842E+07        -0.49822E+08         0.00000E+00
    0.00000E+00         0.00000E+00        -0.47651E+08
 
   -0.47449E+08         0.22323E+07         0.00000E+00
    0.22323E+07        -0.49813E+08         0.00000E+00
    0.00000E+00         0.00000E+00        -0.47654E+08
 
   -0.47475E+08         0.22802E+07         0.00000E+00
    0.22802E+07        -0.49803E+08         0.00000E+00
    0.00000E+00         0.00000E+00        -0.47658E+08
 
   -0.47502E+08         0.23278E+07         0.00000E+00
    0.23278E+07        -0.49792E+08         0.00000E+00
    0.00000E+00         0.00000E+00        -0.47661E+08
 
   -0.47529E+08         0.23752E+07         0.00000E+00
    0.23752E+07        -0.49782E+08         0.00000E+00
    0.00000E+00         0.00000E+00        -0.47664E+08
 
   -0.47556E+08         0.24222E+07         0.00000E+00
    0.24222E+07        -0.49771E+08         0.00000E+00
    0.00000E+00         0.00000E+00        -0.47667E+08
 
   -0.47584E+08         0.24689E+07         0.00000E+00
    0.24689E+07        -0.49759E+08         0.00000E+00
    0.00000E+00         0.00000E+00        -0.47671E+08
 
   -0.47612E+08         0.25154E+07         0.00000E+00
    0.25154E+07        -0.49748E+08         0.00000E+00
    0.00000E+00         0.00000E+00        -0.47674E+08
 
   -0.47639E+08         0.25615E+07         0.00000E+00
    0.25615E+07        -0.49736E+08         0.00000E+00
    0.00000E+00         0.00000E+00        -0.47677E+08
 
   -0.47668E+08         0.26074E+07         0.00000E+00
    0.26074E+07        -0.49723E+08         0.00000E+00
    0.00000E+00         0.00000E+00        -0.47680E+08
 
   -0.46177E+08         0.30635E+05         0.00000E+00
    0.30635E+05        -0.50000E+08         0.00000E+00
    0.00000E+00         0.00000E+00        -0.47254E+08
 
   -0.46201E+08         0.91154E+05         0.00000E+00
    0.91154E+05        -0.50000E+08         0.00000E+00
    0.00000E+00         0.00000E+00        -0.47259E+08
 
   -0.46225E+08         0.15136E+06         0.00000E+00
    0.15136E+06        -0.49999E+08         0.00000E+00
    0.00000E+00         0.00000E+00        -0.47263E+08
 
   -0.46249E+08         0.21125E+06         0.00000E+00
    0.21125E+06        -0.49999E+08         0.00000E+00
    0.00000E+00         0.00000E+00        -0.47268E+08
 
   -0.46273E+08         0.27083E+06         0.00000E+00
    0.27083E+06        -0.49998E+08         0.00000E+00
    0.00000E+00         0.00000E+00        -0.47273E+08
 
   -0.46297E+08         0.33011E+06         0.00000E+00
    0.33011E+06        -0.49997E+08         0.00000E+00
    0.00000E+00         0.00000E+00        -0.47277E+08
 
   -0.46321E+08         0.38909E+06         0.00000E+00
    0.38909E+06        -0.49996E+08         0.00000E+00
    0.00000E+00         0.00000E+00        -0.47282E+08
 
   -0.46345E+08         0.44777E+06         0.00000E+00
    0.44777E+06        -0.49994E+08         0.00000E+00
    0.00000E+00         0.00000E+00        -0.47286E+08
 
   -0.46369E+08         0.50616E+06         0.00000E+00
    0.50616E+06        -0.49993E+08         0.00000E+00
    0.00000E+00         0.00000E+00        -0.47291E+08
 
   -0.46393E+08         0.56426E+06         0.00000E+00
    0.56426E+06        -0.49991E+08         0.00000E+00
    0.00000E+00         0.00000E+00        -0.47295E+08
 
   -0.46417E+08         0.62207E+06         0.00000E+00
    0.62207E+06        -0.49989E+08         0.00000E+00
    0.00000E+00         0.00000E+00        -0.47300E+08
 
   -0.46441E+08         0.67959E+06         0.00000E+00
    0.67959E+06        -0.49987E+08         0.00000E+00
    0.00000E+00         0.00000E+00        -0.47304E+08
 
   -0.46465E+08         0.73684E+06         0.00000E+00
    0.73684E+06        -0.49984E+08         0.00000E+00
    0.00000E+00         0.00000E+00        -0.47308E+08
 
   -0.46489E+08         0.79380E+06         0.00000E+00
    0.79380E+06        -0.49982E+08         0.00000E+00
    0.00000E+00         0.00000E+00        -0.47313E+08
 
   -0.46513E+08         0.85049E+06         0.00000E+00
    0.85049E+06        -0.49979E+08         0.00000E+00
    0.00000E+00         0.00000E+00        -0.47317E+08
 
   -0.46538E+08         0.90691E+06         0.00000E+00
    0.90691E+06        -0.49976E+08         0.00000E+00
    0.00000E+00         0.00000E+00        -0.47321E+08
 
   -0.46562E+08         0.96305E+06         0.00000E+00
    0.96305E+06        -0.49972E+08         0.00000E+00
    0.00000E+00         0.00000E+00        -0.47325E+08
 
   -0.46586E+08         0.10189E+07         0.00000E+00
    0.10189E+07        -0.49969E+08         0.00000E+00
    0.00000E+00         0.00000E+00        -0.47330E+08
 
   -0.46611E+08         0.10745E+07         0.00000E+00
    0.10745E+07        -0.49965E+08         0.00000E+00
    0.00000E+00         0.00000E+00        -0.47334E+08
 
   -0.46635E+08         0.11299E+07         0.00000E+00
    0.11299E+07        -0.49961E+08         0.00000E+00
    0.00000E+00         0.00000E+00        -0.47338E+08
 
   -0.46660E+08         0.11850E+07         0.00000E+00
    0.11850E+07        -0.49957E+08         0.00000E+00
    0.00000E+00         0.00000E+00        -0.47342E+08
 
   -0.46685E+08         0.12398E+07         0.00000E+00
    0.12398E+07        -0.49952E+08         0.00000E+00
    0.00000E+00         0.00000E+00        -0.47346E+08
 
   -0.46709E+08         0.12943E+07         0.00000E+00
    0.12943E+07        -0.49947E+08         0.00000E+00
    0.00000E+00         0.00000E+00        -0.47350E+08
 
   -0.46734E+08         0.13486E+07         0.00000E+00
    0.13486E+07        -0.49942E+08         0.00000E+00
    0.00000E+00         0.00000E+00        -0.47354E+08
 
   -0.46759E+08         0.14027E+07         0.00000E+00
    0.14027E+07        -0.49937E+08         0.00000E+00
    0.00000E+00         0.00000E+00        -0.47358E+08
 
   -0.46784E+08         0.14565E+07         0.00000E+00
    0.14565E+07        -0.49932E+08         0.00000E+00
    0.00000E+00         0.00000E+00        -0.47362E+08
 
   -0.46809E+08         0.15100E+07         0.00000E+00
    0.15100E+07        -0.49926E+08         0.00000E+00
    0.00000E+00         0.00000E+00        -0.47366E+08
 
   -0.46835E+08         0.15633E+07         0.00000E+00
    0.15633E+07        -0.49920E+08         0.00000E+00
    0.00000E+00         0.00000E+00        -0.47369E+08
 
   -0.46860E+08         0.16163E+07         0.00000E+00
    0.16163E+07        -0.49914E+08         0.00000E+00
    0.00000E+00         0.00000E+00        -0.47373E+08
 
   -0.46886E+08         0.16691E+07         0.00000E+00
    0.16691E+07        -0.49907E+08         0.00000E+00
    0.00000E+00         0.00000E+00        -0.47377E+08
 
   -0.46911E+08         0.17216E+07         0.00000E+00
    0.17216E+07        -0.49900E+08         0.00000E+00
    0.00000E+00         0.00000E+00        -0.47381E+08
 
   -0.46937E+08         0.17739E+07         0.00000E+00
    0.17739E+07        -0.49893E+08         0.00000E+00
    0.00000E+00         0.00000E+00        -0.47385E+08
 
   -0.46963E+08         0.18259E+07         0.00000E+00
    0.18259E+07        -0.49886E+08         0.00000E+00
    0.00000E+00         0.00000E+00        -0.47388E+08
 
   -0.46989E+08         0.18777E+07         0.00000E+00
    0.18777E+07        -0.49878E+08         0.00000E+00
    0.00000E+00         0.00000E+00        -0.47392E+08
 
   -0.47016E+08         0.19292E+07         0.00000E+00
    0.19292E+07        -0.49870E+08         0.00000E+00
    0.00000E+00         0.00000E+00        -0.47396E+08
 
   -0.47042E+08         0.19805E+07         0.00000E+00
    0.19805E+07        -0.49862E+08         0.00000E+00
    0.00000E+00         0.00000E+00        -0.47399E+08
 
   -0.47069E+08         0.20315E+07         0.00000E+00
    0.20315E+07        -0.49853E+08         0.00000E+00
    0.00000E+00         0.00000E+00        -0.47403E+08
 
   -0.47096E+08         0.20823E+07         0.00000E+00
    0.20823E+07        -0.49844E+08         0.00000E+00
    0.00000E+00         0.00000E+00        -0.47406E+08
 
   -0.47123E+08         0.21328E+07         0.00000E+00
    0.21328E+07        -0.49835E+08         0.00000E+00
    0.00000E+00         0.00000E+00        -0.47410E+08
 
   -0.47150E+08         0.21831E+07         0.00000E+00
    0.21831E+07        -0.49825E+08         0.00000E+00
    0.00000E+00         0.00000E+00        -0.47414E+08
 
   -0.47177E+08         0.22331E+07         0.00000E+00
    0.22331E+07        -0.49816E+08         0.00000E+00
    0.00000E+00         0.00000E+00        -0.47417E+08
 
   -0.47205E+08         0.22828E+07         0.00000E+00
    0.22828E+07        -0.49805E+08         0.00000E+00
    0.00000E+00         0.00000E+00        -0.47421E+08
 
   -0.47233E+08         0.23323E+07         0.00000E+00
    0.23323E+07        -0.49795E+08         0.00000E+00
    0.00000E+00         0.00000E+00        -0.47424E+08
 
   -0.47261E+08         0.23816E+07         0.00000E+00
    0.23816E+07        -0.49784E+08         0.00000E+00
    0.00000E+00         0.00000E+00        -0.47428E+08
 
   -0.47289E+08         0.24305E+07         0.00000E+00
    0.24305E+07        -0.49773E+08         0.00000E+00
    0.00000E+00         0.00000E+00        -0.47431E+08
 
   -0.47318E+08         0.24792E+07         0.00000E+00
    0.24792E+07        -0.49762E+08         0.00000E+00
    0.00000E+00         0.00000E+00        -0.47434E+08
 
   -0.47347E+08         0.25277E+07         0.00000E+00
    0.25277E+07        -0.49750E+08         0.00000E+00
    0.00000E+00         0.00000E+00        -0.47438E+08
 
   -0.47376E+08         0.25758E+07         0.00000E+00
    0.25758E+07        -0.49737E+08         0.00000E+00
    0.00000E+00         0.00000E+00        -0.47441E+08
 
   -0.47405E+08         0.26238E+07         0.00000E+00
    0.26238E+07        -0.49725E+08         0.00000E+00
    0.00000E+00         0.00000E+00        -0.47445E+08
 
   -0.47435E+08         0.26714E+07         0.00000E+00
    0.26714E+07        -0.49712E+08         0.00000E+00
    0.00000E+00         0.00000E+00        -0.47448E+08
 
   -0.45871E+08         0.31117E+05         0.00000E+00
    0.31117E+05        -0.50000E+08         0.00000E+00
    0.00000E+00         0.00000E+00        -0.47002E+08
 
   -0.45897E+08         0.92616E+05         0.00000E+00
    0.92616E+05        -0.50000E+08         0.00000E+00
    0.00000E+00         0.00000E+00        -0.47007E+08
 
   -0.45922E+08         0.15381E+06         0.00000E+00
    0.15381E+06        -0.49999E+08         0.00000E+00
    0.00000E+00         0.00000E+00        -0.47012E+08
 
   -0.45948E+08         0.21470E+06         0.00000E+00
    0.21470E+06        -0.49999E+08         0.00000E+00
    0.00000E+00         0.00000E+00        -0.47017E+08
 
   -0.45973E+08         0.27529E+06         0.00000E+00
    0.27529E+06        -0.49998E+08         0.00000E+00
    0.00000E+00         0.00000E+00        -0.47022E+08
 
   -0.45999E+08         0.33558E+06         0.00000E+00
    0.33558E+06        -0.49997E+08         0.00000E+00
    0.00000E+00         0.00000E+00        -0.47026E+08
 
   -0.46024E+08         0.39559E+06         0.00000E+00
    0.39559E+06        -0.49996E+08         0.00000E+00
    0.00000E+00         0.00000E+00        -0.47031E+08
 
   -0.46049E+08         0.45531E+06         0.00000E+00
    0.45531E+06        -0.49994E+08         0.00000E+00
    0.00000E+00         0.00000E+00        -0.47036E+08
 
   -0.46075E+08         0.51474E+06         0.00000E+00
    0.51474E+06        -0.49993E+08         0.00000E+00
    0.00000E+00         0.00000E+00        -0.47041E+08
 
   -0.46100E+08         0.57390E+06         0.00000E+00
    0.57390E+06        -0.49991E+08         0.00000E+00
    0.00000E+00         0.00000E+00        -0.47046E+08
 
   -0.46126E+08         0.63278E+06         0.00000E+00
    0.63278E+06        -0.49989E+08         0.00000E+00
    0.00000E+00         0.00000E+00        -0.47050E+08
 
   -0.46151E+08         0.69139E+06         0.00000E+00
    0.69139E+06        -0.49986E+08         0.00000E+00
    0.00000E+00         0.00000E+00        -0.47055E+08
 
   -0.46177E+08         0.74973E+06         0.00000E+00
    0.74973E+06        -0.49984E+08         0.00000E+00
    0.00000E+00         0.00000E+00        -0.47059E+08
 
   -0.46202E+08         0.80781E+06         0.00000E+00
    0.80781E+06        -0.49981E+08         0.00000E+00
    0.00000E+00         0.00000E+00        -0.47064E+08
 
   -0.46228E+08         0.86563E+06         0.00000E+00
    0.86563E+06        -0.49978E+08         0.00000E+00
    0.00000E+00         0.00000E+00        -0.47069E+08
 
   -0.46253E+08         0.92318E+06         0.00000E+00
    0.92318E+06        -0.49975E+08         0.00000E+00
    0.00000E+00         0.00000E+00        -0.47073E+08
 
   -0.46279E+08         0.98048E+06         0.00000E+00
    0.98048E+06        -0.49972E+08         0.00000E+00
    0.00000E+00         0.00000E+00        -0.47077E+08
 
   -0.46305E+08         0.10375E+07         0.00000E+00
    0.10375E+07        -0.49968E+08         0.00000E+00
    0.00000E+00         0.00000E+00        -0.47082E+08
 
   -0.46330E+08         0.10943E+07         0.00000E+00
    0.10943E+07        -0.49964E+08         0.00000E+00
    0.00000E+00         0.00000E+00        -0.47086E+08
 
   -0.46356E+08         0.11509E+07         0.00000E+00
    0.11509E+07        -0.49960E+08         0.00000E+00
    0.00000E+00         0.00000E+00        -0.47091E+08
 
   -0.46382E+08         0.12072E+07         0.00000E+00
    0.12072E+07        -0.49956E+08         0.00000E+00
    0.00000E+00         0.00000E+00        -0.47095E+08
 
   -0.46408E+08         0.12632E+07         0.00000E+00
    0.12632E+07        -0.49951E+08         0.00000E+00
    0.00000E+00         0.00000E+00        -0.47099E+08
 
   -0.46434E+08         0.13191E+07         0.00000E+00
    0.13191E+07        -0.49946E+08         0.00000E+00
    0.00000E+00         0.00000E+00        -0.47103E+08
 
   -0.46460E+08         0.13746E+07         0.00000E+00
    0.13746E+07        -0.49941E+08         0.00000E+00
    0.00000E+00         0.00000E+00        -0.47108E+08
 
   -0.46486E+08         0.14300E+07         0.00000E+00
    0.14300E+07        -0.49936E+08         0.00000E+00
    0.00000E+00         0.00000E+00        -0.47112E+08
 
   -0.46513E+08         0.14851E+07         0.00000E+00
    0.14851E+07        -0.49930E+08         0.00000E+00
    0.00000E+00         0.00000E+00        -0.47116E+08
 
   -0.46539E+08         0.15400E+07         0.00000E+00
    0.15400E+07        -0.49924E+08         0.00000E+00
    0.00000E+00         0.00000E+00        -0.47120E+08
 
   -0.46565E+08         0.15946E+07         0.00000E+00
    0.15946E+07        -0.49918E+08         0.00000E+00
    0.00000E+00         0.00000E+00        -0.47124E+08
 
   -0.46592E+08         0.16490E+07         0.00000E+00
    0.16490E+07        -0.49911E+08         0.00000E+00
    0.00000E+00         0.00000E+00        -0.47128E+08
 
   -0.46619E+08         0.17032E+07         0.00000E+00
    0.17032E+07        -0.49905E+08         0.00000E+00
    0.00000E+00         0.00000E+00        -0.47132E+08
 
   -0.46646E+08         0.17571E+07         0.00000E+00
    0.17571E+07        -0.49898E+08         0.00000E+00
    0.00000E+00         0.00000E+00        -0.47136E+08
 
   -0.46673E+08         0.18108E+07         0.00000E+00
    0.18108E+07        -0.49890E+08         0.00000E+00
    0.00000E+00         0.00000E+00        -0.47140E+08
 
   -0.46700E+08         0.18643E+07         0.00000E+00
    0.18643E+07        -0.49883E+08         0.00000E+00
    0.00000E+00         0.00000E+00        -0.47144E+08
 
   -0.46727E+08         0.19176E+07         0.00000E+00
    0.19176E+07        -0.49875E+08         0.00000E+00
    0.00000E+00         0.00000E+00        -0.47148E+08
 
   -0.46755E+08         0.19706E+07         0.00000E+00
    0.19706E+07        -0.49866E+08         0.00000E+00
    0.00000E+00         0.00000E+00        -0.47152E+08
 
   -0.46782E+08         0.20234E+07         0.00000E+00
    0.20234E+07        -0.49858E+08         0.00000E+00
    0.00000E+00         0.00000E+00        -0.47155E+08
 
   -0.46810E+08         0.20760E+07         0.00000E+00
    0.20760E+07        -0.49849E+08         0.00000E+00
    0.00000E+00         0.00000E+00        -0.47159E+08
 
   -0.46838E+08         0.21284E+07         0.00000E+00
    0.21284E+07        -0.49840E+08         0.00000E+00
    0.00000E+00         0.00000E+00        -0.47163E+08
 
   -0.46867E+08         0.21805E+07         0.00000E+00
    0.21805E+07        -0.49830E+08         0.00000E+00
    0.00000E+00         0.00000E+00        -0.47167E+08
 
   -0.46895E+08         0.22324E+07         0.00000E+00
    0.22324E+07        -0.49820E+08         0.00000E+00
    0.00000E+00         0.00000E+00        -0.47170E+08
 
   -0.46924E+08         0.22840E+07         0.00000E+00
    0.22840E+07        -0.49810E+08         0.00000E+00
    0.00000E+00         0.00000E+00        -0.47174E+08
 
   -0.46953E+08         0.23355E+07         0.00000E+00
    0.23355E+07        -0.49800E+08         0.00000E+00
    0.00000E+00         0.00000E+00        -0.47178E+08
 
   -0.46982E+08         0.23866E+07         0.00000E+00
    0.23866E+07        -0.49789E+08         0.00000E+00
    0.00000E+00         0.00000E+00        -0.47181E+08
 
   -0.47011E+08         0.24376E+07         0.00000E+00
    0.24376E+07        -0.49777E+08         0.00000E+00
    0.00000E+00         0.00000E+00        -0.47185E+08
 
   -0.47041E+08         0.24883E+07         0.00000E+00
    0.24883E+07        -0.49766E+08         0.00000E+00
    0.00000E+00         0.00000E+00        -0.47189E+08
 
   -0.47070E+08         0.25388E+07         0.00000E+00
    0.25388E+07        -0.49754E+08         0.00000E+00
    0.00000E+00         0.00000E+00        -0.47192E+08
 
   -0.47100E+08         0.25891E+07         0.00000E+00
    0.25891E+07        -0.49742E+08         0.00000E+00
    0.00000E+00         0.00000E+00        -0.47196E+08
 
   -0.47131E+08         0.26391E+07         0.00000E+00
    0.26391E+07        -0.49729E+08         0.00000E+00
    0.00000E+00         0.00000E+00        -0.47199E+08
 
   -0.47162E+08         0.26889E+07         0.00000E+00
    0.26889E+07        -0.49716E+08         0.00000E+00
    0.00000E+00         0.00000E+00        -0.47203E+08
 
   -0.47192E+08         0.27384E+07         0.00000E+00
    0.27384E+07        -0.49702E+08         0.00000E+00
    0.00000E+00         0.00000E+00        -0.47206E+08
 
   -0.45561E+08         0.31601E+05         0.00000E+00
    0.31601E+05        -0.50000E+08         0.00000E+00
    0.00000E+00         0.00000E+00        -0.46740E+08
 
   -0.45588E+08         0.94090E+05         0.00000E+00
    0.94090E+05        -0.50000E+08         0.00000E+00
    0.00000E+00         0.00000E+00        -0.46745E+08
 
   -0.45615E+08         0.15628E+06         0.00000E+00
    0.15628E+06        -0.49999E+08         0.00000E+00
    0.00000E+00         0.00000E+00        -0.46751E+08
 
   -0.45642E+08         0.21818E+06         0.00000E+00
    0.21818E+06        -0.49999E+08         0.00000E+00
    0.00000E+00         0.00000E+00        -0.46756E+08
 
   -0.45668E+08         0.27979E+06         0.00000E+00
    0.27979E+06        -0.49998E+08         0.00000E+00
    0.00000E+00         0.00000E+00        -0.46761E+08
 
   -0.45695E+08         0.34111E+06         0.00000E+00
    0.34111E+06        -0.49997E+08         0.00000E+00
    0.00000E+00         0.00000E+00        -0.46766E+08
 
   -0.45722E+08         0.40216E+06         0.00000E+00
    0.40216E+06        -0.49996E+08         0.00000E+00
    0.00000E+00         0.00000E+00        -0.46771E+08
 
   -0.45749E+08         0.46293E+06         0.00000E+00
    0.46293E+06        -0.49994E+08         0.00000E+00
    0.00000E+00         0.00000E+00        -0.46776E+08
 
   -0.45776E+08         0.52343E+06         0.00000E+00
    0.52343E+06        -0.49993E+08         0.00000E+00
    0.00000E+00         0.00000E+00        -0.46781E+08
 
   -0.45802E+08         0.58367E+06         0.00000E+00
    0.58367E+06        -0.49991E+08         0.00000E+00
    0.00000E+00         0.00000E+00        -0.46786E+08
 
   -0.45829E+08         0.64365E+06         0.00000E+00
    0.64365E+06        -0.49989E+08         0.00000E+00
    0.00000E+00         0.00000E+00        -0.46791E+08
 
   -0.45856E+08         0.70337E+06         0.00000E+00
    0.70337E+06        -0.49986E+08         0.00000E+00
    0.00000E+00         0.00000E+00        -0.46796E+08
 
   -0.45883E+08         0.76283E+06         0.00000E+00
    0.76283E+06        -0.49984E+08         0.00000E+00
    0.00000E+00         0.00000E+00        -0.46801E+08
 
   -0.45910E+08         0.82205E+06         0.00000E+00
    0.82205E+06        -0.49981E+08         0.00000E+00
    0.00000E+00         0.00000E+00        -0.46806E+08
 
   -0.45936E+08         0.88102E+06         0.00000E+00
    0.88102E+06        -0.49978E+08         0.00000E+00
    0.00000E+00         0.00000E+00        -0.46811E+08
 
   -0.45963E+08         0.93975E+06         0.00000E+00
    0.93975E+06        -0.49975E+08         0.00000E+00
    0.00000E+00         0.00000E+00        -0.46815E+08
 
   -0.45990E+08         0.99824E+06         0.00000E+00
    0.99824E+06        -0.49971E+08         0.00000E+00
    0.00000E+00         0.00000E+00        -0.46820E+08
 
   -0.46017E+08         0.10565E+07         0.00000E+00
    0.10565E+07        -0.49968E+08         0.00000E+00
    0.00000E+00         0.00000E+00        -0.46825E+08
 
   -0.46044E+08         0.11145E+07         0.00000E+00
    0.11145E+07        -0.49964E+08         0.00000E+00
    0.00000E+00         0.00000E+00        -0.46829E+08
 
   -0.46071E+08         0.11723E+07         0.00000E+00
    0.11723E+07        -0.49960E+08         0.00000E+00
    0.00000E+00         0.00000E+00        -0.46834E+08
 
   -0.46098E+08         0.12299E+07         0.00000E+00
    0.12299E+07        -0.49955E+08         0.00000E+00
    0.00000E+00         0.00000E+00        -0.46838E+08
 
   -0.46125E+08         0.12872E+07         0.00000E+00
    0.12872E+07        -0.49950E+08         0.00000E+00
    0.00000E+00         0.00000E+00        -0.46843E+08
 
   -0.46152E+08         0.13443E+07         0.00000E+00
    0.13443E+07        -0.49946E+08         0.00000E+00
    0.00000E+00         0.00000E+00        -0.46847E+08
 
   -0.46179E+08         0.14012E+07         0.00000E+00
    0.14012E+07        -0.49940E+08         0.00000E+00
    0.00000E+00         0.00000E+00        -0.46852E+08
 
   -0.46207E+08         0.14579E+07         0.00000E+00
    0.14579E+07        -0.49935E+08         0.00000E+00
    0.00000E+00         0.00000E+00        -0.46856E+08
 
   -0.46234E+08         0.15144E+07         0.00000E+00
    0.15144E+07        -0.49929E+08         0.00000E+00
    0.00000E+00         0.00000E+00        -0.46860E+08
 
   -0.46262E+08         0.15707E+07         0.00000E+00
    0.15707E+07        -0.49923E+08         0.00000E+00
    0.00000E+00         0.00000E+00        -0.46865E+08
 
   -0.46289E+08         0.16267E+07         0.00000E+00
    0.16267E+07        -0.49917E+08         0.00000E+00
    0.00000E+00         0.00000E+00        -0.46869E+08
 
   -0.46317E+08         0.16826E+07         0.00000E+00
    0.16826E+07        -0.49910E+08         0.00000E+00
    0.00000E+00         0.00000E+00        -0.46873E+08
 
   -0.46345E+08         0.17382E+07         0.00000E+00
    0.17382E+07        -0.49903E+08         0.00000E+00
    0.00000E+00         0.00000E+00        -0.46877E+08
 
   -0.46373E+08         0.17936E+07         0.00000E+00
    0.17936E+07        -0.49896E+08         0.00000E+00
    0.00000E+00         0.00000E+00        -0.46882E+08
 
   -0.46401E+08         0.18488E+07         0.00000E+00
    0.18488E+07        -0.49888E+08         0.00000E+00
    0.00000E+00         0.00000E+00        -0.46886E+08
 
   -0.46429E+08         0.19039E+07         0.00000E+00
    0.19039E+07        -0.49880E+08         0.00000E+00
    0.00000E+00         0.00000E+00        -0.46890E+08
 
   -0.46458E+08         0.19587E+07         0.00000E+00
    0.19587E+07        -0.49872E+08         0.00000E+00
    0.00000E+00         0.00000E+00        -0.46894E+08
 
   -0.46486E+08         0.20133E+07         0.00000E+00
    0.20133E+07        -0.49864E+08         0.00000E+00
    0.00000E+00         0.00000E+00        -0.46898E+08
 
   -0.46515E+08         0.20677E+07         0.00000E+00
    0.20677E+07        -0.49855E+08         0.00000E+00
    0.00000E+00         0.00000E+00        -0.46902E+08
 
   -0.46544E+08         0.21219E+07         0.00000E+00
    0.21219E+07        -0.49846E+08         0.00000E+00
    0.00000E+00         0.00000E+00        -0.46906E+08
 
   -0.46573E+08         0.21759E+07         0.00000E+00
    0.21759E+07        -0.49836E+08         0.00000E+00
    0.00000E+00         0.00000E+00        -0.46910E+08
 
   -0.46602E+08         0.22297E+07         0.00000E+00
    0.22297E+07        -0.49827E+08         0.00000E+00
    0.00000E+00         0.00000E+00        -0.46914E+08
 
   -0.46632E+08         0.22833E+07         0.00000E+00
    0.22833E+07        -0.49816E+08         0.00000E+00
    0.00000E+00         0.00000E+00        -0.46917E+08
 
   -0.46662E+08         0.23367E+07         0.00000E+00
    0.23367E+07        -0.49806E+08         0.00000E+00
    0.00000E+00         0.00000E+00        -0.46921E+08
 
   -0.46692E+08         0.23899E+07         0.00000E+00
    0.23899E+07        -0.49795E+08         0.00000E+00
    0.00000E+00         0.00000E+00        -0.46925E+08
 
   -0.46722E+08         0.24429E+07         0.00000E+00
    0.24429E+07        -0.49784E+08         0.00000E+00
    0.00000E+00         0.00000E+00        -0.46929E+08
 
   -0.46752E+08         0.24957E+07         0.00000E+00
    0.24957E+07        -0.49772E+08         0.00000E+00
    0.00000E+00         0.00000E+00        -0.46933E+08
 
   -0.46783E+08         0.25483E+07         0.00000E+00
    0.25483E+07        -0.49760E+08         0.00000E+00
    0.00000E+00         0.00000E+00        -0.46936E+08
 
   -0.46814E+08         0.26007E+07         0.00000E+00
    0.26007E+07        -0.49748E+08         0.00000E+00
    0.00000E+00         0.00000E+00        -0.46940E+08
 
   -0.46845E+08         0.26529E+07         0.00000E+00
    0.26529E+07        -0.49735E+08         0.00000E+00
    0.00000E+00         0.00000E+00        -0.46944E+08
 
   -0.46877E+08         0.27048E+07         0.00000E+00
    0.27048E+07        -0.49722E+08         0.00000E+00
    0.00000E+00         0.00000E+00        -0.46947E+08
 
   -0.46908E+08         0.27566E+07         0.00000E+00
    0.27566E+07        -0.49708E+08         0.00000E+00
    0.00000E+00         0.00000E+00        -0.46951E+08
 
   -0.46940E+08         0.28081E+07         0.00000E+00
    0.28081E+07        -0.49694E+08         0.00000E+00
    0.00000E+00         0.00000E+00        -0.46955E+08
 
   -0.45245E+08         0.32084E+05         0.00000E+00
    0.32084E+05        -0.50000E+08         0.00000E+00
    0.00000E+00         0.00000E+00        -0.46468E+08
 
   -0.45273E+08         0.95561E+05         0.00000E+00
    0.95561E+05        -0.50000E+08         0.00000E+00
    0.00000E+00         0.00000E+00        -0.46474E+08
 
   -0.45302E+08         0.15875E+06         0.00000E+00
    0.15875E+06        -0.49999E+08         0.00000E+00
    0.00000E+00         0.00000E+00        -0.46480E+08
 
   -0.45330E+08         0.22166E+06         0.00000E+00
    0.22166E+06        -0.49999E+08         0.00000E+00
    0.00000E+00         0.00000E+00        -0.46485E+08
 
   -0.45358E+08         0.28429E+06         0.00000E+00
    0.28429E+06        -0.49998E+08         0.00000E+00
    0.00000E+00         0.00000E+00        -0.46491E+08
 
   -0.45387E+08         0.34665E+06         0.00000E+00
    0.34665E+06        -0.49997E+08         0.00000E+00
    0.00000E+00         0.00000E+00        -0.46496E+08
 
   -0.45415E+08         0.40875E+06         0.00000E+00
    0.40875E+06        -0.49996E+08         0.00000E+00
    0.00000E+00         0.00000E+00        -0.46502E+08
 
   -0.45443E+08         0.47058E+06         0.00000E+00
    0.47058E+06        -0.49994E+08         0.00000E+00
    0.00000E+00         0.00000E+00        -0.46507E+08
 
   -0.45471E+08         0.53216E+06         0.00000E+00
    0.53216E+06        -0.49993E+08         0.00000E+00
    0.00000E+00         0.00000E+00        -0.46512E+08
 
   -0.45499E+08         0.59349E+06         0.00000E+00
    0.59349E+06        -0.49991E+08         0.00000E+00
    0.00000E+00         0.00000E+00        -0.46517E+08
 
   -0.45527E+08         0.65457E+06         0.00000E+00
    0.65457E+06        -0.49989E+08         0.00000E+00
    0.00000E+00         0.00000E+00        -0.46523E+08
 
   -0.45555E+08         0.71541E+06         0.00000E+00
    0.71541E+06        -0.49986E+08         0.00000E+00
    0.00000E+00         0.00000E+00        -0.46528E+08
 
   -0.45583E+08         0.77602E+06         0.00000E+00
    0.77602E+06        -0.49984E+08         0.00000E+00
    0.00000E+00         0.00000E+00        -0.46533E+08
 
   -0.45611E+08         0.83639E+06         0.00000E+00
    0.83639E+06        -0.49981E+08         0.00000E+00
    0.00000E+00         0.00000E+00        -0.46538E+08
 
   -0.45639E+08         0.89654E+06         0.00000E+00
    0.89654E+06        -0.49978E+08         0.00000E+00
    0.00000E+00         0.00000E+00        -0.46543E+08
 
   -0.45667E+08         0.95646E+06         0.00000E+00
    0.95646E+06        -0.49975E+08         0.00000E+00
    0.00000E+00         0.00000E+00        -0.46548E+08
 
   -0.45695E+08         0.10162E+07         0.00000E+00
    0.10162E+07        -0.49971E+08         0.00000E+00
    0.00000E+00         0.00000E+00        -0.46553E+08
 
   -0.45723E+08         0.10757E+07         0.00000E+00
    0.10757E+07        -0.49968E+08         0.00000E+00
    0.00000E+00         0.00000E+00        -0.46558E+08
 
   -0.45751E+08         0.11349E+07         0.00000E+00
    0.11349E+07        -0.49964E+08         0.00000E+00
    0.00000E+00         0.00000E+00        -0.46562E+08
 
   -0.45779E+08         0.11940E+07         0.00000E+00
    0.11940E+07        -0.49960E+08         0.00000E+00
    0.00000E+00         0.00000E+00        -0.46567E+08
 
   -0.45807E+08         0.12529E+07         0.00000E+00
    0.12529E+07        -0.49955E+08         0.00000E+00
    0.00000E+00         0.00000E+00        -0.46572E+08
 
   -0.45836E+08         0.13115E+07         0.00000E+00
    0.13115E+07        -0.49950E+08         0.00000E+00
    0.00000E+00         0.00000E+00        -0.46577E+08
 
   -0.45864E+08         0.13700E+07         0.00000E+00
    0.13700E+07        -0.49945E+08         0.00000E+00
    0.00000E+00         0.00000E+00        -0.46581E+08
 
   -0.45892E+08         0.14282E+07         0.00000E+00
    0.14282E+07        -0.49940E+08         0.00000E+00
    0.00000E+00         0.00000E+00        -0.46586E+08
 
   -0.45920E+08         0.14863E+07         0.00000E+00
    0.14863E+07        -0.49934E+08         0.00000E+00
    0.00000E+00         0.00000E+00        -0.46590E+08
 
   -0.45949E+08         0.15442E+07         0.00000E+00
    0.15442E+07        -0.49929E+08         0.00000E+00
    0.00000E+00         0.00000E+00        -0.46595E+08
 
   -0.45977E+08         0.16019E+07         0.00000E+00
    0.16019E+07        -0.49922E+08         0.00000E+00
    0.00000E+00         0.00000E+00        -0.46599E+08
 
   -0.46006E+08         0.16594E+07         0.00000E+00
    0.16594E+07        -0.49916E+08         0.00000E+00
    0.00000E+00         0.00000E+00        -0.46604E+08
 
   -0.46035E+08         0.17167E+07         0.00000E+00
    0.17167E+07        -0.49909E+08         0.00000E+00
    0.00000E+00         0.00000E+00        -0.46608E+08
 
   -0.46063E+08         0.17739E+07         0.00000E+00
    0.17739E+07        -0.49902E+08         0.00000E+00
    0.00000E+00         0.00000E+00        -0.46613E+08
 
   -0.46092E+08         0.18308E+07         0.00000E+00
    0.18308E+07        -0.49895E+08         0.00000E+00
    0.00000E+00         0.00000E+00        -0.46617E+08
 
   -0.46121E+08         0.18876E+07         0.00000E+00
    0.18876E+07        -0.49887E+08         0.00000E+00
    0.00000E+00         0.00000E+00        -0.46621E+08
 
   -0.46151E+08         0.19443E+07         0.00000E+00
    0.19443E+07        -0.49879E+08         0.00000E+00
    0.00000E+00         0.00000E+00        -0.46625E+08
 
   -0.46180E+08         0.20007E+07         0.00000E+00
    0.20007E+07        -0.49871E+08         0.00000E+00
    0.00000E+00         0.00000E+00        -0.46630E+08
 
   -0.46209E+08         0.20570E+07         0.00000E+00
    0.20570E+07        -0.49862E+08         0.00000E+00
    0.00000E+00         0.00000E+00        -0.46634E+08
 
   -0.46239E+08         0.21130E+07         0.00000E+00
    0.21130E+07        -0.49853E+08         0.00000E+00
    0.00000E+00         0.00000E+00        -0.46638E+08
 
   -0.46269E+08         0.21690E+07         0.00000E+00
    0.21690E+07        -0.49844E+08         0.00000E+00
    0.00000E+00         0.00000E+00        -0.46642E+08
 
   -0.46299E+08         0.22247E+07         0.00000E+00
    0.22247E+07        -0.49834E+08         0.00000E+00
    0.00000E+00         0.00000E+00        -0.46646E+08
 
   -0.46329E+08         0.22803E+07         0.00000E+00
    0.22803E+07        -0.49824E+08         0.00000E+00
    0.00000E+00         0.00000E+00        -0.46650E+08
 
   -0.46360E+08         0.23357E+07         0.00000E+00
    0.23357E+07        -0.49814E+08         0.00000E+00
    0.00000E+00         0.00000E+00        -0.46654E+08
 
   -0.46390E+08         0.23909E+07         0.00000E+00
    0.23909E+07        -0.49803E+08         0.00000E+00
    0.00000E+00         0.00000E+00        -0.46658E+08
 
   -0.46421E+08         0.24460E+07         0.00000E+00
    0.24460E+07        -0.49792E+08         0.00000E+00
    0.00000E+00         0.00000E+00        -0.46662E+08
 
   -0.46452E+08         0.25009E+07         0.00000E+00
    0.25009E+07        -0.49780E+08         0.00000E+00
    0.00000E+00         0.00000E+00        -0.46666E+08
 
   -0.46484E+08         0.25556E+07         0.00000E+00
    0.25556E+07        -0.49769E+08         0.00000E+00
    0.00000E+00         0.00000E+00        -0.46670E+08
 
   -0.46516E+08         0.26101E+07         0.00000E+00
    0.26101E+07        -0.49756E+08         0.00000E+00
    0.00000E+00         0.00000E+00        -0.46674E+08
 
   -0.46547E+08         0.26645E+07         0.00000E+00
    0.26645E+07        -0.49743E+08         0.00000E+00
    0.00000E+00         0.00000E+00        -0.46678E+08
 
   -0.46580E+08         0.27187E+07         0.00000E+00
    0.27187E+07        -0.49730E+08         0.00000E+00
    0.00000E+00         0.00000E+00        -0.46681E+08
 
   -0.46612E+08         0.27727E+07         0.00000E+00
    0.27727E+07        -0.49717E+08         0.00000E+00
    0.00000E+00         0.00000E+00        -0.46685E+08
 
   -0.46645E+08         0.28265E+07         0.00000E+00
    0.28265E+07        -0.49703E+08         0.00000E+00
    0.00000E+00         0.00000E+00        -0.46689E+08
 
   -0.46678E+08         0.28802E+07         0.00000E+00
    0.28802E+07        -0.49688E+08         0.00000E+00
    0.00000E+00         0.00000E+00        -0.46693E+08
 
   -0.44924E+08         0.32561E+05         0.00000E+00
    0.32561E+05        -0.50000E+08         0.00000E+00
    0.00000E+00         0.00000E+00        -0.46187E+08
 
   -0.44954E+08         0.97016E+05         0.00000E+00
    0.97016E+05        -0.50000E+08         0.00000E+00
    0.00000E+00         0.00000E+00        -0.46193E+08
 
   -0.44984E+08         0.16120E+06         0.00000E+00
    0.16120E+06        -0.49999E+08         0.00000E+00
    0.00000E+00         0.00000E+00        -0.46199E+08
 
   -0.45014E+08         0.22511E+06         0.00000E+00
    0.22511E+06        -0.49999E+08         0.00000E+00
    0.00000E+00         0.00000E+00        -0.46204E+08
 
   -0.45043E+08         0.28876E+06         0.00000E+00
    0.28876E+06        -0.49998E+08         0.00000E+00
    0.00000E+00         0.00000E+00        -0.46210E+08
 
   -0.45073E+08         0.35215E+06         0.00000E+00
    0.35215E+06        -0.49997E+08         0.00000E+00
    0.00000E+00         0.00000E+00        -0.46216E+08
 
   -0.45102E+08         0.41529E+06         0.00000E+00
    0.41529E+06        -0.49996E+08         0.00000E+00
    0.00000E+00         0.00000E+00        -0.46221E+08
 
   -0.45132E+08         0.47818E+06         0.00000E+00
    0.47818E+06        -0.49994E+08         0.00000E+00
    0.00000E+00         0.00000E+00        -0.46227E+08
 
   -0.45161E+08         0.54084E+06         0.00000E+00
    0.54084E+06        -0.49993E+08         0.00000E+00
    0.00000E+00         0.00000E+00        -0.46233E+08
 
   -0.45190E+08         0.60326E+06         0.00000E+00
    0.60326E+06        -0.49991E+08         0.00000E+00
    0.00000E+00         0.00000E+00        -0.46238E+08
 
   -0.45220E+08         0.66546E+06         0.00000E+00
    0.66546E+06        -0.49989E+08         0.00000E+00
    0.00000E+00         0.00000E+00        -0.46244E+08
 
   -0.45249E+08         0.72743E+06         0.00000E+00
    0.72743E+06        -0.49987E+08         0.00000E+00
    0.00000E+00         0.00000E+00        -0.46249E+08
 
   -0.45278E+08         0.78918E+06         0.00000E+00
    0.78918E+06        -0.49984E+08         0.00000E+00
    0.00000E+00         0.00000E+00        -0.46254E+08
 
   -0.45307E+08         0.85072E+06         0.00000E+00
    0.85072E+06        -0.49981E+08         0.00000E+00
    0.00000E+00         0.00000E+00        -0.46260E+08
 
   -0.45336E+08         0.91206E+06         0.00000E+00
    0.91206E+06        -0.49978E+08         0.00000E+00
    0.00000E+00         0.00000E+00        -0.46265E+08
 
   -0.45365E+08         0.97319E+06         0.00000E+00
    0.97319E+06        -0.49975E+08         0.00000E+00
    0.00000E+00         0.00000E+00        -0.46270E+08
 
   -0.45394E+08         0.10341E+07         0.00000E+00
    0.10341E+07        -0.49972E+08         0.00000E+00
    0.00000E+00         0.00000E+00        -0.46275E+08
 
   -0.45423E+08         0.10949E+07         0.00000E+00
    0.10949E+07        -0.49968E+08         0.00000E+00
    0.00000E+00         0.00000E+00        -0.46280E+08
 
   -0.45452E+08         0.11554E+07         0.00000E+00
    0.11554E+07        -0.49964E+08         0.00000E+00
    0.00000E+00         0.00000E+00        -0.46285E+08
 
   -0.45481E+08         0.12158E+07         0.00000E+00
    0.12158E+07        -0.49960E+08         0.00000E+00
    0.00000E+00         0.00000E+00        -0.46290E+08
 
   -0.45510E+08         0.12759E+07         0.00000E+00
    0.12759E+07        -0.49955E+08         0.00000E+00
    0.00000E+00         0.00000E+00        -0.46295E+08
 
   -0.45539E+08         0.13360E+07         0.00000E+00
    0.13360E+07        -0.49951E+08         0.00000E+00
    0.00000E+00         0.00000E+00        -0.46300E+08
 
   -0.45568E+08         0.13958E+07         0.00000E+00
    0.13958E+07        -0.49946E+08         0.00000E+00
    0.00000E+00         0.00000E+00        -0.46305E+08
 
   -0.45598E+08         0.14554E+07         0.00000E+00
    0.14554E+07        -0.49940E+08         0.00000E+00
    0.00000E+00         0.00000E+00        -0.46309E+08
 
   -0.45627E+08         0.15149E+07         0.00000E+00
    0.15149E+07        -0.49935E+08         0.00000E+00
    0.00000E+00         0.00000E+00        -0.46314E+08
 
   -0.45656E+08         0.15743E+07         0.00000E+00
    0.15743E+07        -0.49929E+08         0.00000E+00
    0.00000E+00         0.00000E+00        -0.46319E+08
 
   -0.45686E+08         0.16334E+07         0.00000E+00
    0.16334E+07        -0.49923E+08         0.00000E+00
    0.00000E+00         0.00000E+00        -0.46323E+08
 
   -0.45715E+08         0.16925E+07         0.00000E+00
    0.16925E+07        -0.49916E+08         0.00000E+00
    0.00000E+00         0.00000E+00        -0.46328E+08
 
   -0.45745E+08         0.17513E+07         0.00000E+00
    0.17513E+07        -0.49909E+08         0.00000E+00
    0.00000E+00         0.00000E+00        -0.46333E+08
 
   -0.45774E+08         0.18100E+07         0.00000E+00
    0.18100E+07        -0.49902E+08         0.00000E+00
    0.00000E+00         0.00000E+00        -0.46337E+08
 
   -0.45804E+08         0.18686E+07         0.00000E+00
    0.18686E+07        -0.49895E+08         0.00000E+00
    0.00000E+00         0.00000E+00        -0.46342E+08
 
   -0.45834E+08         0.19270E+07         0.00000E+00
    0.19270E+07        -0.49887E+08         0.00000E+00
    0.00000E+00         0.00000E+00        -0.46346E+08
 
   -0.45864E+08         0.19852E+07         0.00000E+00
    0.19852E+07        -0.49879E+08         0.00000E+00
    0.00000E+00         0.00000E+00        -0.46350E+08
 
   -0.45894E+08         0.20433E+07         0.00000E+00
    0.20433E+07        -0.49871E+08         0.00000E+00
    0.00000E+00         0.00000E+00        -0.46355E+08
 
   -0.45924E+08         0.21013E+07         0.00000E+00
    0.21013E+07        -0.49862E+08         0.00000E+00
    0.00000E+00         0.00000E+00        -0.46359E+08
 
   -0.45955E+08         0.21592E+07         0.00000E+00
    0.21592E+07        -0.49853E+08         0.00000E+00
    0.00000E+00         0.00000E+00        -0.46363E+08
 
   -0.45985E+08         0.22168E+07         0.00000E+00
    0.22168E+07        -0.49843E+08         0.00000E+00
    0.00000E+00         0.00000E+00        -0.46368E+08
 
   -0.46016E+08         0.22744E+07         0.00000E+00
    0.22744E+07        -0.49834E+08         0.00000E+00
    0.00000E+00         0.00000E+00        -0.46372E+08
 
   -0.46047E+08         0.23318E+07         0.00000E+00
    0.23318E+07        -0.49823E+08         0.00000E+00
    0.00000E+00         0.00000E+00        -0.46376E+08
 
   -0.46078E+08         0.23891E+07         0.00000E+00
    0.23891E+07        -0.49813E+08         0.00000E+00
    0.00000E+00         0.00000E+00        -0.46380E+08
 
   -0.46110E+08         0.24462E+07         0.00000E+00
    0.24462E+07        -0.49802E+08         0.00000E+00
    0.00000E+00         0.00000E+00        -0.46384E+08
 
   -0.46142E+08         0.25032E+07         0.00000E+00
    0.25032E+07        -0.49790E+08         0.00000E+00
    0.00000E+00         0.00000E+00        -0.46388E+08
 
   -0.46174E+08         0.25601E+07         0.00000E+00
    0.25601E+07        -0.49779E+08         0.00000E+00
    0.00000E+00         0.00000E+00        -0.46392E+08
 
   -0.46206E+08         0.26168E+07         0.00000E+00
    0.26168E+07        -0.49767E+08         0.00000E+00
    0.00000E+00         0.00000E+00        -0.46396E+08
 
   -0.46238E+08         0.26734E+07         0.00000E+00
    0.26734E+07        -0.49754E+08         0.00000E+00
    0.00000E+00         0.00000E+00        -0.46400E+08
 
   -0.46271E+08         0.27298E+07         0.00000E+00
    0.27298E+07        -0.49741E+08         0.00000E+00
    0.00000E+00         0.00000E+00        -0.46404E+08
 
   -0.46304E+08         0.27861E+07         0.00000E+00
    0.27861E+07        -0.49728E+08         0.00000E+00
    0.00000E+00         0.00000E+00        -0.46408E+08
 
   -0.46337E+08         0.28423E+07         0.00000E+00
    0.28423E+07        -0.49714E+08         0.00000E+00
    0.00000E+00         0.00000E+00        -0.46412E+08
 
   -0.46371E+08         0.28983E+07         0.00000E+00
    0.28983E+07        -0.49699E+08         0.00000E+00
    0.00000E+00         0.00000E+00        -0.46416E+08
 
   -0.46405E+08         0.29542E+07         0.00000E+00
    0.29542E+07        -0.49685E+08         0.00000E+00
    0.00000E+00         0.00000E+00        -0.46420E+08
 
   -0.44599E+08         0.33025E+05         0.00000E+00
    0.33025E+05        -0.50000E+08         0.00000E+00
    0.00000E+00         0.00000E+00        -0.45894E+08
 
   -0.44630E+08         0.98439E+05         0.00000E+00
    0.98439E+05        -0.50000E+08         0.00000E+00
    0.00000E+00         0.00000E+00        -0.45900E+08
 
   -0.44661E+08         0.16359E+06         0.00000E+00
    0.16359E+06        -0.49999E+08         0.00000E+00
    0.00000E+00         0.00000E+00        -0.45907E+08
 
   -0.44692E+08         0.22849E+06         0.00000E+00
    0.22849E+06        -0.49999E+08         0.00000E+00
    0.00000E+00         0.00000E+00        -0.45913E+08
 
   -0.44723E+08         0.29314E+06         0.00000E+00
    0.29314E+06        -0.49998E+08         0.00000E+00
    0.00000E+00         0.00000E+00        -0.45919E+08
 
   -0.44754E+08         0.35754E+06         0.00000E+00
    0.35754E+06        -0.49997E+08         0.00000E+00
    0.00000E+00         0.00000E+00        -0.45925E+08
 
   -0.44785E+08         0.42172E+06         0.00000E+00
    0.42172E+06        -0.49996E+08         0.00000E+00
    0.00000E+00         0.00000E+00        -0.45931E+08
 
   -0.44815E+08         0.48566E+06         0.00000E+00
    0.48566E+06        -0.49994E+08         0.00000E+00
    0.00000E+00         0.00000E+00        -0.45936E+08
 
   -0.44846E+08         0.54938E+06         0.00000E+00
    0.54938E+06        -0.49993E+08         0.00000E+00
    0.00000E+00         0.00000E+00        -0.45942E+08
 
   -0.44876E+08         0.61289E+06         0.00000E+00
    0.61289E+06        -0.49991E+08         0.00000E+00
    0.00000E+00         0.00000E+00        -0.45948E+08
 
   -0.44906E+08         0.67619E+06         0.00000E+00
    0.67619E+06        -0.49989E+08         0.00000E+00
    0.00000E+00         0.00000E+00        -0.45954E+08
 
   -0.44937E+08         0.73929E+06         0.00000E+00
    0.73929E+06        -0.49987E+08         0.00000E+00
    0.00000E+00         0.00000E+00        -0.45959E+08
 
   -0.44967E+08         0.80218E+06         0.00000E+00
    0.80218E+06        -0.49984E+08         0.00000E+00
    0.00000E+00         0.00000E+00        -0.45965E+08
 
   -0.44997E+08         0.86489E+06         0.00000E+00
    0.86489E+06        -0.49982E+08         0.00000E+00
    0.00000E+00         0.00000E+00        -0.45970E+08
 
   -0.45027E+08         0.92741E+06         0.00000E+00
    0.92741E+06        -0.49979E+08         0.00000E+00
    0.00000E+00         0.00000E+00        -0.45976E+08
 
   -0.45057E+08         0.98975E+06         0.00000E+00
    0.98975E+06        -0.49976E+08         0.00000E+00
    0.00000E+00         0.00000E+00        -0.45981E+08
 
   -0.45087E+08         0.10519E+07         0.00000E+00
    0.10519E+07        -0.49972E+08         0.00000E+00
    0.00000E+00         0.00000E+00        -0.45986E+08
 
   -0.45117E+08         0.11139E+07         0.00000E+00
    0.11139E+07        -0.49968E+08         0.00000E+00
    0.00000E+00         0.00000E+00        -0.45992E+08
 
   -0.45147E+08         0.11757E+07         0.00000E+00
    0.11757E+07        -0.49965E+08         0.00000E+00
    0.00000E+00         0.00000E+00        -0.45997E+08
 
   -0.45176E+08         0.12374E+07         0.00000E+00
    0.12374E+07        -0.49960E+08         0.00000E+00
    0.00000E+00         0.00000E+00        -0.46002E+08
 
   -0.45206E+08         0.12989E+07         0.00000E+00
    0.12989E+07        -0.49956E+08         0.00000E+00
    0.00000E+00         0.00000E+00        -0.46007E+08
 
   -0.45236E+08         0.13603E+07         0.00000E+00
    0.13603E+07        -0.49951E+08         0.00000E+00
    0.00000E+00         0.00000E+00        -0.46012E+08
 
   -0.45266E+08         0.14215E+07         0.00000E+00
    0.14215E+07        -0.49946E+08         0.00000E+00
    0.00000E+00         0.00000E+00        -0.46017E+08
 
   -0.45296E+08         0.14826E+07         0.00000E+00
    0.14826E+07        -0.49941E+08         0.00000E+00
    0.00000E+00         0.00000E+00        -0.46022E+08
 
   -0.45326E+08         0.15435E+07         0.00000E+00
    0.15435E+07        -0.49935E+08         0.00000E+00
    0.00000E+00         0.00000E+00        -0.46027E+08
 
   -0.45356E+08         0.16043E+07         0.00000E+00
    0.16043E+07        -0.49930E+08         0.00000E+00
    0.00000E+00         0.00000E+00        -0.46032E+08
 
   -0.45386E+08         0.16650E+07         0.00000E+00
    0.16650E+07        -0.49923E+08         0.00000E+00
    0.00000E+00         0.00000E+00        -0.46036E+08
 
   -0.45416E+08         0.17256E+07         0.00000E+00
    0.17256E+07        -0.49917E+08         0.00000E+00
    0.00000E+00         0.00000E+00        -0.46041E+08
 
   -0.45447E+08         0.17860E+07         0.00000E+00
    0.17860E+07        -0.49910E+08         0.00000E+00
    0.00000E+00         0.00000E+00        -0.46046E+08
 
   -0.45477E+08         0.18463E+07         0.00000E+00
    0.18463E+07        -0.49903E+08         0.00000E+00
    0.00000E+00         0.00000E+00        -0.46051E+08
 
   -0.45507E+08         0.19065E+07         0.00000E+00
    0.19065E+07        -0.49896E+08         0.00000E+00
    0.00000E+00         0.00000E+00        -0.46055E+08
 
   -0.45538E+08         0.19665E+07         0.00000E+00
    0.19665E+07        -0.49888E+08         0.00000E+00
    0.00000E+00         0.00000E+00        -0.46060E+08
 
   -0.45569E+08         0.20265E+07         0.00000E+00
    0.20265E+07        -0.49880E+08         0.00000E+00
    0.00000E+00         0.00000E+00        -0.46064E+08
 
   -0.45599E+08         0.20863E+07         0.00000E+00
    0.20863E+07        -0.49872E+08         0.00000E+00
    0.00000E+00         0.00000E+00        -0.46069E+08
 
   -0.45630E+08         0.21461E+07         0.00000E+00
    0.21461E+07        -0.49863E+08         0.00000E+00
    0.00000E+00         0.00000E+00        -0.46073E+08
 
   -0.45661E+08         0.22057E+07         0.00000E+00
    0.22057E+07        -0.49854E+08         0.00000E+00
    0.00000E+00         0.00000E+00        -0.46077E+08
 
   -0.45693E+08         0.22652E+07         0.00000E+00
    0.22652E+07        -0.49844E+08         0.00000E+00
    0.00000E+00         0.00000E+00        -0.46082E+08
 
   -0.45724E+08         0.23246E+07         0.00000E+00
    0.23246E+07        -0.49834E+08         0.00000E+00
    0.00000E+00         0.00000E+00        -0.46086E+08
 
   -0.45756E+08         0.23840E+07         0.00000E+00
    0.23840E+07        -0.49824E+08         0.00000E+00
    0.00000E+00         0.00000E+00        -0.46090E+08
 
   -0.45788E+08         0.24432E+07         0.00000E+00
    0.24432E+07        -0.49813E+08         0.00000E+00
    0.00000E+00         0.00000E+00        -0.46095E+08
 
   -0.45820E+08         0.25023E+07         0.00000E+00
    0.25023E+07        -0.49802E+08         0.00000E+00
    0.00000E+00         0.00000E+00        -0.46099E+08
 
   -0.45852E+08         0.25613E+07         0.00000E+00
    0.25613E+07        -0.49791E+08         0.00000E+00
    0.00000E+00         0.00000E+00        -0.46103E+08
 
   -0.45884E+08         0.26202E+07         0.00000E+00
    0.26202E+07        -0.49779E+08         0.00000E+00
    0.00000E+00         0.00000E+00        -0.46107E+08
 
   -0.45917E+08         0.26790E+07         0.00000E+00
    0.26790E+07        -0.49767E+08         0.00000E+00
    0.00000E+00         0.00000E+00        -0.46111E+08
 
   -0.45950E+08         0.27378E+07         0.00000E+00
    0.27378E+07        -0.49754E+08         0.00000E+00
    0.00000E+00         0.00000E+00        -0.46115E+08
 
   -0.45983E+08         0.27964E+07         0.00000E+00
    0.27964E+07        -0.49741E+08         0.00000E+00
    0.00000E+00         0.00000E+00        -0.46119E+08
 
   -0.46017E+08         0.28549E+07         0.00000E+00
    0.28549E+07        -0.49727E+08         0.00000E+00
    0.00000E+00         0.00000E+00        -0.46123E+08
 
   -0.46051E+08         0.29133E+07         0.00000E+00
    0.29133E+07        -0.49713E+08         0.00000E+00
    0.00000E+00         0.00000E+00        -0.46127E+08
 
   -0.46085E+08         0.29716E+07         0.00000E+00
    0.29716E+07        -0.49698E+08         0.00000E+00
    0.00000E+00         0.00000E+00        -0.46131E+08
 
   -0.46120E+08         0.30299E+07         0.00000E+00
    0.30299E+07        -0.49683E+08         0.00000E+00
    0.00000E+00         0.00000E+00        -0.46135E+08
 
   -0.44269E+08         0.33471E+05         0.00000E+00
    0.33471E+05        -0.50000E+08         0.00000E+00
    0.00000E+00         0.00000E+00        -0.45591E+08
 
   -0.44302E+08         0.99810E+05         0.00000E+00
    0.99810E+05        -0.50000E+08         0.00000E+00
    0.00000E+00         0.00000E+00        -0.45597E+08
 
   -0.44334E+08         0.16590E+06         0.00000E+00
    0.16590E+06        -0.49999E+08         0.00000E+00
    0.00000E+00         0.00000E+00        -0.45603E+08
 
   -0.44366E+08         0.23175E+06         0.00000E+00
    0.23175E+06        -0.49999E+08         0.00000E+00
    0.00000E+00         0.00000E+00        -0.45610E+08
 
   -0.44398E+08         0.29737E+06         0.00000E+00
    0.29737E+06        -0.49998E+08         0.00000E+00
    0.00000E+00         0.00000E+00        -0.45616E+08
 
   -0.44430E+08         0.36277E+06         0.00000E+00
    0.36277E+06        -0.49997E+08         0.00000E+00
    0.00000E+00         0.00000E+00        -0.45622E+08
 
   -0.44462E+08         0.42795E+06         0.00000E+00
    0.42795E+06        -0.49996E+08         0.00000E+00
    0.00000E+00         0.00000E+00        -0.45628E+08
 
   -0.44493E+08         0.49292E+06         0.00000E+00
    0.49292E+06        -0.49995E+08         0.00000E+00
    0.00000E+00         0.00000E+00        -0.45634E+08
 
   -0.44525E+08         0.55769E+06         0.00000E+00
    0.55769E+06        -0.49993E+08         0.00000E+00
    0.00000E+00         0.00000E+00        -0.45640E+08
 
   -0.44556E+08         0.62226E+06         0.00000E+00
    0.62226E+06        -0.49991E+08         0.00000E+00
    0.00000E+00         0.00000E+00        -0.45646E+08
 
   -0.44588E+08         0.68665E+06         0.00000E+00
    0.68665E+06        -0.49989E+08         0.00000E+00
    0.00000E+00         0.00000E+00        -0.45652E+08
 
   -0.44619E+08         0.75085E+06         0.00000E+00
    0.75085E+06        -0.49987E+08         0.00000E+00
    0.00000E+00         0.00000E+00        -0.45658E+08
 
   -0.44650E+08         0.81488E+06         0.00000E+00
    0.81488E+06        -0.49985E+08         0.00000E+00
    0.00000E+00         0.00000E+00        -0.45664E+08
 
   -0.44681E+08         0.87875E+06         0.00000E+00
    0.87875E+06        -0.49982E+08         0.00000E+00
    0.00000E+00         0.00000E+00        -0.45669E+08
 
   -0.44712E+08         0.94245E+06         0.00000E+00
    0.94245E+06        -0.49979E+08         0.00000E+00
    0.00000E+00         0.00000E+00        -0.45675E+08
 
   -0.44742E+08         0.10060E+07         0.00000E+00
    0.10060E+07        -0.49976E+08         0.00000E+00
    0.00000E+00         0.00000E+00        -0.45681E+08
 
   -0.44773E+08         0.10694E+07         0.00000E+00
    0.10694E+07        -0.49973E+08         0.00000E+00
    0.00000E+00         0.00000E+00        -0.45686E+08
 
   -0.44804E+08         0.11326E+07         0.00000E+00
    0.11326E+07        -0.49969E+08         0.00000E+00
    0.00000E+00         0.00000E+00        -0.45692E+08
 
   -0.44835E+08         0.11958E+07         0.00000E+00
    0.11958E+07        -0.49966E+08         0.00000E+00
    0.00000E+00         0.00000E+00        -0.45697E+08
 
   -0.44865E+08         0.12587E+07         0.00000E+00
    0.12587E+07        -0.49962E+08         0.00000E+00
    0.00000E+00         0.00000E+00        -0.45702E+08
 
   -0.44896E+08         0.13216E+07         0.00000E+00
    0.13216E+07        -0.49957E+08         0.00000E+00
    0.00000E+00         0.00000E+00        -0.45707E+08
 
   -0.44926E+08         0.13843E+07         0.00000E+00
    0.13843E+07        -0.49953E+08         0.00000E+00
    0.00000E+00         0.00000E+00        -0.45713E+08
 
   -0.44957E+08         0.14469E+07         0.00000E+00
    0.14469E+07        -0.49948E+08         0.00000E+00
    0.00000E+00         0.00000E+00        -0.45718E+08
 
   -0.44987E+08         0.15095E+07         0.00000E+00
    0.15095E+07        -0.49943E+08         0.00000E+00
    0.00000E+00         0.00000E+00        -0.45723E+08
 
   -0.45018E+08         0.15718E+07         0.00000E+00
    0.15718E+07        -0.49937E+08         0.00000E+00
    0.00000E+00         0.00000E+00        -0.45728E+08
 
   -0.45049E+08         0.16341E+07         0.00000E+00
    0.16341E+07        -0.49931E+08         0.00000E+00
    0.00000E+00         0.00000E+00        -0.45733E+08
 
   -0.45079E+08         0.16963E+07         0.00000E+00
    0.16963E+07        -0.49925E+08         0.00000E+00
    0.00000E+00         0.00000E+00        -0.45738E+08
 
   -0.45110E+08         0.17584E+07         0.00000E+00
    0.17584E+07        -0.49919E+08         0.00000E+00
    0.00000E+00         0.00000E+00        -0.45743E+08
 
   -0.45141E+08         0.18205E+07         0.00000E+00
    0.18205E+07        -0.49912E+08         0.00000E+00
    0.00000E+00         0.00000E+00        -0.45747E+08
 
   -0.45172E+08         0.18824E+07         0.00000E+00
    0.18824E+07        -0.49905E+08         0.00000E+00
    0.00000E+00         0.00000E+00        -0.45752E+08
 
   -0.45203E+08         0.19442E+07         0.00000E+00
    0.19442E+07        -0.49898E+08         0.00000E+00
    0.00000E+00         0.00000E+00        -0.45757E+08
 
   -0.45234E+08         0.20060E+07         0.00000E+00
    0.20060E+07        -0.49890E+08         0.00000E+00
    0.00000E+00         0.00000E+00        -0.45762E+08
 
   -0.45265E+08         0.20677E+07         0.00000E+00
    0.20677E+07        -0.49882E+08         0.00000E+00
    0.00000E+00         0.00000E+00        -0.45766E+08
 
   -0.45296E+08         0.21293E+07         0.00000E+00
    0.21293E+07        -0.49874E+08         0.00000E+00
    0.00000E+00         0.00000E+00        -0.45771E+08
 
   -0.45327E+08         0.21908E+07         0.00000E+00
    0.21908E+07        -0.49865E+08         0.00000E+00
    0.00000E+00         0.00000E+00        -0.45775E+08
 
   -0.45359E+08         0.22523E+07         0.00000E+00
    0.22523E+07        -0.49856E+08         0.00000E+00
    0.00000E+00         0.00000E+00        -0.45780E+08
 
   -0.45391E+08         0.23137E+07         0.00000E+00
    0.23137E+07        -0.49846E+08         0.00000E+00
    0.00000E+00         0.00000E+00        -0.45784E+08
 
   -0.45422E+08         0.23751E+07         0.00000E+00
    0.23751E+07        -0.49836E+08         0.00000E+00
    0.00000E+00         0.00000E+00        -0.45789E+08
 
   -0.45454E+08         0.24364E+07         0.00000E+00
    0.24364E+07        -0.49826E+08         0.00000E+00
    0.00000E+00         0.00000E+00        -0.45793E+08
 
   -0.45487E+08         0.24976E+07         0.00000E+00
    0.24976E+07        -0.49816E+08         0.00000E+00
    0.00000E+00         0.00000E+00        -0.45797E+08
 
   -0.45519E+08         0.25587E+07         0.00000E+00
    0.25587E+07        -0.49804E+08         0.00000E+00
    0.00000E+00         0.00000E+00        -0.45802E+08
 
   -0.45552E+08         0.26198E+07         0.00000E+00
    0.26198E+07        -0.49793E+08         0.00000E+00
    0.00000E+00         0.00000E+00        -0.45806E+08
 
   -0.45585E+08         0.26809E+07         0.00000E+00
    0.26809E+07        -0.49781E+08         0.00000E+00
    0.00000E+00         0.00000E+00        -0.45810E+08
 
   -0.45618E+08         0.27419E+07         0.00000E+00
    0.27419E+07        -0.49769E+08         0.00000E+00
    0.00000E+00         0.00000E+00        -0.45814E+08
 
   -0.45651E+08         0.28028E+07         0.00000E+00
    0.28028E+07        -0.49756E+08         0.00000E+00
    0.00000E+00         0.00000E+00        -0.45818E+08
 
   -0.45685E+08         0.28637E+07         0.00000E+00
    0.28637E+07        -0.49743E+08         0.00000E+00
    0.00000E+00         0.00000E+00        -0.45822E+08
 
   -0.45719E+08         0.29245E+07         0.00000E+00
    0.29245E+07        -0.49729E+08         0.00000E+00
    0.00000E+00         0.00000E+00        -0.45826E+08
 
   -0.45753E+08         0.29853E+07         0.00000E+00
    0.29853E+07        -0.49715E+08         0.00000E+00
    0.00000E+00         0.00000E+00        -0.45830E+08
 
   -0.45788E+08         0.30460E+07         0.00000E+00
    0.30460E+07        -0.49700E+08         0.00000E+00
    0.00000E+00         0.00000E+00        -0.45834E+08
 
   -0.45823E+08         0.31066E+07         0.00000E+00
    0.31066E+07        -0.49685E+08         0.00000E+00
    0.00000E+00         0.00000E+00        -0.45838E+08
 
   -0.43934E+08         0.33894E+05         0.00000E+00
    0.33894E+05        -0.50000E+08         0.00000E+00
    0.00000E+00         0.00000E+00        -0.45275E+08
 
   -0.43968E+08         0.10111E+06         0.00000E+00
    0.10111E+06        -0.50000E+08         0.00000E+00
    0.00000E+00         0.00000E+00        -0.45282E+08
 
   -0.44002E+08         0.16810E+06         0.00000E+00
    0.16810E+06        -0.49999E+08         0.00000E+00
    0.00000E+00         0.00000E+00        -0.45289E+08
 
   -0.44035E+08         0.23486E+06         0.00000E+00
    0.23486E+06        -0.49999E+08         0.00000E+00
    0.00000E+00         0.00000E+00        -0.45295E+08
 
   -0.44068E+08         0.30142E+06         0.00000E+00
    0.30142E+06        -0.49998E+08         0.00000E+00
    0.00000E+00         0.00000E+00        -0.45302E+08
 
   -0.44101E+08         0.36776E+06         0.00000E+00
    0.36776E+06        -0.49997E+08         0.00000E+00
    0.00000E+00         0.00000E+00        -0.45308E+08
 
   -0.44134E+08         0.43391E+06         0.00000E+00
    0.43391E+06        -0.49996E+08         0.00000E+00
    0.00000E+00         0.00000E+00        -0.45315E+08
 
   -0.44167E+08         0.49987E+06         0.00000E+00
    0.49987E+06        -0.49995E+08         0.00000E+00
    0.00000E+00         0.00000E+00        -0.45321E+08
 
   -0.44199E+08         0.56565E+06         0.00000E+00
    0.56565E+06        -0.49993E+08         0.00000E+00
    0.00000E+00         0.00000E+00        -0.45327E+08
 
   -0.44231E+08         0.63126E+06         0.00000E+00
    0.63126E+06        -0.49992E+08         0.00000E+00
    0.00000E+00         0.00000E+00        -0.45333E+08
 
   -0.44263E+08         0.69670E+06         0.00000E+00
    0.69670E+06        -0.49990E+08         0.00000E+00
    0.00000E+00         0.00000E+00        -0.45339E+08
 
   -0.44295E+08         0.76199E+06         0.00000E+00
    0.76199E+06        -0.49988E+08         0.00000E+00
    0.00000E+00         0.00000E+00        -0.45345E+08
 
   -0.44327E+08         0.82712E+06         0.00000E+00
    0.82712E+06        -0.49986E+08         0.00000E+00
    0.00000E+00         0.00000E+00        -0.45351E+08
 
   -0.44359E+08         0.89212E+06         0.00000E+00
    0.89212E+06        -0.49983E+08         0.00000E+00
    0.00000E+00         0.00000E+00        -0.45357E+08
 
   -0.44391E+08         0.95697E+06         0.00000E+00
    0.95697E+06        -0.49980E+08         0.00000E+00
    0.00000E+00         0.00000E+00        -0.45363E+08
 
   -0.44422E+08         0.10217E+07         0.00000E+00
    0.10217E+07        -0.49977E+08         0.00000E+00
    0.00000E+00         0.00000E+00        -0.45368E+08
 
   -0.44453E+08         0.10863E+07         0.00000E+00
    0.10863E+07        -0.49974E+08         0.00000E+00
    0.00000E+00         0.00000E+00        -0.45374E+08
 
   -0.44485E+08         0.11508E+07         0.00000E+00
    0.11508E+07        -0.49971E+08         0.00000E+00
    0.00000E+00         0.00000E+00        -0.45380E+08
 
   -0.44516E+08         0.12152E+07         0.00000E+00
    0.12152E+07        -0.49967E+08         0.00000E+00
    0.00000E+00         0.00000E+00        -0.45385E+08
 
   -0.44547E+08         0.12795E+07         0.00000E+00
    0.12795E+07        -0.49963E+08         0.00000E+00
    0.00000E+00         0.00000E+00        -0.45391E+08
 
   -0.44578E+08         0.13437E+07         0.00000E+00
    0.13437E+07        -0.49959E+08         0.00000E+00
    0.00000E+00         0.00000E+00        -0.45396E+08
 
   -0.44609E+08         0.14078E+07         0.00000E+00
    0.14078E+07        -0.49954E+08         0.00000E+00
    0.00000E+00         0.00000E+00        -0.45401E+08
 
   -0.44641E+08         0.14718E+07         0.00000E+00
    0.14718E+07        -0.49950E+08         0.00000E+00
    0.00000E+00         0.00000E+00        -0.45407E+08
 
   -0.44672E+08         0.15357E+07         0.00000E+00
    0.15357E+07        -0.49945E+08         0.00000E+00
    0.00000E+00         0.00000E+00        -0.45412E+08
 
   -0.44703E+08         0.15996E+07         0.00000E+00
    0.15996E+07        -0.49939E+08         0.00000E+00
    0.00000E+00         0.00000E+00        -0.45417E+08
 
   -0.44734E+08         0.16634E+07         0.00000E+00
    0.16634E+07        -0.49934E+08         0.00000E+00
    0.00000E+00         0.00000E+00        -0.45422E+08
 
   -0.44765E+08         0.17271E+07         0.00000E+00
    0.17271E+07        -0.49928E+08         0.00000E+00
    0.00000E+00         0.00000E+00        -0.45427E+08
 
   -0.44796E+08         0.17908E+07         0.00000E+00
    0.17908E+07        -0.49922E+08         0.00000E+00
    0.00000E+00         0.00000E+00        -0.45432E+08
 
   -0.44827E+08         0.18544E+07         0.00000E+00
    0.18544E+07        -0.49915E+08         0.00000E+00
    0.00000E+00         0.00000E+00        -0.45437E+08
 
   -0.44858E+08         0.19180E+07         0.00000E+00
    0.19180E+07        -0.49908E+08         0.00000E+00
    0.00000E+00         0.00000E+00        -0.45442E+08
 
   -0.44889E+08         0.19815E+07         0.00000E+00
    0.19815E+07        -0.49901E+08         0.00000E+00
    0.00000E+00         0.00000E+00        -0.45447E+08
 
   -0.44921E+08         0.20450E+07         0.00000E+00
    0.20450E+07        -0.49893E+08         0.00000E+00
    0.00000E+00         0.00000E+00        -0.45451E+08
 
   -0.44952E+08         0.21084E+07         0.00000E+00
    0.21084E+07        -0.49886E+08         0.00000E+00
    0.00000E+00         0.00000E+00        -0.45456E+08
 
   -0.44984E+08         0.21719E+07         0.00000E+00
    0.21719E+07        -0.49877E+08         0.00000E+00
    0.00000E+00         0.00000E+00        -0.45461E+08
 
   -0.45015E+08         0.22353E+07         0.00000E+00
    0.22353E+07        -0.49869E+08         0.00000E+00
    0.00000E+00         0.00000E+00        -0.45465E+08
 
   -0.45047E+08         0.22986E+07         0.00000E+00
    0.22986E+07        -0.49860E+08         0.00000E+00
    0.00000E+00         0.00000E+00        -0.45470E+08
 
   -0.45079E+08         0.23619E+07         0.00000E+00
    0.23619E+07        -0.49850E+08         0.00000E+00
    0.00000E+00         0.00000E+00        -0.45474E+08
 
   -0.45111E+08         0.24253E+07         0.00000E+00
    0.24253E+07        -0.49840E+08         0.00000E+00
    0.00000E+00         0.00000E+00        -0.45479E+08
 
   -0.45143E+08         0.24886E+07         0.00000E+00
    0.24886E+07        -0.49830E+08         0.00000E+00
    0.00000E+00         0.00000E+00        -0.45483E+08
 
   -0.45176E+08         0.25518E+07         0.00000E+00
    0.25518E+07        -0.49820E+08         0.00000E+00
    0.00000E+00         0.00000E+00        -0.45488E+08
 
   -0.45208E+08         0.26151E+07         0.00000E+00
    0.26151E+07        -0.49809E+08         0.00000E+00
    0.00000E+00         0.00000E+00        -0.45492E+08
 
   -0.45241E+08         0.26783E+07         0.00000E+00
    0.26783E+07        -0.49797E+08         0.00000E+00
    0.00000E+00         0.00000E+00        -0.45496E+08
 
   -0.45274E+08         0.27416E+07         0.00000E+00
    0.27416E+07        -0.49785E+08         0.00000E+00
    0.00000E+00         0.00000E+00        -0.45500E+08
 
   -0.45307E+08         0.28048E+07         0.00000E+00
    0.28048E+07        -0.49773E+08         0.00000E+00
    0.00000E+00         0.00000E+00        -0.45505E+08
 
   -0.45341E+08         0.28680E+07         0.00000E+00
    0.28680E+07        -0.49760E+08         0.00000E+00
    0.00000E+00         0.00000E+00        -0.45509E+08
 
   -0.45375E+08         0.29312E+07         0.00000E+00
    0.29312E+07        -0.49747E+08         0.00000E+00
    0.00000E+00         0.00000E+00        -0.45513E+08
 
   -0.45409E+08         0.29944E+07         0.00000E+00
    0.29944E+07        -0.49733E+08         0.00000E+00
    0.00000E+00         0.00000E+00        -0.45517E+08
 
   -0.45443E+08         0.30576E+07         0.00000E+00
    0.30576E+07        -0.49719E+08         0.00000E+00
    0.00000E+00         0.00000E+00        -0.45521E+08
 
   -0.45478E+08         0.31208E+07         0.00000E+00
    0.31208E+07        -0.49704E+08         0.00000E+00
    0.00000E+00         0.00000E+00        -0.45525E+08
 
   -0.45513E+08         0.31840E+07         0.00000E+00
    0.31840E+07        -0.49689E+08         0.00000E+00
    0.00000E+00         0.00000E+00        -0.45529E+08
 
   -0.43596E+08         0.34284E+05         0.00000E+00
    0.34284E+05        -0.50000E+08         0.00000E+00
    0.00000E+00         0.00000E+00        -0.44948E+08
 
   -0.43631E+08         0.10232E+06         0.00000E+00
    0.10232E+06        -0.50000E+08         0.00000E+00
    0.00000E+00         0.00000E+00        -0.44955E+08
 
   -0.43665E+08         0.17015E+06         0.00000E+00
    0.17015E+06        -0.49999E+08         0.00000E+00
    0.00000E+00         0.00000E+00        -0.44962E+08
 
   -0.43700E+08         0.23777E+06         0.00000E+00
    0.23777E+06        -0.49999E+08         0.00000E+00
    0.00000E+00         0.00000E+00        -0.44969E+08
 
   -0.43734E+08         0.30520E+06         0.00000E+00
    0.30520E+06        -0.49998E+08         0.00000E+00
    0.00000E+00         0.00000E+00        -0.44975E+08
 
   -0.43768E+08         0.37244E+06         0.00000E+00
    0.37244E+06        -0.49997E+08         0.00000E+00
    0.00000E+00         0.00000E+00        -0.44982E+08
 
   -0.43801E+08         0.43951E+06         0.00000E+00
    0.43951E+06        -0.49996E+08         0.00000E+00
    0.00000E+00         0.00000E+00        -0.44989E+08
 
   -0.43835E+08         0.50641E+06         0.00000E+00
    0.50641E+06        -0.49995E+08         0.00000E+00
    0.00000E+00         0.00000E+00        -0.44995E+08
 
   -0.43868E+08         0.57315E+06         0.00000E+00
    0.57315E+06        -0.49994E+08         0.00000E+00
    0.00000E+00         0.00000E+00        -0.45001E+08
 
   -0.43901E+08         0.63975E+06         0.00000E+00
    0.63975E+06        -0.49992E+08         0.00000E+00
    0.00000E+00         0.00000E+00        -0.45008E+08
 
   -0.43934E+08         0.70620E+06         0.00000E+00
    0.70620E+06        -0.49991E+08         0.00000E+00
    0.00000E+00         0.00000E+00        -0.45014E+08
 
   -0.43967E+08         0.77253E+06         0.00000E+00
    0.77253E+06        -0.49989E+08         0.00000E+00
    0.00000E+00         0.00000E+00        -0.45020E+08
 
   -0.43999E+08         0.83873E+06         0.00000E+00
    0.83873E+06        -0.49987E+08         0.00000E+00
    0.00000E+00         0.00000E+00        -0.45026E+08
 
   -0.44032E+08         0.90482E+06         0.00000E+00
    0.90482E+06        -0.49984E+08         0.00000E+00
    0.00000E+00         0.00000E+00        -0.45032E+08
 
   -0.44064E+08         0.97080E+06         0.00000E+00
    0.97080E+06        -0.49982E+08         0.00000E+00
    0.00000E+00         0.00000E+00        -0.45038E+08
 
   -0.44096E+08         0.10367E+07         0.00000E+00
    0.10367E+07        -0.49979E+08         0.00000E+00
    0.00000E+00         0.00000E+00        -0.45044E+08
 
   -0.44128E+08         0.11025E+07         0.00000E+00
    0.11025E+07        -0.49976E+08         0.00000E+00
    0.00000E+00         0.00000E+00        -0.45050E+08
 
   -0.44160E+08         0.11682E+07         0.00000E+00
    0.11682E+07        -0.49973E+08         0.00000E+00
    0.00000E+00         0.00000E+00        -0.45055E+08
 
   -0.44191E+08         0.12338E+07         0.00000E+00
    0.12338E+07        -0.49969E+08         0.00000E+00
    0.00000E+00         0.00000E+00        -0.45061E+08
 
   -0.44223E+08         0.12994E+07         0.00000E+00
    0.12994E+07        -0.49965E+08         0.00000E+00
    0.00000E+00         0.00000E+00        -0.45067E+08
 
   -0.44254E+08         0.13649E+07         0.00000E+00
    0.13649E+07        -0.49961E+08         0.00000E+00
    0.00000E+00         0.00000E+00        -0.45072E+08
 
   -0.44286E+08         0.14303E+07         0.00000E+00
    0.14303E+07        -0.49957E+08         0.00000E+00
    0.00000E+00         0.00000E+00        -0.45078E+08
 
   -0.44317E+08         0.14957E+07         0.00000E+00
    0.14957E+07        -0.49952E+08         0.00000E+00
    0.00000E+00         0.00000E+00        -0.45083E+08
 
   -0.44348E+08         0.15611E+07         0.00000E+00
    0.15611E+07        -0.49948E+08         0.00000E+00
    0.00000E+00         0.00000E+00        -0.45088E+08
 
   -0.44380E+08         0.16264E+07         0.00000E+00
    0.16264E+07        -0.49943E+08         0.00000E+00
    0.00000E+00         0.00000E+00        -0.45094E+08
 
   -0.44411E+08         0.16917E+07         0.00000E+00
    0.16917E+07        -0.49937E+08         0.00000E+00
    0.00000E+00         0.00000E+00        -0.45099E+08
 
   -0.44442E+08         0.17570E+07         0.00000E+00
    0.17570E+07        -0.49931E+08         0.00000E+00
    0.00000E+00         0.00000E+00        -0.45104E+08
 
   -0.44474E+08         0.18222E+07         0.00000E+00
    0.18222E+07        -0.49925E+08         0.00000E+00
    0.00000E+00         0.00000E+00        -0.45109E+08
 
   -0.44505E+08         0.18875E+07         0.00000E+00
    0.18875E+07        -0.49919E+08         0.00000E+00
    0.00000E+00         0.00000E+00        -0.45114E+08
 
   -0.44536E+08         0.19527E+07         0.00000E+00
    0.19527E+07        -0.49912E+08         0.00000E+00
    0.00000E+00         0.00000E+00        -0.45119E+08
 
   -0.44567E+08         0.20179E+07         0.00000E+00
    0.20179E+07        -0.49905E+08         0.00000E+00
    0.00000E+00         0.00000E+00        -0.45124E+08
 
   -0.44599E+08         0.20831E+07         0.00000E+00
    0.20831E+07        -0.49898E+08         0.00000E+00
    0.00000E+00         0.00000E+00        -0.45128E+08
 
   -0.44630E+08         0.21484E+07         0.00000E+00
    0.21484E+07        -0.49890E+08         0.00000E+00
    0.00000E+00         0.00000E+00        -0.45133E+08
 
   -0.44662E+08         0.22136E+07         0.00000E+00
    0.22136E+07        -0.49882E+08         0.00000E+00
    0.00000E+00         0.00000E+00        -0.45138E+08
 
   -0.44694E+08         0.22789E+07         0.00000E+00
    0.22789E+07        -0.49874E+08         0.00000E+00
    0.00000E+00         0.00000E+00        -0.45143E+08
 
   -0.44725E+08         0.23441E+07         0.00000E+00
    0.23441E+07        -0.49865E+08         0.00000E+00
    0.00000E+00         0.00000E+00        -0.45147E+08
 
   -0.44757E+08         0.24094E+07         0.00000E+00
    0.24094E+07        -0.49856E+08         0.00000E+00
    0.00000E+00         0.00000E+00        -0.45152E+08
 
   -0.44789E+08         0.24748E+07         0.00000E+00
    0.24748E+07        -0.49846E+08         0.00000E+00
    0.00000E+00         0.00000E+00        -0.45156E+08
 
   -0.44821E+08         0.25401E+07         0.00000E+00
    0.25401E+07        -0.49836E+08         0.00000E+00
    0.00000E+00         0.00000E+00        -0.45161E+08
 
   -0.44854E+08         0.26055E+07         0.00000E+00
    0.26055E+07        -0.49826E+08         0.00000E+00
    0.00000E+00         0.00000E+00        -0.45165E+08
 
   -0.44886E+08         0.26709E+07         0.00000E+00
    0.26709E+07        -0.49815E+08         0.00000E+00
    0.00000E+00         0.00000E+00        -0.45169E+08
 
   -0.44919E+08         0.27363E+07         0.00000E+00
    0.27363E+07        -0.49804E+08         0.00000E+00
    0.00000E+00         0.00000E+00        -0.45174E+08
 
   -0.44952E+08         0.28018E+07         0.00000E+00
    0.28018E+07        -0.49792E+08         0.00000E+00
    0.00000E+00         0.00000E+00        -0.45178E+08
 
   -0.44985E+08         0.28674E+07         0.00000E+00
    0.28674E+07        -0.49780E+08         0.00000E+00
    0.00000E+00         0.00000E+00        -0.45182E+08
 
   -0.45019E+08         0.29329E+07         0.00000E+00
    0.29329E+07        -0.49767E+08         0.00000E+00
    0.00000E+00         0.00000E+00        -0.45186E+08
 
   -0.45053E+08         0.29985E+07         0.00000E+00
    0.29985E+07        -0.49754E+08         0.00000E+00
    0.00000E+00         0.00000E+00        -0.45190E+08
 
   -0.45087E+08         0.30642E+07         0.00000E+00
    0.30642E+07        -0.49740E+08         0.00000E+00
    0.00000E+00         0.00000E+00        -0.45195E+08
 
   -0.45121E+08         0.31299E+07         0.00000E+00
    0.31299E+07        -0.49726E+08         0.00000E+00
    0.00000E+00         0.00000E+00        -0.45199E+08
 
   -0.45156E+08         0.31956E+07         0.00000E+00
    0.31956E+07        -0.49712E+08         0.00000E+00
    0.00000E+00         0.00000E+00        -0.45203E+08
 
   -0.45191E+08         0.32614E+07         0.00000E+00
    0.32614E+07        -0.49696E+08         0.00000E+00
    0.00000E+00         0.00000E+00        -0.45207E+08
 
   -0.43253E+08         0.34636E+05         0.00000E+00
    0.34636E+05        -0.50000E+08         0.00000E+00
    0.00000E+00         0.00000E+00        -0.44609E+08
 
   -0.43289E+08         0.10342E+06         0.00000E+00
    0.10342E+06        -0.50000E+08         0.00000E+00
    0.00000E+00         0.00000E+00        -0.44616E+08
 
   -0.43325E+08         0.17201E+06         0.00000E+00
    0.17201E+06        -0.49999E+08         0.00000E+00
    0.00000E+00         0.00000E+00        -0.44623E+08
 
   -0.43360E+08         0.24042E+06         0.00000E+00
    0.24042E+06        -0.49999E+08         0.00000E+00
    0.00000E+00         0.00000E+00        -0.44630E+08
 
   -0.43395E+08         0.30865E+06         0.00000E+00
    0.30865E+06        -0.49998E+08         0.00000E+00
    0.00000E+00         0.00000E+00        -0.44637E+08
 
   -0.43430E+08         0.37672E+06         0.00000E+00
    0.37672E+06        -0.49998E+08         0.00000E+00
    0.00000E+00         0.00000E+00        -0.44644E+08
 
   -0.43464E+08         0.44464E+06         0.00000E+00
    0.44464E+06        -0.49997E+08         0.00000E+00
    0.00000E+00         0.00000E+00        -0.44650E+08
 
   -0.43498E+08         0.51242E+06         0.00000E+00
    0.51242E+06        -0.49996E+08         0.00000E+00
    0.00000E+00         0.00000E+00        -0.44657E+08
 
   -0.43532E+08         0.58006E+06         0.00000E+00
    0.58006E+06        -0.49994E+08         0.00000E+00
    0.00000E+00         0.00000E+00        -0.44663E+08
 
   -0.43566E+08         0.64758E+06         0.00000E+00
    0.64758E+06        -0.49993E+08         0.00000E+00
    0.00000E+00         0.00000E+00        -0.44670E+08
 
   -0.43600E+08         0.71499E+06         0.00000E+00
    0.71499E+06        -0.49991E+08         0.00000E+00
    0.00000E+00         0.00000E+00        -0.44676E+08
 
   -0.43633E+08         0.78230E+06         0.00000E+00
    0.78230E+06        -0.49990E+08         0.00000E+00
    0.00000E+00         0.00000E+00        -0.44683E+08
 
   -0.43666E+08         0.84952E+06         0.00000E+00
    0.84952E+06        -0.49988E+08         0.00000E+00
    0.00000E+00         0.00000E+00        -0.44689E+08
 
   -0.43699E+08         0.91665E+06         0.00000E+00
    0.91665E+06        -0.49986E+08         0.00000E+00
    0.00000E+00         0.00000E+00        -0.44695E+08
 
   -0.43731E+08         0.98370E+06         0.00000E+00
    0.98370E+06        -0.49983E+08         0.00000E+00
    0.00000E+00         0.00000E+00        -0.44701E+08
 
   -0.43764E+08         0.10507E+07         0.00000E+00
    0.10507E+07        -0.49981E+08         0.00000E+00
    0.00000E+00         0.00000E+00        -0.44707E+08
 
   -0.43796E+08         0.11176E+07         0.00000E+00
    0.11176E+07        -0.49978E+08         0.00000E+00
    0.00000E+00         0.00000E+00        -0.44713E+08
 
   -0.43828E+08         0.11845E+07         0.00000E+00
    0.11845E+07        -0.49975E+08         0.00000E+00
    0.00000E+00         0.00000E+00        -0.44719E+08
 
   -0.43860E+08         0.12514E+07         0.00000E+00
    0.12514E+07        -0.49972E+08         0.00000E+00
    0.00000E+00         0.00000E+00        -0.44724E+08
 
   -0.43892E+08         0.13182E+07         0.00000E+00
    0.13182E+07        -0.49968E+08         0.00000E+00
    0.00000E+00         0.00000E+00        -0.44730E+08
 
   -0.43924E+08         0.13849E+07         0.00000E+00
    0.13849E+07        -0.49964E+08         0.00000E+00
    0.00000E+00         0.00000E+00        -0.44736E+08
 
   -0.43955E+08         0.14517E+07         0.00000E+00
    0.14517E+07        -0.49960E+08         0.00000E+00
    0.00000E+00         0.00000E+00        -0.44741E+08
 
   -0.43987E+08         0.15185E+07         0.00000E+00
    0.15185E+07        -0.49956E+08         0.00000E+00
    0.00000E+00         0.00000E+00        -0.44747E+08
 
   -0.44018E+08         0.15852E+07         0.00000E+00
    0.15852E+07        -0.49952E+08         0.00000E+00
    0.00000E+00         0.00000E+00        -0.44752E+08
 
   -0.44050E+08         0.16520E+07         0.00000E+00
    0.16520E+07        -0.49947E+08         0.00000E+00
    0.00000E+00         0.00000E+00        -0.44757E+08
 
   -0.44081E+08         0.17188E+07         0.00000E+00
    0.17188E+07        -0.49942E+08         0.00000E+00
    0.00000E+00         0.00000E+00        -0.44763E+08
 
   -0.44112E+08         0.17856E+07         0.00000E+00
    0.17856E+07        -0.49936E+08         0.00000E+00
    0.00000E+00         0.00000E+00        -0.44768E+08
 
   -0.44143E+08         0.18524E+07         0.00000E+00
    0.18524E+07        -0.49930E+08         0.00000E+00
    0.00000E+00         0.00000E+00        -0.44773E+08
 
   -0.44175E+08         0.19192E+07         0.00000E+00
    0.19192E+07        -0.49924E+08         0.00000E+00
    0.00000E+00         0.00000E+00        -0.44778E+08
 
   -0.44206E+08         0.19861E+07         0.00000E+00
    0.19861E+07        -0.49918E+08         0.00000E+00
    0.00000E+00         0.00000E+00        -0.44783E+08
 
   -0.44237E+08         0.20530E+07         0.00000E+00
    0.20530E+07        -0.49911E+08         0.00000E+00
    0.00000E+00         0.00000E+00        -0.44788E+08
 
   -0.44268E+08         0.21200E+07         0.00000E+00
    0.21200E+07        -0.49904E+08         0.00000E+00
    0.00000E+00         0.00000E+00        -0.44793E+08
 
   -0.44300E+08         0.21870E+07         0.00000E+00
    0.21870E+07        -0.49897E+08         0.00000E+00
    0.00000E+00         0.00000E+00        -0.44797E+08
 
   -0.44331E+08         0.22541E+07         0.00000E+00
    0.22541E+07        -0.49889E+08         0.00000E+00
    0.00000E+00         0.00000E+00        -0.44802E+08
 
   -0.44362E+08         0.23212E+07         0.00000E+00
    0.23212E+07        -0.49881E+08         0.00000E+00
    0.00000E+00         0.00000E+00        -0.44807E+08
 
   -0.44394E+08         0.23885E+07         0.00000E+00
    0.23885E+07        -0.49873E+08         0.00000E+00
    0.00000E+00         0.00000E+00        -0.44811E+08
 
   -0.44426E+08         0.24557E+07         0.00000E+00
    0.24557E+07        -0.49864E+08         0.00000E+00
    0.00000E+00         0.00000E+00        -0.44816E+08
 
   -0.44457E+08         0.25231E+07         0.00000E+00
    0.25231E+07        -0.49854E+08         0.00000E+00
    0.00000E+00         0.00000E+00        -0.44820E+08
 
   -0.44489E+08         0.25905E+07         0.00000E+00
    0.25905E+07        -0.49845E+08         0.00000E+00
    0.00000E+00         0.00000E+00        -0.44825E+08
 
   -0.44521E+08         0.26580E+07         0.00000E+00
    0.26580E+07        -0.49835E+08         0.00000E+00
    0.00000E+00         0.00000E+00        -0.44829E+08
 
   -0.44554E+08         0.27256E+07         0.00000E+00
    0.27256E+07        -0.49824E+08         0.00000E+00
    0.00000E+00         0.00000E+00        -0.44834E+08
 
   -0.44586E+08         0.27933E+07         0.00000E+00
    0.27933E+07        -0.49813E+08         0.00000E+00
    0.00000E+00         0.00000E+00        -0.44838E+08
 
   -0.44619E+08         0.28611E+07         0.00000E+00
    0.28611E+07        -0.49801E+08         0.00000E+00
    0.00000E+00         0.00000E+00        -0.44842E+08
 
   -0.44652E+08         0.29290E+07         0.00000E+00
    0.29290E+07        -0.49790E+08         0.00000E+00
    0.00000E+00         0.00000E+00        -0.44846E+08
 
   -0.44685E+08         0.29969E+07         0.00000E+00
    0.29969E+07        -0.49777E+08         0.00000E+00
    0.00000E+00         0.00000E+00        -0.44851E+08
 
   -0.44718E+08         0.30650E+07         0.00000E+00
    0.30650E+07        -0.49764E+08         0.00000E+00
    0.00000E+00         0.00000E+00        -0.44855E+08
 
   -0.44752E+08         0.31332E+07         0.00000E+00
    0.31332E+07        -0.49751E+08         0.00000E+00
    0.00000E+00         0.00000E+00        -0.44859E+08
 
   -0.44786E+08         0.32014E+07         0.00000E+00
    0.32014E+07        -0.49737E+08         0.00000E+00
    0.00000E+00         0.00000E+00        -0.44863E+08
 
   -0.44820E+08         0.32698E+07         0.00000E+00
    0.32698E+07        -0.49722E+08         0.00000E+00
    0.00000E+00         0.00000E+00        -0.44867E+08
 
   -0.44855E+08         0.33382E+07         0.00000E+00
    0.33382E+07        -0.49707E+08         0.00000E+00
    0.00000E+00         0.00000E+00        -0.44871E+08
 
   -0.42907E+08         0.34940E+05         0.00000E+00
    0.34940E+05        -0.50000E+08         0.00000E+00
    0.00000E+00         0.00000E+00        -0.44257E+08
 
   -0.42944E+08         0.10438E+06         0.00000E+00
    0.10438E+06        -0.50000E+08         0.00000E+00
    0.00000E+00         0.00000E+00        -0.44264E+08
 
   -0.42980E+08         0.17364E+06         0.00000E+00
    0.17364E+06        -0.49999E+08         0.00000E+00
    0.00000E+00         0.00000E+00        -0.44271E+08
 
   -0.43017E+08         0.24274E+06         0.00000E+00
    0.24274E+06        -0.49999E+08         0.00000E+00
    0.00000E+00         0.00000E+00        -0.44278E+08
 
   -0.43052E+08         0.31169E+06         0.00000E+00
    0.31169E+06        -0.49999E+08         0.00000E+00
    0.00000E+00         0.00000E+00        -0.44285E+08
 
   -0.43088E+08         0.38051E+06         0.00000E+00
    0.38051E+06        -0.49998E+08         0.00000E+00
    0.00000E+00         0.00000E+00        -0.44292E+08
 
   -0.43123E+08         0.44919E+06         0.00000E+00
    0.44919E+06        -0.49997E+08         0.00000E+00
    0.00000E+00         0.00000E+00        -0.44299E+08
 
   -0.43158E+08         0.51777E+06         0.00000E+00
    0.51777E+06        -0.49996E+08         0.00000E+00
    0.00000E+00         0.00000E+00        -0.44306E+08
 
   -0.43192E+08         0.58623E+06         0.00000E+00
    0.58623E+06        -0.49995E+08         0.00000E+00
    0.00000E+00         0.00000E+00        -0.44313E+08
 
   -0.43227E+08         0.65461E+06         0.00000E+00
    0.65461E+06        -0.49994E+08         0.00000E+00
    0.00000E+00         0.00000E+00        -0.44319E+08
 
   -0.43261E+08         0.72290E+06         0.00000E+00
    0.72290E+06        -0.49993E+08         0.00000E+00
    0.00000E+00         0.00000E+00        -0.44326E+08
 
   -0.43294E+08         0.79112E+06         0.00000E+00
    0.79112E+06        -0.49991E+08         0.00000E+00
    0.00000E+00         0.00000E+00        -0.44332E+08
 
   -0.43328E+08         0.85928E+06         0.00000E+00
    0.85928E+06        -0.49989E+08         0.00000E+00
    0.00000E+00         0.00000E+00        -0.44339E+08
 
   -0.43361E+08         0.92738E+06         0.00000E+00
    0.92738E+06        -0.49987E+08         0.00000E+00
    0.00000E+00         0.00000E+00        -0.44345E+08
 
   -0.43394E+08         0.99545E+06         0.00000E+00
    0.99545E+06        -0.49985E+08         0.00000E+00
    0.00000E+00         0.00000E+00        -0.44351E+08
 
   -0.43426E+08         0.10635E+07         0.00000E+00
    0.10635E+07        -0.49983E+08         0.00000E+00
    0.00000E+00         0.00000E+00        -0.44357E+08
 
   -0.43459E+08         0.11315E+07         0.00000E+00
    0.11315E+07        -0.49980E+08         0.00000E+00
    0.00000E+00         0.00000E+00        -0.44363E+08
 
   -0.43491E+08         0.11995E+07         0.00000E+00
    0.11995E+07        -0.49978E+08         0.00000E+00
    0.00000E+00         0.00000E+00        -0.44369E+08
 
   -0.43523E+08         0.12675E+07         0.00000E+00
    0.12675E+07        -0.49975E+08         0.00000E+00
    0.00000E+00         0.00000E+00        -0.44375E+08
 
   -0.43555E+08         0.13355E+07         0.00000E+00
    0.13355E+07        -0.49971E+08         0.00000E+00
    0.00000E+00         0.00000E+00        -0.44381E+08
 
   -0.43587E+08         0.14035E+07         0.00000E+00
    0.14035E+07        -0.49968E+08         0.00000E+00
    0.00000E+00         0.00000E+00        -0.44386E+08
 
   -0.43618E+08         0.14716E+07         0.00000E+00
    0.14716E+07        -0.49964E+08         0.00000E+00
    0.00000E+00         0.00000E+00        -0.44392E+08
 
   -0.43650E+08         0.15397E+07         0.00000E+00
    0.15397E+07        -0.49960E+08         0.00000E+00
    0.00000E+00         0.00000E+00        -0.44397E+08
 
   -0.43681E+08         0.16078E+07         0.00000E+00
    0.16078E+07        -0.49956E+08         0.00000E+00
    0.00000E+00         0.00000E+00        -0.44403E+08
 
   -0.43712E+08         0.16760E+07         0.00000E+00
    0.16760E+07        -0.49952E+08         0.00000E+00
    0.00000E+00         0.00000E+00        -0.44408E+08
 
   -0.43743E+08         0.17442E+07         0.00000E+00
    0.17442E+07        -0.49947E+08         0.00000E+00
    0.00000E+00         0.00000E+00        -0.44413E+08
 
   -0.43774E+08         0.18125E+07         0.00000E+00
    0.18125E+07        -0.49942E+08         0.00000E+00
    0.00000E+00         0.00000E+00        -0.44419E+08
 
   -0.43805E+08         0.18808E+07         0.00000E+00
    0.18808E+07        -0.49937E+08         0.00000E+00
    0.00000E+00         0.00000E+00        -0.44424E+08
 
   -0.43836E+08         0.19493E+07         0.00000E+00
    0.19493E+07        -0.49931E+08         0.00000E+00
    0.00000E+00         0.00000E+00        -0.44429E+08
 
   -0.43867E+08         0.20178E+07         0.00000E+00
    0.20178E+07        -0.49925E+08         0.00000E+00
    0.00000E+00         0.00000E+00        -0.44434E+08
 
   -0.43898E+08         0.20864E+07         0.00000E+00
    0.20864E+07        -0.49919E+08         0.00000E+00
    0.00000E+00         0.00000E+00        -0.44439E+08
 
   -0.43929E+08         0.21551E+07         0.00000E+00
    0.21551E+07        -0.49912E+08         0.00000E+00
    0.00000E+00         0.00000E+00        -0.44443E+08
 
   -0.43960E+08         0.22239E+07         0.00000E+00
    0.22239E+07        -0.49905E+08         0.00000E+00
    0.00000E+00         0.00000E+00        -0.44448E+08
 
   -0.43991E+08         0.22928E+07         0.00000E+00
    0.22928E+07        -0.49898E+08         0.00000E+00
    0.00000E+00         0.00000E+00        -0.44453E+08
 
   -0.44022E+08         0.23619E+07         0.00000E+00
    0.23619E+07        -0.49890E+08         0.00000E+00
    0.00000E+00         0.00000E+00        -0.44458E+08
 
   -0.44053E+08         0.24310E+07         0.00000E+00
    0.24310E+07        -0.49882E+08         0.00000E+00
    0.00000E+00         0.00000E+00        -0.44462E+08
 
   -0.44084E+08         0.25003E+07         0.00000E+00
    0.25003E+07        -0.49874E+08         0.00000E+00
    0.00000E+00         0.00000E+00        -0.44467E+08
 
   -0.44115E+08         0.25697E+07         0.00000E+00
    0.25697E+07        -0.49865E+08         0.00000E+00
    0.00000E+00         0.00000E+00        -0.44471E+08
 
   -0.44147E+08         0.26392E+07         0.00000E+00
    0.26392E+07        -0.49855E+08         0.00000E+00
    0.00000E+00         0.00000E+00        -0.44476E+08
 
   -0.44178E+08         0.27089E+07         0.00000E+00
    0.27089E+07        -0.49846E+08         0.00000E+00
    0.00000E+00         0.00000E+00        -0.44480E+08
 
   -0.44210E+08         0.27787E+07         0.00000E+00
    0.27787E+07        -0.49835E+08         0.00000E+00
    0.00000E+00         0.00000E+00        -0.44484E+08
 
   -0.44242E+08         0.28487E+07         0.00000E+00
    0.28487E+07        -0.49825E+08         0.00000E+00
    0.00000E+00         0.00000E+00        -0.44489E+08
 
   -0.44274E+08         0.29188E+07         0.00000E+00
    0.29188E+07        -0.49814E+08         0.00000E+00
    0.00000E+00         0.00000E+00        -0.44493E+08
 
   -0.44306E+08         0.29891E+07         0.00000E+00
    0.29891E+07        -0.49802E+08         0.00000E+00
    0.00000E+00         0.00000E+00        -0.44497E+08
 
   -0.44339E+08         0.30595E+07         0.00000E+00
    0.30595E+07        -0.49790E+08         0.00000E+00
    0.00000E+00         0.00000E+00        -0.44501E+08
 
   -0.44371E+08         0.31301E+07         0.00000E+00
    0.31301E+07        -0.49777E+08         0.00000E+00
    0.00000E+00         0.00000E+00        -0.44505E+08
 
   -0.44405E+08         0.32008E+07         0.00000E+00
    0.32008E+07        -0.49764E+08         0.00000E+00
    0.00000E+00         0.00000E+00        -0.44509E+08
 
   -0.44438E+08         0.32717E+07         0.00000E+00
    0.32717E+07        -0.49751E+08         0.00000E+00
    0.00000E+00         0.00000E+00        -0.44513E+08
 
   -0.44472E+08         0.33427E+07         0.00000E+00
    0.33427E+07        -0.49737E+08         0.00000E+00
    0.00000E+00         0.00000E+00        -0.44517E+08
 
   -0.44506E+08         0.34139E+07         0.00000E+00
    0.34139E+07        -0.49722E+08         0.00000E+00
    0.00000E+00         0.00000E+00        -0.44521E+08
 
   -0.42558E+08         0.35187E+05         0.00000E+00
    0.35187E+05        -0.50000E+08         0.00000E+00
    0.00000E+00         0.00000E+00        -0.43892E+08
 
   -0.42596E+08         0.10517E+06         0.00000E+00
    0.10517E+06        -0.50000E+08         0.00000E+00
    0.00000E+00         0.00000E+00        -0.43899E+08
 
   -0.42633E+08         0.17499E+06         0.00000E+00
    0.17499E+06        -0.49999E+08         0.00000E+00
    0.00000E+00         0.00000E+00        -0.43907E+08
 
   -0.42670E+08         0.24468E+06         0.00000E+00
    0.24468E+06        -0.49999E+08         0.00000E+00
    0.00000E+00         0.00000E+00        -0.43914E+08
 
   -0.42706E+08         0.31425E+06         0.00000E+00
    0.31425E+06        -0.49999E+08         0.00000E+00
    0.00000E+00         0.00000E+00        -0.43921E+08
 
   -0.42742E+08         0.38370E+06         0.00000E+00
    0.38370E+06        -0.49998E+08         0.00000E+00
    0.00000E+00         0.00000E+00        -0.43928E+08
 
   -0.42778E+08         0.45305E+06         0.00000E+00
    0.45305E+06        -0.49998E+08         0.00000E+00
    0.00000E+00         0.00000E+00        -0.43935E+08
 
   -0.42813E+08         0.52232E+06         0.00000E+00
    0.52232E+06        -0.49997E+08         0.00000E+00
    0.00000E+00         0.00000E+00        -0.43942E+08
 
   -0.42848E+08         0.59151E+06         0.00000E+00
    0.59151E+06        -0.49996E+08         0.00000E+00
    0.00000E+00         0.00000E+00        -0.43949E+08
 
   -0.42883E+08         0.66064E+06         0.00000E+00
    0.66064E+06        -0.49995E+08         0.00000E+00
    0.00000E+00         0.00000E+00        -0.43956E+08
 
   -0.42917E+08         0.72972E+06         0.00000E+00
    0.72972E+06        -0.49994E+08         0.00000E+00
    0.00000E+00         0.00000E+00        -0.43962E+08
 
   -0.42951E+08         0.79876E+06         0.00000E+00
    0.79876E+06        -0.49992E+08         0.00000E+00
    0.00000E+00         0.00000E+00        -0.43969E+08
 
   -0.42985E+08         0.86778E+06         0.00000E+00
    0.86778E+06        -0.49991E+08         0.00000E+00
    0.00000E+00         0.00000E+00        -0.43975E+08
 
   -0.43018E+08         0.93678E+06         0.00000E+00
    0.93678E+06        -0.49989E+08         0.00000E+00
    0.00000E+00         0.00000E+00        -0.43982E+08
 
   -0.43051E+08         0.10058E+07         0.00000E+00
    0.10058E+07        -0.49988E+08         0.00000E+00
    0.00000E+00         0.00000E+00        -0.43988E+08
 
   -0.43084E+08         0.10748E+07         0.00000E+00
    0.10748E+07        -0.49986E+08         0.00000E+00
    0.00000E+00         0.00000E+00        -0.43994E+08
 
   -0.43116E+08         0.11438E+07         0.00000E+00
    0.11438E+07        -0.49983E+08         0.00000E+00
    0.00000E+00         0.00000E+00        -0.44000E+08
 
   -0.43148E+08         0.12129E+07         0.00000E+00
    0.12129E+07        -0.49981E+08         0.00000E+00
    0.00000E+00         0.00000E+00        -0.44006E+08
 
   -0.43180E+08         0.12819E+07         0.00000E+00
    0.12819E+07        -0.49978E+08         0.00000E+00
    0.00000E+00         0.00000E+00        -0.44012E+08
 
   -0.43212E+08         0.13511E+07         0.00000E+00
    0.13511E+07        -0.49976E+08         0.00000E+00
    0.00000E+00         0.00000E+00        -0.44018E+08
 
   -0.43243E+08         0.14203E+07         0.00000E+00
    0.14203E+07        -0.49973E+08         0.00000E+00
    0.00000E+00         0.00000E+00        -0.44023E+08
 
   -0.43275E+08         0.14896E+07         0.00000E+00
    0.14896E+07        -0.49969E+08         0.00000E+00
    0.00000E+00         0.00000E+00        -0.44029E+08
 
   -0.43306E+08         0.15589E+07         0.00000E+00
    0.15589E+07        -0.49966E+08         0.00000E+00
    0.00000E+00         0.00000E+00        -0.44035E+08
 
   -0.43337E+08         0.16283E+07         0.00000E+00
    0.16283E+07        -0.49962E+08         0.00000E+00
    0.00000E+00         0.00000E+00        -0.44040E+08
 
   -0.43368E+08         0.16979E+07         0.00000E+00
    0.16979E+07        -0.49958E+08         0.00000E+00
    0.00000E+00         0.00000E+00        -0.44045E+08
 
   -0.43398E+08         0.17675E+07         0.00000E+00
    0.17675E+07        -0.49954E+08         0.00000E+00
    0.00000E+00         0.00000E+00        -0.44051E+08
 
   -0.43429E+08         0.18372E+07         0.00000E+00
    0.18372E+07        -0.49949E+08         0.00000E+00
    0.00000E+00         0.00000E+00        -0.44056E+08
 
   -0.43459E+08         0.19071E+07         0.00000E+00
    0.19071E+07        -0.49944E+08         0.00000E+00
    0.00000E+00         0.00000E+00        -0.44061E+08
 
   -0.43490E+08         0.19771E+07         0.00000E+00
    0.19771E+07        -0.49939E+08         0.00000E+00
    0.00000E+00         0.00000E+00        -0.44066E+08
 
   -0.43520E+08         0.20472E+07         0.00000E+00
    0.20472E+07        -0.49934E+08         0.00000E+00
    0.00000E+00         0.00000E+00        -0.44071E+08
 
   -0.43550E+08         0.21175E+07         0.00000E+00
    0.21175E+07        -0.49928E+08         0.00000E+00
    0.00000E+00         0.00000E+00        -0.44076E+08
 
   -0.43581E+08         0.21880E+07         0.00000E+00
    0.21880E+07        -0.49922E+08         0.00000E+00
    0.00000E+00         0.00000E+00        -0.44081E+08
 
   -0.43611E+08         0.22585E+07         0.00000E+00
    0.22585E+07        -0.49915E+08         0.00000E+00
    0.00000E+00         0.00000E+00        -0.44086E+08
 
   -0.43641E+08         0.23293E+07         0.00000E+00
    0.23293E+07        -0.49909E+08         0.00000E+00
    0.00000E+00         0.00000E+00        -0.44090E+08
 
   -0.43671E+08         0.24002E+07         0.00000E+00
    0.24002E+07        -0.49901E+08         0.00000E+00
    0.00000E+00         0.00000E+00        -0.44095E+08
 
   -0.43702E+08         0.24713E+07         0.00000E+00
    0.24713E+07        -0.49894E+08         0.00000E+00
    0.00000E+00         0.00000E+00        -0.44099E+08
 
   -0.43732E+08         0.25426E+07         0.00000E+00
    0.25426E+07        -0.49886E+08         0.00000E+00
    0.00000E+00         0.00000E+00        -0.44104E+08
 
   -0.43763E+08         0.26141E+07         0.00000E+00
    0.26141E+07        -0.49877E+08         0.00000E+00
    0.00000E+00         0.00000E+00        -0.44108E+08
 
   -0.43793E+08         0.26857E+07         0.00000E+00
    0.26857E+07        -0.49869E+08         0.00000E+00
    0.00000E+00         0.00000E+00        -0.44113E+08
 
   -0.43824E+08         0.27576E+07         0.00000E+00
    0.27576E+07        -0.49859E+08         0.00000E+00
    0.00000E+00         0.00000E+00        -0.44117E+08
 
   -0.43855E+08         0.28296E+07         0.00000E+00
    0.28296E+07        -0.49850E+08         0.00000E+00
    0.00000E+00         0.00000E+00        -0.44121E+08
 
   -0.43886E+08         0.29019E+07         0.00000E+00
    0.29019E+07        -0.49840E+08         0.00000E+00
    0.00000E+00         0.00000E+00        -0.44125E+08
 
   -0.43917E+08         0.29743E+07         0.00000E+00
    0.29743E+07        -0.49829E+08         0.00000E+00
    0.00000E+00         0.00000E+00        -0.44129E+08
 
   -0.43948E+08         0.30470E+07         0.00000E+00
    0.30470E+07        -0.49818E+08         0.00000E+00
    0.00000E+00         0.00000E+00        -0.44133E+08
 
   -0.43980E+08         0.31199E+07         0.00000E+00
    0.31199E+07        -0.49806E+08         0.00000E+00
    0.00000E+00         0.00000E+00        -0.44137E+08
 
   -0.44012E+08         0.31930E+07         0.00000E+00
    0.31930E+07        -0.49794E+08         0.00000E+00
    0.00000E+00         0.00000E+00        -0.44141E+08
 
   -0.44044E+08         0.32664E+07         0.00000E+00
    0.32664E+07        -0.49782E+08         0.00000E+00
    0.00000E+00         0.00000E+00        -0.44145E+08
 
   -0.44076E+08         0.33399E+07         0.00000E+00
    0.33399E+07        -0.49768E+08         0.00000E+00
    0.00000E+00         0.00000E+00        -0.44149E+08
 
   -0.44109E+08         0.34137E+07         0.00000E+00
    0.34137E+07        -0.49755E+08         0.00000E+00
    0.00000E+00         0.00000E+00        -0.44153E+08
 
   -0.44142E+08         0.34878E+07         0.00000E+00
    0.34878E+07        -0.49741E+08         0.00000E+00
    0.00000E+00         0.00000E+00        -0.44157E+08
 
   -0.42207E+08         0.35367E+05         0.00000E+00
    0.35367E+05        -0.50000E+08         0.00000E+00
    0.00000E+00         0.00000E+00        -0.43514E+08
 
   -0.42245E+08         0.10576E+06         0.00000E+00
    0.10576E+06        -0.50000E+08         0.00000E+00
    0.00000E+00         0.00000E+00        -0.43522E+08
 
   -0.42283E+08         0.17602E+06         0.00000E+00
    0.17602E+06        -0.50000E+08         0.00000E+00
    0.00000E+00         0.00000E+00        -0.43529E+08
 
   -0.42321E+08         0.24617E+06         0.00000E+00
    0.24617E+06        -0.49999E+08         0.00000E+00
    0.00000E+00         0.00000E+00        -0.43537E+08
 
   -0.42358E+08         0.31622E+06         0.00000E+00
    0.31622E+06        -0.49999E+08         0.00000E+00
    0.00000E+00         0.00000E+00        -0.43544E+08
 
   -0.42394E+08         0.38618E+06         0.00000E+00
    0.38618E+06        -0.49999E+08         0.00000E+00
    0.00000E+00         0.00000E+00        -0.43551E+08
 
   -0.42430E+08         0.45608E+06         0.00000E+00
    0.45608E+06        -0.49998E+08         0.00000E+00
    0.00000E+00         0.00000E+00        -0.43558E+08
 
   -0.42466E+08         0.52592E+06         0.00000E+00
    0.52592E+06        -0.49998E+08         0.00000E+00
    0.00000E+00         0.00000E+00        -0.43565E+08
 
   -0.42501E+08         0.59572E+06         0.00000E+00
    0.59572E+06        -0.49997E+08         0.00000E+00
    0.00000E+00         0.00000E+00        -0.43572E+08
 
   -0.42536E+08         0.66549E+06         0.00000E+00
    0.66549E+06        -0.49996E+08         0.00000E+00
    0.00000E+00         0.00000E+00        -0.43579E+08
 
   -0.42570E+08         0.73525E+06         0.00000E+00
    0.73525E+06        -0.49995E+08         0.00000E+00
    0.00000E+00         0.00000E+00        -0.43586E+08
 
   -0.42604E+08         0.80500E+06         0.00000E+00
    0.80500E+06        -0.49994E+08         0.00000E+00
    0.00000E+00         0.00000E+00        -0.43592E+08
 
   -0.42638E+08         0.87477E+06         0.00000E+00
    0.87477E+06        -0.49993E+08         0.00000E+00
    0.00000E+00         0.00000E+00        -0.43599E+08
 
   -0.42671E+08         0.94456E+06         0.00000E+00
    0.94456E+06        -0.49992E+08         0.00000E+00
    0.00000E+00         0.00000E+00        -0.43605E+08
 
   -0.42704E+08         0.10144E+07         0.00000E+00
    0.10144E+07        -0.49990E+08         0.00000E+00
    0.00000E+00         0.00000E+00        -0.43612E+08
 
   -0.42736E+08         0.10843E+07         0.00000E+00
    0.10843E+07        -0.49989E+08         0.00000E+00
    0.00000E+00         0.00000E+00        -0.43618E+08
 
   -0.42768E+08         0.11542E+07         0.00000E+00
    0.11542E+07        -0.49987E+08         0.00000E+00
    0.00000E+00         0.00000E+00        -0.43624E+08
 
   -0.42800E+08         0.12242E+07         0.00000E+00
    0.12242E+07        -0.49985E+08         0.00000E+00
    0.00000E+00         0.00000E+00        -0.43630E+08
 
   -0.42832E+08         0.12943E+07         0.00000E+00
    0.12943E+07        -0.49983E+08         0.00000E+00
    0.00000E+00         0.00000E+00        -0.43636E+08
 
   -0.42863E+08         0.13645E+07         0.00000E+00
    0.13645E+07        -0.49981E+08         0.00000E+00
    0.00000E+00         0.00000E+00        -0.43641E+08
 
   -0.42894E+08         0.14348E+07         0.00000E+00
    0.14348E+07        -0.49978E+08         0.00000E+00
    0.00000E+00         0.00000E+00        -0.43647E+08
 
   -0.42925E+08         0.15052E+07         0.00000E+00
    0.15052E+07        -0.49975E+08         0.00000E+00
    0.00000E+00         0.00000E+00        -0.43653E+08
 
   -0.42956E+08         0.15758E+07         0.00000E+00
    0.15758E+07        -0.49972E+08         0.00000E+00
    0.00000E+00         0.00000E+00        -0.43658E+08
 
   -0.42986E+08         0.16465E+07         0.00000E+00
    0.16465E+07        -0.49969E+08         0.00000E+00
    0.00000E+00         0.00000E+00        -0.43664E+08
 
   -0.43016E+08         0.17173E+07         0.00000E+00
    0.17173E+07        -0.49966E+08         0.00000E+00
    0.00000E+00         0.00000E+00        -0.43669E+08
 
   -0.43046E+08         0.17883E+07         0.00000E+00
    0.17883E+07        -0.49962E+08         0.00000E+00
    0.00000E+00         0.00000E+00        -0.43674E+08
 
   -0.43076E+08         0.18594E+07         0.00000E+00
    0.18594E+07        -0.49958E+08         0.00000E+00
    0.00000E+00         0.00000E+00        -0.43680E+08
 
   -0.43106E+08         0.19308E+07         0.00000E+00
    0.19308E+07        -0.49954E+08         0.00000E+00
    0.00000E+00         0.00000E+00        -0.43685E+08
 
   -0.43136E+08         0.20023E+07         0.00000E+00
    0.20023E+07        -0.49949E+08         0.00000E+00
    0.00000E+00         0.00000E+00        -0.43690E+08
 
   -0.43165E+08         0.20740E+07         0.00000E+00
    0.20740E+07        -0.49944E+08         0.00000E+00
    0.00000E+00         0.00000E+00        -0.43695E+08
 
   -0.43194E+08         0.21459E+07         0.00000E+00
    0.21459E+07        -0.49939E+08         0.00000E+00
    0.00000E+00         0.00000E+00        -0.43699E+08
 
   -0.43224E+08         0.22180E+07         0.00000E+00
    0.22180E+07        -0.49933E+08         0.00000E+00
    0.00000E+00         0.00000E+00        -0.43704E+08
 
   -0.43253E+08         0.22903E+07         0.00000E+00
    0.22903E+07        -0.49928E+08         0.00000E+00
    0.00000E+00         0.00000E+00        -0.43709E+08
 
   -0.43282E+08         0.23629E+07         0.00000E+00
    0.23629E+07        -0.49921E+08         0.00000E+00
    0.00000E+00         0.00000E+00        -0.43713E+08
 
   -0.43312E+08         0.24357E+07         0.00000E+00
    0.24357E+07        -0.49915E+08         0.00000E+00
    0.00000E+00         0.00000E+00        -0.43718E+08
 
   -0.43341E+08         0.25087E+07         0.00000E+00
    0.25087E+07        -0.49908E+08         0.00000E+00
    0.00000E+00         0.00000E+00        -0.43722E+08
 
   -0.43370E+08         0.25820E+07         0.00000E+00
    0.25820E+07        -0.49900E+08         0.00000E+00
    0.00000E+00         0.00000E+00        -0.43727E+08
 
   -0.43400E+08         0.26555E+07         0.00000E+00
    0.26555E+07        -0.49893E+08         0.00000E+00
    0.00000E+00         0.00000E+00        -0.43731E+08
 
   -0.43429E+08         0.27293E+07         0.00000E+00
    0.27293E+07        -0.49885E+08         0.00000E+00
    0.00000E+00         0.00000E+00        -0.43735E+08
 
   -0.43459E+08         0.28033E+07         0.00000E+00
    0.28033E+07        -0.49876E+08         0.00000E+00
    0.00000E+00         0.00000E+00        -0.43740E+08
 
   -0.43488E+08         0.28776E+07         0.00000E+00
    0.28776E+07        -0.49867E+08         0.00000E+00
    0.00000E+00         0.00000E+00        -0.43744E+08
 
   -0.43518E+08         0.29522E+07         0.00000E+00
    0.29522E+07        -0.49857E+08         0.00000E+00
    0.00000E+00         0.00000E+00        -0.43748E+08
 
   -0.43548E+08         0.30270E+07         0.00000E+00
    0.30270E+07        -0.49848E+08         0.00000E+00
    0.00000E+00         0.00000E+00        -0.43752E+08
 
   -0.43578E+08         0.31021E+07         0.00000E+00
    0.31021E+07        -0.49837E+08         0.00000E+00
    0.00000E+00         0.00000E+00        -0.43756E+08
 
   -0.43609E+08         0.31776E+07         0.00000E+00
    0.31776E+07        -0.49826E+08         0.00000E+00
    0.00000E+00         0.00000E+00        -0.43760E+08
 
   -0.43639E+08         0.32532E+07         0.00000E+00
    0.32532E+07        -0.49815E+08         0.00000E+00
    0.00000E+00         0.00000E+00        -0.43763E+08
 
   -0.43670E+08         0.33292E+07         0.00000E+00
    0.33292E+07        -0.49803E+08         0.00000E+00
    0.00000E+00         0.00000E+00        -0.43767E+08
 
   -0.43701E+08         0.34055E+07         0.00000E+00
    0.34055E+07        -0.49790E+08         0.00000E+00
    0.00000E+00         0.00000E+00        -0.43771E+08
 
   -0.43732E+08         0.34821E+07         0.00000E+00
    0.34821E+07        -0.49777E+08         0.00000E+00
    0.00000E+00         0.00000E+00        -0.43775E+08
 
   -0.43764E+08         0.35590E+07         0.00000E+00
    0.35590E+07        -0.49764E+08         0.00000E+00
    0.00000E+00         0.00000E+00        -0.43778E+08
 
   -0.41854E+08         0.35466E+05         0.00000E+00
    0.35466E+05        -0.50000E+08         0.00000E+00
    0.00000E+00         0.00000E+00        -0.43123E+08
 
   -0.41893E+08         0.10611E+06         0.00000E+00
    0.10611E+06        -0.50000E+08         0.00000E+00
    0.00000E+00         0.00000E+00        -0.43131E+08
 
   -0.41931E+08         0.17665E+06         0.00000E+00
    0.17665E+06        -0.50000E+08         0.00000E+00
    0.00000E+00         0.00000E+00        -0.43139E+08
 
   -0.41969E+08         0.24711E+06         0.00000E+00
    0.24711E+06        -0.49999E+08         0.00000E+00
    0.00000E+00         0.00000E+00        -0.43146E+08
 
   -0.42007E+08         0.31749E+06         0.00000E+00
    0.31749E+06        -0.49999E+08         0.00000E+00
    0.00000E+00         0.00000E+00        -0.43154E+08
 
   -0.42043E+08         0.38783E+06         0.00000E+00
    0.38783E+06        -0.49999E+08         0.00000E+00
    0.00000E+00         0.00000E+00        -0.43161E+08
 
   -0.42080E+08         0.45812E+06         0.00000E+00
    0.45812E+06        -0.49999E+08         0.00000E+00
    0.00000E+00         0.00000E+00        -0.43168E+08
 
   -0.42115E+08         0.52840E+06         0.00000E+00
    0.52840E+06        -0.49999E+08         0.00000E+00
    0.00000E+00         0.00000E+00        -0.43175E+08
 
   -0.42151E+08         0.59866E+06         0.00000E+00
    0.59866E+06        -0.49998E+08         0.00000E+00
    0.00000E+00         0.00000E+00        -0.43182E+08
 
   -0.42186E+08         0.66894E+06         0.00000E+00
    0.66894E+06        -0.49998E+08         0.00000E+00
    0.00000E+00         0.00000E+00        -0.43189E+08
 
   -0.42220E+08         0.73924E+06         0.00000E+00
    0.73924E+06        -0.49997E+08         0.00000E+00
    0.00000E+00         0.00000E+00        -0.43196E+08
 
   -0.42254E+08         0.80958E+06         0.00000E+00
    0.80958E+06        -0.49996E+08         0.00000E+00
    0.00000E+00         0.00000E+00        -0.43202E+08
 
   -0.42287E+08         0.87997E+06         0.00000E+00
    0.87997E+06        -0.49996E+08         0.00000E+00
    0.00000E+00         0.00000E+00        -0.43209E+08
 
   -0.42320E+08         0.95043E+06         0.00000E+00
    0.95043E+06        -0.49995E+08         0.00000E+00
    0.00000E+00         0.00000E+00        -0.43215E+08
 
   -0.42353E+08         0.10210E+07         0.00000E+00
    0.10210E+07        -0.49994E+08         0.00000E+00
    0.00000E+00         0.00000E+00        -0.43222E+08
 
   -0.42385E+08         0.10916E+07         0.00000E+00
    0.10916E+07        -0.49993E+08         0.00000E+00
    0.00000E+00         0.00000E+00        -0.43228E+08
 
   -0.42416E+08         0.11624E+07         0.00000E+00
    0.11624E+07        -0.49991E+08         0.00000E+00
    0.00000E+00         0.00000E+00        -0.43234E+08
 
   -0.42448E+08         0.12332E+07         0.00000E+00
    0.12332E+07        -0.49990E+08         0.00000E+00
    0.00000E+00         0.00000E+00        -0.43240E+08
 
   -0.42479E+08         0.13042E+07         0.00000E+00
    0.13042E+07        -0.49988E+08         0.00000E+00
    0.00000E+00         0.00000E+00        -0.43246E+08
 
   -0.42510E+08         0.13754E+07         0.00000E+00
    0.13754E+07        -0.49986E+08         0.00000E+00
    0.00000E+00         0.00000E+00        -0.43252E+08
 
   -0.42540E+08         0.14467E+07         0.00000E+00
    0.14467E+07        -0.49984E+08         0.00000E+00
    0.00000E+00         0.00000E+00        -0.43257E+08
 
   -0.42570E+08         0.15182E+07         0.00000E+00
    0.15182E+07        -0.49982E+08         0.00000E+00
    0.00000E+00         0.00000E+00        -0.43263E+08
 
   -0.42600E+08         0.15898E+07         0.00000E+00
    0.15898E+07        -0.49980E+08         0.00000E+00
    0.00000E+00         0.00000E+00        -0.43268E+08
 
   -0.42629E+08         0.16617E+07         0.00000E+00
    0.16617E+07        -0.49977E+08         0.00000E+00
    0.00000E+00         0.00000E+00        -0.43274E+08
 
   -0.42659E+08         0.17337E+07         0.00000E+00
    0.17337E+07        -0.49974E+08         0.00000E+00
    0.00000E+00         0.00000E+00        -0.43279E+08
 
   -0.42688E+08         0.18060E+07         0.00000E+00
    0.18060E+07        -0.49971E+08         0.00000E+00
    0.00000E+00         0.00000E+00        -0.43284E+08
 
   -0.42717E+08         0.18785E+07         0.00000E+00
    0.18785E+07        -0.49968E+08         0.00000E+00
    0.00000E+00         0.00000E+00        -0.43289E+08
 
   -0.42745E+08         0.19512E+07         0.00000E+00
    0.19512E+07        -0.49964E+08         0.00000E+00
    0.00000E+00         0.00000E+00        -0.43294E+08
 
   -0.42774E+08         0.20242E+07         0.00000E+00
    0.20242E+07        -0.49961E+08         0.00000E+00
    0.00000E+00         0.00000E+00        -0.43299E+08
 
   -0.42802E+08         0.20974E+07         0.00000E+00
    0.20974E+07        -0.49956E+08         0.00000E+00
    0.00000E+00         0.00000E+00        -0.43304E+08
 
   -0.42830E+08         0.21709E+07         0.00000E+00
    0.21709E+07        -0.49952E+08         0.00000E+00
    0.00000E+00         0.00000E+00        -0.43309E+08
 
   -0.42858E+08         0.22447E+07         0.00000E+00
    0.22447E+07        -0.49947E+08         0.00000E+00
    0.00000E+00         0.00000E+00        -0.43314E+08
 
   -0.42886E+08         0.23187E+07         0.00000E+00
    0.23187E+07        -0.49942E+08         0.00000E+00
    0.00000E+00         0.00000E+00        -0.43318E+08
 
   -0.42914E+08         0.23930E+07         0.00000E+00
    0.23930E+07        -0.49937E+08         0.00000E+00
    0.00000E+00         0.00000E+00        -0.43323E+08
 
   -0.42942E+08         0.24677E+07         0.00000E+00
    0.24677E+07        -0.49931E+08         0.00000E+00
    0.00000E+00         0.00000E+00        -0.43327E+08
 
   -0.42970E+08         0.25426E+07         0.00000E+00
    0.25426E+07        -0.49925E+08         0.00000E+00
    0.00000E+00         0.00000E+00        -0.43331E+08
 
   -0.42998E+08         0.26178E+07         0.00000E+00
    0.26178E+07        -0.49918E+08         0.00000E+00
    0.00000E+00         0.00000E+00        -0.43336E+08
 
   -0.43026E+08         0.26934E+07         0.00000E+00
    0.26934E+07        -0.49911E+08         0.00000E+00
    0.00000E+00         0.00000E+00        -0.43340E+08
 
   -0.43054E+08         0.27693E+07         0.00000E+00
    0.27693E+07        -0.49904E+08         0.00000E+00
    0.00000E+00         0.00000E+00        -0.43344E+08
 
   -0.43082E+08         0.28455E+07         0.00000E+00
    0.28455E+07        -0.49896E+08         0.00000E+00
    0.00000E+00         0.00000E+00        -0.43348E+08
 
   -0.43110E+08         0.29220E+07         0.00000E+00
    0.29220E+07        -0.49888E+08         0.00000E+00
    0.00000E+00         0.00000E+00        -0.43352E+08
 
   -0.43139E+08         0.29989E+07         0.00000E+00
    0.29989E+07        -0.49879E+08         0.00000E+00
    0.00000E+00         0.00000E+00        -0.43356E+08
 
   -0.43167E+08         0.30761E+07         0.00000E+00
    0.30761E+07        -0.49870E+08         0.00000E+00
    0.00000E+00         0.00000E+00        -0.43360E+08
 
   -0.43196E+08         0.31537E+07         0.00000E+00
    0.31537E+07        -0.49860E+08         0.00000E+00
    0.00000E+00         0.00000E+00        -0.43364E+08
 
   -0.43224E+08         0.32316E+07         0.00000E+00
    0.32316E+07        -0.49850E+08         0.00000E+00
    0.00000E+00         0.00000E+00        -0.43367E+08
 
   -0.43253E+08         0.33099E+07         0.00000E+00
    0.33099E+07        -0.49839E+08         0.00000E+00
    0.00000E+00         0.00000E+00        -0.43371E+08
 
   -0.43282E+08         0.33886E+07         0.00000E+00
    0.33886E+07        -0.49828E+08         0.00000E+00
    0.00000E+00         0.00000E+00        -0.43375E+08
 
   -0.43312E+08         0.34676E+07         0.00000E+00
    0.34676E+07        -0.49816E+08         0.00000E+00
    0.00000E+00         0.00000E+00        -0.43378E+08
 
   -0.43342E+08         0.35470E+07         0.00000E+00
    0.35470E+07        -0.49804E+08         0.00000E+00
    0.00000E+00         0.00000E+00        -0.43382E+08
 
   -0.43372E+08         0.36268E+07         0.00000E+00
    0.36268E+07        -0.49791E+08         0.00000E+00
    0.00000E+00         0.00000E+00        -0.43385E+08
 
   -0.41500E+08         0.35473E+05         0.00000E+00
    0.35473E+05        -0.50000E+08         0.00000E+00
    0.00000E+00         0.00000E+00        -0.42719E+08
 
   -0.41539E+08         0.10619E+06         0.00000E+00
    0.10619E+06        -0.50000E+08         0.00000E+00
    0.00000E+00         0.00000E+00        -0.42727E+08
 
   -0.41578E+08         0.17683E+06         0.00000E+00
    0.17683E+06        -0.50000E+08         0.00000E+00
    0.00000E+00         0.00000E+00        -0.42735E+08
 
   -0.41617E+08         0.24741E+06         0.00000E+00
    0.24741E+06        -0.50000E+08         0.00000E+00
    0.00000E+00         0.00000E+00        -0.42742E+08
 
   -0.41654E+08         0.31796E+06         0.00000E+00
    0.31796E+06        -0.50000E+08         0.00000E+00
    0.00000E+00         0.00000E+00        -0.42750E+08
 
   -0.41691E+08         0.38848E+06         0.00000E+00
    0.38848E+06        -0.50000E+08         0.00000E+00
    0.00000E+00         0.00000E+00        -0.42757E+08
 
   -0.41728E+08         0.45901E+06         0.00000E+00
    0.45901E+06        -0.50000E+08         0.00000E+00
    0.00000E+00         0.00000E+00        -0.42765E+08
 
   -0.41763E+08         0.52955E+06         0.00000E+00
    0.52955E+06        -0.50000E+08         0.00000E+00
    0.00000E+00         0.00000E+00        -0.42772E+08
 
   -0.41799E+08         0.60012E+06         0.00000E+00
    0.60012E+06        -0.50000E+08         0.00000E+00
    0.00000E+00         0.00000E+00        -0.42779E+08
 
   -0.41833E+08         0.67074E+06         0.00000E+00
    0.67074E+06        -0.49999E+08         0.00000E+00
    0.00000E+00         0.00000E+00        -0.42786E+08
 
   -0.41867E+08         0.74143E+06         0.00000E+00
    0.74143E+06        -0.49999E+08         0.00000E+00
    0.00000E+00         0.00000E+00        -0.42792E+08
 
   -0.41901E+08         0.81220E+06         0.00000E+00
    0.81220E+06        -0.49999E+08         0.00000E+00
    0.00000E+00         0.00000E+00        -0.42799E+08
 
   -0.41934E+08         0.88307E+06         0.00000E+00
    0.88307E+06        -0.49999E+08         0.00000E+00
    0.00000E+00         0.00000E+00        -0.42806E+08
 
   -0.41966E+08         0.95406E+06         0.00000E+00
    0.95406E+06        -0.49998E+08         0.00000E+00
    0.00000E+00         0.00000E+00        -0.42812E+08
 
   -0.41998E+08         0.10252E+07         0.00000E+00
    0.10252E+07        -0.49998E+08         0.00000E+00
    0.00000E+00         0.00000E+00        -0.42818E+08
 
   -0.42030E+08         0.10964E+07         0.00000E+00
    0.10964E+07        -0.49997E+08         0.00000E+00
    0.00000E+00         0.00000E+00        -0.42824E+08
 
   -0.42061E+08         0.11678E+07         0.00000E+00
    0.11678E+07        -0.49996E+08         0.00000E+00
    0.00000E+00         0.00000E+00        -0.42831E+08
 
   -0.42091E+08         0.12394E+07         0.00000E+00
    0.12394E+07        -0.49995E+08         0.00000E+00
    0.00000E+00         0.00000E+00        -0.42836E+08
 
   -0.42121E+08         0.13112E+07         0.00000E+00
    0.13112E+07        -0.49994E+08         0.00000E+00
    0.00000E+00         0.00000E+00        -0.42842E+08
 
   -0.42151E+08         0.13832E+07         0.00000E+00
    0.13832E+07        -0.49993E+08         0.00000E+00
    0.00000E+00         0.00000E+00        -0.42848E+08
 
   -0.42181E+08         0.14554E+07         0.00000E+00
    0.14554E+07        -0.49992E+08         0.00000E+00
    0.00000E+00         0.00000E+00        -0.42854E+08
 
   -0.42210E+08         0.15278E+07         0.00000E+00
    0.15278E+07        -0.49990E+08         0.00000E+00
    0.00000E+00         0.00000E+00        -0.42859E+08
 
   -0.42238E+08         0.16005E+07         0.00000E+00
    0.16005E+07        -0.49989E+08         0.00000E+00
    0.00000E+00         0.00000E+00        -0.42865E+08
 
   -0.42267E+08         0.16734E+07         0.00000E+00
    0.16734E+07        -0.49987E+08         0.00000E+00
    0.00000E+00         0.00000E+00        -0.42870E+08
 
   -0.42295E+08         0.17466E+07         0.00000E+00
    0.17466E+07        -0.49985E+08         0.00000E+00
    0.00000E+00         0.00000E+00        -0.42875E+08
 
   -0.42323E+08         0.18201E+07         0.00000E+00
    0.18201E+07        -0.49983E+08         0.00000E+00
    0.00000E+00         0.00000E+00        -0.42880E+08
 
   -0.42350E+08         0.18938E+07         0.00000E+00
    0.18938E+07        -0.49980E+08         0.00000E+00
    0.00000E+00         0.00000E+00        -0.42885E+08
 
   -0.42378E+08         0.19679E+07         0.00000E+00
    0.19679E+07        -0.49977E+08         0.00000E+00
    0.00000E+00         0.00000E+00        -0.42890E+08
 
   -0.42405E+08         0.20423E+07         0.00000E+00
    0.20423E+07        -0.49974E+08         0.00000E+00
    0.00000E+00         0.00000E+00        -0.42895E+08
 
   -0.42432E+08         0.21169E+07         0.00000E+00
    0.21169E+07        -0.49971E+08         0.00000E+00
    0.00000E+00         0.00000E+00        -0.42900E+08
 
   -0.42458E+08         0.21920E+07         0.00000E+00
    0.21920E+07        -0.49967E+08         0.00000E+00
    0.00000E+00         0.00000E+00        -0.42904E+08
 
   -0.42485E+08         0.22673E+07         0.00000E+00
    0.22673E+07        -0.49963E+08         0.00000E+00
    0.00000E+00         0.00000E+00        -0.42909E+08
 
   -0.42511E+08         0.23430E+07         0.00000E+00
    0.23430E+07        -0.49959E+08         0.00000E+00
    0.00000E+00         0.00000E+00        -0.42913E+08
 
   -0.42538E+08         0.24191E+07         0.00000E+00
    0.24191E+07        -0.49955E+08         0.00000E+00
    0.00000E+00         0.00000E+00        -0.42918E+08
 
   -0.42564E+08         0.24955E+07         0.00000E+00
    0.24955E+07        -0.49950E+08         0.00000E+00
    0.00000E+00         0.00000E+00        -0.42922E+08
 
   -0.42590E+08         0.25723E+07         0.00000E+00
    0.25723E+07        -0.49944E+08         0.00000E+00
    0.00000E+00         0.00000E+00        -0.42926E+08
 
   -0.42616E+08         0.26495E+07         0.00000E+00
    0.26495E+07        -0.49939E+08         0.00000E+00
    0.00000E+00         0.00000E+00        -0.42930E+08
 
   -0.42642E+08         0.27270E+07         0.00000E+00
    0.27270E+07        -0.49933E+08         0.00000E+00
    0.00000E+00         0.00000E+00        -0.42934E+08
 
   -0.42669E+08         0.28050E+07         0.00000E+00
    0.28050E+07        -0.49926E+08         0.00000E+00
    0.00000E+00         0.00000E+00        -0.42938E+08
 
   -0.42695E+08         0.28833E+07         0.00000E+00
    0.28833E+07        -0.49919E+08         0.00000E+00
    0.00000E+00         0.00000E+00        -0.42942E+08
 
   -0.42721E+08         0.29621E+07         0.00000E+00
    0.29621E+07        -0.49912E+08         0.00000E+00
    0.00000E+00         0.00000E+00        -0.42946E+08
 
   -0.42748E+08         0.30413E+07         0.00000E+00
    0.30413E+07        -0.49904E+08         0.00000E+00
    0.00000E+00         0.00000E+00        -0.42950E+08
 
   -0.42774E+08         0.31209E+07         0.00000E+00
    0.31209E+07        -0.49896E+08         0.00000E+00
    0.00000E+00         0.00000E+00        -0.42953E+08
 
   -0.42801E+08         0.32009E+07         0.00000E+00
    0.32009E+07        -0.49887E+08         0.00000E+00
    0.00000E+00         0.00000E+00        -0.42957E+08
 
   -0.42827E+08         0.32814E+07         0.00000E+00
    0.32814E+07        -0.49878E+08         0.00000E+00
    0.00000E+00         0.00000E+00        -0.42960E+08
 
   -0.42854E+08         0.33623E+07         0.00000E+00
    0.33623E+07        -0.49868E+08         0.00000E+00
    0.00000E+00         0.00000E+00        -0.42964E+08
 
   -0.42881E+08         0.34436E+07         0.00000E+00
    0.34436E+07        -0.49858E+08         0.00000E+00
    0.00000E+00         0.00000E+00        -0.42967E+08
 
   -0.42909E+08         0.35254E+07         0.00000E+00
    0.35254E+07        -0.49847E+08         0.00000E+00
    0.00000E+00         0.00000E+00        -0.42970E+08
 
   -0.42936E+08         0.36077E+07         0.00000E+00
    0.36077E+07        -0.49836E+08         0.00000E+00
    0.00000E+00         0.00000E+00        -0.42974E+08
 
   -0.42964E+08         0.36904E+07         0.00000E+00
    0.36904E+07        -0.49824E+08         0.00000E+00
    0.00000E+00         0.00000E+00        -0.42977E+08
 
   -0.41146E+08         0.35370E+05         0.00000E+00
    0.35370E+05        -0.50000E+08         0.00000E+00
    0.00000E+00         0.00000E+00        -0.42302E+08
 
   -0.41186E+08         0.10594E+06         0.00000E+00
    0.10594E+06        -0.50000E+08         0.00000E+00
    0.00000E+00         0.00000E+00        -0.42310E+08
 
   -0.41225E+08         0.17647E+06         0.00000E+00
    0.17647E+06        -0.50000E+08         0.00000E+00
    0.00000E+00         0.00000E+00        -0.42318E+08
 
   -0.41264E+08         0.24697E+06         0.00000E+00
    0.24697E+06        -0.50000E+08         0.00000E+00
    0.00000E+00         0.00000E+00        -0.42325E+08
 
   -0.41302E+08         0.31747E+06         0.00000E+00
    0.31747E+06        -0.50000E+08         0.00000E+00
    0.00000E+00         0.00000E+00        -0.42333E+08
 
   -0.41338E+08         0.38799E+06         0.00000E+00
    0.38799E+06        -0.50000E+08         0.00000E+00
    0.00000E+00         0.00000E+00        -0.42340E+08
 
   -0.41375E+08         0.45855E+06         0.00000E+00
    0.45855E+06        -0.50001E+08         0.00000E+00
    0.00000E+00         0.00000E+00        -0.42348E+08
 
   -0.41410E+08         0.52916E+06         0.00000E+00
    0.52916E+06        -0.50001E+08         0.00000E+00
    0.00000E+00         0.00000E+00        -0.42355E+08
 
   -0.41445E+08         0.59984E+06         0.00000E+00
    0.59984E+06        -0.50001E+08         0.00000E+00
    0.00000E+00         0.00000E+00        -0.42362E+08
 
   -0.41479E+08         0.67062E+06         0.00000E+00
    0.67062E+06        -0.50001E+08         0.00000E+00
    0.00000E+00         0.00000E+00        -0.42369E+08
 
   -0.41513E+08         0.74152E+06         0.00000E+00
    0.74152E+06        -0.50002E+08         0.00000E+00
    0.00000E+00         0.00000E+00        -0.42376E+08
 
   -0.41546E+08         0.81254E+06         0.00000E+00
    0.81254E+06        -0.50002E+08         0.00000E+00
    0.00000E+00         0.00000E+00        -0.42382E+08
 
   -0.41578E+08         0.88371E+06         0.00000E+00
    0.88371E+06        -0.50002E+08         0.00000E+00
    0.00000E+00         0.00000E+00        -0.42389E+08
 
   -0.41610E+08         0.95506E+06         0.00000E+00
    0.95506E+06        -0.50002E+08         0.00000E+00
    0.00000E+00         0.00000E+00        -0.42395E+08
 
   -0.41641E+08         0.10266E+07         0.00000E+00
    0.10266E+07        -0.50002E+08         0.00000E+00
    0.00000E+00         0.00000E+00        -0.42401E+08
 
   -0.41672E+08         0.10983E+07         0.00000E+00
    0.10983E+07        -0.50002E+08         0.00000E+00
    0.00000E+00         0.00000E+00        -0.42407E+08
 
   -0.41702E+08         0.11702E+07         0.00000E+00
    0.11702E+07        -0.50002E+08         0.00000E+00
    0.00000E+00         0.00000E+00        -0.42413E+08
 
   -0.41731E+08         0.12424E+07         0.00000E+00
    0.12424E+07        -0.50002E+08         0.00000E+00
    0.00000E+00         0.00000E+00        -0.42419E+08
 
   -0.41760E+08         0.13148E+07         0.00000E+00
    0.13148E+07        -0.50002E+08         0.00000E+00
    0.00000E+00         0.00000E+00        -0.42425E+08
 
   -0.41789E+08         0.13875E+07         0.00000E+00
    0.13875E+07        -0.50001E+08         0.00000E+00
    0.00000E+00         0.00000E+00        -0.42431E+08
 
   -0.41817E+08         0.14605E+07         0.00000E+00
    0.14605E+07        -0.50001E+08         0.00000E+00
    0.00000E+00         0.00000E+00        -0.42436E+08
 
   -0.41845E+08         0.15338E+07         0.00000E+00
    0.15338E+07        -0.50000E+08         0.00000E+00
    0.00000E+00         0.00000E+00        -0.42442E+08
 
   -0.41872E+08         0.16073E+07         0.00000E+00
    0.16073E+07        -0.49999E+08         0.00000E+00
    0.00000E+00         0.00000E+00        -0.42447E+08
 
   -0.41899E+08         0.16812E+07         0.00000E+00
    0.16812E+07        -0.49998E+08         0.00000E+00
    0.00000E+00         0.00000E+00        -0.42452E+08
 
   -0.41926E+08         0.17554E+07         0.00000E+00
    0.17554E+07        -0.49997E+08         0.00000E+00
    0.00000E+00         0.00000E+00        -0.42457E+08
 
   -0.41952E+08         0.18300E+07         0.00000E+00
    0.18300E+07        -0.49996E+08         0.00000E+00
    0.00000E+00         0.00000E+00        -0.42462E+08
 
   -0.41978E+08         0.19049E+07         0.00000E+00
    0.19049E+07        -0.49994E+08         0.00000E+00
    0.00000E+00         0.00000E+00        -0.42467E+08
 
   -0.42003E+08         0.19802E+07         0.00000E+00
    0.19802E+07        -0.49992E+08         0.00000E+00
    0.00000E+00         0.00000E+00        -0.42472E+08
 
   -0.42029E+08         0.20558E+07         0.00000E+00
    0.20558E+07        -0.49990E+08         0.00000E+00
    0.00000E+00         0.00000E+00        -0.42476E+08
 
   -0.42054E+08         0.21319E+07         0.00000E+00
    0.21319E+07        -0.49988E+08         0.00000E+00
    0.00000E+00         0.00000E+00        -0.42481E+08
 
   -0.42079E+08         0.22084E+07         0.00000E+00
    0.22084E+07        -0.49985E+08         0.00000E+00
    0.00000E+00         0.00000E+00        -0.42485E+08
 
   -0.42103E+08         0.22852E+07         0.00000E+00
    0.22852E+07        -0.49982E+08         0.00000E+00
    0.00000E+00         0.00000E+00        -0.42490E+08
 
   -0.42128E+08         0.23625E+07         0.00000E+00
    0.23625E+07        -0.49979E+08         0.00000E+00
    0.00000E+00         0.00000E+00        -0.42494E+08
 
   -0.42152E+08         0.24403E+07         0.00000E+00
    0.24403E+07        -0.49975E+08         0.00000E+00
    0.00000E+00         0.00000E+00        -0.42498E+08
 
   -0.42176E+08         0.25184E+07         0.00000E+00
    0.25184E+07        -0.49971E+08         0.00000E+00
    0.00000E+00         0.00000E+00        -0.42502E+08
 
   -0.42201E+08         0.25970E+07         0.00000E+00
    0.25970E+07        -0.49967E+08         0.00000E+00
    0.00000E+00         0.00000E+00        -0.42506E+08
 
   -0.42225E+08         0.26761E+07         0.00000E+00
    0.26761E+07        -0.49963E+08         0.00000E+00
    0.00000E+00         0.00000E+00        -0.42510E+08
 
   -0.42249E+08         0.27556E+07         0.00000E+00
    0.27556E+07        -0.49958E+08         0.00000E+00
    0.00000E+00         0.00000E+00        -0.42514E+08
 
   -0.42273E+08         0.28356E+07         0.00000E+00
    0.28356E+07        -0.49952E+08         0.00000E+00
    0.00000E+00         0.00000E+00        -0.42518E+08
 
   -0.42297E+08         0.29161E+07         0.00000E+00
    0.29161E+07        -0.49947E+08         0.00000E+00
    0.00000E+00         0.00000E+00        -0.42521E+08
 
   -0.42321E+08         0.29971E+07         0.00000E+00
    0.29971E+07        -0.49940E+08         0.00000E+00
    0.00000E+00         0.00000E+00        -0.42525E+08
 
   -0.42345E+08         0.30786E+07         0.00000E+00
    0.30786E+07        -0.49934E+08         0.00000E+00
    0.00000E+00         0.00000E+00        -0.42528E+08
 
   -0.42369E+08         0.31605E+07         0.00000E+00
    0.31605E+07        -0.49927E+08         0.00000E+00
    0.00000E+00         0.00000E+00        -0.42532E+08
 
   -0.42393E+08         0.32430E+07         0.00000E+00
    0.32430E+07        -0.49919E+08         0.00000E+00
    0.00000E+00         0.00000E+00        -0.42535E+08
 
   -0.42418E+08         0.33260E+07         0.00000E+00
    0.33260E+07        -0.49911E+08         0.00000E+00
    0.00000E+00         0.00000E+00        -0.42538E+08
 
   -0.42442E+08         0.34095E+07         0.00000E+00
    0.34095E+07        -0.49902E+08         0.00000E+00
    0.00000E+00         0.00000E+00        -0.42542E+08
 
   -0.42467E+08         0.34935E+07         0.00000E+00
    0.34935E+07        -0.49893E+08         0.00000E+00
    0.00000E+00         0.00000E+00        -0.42545E+08
 
   -0.42492E+08         0.35781E+07         0.00000E+00
    0.35781E+07        -0.49884E+08         0.00000E+00
    0.00000E+00         0.00000E+00        -0.42548E+08
 
   -0.42517E+08         0.36632E+07         0.00000E+00
    0.36632E+07        -0.49873E+08         0.00000E+00
    0.00000E+00         0.00000E+00        -0.42551E+08
 
   -0.42542E+08         0.37488E+07         0.00000E+00
    0.37488E+07        -0.49863E+08         0.00000E+00
    0.00000E+00         0.00000E+00        -0.42554E+08
 
   -0.40794E+08         0.35140E+05         0.00000E+00
    0.35140E+05        -0.50000E+08         0.00000E+00
    0.00000E+00         0.00000E+00        -0.41872E+08
 
   -0.40834E+08         0.10532E+06         0.00000E+00
    0.10532E+06        -0.50000E+08         0.00000E+00
    0.00000E+00         0.00000E+00        -0.41880E+08
 
   -0.40874E+08         0.17549E+06         0.00000E+00
    0.17549E+06        -0.50000E+08         0.00000E+00
    0.00000E+00         0.00000E+00        -0.41888E+08
 
   -0.40912E+08         0.24567E+06         0.00000E+00
    0.24567E+06        -0.50000E+08         0.00000E+00
    0.00000E+00         0.00000E+00        -0.41895E+08
 
   -0.40950E+08         0.31589E+06         0.00000E+00
    0.31589E+06        -0.50001E+08         0.00000E+00
    0.00000E+00         0.00000E+00        -0.41903E+08
 
   -0.40986E+08         0.38616E+06         0.00000E+00
    0.38616E+06        -0.50001E+08         0.00000E+00
    0.00000E+00         0.00000E+00        -0.41910E+08
 
   -0.41022E+08         0.45651E+06         0.00000E+00
    0.45651E+06        -0.50002E+08         0.00000E+00
    0.00000E+00         0.00000E+00        -0.41918E+08
 
   -0.41057E+08         0.52697E+06         0.00000E+00
    0.52697E+06        -0.50002E+08         0.00000E+00
    0.00000E+00         0.00000E+00        -0.41925E+08
 
   -0.41092E+08         0.59755E+06         0.00000E+00
    0.59755E+06        -0.50003E+08         0.00000E+00
    0.00000E+00         0.00000E+00        -0.41932E+08
 
   -0.41125E+08         0.66827E+06         0.00000E+00
    0.66827E+06        -0.50004E+08         0.00000E+00
    0.00000E+00         0.00000E+00        -0.41939E+08
 
   -0.41158E+08         0.73916E+06         0.00000E+00
    0.73916E+06        -0.50004E+08         0.00000E+00
    0.00000E+00         0.00000E+00        -0.41945E+08
 
   -0.41190E+08         0.81023E+06         0.00000E+00
    0.81023E+06        -0.50005E+08         0.00000E+00
    0.00000E+00         0.00000E+00        -0.41952E+08
 
   -0.41221E+08         0.88151E+06         0.00000E+00
    0.88151E+06        -0.50006E+08         0.00000E+00
    0.00000E+00         0.00000E+00        -0.41958E+08
 
   -0.41252E+08         0.95301E+06         0.00000E+00
    0.95301E+06        -0.50007E+08         0.00000E+00
    0.00000E+00         0.00000E+00        -0.41965E+08
 
   -0.41282E+08         0.10248E+07         0.00000E+00
    0.10248E+07        -0.50007E+08         0.00000E+00
    0.00000E+00         0.00000E+00        -0.41971E+08
 
   -0.41312E+08         0.10968E+07         0.00000E+00
    0.10968E+07        -0.50008E+08         0.00000E+00
    0.00000E+00         0.00000E+00        -0.41977E+08
 
   -0.41340E+08         0.11691E+07         0.00000E+00
    0.11691E+07        -0.50009E+08         0.00000E+00
    0.00000E+00         0.00000E+00        -0.41983E+08
 
   -0.41369E+08         0.12416E+07         0.00000E+00
    0.12416E+07        -0.50009E+08         0.00000E+00
    0.00000E+00         0.00000E+00        -0.41989E+08
 
   -0.41396E+08         0.13146E+07         0.00000E+00
    0.13146E+07        -0.50010E+08         0.00000E+00
    0.00000E+00         0.00000E+00        -0.41994E+08
 
   -0.41423E+08         0.13878E+07         0.00000E+00
    0.13878E+07        -0.50010E+08         0.00000E+00
    0.00000E+00         0.00000E+00        -0.42000E+08
 
   -0.41450E+08         0.14614E+07         0.00000E+00
    0.14614E+07        -0.50011E+08         0.00000E+00
    0.00000E+00         0.00000E+00        -0.42005E+08
 
   -0.41476E+08         0.15353E+07         0.00000E+00
    0.15353E+07        -0.50011E+08         0.00000E+00
    0.00000E+00         0.00000E+00        -0.42010E+08
 
   -0.41501E+08         0.16096E+07         0.00000E+00
    0.16096E+07        -0.50011E+08         0.00000E+00
    0.00000E+00         0.00000E+00        -0.42015E+08
 
   -0.41527E+08         0.16843E+07         0.00000E+00
    0.16843E+07        -0.50011E+08         0.00000E+00
    0.00000E+00         0.00000E+00        -0.42020E+08
 
   -0.41551E+08         0.17595E+07         0.00000E+00
    0.17595E+07        -0.50011E+08         0.00000E+00
    0.00000E+00         0.00000E+00        -0.42025E+08
 
   -0.41575E+08         0.18350E+07         0.00000E+00
    0.18350E+07        -0.50011E+08         0.00000E+00
    0.00000E+00         0.00000E+00        -0.42030E+08
 
   -0.41599E+08         0.19110E+07         0.00000E+00
    0.19110E+07        -0.50010E+08         0.00000E+00
    0.00000E+00         0.00000E+00        -0.42035E+08
 
   -0.41623E+08         0.19874E+07         0.00000E+00
    0.19874E+07        -0.50009E+08         0.00000E+00
    0.00000E+00         0.00000E+00        -0.42039E+08
 
   -0.41646E+08         0.20642E+07         0.00000E+00
    0.20642E+07        -0.50008E+08         0.00000E+00
    0.00000E+00         0.00000E+00        -0.42044E+08
 
   -0.41669E+08         0.21416E+07         0.00000E+00
    0.21416E+07        -0.50007E+08         0.00000E+00
    0.00000E+00         0.00000E+00        -0.42048E+08
 
   -0.41692E+08         0.22194E+07         0.00000E+00
    0.22194E+07        -0.50006E+08         0.00000E+00
    0.00000E+00         0.00000E+00        -0.42052E+08
 
   -0.41714E+08         0.22977E+07         0.00000E+00
    0.22977E+07        -0.50004E+08         0.00000E+00
    0.00000E+00         0.00000E+00        -0.42057E+08
 
   -0.41736E+08         0.23765E+07         0.00000E+00
    0.23765E+07        -0.50002E+08         0.00000E+00
    0.00000E+00         0.00000E+00        -0.42061E+08
 
   -0.41758E+08         0.24558E+07         0.00000E+00
    0.24558E+07        -0.49999E+08         0.00000E+00
    0.00000E+00         0.00000E+00        -0.42065E+08
 
   -0.41780E+08         0.25357E+07         0.00000E+00
    0.25357E+07        -0.49997E+08         0.00000E+00
    0.00000E+00         0.00000E+00        -0.42068E+08
 
   -0.41802E+08         0.26161E+07         0.00000E+00
    0.26161E+07        -0.49994E+08         0.00000E+00
    0.00000E+00         0.00000E+00        -0.42072E+08
 
   -0.41823E+08         0.26970E+07         0.00000E+00
    0.26970E+07        -0.49990E+08         0.00000E+00
    0.00000E+00         0.00000E+00        -0.42076E+08
 
   -0.41845E+08         0.27784E+07         0.00000E+00
    0.27784E+07        -0.49987E+08         0.00000E+00
    0.00000E+00         0.00000E+00        -0.42079E+08
 
   -0.41866E+08         0.28604E+07         0.00000E+00
    0.28604E+07        -0.49983E+08         0.00000E+00
    0.00000E+00         0.00000E+00        -0.42083E+08
 
   -0.41888E+08         0.29430E+07         0.00000E+00
    0.29430E+07        -0.49978E+08         0.00000E+00
    0.00000E+00         0.00000E+00        -0.42086E+08
 
   -0.41909E+08         0.30261E+07         0.00000E+00
    0.30261E+07        -0.49973E+08         0.00000E+00
    0.00000E+00         0.00000E+00        -0.42089E+08
 
   -0.41930E+08         0.31099E+07         0.00000E+00
    0.31099E+07        -0.49968E+08         0.00000E+00
    0.00000E+00         0.00000E+00        -0.42093E+08
 
   -0.41952E+08         0.31942E+07         0.00000E+00
    0.31942E+07        -0.49962E+08         0.00000E+00
    0.00000E+00         0.00000E+00        -0.42096E+08
 
   -0.41973E+08         0.32791E+07         0.00000E+00
    0.32791E+07        -0.49956E+08         0.00000E+00
    0.00000E+00         0.00000E+00        -0.42099E+08
 
   -0.41995E+08         0.33646E+07         0.00000E+00
    0.33646E+07        -0.49949E+08         0.00000E+00
    0.00000E+00         0.00000E+00        -0.42102E+08
 
   -0.42017E+08         0.34507E+07         0.00000E+00
    0.34507E+07        -0.49942E+08         0.00000E+00
    0.00000E+00         0.00000E+00        -0.42105E+08
 
   -0.42039E+08         0.35374E+07         0.00000E+00
    0.35374E+07        -0.49934E+08         0.00000E+00
    0.00000E+00         0.00000E+00        -0.42107E+08
 
   -0.42061E+08         0.36247E+07         0.00000E+00
    0.36247E+07        -0.49925E+08         0.00000E+00
    0.00000E+00         0.00000E+00        -0.42110E+08
 
   -0.42083E+08         0.37126E+07         0.00000E+00
    0.37126E+07        -0.49916E+08         0.00000E+00
    0.00000E+00         0.00000E+00        -0.42113E+08
 
   -0.42105E+08         0.38012E+07         0.00000E+00
    0.38012E+07        -0.49907E+08         0.00000E+00
    0.00000E+00         0.00000E+00        -0.42115E+08
 
   -0.40445E+08         0.34762E+05         0.00000E+00
    0.34762E+05        -0.50000E+08         0.00000E+00
    0.00000E+00         0.00000E+00        -0.41429E+08
 
   -0.40485E+08         0.10426E+06         0.00000E+00
    0.10426E+06        -0.50000E+08         0.00000E+00
    0.00000E+00         0.00000E+00        -0.41437E+08
 
   -0.40524E+08         0.17379E+06         0.00000E+00
    0.17379E+06        -0.50000E+08         0.00000E+00
    0.00000E+00         0.00000E+00        -0.41445E+08
 
   -0.40562E+08         0.24336E+06         0.00000E+00
    0.24336E+06        -0.50001E+08         0.00000E+00
    0.00000E+00         0.00000E+00        -0.41452E+08
 
   -0.40600E+08         0.31302E+06         0.00000E+00
    0.31302E+06        -0.50001E+08         0.00000E+00
    0.00000E+00         0.00000E+00        -0.41460E+08
 
   -0.40636E+08         0.38278E+06         0.00000E+00
    0.38278E+06        -0.50002E+08         0.00000E+00
    0.00000E+00         0.00000E+00        -0.41467E+08
 
   -0.40671E+08         0.45266E+06         0.00000E+00
    0.45266E+06        -0.50003E+08         0.00000E+00
    0.00000E+00         0.00000E+00        -0.41475E+08
 
   -0.40706E+08         0.52270E+06         0.00000E+00
    0.52270E+06        -0.50004E+08         0.00000E+00
    0.00000E+00         0.00000E+00        -0.41482E+08
 
   -0.40739E+08         0.59292E+06         0.00000E+00
    0.59292E+06        -0.50005E+08         0.00000E+00
    0.00000E+00         0.00000E+00        -0.41489E+08
 
   -0.40772E+08         0.66333E+06         0.00000E+00
    0.66333E+06        -0.50006E+08         0.00000E+00
    0.00000E+00         0.00000E+00        -0.41495E+08
 
   -0.40804E+08         0.73398E+06         0.00000E+00
    0.73398E+06        -0.50008E+08         0.00000E+00
    0.00000E+00         0.00000E+00        -0.41502E+08
 
   -0.40834E+08         0.80486E+06         0.00000E+00
    0.80486E+06        -0.50009E+08         0.00000E+00
    0.00000E+00         0.00000E+00        -0.41509E+08
 
   -0.40865E+08         0.87602E+06         0.00000E+00
    0.87602E+06        -0.50011E+08         0.00000E+00
    0.00000E+00         0.00000E+00        -0.41515E+08
 
   -0.40894E+08         0.94746E+06         0.00000E+00
    0.94746E+06        -0.50012E+08         0.00000E+00
    0.00000E+00         0.00000E+00        -0.41521E+08
 
   -0.40923E+08         0.10192E+07         0.00000E+00
    0.10192E+07        -0.50014E+08         0.00000E+00
    0.00000E+00         0.00000E+00        -0.41527E+08
 
   -0.40950E+08         0.10913E+07         0.00000E+00
    0.10913E+07        -0.50015E+08         0.00000E+00
    0.00000E+00         0.00000E+00        -0.41533E+08
 
   -0.40978E+08         0.11637E+07         0.00000E+00
    0.11637E+07        -0.50017E+08         0.00000E+00
    0.00000E+00         0.00000E+00        -0.41539E+08
 
   -0.41004E+08         0.12366E+07         0.00000E+00
    0.12366E+07        -0.50018E+08         0.00000E+00
    0.00000E+00         0.00000E+00        -0.41544E+08
 
   -0.41030E+08         0.13097E+07         0.00000E+00
    0.13097E+07        -0.50020E+08         0.00000E+00
    0.00000E+00         0.00000E+00        -0.41550E+08
 
   -0.41055E+08         0.13834E+07         0.00000E+00
    0.13834E+07        -0.50021E+08         0.00000E+00
    0.00000E+00         0.00000E+00        -0.41555E+08
 
   -0.41080E+08         0.14574E+07         0.00000E+00
    0.14574E+07        -0.50022E+08         0.00000E+00
    0.00000E+00         0.00000E+00        -0.41560E+08
 
   -0.41104E+08         0.15318E+07         0.00000E+00
    0.15318E+07        -0.50024E+08         0.00000E+00
    0.00000E+00         0.00000E+00        -0.41565E+08
 
   -0.41127E+08         0.16068E+07         0.00000E+00
    0.16068E+07        -0.50025E+08         0.00000E+00
    0.00000E+00         0.00000E+00        -0.41570E+08
 
   -0.41150E+08         0.16822E+07         0.00000E+00
    0.16822E+07        -0.50026E+08         0.00000E+00
    0.00000E+00         0.00000E+00        -0.41575E+08
 
   -0.41173E+08         0.17580E+07         0.00000E+00
    0.17580E+07        -0.50027E+08         0.00000E+00
    0.00000E+00         0.00000E+00        -0.41580E+08
 
   -0.41194E+08         0.18344E+07         0.00000E+00
    0.18344E+07        -0.50028E+08         0.00000E+00
    0.00000E+00         0.00000E+00        -0.41584E+08
 
   -0.41216E+08         0.19113E+07         0.00000E+00
    0.19113E+07        -0.50028E+08         0.00000E+00
    0.00000E+00         0.00000E+00        -0.41589E+08
 
   -0.41237E+08         0.19887E+07         0.00000E+00
    0.19887E+07        -0.50029E+08         0.00000E+00
    0.00000E+00         0.00000E+00        -0.41593E+08
 
   -0.41258E+08         0.20667E+07         0.00000E+00
    0.20667E+07        -0.50029E+08         0.00000E+00
    0.00000E+00         0.00000E+00        -0.41597E+08
 
   -0.41278E+08         0.21452E+07         0.00000E+00
    0.21452E+07        -0.50029E+08         0.00000E+00
    0.00000E+00         0.00000E+00        -0.41601E+08
 
   -0.41298E+08         0.22243E+07         0.00000E+00
    0.22243E+07        -0.50029E+08         0.00000E+00
    0.00000E+00         0.00000E+00        -0.41605E+08
 
   -0.41318E+08         0.23039E+07         0.00000E+00
    0.23039E+07        -0.50029E+08         0.00000E+00
    0.00000E+00         0.00000E+00        -0.41609E+08
 
   -0.41337E+08         0.23842E+07         0.00000E+00
    0.23842E+07        -0.50028E+08         0.00000E+00
    0.00000E+00         0.00000E+00        -0.41613E+08
 
   -0.41356E+08         0.24650E+07         0.00000E+00
    0.24650E+07        -0.50027E+08         0.00000E+00
    0.00000E+00         0.00000E+00        -0.41617E+08
 
   -0.41375E+08         0.25465E+07         0.00000E+00
    0.25465E+07        -0.50026E+08         0.00000E+00
    0.00000E+00         0.00000E+00        -0.41620E+08
 
   -0.41394E+08         0.26285E+07         0.00000E+00
    0.26285E+07        -0.50024E+08         0.00000E+00
    0.00000E+00         0.00000E+00        -0.41624E+08
 
   -0.41413E+08         0.27112E+07         0.00000E+00
    0.27112E+07        -0.50022E+08         0.00000E+00
    0.00000E+00         0.00000E+00        -0.41627E+08
 
   -0.41431E+08         0.27945E+07         0.00000E+00
    0.27945E+07        -0.50020E+08         0.00000E+00
    0.00000E+00         0.00000E+00        -0.41630E+08
 
   -0.41450E+08         0.28785E+07         0.00000E+00
    0.28785E+07        -0.50017E+08         0.00000E+00
    0.00000E+00         0.00000E+00        -0.41633E+08
 
   -0.41468E+08         0.29631E+07         0.00000E+00
    0.29631E+07        -0.50014E+08         0.00000E+00
    0.00000E+00         0.00000E+00        -0.41636E+08
 
   -0.41486E+08         0.30484E+07         0.00000E+00
    0.30484E+07        -0.50011E+08         0.00000E+00
    0.00000E+00         0.00000E+00        -0.41639E+08
 
   -0.41505E+08         0.31343E+07         0.00000E+00
    0.31343E+07        -0.50007E+08         0.00000E+00
    0.00000E+00         0.00000E+00        -0.41642E+08
 
   -0.41523E+08         0.32209E+07         0.00000E+00
    0.32209E+07        -0.50002E+08         0.00000E+00
    0.00000E+00         0.00000E+00        -0.41645E+08
 
   -0.41541E+08         0.33082E+07         0.00000E+00
    0.33082E+07        -0.49997E+08         0.00000E+00
    0.00000E+00         0.00000E+00        -0.41648E+08
 
   -0.41560E+08         0.33962E+07         0.00000E+00
    0.33962E+07        -0.49992E+08         0.00000E+00
    0.00000E+00         0.00000E+00        -0.41650E+08
 
   -0.41578E+08         0.34849E+07         0.00000E+00
    0.34849E+07        -0.49986E+08         0.00000E+00
    0.00000E+00         0.00000E+00        -0.41653E+08
 
   -0.41597E+08         0.35742E+07         0.00000E+00
    0.35742E+07        -0.49980E+08         0.00000E+00
    0.00000E+00         0.00000E+00        -0.41655E+08
 
   -0.41615E+08         0.36643E+07         0.00000E+00
    0.36643E+07        -0.49973E+08         0.00000E+00
    0.00000E+00         0.00000E+00        -0.41658E+08
 
   -0.41634E+08         0.37550E+07         0.00000E+00
    0.37550E+07        -0.49966E+08         0.00000E+00
    0.00000E+00         0.00000E+00        -0.41660E+08
 
   -0.41654E+08         0.38465E+07         0.00000E+00
    0.38465E+07        -0.49958E+08         0.00000E+00
    0.00000E+00         0.00000E+00        -0.41662E+08
 
   -0.40100E+08         0.34210E+05         0.00000E+00
    0.34210E+05        -0.50000E+08         0.00000E+00
    0.00000E+00         0.00000E+00        -0.40973E+08
 
   -0.40140E+08         0.10269E+06         0.00000E+00
    0.10269E+06        -0.50000E+08         0.00000E+00
    0.00000E+00         0.00000E+00        -0.40981E+08
 
   -0.40179E+08         0.17124E+06         0.00000E+00
    0.17124E+06        -0.50000E+08         0.00000E+00
    0.00000E+00         0.00000E+00        -0.40989E+08
 
   -0.40216E+08         0.23989E+06         0.00000E+00
    0.23989E+06        -0.50001E+08         0.00000E+00
    0.00000E+00         0.00000E+00        -0.40997E+08
 
   -0.40253E+08         0.30867E+06         0.00000E+00
    0.30867E+06        -0.50002E+08         0.00000E+00
    0.00000E+00         0.00000E+00        -0.41004E+08
 
   -0.40289E+08         0.37759E+06         0.00000E+00
    0.37759E+06        -0.50003E+08         0.00000E+00
    0.00000E+00         0.00000E+00        -0.41012E+08
 
   -0.40323E+08         0.44671E+06         0.00000E+00
    0.44671E+06        -0.50004E+08         0.00000E+00
    0.00000E+00         0.00000E+00        -0.41019E+08
 
   -0.40357E+08         0.51603E+06         0.00000E+00
    0.51603E+06        -0.50006E+08         0.00000E+00
    0.00000E+00         0.00000E+00        -0.41026E+08
 
   -0.40389E+08         0.58559E+06         0.00000E+00
    0.58559E+06        -0.50008E+08         0.00000E+00
    0.00000E+00         0.00000E+00        -0.41033E+08
 
   -0.40420E+08         0.65542E+06         0.00000E+00
    0.65542E+06        -0.50010E+08         0.00000E+00
    0.00000E+00         0.00000E+00        -0.41039E+08
 
   -0.40451E+08         0.72554E+06         0.00000E+00
    0.72554E+06        -0.50011E+08         0.00000E+00
    0.00000E+00         0.00000E+00        -0.41046E+08
 
   -0.40480E+08         0.79597E+06         0.00000E+00
    0.79597E+06        -0.50014E+08         0.00000E+00
    0.00000E+00         0.00000E+00        -0.41052E+08
 
   -0.40509E+08         0.86674E+06         0.00000E+00
    0.86674E+06        -0.50016E+08         0.00000E+00
    0.00000E+00         0.00000E+00        -0.41058E+08
 
   -0.40537E+08         0.93788E+06         0.00000E+00
    0.93788E+06        -0.50018E+08         0.00000E+00
    0.00000E+00         0.00000E+00        -0.41064E+08
 
   -0.40563E+08         0.10094E+07         0.00000E+00
    0.10094E+07        -0.50021E+08         0.00000E+00
    0.00000E+00         0.00000E+00        -0.41070E+08
 
   -0.40589E+08         0.10813E+07         0.00000E+00
    0.10813E+07        -0.50023E+08         0.00000E+00
    0.00000E+00         0.00000E+00        -0.41076E+08
 
   -0.40615E+08         0.11537E+07         0.00000E+00
    0.11537E+07        -0.50026E+08         0.00000E+00
    0.00000E+00         0.00000E+00        -0.41081E+08
 
   -0.40639E+08         0.12265E+07         0.00000E+00
    0.12265E+07        -0.50028E+08         0.00000E+00
    0.00000E+00         0.00000E+00        -0.41087E+08
 
   -0.40663E+08         0.12998E+07         0.00000E+00
    0.12998E+07        -0.50031E+08         0.00000E+00
    0.00000E+00         0.00000E+00        -0.41092E+08
 
   -0.40685E+08         0.13736E+07         0.00000E+00
    0.13736E+07        -0.50033E+08         0.00000E+00
    0.00000E+00         0.00000E+00        -0.41097E+08
 
   -0.40708E+08         0.14478E+07         0.00000E+00
    0.14478E+07        -0.50036E+08         0.00000E+00
    0.00000E+00         0.00000E+00        -0.41102E+08
 
   -0.40729E+08         0.15227E+07         0.00000E+00
    0.15227E+07        -0.50038E+08         0.00000E+00
    0.00000E+00         0.00000E+00        -0.41107E+08
 
   -0.40750E+08         0.15980E+07         0.00000E+00
    0.15980E+07        -0.50041E+08         0.00000E+00
    0.00000E+00         0.00000E+00        -0.41112E+08
 
   -0.40770E+08         0.16739E+07         0.00000E+00
    0.16739E+07        -0.50043E+08         0.00000E+00
    0.00000E+00         0.00000E+00        -0.41116E+08
 
   -0.40790E+08         0.17504E+07         0.00000E+00
    0.17504E+07        -0.50045E+08         0.00000E+00
    0.00000E+00         0.00000E+00        -0.41120E+08
 
   -0.40809E+08         0.18275E+07         0.00000E+00
    0.18275E+07        -0.50047E+08         0.00000E+00
    0.00000E+00         0.00000E+00        -0.41125E+08
 
   -0.40828E+08         0.19052E+07         0.00000E+00
    0.19052E+07        -0.50049E+08         0.00000E+00
    0.00000E+00         0.00000E+00        -0.41129E+08
 
   -0.40846E+08         0.19835E+07         0.00000E+00
    0.19835E+07        -0.50051E+08         0.00000E+00
    0.00000E+00         0.00000E+00        -0.41133E+08
 
   -0.40864E+08         0.20624E+07         0.00000E+00
    0.20624E+07        -0.50053E+08         0.00000E+00
    0.00000E+00         0.00000E+00        -0.41137E+08
 
   -0.40881E+08         0.21420E+07         0.00000E+00
    0.21420E+07        -0.50055E+08         0.00000E+00
    0.00000E+00         0.00000E+00        -0.41141E+08
 
   -0.40898E+08         0.22222E+07         0.00000E+00
    0.22222E+07        -0.50056E+08         0.00000E+00
    0.00000E+00         0.00000E+00        -0.41144E+08
 
   -0.40915E+08         0.23031E+07         0.00000E+00
    0.23031E+07        -0.50057E+08         0.00000E+00
    0.00000E+00         0.00000E+00        -0.41148E+08
 
   -0.40931E+08         0.23847E+07         0.00000E+00
    0.23847E+07        -0.50058E+08         0.00000E+00
    0.00000E+00         0.00000E+00        -0.41151E+08
 
   -0.40947E+08         0.24670E+07         0.00000E+00
    0.24670E+07        -0.50058E+08         0.00000E+00
    0.00000E+00         0.00000E+00        -0.41154E+08
 
   -0.40963E+08         0.25499E+07         0.00000E+00
    0.25499E+07        -0.50059E+08         0.00000E+00
    0.00000E+00         0.00000E+00        -0.41158E+08
 
   -0.40978E+08         0.26336E+07         0.00000E+00
    0.26336E+07        -0.50059E+08         0.00000E+00
    0.00000E+00         0.00000E+00        -0.41161E+08
 
   -0.40993E+08         0.27180E+07         0.00000E+00
    0.27180E+07        -0.50058E+08         0.00000E+00
    0.00000E+00         0.00000E+00        -0.41164E+08
 
   -0.41008E+08         0.28031E+07         0.00000E+00
    0.28031E+07        -0.50057E+08         0.00000E+00
    0.00000E+00         0.00000E+00        -0.41167E+08
 
   -0.41023E+08         0.28890E+07         0.00000E+00
    0.28890E+07        -0.50056E+08         0.00000E+00
    0.00000E+00         0.00000E+00        -0.41169E+08
 
   -0.41038E+08         0.29756E+07         0.00000E+00
    0.29756E+07        -0.50055E+08         0.00000E+00
    0.00000E+00         0.00000E+00        -0.41172E+08
 
   -0.41053E+08         0.30629E+07         0.00000E+00
    0.30629E+07        -0.50053E+08         0.00000E+00
    0.00000E+00         0.00000E+00        -0.41175E+08
 
   -0.41068E+08         0.31510E+07         0.00000E+00
    0.31510E+07        -0.50051E+08         0.00000E+00
    0.00000E+00         0.00000E+00        -0.41177E+08
 
   -0.41082E+08         0.32399E+07         0.00000E+00
    0.32399E+07        -0.50048E+08         0.00000E+00
    0.00000E+00         0.00000E+00        -0.41179E+08
 
   -0.41097E+08         0.33295E+07         0.00000E+00
    0.33295E+07        -0.50045E+08         0.00000E+00
    0.00000E+00         0.00000E+00        -0.41182E+08
 
   -0.41112E+08         0.34199E+07         0.00000E+00
    0.34199E+07        -0.50041E+08         0.00000E+00
    0.00000E+00         0.00000E+00        -0.41184E+08
 
   -0.41127E+08         0.35111E+07         0.00000E+00
    0.35111E+07        -0.50037E+08         0.00000E+00
    0.00000E+00         0.00000E+00        -0.41186E+08
 
   -0.41141E+08         0.36031E+07         0.00000E+00
    0.36031E+07        -0.50032E+08         0.00000E+00
    0.00000E+00         0.00000E+00        -0.41188E+08
 
   -0.41156E+08         0.36959E+07         0.00000E+00
    0.36959E+07        -0.50027E+08         0.00000E+00
    0.00000E+00         0.00000E+00        -0.41190E+08
 
   -0.41172E+08         0.37895E+07         0.00000E+00
    0.37895E+07        -0.50022E+08         0.00000E+00
    0.00000E+00         0.00000E+00        -0.41192E+08
 
   -0.41187E+08         0.38839E+07         0.00000E+00
    0.38839E+07        -0.50015E+08         0.00000E+00
    0.00000E+00         0.00000E+00        -0.41194E+08
 
   -0.39761E+08         0.33457E+05         0.00000E+00
    0.33457E+05        -0.50000E+08         0.00000E+00
    0.00000E+00         0.00000E+00        -0.40506E+08
 
   -0.39801E+08         0.10053E+06         0.00000E+00
    0.10053E+06        -0.50000E+08         0.00000E+00
    0.00000E+00         0.00000E+00        -0.40514E+08
 
   -0.39839E+08         0.16773E+06         0.00000E+00
    0.16773E+06        -0.50001E+08         0.00000E+00
    0.00000E+00         0.00000E+00        -0.40521E+08
 
   -0.39876E+08         0.23507E+06         0.00000E+00
    0.23507E+06        -0.50002E+08         0.00000E+00
    0.00000E+00         0.00000E+00        -0.40529E+08
 
   -0.39912E+08         0.30259E+06         0.00000E+00
    0.30259E+06        -0.50003E+08         0.00000E+00
    0.00000E+00         0.00000E+00        -0.40536E+08
 
   -0.39946E+08         0.37033E+06         0.00000E+00
    0.37033E+06        -0.50004E+08         0.00000E+00
    0.00000E+00         0.00000E+00        -0.40544E+08
 
   -0.39980E+08         0.43832E+06         0.00000E+00
    0.43832E+06        -0.50006E+08         0.00000E+00
    0.00000E+00         0.00000E+00        -0.40551E+08
 
   -0.40012E+08         0.50659E+06         0.00000E+00
    0.50659E+06        -0.50008E+08         0.00000E+00
    0.00000E+00         0.00000E+00        -0.40557E+08
 
   -0.40043E+08         0.57516E+06         0.00000E+00
    0.57516E+06        -0.50011E+08         0.00000E+00
    0.00000E+00         0.00000E+00        -0.40564E+08
 
   -0.40073E+08         0.64408E+06         0.00000E+00
    0.64408E+06        -0.50013E+08         0.00000E+00
    0.00000E+00         0.00000E+00        -0.40571E+08
 
   -0.40101E+08         0.71336E+06         0.00000E+00
    0.71336E+06        -0.50016E+08         0.00000E+00
    0.00000E+00         0.00000E+00        -0.40577E+08
 
   -0.40129E+08         0.78303E+06         0.00000E+00
    0.78303E+06        -0.50019E+08         0.00000E+00
    0.00000E+00         0.00000E+00        -0.40583E+08
 
   -0.40156E+08         0.85313E+06         0.00000E+00
    0.85313E+06        -0.50022E+08         0.00000E+00
    0.00000E+00         0.00000E+00        -0.40589E+08
 
   -0.40181E+08         0.92368E+06         0.00000E+00
    0.92368E+06        -0.50025E+08         0.00000E+00
    0.00000E+00         0.00000E+00        -0.40595E+08
 
   -0.40206E+08         0.99469E+06         0.00000E+00
    0.99469E+06        -0.50029E+08         0.00000E+00
    0.00000E+00         0.00000E+00        -0.40600E+08
 
   -0.40230E+08         0.10662E+07         0.00000E+00
    0.10662E+07        -0.50032E+08         0.00000E+00
    0.00000E+00         0.00000E+00        -0.40606E+08
 
   -0.40252E+08         0.11382E+07         0.00000E+00
    0.11382E+07        -0.50036E+08         0.00000E+00
    0.00000E+00         0.00000E+00        -0.40611E+08
 
   -0.40274E+08         0.12108E+07         0.00000E+00
    0.12108E+07        -0.50040E+08         0.00000E+00
    0.00000E+00         0.00000E+00        -0.40616E+08
 
   -0.40295E+08         0.12840E+07         0.00000E+00
    0.12840E+07        -0.50043E+08         0.00000E+00
    0.00000E+00         0.00000E+00        -0.40621E+08
 
   -0.40315E+08         0.13577E+07         0.00000E+00
    0.13577E+07        -0.50047E+08         0.00000E+00
    0.00000E+00         0.00000E+00        -0.40626E+08
 
   -0.40335E+08         0.14320E+07         0.00000E+00
    0.14320E+07        -0.50051E+08         0.00000E+00
    0.00000E+00         0.00000E+00        -0.40631E+08
 
   -0.40353E+08         0.15070E+07         0.00000E+00
    0.15070E+07        -0.50055E+08         0.00000E+00
    0.00000E+00         0.00000E+00        -0.40635E+08
 
   -0.40371E+08         0.15826E+07         0.00000E+00
    0.15826E+07        -0.50059E+08         0.00000E+00
    0.00000E+00         0.00000E+00        -0.40639E+08
 
   -0.40388E+08         0.16588E+07         0.00000E+00
    0.16588E+07        -0.50063E+08         0.00000E+00
    0.00000E+00         0.00000E+00        -0.40644E+08
 
   -0.40405E+08         0.17357E+07         0.00000E+00
    0.17357E+07        -0.50066E+08         0.00000E+00
    0.00000E+00         0.00000E+00        -0.40648E+08
 
   -0.40421E+08         0.18133E+07         0.00000E+00
    0.18133E+07        -0.50070E+08         0.00000E+00
    0.00000E+00         0.00000E+00        -0.40652E+08
 
   -0.40436E+08         0.18917E+07         0.00000E+00
    0.18917E+07        -0.50073E+08         0.00000E+00
    0.00000E+00         0.00000E+00        -0.40655E+08
 
   -0.40451E+08         0.19707E+07         0.00000E+00
    0.19707E+07        -0.50077E+08         0.00000E+00
    0.00000E+00         0.00000E+00        -0.40659E+08
 
   -0.40465E+08         0.20505E+07         0.00000E+00
    0.20505E+07        -0.50080E+08         0.00000E+00
    0.00000E+00         0.00000E+00        -0.40663E+08
 
   -0.40479E+08         0.21310E+07         0.00000E+00
    0.21310E+07        -0.50083E+08         0.00000E+00
    0.00000E+00         0.00000E+00        -0.40666E+08
 
   -0.40493E+08         0.22123E+07         0.00000E+00
    0.22123E+07        -0.50086E+08         0.00000E+00
    0.00000E+00         0.00000E+00        -0.40669E+08
 
   -0.40506E+08         0.22943E+07         0.00000E+00
    0.22943E+07        -0.50089E+08         0.00000E+00
    0.00000E+00         0.00000E+00        -0.40672E+08
 
   -0.40518E+08         0.23771E+07         0.00000E+00
    0.23771E+07        -0.50092E+08         0.00000E+00
    0.00000E+00         0.00000E+00        -0.40675E+08
 
   -0.40530E+08         0.24607E+07         0.00000E+00
    0.24607E+07        -0.50094E+08         0.00000E+00
    0.00000E+00         0.00000E+00        -0.40678E+08
 
   -0.40542E+08         0.25451E+07         0.00000E+00
    0.25451E+07        -0.50096E+08         0.00000E+00
    0.00000E+00         0.00000E+00        -0.40681E+08
 
   -0.40554E+08         0.26303E+07         0.00000E+00
    0.26303E+07        -0.50098E+08         0.00000E+00
    0.00000E+00         0.00000E+00        -0.40684E+08
 
   -0.40565E+08         0.27164E+07         0.00000E+00
    0.27164E+07        -0.50099E+08         0.00000E+00
    0.00000E+00         0.00000E+00        -0.40686E+08
 
   -0.40577E+08         0.28032E+07         0.00000E+00
    0.28032E+07        -0.50100E+08         0.00000E+00
    0.00000E+00         0.00000E+00        -0.40689E+08
 
   -0.40588E+08         0.28909E+07         0.00000E+00
    0.28909E+07        -0.50101E+08         0.00000E+00
    0.00000E+00         0.00000E+00        -0.40691E+08
 
   -0.40598E+08         0.29794E+07         0.00000E+00
    0.29794E+07        -0.50101E+08         0.00000E+00
    0.00000E+00         0.00000E+00        -0.40693E+08
 
   -0.40609E+08         0.30688E+07         0.00000E+00
    0.30688E+07        -0.50101E+08         0.00000E+00
    0.00000E+00         0.00000E+00        -0.40696E+08
 
   -0.40620E+08         0.31590E+07         0.00000E+00
    0.31590E+07        -0.50101E+08         0.00000E+00
    0.00000E+00         0.00000E+00        -0.40698E+08
 
   -0.40630E+08         0.32501E+07         0.00000E+00
    0.32501E+07        -0.50100E+08         0.00000E+00
    0.00000E+00         0.00000E+00        -0.40700E+08
 
   -0.40641E+08         0.33420E+07         0.00000E+00
    0.33420E+07        -0.50098E+08         0.00000E+00
    0.00000E+00         0.00000E+00        -0.40701E+08
 
   -0.40652E+08         0.34348E+07         0.00000E+00
    0.34348E+07        -0.50097E+08         0.00000E+00
    0.00000E+00         0.00000E+00        -0.40703E+08
 
   -0.40662E+08         0.35285E+07         0.00000E+00
    0.35285E+07        -0.50094E+08         0.00000E+00
    0.00000E+00         0.00000E+00        -0.40705E+08
 
   -0.40673E+08         0.36231E+07         0.00000E+00
    0.36231E+07        -0.50092E+08         0.00000E+00
    0.00000E+00         0.00000E+00        -0.40706E+08
 
   -0.40684E+08         0.37186E+07         0.00000E+00
    0.37186E+07        -0.50088E+08         0.00000E+00
    0.00000E+00         0.00000E+00        -0.40708E+08
 
   -0.40695E+08         0.38149E+07         0.00000E+00
    0.38149E+07        -0.50085E+08         0.00000E+00
    0.00000E+00         0.00000E+00        -0.40709E+08
 
   -0.40706E+08         0.39122E+07         0.00000E+00
    0.39122E+07        -0.50080E+08         0.00000E+00
    0.00000E+00         0.00000E+00        -0.40711E+08
 
   -0.39430E+08         0.32469E+05         0.00000E+00
    0.32469E+05        -0.50000E+08         0.00000E+00
    0.00000E+00         0.00000E+00        -0.40026E+08
 
   -0.39469E+08         0.97689E+05         0.00000E+00
    0.97689E+05        -0.50000E+08         0.00000E+00
    0.00000E+00         0.00000E+00        -0.40034E+08
 
   -0.39507E+08         0.16308E+06         0.00000E+00
    0.16308E+06        -0.50001E+08         0.00000E+00
    0.00000E+00         0.00000E+00        -0.40042E+08
 
   -0.39543E+08         0.22869E+06         0.00000E+00
    0.22869E+06        -0.50002E+08         0.00000E+00
    0.00000E+00         0.00000E+00        -0.40049E+08
 
   -0.39578E+08         0.29454E+06         0.00000E+00
    0.29454E+06        -0.50004E+08         0.00000E+00
    0.00000E+00         0.00000E+00        -0.40057E+08
 
   -0.39611E+08         0.36068E+06         0.00000E+00
    0.36068E+06        -0.50006E+08         0.00000E+00
    0.00000E+00         0.00000E+00        -0.40064E+08
 
   -0.39643E+08         0.42714E+06         0.00000E+00
    0.42714E+06        -0.50008E+08         0.00000E+00
    0.00000E+00         0.00000E+00        -0.40070E+08
 
   -0.39673E+08         0.49396E+06         0.00000E+00
    0.49396E+06        -0.50011E+08         0.00000E+00
    0.00000E+00         0.00000E+00        -0.40077E+08
 
   -0.39702E+08         0.56117E+06         0.00000E+00
    0.56117E+06        -0.50014E+08         0.00000E+00
    0.00000E+00         0.00000E+00        -0.40083E+08
 
   -0.39730E+08         0.62881E+06         0.00000E+00
    0.62881E+06        -0.50017E+08         0.00000E+00
    0.00000E+00         0.00000E+00        -0.40090E+08
 
   -0.39757E+08         0.69690E+06         0.00000E+00
    0.69690E+06        -0.50021E+08         0.00000E+00
    0.00000E+00         0.00000E+00        -0.40096E+08
 
   -0.39782E+08         0.76548E+06         0.00000E+00
    0.76548E+06        -0.50025E+08         0.00000E+00
    0.00000E+00         0.00000E+00        -0.40102E+08
 
   -0.39806E+08         0.83457E+06         0.00000E+00
    0.83457E+06        -0.50029E+08         0.00000E+00
    0.00000E+00         0.00000E+00        -0.40107E+08
 
   -0.39829E+08         0.90421E+06         0.00000E+00
    0.90421E+06        -0.50033E+08         0.00000E+00
    0.00000E+00         0.00000E+00        -0.40113E+08
 
   -0.39851E+08         0.97442E+06         0.00000E+00
    0.97442E+06        -0.50038E+08         0.00000E+00
    0.00000E+00         0.00000E+00        -0.40118E+08
 
   -0.39872E+08         0.10452E+07         0.00000E+00
    0.10452E+07        -0.50043E+08         0.00000E+00
    0.00000E+00         0.00000E+00        -0.40123E+08
 
   -0.39892E+08         0.11167E+07         0.00000E+00
    0.11167E+07        -0.50048E+08         0.00000E+00
    0.00000E+00         0.00000E+00        -0.40128E+08
 
   -0.39911E+08         0.11887E+07         0.00000E+00
    0.11887E+07        -0.50053E+08         0.00000E+00
    0.00000E+00         0.00000E+00        -0.40133E+08
 
   -0.39929E+08         0.12615E+07         0.00000E+00
    0.12615E+07        -0.50058E+08         0.00000E+00
    0.00000E+00         0.00000E+00        -0.40138E+08
 
   -0.39946E+08         0.13349E+07         0.00000E+00
    0.13349E+07        -0.50063E+08         0.00000E+00
    0.00000E+00         0.00000E+00        -0.40142E+08
 
   -0.39962E+08         0.14091E+07         0.00000E+00
    0.14091E+07        -0.50068E+08         0.00000E+00
    0.00000E+00         0.00000E+00        -0.40146E+08
 
   -0.39977E+08         0.14839E+07         0.00000E+00
    0.14839E+07        -0.50074E+08         0.00000E+00
    0.00000E+00         0.00000E+00        -0.40150E+08
 
   -0.39991E+08         0.15596E+07         0.00000E+00
    0.15596E+07        -0.50079E+08         0.00000E+00
    0.00000E+00         0.00000E+00        -0.40154E+08
 
   -0.40005E+08         0.16360E+07         0.00000E+00
    0.16360E+07        -0.50085E+08         0.00000E+00
    0.00000E+00         0.00000E+00        -0.40158E+08
 
   -0.40018E+08         0.17131E+07         0.00000E+00
    0.17131E+07        -0.50090E+08         0.00000E+00
    0.00000E+00         0.00000E+00        -0.40162E+08
 
   -0.40030E+08         0.17911E+07         0.00000E+00
    0.17911E+07        -0.50095E+08         0.00000E+00
    0.00000E+00         0.00000E+00        -0.40165E+08
 
   -0.40042E+08         0.18699E+07         0.00000E+00
    0.18699E+07        -0.50101E+08         0.00000E+00
    0.00000E+00         0.00000E+00        -0.40169E+08
 
   -0.40052E+08         0.19495E+07         0.00000E+00
    0.19495E+07        -0.50106E+08         0.00000E+00
    0.00000E+00         0.00000E+00        -0.40172E+08
 
   -0.40063E+08         0.20300E+07         0.00000E+00
    0.20300E+07        -0.50111E+08         0.00000E+00
    0.00000E+00         0.00000E+00        -0.40175E+08
 
   -0.40073E+08         0.21113E+07         0.00000E+00
    0.21113E+07        -0.50116E+08         0.00000E+00
    0.00000E+00         0.00000E+00        -0.40178E+08
 
   -0.40082E+08         0.21935E+07         0.00000E+00
    0.21935E+07        -0.50121E+08         0.00000E+00
    0.00000E+00         0.00000E+00        -0.40181E+08
 
   -0.40091E+08         0.22766E+07         0.00000E+00
    0.22766E+07        -0.50125E+08         0.00000E+00
    0.00000E+00         0.00000E+00        -0.40183E+08
 
   -0.40099E+08         0.23605E+07         0.00000E+00
    0.23605E+07        -0.50130E+08         0.00000E+00
    0.00000E+00         0.00000E+00        -0.40186E+08
 
   -0.40107E+08         0.24454E+07         0.00000E+00
    0.24454E+07        -0.50134E+08         0.00000E+00
    0.00000E+00         0.00000E+00        -0.40188E+08
 
   -0.40115E+08         0.25311E+07         0.00000E+00
    0.25311E+07        -0.50138E+08         0.00000E+00
    0.00000E+00         0.00000E+00        -0.40191E+08
 
   -0.40122E+08         0.26178E+07         0.00000E+00
    0.26178E+07        -0.50142E+08         0.00000E+00
    0.00000E+00         0.00000E+00        -0.40193E+08
 
   -0.40129E+08         0.27053E+07         0.00000E+00
    0.27053E+07        -0.50145E+08         0.00000E+00
    0.00000E+00         0.00000E+00        -0.40195E+08
 
   -0.40136E+08         0.27938E+07         0.00000E+00
    0.27938E+07        -0.50148E+08         0.00000E+00
    0.00000E+00         0.00000E+00        -0.40197E+08
 
   -0.40143E+08         0.28833E+07         0.00000E+00
    0.28833E+07        -0.50151E+08         0.00000E+00
    0.00000E+00         0.00000E+00        -0.40199E+08
 
   -0.40149E+08         0.29737E+07         0.00000E+00
    0.29737E+07        -0.50153E+08         0.00000E+00
    0.00000E+00         0.00000E+00        -0.40201E+08
 
   -0.40155E+08         0.30650E+07         0.00000E+00
    0.30650E+07        -0.50155E+08         0.00000E+00
    0.00000E+00         0.00000E+00        -0.40202E+08
 
   -0.40161E+08         0.31573E+07         0.00000E+00
    0.31573E+07        -0.50157E+08         0.00000E+00
    0.00000E+00         0.00000E+00        -0.40204E+08
 
   -0.40167E+08         0.32505E+07         0.00000E+00
    0.32505E+07        -0.50158E+08         0.00000E+00
    0.00000E+00         0.00000E+00        -0.40205E+08
 
   -0.40173E+08         0.33447E+07         0.00000E+00
    0.33447E+07        -0.50159E+08         0.00000E+00
    0.00000E+00         0.00000E+00        -0.40207E+08
 
   -0.40179E+08         0.34399E+07         0.00000E+00
    0.34399E+07        -0.50159E+08         0.00000E+00
    0.00000E+00         0.00000E+00        -0.40208E+08
 
   -0.40185E+08         0.35360E+07         0.00000E+00
    0.35360E+07        -0.50159E+08         0.00000E+00
    0.00000E+00         0.00000E+00        -0.40209E+08
 
   -0.40191E+08         0.36331E+07         0.00000E+00
    0.36331E+07        -0.50158E+08         0.00000E+00
    0.00000E+00         0.00000E+00        -0.40210E+08
 
   -0.40197E+08         0.37312E+07         0.00000E+00
    0.37312E+07        -0.50157E+08         0.00000E+00
    0.00000E+00         0.00000E+00        -0.40211E+08
 
   -0.40204E+08         0.38303E+07         0.00000E+00
    0.38303E+07        -0.50155E+08         0.00000E+00
    0.00000E+00         0.00000E+00        -0.40212E+08
 
   -0.40210E+08         0.39304E+07         0.00000E+00
    0.39304E+07        -0.50153E+08         0.00000E+00
    0.00000E+00         0.00000E+00        -0.40213E+08
 
   -0.39110E+08         0.31207E+05         0.00000E+00
    0.31207E+05        -0.49999E+08         0.00000E+00
    0.00000E+00         0.00000E+00        -0.39536E+08
 
   -0.39149E+08         0.94049E+05         0.00000E+00
    0.94049E+05        -0.50000E+08         0.00000E+00
    0.00000E+00         0.00000E+00        -0.39544E+08
 
   -0.39185E+08         0.15713E+06         0.00000E+00
    0.15713E+06        -0.50001E+08         0.00000E+00
    0.00000E+00         0.00000E+00        -0.39551E+08
 
   -0.39220E+08         0.22050E+06         0.00000E+00
    0.22050E+06        -0.50003E+08         0.00000E+00
    0.00000E+00         0.00000E+00        -0.39558E+08
 
   -0.39253E+08         0.28420E+06         0.00000E+00
    0.28420E+06        -0.50005E+08         0.00000E+00
    0.00000E+00         0.00000E+00        -0.39565E+08
 
   -0.39284E+08         0.34827E+06         0.00000E+00
    0.34827E+06        -0.50007E+08         0.00000E+00
    0.00000E+00         0.00000E+00        -0.39572E+08
 
   -0.39314E+08         0.41275E+06         0.00000E+00
    0.41275E+06        -0.50010E+08         0.00000E+00
    0.00000E+00         0.00000E+00        -0.39579E+08
 
   -0.39342E+08         0.47769E+06         0.00000E+00
    0.47769E+06        -0.50014E+08         0.00000E+00
    0.00000E+00         0.00000E+00        -0.39585E+08
 
   -0.39369E+08         0.54311E+06         0.00000E+00
    0.54311E+06        -0.50018E+08         0.00000E+00
    0.00000E+00         0.00000E+00        -0.39591E+08
 
   -0.39395E+08         0.60905E+06         0.00000E+00
    0.60905E+06        -0.50022E+08         0.00000E+00
    0.00000E+00         0.00000E+00        -0.39597E+08
 
   -0.39419E+08         0.67556E+06         0.00000E+00
    0.67556E+06        -0.50027E+08         0.00000E+00
    0.00000E+00         0.00000E+00        -0.39603E+08
 
   -0.39441E+08         0.74266E+06         0.00000E+00
    0.74266E+06        -0.50032E+08         0.00000E+00
    0.00000E+00         0.00000E+00        -0.39608E+08
 
   -0.39463E+08         0.81038E+06         0.00000E+00
    0.81038E+06        -0.50037E+08         0.00000E+00
    0.00000E+00         0.00000E+00        -0.39614E+08
 
   -0.39483E+08         0.87876E+06         0.00000E+00
    0.87876E+06        -0.50043E+08         0.00000E+00
    0.00000E+00         0.00000E+00        -0.39619E+08
 
   -0.39501E+08         0.94783E+06         0.00000E+00
    0.94783E+06        -0.50048E+08         0.00000E+00
    0.00000E+00         0.00000E+00        -0.39624E+08
 
   -0.39519E+08         0.10176E+07         0.00000E+00
    0.10176E+07        -0.50055E+08         0.00000E+00
    0.00000E+00         0.00000E+00        -0.39629E+08
 
   -0.39535E+08         0.10881E+07         0.00000E+00
    0.10881E+07        -0.50061E+08         0.00000E+00
    0.00000E+00         0.00000E+00        -0.39633E+08
 
   -0.39551E+08         0.11594E+07         0.00000E+00
    0.11594E+07        -0.50067E+08         0.00000E+00
    0.00000E+00         0.00000E+00        -0.39637E+08
 
   -0.39565E+08         0.12315E+07         0.00000E+00
    0.12315E+07        -0.50074E+08         0.00000E+00
    0.00000E+00         0.00000E+00        -0.39642E+08
 
   -0.39578E+08         0.13044E+07         0.00000E+00
    0.13044E+07        -0.50081E+08         0.00000E+00
    0.00000E+00         0.00000E+00        -0.39646E+08
 
   -0.39590E+08         0.13781E+07         0.00000E+00
    0.13781E+07        -0.50088E+08         0.00000E+00
    0.00000E+00         0.00000E+00        -0.39650E+08
 
   -0.39601E+08         0.14527E+07         0.00000E+00
    0.14527E+07        -0.50095E+08         0.00000E+00
    0.00000E+00         0.00000E+00        -0.39653E+08
 
   -0.39611E+08         0.15281E+07         0.00000E+00
    0.15281E+07        -0.50102E+08         0.00000E+00
    0.00000E+00         0.00000E+00        -0.39657E+08
 
   -0.39621E+08         0.16044E+07         0.00000E+00
    0.16044E+07        -0.50110E+08         0.00000E+00
    0.00000E+00         0.00000E+00        -0.39660E+08
 
   -0.39630E+08         0.16817E+07         0.00000E+00
    0.16817E+07        -0.50117E+08         0.00000E+00
    0.00000E+00         0.00000E+00        -0.39663E+08
 
   -0.39637E+08         0.17599E+07         0.00000E+00
    0.17599E+07        -0.50124E+08         0.00000E+00
    0.00000E+00         0.00000E+00        -0.39666E+08
 
   -0.39645E+08         0.18390E+07         0.00000E+00
    0.18390E+07        -0.50131E+08         0.00000E+00
    0.00000E+00         0.00000E+00        -0.39669E+08
 
   -0.39651E+08         0.19190E+07         0.00000E+00
    0.19190E+07        -0.50139E+08         0.00000E+00
    0.00000E+00         0.00000E+00        -0.39672E+08
 
   -0.39657E+08         0.20000E+07         0.00000E+00
    0.20000E+07        -0.50146E+08         0.00000E+00
    0.00000E+00         0.00000E+00        -0.39674E+08
 
   -0.39662E+08         0.20820E+07         0.00000E+00
    0.20820E+07        -0.50153E+08         0.00000E+00
    0.00000E+00         0.00000E+00        -0.39677E+08
 
   -0.39667E+08         0.21650E+07         0.00000E+00
    0.21650E+07        -0.50159E+08         0.00000E+00
    0.00000E+00         0.00000E+00        -0.39679E+08
 
   -0.39671E+08         0.22489E+07         0.00000E+00
    0.22489E+07        -0.50166E+08         0.00000E+00
    0.00000E+00         0.00000E+00        -0.39681E+08
 
   -0.39674E+08         0.23339E+07         0.00000E+00
    0.23339E+07        -0.50173E+08         0.00000E+00
    0.00000E+00         0.00000E+00        -0.39683E+08
 
   -0.39678E+08         0.24199E+07         0.00000E+00
    0.24199E+07        -0.50179E+08         0.00000E+00
    0.00000E+00         0.00000E+00        -0.39685E+08
 
   -0.39680E+08         0.25069E+07         0.00000E+00
    0.25069E+07        -0.50185E+08         0.00000E+00
    0.00000E+00         0.00000E+00        -0.39687E+08
 
   -0.39683E+08         0.25949E+07         0.00000E+00
    0.25949E+07        -0.50191E+08         0.00000E+00
    0.00000E+00         0.00000E+00        -0.39689E+08
 
   -0.39685E+08         0.26840E+07         0.00000E+00
    0.26840E+07        -0.50196E+08         0.00000E+00
    0.00000E+00         0.00000E+00        -0.39690E+08
 
   -0.39687E+08         0.27741E+07         0.00000E+00
    0.27741E+07        -0.50202E+08         0.00000E+00
    0.00000E+00         0.00000E+00        -0.39692E+08
 
   -0.39689E+08         0.28652E+07         0.00000E+00
    0.28652E+07        -0.50206E+08         0.00000E+00
    0.00000E+00         0.00000E+00        -0.39693E+08
 
   -0.39690E+08         0.29574E+07         0.00000E+00
    0.29574E+07        -0.50211E+08         0.00000E+00
    0.00000E+00         0.00000E+00        -0.39694E+08
 
   -0.39691E+08         0.30506E+07         0.00000E+00
    0.30506E+07        -0.50215E+08         0.00000E+00
    0.00000E+00         0.00000E+00        -0.39695E+08
 
   -0.39692E+08         0.31449E+07         0.00000E+00
    0.31449E+07        -0.50219E+08         0.00000E+00
    0.00000E+00         0.00000E+00        -0.39696E+08
 
   -0.39693E+08         0.32403E+07         0.00000E+00
    0.32403E+07        -0.50222E+08         0.00000E+00
    0.00000E+00         0.00000E+00        -0.39697E+08
 
   -0.39694E+08         0.33367E+07         0.00000E+00
    0.33367E+07        -0.50225E+08         0.00000E+00
    0.00000E+00         0.00000E+00        -0.39698E+08
 
   -0.39695E+08         0.34341E+07         0.00000E+00
    0.34341E+07        -0.50228E+08         0.00000E+00
    0.00000E+00         0.00000E+00        -0.39699E+08
 
   -0.39696E+08         0.35327E+07         0.00000E+00
    0.35327E+07        -0.50230E+08         0.00000E+00
    0.00000E+00         0.00000E+00        -0.39699E+08
 
   -0.39697E+08         0.36323E+07         0.00000E+00
    0.36323E+07        -0.50232E+08         0.00000E+00
    0.00000E+00         0.00000E+00        -0.39700E+08
 
   -0.39698E+08         0.37330E+07         0.00000E+00
    0.37330E+07        -0.50233E+08         0.00000E+00
    0.00000E+00         0.00000E+00        -0.39700E+08
 
   -0.39699E+08         0.38348E+07         0.00000E+00
    0.38348E+07        -0.50233E+08         0.00000E+00
    0.00000E+00         0.00000E+00        -0.39700E+08
 
   -0.39700E+08         0.39376E+07         0.00000E+00
    0.39376E+07        -0.50233E+08         0.00000E+00
    0.00000E+00         0.00000E+00        -0.39701E+08
 
   -0.38804E+08         0.29627E+05         0.00000E+00
    0.29627E+05        -0.49999E+08         0.00000E+00
    0.00000E+00         0.00000E+00        -0.39035E+08
 
   -0.38841E+08         0.89490E+05         0.00000E+00
    0.89490E+05        -0.50000E+08         0.00000E+00
    0.00000E+00         0.00000E+00        -0.39043E+08
 
   -0.38876E+08         0.14968E+06         0.00000E+00
    0.14968E+06        -0.50002E+08         0.00000E+00
    0.00000E+00         0.00000E+00        -0.39050E+08
 
   -0.38909E+08         0.21025E+06         0.00000E+00
    0.21025E+06        -0.50003E+08         0.00000E+00
    0.00000E+00         0.00000E+00        -0.39057E+08
 
   -0.38940E+08         0.27124E+06         0.00000E+00
    0.27124E+06        -0.50006E+08         0.00000E+00
    0.00000E+00         0.00000E+00        -0.39064E+08
 
   -0.38969E+08         0.33271E+06         0.00000E+00
    0.33271E+06        -0.50009E+08         0.00000E+00
    0.00000E+00         0.00000E+00        -0.39070E+08
 
   -0.38996E+08         0.39470E+06         0.00000E+00
    0.39470E+06        -0.50013E+08         0.00000E+00
    0.00000E+00         0.00000E+00        -0.39076E+08
 
   -0.39022E+08         0.45725E+06         0.00000E+00
    0.45725E+06        -0.50017E+08         0.00000E+00
    0.00000E+00         0.00000E+00        -0.39082E+08
 
   -0.39046E+08         0.52040E+06         0.00000E+00
    0.52040E+06        -0.50022E+08         0.00000E+00
    0.00000E+00         0.00000E+00        -0.39088E+08
 
   -0.39069E+08         0.58420E+06         0.00000E+00
    0.58420E+06        -0.50027E+08         0.00000E+00
    0.00000E+00         0.00000E+00        -0.39094E+08
 
   -0.39089E+08         0.64868E+06         0.00000E+00
    0.64868E+06        -0.50033E+08         0.00000E+00
    0.00000E+00         0.00000E+00        -0.39099E+08
 
   -0.39109E+08         0.71387E+06         0.00000E+00
    0.71387E+06        -0.50039E+08         0.00000E+00
    0.00000E+00         0.00000E+00        -0.39104E+08
 
   -0.39127E+08         0.77982E+06         0.00000E+00
    0.77982E+06        -0.50046E+08         0.00000E+00
    0.00000E+00         0.00000E+00        -0.39109E+08
 
   -0.39143E+08         0.84656E+06         0.00000E+00
    0.84656E+06        -0.50053E+08         0.00000E+00
    0.00000E+00         0.00000E+00        -0.39114E+08
 
   -0.39158E+08         0.91412E+06         0.00000E+00
    0.91412E+06        -0.50060E+08         0.00000E+00
    0.00000E+00         0.00000E+00        -0.39118E+08
 
   -0.39171E+08         0.98252E+06         0.00000E+00
    0.98252E+06        -0.50068E+08         0.00000E+00
    0.00000E+00         0.00000E+00        -0.39122E+08
 
   -0.39184E+08         0.10518E+07         0.00000E+00
    0.10518E+07        -0.50076E+08         0.00000E+00
    0.00000E+00         0.00000E+00        -0.39126E+08
 
   -0.39195E+08         0.11220E+07         0.00000E+00
    0.11220E+07        -0.50084E+08         0.00000E+00
    0.00000E+00         0.00000E+00        -0.39130E+08
 
   -0.39204E+08         0.11931E+07         0.00000E+00
    0.11931E+07        -0.50093E+08         0.00000E+00
    0.00000E+00         0.00000E+00        -0.39134E+08
 
   -0.39213E+08         0.12651E+07         0.00000E+00
    0.12651E+07        -0.50101E+08         0.00000E+00
    0.00000E+00         0.00000E+00        -0.39137E+08
 
   -0.39221E+08         0.13382E+07         0.00000E+00
    0.13382E+07        -0.50110E+08         0.00000E+00
    0.00000E+00         0.00000E+00        -0.39141E+08
 
   -0.39227E+08         0.14122E+07         0.00000E+00
    0.14122E+07        -0.50119E+08         0.00000E+00
    0.00000E+00         0.00000E+00        -0.39144E+08
 
   -0.39233E+08         0.14872E+07         0.00000E+00
    0.14872E+07        -0.50128E+08         0.00000E+00
    0.00000E+00         0.00000E+00        -0.39147E+08
 
   -0.39237E+08         0.15633E+07         0.00000E+00
    0.15633E+07        -0.50138E+08         0.00000E+00
    0.00000E+00         0.00000E+00        -0.39150E+08
 
   -0.39241E+08         0.16404E+07         0.00000E+00
    0.16404E+07        -0.50147E+08         0.00000E+00
    0.00000E+00         0.00000E+00        -0.39152E+08
 
   -0.39244E+08         0.17186E+07         0.00000E+00
    0.17186E+07        -0.50156E+08         0.00000E+00
    0.00000E+00         0.00000E+00        -0.39155E+08
 
   -0.39246E+08         0.17978E+07         0.00000E+00
    0.17978E+07        -0.50166E+08         0.00000E+00
    0.00000E+00         0.00000E+00        -0.39157E+08
 
   -0.39247E+08         0.18781E+07         0.00000E+00
    0.18781E+07        -0.50175E+08         0.00000E+00
    0.00000E+00         0.00000E+00        -0.39159E+08
 
   -0.39248E+08         0.19595E+07         0.00000E+00
    0.19595E+07        -0.50184E+08         0.00000E+00
    0.00000E+00         0.00000E+00        -0.39161E+08
 
   -0.39248E+08         0.20420E+07         0.00000E+00
    0.20420E+07        -0.50193E+08         0.00000E+00
    0.00000E+00         0.00000E+00        -0.39163E+08
 
   -0.39247E+08         0.21257E+07         0.00000E+00
    0.21257E+07        -0.50203E+08         0.00000E+00
    0.00000E+00         0.00000E+00        -0.39165E+08
 
   -0.39246E+08         0.22104E+07         0.00000E+00
    0.22104E+07        -0.50212E+08         0.00000E+00
    0.00000E+00         0.00000E+00        -0.39166E+08
 
   -0.39245E+08         0.22963E+07         0.00000E+00
    0.22963E+07        -0.50220E+08         0.00000E+00
    0.00000E+00         0.00000E+00        -0.39168E+08
 
   -0.39242E+08         0.23833E+07         0.00000E+00
    0.23833E+07        -0.50229E+08         0.00000E+00
    0.00000E+00         0.00000E+00        -0.39169E+08
 
   -0.39240E+08         0.24715E+07         0.00000E+00
    0.24715E+07        -0.50237E+08         0.00000E+00
    0.00000E+00         0.00000E+00        -0.39170E+08
 
   -0.39237E+08         0.25608E+07         0.00000E+00
    0.25608E+07        -0.50245E+08         0.00000E+00
    0.00000E+00         0.00000E+00        -0.39171E+08
 
   -0.39234E+08         0.26513E+07         0.00000E+00
    0.26513E+07        -0.50253E+08         0.00000E+00
    0.00000E+00         0.00000E+00        -0.39172E+08
 
   -0.39230E+08         0.27429E+07         0.00000E+00
    0.27429E+07        -0.50261E+08         0.00000E+00
    0.00000E+00         0.00000E+00        -0.39173E+08
 
   -0.39226E+08         0.28357E+07         0.00000E+00
    0.28357E+07        -0.50268E+08         0.00000E+00
    0.00000E+00         0.00000E+00        -0.39173E+08
 
   -0.39222E+08         0.29296E+07         0.00000E+00
    0.29296E+07        -0.50275E+08         0.00000E+00
    0.00000E+00         0.00000E+00        -0.39174E+08
 
   -0.39218E+08         0.30247E+07         0.00000E+00
    0.30247E+07        -0.50282E+08         0.00000E+00
    0.00000E+00         0.00000E+00        -0.39174E+08
 
   -0.39213E+08         0.31209E+07         0.00000E+00
    0.31209E+07        -0.50288E+08         0.00000E+00
    0.00000E+00         0.00000E+00        -0.39175E+08
 
   -0.39209E+08         0.32183E+07         0.00000E+00
    0.32183E+07        -0.50294E+08         0.00000E+00
    0.00000E+00         0.00000E+00        -0.39175E+08
 
   -0.39204E+08         0.33169E+07         0.00000E+00
    0.33169E+07        -0.50299E+08         0.00000E+00
    0.00000E+00         0.00000E+00        -0.39175E+08
 
   -0.39199E+08         0.34166E+07         0.00000E+00
    0.34166E+07        -0.50304E+08         0.00000E+00
    0.00000E+00         0.00000E+00        -0.39175E+08
 
   -0.39195E+08         0.35175E+07         0.00000E+00
    0.35175E+07        -0.50309E+08         0.00000E+00
    0.00000E+00         0.00000E+00        -0.39175E+08
 
   -0.39190E+08         0.36196E+07         0.00000E+00
    0.36196E+07        -0.50313E+08         0.00000E+00
    0.00000E+00         0.00000E+00        -0.39175E+08
 
   -0.39185E+08         0.37228E+07         0.00000E+00
    0.37228E+07        -0.50316E+08         0.00000E+00
    0.00000E+00         0.00000E+00        -0.39175E+08
 
   -0.39181E+08         0.38272E+07         0.00000E+00
    0.38272E+07        -0.50319E+08         0.00000E+00
    0.00000E+00         0.00000E+00        -0.39175E+08
 
   -0.39176E+08         0.39327E+07         0.00000E+00
    0.39327E+07        -0.50322E+08         0.00000E+00
    0.00000E+00         0.00000E+00        -0.39174E+08
 
   -0.38515E+08         0.27680E+05         0.00000E+00
    0.27680E+05        -0.49999E+08         0.00000E+00
    0.00000E+00         0.00000E+00        -0.38525E+08
 
   -0.38550E+08         0.83877E+05         0.00000E+00
    0.83877E+05        -0.50000E+08         0.00000E+00
    0.00000E+00         0.00000E+00        -0.38532E+08
 
   -0.38582E+08         0.14051E+06         0.00000E+00
    0.14051E+06        -0.50002E+08         0.00000E+00
    0.00000E+00         0.00000E+00        -0.38539E+08
 
   -0.38613E+08         0.19763E+06         0.00000E+00
    0.19763E+06        -0.50004E+08         0.00000E+00
    0.00000E+00         0.00000E+00        -0.38546E+08
 
   -0.38642E+08         0.25530E+06         0.00000E+00
    0.25530E+06        -0.50008E+08         0.00000E+00
    0.00000E+00         0.00000E+00        -0.38552E+08
 
   -0.38668E+08         0.31356E+06         0.00000E+00
    0.31356E+06        -0.50011E+08         0.00000E+00
    0.00000E+00         0.00000E+00        -0.38558E+08
 
   -0.38692E+08         0.37248E+06         0.00000E+00
    0.37248E+06        -0.50016E+08         0.00000E+00
    0.00000E+00         0.00000E+00        -0.38564E+08
 
   -0.38715E+08         0.43209E+06         0.00000E+00
    0.43209E+06        -0.50021E+08         0.00000E+00
    0.00000E+00         0.00000E+00        -0.38570E+08
 
   -0.38736E+08         0.49244E+06         0.00000E+00
    0.49244E+06        -0.50027E+08         0.00000E+00
    0.00000E+00         0.00000E+00        -0.38575E+08
 
   -0.38754E+08         0.55358E+06         0.00000E+00
    0.55358E+06        -0.50034E+08         0.00000E+00
    0.00000E+00         0.00000E+00        -0.38580E+08
 
   -0.38771E+08         0.61555E+06         0.00000E+00
    0.61555E+06        -0.50041E+08         0.00000E+00
    0.00000E+00         0.00000E+00        -0.38585E+08
 
   -0.38786E+08         0.67838E+06         0.00000E+00
    0.67838E+06        -0.50048E+08         0.00000E+00
    0.00000E+00         0.00000E+00        -0.38589E+08
 
   -0.38800E+08         0.74212E+06         0.00000E+00
    0.74212E+06        -0.50056E+08         0.00000E+00
    0.00000E+00         0.00000E+00        -0.38594E+08
 
   -0.38812E+08         0.80679E+06         0.00000E+00
    0.80679E+06        -0.50065E+08         0.00000E+00
    0.00000E+00         0.00000E+00        -0.38598E+08
 
   -0.38822E+08         0.87244E+06         0.00000E+00
    0.87244E+06        -0.50074E+08         0.00000E+00
    0.00000E+00         0.00000E+00        -0.38602E+08
 
   -0.38831E+08         0.93910E+06         0.00000E+00
    0.93910E+06        -0.50083E+08         0.00000E+00
    0.00000E+00         0.00000E+00        -0.38605E+08
 
   -0.38839E+08         0.10068E+07         0.00000E+00
    0.10068E+07        -0.50093E+08         0.00000E+00
    0.00000E+00         0.00000E+00        -0.38609E+08
 
   -0.38845E+08         0.10755E+07         0.00000E+00
    0.10755E+07        -0.50103E+08         0.00000E+00
    0.00000E+00         0.00000E+00        -0.38612E+08
 
   -0.38849E+08         0.11453E+07         0.00000E+00
    0.11453E+07        -0.50114E+08         0.00000E+00
    0.00000E+00         0.00000E+00        -0.38615E+08
 
   -0.38853E+08         0.12163E+07         0.00000E+00
    0.12163E+07        -0.50124E+08         0.00000E+00
    0.00000E+00         0.00000E+00        -0.38618E+08
 
   -0.38855E+08         0.12883E+07         0.00000E+00
    0.12883E+07        -0.50135E+08         0.00000E+00
    0.00000E+00         0.00000E+00        -0.38621E+08
 
   -0.38856E+08         0.13616E+07         0.00000E+00
    0.13616E+07        -0.50146E+08         0.00000E+00
    0.00000E+00         0.00000E+00        -0.38623E+08
 
   -0.38856E+08         0.14359E+07         0.00000E+00
    0.14359E+07        -0.50158E+08         0.00000E+00
    0.00000E+00         0.00000E+00        -0.38625E+08
 
   -0.38856E+08         0.15115E+07         0.00000E+00
    0.15115E+07        -0.50169E+08         0.00000E+00
    0.00000E+00         0.00000E+00        -0.38627E+08
 
   -0.38854E+08         0.15883E+07         0.00000E+00
    0.15883E+07        -0.50181E+08         0.00000E+00
    0.00000E+00         0.00000E+00        -0.38629E+08
 
   -0.38851E+08         0.16662E+07         0.00000E+00
    0.16662E+07        -0.50192E+08         0.00000E+00
    0.00000E+00         0.00000E+00        -0.38631E+08
 
   -0.38847E+08         0.17454E+07         0.00000E+00
    0.17454E+07        -0.50204E+08         0.00000E+00
    0.00000E+00         0.00000E+00        -0.38633E+08
 
   -0.38843E+08         0.18258E+07         0.00000E+00
    0.18258E+07        -0.50216E+08         0.00000E+00
    0.00000E+00         0.00000E+00        -0.38634E+08
 
   -0.38837E+08         0.19075E+07         0.00000E+00
    0.19075E+07        -0.50227E+08         0.00000E+00
    0.00000E+00         0.00000E+00        -0.38635E+08
 
   -0.38831E+08         0.19904E+07         0.00000E+00
    0.19904E+07        -0.50239E+08         0.00000E+00
    0.00000E+00         0.00000E+00        -0.38637E+08
 
   -0.38825E+08         0.20746E+07         0.00000E+00
    0.20746E+07        -0.50250E+08         0.00000E+00
    0.00000E+00         0.00000E+00        -0.38638E+08
 
   -0.38818E+08         0.21600E+07         0.00000E+00
    0.21600E+07        -0.50262E+08         0.00000E+00
    0.00000E+00         0.00000E+00        -0.38638E+08
 
   -0.38810E+08         0.22467E+07         0.00000E+00
    0.22467E+07        -0.50273E+08         0.00000E+00
    0.00000E+00         0.00000E+00        -0.38639E+08
 
   -0.38802E+08         0.23347E+07         0.00000E+00
    0.23347E+07        -0.50284E+08         0.00000E+00
    0.00000E+00         0.00000E+00        -0.38640E+08
 
   -0.38793E+08         0.24240E+07         0.00000E+00
    0.24240E+07        -0.50295E+08         0.00000E+00
    0.00000E+00         0.00000E+00        -0.38640E+08
 
   -0.38784E+08         0.25145E+07         0.00000E+00
    0.25145E+07        -0.50306E+08         0.00000E+00
    0.00000E+00         0.00000E+00        -0.38641E+08
 
   -0.38775E+08         0.26063E+07         0.00000E+00
    0.26063E+07        -0.50316E+08         0.00000E+00
    0.00000E+00         0.00000E+00        -0.38641E+08
 
   -0.38765E+08         0.26993E+07         0.00000E+00
    0.26993E+07        -0.50326E+08         0.00000E+00
    0.00000E+00         0.00000E+00        -0.38641E+08
 
   -0.38755E+08         0.27937E+07         0.00000E+00
    0.27937E+07        -0.50336E+08         0.00000E+00
    0.00000E+00         0.00000E+00        -0.38641E+08
 
   -0.38745E+08         0.28893E+07         0.00000E+00
    0.28893E+07        -0.50346E+08         0.00000E+00
    0.00000E+00         0.00000E+00        -0.38641E+08
 
   -0.38735E+08         0.29862E+07         0.00000E+00
    0.29862E+07        -0.50355E+08         0.00000E+00
    0.00000E+00         0.00000E+00        -0.38640E+08
 
   -0.38724E+08         0.30843E+07         0.00000E+00
    0.30843E+07        -0.50364E+08         0.00000E+00
    0.00000E+00         0.00000E+00        -0.38640E+08
 
   -0.38714E+08         0.31837E+07         0.00000E+00
    0.31837E+07        -0.50372E+08         0.00000E+00
    0.00000E+00         0.00000E+00        -0.38640E+08
 
   -0.38703E+08         0.32844E+07         0.00000E+00
    0.32844E+07        -0.50380E+08         0.00000E+00
    0.00000E+00         0.00000E+00        -0.38639E+08
 
   -0.38692E+08         0.33864E+07         0.00000E+00
    0.33864E+07        -0.50388E+08         0.00000E+00
    0.00000E+00         0.00000E+00        -0.38639E+08
 
   -0.38681E+08         0.34896E+07         0.00000E+00
    0.34896E+07        -0.50395E+08         0.00000E+00
    0.00000E+00         0.00000E+00        -0.38638E+08
 
   -0.38671E+08         0.35940E+07         0.00000E+00
    0.35940E+07        -0.50402E+08         0.00000E+00
    0.00000E+00         0.00000E+00        -0.38637E+08
 
   -0.38660E+08         0.36998E+07         0.00000E+00
    0.36998E+07        -0.50408E+08         0.00000E+00
    0.00000E+00         0.00000E+00        -0.38636E+08
 
   -0.38649E+08         0.38067E+07         0.00000E+00
    0.38067E+07        -0.50414E+08         0.00000E+00
    0.00000E+00         0.00000E+00        -0.38635E+08
 
   -0.38639E+08         0.39149E+07         0.00000E+00
    0.39149E+07        -0.50419E+08         0.00000E+00
    0.00000E+00         0.00000E+00        -0.38634E+08
 
   -0.38246E+08         0.25310E+05         0.00000E+00
    0.25310E+05        -0.49999E+08         0.00000E+00
    0.00000E+00         0.00000E+00        -0.38007E+08
 
   -0.38278E+08         0.77057E+05         0.00000E+00
    0.77057E+05        -0.50000E+08         0.00000E+00
    0.00000E+00         0.00000E+00        -0.38014E+08
 
   -0.38308E+08         0.12937E+06         0.00000E+00
    0.12937E+06        -0.50002E+08         0.00000E+00
    0.00000E+00         0.00000E+00        -0.38020E+08
 
   -0.38336E+08         0.18232E+06         0.00000E+00
    0.18232E+06        -0.50005E+08         0.00000E+00
    0.00000E+00         0.00000E+00        -0.38026E+08
 
   -0.38361E+08         0.23596E+06         0.00000E+00
    0.23596E+06        -0.50009E+08         0.00000E+00
    0.00000E+00         0.00000E+00        -0.38032E+08
 
   -0.38384E+08         0.29036E+06         0.00000E+00
    0.29036E+06        -0.50014E+08         0.00000E+00
    0.00000E+00         0.00000E+00        -0.38038E+08
 
   -0.38405E+08         0.34556E+06         0.00000E+00
    0.34556E+06        -0.50019E+08         0.00000E+00
    0.00000E+00         0.00000E+00        -0.38043E+08
 
   -0.38424E+08         0.40162E+06         0.00000E+00
    0.40162E+06        -0.50026E+08         0.00000E+00
    0.00000E+00         0.00000E+00        -0.38048E+08
 
   -0.38440E+08         0.45858E+06         0.00000E+00
    0.45858E+06        -0.50033E+08         0.00000E+00
    0.00000E+00         0.00000E+00        -0.38053E+08
 
   -0.38454E+08         0.51651E+06         0.00000E+00
    0.51651E+06        -0.50040E+08         0.00000E+00
    0.00000E+00         0.00000E+00        -0.38057E+08
 
   -0.38466E+08         0.57543E+06         0.00000E+00
    0.57543E+06        -0.50049E+08         0.00000E+00
    0.00000E+00         0.00000E+00        -0.38061E+08
 
   -0.38477E+08         0.63540E+06         0.00000E+00
    0.63540E+06        -0.50058E+08         0.00000E+00
    0.00000E+00         0.00000E+00        -0.38065E+08
 
   -0.38485E+08         0.69645E+06         0.00000E+00
    0.69645E+06        -0.50068E+08         0.00000E+00
    0.00000E+00         0.00000E+00        -0.38069E+08
 
   -0.38492E+08         0.75861E+06         0.00000E+00
    0.75861E+06        -0.50078E+08         0.00000E+00
    0.00000E+00         0.00000E+00        -0.38072E+08
 
   -0.38497E+08         0.82193E+06         0.00000E+00
    0.82193E+06        -0.50089E+08         0.00000E+00
    0.00000E+00         0.00000E+00        -0.38075E+08
 
   -0.38500E+08         0.88643E+06         0.00000E+00
    0.88643E+06        -0.50100E+08         0.00000E+00
    0.00000E+00         0.00000E+00        -0.38078E+08
 
   -0.38502E+08         0.95214E+06         0.00000E+00
    0.95214E+06        -0.50112E+08         0.00000E+00
    0.00000E+00         0.00000E+00        -0.38081E+08
 
   -0.38502E+08         0.10191E+07         0.00000E+00
    0.10191E+07        -0.50124E+08         0.00000E+00
    0.00000E+00         0.00000E+00        -0.38083E+08
 
   -0.38501E+08         0.10873E+07         0.00000E+00
    0.10873E+07        -0.50137E+08         0.00000E+00
    0.00000E+00         0.00000E+00        -0.38086E+08
 
   -0.38499E+08         0.11568E+07         0.00000E+00
    0.11568E+07        -0.50149E+08         0.00000E+00
    0.00000E+00         0.00000E+00        -0.38088E+08
 
   -0.38495E+08         0.12276E+07         0.00000E+00
    0.12276E+07        -0.50163E+08         0.00000E+00
    0.00000E+00         0.00000E+00        -0.38090E+08
 
   -0.38490E+08         0.12998E+07         0.00000E+00
    0.12998E+07        -0.50176E+08         0.00000E+00
    0.00000E+00         0.00000E+00        -0.38091E+08
 
   -0.38484E+08         0.13732E+07         0.00000E+00
    0.13732E+07        -0.50190E+08         0.00000E+00
    0.00000E+00         0.00000E+00        -0.38093E+08
 
   -0.38476E+08         0.14481E+07         0.00000E+00
    0.14481E+07        -0.50204E+08         0.00000E+00
    0.00000E+00         0.00000E+00        -0.38094E+08
 
   -0.38468E+08         0.15243E+07         0.00000E+00
    0.15243E+07        -0.50218E+08         0.00000E+00
    0.00000E+00         0.00000E+00        -0.38095E+08
 
   -0.38459E+08         0.16019E+07         0.00000E+00
    0.16019E+07        -0.50232E+08         0.00000E+00
    0.00000E+00         0.00000E+00        -0.38096E+08
 
   -0.38448E+08         0.16808E+07         0.00000E+00
    0.16808E+07        -0.50246E+08         0.00000E+00
    0.00000E+00         0.00000E+00        -0.38097E+08
 
   -0.38437E+08         0.17612E+07         0.00000E+00
    0.17612E+07        -0.50260E+08         0.00000E+00
    0.00000E+00         0.00000E+00        -0.38098E+08
 
   -0.38425E+08         0.18430E+07         0.00000E+00
    0.18430E+07        -0.50274E+08         0.00000E+00
    0.00000E+00         0.00000E+00        -0.38098E+08
 
   -0.38413E+08         0.19261E+07         0.00000E+00
    0.19261E+07        -0.50289E+08         0.00000E+00
    0.00000E+00         0.00000E+00        -0.38098E+08
 
   -0.38400E+08         0.20107E+07         0.00000E+00
    0.20107E+07        -0.50303E+08         0.00000E+00
    0.00000E+00         0.00000E+00        -0.38099E+08
 
   -0.38386E+08         0.20967E+07         0.00000E+00
    0.20967E+07        -0.50317E+08         0.00000E+00
    0.00000E+00         0.00000E+00        -0.38099E+08
 
   -0.38371E+08         0.21842E+07         0.00000E+00
    0.21842E+07        -0.50331E+08         0.00000E+00
    0.00000E+00         0.00000E+00        -0.38098E+08
 
   -0.38357E+08         0.22730E+07         0.00000E+00
    0.22730E+07        -0.50345E+08         0.00000E+00
    0.00000E+00         0.00000E+00        -0.38098E+08
 
   -0.38341E+08         0.23633E+07         0.00000E+00
    0.23633E+07        -0.50358E+08         0.00000E+00
    0.00000E+00         0.00000E+00        -0.38098E+08
 
   -0.38325E+08         0.24549E+07         0.00000E+00
    0.24549E+07        -0.50372E+08         0.00000E+00
    0.00000E+00         0.00000E+00        -0.38097E+08
 
   -0.38309E+08         0.25480E+07         0.00000E+00
    0.25480E+07        -0.50385E+08         0.00000E+00
    0.00000E+00         0.00000E+00        -0.38097E+08
 
   -0.38293E+08         0.26424E+07         0.00000E+00
    0.26424E+07        -0.50398E+08         0.00000E+00
    0.00000E+00         0.00000E+00        -0.38096E+08
 
   -0.38276E+08         0.27383E+07         0.00000E+00
    0.27383E+07        -0.50410E+08         0.00000E+00
    0.00000E+00         0.00000E+00        -0.38095E+08
 
   -0.38260E+08         0.28356E+07         0.00000E+00
    0.28356E+07        -0.50423E+08         0.00000E+00
    0.00000E+00         0.00000E+00        -0.38094E+08
 
   -0.38243E+08         0.29342E+07         0.00000E+00
    0.29342E+07        -0.50435E+08         0.00000E+00
    0.00000E+00         0.00000E+00        -0.38093E+08
 
   -0.38225E+08         0.30342E+07         0.00000E+00
    0.30342E+07        -0.50446E+08         0.00000E+00
    0.00000E+00         0.00000E+00        -0.38092E+08
 
   -0.38208E+08         0.31356E+07         0.00000E+00
    0.31356E+07        -0.50458E+08         0.00000E+00
    0.00000E+00         0.00000E+00        -0.38091E+08
 
   -0.38191E+08         0.32384E+07         0.00000E+00
    0.32384E+07        -0.50468E+08         0.00000E+00
    0.00000E+00         0.00000E+00        -0.38090E+08
 
   -0.38174E+08         0.33425E+07         0.00000E+00
    0.33425E+07        -0.50479E+08         0.00000E+00
    0.00000E+00         0.00000E+00        -0.38089E+08
 
   -0.38156E+08         0.34480E+07         0.00000E+00
    0.34480E+07        -0.50489E+08         0.00000E+00
    0.00000E+00         0.00000E+00        -0.38087E+08
 
   -0.38139E+08         0.35548E+07         0.00000E+00
    0.35548E+07        -0.50498E+08         0.00000E+00
    0.00000E+00         0.00000E+00        -0.38086E+08
 
   -0.38122E+08         0.36630E+07         0.00000E+00
    0.36630E+07        -0.50507E+08         0.00000E+00
    0.00000E+00         0.00000E+00        -0.38084E+08
 
   -0.38105E+08         0.37725E+07         0.00000E+00
    0.37725E+07        -0.50516E+08         0.00000E+00
    0.00000E+00         0.00000E+00        -0.38082E+08
 
   -0.38088E+08         0.38833E+07         0.00000E+00
    0.38833E+07        -0.50524E+08         0.00000E+00
    0.00000E+00         0.00000E+00        -0.38080E+08
 
   -0.38001E+08         0.22456E+05         0.00000E+00
    0.22456E+05        -0.49999E+08         0.00000E+00
    0.00000E+00         0.00000E+00        -0.37482E+08
 
   -0.38031E+08         0.68872E+05         0.00000E+00
    0.68872E+05        -0.50001E+08         0.00000E+00
    0.00000E+00         0.00000E+00        -0.37488E+08
 
   -0.38058E+08         0.11603E+06         0.00000E+00
    0.11603E+06        -0.50003E+08         0.00000E+00
    0.00000E+00         0.00000E+00        -0.37494E+08
 
   -0.38082E+08         0.16399E+06         0.00000E+00
    0.16399E+06        -0.50006E+08         0.00000E+00
    0.00000E+00         0.00000E+00        -0.37499E+08
 
   -0.38103E+08         0.21283E+06         0.00000E+00
    0.21283E+06        -0.50011E+08         0.00000E+00
    0.00000E+00         0.00000E+00        -0.37504E+08
 
   -0.38121E+08         0.26261E+06         0.00000E+00
    0.26261E+06        -0.50017E+08         0.00000E+00
    0.00000E+00         0.00000E+00        -0.37509E+08
 
   -0.38137E+08         0.31339E+06         0.00000E+00
    0.31339E+06        -0.50023E+08         0.00000E+00
    0.00000E+00         0.00000E+00        -0.37514E+08
 
   -0.38151E+08         0.36523E+06         0.00000E+00
    0.36523E+06        -0.50031E+08         0.00000E+00
    0.00000E+00         0.00000E+00        -0.37518E+08
 
   -0.38162E+08         0.41818E+06         0.00000E+00
    0.41818E+06        -0.50039E+08         0.00000E+00
    0.00000E+00         0.00000E+00        -0.37522E+08
 
   -0.38171E+08         0.47228E+06         0.00000E+00
    0.47228E+06        -0.50048E+08         0.00000E+00
    0.00000E+00         0.00000E+00        -0.37525E+08
 
   -0.38178E+08         0.52759E+06         0.00000E+00
    0.52759E+06        -0.50058E+08         0.00000E+00
    0.00000E+00         0.00000E+00        -0.37529E+08
 
   -0.38182E+08         0.58415E+06         0.00000E+00
    0.58415E+06        -0.50069E+08         0.00000E+00
    0.00000E+00         0.00000E+00        -0.37532E+08
 
   -0.38185E+08         0.64200E+06         0.00000E+00
    0.64200E+06        -0.50080E+08         0.00000E+00
    0.00000E+00         0.00000E+00        -0.37535E+08
 
   -0.38185E+08         0.70117E+06         0.00000E+00
    0.70117E+06        -0.50093E+08         0.00000E+00
    0.00000E+00         0.00000E+00        -0.37537E+08
 
   -0.38184E+08         0.76171E+06         0.00000E+00
    0.76171E+06        -0.50105E+08         0.00000E+00
    0.00000E+00         0.00000E+00        -0.37539E+08
 
   -0.38181E+08         0.82363E+06         0.00000E+00
    0.82363E+06        -0.50119E+08         0.00000E+00
    0.00000E+00         0.00000E+00        -0.37541E+08
 
   -0.38176E+08         0.88698E+06         0.00000E+00
    0.88698E+06        -0.50133E+08         0.00000E+00
    0.00000E+00         0.00000E+00        -0.37543E+08
 
   -0.38170E+08         0.95177E+06         0.00000E+00
    0.95177E+06        -0.50147E+08         0.00000E+00
    0.00000E+00         0.00000E+00        -0.37545E+08
 
   -0.38162E+08         0.10180E+07         0.00000E+00
    0.10180E+07        -0.50162E+08         0.00000E+00
    0.00000E+00         0.00000E+00        -0.37546E+08
 
   -0.38152E+08         0.10858E+07         0.00000E+00
    0.10858E+07        -0.50177E+08         0.00000E+00
    0.00000E+00         0.00000E+00        -0.37547E+08
 
   -0.38141E+08         0.11551E+07         0.00000E+00
    0.11551E+07        -0.50193E+08         0.00000E+00
    0.00000E+00         0.00000E+00        -0.37548E+08
 
   -0.38129E+08         0.12258E+07         0.00000E+00
    0.12258E+07        -0.50209E+08         0.00000E+00
    0.00000E+00         0.00000E+00        -0.37549E+08
 
   -0.38115E+08         0.12982E+07         0.00000E+00
    0.12982E+07        -0.50225E+08         0.00000E+00
    0.00000E+00         0.00000E+00        -0.37550E+08
 
   -0.38101E+08         0.13720E+07         0.00000E+00
    0.13720E+07        -0.50241E+08         0.00000E+00
    0.00000E+00         0.00000E+00        -0.37550E+08
 
   -0.38085E+08         0.14475E+07         0.00000E+00
    0.14475E+07        -0.50258E+08         0.00000E+00
    0.00000E+00         0.00000E+00        -0.37550E+08
 
   -0.38068E+08         0.15245E+07         0.00000E+00
    0.15245E+07        -0.50275E+08         0.00000E+00
    0.00000E+00         0.00000E+00        -0.37550E+08
 
   -0.38051E+08         0.16031E+07         0.00000E+00
    0.16031E+07        -0.50292E+08         0.00000E+00
    0.00000E+00         0.00000E+00        -0.37550E+08
 
   -0.38032E+08         0.16832E+07         0.00000E+00
    0.16832E+07        -0.50309E+08         0.00000E+00
    0.00000E+00         0.00000E+00        -0.37550E+08
 
   -0.38013E+08         0.17650E+07         0.00000E+00
    0.17650E+07        -0.50326E+08         0.00000E+00
    0.00000E+00         0.00000E+00        -0.37549E+08
 
   -0.37993E+08         0.18483E+07         0.00000E+00
    0.18483E+07        -0.50343E+08         0.00000E+00
    0.00000E+00         0.00000E+00        -0.37549E+08
 
   -0.37972E+08         0.19332E+07         0.00000E+00
    0.19332E+07        -0.50360E+08         0.00000E+00
    0.00000E+00         0.00000E+00        -0.37548E+08
 
   -0.37951E+08         0.20197E+07         0.00000E+00
    0.20197E+07        -0.50377E+08         0.00000E+00
    0.00000E+00         0.00000E+00        -0.37547E+08
 
   -0.37929E+08         0.21077E+07         0.00000E+00
    0.21077E+07        -0.50393E+08         0.00000E+00
    0.00000E+00         0.00000E+00        -0.37546E+08
 
   -0.37907E+08         0.21973E+07         0.00000E+00
    0.21973E+07        -0.50410E+08         0.00000E+00
    0.00000E+00         0.00000E+00        -0.37545E+08
 
   -0.37884E+08         0.22885E+07         0.00000E+00
    0.22885E+07        -0.50427E+08         0.00000E+00
    0.00000E+00         0.00000E+00        -0.37544E+08
 
   -0.37861E+08         0.23813E+07         0.00000E+00
    0.23813E+07        -0.50443E+08         0.00000E+00
    0.00000E+00         0.00000E+00        -0.37542E+08
 
   -0.37837E+08         0.24755E+07         0.00000E+00
    0.24755E+07        -0.50459E+08         0.00000E+00
    0.00000E+00         0.00000E+00        -0.37541E+08
 
   -0.37814E+08         0.25714E+07         0.00000E+00
    0.25714E+07        -0.50475E+08         0.00000E+00
    0.00000E+00         0.00000E+00        -0.37539E+08
 
   -0.37790E+08         0.26687E+07         0.00000E+00
    0.26687E+07        -0.50490E+08         0.00000E+00
    0.00000E+00         0.00000E+00        -0.37538E+08
 
   -0.37766E+08         0.27676E+07         0.00000E+00
    0.27676E+07        -0.50506E+08         0.00000E+00
    0.00000E+00         0.00000E+00        -0.37536E+08
 
   -0.37741E+08         0.28680E+07         0.00000E+00
    0.28680E+07        -0.50521E+08         0.00000E+00
    0.00000E+00         0.00000E+00        -0.37534E+08
 
   -0.37717E+08         0.29699E+07         0.00000E+00
    0.29699E+07        -0.50535E+08         0.00000E+00
    0.00000E+00         0.00000E+00        -0.37532E+08
 
   -0.37693E+08         0.30732E+07         0.00000E+00
    0.30732E+07        -0.50549E+08         0.00000E+00
    0.00000E+00         0.00000E+00        -0.37530E+08
 
   -0.37669E+08         0.31780E+07         0.00000E+00
    0.31780E+07        -0.50563E+08         0.00000E+00
    0.00000E+00         0.00000E+00        -0.37528E+08
 
   -0.37644E+08         0.32843E+07         0.00000E+00
    0.32843E+07        -0.50576E+08         0.00000E+00
    0.00000E+00         0.00000E+00        -0.37526E+08
 
   -0.37620E+08         0.33921E+07         0.00000E+00
    0.33921E+07        -0.50589E+08         0.00000E+00
    0.00000E+00         0.00000E+00        -0.37523E+08
 
   -0.37596E+08         0.35012E+07         0.00000E+00
    0.35012E+07        -0.50602E+08         0.00000E+00
    0.00000E+00         0.00000E+00        -0.37521E+08
 
   -0.37572E+08         0.36118E+07         0.00000E+00
    0.36118E+07        -0.50614E+08         0.00000E+00
    0.00000E+00         0.00000E+00        -0.37519E+08
 
   -0.37548E+08         0.37238E+07         0.00000E+00
    0.37238E+07        -0.50625E+08         0.00000E+00
    0.00000E+00         0.00000E+00        -0.37516E+08
 
   -0.37524E+08         0.38371E+07         0.00000E+00
    0.38371E+07        -0.50636E+08         0.00000E+00
    0.00000E+00         0.00000E+00        -0.37514E+08
 
   -0.37787E+08         0.19057E+05         0.00000E+00
    0.19057E+05        -0.49999E+08         0.00000E+00
    0.00000E+00         0.00000E+00        -0.36951E+08
 
   -0.37812E+08         0.59158E+05         0.00000E+00
    0.59158E+05        -0.50001E+08         0.00000E+00
    0.00000E+00         0.00000E+00        -0.36956E+08
 
   -0.37835E+08         0.10021E+06         0.00000E+00
    0.10021E+06        -0.50004E+08         0.00000E+00
    0.00000E+00         0.00000E+00        -0.36961E+08
 
   -0.37854E+08         0.14230E+06         0.00000E+00
    0.14230E+06        -0.50008E+08         0.00000E+00
    0.00000E+00         0.00000E+00        -0.36966E+08
 
   -0.37870E+08         0.18549E+06         0.00000E+00
    0.18549E+06        -0.50013E+08         0.00000E+00
    0.00000E+00         0.00000E+00        -0.36970E+08
 
   -0.37883E+08         0.22985E+06         0.00000E+00
    0.22985E+06        -0.50019E+08         0.00000E+00
    0.00000E+00         0.00000E+00        -0.36974E+08
 
   -0.37893E+08         0.27545E+06         0.00000E+00
    0.27545E+06        -0.50027E+08         0.00000E+00
    0.00000E+00         0.00000E+00        -0.36977E+08
 
   -0.37901E+08         0.32234E+06         0.00000E+00
    0.32234E+06        -0.50036E+08         0.00000E+00
    0.00000E+00         0.00000E+00        -0.36981E+08
 
   -0.37906E+08         0.37058E+06         0.00000E+00
    0.37058E+06        -0.50046E+08         0.00000E+00
    0.00000E+00         0.00000E+00        -0.36984E+08
 
   -0.37908E+08         0.42023E+06         0.00000E+00
    0.42023E+06        -0.50057E+08         0.00000E+00
    0.00000E+00         0.00000E+00        -0.36986E+08
 
   -0.37908E+08         0.47132E+06         0.00000E+00
    0.47132E+06        -0.50068E+08         0.00000E+00
    0.00000E+00         0.00000E+00        -0.36989E+08
 
   -0.37906E+08         0.52391E+06         0.00000E+00
    0.52391E+06        -0.50081E+08         0.00000E+00
    0.00000E+00         0.00000E+00        -0.36991E+08
 
   -0.37901E+08         0.57802E+06         0.00000E+00
    0.57802E+06        -0.50094E+08         0.00000E+00
    0.00000E+00         0.00000E+00        -0.36992E+08
 
   -0.37894E+08         0.63371E+06         0.00000E+00
    0.63371E+06        -0.50108E+08         0.00000E+00
    0.00000E+00         0.00000E+00        -0.36994E+08
 
   -0.37886E+08         0.69100E+06         0.00000E+00
    0.69100E+06        -0.50123E+08         0.00000E+00
    0.00000E+00         0.00000E+00        -0.36995E+08
 
   -0.37875E+08         0.74992E+06         0.00000E+00
    0.74992E+06        -0.50139E+08         0.00000E+00
    0.00000E+00         0.00000E+00        -0.36996E+08
 
   -0.37862E+08         0.81050E+06         0.00000E+00
    0.81050E+06        -0.50155E+08         0.00000E+00
    0.00000E+00         0.00000E+00        -0.36997E+08
 
   -0.37848E+08         0.87276E+06         0.00000E+00
    0.87276E+06        -0.50172E+08         0.00000E+00
    0.00000E+00         0.00000E+00        -0.36997E+08
 
   -0.37832E+08         0.93672E+06         0.00000E+00
    0.93672E+06        -0.50189E+08         0.00000E+00
    0.00000E+00         0.00000E+00        -0.36998E+08
 
   -0.37814E+08         0.10024E+07         0.00000E+00
    0.10024E+07        -0.50207E+08         0.00000E+00
    0.00000E+00         0.00000E+00        -0.36998E+08
 
   -0.37795E+08         0.10698E+07         0.00000E+00
    0.10698E+07        -0.50225E+08         0.00000E+00
    0.00000E+00         0.00000E+00        -0.36997E+08
 
   -0.37775E+08         0.11390E+07         0.00000E+00
    0.11390E+07        -0.50244E+08         0.00000E+00
    0.00000E+00         0.00000E+00        -0.36997E+08
 
   -0.37753E+08         0.12099E+07         0.00000E+00
    0.12099E+07        -0.50263E+08         0.00000E+00
    0.00000E+00         0.00000E+00        -0.36997E+08
 
   -0.37730E+08         0.12826E+07         0.00000E+00
    0.12826E+07        -0.50282E+08         0.00000E+00
    0.00000E+00         0.00000E+00        -0.36996E+08
 
   -0.37706E+08         0.13571E+07         0.00000E+00
    0.13571E+07        -0.50301E+08         0.00000E+00
    0.00000E+00         0.00000E+00        -0.36995E+08
 
   -0.37681E+08         0.14333E+07         0.00000E+00
    0.14333E+07        -0.50321E+08         0.00000E+00
    0.00000E+00         0.00000E+00        -0.36994E+08
 
   -0.37655E+08         0.15113E+07         0.00000E+00
    0.15113E+07        -0.50341E+08         0.00000E+00
    0.00000E+00         0.00000E+00        -0.36993E+08
 
   -0.37628E+08         0.15911E+07         0.00000E+00
    0.15911E+07        -0.50360E+08         0.00000E+00
    0.00000E+00         0.00000E+00        -0.36991E+08
 
   -0.37600E+08         0.16727E+07         0.00000E+00
    0.16727E+07        -0.50380E+08         0.00000E+00
    0.00000E+00         0.00000E+00        -0.36990E+08
 
   -0.37572E+08         0.17560E+07         0.00000E+00
    0.17560E+07        -0.50400E+08         0.00000E+00
    0.00000E+00         0.00000E+00        -0.36988E+08
 
   -0.37543E+08         0.18411E+07         0.00000E+00
    0.18411E+07        -0.50420E+08         0.00000E+00
    0.00000E+00         0.00000E+00        -0.36986E+08
 
   -0.37513E+08         0.19280E+07         0.00000E+00
    0.19280E+07        -0.50440E+08         0.00000E+00
    0.00000E+00         0.00000E+00        -0.36984E+08
 
   -0.37483E+08         0.20165E+07         0.00000E+00
    0.20165E+07        -0.50460E+08         0.00000E+00
    0.00000E+00         0.00000E+00        -0.36982E+08
 
   -0.37453E+08         0.21069E+07         0.00000E+00
    0.21069E+07        -0.50480E+08         0.00000E+00
    0.00000E+00         0.00000E+00        -0.36980E+08
 
   -0.37422E+08         0.21989E+07         0.00000E+00
    0.21989E+07        -0.50499E+08         0.00000E+00
    0.00000E+00         0.00000E+00        -0.36978E+08
 
   -0.37390E+08         0.22927E+07         0.00000E+00
    0.22927E+07        -0.50519E+08         0.00000E+00
    0.00000E+00         0.00000E+00        -0.36975E+08
 
   -0.37359E+08         0.23882E+07         0.00000E+00
    0.23882E+07        -0.50538E+08         0.00000E+00
    0.00000E+00         0.00000E+00        -0.36973E+08
 
   -0.37327E+08         0.24853E+07         0.00000E+00
    0.24853E+07        -0.50557E+08         0.00000E+00
    0.00000E+00         0.00000E+00        -0.36970E+08
 
   -0.37295E+08         0.25842E+07         0.00000E+00
    0.25842E+07        -0.50575E+08         0.00000E+00
    0.00000E+00         0.00000E+00        -0.36968E+08
 
   -0.37263E+08         0.26846E+07         0.00000E+00
    0.26846E+07        -0.50594E+08         0.00000E+00
    0.00000E+00         0.00000E+00        -0.36965E+08
 
   -0.37231E+08         0.27867E+07         0.00000E+00
    0.27867E+07        -0.50612E+08         0.00000E+00
    0.00000E+00         0.00000E+00        -0.36962E+08
 
   -0.37199E+08         0.28904E+07         0.00000E+00
    0.28904E+07        -0.50629E+08         0.00000E+00
    0.00000E+00         0.00000E+00        -0.36959E+08
 
   -0.37167E+08         0.29957E+07         0.00000E+00
    0.29957E+07        -0.50646E+08         0.00000E+00
    0.00000E+00         0.00000E+00        -0.36956E+08
 
   -0.37136E+08         0.31026E+07         0.00000E+00
    0.31026E+07        -0.50663E+08         0.00000E+00
    0.00000E+00         0.00000E+00        -0.36953E+08
 
   -0.37104E+08         0.32110E+07         0.00000E+00
    0.32110E+07        -0.50680E+08         0.00000E+00
    0.00000E+00         0.00000E+00        -0.36950E+08
 
   -0.37072E+08         0.33210E+07         0.00000E+00
    0.33210E+07        -0.50696E+08         0.00000E+00
    0.00000E+00         0.00000E+00        -0.36947E+08
 
   -0.37041E+08         0.34325E+07         0.00000E+00
    0.34325E+07        -0.50711E+08         0.00000E+00
    0.00000E+00         0.00000E+00        -0.36944E+08
 
   -0.37009E+08         0.35454E+07         0.00000E+00
    0.35454E+07        -0.50726E+08         0.00000E+00
    0.00000E+00         0.00000E+00        -0.36941E+08
 
   -0.36978E+08         0.36598E+07         0.00000E+00
    0.36598E+07        -0.50741E+08         0.00000E+00
    0.00000E+00         0.00000E+00        -0.36937E+08
 
   -0.36948E+08         0.37757E+07         0.00000E+00
    0.37757E+07        -0.50755E+08         0.00000E+00
    0.00000E+00         0.00000E+00        -0.36934E+08
 
   -0.37607E+08         0.15050E+05         0.00000E+00
    0.15050E+05        -0.49999E+08         0.00000E+00
    0.00000E+00         0.00000E+00        -0.36415E+08
 
   -0.37627E+08         0.47756E+05         0.00000E+00
    0.47756E+05        -0.50001E+08         0.00000E+00
    0.00000E+00         0.00000E+00        -0.36420E+08
 
   -0.37644E+08         0.81690E+05         0.00000E+00
    0.81690E+05        -0.50004E+08         0.00000E+00
    0.00000E+00         0.00000E+00        -0.36424E+08
 
   -0.37657E+08         0.11693E+06         0.00000E+00
    0.11693E+06        -0.50009E+08         0.00000E+00
    0.00000E+00         0.00000E+00        -0.36427E+08
 
   -0.37667E+08         0.15356E+06         0.00000E+00
    0.15356E+06        -0.50015E+08         0.00000E+00
    0.00000E+00         0.00000E+00        -0.36431E+08
 
   -0.37673E+08         0.19164E+06         0.00000E+00
    0.19164E+06        -0.50023E+08         0.00000E+00
    0.00000E+00         0.00000E+00        -0.36433E+08
 
   -0.37677E+08         0.23125E+06         0.00000E+00
    0.23125E+06        -0.50032E+08         0.00000E+00
    0.00000E+00         0.00000E+00        -0.36436E+08
 
   -0.37677E+08         0.27244E+06         0.00000E+00
    0.27244E+06        -0.50042E+08         0.00000E+00
    0.00000E+00         0.00000E+00        -0.36438E+08
 
   -0.37674E+08         0.31527E+06         0.00000E+00
    0.31527E+06        -0.50053E+08         0.00000E+00
    0.00000E+00         0.00000E+00        -0.36440E+08
 
   -0.37669E+08         0.35978E+06         0.00000E+00
    0.35978E+06        -0.50066E+08         0.00000E+00
    0.00000E+00         0.00000E+00        -0.36441E+08
 
   -0.37661E+08         0.40603E+06         0.00000E+00
    0.40603E+06        -0.50079E+08         0.00000E+00
    0.00000E+00         0.00000E+00        -0.36442E+08
 
   -0.37650E+08         0.45406E+06         0.00000E+00
    0.45406E+06        -0.50094E+08         0.00000E+00
    0.00000E+00         0.00000E+00        -0.36443E+08
 
   -0.37637E+08         0.50391E+06         0.00000E+00
    0.50391E+06        -0.50109E+08         0.00000E+00
    0.00000E+00         0.00000E+00        -0.36443E+08
 
   -0.37622E+08         0.55560E+06         0.00000E+00
    0.55560E+06        -0.50125E+08         0.00000E+00
    0.00000E+00         0.00000E+00        -0.36444E+08
 
   -0.37604E+08         0.60918E+06         0.00000E+00
    0.60918E+06        -0.50142E+08         0.00000E+00
    0.00000E+00         0.00000E+00        -0.36443E+08
 
   -0.37584E+08         0.66466E+06         0.00000E+00
    0.66466E+06        -0.50160E+08         0.00000E+00
    0.00000E+00         0.00000E+00        -0.36443E+08
 
   -0.37563E+08         0.72206E+06         0.00000E+00
    0.72206E+06        -0.50179E+08         0.00000E+00
    0.00000E+00         0.00000E+00        -0.36442E+08
 
   -0.37539E+08         0.78142E+06         0.00000E+00
    0.78142E+06        -0.50198E+08         0.00000E+00
    0.00000E+00         0.00000E+00        -0.36442E+08
 
   -0.37514E+08         0.84274E+06         0.00000E+00
    0.84274E+06        -0.50218E+08         0.00000E+00
    0.00000E+00         0.00000E+00        -0.36441E+08
 
   -0.37487E+08         0.90603E+06         0.00000E+00
    0.90603E+06        -0.50238E+08         0.00000E+00
    0.00000E+00         0.00000E+00        -0.36439E+08
 
   -0.37459E+08         0.97132E+06         0.00000E+00
    0.97132E+06        -0.50259E+08         0.00000E+00
    0.00000E+00         0.00000E+00        -0.36438E+08
 
   -0.37429E+08         0.10386E+07         0.00000E+00
    0.10386E+07        -0.50281E+08         0.00000E+00
    0.00000E+00         0.00000E+00        -0.36436E+08
 
   -0.37398E+08         0.11079E+07         0.00000E+00
    0.11079E+07        -0.50302E+08         0.00000E+00
    0.00000E+00         0.00000E+00        -0.36434E+08
 
   -0.37365E+08         0.11792E+07         0.00000E+00
    0.11792E+07        -0.50324E+08         0.00000E+00
    0.00000E+00         0.00000E+00        -0.36432E+08
 
   -0.37332E+08         0.12524E+07         0.00000E+00
    0.12524E+07        -0.50346E+08         0.00000E+00
    0.00000E+00         0.00000E+00        -0.36430E+08
 
   -0.37298E+08         0.13277E+07         0.00000E+00
    0.13277E+07        -0.50369E+08         0.00000E+00
    0.00000E+00         0.00000E+00        -0.36427E+08
 
   -0.37262E+08         0.14050E+07         0.00000E+00
    0.14050E+07        -0.50392E+08         0.00000E+00
    0.00000E+00         0.00000E+00        -0.36425E+08
 
   -0.37226E+08         0.14843E+07         0.00000E+00
    0.14843E+07        -0.50415E+08         0.00000E+00
    0.00000E+00         0.00000E+00        -0.36422E+08
 
   -0.37189E+08         0.15655E+07         0.00000E+00
    0.15655E+07        -0.50437E+08         0.00000E+00
    0.00000E+00         0.00000E+00        -0.36419E+08
 
   -0.37151E+08         0.16487E+07         0.00000E+00
    0.16487E+07        -0.50460E+08         0.00000E+00
    0.00000E+00         0.00000E+00        -0.36416E+08
 
   -0.37113E+08         0.17339E+07         0.00000E+00
    0.17339E+07        -0.50483E+08         0.00000E+00
    0.00000E+00         0.00000E+00        -0.36413E+08
 
   -0.37074E+08         0.18210E+07         0.00000E+00
    0.18210E+07        -0.50506E+08         0.00000E+00
    0.00000E+00         0.00000E+00        -0.36410E+08
 
   -0.37035E+08         0.19101E+07         0.00000E+00
    0.19101E+07        -0.50529E+08         0.00000E+00
    0.00000E+00         0.00000E+00        -0.36407E+08
 
   -0.36995E+08         0.20011E+07         0.00000E+00
    0.20011E+07        -0.50552E+08         0.00000E+00
    0.00000E+00         0.00000E+00        -0.36404E+08
 
   -0.36955E+08         0.20939E+07         0.00000E+00
    0.20939E+07        -0.50575E+08         0.00000E+00
    0.00000E+00         0.00000E+00        -0.36400E+08
 
   -0.36915E+08         0.21887E+07         0.00000E+00
    0.21887E+07        -0.50597E+08         0.00000E+00
    0.00000E+00         0.00000E+00        -0.36397E+08
 
   -0.36874E+08         0.22853E+07         0.00000E+00
    0.22853E+07        -0.50620E+08         0.00000E+00
    0.00000E+00         0.00000E+00        -0.36393E+08
 
   -0.36834E+08         0.23837E+07         0.00000E+00
    0.23837E+07        -0.50642E+08         0.00000E+00
    0.00000E+00         0.00000E+00        -0.36389E+08
 
   -0.36794E+08         0.24839E+07         0.00000E+00
    0.24839E+07        -0.50664E+08         0.00000E+00
    0.00000E+00         0.00000E+00        -0.36386E+08
 
   -0.36753E+08         0.25860E+07         0.00000E+00
    0.25860E+07        -0.50685E+08         0.00000E+00
    0.00000E+00         0.00000E+00        -0.36382E+08
 
   -0.36713E+08         0.26898E+07         0.00000E+00
    0.26898E+07        -0.50706E+08         0.00000E+00
    0.00000E+00         0.00000E+00        -0.36378E+08
 
   -0.36672E+08         0.27953E+07         0.00000E+00
    0.27953E+07        -0.50727E+08         0.00000E+00
    0.00000E+00         0.00000E+00        -0.36374E+08
 
   -0.36632E+08         0.29025E+07         0.00000E+00
    0.29025E+07        -0.50747E+08         0.00000E+00
    0.00000E+00         0.00000E+00        -0.36370E+08
 
   -0.36592E+08         0.30115E+07         0.00000E+00
    0.30115E+07        -0.50768E+08         0.00000E+00
    0.00000E+00         0.00000E+00        -0.36366E+08
 
   -0.36552E+08         0.31220E+07         0.00000E+00
    0.31220E+07        -0.50787E+08         0.00000E+00
    0.00000E+00         0.00000E+00        -0.36362E+08
 
   -0.36513E+08         0.32342E+07         0.00000E+00
    0.32342E+07        -0.50806E+08         0.00000E+00
    0.00000E+00         0.00000E+00        -0.36358E+08
 
   -0.36474E+08         0.33480E+07         0.00000E+00
    0.33480E+07        -0.50825E+08         0.00000E+00
    0.00000E+00         0.00000E+00        -0.36354E+08
 
   -0.36435E+08         0.34634E+07         0.00000E+00
    0.34634E+07        -0.50843E+08         0.00000E+00
    0.00000E+00         0.00000E+00        -0.36350E+08
 
   -0.36396E+08         0.35802E+07         0.00000E+00
    0.35802E+07        -0.50861E+08         0.00000E+00
    0.00000E+00         0.00000E+00        -0.36346E+08
 
   -0.36358E+08         0.36986E+07         0.00000E+00
    0.36986E+07        -0.50878E+08         0.00000E+00
    0.00000E+00         0.00000E+00        -0.36342E+08
 
   -0.37468E+08         0.10378E+05         0.00000E+00
    0.10378E+05        -0.49999E+08         0.00000E+00
    0.00000E+00         0.00000E+00        -0.35878E+08
 
   -0.37481E+08         0.34531E+05         0.00000E+00
    0.34531E+05        -0.50001E+08         0.00000E+00
    0.00000E+00         0.00000E+00        -0.35881E+08
 
   -0.37491E+08         0.60253E+05         0.00000E+00
    0.60253E+05        -0.50005E+08         0.00000E+00
    0.00000E+00         0.00000E+00        -0.35883E+08
 
   -0.37496E+08         0.87630E+05         0.00000E+00
    0.87630E+05        -0.50010E+08         0.00000E+00
    0.00000E+00         0.00000E+00        -0.35886E+08
 
   -0.37498E+08         0.11674E+06         0.00000E+00
    0.11674E+06        -0.50017E+08         0.00000E+00
    0.00000E+00         0.00000E+00        -0.35887E+08
 
   -0.37496E+08         0.14765E+06         0.00000E+00
    0.14765E+06        -0.50026E+08         0.00000E+00
    0.00000E+00         0.00000E+00        -0.35889E+08
 
   -0.37491E+08         0.18043E+06         0.00000E+00
    0.18043E+06        -0.50036E+08         0.00000E+00
    0.00000E+00         0.00000E+00        -0.35890E+08
 
   -0.37482E+08         0.21514E+06         0.00000E+00
    0.21514E+06        -0.50048E+08         0.00000E+00
    0.00000E+00         0.00000E+00        -0.35890E+08
 
   -0.37471E+08         0.25183E+06         0.00000E+00
    0.25183E+06        -0.50061E+08         0.00000E+00
    0.00000E+00         0.00000E+00        -0.35891E+08
 
   -0.37456E+08         0.29055E+06         0.00000E+00
    0.29055E+06        -0.50075E+08         0.00000E+00
    0.00000E+00         0.00000E+00        -0.35891E+08
 
   -0.37438E+08         0.33134E+06         0.00000E+00
    0.33134E+06        -0.50090E+08         0.00000E+00
    0.00000E+00         0.00000E+00        -0.35890E+08
 
   -0.37418E+08         0.37424E+06         0.00000E+00
    0.37424E+06        -0.50107E+08         0.00000E+00
    0.00000E+00         0.00000E+00        -0.35889E+08
 
   -0.37395E+08         0.41928E+06         0.00000E+00
    0.41928E+06        -0.50124E+08         0.00000E+00
    0.00000E+00         0.00000E+00        -0.35888E+08
 
   -0.37369E+08         0.46650E+06         0.00000E+00
    0.46650E+06        -0.50143E+08         0.00000E+00
    0.00000E+00         0.00000E+00        -0.35887E+08
 
   -0.37341E+08         0.51590E+06         0.00000E+00
    0.51590E+06        -0.50162E+08         0.00000E+00
    0.00000E+00         0.00000E+00        -0.35885E+08
 
   -0.37311E+08         0.56752E+06         0.00000E+00
    0.56752E+06        -0.50182E+08         0.00000E+00
    0.00000E+00         0.00000E+00        -0.35883E+08
 
   -0.37279E+08         0.62137E+06         0.00000E+00
    0.62137E+06        -0.50203E+08         0.00000E+00
    0.00000E+00         0.00000E+00        -0.35881E+08
 
   -0.37245E+08         0.67747E+06         0.00000E+00
    0.67747E+06        -0.50225E+08         0.00000E+00
    0.00000E+00         0.00000E+00        -0.35878E+08
 
   -0.37209E+08         0.73581E+06         0.00000E+00
    0.73581E+06        -0.50248E+08         0.00000E+00
    0.00000E+00         0.00000E+00        -0.35876E+08
 
   -0.37172E+08         0.79642E+06         0.00000E+00
    0.79642E+06        -0.50271E+08         0.00000E+00
    0.00000E+00         0.00000E+00        -0.35873E+08
 
   -0.37133E+08         0.85929E+06         0.00000E+00
    0.85929E+06        -0.50294E+08         0.00000E+00
    0.00000E+00         0.00000E+00        -0.35870E+08
 
   -0.37093E+08         0.92441E+06         0.00000E+00
    0.92441E+06        -0.50318E+08         0.00000E+00
    0.00000E+00         0.00000E+00        -0.35867E+08
 
   -0.37051E+08         0.99180E+06         0.00000E+00
    0.99180E+06        -0.50343E+08         0.00000E+00
    0.00000E+00         0.00000E+00        -0.35863E+08
 
   -0.37008E+08         0.10614E+07         0.00000E+00
    0.10614E+07        -0.50367E+08         0.00000E+00
    0.00000E+00         0.00000E+00        -0.35859E+08
 
   -0.36964E+08         0.11333E+07         0.00000E+00
    0.11333E+07        -0.50392E+08         0.00000E+00
    0.00000E+00         0.00000E+00        -0.35856E+08
 
   -0.36919E+08         0.12075E+07         0.00000E+00
    0.12075E+07        -0.50418E+08         0.00000E+00
    0.00000E+00         0.00000E+00        -0.35852E+08
 
   -0.36873E+08         0.12838E+07         0.00000E+00
    0.12838E+07        -0.50444E+08         0.00000E+00
    0.00000E+00         0.00000E+00        -0.35848E+08
 
   -0.36826E+08         0.13624E+07         0.00000E+00
    0.13624E+07        -0.50469E+08         0.00000E+00
    0.00000E+00         0.00000E+00        -0.35843E+08
 
   -0.36779E+08         0.14432E+07         0.00000E+00
    0.14432E+07        -0.50495E+08         0.00000E+00
    0.00000E+00         0.00000E+00        -0.35839E+08
 
   -0.36730E+08         0.15262E+07         0.00000E+00
    0.15262E+07        -0.50521E+08         0.00000E+00
    0.00000E+00         0.00000E+00        -0.35835E+08
 
   -0.36682E+08         0.16113E+07         0.00000E+00
    0.16113E+07        -0.50547E+08         0.00000E+00
    0.00000E+00         0.00000E+00        -0.35830E+08
 
   -0.36633E+08         0.16986E+07         0.00000E+00
    0.16986E+07        -0.50573E+08         0.00000E+00
    0.00000E+00         0.00000E+00        -0.35826E+08
 
   -0.36583E+08         0.17880E+07         0.00000E+00
    0.17880E+07        -0.50599E+08         0.00000E+00
    0.00000E+00         0.00000E+00        -0.35821E+08
 
   -0.36534E+08         0.18795E+07         0.00000E+00
    0.18795E+07        -0.50625E+08         0.00000E+00
    0.00000E+00         0.00000E+00        -0.35816E+08
 
   -0.36484E+08         0.19731E+07         0.00000E+00
    0.19731E+07        -0.50651E+08         0.00000E+00
    0.00000E+00         0.00000E+00        -0.35811E+08
 
   -0.36434E+08         0.20687E+07         0.00000E+00
    0.20687E+07        -0.50677E+08         0.00000E+00
    0.00000E+00         0.00000E+00        -0.35807E+08
 
   -0.36384E+08         0.21664E+07         0.00000E+00
    0.21664E+07        -0.50703E+08         0.00000E+00
    0.00000E+00         0.00000E+00        -0.35802E+08
 
   -0.36334E+08         0.22660E+07         0.00000E+00
    0.22660E+07        -0.50728E+08         0.00000E+00
    0.00000E+00         0.00000E+00        -0.35797E+08
 
   -0.36284E+08         0.23676E+07         0.00000E+00
    0.23676E+07        -0.50753E+08         0.00000E+00
    0.00000E+00         0.00000E+00        -0.35792E+08
 
   -0.36235E+08         0.24712E+07         0.00000E+00
    0.24712E+07        -0.50778E+08         0.00000E+00
    0.00000E+00         0.00000E+00        -0.35787E+08
 
   -0.36185E+08         0.25767E+07         0.00000E+00
    0.25767E+07        -0.50802E+08         0.00000E+00
    0.00000E+00         0.00000E+00        -0.35782E+08
 
   -0.36136E+08         0.26840E+07         0.00000E+00
    0.26840E+07        -0.50826E+08         0.00000E+00
    0.00000E+00         0.00000E+00        -0.35777E+08
 
   -0.36087E+08         0.27932E+07         0.00000E+00
    0.27932E+07        -0.50850E+08         0.00000E+00
    0.00000E+00         0.00000E+00        -0.35772E+08
 
   -0.36038E+08         0.29041E+07         0.00000E+00
    0.29041E+07        -0.50873E+08         0.00000E+00
    0.00000E+00         0.00000E+00        -0.35767E+08
 
   -0.35990E+08         0.30168E+07         0.00000E+00
    0.30168E+07        -0.50896E+08         0.00000E+00
    0.00000E+00         0.00000E+00        -0.35762E+08
 
   -0.35942E+08         0.31313E+07         0.00000E+00
    0.31313E+07        -0.50919E+08         0.00000E+00
    0.00000E+00         0.00000E+00        -0.35757E+08
 
   -0.35895E+08         0.32474E+07         0.00000E+00
    0.32474E+07        -0.50941E+08         0.00000E+00
    0.00000E+00         0.00000E+00        -0.35752E+08
 
   -0.35848E+08         0.33651E+07         0.00000E+00
    0.33651E+07        -0.50962E+08         0.00000E+00
    0.00000E+00         0.00000E+00        -0.35747E+08
 
   -0.35802E+08         0.34844E+07         0.00000E+00
    0.34844E+07        -0.50983E+08         0.00000E+00
    0.00000E+00         0.00000E+00        -0.35741E+08
 
   -0.35757E+08         0.36053E+07         0.00000E+00
    0.36053E+07        -0.51004E+08         0.00000E+00
    0.00000E+00         0.00000E+00        -0.35736E+08
 
   -0.37375E+08         0.49960E+04         0.00000E+00
    0.49960E+04        -0.49999E+08         0.00000E+00
    0.00000E+00         0.00000E+00        -0.35339E+08
 
   -0.37380E+08         0.19383E+05         0.00000E+00
    0.19383E+05        -0.50001E+08         0.00000E+00
    0.00000E+00         0.00000E+00        -0.35341E+08
 
   -0.37380E+08         0.35767E+05         0.00000E+00
    0.35767E+05        -0.50006E+08         0.00000E+00
    0.00000E+00         0.00000E+00        -0.35342E+08
 
   -0.37376E+08         0.54234E+05         0.00000E+00
    0.54234E+05        -0.50012E+08         0.00000E+00
    0.00000E+00         0.00000E+00        -0.35342E+08
 
   -0.37368E+08         0.74857E+05         0.00000E+00
    0.74857E+05        -0.50020E+08         0.00000E+00
    0.00000E+00         0.00000E+00        -0.35342E+08
 
   -0.37356E+08         0.97705E+05         0.00000E+00
    0.97705E+05        -0.50030E+08         0.00000E+00
    0.00000E+00         0.00000E+00        -0.35342E+08
 
   -0.37341E+08         0.12284E+06         0.00000E+00
    0.12284E+06        -0.50041E+08         0.00000E+00
    0.00000E+00         0.00000E+00        -0.35341E+08
 
   -0.37321E+08         0.15031E+06         0.00000E+00
    0.15031E+06        -0.50054E+08         0.00000E+00
    0.00000E+00         0.00000E+00        -0.35340E+08
 
   -0.37298E+08         0.18017E+06         0.00000E+00
    0.18017E+06        -0.50069E+08         0.00000E+00
    0.00000E+00         0.00000E+00        -0.35338E+08
 
   -0.37272E+08         0.21245E+06         0.00000E+00
    0.21245E+06        -0.50084E+08         0.00000E+00
    0.00000E+00         0.00000E+00        -0.35336E+08
 
   -0.37243E+08         0.24720E+06         0.00000E+00
    0.24720E+06        -0.50102E+08         0.00000E+00
    0.00000E+00         0.00000E+00        -0.35334E+08
 
   -0.37211E+08         0.28444E+06         0.00000E+00
    0.28444E+06        -0.50120E+08         0.00000E+00
    0.00000E+00         0.00000E+00        -0.35331E+08
 
   -0.37177E+08         0.32418E+06         0.00000E+00
    0.32418E+06        -0.50140E+08         0.00000E+00
    0.00000E+00         0.00000E+00        -0.35328E+08
 
   -0.37139E+08         0.36647E+06         0.00000E+00
    0.36647E+06        -0.50160E+08         0.00000E+00
    0.00000E+00         0.00000E+00        -0.35325E+08
 
   -0.37100E+08         0.41129E+06         0.00000E+00
    0.41129E+06        -0.50182E+08         0.00000E+00
    0.00000E+00         0.00000E+00        -0.35321E+08
 
   -0.37058E+08         0.45868E+06         0.00000E+00
    0.45868E+06        -0.50204E+08         0.00000E+00
    0.00000E+00         0.00000E+00        -0.35317E+08
 
   -0.37014E+08         0.50862E+06         0.00000E+00
    0.50862E+06        -0.50228E+08         0.00000E+00
    0.00000E+00         0.00000E+00        -0.35313E+08
 
   -0.36968E+08         0.56113E+06         0.00000E+00
    0.56113E+06        -0.50252E+08         0.00000E+00
    0.00000E+00         0.00000E+00        -0.35308E+08
 
   -0.36920E+08         0.61621E+06         0.00000E+00
    0.61621E+06        -0.50276E+08         0.00000E+00
    0.00000E+00         0.00000E+00        -0.35304E+08
 
   -0.36870E+08         0.67384E+06         0.00000E+00
    0.67384E+06        -0.50302E+08         0.00000E+00
    0.00000E+00         0.00000E+00        -0.35299E+08
 
   -0.36819E+08         0.73403E+06         0.00000E+00
    0.73403E+06        -0.50328E+08         0.00000E+00
    0.00000E+00         0.00000E+00        -0.35294E+08
 
   -0.36767E+08         0.79677E+06         0.00000E+00
    0.79677E+06        -0.50355E+08         0.00000E+00
    0.00000E+00         0.00000E+00        -0.35289E+08
 
   -0.36713E+08         0.86203E+06         0.00000E+00
    0.86203E+06        -0.50382E+08         0.00000E+00
    0.00000E+00         0.00000E+00        -0.35284E+08
 
   -0.36658E+08         0.92982E+06         0.00000E+00
    0.92982E+06        -0.50409E+08         0.00000E+00
    0.00000E+00         0.00000E+00        -0.35278E+08
 
   -0.36602E+08         0.10001E+07         0.00000E+00
    0.10001E+07        -0.50437E+08         0.00000E+00
    0.00000E+00         0.00000E+00        -0.35273E+08
 
   -0.36546E+08         0.10729E+07         0.00000E+00
    0.10729E+07        -0.50465E+08         0.00000E+00
    0.00000E+00         0.00000E+00        -0.35267E+08
 
   -0.36488E+08         0.11481E+07         0.00000E+00
    0.11481E+07        -0.50494E+08         0.00000E+00
    0.00000E+00         0.00000E+00        -0.35261E+08
 
   -0.36430E+08         0.12258E+07         0.00000E+00
    0.12258E+07        -0.50522E+08         0.00000E+00
    0.00000E+00         0.00000E+00        -0.35255E+08
 
   -0.36371E+08         0.13060E+07         0.00000E+00
    0.13060E+07        -0.50551E+08         0.00000E+00
    0.00000E+00         0.00000E+00        -0.35249E+08
 
   -0.36311E+08         0.13885E+07         0.00000E+00
    0.13885E+07        -0.50580E+08         0.00000E+00
    0.00000E+00         0.00000E+00        -0.35243E+08
 
   -0.36251E+08         0.14734E+07         0.00000E+00
    0.14734E+07        -0.50609E+08         0.00000E+00
    0.00000E+00         0.00000E+00        -0.35237E+08
 
   -0.36191E+08         0.15607E+07         0.00000E+00
    0.15607E+07        -0.50638E+08         0.00000E+00
    0.00000E+00         0.00000E+00        -0.35230E+08
 
   -0.36131E+08         0.16503E+07         0.00000E+00
    0.16503E+07        -0.50667E+08         0.00000E+00
    0.00000E+00         0.00000E+00        -0.35224E+08
 
   -0.36070E+08         0.17421E+07         0.00000E+00
    0.17421E+07        -0.50696E+08         0.00000E+00
    0.00000E+00         0.00000E+00        -0.35218E+08
 
   -0.36009E+08         0.18363E+07         0.00000E+00
    0.18363E+07        -0.50725E+08         0.00000E+00
    0.00000E+00         0.00000E+00        -0.35212E+08
 
   -0.35949E+08         0.19327E+07         0.00000E+00
    0.19327E+07        -0.50754E+08         0.00000E+00
    0.00000E+00         0.00000E+00        -0.35205E+08
 
   -0.35888E+08         0.20313E+07         0.00000E+00
    0.20313E+07        -0.50783E+08         0.00000E+00
    0.00000E+00         0.00000E+00        -0.35199E+08
 
   -0.35828E+08         0.21321E+07         0.00000E+00
    0.21321E+07        -0.50812E+08         0.00000E+00
    0.00000E+00         0.00000E+00        -0.35193E+08
 
   -0.35768E+08         0.22350E+07         0.00000E+00
    0.22350E+07        -0.50840E+08         0.00000E+00
    0.00000E+00         0.00000E+00        -0.35186E+08
 
   -0.35708E+08         0.23400E+07         0.00000E+00
    0.23400E+07        -0.50868E+08         0.00000E+00
    0.00000E+00         0.00000E+00        -0.35180E+08
 
   -0.35649E+08         0.24470E+07         0.00000E+00
    0.24470E+07        -0.50896E+08         0.00000E+00
    0.00000E+00         0.00000E+00        -0.35174E+08
 
   -0.35590E+08         0.25561E+07         0.00000E+00
    0.25561E+07        -0.50923E+08         0.00000E+00
    0.00000E+00         0.00000E+00        -0.35167E+08
 
   -0.35532E+08         0.26671E+07         0.00000E+00
    0.26671E+07        -0.50950E+08         0.00000E+00
    0.00000E+00         0.00000E+00        -0.35161E+08
 
   -0.35474E+08         0.27801E+07         0.00000E+00
    0.27801E+07        -0.50977E+08         0.00000E+00
    0.00000E+00         0.00000E+00        -0.35155E+08
 
   -0.35417E+08         0.28950E+07         0.00000E+00
    0.28950E+07        -0.51003E+08         0.00000E+00
    0.00000E+00         0.00000E+00        -0.35149E+08
 
   -0.35361E+08         0.30116E+07         0.00000E+00
    0.30116E+07        -0.51029E+08         0.00000E+00
    0.00000E+00         0.00000E+00        -0.35143E+08
 
   -0.35305E+08         0.31301E+07         0.00000E+00
    0.31301E+07        -0.51054E+08         0.00000E+00
    0.00000E+00         0.00000E+00        -0.35136E+08
 
   -0.35250E+08         0.32502E+07         0.00000E+00
    0.32502E+07        -0.51079E+08         0.00000E+00
    0.00000E+00         0.00000E+00        -0.35130E+08
 
   -0.35196E+08         0.33721E+07         0.00000E+00
    0.33721E+07        -0.51104E+08         0.00000E+00
    0.00000E+00         0.00000E+00        -0.35125E+08
 
   -0.35142E+08         0.34955E+07         0.00000E+00
    0.34955E+07        -0.51128E+08         0.00000E+00
    0.00000E+00         0.00000E+00        -0.35119E+08
 
   -0.37336E+08        -0.11242E+04         0.00000E+00
   -0.11242E+04        -0.49999E+08         0.00000E+00
    0.00000E+00         0.00000E+00        -0.34803E+08
 
   -0.37330E+08         0.22757E+04         0.00000E+00
    0.22757E+04        -0.50002E+08         0.00000E+00
    0.00000E+00         0.00000E+00        -0.34802E+08
 
   -0.37318E+08         0.82040E+04         0.00000E+00
    0.82040E+04        -0.50006E+08         0.00000E+00
    0.00000E+00         0.00000E+00        -0.34801E+08
 
   -0.37303E+08         0.16738E+05         0.00000E+00
    0.16738E+05        -0.50013E+08         0.00000E+00
    0.00000E+00         0.00000E+00        -0.34799E+08
 
   -0.37282E+08         0.27946E+05         0.00000E+00
    0.27946E+05        -0.50022E+08         0.00000E+00
    0.00000E+00         0.00000E+00        -0.34797E+08
 
   -0.37258E+08         0.41886E+05         0.00000E+00
    0.41886E+05        -0.50033E+08         0.00000E+00
    0.00000E+00         0.00000E+00        -0.34794E+08
 
   -0.37229E+08         0.58610E+05         0.00000E+00
    0.58610E+05        -0.50046E+08         0.00000E+00
    0.00000E+00         0.00000E+00        -0.34791E+08
 
   -0.37197E+08         0.78159E+05         0.00000E+00
    0.78159E+05        -0.50060E+08         0.00000E+00
    0.00000E+00         0.00000E+00        -0.34787E+08
 
   -0.37161E+08         0.10057E+06         0.00000E+00
    0.10057E+06        -0.50076E+08         0.00000E+00
    0.00000E+00         0.00000E+00        -0.34783E+08
 
   -0.37122E+08         0.12586E+06         0.00000E+00
    0.12586E+06        -0.50094E+08         0.00000E+00
    0.00000E+00         0.00000E+00        -0.34779E+08
 
   -0.37079E+08         0.15407E+06         0.00000E+00
    0.15407E+06        -0.50112E+08         0.00000E+00
    0.00000E+00         0.00000E+00        -0.34774E+08
 
   -0.37034E+08         0.18519E+06         0.00000E+00
    0.18519E+06        -0.50133E+08         0.00000E+00
    0.00000E+00         0.00000E+00        -0.34769E+08
 
   -0.36985E+08         0.21924E+06         0.00000E+00
    0.21924E+06        -0.50154E+08         0.00000E+00
    0.00000E+00         0.00000E+00        -0.34763E+08
 
   -0.36934E+08         0.25623E+06         0.00000E+00
    0.25623E+06        -0.50176E+08         0.00000E+00
    0.00000E+00         0.00000E+00        -0.34758E+08
 
   -0.36881E+08         0.29615E+06         0.00000E+00
    0.29615E+06        -0.50200E+08         0.00000E+00
    0.00000E+00         0.00000E+00        -0.34752E+08
 
   -0.36825E+08         0.33900E+06         0.00000E+00
    0.33900E+06        -0.50224E+08         0.00000E+00
    0.00000E+00         0.00000E+00        -0.34746E+08
 
   -0.36768E+08         0.38477E+06         0.00000E+00
    0.38477E+06        -0.50250E+08         0.00000E+00
    0.00000E+00         0.00000E+00        -0.34739E+08
 
   -0.36708E+08         0.43344E+06         0.00000E+00
    0.43344E+06        -0.50276E+08         0.00000E+00
    0.00000E+00         0.00000E+00        -0.34732E+08
 
   -0.36647E+08         0.48499E+06         0.00000E+00
    0.48499E+06        -0.50303E+08         0.00000E+00
    0.00000E+00         0.00000E+00        -0.34725E+08
 
   -0.36584E+08         0.53943E+06         0.00000E+00
    0.53943E+06        -0.50331E+08         0.00000E+00
    0.00000E+00         0.00000E+00        -0.34718E+08
 
   -0.36519E+08         0.59671E+06         0.00000E+00
    0.59671E+06        -0.50359E+08         0.00000E+00
    0.00000E+00         0.00000E+00        -0.34711E+08
 
   -0.36453E+08         0.65682E+06         0.00000E+00
    0.65682E+06        -0.50388E+08         0.00000E+00
    0.00000E+00         0.00000E+00        -0.34704E+08
 
   -0.36386E+08         0.71974E+06         0.00000E+00
    0.71974E+06        -0.50417E+08         0.00000E+00
    0.00000E+00         0.00000E+00        -0.34696E+08
 
   -0.36318E+08         0.78545E+06         0.00000E+00
    0.78545E+06        -0.50447E+08         0.00000E+00
    0.00000E+00         0.00000E+00        -0.34689E+08
 
   -0.36249E+08         0.85391E+06         0.00000E+00
    0.85391E+06        -0.50477E+08         0.00000E+00
    0.00000E+00         0.00000E+00        -0.34681E+08
 
   -0.36179E+08         0.92510E+06         0.00000E+00
    0.92510E+06        -0.50508E+08         0.00000E+00
    0.00000E+00         0.00000E+00        -0.34673E+08
 
   -0.36109E+08         0.99899E+06         0.00000E+00
    0.99899E+06        -0.50539E+08         0.00000E+00
    0.00000E+00         0.00000E+00        -0.34665E+08
 
   -0.36038E+08         0.10756E+07         0.00000E+00
    0.10756E+07        -0.50570E+08         0.00000E+00
    0.00000E+00         0.00000E+00        -0.34657E+08
 
   -0.35966E+08         0.11548E+07         0.00000E+00
    0.11548E+07        -0.50601E+08         0.00000E+00
    0.00000E+00         0.00000E+00        -0.34649E+08
 
   -0.35894E+08         0.12366E+07         0.00000E+00
    0.12366E+07        -0.50633E+08         0.00000E+00
    0.00000E+00         0.00000E+00        -0.34641E+08
 
   -0.35822E+08         0.13211E+07         0.00000E+00
    0.13211E+07        -0.50665E+08         0.00000E+00
    0.00000E+00         0.00000E+00        -0.34633E+08
 
   -0.35749E+08         0.14081E+07         0.00000E+00
    0.14081E+07        -0.50696E+08         0.00000E+00
    0.00000E+00         0.00000E+00        -0.34625E+08
 
   -0.35677E+08         0.14976E+07         0.00000E+00
    0.14976E+07        -0.50728E+08         0.00000E+00
    0.00000E+00         0.00000E+00        -0.34617E+08
 
   -0.35604E+08         0.15896E+07         0.00000E+00
    0.15896E+07        -0.50760E+08         0.00000E+00
    0.00000E+00         0.00000E+00        -0.34609E+08
 
   -0.35532E+08         0.16841E+07         0.00000E+00
    0.16841E+07        -0.50792E+08         0.00000E+00
    0.00000E+00         0.00000E+00        -0.34600E+08
 
   -0.35460E+08         0.17810E+07         0.00000E+00
    0.17810E+07        -0.50824E+08         0.00000E+00
    0.00000E+00         0.00000E+00        -0.34592E+08
 
   -0.35388E+08         0.18803E+07         0.00000E+00
    0.18803E+07        -0.50856E+08         0.00000E+00
    0.00000E+00         0.00000E+00        -0.34584E+08
 
   -0.35317E+08         0.19819E+07         0.00000E+00
    0.19819E+07        -0.50888E+08         0.00000E+00
    0.00000E+00         0.00000E+00        -0.34576E+08
 
   -0.35245E+08         0.20859E+07         0.00000E+00
    0.20859E+07        -0.50919E+08         0.00000E+00
    0.00000E+00         0.00000E+00        -0.34569E+08
 
   -0.35175E+08         0.21922E+07         0.00000E+00
    0.21922E+07        -0.50951E+08         0.00000E+00
    0.00000E+00         0.00000E+00        -0.34561E+08
 
   -0.35105E+08         0.23007E+07         0.00000E+00
    0.23007E+07        -0.50982E+08         0.00000E+00
    0.00000E+00         0.00000E+00        -0.34553E+08
 
   -0.35036E+08         0.24113E+07         0.00000E+00
    0.24113E+07        -0.51013E+08         0.00000E+00
    0.00000E+00         0.00000E+00        -0.34545E+08
 
   -0.34967E+08         0.25241E+07         0.00000E+00
    0.25241E+07        -0.51043E+08         0.00000E+00
    0.00000E+00         0.00000E+00        -0.34538E+08
 
   -0.34900E+08         0.26390E+07         0.00000E+00
    0.26390E+07        -0.51073E+08         0.00000E+00
    0.00000E+00         0.00000E+00        -0.34530E+08
 
   -0.34833E+08         0.27559E+07         0.00000E+00
    0.27559E+07        -0.51103E+08         0.00000E+00
    0.00000E+00         0.00000E+00        -0.34523E+08
 
   -0.34767E+08         0.28748E+07         0.00000E+00
    0.28748E+07        -0.51133E+08         0.00000E+00
    0.00000E+00         0.00000E+00        -0.34516E+08
 
   -0.34702E+08         0.29956E+07         0.00000E+00
    0.29956E+07        -0.51161E+08         0.00000E+00
    0.00000E+00         0.00000E+00        -0.34508E+08
 
   -0.34639E+08         0.31182E+07         0.00000E+00
    0.31182E+07        -0.51190E+08         0.00000E+00
    0.00000E+00         0.00000E+00        -0.34501E+08
 
   -0.34576E+08         0.32426E+07         0.00000E+00
    0.32426E+07        -0.51218E+08         0.00000E+00
    0.00000E+00         0.00000E+00        -0.34494E+08
 
   -0.34515E+08         0.33687E+07         0.00000E+00
    0.33687E+07        -0.51245E+08         0.00000E+00
    0.00000E+00         0.00000E+00        -0.34488E+08
 
   -0.37356E+08        -0.79824E+04         0.00000E+00
   -0.79824E+04        -0.49999E+08         0.00000E+00
    0.00000E+00         0.00000E+00        -0.34269E+08
 
   -0.37335E+08        -0.16739E+05         0.00000E+00
   -0.16739E+05        -0.50002E+08         0.00000E+00
    0.00000E+00         0.00000E+00        -0.34265E+08
 
   -0.37310E+08        -0.22314E+05         0.00000E+00
   -0.22314E+05        -0.50007E+08         0.00000E+00
    0.00000E+00         0.00000E+00        -0.34261E+08
 
   -0.37279E+08        -0.24643E+05         0.00000E+00
   -0.24643E+05        -0.50015E+08         0.00000E+00
    0.00000E+00         0.00000E+00        -0.34257E+08
 
   -0.37244E+08        -0.23672E+05         0.00000E+00
   -0.23672E+05        -0.50024E+08         0.00000E+00
    0.00000E+00         0.00000E+00        -0.34252E+08
 
   -0.37204E+08        -0.19360E+05         0.00000E+00
   -0.19360E+05        -0.50036E+08         0.00000E+00
    0.00000E+00         0.00000E+00        -0.34246E+08
 
   -0.37160E+08        -0.11673E+05         0.00000E+00
   -0.11673E+05        -0.50050E+08         0.00000E+00
    0.00000E+00         0.00000E+00        -0.34240E+08
 
   -0.37112E+08        -0.58965E+03         0.00000E+00
   -0.58965E+03        -0.50066E+08         0.00000E+00
    0.00000E+00         0.00000E+00        -0.34234E+08
 
   -0.37061E+08         0.13904E+05         0.00000E+00
    0.13904E+05        -0.50083E+08         0.00000E+00
    0.00000E+00         0.00000E+00        -0.34227E+08
 
   -0.37006E+08         0.31813E+05         0.00000E+00
    0.31813E+05        -0.50101E+08         0.00000E+00
    0.00000E+00         0.00000E+00        -0.34219E+08
 
   -0.36947E+08         0.53135E+05         0.00000E+00
    0.53135E+05        -0.50122E+08         0.00000E+00
    0.00000E+00         0.00000E+00        -0.34212E+08
 
   -0.36886E+08         0.77862E+05         0.00000E+00
    0.77862E+05        -0.50143E+08         0.00000E+00
    0.00000E+00         0.00000E+00        -0.34204E+08
 
   -0.36822E+08         0.10598E+06         0.00000E+00
    0.10598E+06        -0.50166E+08         0.00000E+00
    0.00000E+00         0.00000E+00        -0.34196E+08
 
   -0.36755E+08         0.13746E+06         0.00000E+00
    0.13746E+06        -0.50190E+08         0.00000E+00
    0.00000E+00         0.00000E+00        -0.34187E+08
 
   -0.36686E+08         0.17229E+06         0.00000E+00
    0.17229E+06        -0.50215E+08         0.00000E+00
    0.00000E+00         0.00000E+00        -0.34178E+08
 
   -0.36615E+08         0.21043E+06         0.00000E+00
    0.21043E+06        -0.50241E+08         0.00000E+00
    0.00000E+00         0.00000E+00        -0.34169E+08
 
   -0.36542E+08         0.25185E+06         0.00000E+00
    0.25185E+06        -0.50268E+08         0.00000E+00
    0.00000E+00         0.00000E+00        -0.34160E+08
 
   -0.36467E+08         0.29653E+06         0.00000E+00
    0.29653E+06        -0.50295E+08         0.00000E+00
    0.00000E+00         0.00000E+00        -0.34150E+08
 
   -0.36390E+08         0.34441E+06         0.00000E+00
    0.34441E+06        -0.50324E+08         0.00000E+00
    0.00000E+00         0.00000E+00        -0.34141E+08
 
   -0.36312E+08         0.39547E+06         0.00000E+00
    0.39547E+06        -0.50353E+08         0.00000E+00
    0.00000E+00         0.00000E+00        -0.34131E+08
 
   -0.36233E+08         0.44967E+06         0.00000E+00
    0.44967E+06        -0.50383E+08         0.00000E+00
    0.00000E+00         0.00000E+00        -0.34121E+08
 
   -0.36152E+08         0.50697E+06         0.00000E+00
    0.50697E+06        -0.50413E+08         0.00000E+00
    0.00000E+00         0.00000E+00        -0.34111E+08
 
   -0.36071E+08         0.56732E+06         0.00000E+00
    0.56732E+06        -0.50444E+08         0.00000E+00
    0.00000E+00         0.00000E+00        -0.34101E+08
 
   -0.35988E+08         0.63070E+06         0.00000E+00
    0.63070E+06        -0.50476E+08         0.00000E+00
    0.00000E+00         0.00000E+00        -0.34091E+08
 
   -0.35905E+08         0.69706E+06         0.00000E+00
    0.69706E+06        -0.50508E+08         0.00000E+00
    0.00000E+00         0.00000E+00        -0.34081E+08
 
   -0.35821E+08         0.76637E+06         0.00000E+00
    0.76637E+06        -0.50540E+08         0.00000E+00
    0.00000E+00         0.00000E+00        -0.34070E+08
 
   -0.35737E+08         0.83859E+06         0.00000E+00
    0.83859E+06        -0.50573E+08         0.00000E+00
    0.00000E+00         0.00000E+00        -0.34060E+08
 
   -0.35652E+08         0.91370E+06         0.00000E+00
    0.91370E+06        -0.50606E+08         0.00000E+00
    0.00000E+00         0.00000E+00        -0.34050E+08
 
   -0.35566E+08         0.99164E+06         0.00000E+00
    0.99164E+06        -0.50640E+08         0.00000E+00
    0.00000E+00         0.00000E+00        -0.34039E+08
 
   -0.35481E+08         0.10724E+07         0.00000E+00
    0.10724E+07        -0.50674E+08         0.00000E+00
    0.00000E+00         0.00000E+00        -0.34029E+08
 
   -0.35395E+08         0.11559E+07         0.00000E+00
    0.11559E+07        -0.50708E+08         0.00000E+00
    0.00000E+00         0.00000E+00        -0.34019E+08
 
   -0.35310E+08         0.12422E+07         0.00000E+00
    0.12422E+07        -0.50742E+08         0.00000E+00
    0.00000E+00         0.00000E+00        -0.34008E+08
 
   -0.35224E+08         0.13313E+07         0.00000E+00
    0.13313E+07        -0.50776E+08         0.00000E+00
    0.00000E+00         0.00000E+00        -0.33998E+08
 
   -0.35139E+08         0.14230E+07         0.00000E+00
    0.14230E+07        -0.50811E+08         0.00000E+00
    0.00000E+00         0.00000E+00        -0.33988E+08
 
   -0.35054E+08         0.15173E+07         0.00000E+00
    0.15173E+07        -0.50846E+08         0.00000E+00
    0.00000E+00         0.00000E+00        -0.33978E+08
 
   -0.34969E+08         0.16143E+07         0.00000E+00
    0.16143E+07        -0.50880E+08         0.00000E+00
    0.00000E+00         0.00000E+00        -0.33968E+08
 
   -0.34885E+08         0.17139E+07         0.00000E+00
    0.17139E+07        -0.50915E+08         0.00000E+00
    0.00000E+00         0.00000E+00        -0.33958E+08
 
   -0.34801E+08         0.18160E+07         0.00000E+00
    0.18160E+07        -0.50950E+08         0.00000E+00
    0.00000E+00         0.00000E+00        -0.33948E+08
 
   -0.34718E+08         0.19207E+07         0.00000E+00
    0.19207E+07        -0.50985E+08         0.00000E+00
    0.00000E+00         0.00000E+00        -0.33939E+08
 
   -0.34636E+08         0.20278E+07         0.00000E+00
    0.20278E+07        -0.51019E+08         0.00000E+00
    0.00000E+00         0.00000E+00        -0.33929E+08
 
   -0.34554E+08         0.21374E+07         0.00000E+00
    0.21374E+07        -0.51054E+08         0.00000E+00
    0.00000E+00         0.00000E+00        -0.33920E+08
 
   -0.34474E+08         0.22494E+07         0.00000E+00
    0.22494E+07        -0.51088E+08         0.00000E+00
    0.00000E+00         0.00000E+00        -0.33910E+08
 
   -0.34394E+08         0.23637E+07         0.00000E+00
    0.23637E+07        -0.51122E+08         0.00000E+00
    0.00000E+00         0.00000E+00        -0.33901E+08
 
   -0.34316E+08         0.24803E+07         0.00000E+00
    0.24803E+07        -0.51156E+08         0.00000E+00
    0.00000E+00         0.00000E+00        -0.33892E+08
 
   -0.34239E+08         0.25991E+07         0.00000E+00
    0.25991E+07        -0.51189E+08         0.00000E+00
    0.00000E+00         0.00000E+00        -0.33884E+08
 
   -0.34163E+08         0.27201E+07         0.00000E+00
    0.27201E+07        -0.51222E+08         0.00000E+00
    0.00000E+00         0.00000E+00        -0.33875E+08
 
   -0.34088E+08         0.28432E+07         0.00000E+00
    0.28432E+07        -0.51255E+08         0.00000E+00
    0.00000E+00         0.00000E+00        -0.33867E+08
 
   -0.34015E+08         0.29683E+07         0.00000E+00
    0.29683E+07        -0.51287E+08         0.00000E+00
    0.00000E+00         0.00000E+00        -0.33858E+08
 
   -0.33943E+08         0.30953E+07         0.00000E+00
    0.30953E+07        -0.51319E+08         0.00000E+00
    0.00000E+00         0.00000E+00        -0.33850E+08
 
   -0.33873E+08         0.32241E+07         0.00000E+00
    0.32241E+07        -0.51350E+08         0.00000E+00
    0.00000E+00         0.00000E+00        -0.33843E+08
 
   -0.37441E+08        -0.15546E+05         0.00000E+00
   -0.15546E+05        -0.49999E+08         0.00000E+00
    0.00000E+00         0.00000E+00        -0.33741E+08
 
   -0.37403E+08        -0.37498E+05         0.00000E+00
   -0.37498E+05        -0.50002E+08         0.00000E+00
    0.00000E+00         0.00000E+00        -0.33734E+08
 
   -0.37360E+08        -0.55465E+05         0.00000E+00
   -0.55465E+05        -0.50008E+08         0.00000E+00
    0.00000E+00         0.00000E+00        -0.33726E+08
 
   -0.37311E+08        -0.69406E+05         0.00000E+00
   -0.69406E+05        -0.50016E+08         0.00000E+00
    0.00000E+00         0.00000E+00        -0.33718E+08
 
   -0.37257E+08        -0.79289E+05         0.00000E+00
   -0.79289E+05        -0.50026E+08         0.00000E+00
    0.00000E+00         0.00000E+00        -0.33709E+08
 
   -0.37199E+08        -0.85100E+05         0.00000E+00
   -0.85100E+05        -0.50039E+08         0.00000E+00
    0.00000E+00         0.00000E+00        -0.33700E+08
 
   -0.37136E+08        -0.86836E+05         0.00000E+00
   -0.86836E+05        -0.50053E+08         0.00000E+00
    0.00000E+00         0.00000E+00        -0.33690E+08
 
   -0.37070E+08        -0.84506E+05         0.00000E+00
   -0.84506E+05        -0.50070E+08         0.00000E+00
    0.00000E+00         0.00000E+00        -0.33680E+08
 
   -0.36999E+08        -0.78130E+05         0.00000E+00
   -0.78130E+05        -0.50088E+08         0.00000E+00
    0.00000E+00         0.00000E+00        -0.33670E+08
 
   -0.36926E+08        -0.67736E+05         0.00000E+00
   -0.67736E+05        -0.50107E+08         0.00000E+00
    0.00000E+00         0.00000E+00        -0.33659E+08
 
   -0.36849E+08        -0.53363E+05         0.00000E+00
   -0.53363E+05        -0.50128E+08         0.00000E+00
    0.00000E+00         0.00000E+00        -0.33648E+08
 
   -0.36769E+08        -0.35057E+05         0.00000E+00
   -0.35057E+05        -0.50151E+08         0.00000E+00
    0.00000E+00         0.00000E+00        -0.33637E+08
 
   -0.36687E+08        -0.12870E+05         0.00000E+00
   -0.12870E+05        -0.50174E+08         0.00000E+00
    0.00000E+00         0.00000E+00        -0.33625E+08
 
   -0.36603E+08         0.13143E+05         0.00000E+00
    0.13143E+05        -0.50199E+08         0.00000E+00
    0.00000E+00         0.00000E+00        -0.33613E+08
 
   -0.36516E+08         0.42919E+05         0.00000E+00
    0.42919E+05        -0.50225E+08         0.00000E+00
    0.00000E+00         0.00000E+00        -0.33601E+08
 
   -0.36428E+08         0.76395E+05         0.00000E+00
    0.76395E+05        -0.50251E+08         0.00000E+00
    0.00000E+00         0.00000E+00        -0.33588E+08
 
   -0.36337E+08         0.11351E+06         0.00000E+00
    0.11351E+06        -0.50279E+08         0.00000E+00
    0.00000E+00         0.00000E+00        -0.33576E+08
 
   -0.36245E+08         0.15419E+06         0.00000E+00
    0.15419E+06        -0.50307E+08         0.00000E+00
    0.00000E+00         0.00000E+00        -0.33563E+08
 
   -0.36152E+08         0.19837E+06         0.00000E+00
    0.19837E+06        -0.50336E+08         0.00000E+00
    0.00000E+00         0.00000E+00        -0.33550E+08
 
   -0.36058E+08         0.24599E+06         0.00000E+00
    0.24599E+06        -0.50366E+08         0.00000E+00
    0.00000E+00         0.00000E+00        -0.33537E+08
 
   -0.35962E+08         0.29699E+06         0.00000E+00
    0.29699E+06        -0.50396E+08         0.00000E+00
    0.00000E+00         0.00000E+00        -0.33524E+08
 
   -0.35866E+08         0.35130E+06         0.00000E+00
    0.35130E+06        -0.50427E+08         0.00000E+00
    0.00000E+00         0.00000E+00        -0.33511E+08
 
   -0.35768E+08         0.40887E+06         0.00000E+00
    0.40887E+06        -0.50459E+08         0.00000E+00
    0.00000E+00         0.00000E+00        -0.33498E+08
 
   -0.35670E+08         0.46964E+06         0.00000E+00
    0.46964E+06        -0.50491E+08         0.00000E+00
    0.00000E+00         0.00000E+00        -0.33485E+08
 
   -0.35572E+08         0.53356E+06         0.00000E+00
    0.53356E+06        -0.50524E+08         0.00000E+00
    0.00000E+00         0.00000E+00        -0.33472E+08
 
   -0.35473E+08         0.60059E+06         0.00000E+00
    0.60059E+06        -0.50557E+08         0.00000E+00
    0.00000E+00         0.00000E+00        -0.33459E+08
 
   -0.35374E+08         0.67068E+06         0.00000E+00
    0.67068E+06        -0.50591E+08         0.00000E+00
    0.00000E+00         0.00000E+00        -0.33445E+08
 
   -0.35274E+08         0.74380E+06         0.00000E+00
    0.74380E+06        -0.50625E+08         0.00000E+00
    0.00000E+00         0.00000E+00        -0.33432E+08
 
   -0.35174E+08         0.81991E+06         0.00000E+00
    0.81991E+06        -0.50660E+08         0.00000E+00
    0.00000E+00         0.00000E+00        -0.33419E+08
 
   -0.35074E+08         0.89897E+06         0.00000E+00
    0.89897E+06        -0.50695E+08         0.00000E+00
    0.00000E+00         0.00000E+00        -0.33406E+08
 
   -0.34974E+08         0.98097E+06         0.00000E+00
    0.98097E+06        -0.50730E+08         0.00000E+00
    0.00000E+00         0.00000E+00        -0.33394E+08
 
   -0.34875E+08         0.10659E+07         0.00000E+00
    0.10659E+07        -0.50766E+08         0.00000E+00
    0.00000E+00         0.00000E+00        -0.33381E+08
 
   -0.34775E+08         0.11536E+07         0.00000E+00
    0.11536E+07        -0.50802E+08         0.00000E+00
    0.00000E+00         0.00000E+00        -0.33368E+08
 
   -0.34676E+08         0.12443E+07         0.00000E+00
    0.12443E+07        -0.50839E+08         0.00000E+00
    0.00000E+00         0.00000E+00        -0.33356E+08
 
   -0.34577E+08         0.13378E+07         0.00000E+00
    0.13378E+07        -0.50876E+08         0.00000E+00
    0.00000E+00         0.00000E+00        -0.33343E+08
 
   -0.34479E+08         0.14341E+07         0.00000E+00
    0.14341E+07        -0.50913E+08         0.00000E+00
    0.00000E+00         0.00000E+00        -0.33331E+08
 
   -0.34381E+08         0.15332E+07         0.00000E+00
    0.15332E+07        -0.50951E+08         0.00000E+00
    0.00000E+00         0.00000E+00        -0.33319E+08
 
   -0.34285E+08         0.16351E+07         0.00000E+00
    0.16351E+07        -0.50988E+08         0.00000E+00
    0.00000E+00         0.00000E+00        -0.33307E+08
 
   -0.34188E+08         0.17397E+07         0.00000E+00
    0.17397E+07        -0.51026E+08         0.00000E+00
    0.00000E+00         0.00000E+00        -0.33295E+08
 
   -0.34093E+08         0.18470E+07         0.00000E+00
    0.18470E+07        -0.51064E+08         0.00000E+00
    0.00000E+00         0.00000E+00        -0.33284E+08
 
   -0.33999E+08         0.19571E+07         0.00000E+00
    0.19571E+07        -0.51101E+08         0.00000E+00
    0.00000E+00         0.00000E+00        -0.33273E+08
 
   -0.33906E+08         0.20698E+07         0.00000E+00
    0.20698E+07        -0.51139E+08         0.00000E+00
    0.00000E+00         0.00000E+00        -0.33262E+08
 
   -0.33814E+08         0.21851E+07         0.00000E+00
    0.21851E+07        -0.51177E+08         0.00000E+00
    0.00000E+00         0.00000E+00        -0.33251E+08
 
   -0.33724E+08         0.23030E+07         0.00000E+00
    0.23030E+07        -0.51215E+08         0.00000E+00
    0.00000E+00         0.00000E+00        -0.33240E+08
 
   -0.33635E+08         0.24234E+07         0.00000E+00
    0.24234E+07        -0.51252E+08         0.00000E+00
    0.00000E+00         0.00000E+00        -0.33230E+08
 
   -0.33548E+08         0.25462E+07         0.00000E+00
    0.25462E+07        -0.51289E+08         0.00000E+00
    0.00000E+00         0.00000E+00        -0.33220E+08
 
   -0.33462E+08         0.26714E+07         0.00000E+00
    0.26714E+07        -0.51326E+08         0.00000E+00
    0.00000E+00         0.00000E+00        -0.33210E+08
 
   -0.33379E+08         0.27989E+07         0.00000E+00
    0.27989E+07        -0.51362E+08         0.00000E+00
    0.00000E+00         0.00000E+00        -0.33201E+08
 
   -0.33297E+08         0.29286E+07         0.00000E+00
    0.29286E+07        -0.51398E+08         0.00000E+00
    0.00000E+00         0.00000E+00        -0.33191E+08
 
   -0.33218E+08         0.30604E+07         0.00000E+00
    0.30604E+07        -0.51433E+08         0.00000E+00
    0.00000E+00         0.00000E+00        -0.33183E+08
 
   -0.37596E+08        -0.23750E+05         0.00000E+00
   -0.23750E+05        -0.49999E+08         0.00000E+00
    0.00000E+00         0.00000E+00        -0.33219E+08
 
   -0.37536E+08        -0.59708E+05         0.00000E+00
   -0.59708E+05        -0.50002E+08         0.00000E+00
    0.00000E+00         0.00000E+00        -0.33208E+08
 
   -0.37471E+08        -0.90694E+05         0.00000E+00
   -0.90694E+05        -0.50008E+08         0.00000E+00
    0.00000E+00         0.00000E+00        -0.33196E+08
 
   -0.37399E+08        -0.11669E+06         0.00000E+00
   -0.11669E+06        -0.50017E+08         0.00000E+00
    0.00000E+00         0.00000E+00        -0.33183E+08
 
   -0.37323E+08        -0.13770E+06         0.00000E+00
   -0.13770E+06        -0.50028E+08         0.00000E+00
    0.00000E+00         0.00000E+00        -0.33170E+08
 
   -0.37242E+08        -0.15376E+06         0.00000E+00
   -0.15376E+06        -0.50041E+08         0.00000E+00
    0.00000E+00         0.00000E+00        -0.33157E+08
 
   -0.37157E+08        -0.16491E+06         0.00000E+00
   -0.16491E+06        -0.50056E+08         0.00000E+00
    0.00000E+00         0.00000E+00        -0.33143E+08
 
   -0.37069E+08        -0.17121E+06         0.00000E+00
   -0.17121E+06        -0.50072E+08         0.00000E+00
    0.00000E+00         0.00000E+00        -0.33128E+08
 
   -0.36977E+08        -0.17272E+06         0.00000E+00
   -0.17272E+06        -0.50090E+08         0.00000E+00
    0.00000E+00         0.00000E+00        -0.33114E+08
 
   -0.36881E+08        -0.16954E+06         0.00000E+00
   -0.16954E+06        -0.50110E+08         0.00000E+00
    0.00000E+00         0.00000E+00        -0.33098E+08
 
   -0.36783E+08        -0.16176E+06         0.00000E+00
   -0.16176E+06        -0.50131E+08         0.00000E+00
    0.00000E+00         0.00000E+00        -0.33083E+08
 
   -0.36683E+08        -0.14948E+06         0.00000E+00
   -0.14948E+06        -0.50153E+08         0.00000E+00
    0.00000E+00         0.00000E+00        -0.33067E+08
 
   -0.36580E+08        -0.13280E+06         0.00000E+00
   -0.13280E+06        -0.50176E+08         0.00000E+00
    0.00000E+00         0.00000E+00        -0.33051E+08
 
   -0.36476E+08        -0.11185E+06         0.00000E+00
   -0.11185E+06        -0.50201E+08         0.00000E+00
    0.00000E+00         0.00000E+00        -0.33035E+08
 
   -0.36370E+08        -0.86735E+05         0.00000E+00
   -0.86735E+05        -0.50226E+08         0.00000E+00
    0.00000E+00         0.00000E+00        -0.33019E+08
 
   -0.36262E+08        -0.57571E+05         0.00000E+00
   -0.57571E+05        -0.50252E+08         0.00000E+00
    0.00000E+00         0.00000E+00        -0.33003E+08
 
   -0.36153E+08        -0.24474E+05         0.00000E+00
   -0.24474E+05        -0.50278E+08         0.00000E+00
    0.00000E+00         0.00000E+00        -0.32986E+08
 
   -0.36043E+08         0.12445E+05         0.00000E+00
    0.12445E+05        -0.50306E+08         0.00000E+00
    0.00000E+00         0.00000E+00        -0.32970E+08
 
   -0.35932E+08         0.53078E+05         0.00000E+00
    0.53078E+05        -0.50334E+08         0.00000E+00
    0.00000E+00         0.00000E+00        -0.32953E+08
 
   -0.35820E+08         0.97322E+05         0.00000E+00
    0.97322E+05        -0.50362E+08         0.00000E+00
    0.00000E+00         0.00000E+00        -0.32937E+08
 
   -0.35707E+08         0.14508E+06         0.00000E+00
    0.14508E+06        -0.50392E+08         0.00000E+00
    0.00000E+00         0.00000E+00        -0.32920E+08
 
   -0.35594E+08         0.19627E+06         0.00000E+00
    0.19627E+06        -0.50422E+08         0.00000E+00
    0.00000E+00         0.00000E+00        -0.32903E+08
 
   -0.35480E+08         0.25080E+06         0.00000E+00
    0.25080E+06        -0.50453E+08         0.00000E+00
    0.00000E+00         0.00000E+00        -0.32887E+08
 
   -0.35366E+08         0.30860E+06         0.00000E+00
    0.30860E+06        -0.50484E+08         0.00000E+00
    0.00000E+00         0.00000E+00        -0.32870E+08
 
   -0.35252E+08         0.36962E+06         0.00000E+00
    0.36962E+06        -0.50516E+08         0.00000E+00
    0.00000E+00         0.00000E+00        -0.32854E+08
 
   -0.35137E+08         0.43378E+06         0.00000E+00
    0.43378E+06        -0.50548E+08         0.00000E+00
    0.00000E+00         0.00000E+00        -0.32837E+08
 
   -0.35023E+08         0.50105E+06         0.00000E+00
    0.50105E+06        -0.50582E+08         0.00000E+00
    0.00000E+00         0.00000E+00        -0.32821E+08
 
   -0.34908E+08         0.57139E+06         0.00000E+00
    0.57139E+06        -0.50616E+08         0.00000E+00
    0.00000E+00         0.00000E+00        -0.32805E+08
 
   -0.34793E+08         0.64477E+06         0.00000E+00
    0.64477E+06        -0.50650E+08         0.00000E+00
    0.00000E+00         0.00000E+00        -0.32789E+08
 
   -0.34678E+08         0.72116E+06         0.00000E+00
    0.72116E+06        -0.50685E+08         0.00000E+00
    0.00000E+00         0.00000E+00        -0.32773E+08
 
   -0.34564E+08         0.80055E+06         0.00000E+00
    0.80055E+06        -0.50721E+08         0.00000E+00
    0.00000E+00         0.00000E+00        -0.32757E+08
 
   -0.34449E+08         0.88292E+06         0.00000E+00
    0.88292E+06        -0.50758E+08         0.00000E+00
    0.00000E+00         0.00000E+00        -0.32742E+08
 
   -0.34335E+08         0.96829E+06         0.00000E+00
    0.96829E+06        -0.50795E+08         0.00000E+00
    0.00000E+00         0.00000E+00        -0.32726E+08
 
   -0.34221E+08         0.10566E+07         0.00000E+00
    0.10566E+07        -0.50833E+08         0.00000E+00
    0.00000E+00         0.00000E+00        -0.32711E+08
 
   -0.34108E+08         0.11480E+07         0.00000E+00
    0.11480E+07        -0.50871E+08         0.00000E+00
    0.00000E+00         0.00000E+00        -0.32696E+08
 
   -0.33995E+08         0.12423E+07         0.00000E+00
    0.12423E+07        -0.50910E+08         0.00000E+00
    0.00000E+00         0.00000E+00        -0.32681E+08
 
   -0.33883E+08         0.13397E+07         0.00000E+00
    0.13397E+07        -0.50950E+08         0.00000E+00
    0.00000E+00         0.00000E+00        -0.32667E+08
 
   -0.33772E+08         0.14400E+07         0.00000E+00
    0.14400E+07        -0.50990E+08         0.00000E+00
    0.00000E+00         0.00000E+00        -0.32652E+08
 
   -0.33661E+08         0.15434E+07         0.00000E+00
    0.15434E+07        -0.51031E+08         0.00000E+00
    0.00000E+00         0.00000E+00        -0.32639E+08
 
   -0.33552E+08         0.16498E+07         0.00000E+00
    0.16498E+07        -0.51072E+08         0.00000E+00
    0.00000E+00         0.00000E+00        -0.32625E+08
 
   -0.33443E+08         0.17592E+07         0.00000E+00
    0.17592E+07        -0.51113E+08         0.00000E+00
    0.00000E+00         0.00000E+00        -0.32611E+08
 
   -0.33336E+08         0.18716E+07         0.00000E+00
    0.18716E+07        -0.51155E+08         0.00000E+00
    0.00000E+00         0.00000E+00        -0.32598E+08
 
   -0.33231E+08         0.19870E+07         0.00000E+00
    0.19870E+07        -0.51196E+08         0.00000E+00
    0.00000E+00         0.00000E+00        -0.32586E+08
 
   -0.33127E+08         0.21054E+07         0.00000E+00
    0.21054E+07        -0.51238E+08         0.00000E+00
    0.00000E+00         0.00000E+00        -0.32573E+08
 
   -0.33024E+08         0.22267E+07         0.00000E+00
    0.22267E+07        -0.51280E+08         0.00000E+00
    0.00000E+00         0.00000E+00        -0.32561E+08
 
   -0.32924E+08         0.23509E+07         0.00000E+00
    0.23509E+07        -0.51321E+08         0.00000E+00
    0.00000E+00         0.00000E+00        -0.32549E+08
 
   -0.32826E+08         0.24778E+07         0.00000E+00
    0.24778E+07        -0.51363E+08         0.00000E+00
    0.00000E+00         0.00000E+00        -0.32538E+08
 
   -0.32730E+08         0.26075E+07         0.00000E+00
    0.26075E+07        -0.51404E+08         0.00000E+00
    0.00000E+00         0.00000E+00        -0.32527E+08
 
   -0.32637E+08         0.27399E+07         0.00000E+00
    0.27399E+07        -0.51444E+08         0.00000E+00
    0.00000E+00         0.00000E+00        -0.32516E+08
 
   -0.32546E+08         0.28747E+07         0.00000E+00
    0.28747E+07        -0.51484E+08         0.00000E+00
    0.00000E+00         0.00000E+00        -0.32506E+08
 
   -0.37826E+08        -0.32512E+05         0.00000E+00
   -0.32512E+05        -0.49999E+08         0.00000E+00
    0.00000E+00         0.00000E+00        -0.32707E+08
 
   -0.37738E+08        -0.82958E+05         0.00000E+00
   -0.82958E+05        -0.50002E+08         0.00000E+00
    0.00000E+00         0.00000E+00        -0.32690E+08
 
   -0.37645E+08        -0.12715E+06         0.00000E+00
   -0.12715E+06        -0.50009E+08         0.00000E+00
    0.00000E+00         0.00000E+00        -0.32672E+08
 
   -0.37546E+08        -0.16518E+06         0.00000E+00
   -0.16518E+06        -0.50017E+08         0.00000E+00
    0.00000E+00         0.00000E+00        -0.32654E+08
 
   -0.37442E+08        -0.19707E+06         0.00000E+00
   -0.19707E+06        -0.50028E+08         0.00000E+00
    0.00000E+00         0.00000E+00        -0.32636E+08
 
   -0.37334E+08        -0.22291E+06         0.00000E+00
   -0.22291E+06        -0.50041E+08         0.00000E+00
    0.00000E+00         0.00000E+00        -0.32617E+08
 
   -0.37222E+08        -0.24283E+06         0.00000E+00
   -0.24283E+06        -0.50056E+08         0.00000E+00
    0.00000E+00         0.00000E+00        -0.32597E+08
 
   -0.37107E+08        -0.25696E+06         0.00000E+00
   -0.25696E+06        -0.50072E+08         0.00000E+00
    0.00000E+00         0.00000E+00        -0.32577E+08
 
   -0.36989E+08        -0.26547E+06         0.00000E+00
   -0.26547E+06        -0.50089E+08         0.00000E+00
    0.00000E+00         0.00000E+00        -0.32557E+08
 
   -0.36869E+08        -0.26852E+06         0.00000E+00
   -0.26852E+06        -0.50108E+08         0.00000E+00
    0.00000E+00         0.00000E+00        -0.32537E+08
 
   -0.36747E+08        -0.26630E+06         0.00000E+00
   -0.26630E+06        -0.50127E+08         0.00000E+00
    0.00000E+00         0.00000E+00        -0.32516E+08
 
   -0.36623E+08        -0.25901E+06         0.00000E+00
   -0.25901E+06        -0.50148E+08         0.00000E+00
    0.00000E+00         0.00000E+00        -0.32496E+08
 
   -0.36498E+08        -0.24683E+06         0.00000E+00
   -0.24683E+06        -0.50169E+08         0.00000E+00
    0.00000E+00         0.00000E+00        -0.32475E+08
 
   -0.36371E+08        -0.22997E+06         0.00000E+00
   -0.22997E+06        -0.50191E+08         0.00000E+00
    0.00000E+00         0.00000E+00        -0.32454E+08
 
   -0.36244E+08        -0.20863E+06         0.00000E+00
   -0.20863E+06        -0.50214E+08         0.00000E+00
    0.00000E+00         0.00000E+00        -0.32433E+08
 
   -0.36115E+08        -0.18299E+06         0.00000E+00
   -0.18299E+06        -0.50237E+08         0.00000E+00
    0.00000E+00         0.00000E+00        -0.32412E+08
 
   -0.35987E+08        -0.15324E+06         0.00000E+00
   -0.15324E+06        -0.50260E+08         0.00000E+00
    0.00000E+00         0.00000E+00        -0.32391E+08
 
   -0.35857E+08        -0.11957E+06         0.00000E+00
   -0.11957E+06        -0.50285E+08         0.00000E+00
    0.00000E+00         0.00000E+00        -0.32370E+08
 
   -0.35728E+08        -0.82127E+05         0.00000E+00
   -0.82127E+05        -0.50310E+08         0.00000E+00
    0.00000E+00         0.00000E+00        -0.32349E+08
 
   -0.35598E+08        -0.41069E+05         0.00000E+00
   -0.41069E+05        -0.50335E+08         0.00000E+00
    0.00000E+00         0.00000E+00        -0.32328E+08
 
   -0.35468E+08         0.34692E+04         0.00000E+00
    0.34692E+04        -0.50361E+08         0.00000E+00
    0.00000E+00         0.00000E+00        -0.32307E+08
 
   -0.35338E+08         0.51365E+05         0.00000E+00
    0.51365E+05        -0.50388E+08         0.00000E+00
    0.00000E+00         0.00000E+00        -0.32287E+08
 
   -0.35208E+08         0.10251E+06         0.00000E+00
    0.10251E+06        -0.50416E+08         0.00000E+00
    0.00000E+00         0.00000E+00        -0.32266E+08
 
   -0.35078E+08         0.15682E+06         0.00000E+00
    0.15682E+06        -0.50444E+08         0.00000E+00
    0.00000E+00         0.00000E+00        -0.32246E+08
 
   -0.34948E+08         0.21421E+06         0.00000E+00
    0.21421E+06        -0.50473E+08         0.00000E+00
    0.00000E+00         0.00000E+00        -0.32226E+08
 
   -0.34818E+08         0.27462E+06         0.00000E+00
    0.27462E+06        -0.50503E+08         0.00000E+00
    0.00000E+00         0.00000E+00        -0.32206E+08
 
   -0.34688E+08         0.33802E+06         0.00000E+00
    0.33802E+06        -0.50533E+08         0.00000E+00
    0.00000E+00         0.00000E+00        -0.32186E+08
 
   -0.34559E+08         0.40436E+06         0.00000E+00
    0.40436E+06        -0.50565E+08         0.00000E+00
    0.00000E+00         0.00000E+00        -0.32166E+08
 
   -0.34429E+08         0.47364E+06         0.00000E+00
    0.47364E+06        -0.50598E+08         0.00000E+00
    0.00000E+00         0.00000E+00        -0.32147E+08
 
   -0.34299E+08         0.54584E+06         0.00000E+00
    0.54584E+06        -0.50631E+08         0.00000E+00
    0.00000E+00         0.00000E+00        -0.32128E+08
 
   -0.34170E+08         0.62098E+06         0.00000E+00
    0.62098E+06        -0.50666E+08         0.00000E+00
    0.00000E+00         0.00000E+00        -0.32109E+08
 
   -0.34040E+08         0.69909E+06         0.00000E+00
    0.69909E+06        -0.50702E+08         0.00000E+00
    0.00000E+00         0.00000E+00        -0.32090E+08
 
   -0.33911E+08         0.78018E+06         0.00000E+00
    0.78018E+06        -0.50739E+08         0.00000E+00
    0.00000E+00         0.00000E+00        -0.32072E+08
 
   -0.33782E+08         0.86431E+06         0.00000E+00
    0.86431E+06        -0.50777E+08         0.00000E+00
    0.00000E+00         0.00000E+00        -0.32053E+08
 
   -0.33654E+08         0.95152E+06         0.00000E+00
    0.95152E+06        -0.50816E+08         0.00000E+00
    0.00000E+00         0.00000E+00        -0.32035E+08
 
   -0.33525E+08         0.10419E+07         0.00000E+00
    0.10419E+07        -0.50856E+08         0.00000E+00
    0.00000E+00         0.00000E+00        -0.32018E+08
 
   -0.33398E+08         0.11354E+07         0.00000E+00
    0.11354E+07        -0.50898E+08         0.00000E+00
    0.00000E+00         0.00000E+00        -0.32001E+08
 
   -0.33271E+08         0.12322E+07         0.00000E+00
    0.12322E+07        -0.50940E+08         0.00000E+00
    0.00000E+00         0.00000E+00        -0.31984E+08
 
   -0.33144E+08         0.13323E+07         0.00000E+00
    0.13323E+07        -0.50983E+08         0.00000E+00
    0.00000E+00         0.00000E+00        -0.31967E+08
 
   -0.33019E+08         0.14358E+07         0.00000E+00
    0.14358E+07        -0.51027E+08         0.00000E+00
    0.00000E+00         0.00000E+00        -0.31951E+08
 
   -0.32894E+08         0.15427E+07         0.00000E+00
    0.15427E+07        -0.51072E+08         0.00000E+00
    0.00000E+00         0.00000E+00        -0.31935E+08
 
   -0.32771E+08         0.16531E+07         0.00000E+00
    0.16531E+07        -0.51118E+08         0.00000E+00
    0.00000E+00         0.00000E+00        -0.31919E+08
 
   -0.32649E+08         0.17671E+07         0.00000E+00
    0.17671E+07        -0.51164E+08         0.00000E+00
    0.00000E+00         0.00000E+00        -0.31904E+08
 
   -0.32529E+08         0.18845E+07         0.00000E+00
    0.18845E+07        -0.51211E+08         0.00000E+00
    0.00000E+00         0.00000E+00        -0.31890E+08
 
   -0.32411E+08         0.20055E+07         0.00000E+00
    0.20055E+07        -0.51258E+08         0.00000E+00
    0.00000E+00         0.00000E+00        -0.31875E+08
 
   -0.32295E+08         0.21300E+07         0.00000E+00
    0.21300E+07        -0.51305E+08         0.00000E+00
    0.00000E+00         0.00000E+00        -0.31861E+08
 
   -0.32181E+08         0.22580E+07         0.00000E+00
    0.22580E+07        -0.51352E+08         0.00000E+00
    0.00000E+00         0.00000E+00        -0.31848E+08
 
   -0.32070E+08         0.23895E+07         0.00000E+00
    0.23895E+07        -0.51399E+08         0.00000E+00
    0.00000E+00         0.00000E+00        -0.31835E+08
 
   -0.31962E+08         0.25243E+07         0.00000E+00
    0.25243E+07        -0.51446E+08         0.00000E+00
    0.00000E+00         0.00000E+00        -0.31823E+08
 
   -0.31857E+08         0.26624E+07         0.00000E+00
    0.26624E+07        -0.51492E+08         0.00000E+00
    0.00000E+00         0.00000E+00        -0.31811E+08
 
   -0.38133E+08        -0.41762E+05         0.00000E+00
   -0.41762E+05        -0.49999E+08         0.00000E+00
    0.00000E+00         0.00000E+00        -0.32204E+08
 
   -0.38009E+08        -0.10667E+06         0.00000E+00
   -0.10667E+06        -0.50003E+08         0.00000E+00
    0.00000E+00         0.00000E+00        -0.32180E+08
 
   -0.37881E+08        -0.16377E+06         0.00000E+00
   -0.16377E+06        -0.50009E+08         0.00000E+00
    0.00000E+00         0.00000E+00        -0.32156E+08
 
   -0.37747E+08        -0.21302E+06         0.00000E+00
   -0.21302E+06        -0.50017E+08         0.00000E+00
    0.00000E+00         0.00000E+00        -0.32131E+08
 
   -0.37609E+08        -0.25461E+06         0.00000E+00
   -0.25461E+06        -0.50028E+08         0.00000E+00
    0.00000E+00         0.00000E+00        -0.32105E+08
 
   -0.37468E+08        -0.28879E+06         0.00000E+00
   -0.28879E+06        -0.50040E+08         0.00000E+00
    0.00000E+00         0.00000E+00        -0.32079E+08
 
   -0.37325E+08        -0.31581E+06         0.00000E+00
   -0.31581E+06        -0.50053E+08         0.00000E+00
    0.00000E+00         0.00000E+00        -0.32053E+08
 
   -0.37179E+08        -0.33594E+06         0.00000E+00
   -0.33594E+06        -0.50067E+08         0.00000E+00
    0.00000E+00         0.00000E+00        -0.32027E+08
 
   -0.37031E+08        -0.34947E+06         0.00000E+00
   -0.34947E+06        -0.50082E+08         0.00000E+00
    0.00000E+00         0.00000E+00        -0.32000E+08
 
   -0.36882E+08        -0.35672E+06         0.00000E+00
   -0.35672E+06        -0.50098E+08         0.00000E+00
    0.00000E+00         0.00000E+00        -0.31974E+08
 
   -0.36732E+08        -0.35802E+06         0.00000E+00
   -0.35802E+06        -0.50114E+08         0.00000E+00
    0.00000E+00         0.00000E+00        -0.31947E+08
 
   -0.36582E+08        -0.35372E+06         0.00000E+00
   -0.35372E+06        -0.50130E+08         0.00000E+00
    0.00000E+00         0.00000E+00        -0.31920E+08
 
   -0.36432E+08        -0.34416E+06         0.00000E+00
   -0.34416E+06        -0.50147E+08         0.00000E+00
    0.00000E+00         0.00000E+00        -0.31893E+08
 
   -0.36282E+08        -0.32968E+06         0.00000E+00
   -0.32968E+06        -0.50164E+08         0.00000E+00
    0.00000E+00         0.00000E+00        -0.31867E+08
 
   -0.36133E+08        -0.31060E+06         0.00000E+00
   -0.31060E+06        -0.50181E+08         0.00000E+00
    0.00000E+00         0.00000E+00        -0.31840E+08
 
   -0.35983E+08        -0.28722E+06         0.00000E+00
   -0.28722E+06        -0.50198E+08         0.00000E+00
    0.00000E+00         0.00000E+00        -0.31814E+08
 
   -0.35835E+08        -0.25982E+06         0.00000E+00
   -0.25982E+06        -0.50216E+08         0.00000E+00
    0.00000E+00         0.00000E+00        -0.31788E+08
 
   -0.35687E+08        -0.22864E+06         0.00000E+00
   -0.22864E+06        -0.50234E+08         0.00000E+00
    0.00000E+00         0.00000E+00        -0.31762E+08
 
   -0.35539E+08        -0.19392E+06         0.00000E+00
   -0.19392E+06        -0.50253E+08         0.00000E+00
    0.00000E+00         0.00000E+00        -0.31736E+08
 
   -0.35392E+08        -0.15587E+06         0.00000E+00
   -0.15587E+06        -0.50272E+08         0.00000E+00
    0.00000E+00         0.00000E+00        -0.31711E+08
 
   -0.35246E+08        -0.11464E+06         0.00000E+00
   -0.11464E+06        -0.50292E+08         0.00000E+00
    0.00000E+00         0.00000E+00        -0.31685E+08
 
   -0.35101E+08        -0.70397E+05         0.00000E+00
   -0.70397E+05        -0.50312E+08         0.00000E+00
    0.00000E+00         0.00000E+00        -0.31660E+08
 
   -0.34955E+08        -0.23262E+05         0.00000E+00
   -0.23262E+05        -0.50334E+08         0.00000E+00
    0.00000E+00         0.00000E+00        -0.31635E+08
 
   -0.34811E+08         0.26665E+05         0.00000E+00
    0.26665E+05        -0.50356E+08         0.00000E+00
    0.00000E+00         0.00000E+00        -0.31611E+08
 
   -0.34666E+08         0.79308E+05         0.00000E+00
    0.79308E+05        -0.50379E+08         0.00000E+00
    0.00000E+00         0.00000E+00        -0.31587E+08
 
   -0.34522E+08         0.13461E+06         0.00000E+00
    0.13461E+06        -0.50404E+08         0.00000E+00
    0.00000E+00         0.00000E+00        -0.31563E+08
 
   -0.34378E+08         0.19254E+06         0.00000E+00
    0.19254E+06        -0.50430E+08         0.00000E+00
    0.00000E+00         0.00000E+00        -0.31539E+08
 
   -0.34234E+08         0.25308E+06         0.00000E+00
    0.25308E+06        -0.50457E+08         0.00000E+00
    0.00000E+00         0.00000E+00        -0.31516E+08
 
   -0.34091E+08         0.31625E+06         0.00000E+00
    0.31625E+06        -0.50485E+08         0.00000E+00
    0.00000E+00         0.00000E+00        -0.31493E+08
 
   -0.33947E+08         0.38206E+06         0.00000E+00
    0.38206E+06        -0.50515E+08         0.00000E+00
    0.00000E+00         0.00000E+00        -0.31470E+08
 
   -0.33803E+08         0.45057E+06         0.00000E+00
    0.45057E+06        -0.50547E+08         0.00000E+00
    0.00000E+00         0.00000E+00        -0.31448E+08
 
   -0.33659E+08         0.52183E+06         0.00000E+00
    0.52183E+06        -0.50580E+08         0.00000E+00
    0.00000E+00         0.00000E+00        -0.31426E+08
 
   -0.33515E+08         0.59594E+06         0.00000E+00
    0.59594E+06        -0.50615E+08         0.00000E+00
    0.00000E+00         0.00000E+00        -0.31404E+08
 
   -0.33371E+08         0.67299E+06         0.00000E+00
    0.67299E+06        -0.50652E+08         0.00000E+00
    0.00000E+00         0.00000E+00        -0.31382E+08
 
   -0.33227E+08         0.75309E+06         0.00000E+00
    0.75309E+06        -0.50691E+08         0.00000E+00
    0.00000E+00         0.00000E+00        -0.31361E+08
 
   -0.33083E+08         0.83637E+06         0.00000E+00
    0.83637E+06        -0.50731E+08         0.00000E+00
    0.00000E+00         0.00000E+00        -0.31340E+08
 
   -0.32938E+08         0.92297E+06         0.00000E+00
    0.92297E+06        -0.50773E+08         0.00000E+00
    0.00000E+00         0.00000E+00        -0.31320E+08
 
   -0.32794E+08         0.10131E+07         0.00000E+00
    0.10131E+07        -0.50817E+08         0.00000E+00
    0.00000E+00         0.00000E+00        -0.31300E+08
 
   -0.32650E+08         0.11068E+07         0.00000E+00
    0.11068E+07        -0.50863E+08         0.00000E+00
    0.00000E+00         0.00000E+00        -0.31280E+08
 
   -0.32507E+08         0.12043E+07         0.00000E+00
    0.12043E+07        -0.50910E+08         0.00000E+00
    0.00000E+00         0.00000E+00        -0.31261E+08
 
   -0.32363E+08         0.13057E+07         0.00000E+00
    0.13057E+07        -0.50959E+08         0.00000E+00
    0.00000E+00         0.00000E+00        -0.31242E+08
 
   -0.32221E+08         0.14113E+07         0.00000E+00
    0.14113E+07        -0.51010E+08         0.00000E+00
    0.00000E+00         0.00000E+00        -0.31224E+08
 
   -0.32080E+08         0.15210E+07         0.00000E+00
    0.15210E+07        -0.51062E+08         0.00000E+00
    0.00000E+00         0.00000E+00        -0.31206E+08
 
   -0.31940E+08         0.16352E+07         0.00000E+00
    0.16352E+07        -0.51114E+08         0.00000E+00
    0.00000E+00         0.00000E+00        -0.31189E+08
 
   -0.31802E+08         0.17538E+07         0.00000E+00
    0.17538E+07        -0.51168E+08         0.00000E+00
    0.00000E+00         0.00000E+00        -0.31172E+08
 
   -0.31666E+08         0.18769E+07         0.00000E+00
    0.18769E+07        -0.51222E+08         0.00000E+00
    0.00000E+00         0.00000E+00        -0.31155E+08
 
   -0.31532E+08         0.20045E+07         0.00000E+00
    0.20045E+07        -0.51277E+08         0.00000E+00
    0.00000E+00         0.00000E+00        -0.31139E+08
 
   -0.31401E+08         0.21368E+07         0.00000E+00
    0.21368E+07        -0.51332E+08         0.00000E+00
    0.00000E+00         0.00000E+00        -0.31124E+08
 
   -0.31274E+08         0.22737E+07         0.00000E+00
    0.22737E+07        -0.51387E+08         0.00000E+00
    0.00000E+00         0.00000E+00        -0.31110E+08
 
   -0.31150E+08         0.24149E+07         0.00000E+00
    0.24149E+07        -0.51441E+08         0.00000E+00
    0.00000E+00         0.00000E+00        -0.31096E+08
 
   -0.38515E+08        -0.51587E+05         0.00000E+00
   -0.51587E+05        -0.49999E+08         0.00000E+00
    0.00000E+00         0.00000E+00        -0.31712E+08
 
   -0.38346E+08        -0.13049E+06         0.00000E+00
   -0.13049E+06        -0.50003E+08         0.00000E+00
    0.00000E+00         0.00000E+00        -0.31679E+08
 
   -0.38173E+08        -0.19869E+06         0.00000E+00
   -0.19869E+06        -0.50009E+08         0.00000E+00
    0.00000E+00         0.00000E+00        -0.31646E+08
 
   -0.37996E+08        -0.25703E+06         0.00000E+00
   -0.25703E+06        -0.50017E+08         0.00000E+00
    0.00000E+00         0.00000E+00        -0.31612E+08
 
   -0.37816E+08        -0.30582E+06         0.00000E+00
   -0.30582E+06        -0.50025E+08         0.00000E+00
    0.00000E+00         0.00000E+00        -0.31578E+08
 
   -0.37634E+08        -0.34535E+06         0.00000E+00
   -0.34535E+06        -0.50035E+08         0.00000E+00
    0.00000E+00         0.00000E+00        -0.31543E+08
 
   -0.37451E+08        -0.37605E+06         0.00000E+00
   -0.37605E+06        -0.50045E+08         0.00000E+00
    0.00000E+00         0.00000E+00        -0.31509E+08
 
   -0.37269E+08        -0.39844E+06         0.00000E+00
   -0.39844E+06        -0.50055E+08         0.00000E+00
    0.00000E+00         0.00000E+00        -0.31474E+08
 
   -0.37087E+08        -0.41315E+06         0.00000E+00
   -0.41315E+06        -0.50065E+08         0.00000E+00
    0.00000E+00         0.00000E+00        -0.31440E+08
 
   -0.36906E+08        -0.42082E+06         0.00000E+00
   -0.42082E+06        -0.50074E+08         0.00000E+00
    0.00000E+00         0.00000E+00        -0.31405E+08
 
   -0.36726E+08        -0.42207E+06         0.00000E+00
   -0.42207E+06        -0.50083E+08         0.00000E+00
    0.00000E+00         0.00000E+00        -0.31371E+08
 
   -0.36549E+08        -0.41754E+06         0.00000E+00
   -0.41754E+06        -0.50091E+08         0.00000E+00
    0.00000E+00         0.00000E+00        -0.31337E+08
 
   -0.36373E+08        -0.40778E+06         0.00000E+00
   -0.40778E+06        -0.50099E+08         0.00000E+00
    0.00000E+00         0.00000E+00        -0.31304E+08
 
   -0.36200E+08        -0.39331E+06         0.00000E+00
   -0.39331E+06        -0.50107E+08         0.00000E+00
    0.00000E+00         0.00000E+00        -0.31271E+08
 
   -0.36029E+08        -0.37460E+06         0.00000E+00
   -0.37460E+06        -0.50114E+08         0.00000E+00
    0.00000E+00         0.00000E+00        -0.31238E+08
 
   -0.35860E+08        -0.35205E+06         0.00000E+00
   -0.35205E+06        -0.50121E+08         0.00000E+00
    0.00000E+00         0.00000E+00        -0.31206E+08
 
   -0.35693E+08        -0.32602E+06         0.00000E+00
   -0.32602E+06        -0.50129E+08         0.00000E+00
    0.00000E+00         0.00000E+00        -0.31174E+08
 
   -0.35528E+08        -0.29683E+06         0.00000E+00
   -0.29683E+06        -0.50137E+08         0.00000E+00
    0.00000E+00         0.00000E+00        -0.31142E+08
 
   -0.35365E+08        -0.26472E+06         0.00000E+00
   -0.26472E+06        -0.50145E+08         0.00000E+00
    0.00000E+00         0.00000E+00        -0.31111E+08
 
   -0.35204E+08        -0.22993E+06         0.00000E+00
   -0.22993E+06        -0.50154E+08         0.00000E+00
    0.00000E+00         0.00000E+00        -0.31081E+08
 
   -0.35044E+08        -0.19265E+06         0.00000E+00
   -0.19265E+06        -0.50164E+08         0.00000E+00
    0.00000E+00         0.00000E+00        -0.31051E+08
 
   -0.34885E+08        -0.15301E+06         0.00000E+00
   -0.15301E+06        -0.50175E+08         0.00000E+00
    0.00000E+00         0.00000E+00        -0.31021E+08
 
   -0.34727E+08        -0.11114E+06         0.00000E+00
   -0.11114E+06        -0.50187E+08         0.00000E+00
    0.00000E+00         0.00000E+00        -0.30992E+08
 
   -0.34570E+08        -0.67125E+05         0.00000E+00
   -0.67125E+05        -0.50200E+08         0.00000E+00
    0.00000E+00         0.00000E+00        -0.30963E+08
 
   -0.34413E+08        -0.21025E+05         0.00000E+00
   -0.21025E+05        -0.50215E+08         0.00000E+00
    0.00000E+00         0.00000E+00        -0.30935E+08
 
   -0.34258E+08         0.27123E+05         0.00000E+00
    0.27123E+05        -0.50231E+08         0.00000E+00
    0.00000E+00         0.00000E+00        -0.30907E+08
 
   -0.34102E+08         0.77312E+05         0.00000E+00
    0.77312E+05        -0.50249E+08         0.00000E+00
    0.00000E+00         0.00000E+00        -0.30880E+08
 
   -0.33946E+08         0.12955E+06         0.00000E+00
    0.12955E+06        -0.50269E+08         0.00000E+00
    0.00000E+00         0.00000E+00        -0.30853E+08
 
   -0.33791E+08         0.18388E+06         0.00000E+00
    0.18388E+06        -0.50292E+08         0.00000E+00
    0.00000E+00         0.00000E+00        -0.30826E+08
 
   -0.33635E+08         0.24036E+06         0.00000E+00
    0.24036E+06        -0.50316E+08         0.00000E+00
    0.00000E+00         0.00000E+00        -0.30799E+08
 
   -0.33478E+08         0.29908E+06         0.00000E+00
    0.29908E+06        -0.50342E+08         0.00000E+00
    0.00000E+00         0.00000E+00        -0.30774E+08
 
   -0.33321E+08         0.36013E+06         0.00000E+00
    0.36013E+06        -0.50371E+08         0.00000E+00
    0.00000E+00         0.00000E+00        -0.30748E+08
 
   -0.33164E+08         0.42366E+06         0.00000E+00
    0.42366E+06        -0.50402E+08         0.00000E+00
    0.00000E+00         0.00000E+00        -0.30723E+08
 
   -0.33005E+08         0.48981E+06         0.00000E+00
    0.48981E+06        -0.50436E+08         0.00000E+00
    0.00000E+00         0.00000E+00        -0.30698E+08
 
   -0.32846E+08         0.55877E+06         0.00000E+00
    0.55877E+06        -0.50473E+08         0.00000E+00
    0.00000E+00         0.00000E+00        -0.30673E+08
 
   -0.32685E+08         0.63075E+06         0.00000E+00
    0.63075E+06        -0.50512E+08         0.00000E+00
    0.00000E+00         0.00000E+00        -0.30649E+08
 
   -0.32524E+08         0.70599E+06         0.00000E+00
    0.70599E+06        -0.50554E+08         0.00000E+00
    0.00000E+00         0.00000E+00        -0.30625E+08
 
   -0.32362E+08         0.78475E+06         0.00000E+00
    0.78475E+06        -0.50599E+08         0.00000E+00
    0.00000E+00         0.00000E+00        -0.30602E+08
 
   -0.32198E+08         0.86733E+06         0.00000E+00
    0.86733E+06        -0.50647E+08         0.00000E+00
    0.00000E+00         0.00000E+00        -0.30579E+08
 
   -0.32034E+08         0.95405E+06         0.00000E+00
    0.95405E+06        -0.50698E+08         0.00000E+00
    0.00000E+00         0.00000E+00        -0.30556E+08
 
   -0.31870E+08         0.10452E+07         0.00000E+00
    0.10452E+07        -0.50751E+08         0.00000E+00
    0.00000E+00         0.00000E+00        -0.30534E+08
 
   -0.31704E+08         0.11413E+07         0.00000E+00
    0.11413E+07        -0.50807E+08         0.00000E+00
    0.00000E+00         0.00000E+00        -0.30512E+08
 
   -0.31539E+08         0.12425E+07         0.00000E+00
    0.12425E+07        -0.50865E+08         0.00000E+00
    0.00000E+00         0.00000E+00        -0.30490E+08
 
   -0.31374E+08         0.13492E+07         0.00000E+00
    0.13492E+07        -0.50926E+08         0.00000E+00
    0.00000E+00         0.00000E+00        -0.30469E+08
 
   -0.31210E+08         0.14617E+07         0.00000E+00
    0.14617E+07        -0.50989E+08         0.00000E+00
    0.00000E+00         0.00000E+00        -0.30449E+08
 
   -0.31047E+08         0.15803E+07         0.00000E+00
    0.15803E+07        -0.51053E+08         0.00000E+00
    0.00000E+00         0.00000E+00        -0.30430E+08
 
   -0.30887E+08         0.17051E+07         0.00000E+00
    0.17051E+07        -0.51119E+08         0.00000E+00
    0.00000E+00         0.00000E+00        -0.30410E+08
 
   -0.30729E+08         0.18361E+07         0.00000E+00
    0.18361E+07        -0.51185E+08         0.00000E+00
    0.00000E+00         0.00000E+00        -0.30392E+08
 
   -0.30574E+08         0.19736E+07         0.00000E+00
    0.19736E+07        -0.51251E+08         0.00000E+00
    0.00000E+00         0.00000E+00        -0.30374E+08
 
   -0.30424E+08         0.21180E+07         0.00000E+00
    0.21180E+07        -0.51318E+08         0.00000E+00
    0.00000E+00         0.00000E+00        -0.30358E+08
 
   -0.38970E+08        -0.62317E+05         0.00000E+00
   -0.62317E+05        -0.50000E+08         0.00000E+00
    0.00000E+00         0.00000E+00        -0.31232E+08
 
   -0.38740E+08        -0.15212E+06         0.00000E+00
   -0.15212E+06        -0.50002E+08         0.00000E+00
    0.00000E+00         0.00000E+00        -0.31186E+08
 
   -0.38508E+08        -0.22957E+06         0.00000E+00
   -0.22957E+06        -0.50008E+08         0.00000E+00
    0.00000E+00         0.00000E+00        -0.31141E+08
 
   -0.38273E+08        -0.29307E+06         0.00000E+00
   -0.29307E+06        -0.50015E+08         0.00000E+00
    0.00000E+00         0.00000E+00        -0.31095E+08
 
   -0.38039E+08        -0.34296E+06         0.00000E+00
   -0.34296E+06        -0.50021E+08         0.00000E+00
    0.00000E+00         0.00000E+00        -0.31050E+08
 
   -0.37806E+08        -0.38046E+06         0.00000E+00
   -0.38046E+06        -0.50026E+08         0.00000E+00
    0.00000E+00         0.00000E+00        -0.31004E+08
 
   -0.37576E+08        -0.40705E+06         0.00000E+00
   -0.40705E+06        -0.50028E+08         0.00000E+00
    0.00000E+00         0.00000E+00        -0.30959E+08
 
   -0.37352E+08        -0.42423E+06         0.00000E+00
   -0.42423E+06        -0.50028E+08         0.00000E+00
    0.00000E+00         0.00000E+00        -0.30914E+08
 
   -0.37132E+08        -0.43337E+06         0.00000E+00
   -0.43337E+06        -0.50025E+08         0.00000E+00
    0.00000E+00         0.00000E+00        -0.30869E+08
 
   -0.36918E+08        -0.43568E+06         0.00000E+00
   -0.43568E+06        -0.50021E+08         0.00000E+00
    0.00000E+00         0.00000E+00        -0.30826E+08
 
   -0.36710E+08        -0.43219E+06         0.00000E+00
   -0.43219E+06        -0.50016E+08         0.00000E+00
    0.00000E+00         0.00000E+00        -0.30783E+08
 
   -0.36507E+08        -0.42378E+06         0.00000E+00
   -0.42378E+06        -0.50009E+08         0.00000E+00
    0.00000E+00         0.00000E+00        -0.30741E+08
 
   -0.36309E+08        -0.41118E+06         0.00000E+00
   -0.41118E+06        -0.50001E+08         0.00000E+00
    0.00000E+00         0.00000E+00        -0.30700E+08
 
   -0.36116E+08        -0.39499E+06         0.00000E+00
   -0.39499E+06        -0.49993E+08         0.00000E+00
    0.00000E+00         0.00000E+00        -0.30660E+08
 
   -0.35927E+08        -0.37571E+06         0.00000E+00
   -0.37571E+06        -0.49985E+08         0.00000E+00
    0.00000E+00         0.00000E+00        -0.30620E+08
 
   -0.35743E+08        -0.35376E+06         0.00000E+00
   -0.35376E+06        -0.49977E+08         0.00000E+00
    0.00000E+00         0.00000E+00        -0.30582E+08
 
   -0.35562E+08        -0.32946E+06         0.00000E+00
   -0.32946E+06        -0.49970E+08         0.00000E+00
    0.00000E+00         0.00000E+00        -0.30544E+08
 
   -0.35384E+08        -0.30309E+06         0.00000E+00
   -0.30309E+06        -0.49963E+08         0.00000E+00
    0.00000E+00         0.00000E+00        -0.30507E+08
 
   -0.35210E+08        -0.27487E+06         0.00000E+00
   -0.27487E+06        -0.49957E+08         0.00000E+00
    0.00000E+00         0.00000E+00        -0.30471E+08
 
   -0.35037E+08        -0.24496E+06         0.00000E+00
   -0.24496E+06        -0.49952E+08         0.00000E+00
    0.00000E+00         0.00000E+00        -0.30436E+08
 
   -0.34867E+08        -0.21351E+06         0.00000E+00
   -0.21351E+06        -0.49949E+08         0.00000E+00
    0.00000E+00         0.00000E+00        -0.30401E+08
 
   -0.34699E+08        -0.18062E+06         0.00000E+00
   -0.18062E+06        -0.49947E+08         0.00000E+00
    0.00000E+00         0.00000E+00        -0.30367E+08
 
   -0.34532E+08        -0.14636E+06         0.00000E+00
   -0.14636E+06        -0.49947E+08         0.00000E+00
    0.00000E+00         0.00000E+00        -0.30334E+08
 
   -0.34367E+08        -0.11077E+06         0.00000E+00
   -0.11077E+06        -0.49949E+08         0.00000E+00
    0.00000E+00         0.00000E+00        -0.30301E+08
 
   -0.34202E+08        -0.73885E+05         0.00000E+00
   -0.73885E+05        -0.49953E+08         0.00000E+00
    0.00000E+00         0.00000E+00        -0.30269E+08
 
   -0.34037E+08        -0.35706E+05         0.00000E+00
   -0.35706E+05        -0.49960E+08         0.00000E+00
    0.00000E+00         0.00000E+00        -0.30237E+08
 
   -0.33873E+08         0.37872E+04         0.00000E+00
    0.37872E+04        -0.49968E+08         0.00000E+00
    0.00000E+00         0.00000E+00        -0.30206E+08
 
   -0.33709E+08         0.44632E+05         0.00000E+00
    0.44632E+05        -0.49980E+08         0.00000E+00
    0.00000E+00         0.00000E+00        -0.30175E+08
 
   -0.33544E+08         0.86886E+05         0.00000E+00
    0.86886E+05        -0.49994E+08         0.00000E+00
    0.00000E+00         0.00000E+00        -0.30145E+08
 
   -0.33379E+08         0.13063E+06         0.00000E+00
    0.13063E+06        -0.50010E+08         0.00000E+00
    0.00000E+00         0.00000E+00        -0.30116E+08
 
   -0.33212E+08         0.17596E+06         0.00000E+00
    0.17596E+06        -0.50030E+08         0.00000E+00
    0.00000E+00         0.00000E+00        -0.30086E+08
 
   -0.33045E+08         0.22300E+06         0.00000E+00
    0.22300E+06        -0.50053E+08         0.00000E+00
    0.00000E+00         0.00000E+00        -0.30057E+08
 
   -0.32876E+08         0.27191E+06         0.00000E+00
    0.27191E+06        -0.50079E+08         0.00000E+00
    0.00000E+00         0.00000E+00        -0.30029E+08
 
   -0.32705E+08         0.32286E+06         0.00000E+00
    0.32286E+06        -0.50108E+08         0.00000E+00
    0.00000E+00         0.00000E+00        -0.30000E+08
 
   -0.32532E+08         0.37607E+06         0.00000E+00
    0.37607E+06        -0.50141E+08         0.00000E+00
    0.00000E+00         0.00000E+00        -0.29973E+08
 
   -0.32357E+08         0.43178E+06         0.00000E+00
    0.43178E+06        -0.50178E+08         0.00000E+00
    0.00000E+00         0.00000E+00        -0.29945E+08
 
   -0.32180E+08         0.49029E+06         0.00000E+00
    0.49029E+06        -0.50218E+08         0.00000E+00
    0.00000E+00         0.00000E+00        -0.29917E+08
 
   -0.32000E+08         0.55194E+06         0.00000E+00
    0.55194E+06        -0.50263E+08         0.00000E+00
    0.00000E+00         0.00000E+00        -0.29890E+08
 
   -0.31817E+08         0.61713E+06         0.00000E+00
    0.61713E+06        -0.50311E+08         0.00000E+00
    0.00000E+00         0.00000E+00        -0.29863E+08
 
   -0.31631E+08         0.68634E+06         0.00000E+00
    0.68634E+06        -0.50364E+08         0.00000E+00
    0.00000E+00         0.00000E+00        -0.29837E+08
 
   -0.31443E+08         0.76009E+06         0.00000E+00
    0.76009E+06        -0.50421E+08         0.00000E+00
    0.00000E+00         0.00000E+00        -0.29810E+08
 
   -0.31251E+08         0.83902E+06         0.00000E+00
    0.83902E+06        -0.50482E+08         0.00000E+00
    0.00000E+00         0.00000E+00        -0.29784E+08
 
   -0.31056E+08         0.92384E+06         0.00000E+00
    0.92384E+06        -0.50548E+08         0.00000E+00
    0.00000E+00         0.00000E+00        -0.29759E+08
 
   -0.30859E+08         0.10154E+07         0.00000E+00
    0.10154E+07        -0.50618E+08         0.00000E+00
    0.00000E+00         0.00000E+00        -0.29733E+08
 
   -0.30661E+08         0.11144E+07         0.00000E+00
    0.11144E+07        -0.50693E+08         0.00000E+00
    0.00000E+00         0.00000E+00        -0.29708E+08
 
   -0.30461E+08         0.12220E+07         0.00000E+00
    0.12220E+07        -0.50771E+08         0.00000E+00
    0.00000E+00         0.00000E+00        -0.29684E+08
 
   -0.30262E+08         0.13388E+07         0.00000E+00
    0.13388E+07        -0.50853E+08         0.00000E+00
    0.00000E+00         0.00000E+00        -0.29661E+08
 
   -0.30064E+08         0.14655E+07         0.00000E+00
    0.14655E+07        -0.50936E+08         0.00000E+00
    0.00000E+00         0.00000E+00        -0.29638E+08
 
   -0.29870E+08         0.16018E+07         0.00000E+00
    0.16018E+07        -0.51021E+08         0.00000E+00
    0.00000E+00         0.00000E+00        -0.29616E+08
 
   -0.29679E+08         0.17461E+07         0.00000E+00
    0.17461E+07        -0.51103E+08         0.00000E+00
    0.00000E+00         0.00000E+00        -0.29594E+08
 
   -0.39493E+08        -0.75985E+05         0.00000E+00
   -0.75985E+05        -0.49999E+08         0.00000E+00
    0.00000E+00         0.00000E+00        -0.30762E+08
 
   -0.39171E+08        -0.17947E+06         0.00000E+00
   -0.17947E+06        -0.50014E+08         0.00000E+00
    0.00000E+00         0.00000E+00        -0.30701E+08
 
   -0.38845E+08        -0.25162E+06         0.00000E+00
   -0.25162E+06        -0.50019E+08         0.00000E+00
    0.00000E+00         0.00000E+00        -0.30636E+08
 
   -0.38527E+08        -0.30064E+06         0.00000E+00
   -0.30064E+06        -0.50015E+08         0.00000E+00
    0.00000E+00         0.00000E+00        -0.30572E+08
 
   -0.38221E+08        -0.33266E+06         0.00000E+00
   -0.33266E+06        -0.50004E+08         0.00000E+00
    0.00000E+00         0.00000E+00        -0.30509E+08
 
   -0.37930E+08        -0.35213E+06         0.00000E+00
   -0.35213E+06        -0.49987E+08         0.00000E+00
    0.00000E+00         0.00000E+00        -0.30447E+08
 
   -0.37654E+08        -0.36225E+06         0.00000E+00
   -0.36225E+06        -0.49966E+08         0.00000E+00
    0.00000E+00         0.00000E+00        -0.30388E+08
 
   -0.37390E+08        -0.36535E+06         0.00000E+00
   -0.36535E+06        -0.49941E+08         0.00000E+00
    0.00000E+00         0.00000E+00        -0.30330E+08
 
   -0.37139E+08        -0.36312E+06         0.00000E+00
   -0.36312E+06        -0.49914E+08         0.00000E+00
    0.00000E+00         0.00000E+00        -0.30274E+08
 
   -0.36900E+08        -0.35679E+06         0.00000E+00
   -0.35679E+06        -0.49885E+08         0.00000E+00
    0.00000E+00         0.00000E+00        -0.30221E+08
 
   -0.36670E+08        -0.34726E+06         0.00000E+00
   -0.34726E+06        -0.49856E+08         0.00000E+00
    0.00000E+00         0.00000E+00        -0.30169E+08
 
   -0.36450E+08        -0.33522E+06         0.00000E+00
   -0.33522E+06        -0.49826E+08         0.00000E+00
    0.00000E+00         0.00000E+00        -0.30119E+08
 
   -0.36237E+08        -0.32118E+06         0.00000E+00
   -0.32118E+06        -0.49796E+08         0.00000E+00
    0.00000E+00         0.00000E+00        -0.30070E+08
 
   -0.36032E+08        -0.30551E+06         0.00000E+00
   -0.30551E+06        -0.49768E+08         0.00000E+00
    0.00000E+00         0.00000E+00        -0.30023E+08
 
   -0.35833E+08        -0.28850E+06         0.00000E+00
   -0.28850E+06        -0.49740E+08         0.00000E+00
    0.00000E+00         0.00000E+00        -0.29978E+08
 
   -0.35639E+08        -0.27037E+06         0.00000E+00
   -0.27037E+06        -0.49713E+08         0.00000E+00
    0.00000E+00         0.00000E+00        -0.29934E+08
 
   -0.35450E+08        -0.25128E+06         0.00000E+00
   -0.25128E+06        -0.49688E+08         0.00000E+00
    0.00000E+00         0.00000E+00        -0.29891E+08
 
   -0.35266E+08        -0.23137E+06         0.00000E+00
   -0.23137E+06        -0.49664E+08         0.00000E+00
    0.00000E+00         0.00000E+00        -0.29850E+08
 
   -0.35085E+08        -0.21072E+06         0.00000E+00
   -0.21072E+06        -0.49643E+08         0.00000E+00
    0.00000E+00         0.00000E+00        -0.29809E+08
 
   -0.34907E+08        -0.18941E+06         0.00000E+00
   -0.18941E+06        -0.49624E+08         0.00000E+00
    0.00000E+00         0.00000E+00        -0.29770E+08
 
   -0.34731E+08        -0.16747E+06         0.00000E+00
   -0.16747E+06        -0.49607E+08         0.00000E+00
    0.00000E+00         0.00000E+00        -0.29731E+08
 
   -0.34558E+08        -0.14493E+06         0.00000E+00
   -0.14493E+06        -0.49592E+08         0.00000E+00
    0.00000E+00         0.00000E+00        -0.29694E+08
 
   -0.34386E+08        -0.12182E+06         0.00000E+00
   -0.12182E+06        -0.49580E+08         0.00000E+00
    0.00000E+00         0.00000E+00        -0.29657E+08
 
   -0.34216E+08        -0.98124E+05         0.00000E+00
   -0.98124E+05        -0.49571E+08         0.00000E+00
    0.00000E+00         0.00000E+00        -0.29621E+08
 
   -0.34046E+08        -0.73841E+05         0.00000E+00
   -0.73841E+05        -0.49565E+08         0.00000E+00
    0.00000E+00         0.00000E+00        -0.29586E+08
 
   -0.33877E+08        -0.48948E+05         0.00000E+00
   -0.48948E+05        -0.49561E+08         0.00000E+00
    0.00000E+00         0.00000E+00        -0.29551E+08
 
   -0.33708E+08        -0.23413E+05         0.00000E+00
   -0.23413E+05        -0.49561E+08         0.00000E+00
    0.00000E+00         0.00000E+00        -0.29517E+08
 
   -0.33538E+08         0.28096E+04         0.00000E+00
    0.28096E+04        -0.49563E+08         0.00000E+00
    0.00000E+00         0.00000E+00        -0.29484E+08
 
   -0.33368E+08         0.29773E+05         0.00000E+00
    0.29773E+05        -0.49569E+08         0.00000E+00
    0.00000E+00         0.00000E+00        -0.29451E+08
 
   -0.33196E+08         0.57547E+05         0.00000E+00
    0.57547E+05        -0.49579E+08         0.00000E+00
    0.00000E+00         0.00000E+00        -0.29419E+08
 
   -0.33024E+08         0.86212E+05         0.00000E+00
    0.86212E+05        -0.49591E+08         0.00000E+00
    0.00000E+00         0.00000E+00        -0.29387E+08
 
   -0.32849E+08         0.11587E+06         0.00000E+00
    0.11587E+06        -0.49608E+08         0.00000E+00
    0.00000E+00         0.00000E+00        -0.29355E+08
 
   -0.32672E+08         0.14663E+06         0.00000E+00
    0.14663E+06        -0.49628E+08         0.00000E+00
    0.00000E+00         0.00000E+00        -0.29324E+08
 
   -0.32492E+08         0.17864E+06         0.00000E+00
    0.17864E+06        -0.49653E+08         0.00000E+00
    0.00000E+00         0.00000E+00        -0.29293E+08
 
   -0.32310E+08         0.21207E+06         0.00000E+00
    0.21207E+06        -0.49681E+08         0.00000E+00
    0.00000E+00         0.00000E+00        -0.29262E+08
 
   -0.32124E+08         0.24711E+06         0.00000E+00
    0.24711E+06        -0.49714E+08         0.00000E+00
    0.00000E+00         0.00000E+00        -0.29231E+08
 
   -0.31934E+08         0.28401E+06         0.00000E+00
    0.28401E+06        -0.49751E+08         0.00000E+00
    0.00000E+00         0.00000E+00        -0.29201E+08
 
   -0.31739E+08         0.32306E+06         0.00000E+00
    0.32306E+06        -0.49793E+08         0.00000E+00
    0.00000E+00         0.00000E+00        -0.29170E+08
 
   -0.31540E+08         0.36462E+06         0.00000E+00
    0.36462E+06        -0.49840E+08         0.00000E+00
    0.00000E+00         0.00000E+00        -0.29140E+08
 
   -0.31335E+08         0.40912E+06         0.00000E+00
    0.40912E+06        -0.49893E+08         0.00000E+00
    0.00000E+00         0.00000E+00        -0.29109E+08
 
   -0.31124E+08         0.45711E+06         0.00000E+00
    0.45711E+06        -0.49951E+08         0.00000E+00
    0.00000E+00         0.00000E+00        -0.29079E+08
 
   -0.30906E+08         0.50926E+06         0.00000E+00
    0.50926E+06        -0.50015E+08         0.00000E+00
    0.00000E+00         0.00000E+00        -0.29048E+08
 
   -0.30681E+08         0.56645E+06         0.00000E+00
    0.56645E+06        -0.50086E+08         0.00000E+00
    0.00000E+00         0.00000E+00        -0.29017E+08
 
   -0.30448E+08         0.62977E+06         0.00000E+00
    0.62977E+06        -0.50163E+08         0.00000E+00
    0.00000E+00         0.00000E+00        -0.28986E+08
 
   -0.30208E+08         0.70064E+06         0.00000E+00
    0.70064E+06        -0.50248E+08         0.00000E+00
    0.00000E+00         0.00000E+00        -0.28955E+08
 
   -0.29958E+08         0.78093E+06         0.00000E+00
    0.78093E+06        -0.50341E+08         0.00000E+00
    0.00000E+00         0.00000E+00        -0.28923E+08
 
   -0.29702E+08         0.87307E+06         0.00000E+00
    0.87307E+06        -0.50441E+08         0.00000E+00
    0.00000E+00         0.00000E+00        -0.28892E+08
 
   -0.29439E+08         0.98030E+06         0.00000E+00
    0.98030E+06        -0.50550E+08         0.00000E+00
    0.00000E+00         0.00000E+00        -0.28861E+08
 
   -0.29174E+08         0.11068E+07         0.00000E+00
    0.11068E+07        -0.50667E+08         0.00000E+00
    0.00000E+00         0.00000E+00        -0.28832E+08
 
   -0.28918E+08         0.12580E+07         0.00000E+00
    0.12580E+07        -0.50793E+08         0.00000E+00
    0.00000E+00         0.00000E+00        -0.28806E+08
 
   -0.40014E+08        -0.11162E+06         0.00000E+00
   -0.11162E+06        -0.50021E+08         0.00000E+00
    0.00000E+00         0.00000E+00        -0.30295E+08
 
   -0.39499E+08        -0.14396E+06         0.00000E+00
   -0.14396E+06        -0.49983E+08         0.00000E+00
    0.00000E+00         0.00000E+00        -0.30184E+08
 
   -0.39051E+08        -0.15936E+06         0.00000E+00
   -0.15936E+06        -0.49935E+08         0.00000E+00
    0.00000E+00         0.00000E+00        -0.30085E+08
 
   -0.38654E+08        -0.16566E+06         0.00000E+00
   -0.16566E+06        -0.49881E+08         0.00000E+00
    0.00000E+00         0.00000E+00        -0.29995E+08
 
   -0.38295E+08        -0.16686E+06         0.00000E+00
   -0.16686E+06        -0.49824E+08         0.00000E+00
    0.00000E+00         0.00000E+00        -0.29912E+08
 
   -0.37967E+08        -0.16506E+06         0.00000E+00
   -0.16506E+06        -0.49766E+08         0.00000E+00
    0.00000E+00         0.00000E+00        -0.29835E+08
 
   -0.37664E+08        -0.16143E+06         0.00000E+00
   -0.16143E+06        -0.49707E+08         0.00000E+00
    0.00000E+00         0.00000E+00        -0.29762E+08
 
   -0.37381E+08        -0.15664E+06         0.00000E+00
   -0.15664E+06        -0.49649E+08         0.00000E+00
    0.00000E+00         0.00000E+00        -0.29694E+08
 
   -0.37116E+08        -0.15107E+06         0.00000E+00
   -0.15107E+06        -0.49592E+08         0.00000E+00
    0.00000E+00         0.00000E+00        -0.29630E+08
 
   -0.36865E+08        -0.14496E+06         0.00000E+00
   -0.14496E+06        -0.49537E+08         0.00000E+00
    0.00000E+00         0.00000E+00        -0.29569E+08
 
   -0.36627E+08        -0.13847E+06         0.00000E+00
   -0.13847E+06        -0.49484E+08         0.00000E+00
    0.00000E+00         0.00000E+00        -0.29510E+08
 
   -0.36400E+08        -0.13169E+06         0.00000E+00
   -0.13169E+06        -0.49432E+08         0.00000E+00
    0.00000E+00         0.00000E+00        -0.29455E+08
 
   -0.36182E+08        -0.12469E+06         0.00000E+00
   -0.12469E+06        -0.49384E+08         0.00000E+00
    0.00000E+00         0.00000E+00        -0.29401E+08
 
   -0.35973E+08        -0.11750E+06         0.00000E+00
   -0.11750E+06        -0.49337E+08         0.00000E+00
    0.00000E+00         0.00000E+00        -0.29350E+08
 
   -0.35770E+08        -0.11016E+06         0.00000E+00
   -0.11016E+06        -0.49294E+08         0.00000E+00
    0.00000E+00         0.00000E+00        -0.29301E+08
 
   -0.35574E+08        -0.10269E+06         0.00000E+00
   -0.10269E+06        -0.49253E+08         0.00000E+00
    0.00000E+00         0.00000E+00        -0.29253E+08
 
   -0.35382E+08        -0.95106E+05         0.00000E+00
   -0.95106E+05        -0.49215E+08         0.00000E+00
    0.00000E+00         0.00000E+00        -0.29207E+08
 
   -0.35195E+08        -0.87405E+05         0.00000E+00
   -0.87405E+05        -0.49179E+08         0.00000E+00
    0.00000E+00         0.00000E+00        -0.29163E+08
 
   -0.35012E+08        -0.79597E+05         0.00000E+00
   -0.79597E+05        -0.49147E+08         0.00000E+00
    0.00000E+00         0.00000E+00        -0.29120E+08
 
   -0.34833E+08        -0.71681E+05         0.00000E+00
   -0.71681E+05        -0.49118E+08         0.00000E+00
    0.00000E+00         0.00000E+00        -0.29078E+08
 
   -0.34655E+08        -0.63655E+05         0.00000E+00
   -0.63655E+05        -0.49092E+08         0.00000E+00
    0.00000E+00         0.00000E+00        -0.29037E+08
 
   -0.34480E+08        -0.55514E+05         0.00000E+00
   -0.55514E+05        -0.49069E+08         0.00000E+00
    0.00000E+00         0.00000E+00        -0.28998E+08
 
   -0.34307E+08        -0.47250E+05         0.00000E+00
   -0.47250E+05        -0.49049E+08         0.00000E+00
    0.00000E+00         0.00000E+00        -0.28959E+08
 
   -0.34135E+08        -0.38855E+05         0.00000E+00
   -0.38855E+05        -0.49033E+08         0.00000E+00
    0.00000E+00         0.00000E+00        -0.28921E+08
 
   -0.33963E+08        -0.30316E+05         0.00000E+00
   -0.30316E+05        -0.49019E+08         0.00000E+00
    0.00000E+00         0.00000E+00        -0.28885E+08
 
   -0.33792E+08        -0.21620E+05         0.00000E+00
   -0.21620E+05        -0.49010E+08         0.00000E+00
    0.00000E+00         0.00000E+00        -0.28848E+08
 
   -0.33620E+08        -0.12748E+05         0.00000E+00
   -0.12748E+05        -0.49003E+08         0.00000E+00
    0.00000E+00         0.00000E+00        -0.28813E+08
 
   -0.33448E+08        -0.36825E+04         0.00000E+00
   -0.36825E+04        -0.49001E+08         0.00000E+00
    0.00000E+00         0.00000E+00        -0.28778E+08
 
   -0.33276E+08         0.56006E+04         0.00000E+00
    0.56006E+04        -0.49001E+08         0.00000E+00
    0.00000E+00         0.00000E+00        -0.28743E+08
 
   -0.33101E+08         0.15128E+05         0.00000E+00
    0.15128E+05        -0.49006E+08         0.00000E+00
    0.00000E+00         0.00000E+00        -0.28710E+08
 
   -0.32925E+08         0.24932E+05         0.00000E+00
    0.24932E+05        -0.49014E+08         0.00000E+00
    0.00000E+00         0.00000E+00        -0.28676E+08
 
   -0.32747E+08         0.35048E+05         0.00000E+00
    0.35048E+05        -0.49027E+08         0.00000E+00
    0.00000E+00         0.00000E+00        -0.28643E+08
 
   -0.32566E+08         0.45521E+05         0.00000E+00
    0.45521E+05        -0.49043E+08         0.00000E+00
    0.00000E+00         0.00000E+00        -0.28610E+08
 
   -0.32382E+08         0.56402E+05         0.00000E+00
    0.56402E+05        -0.49064E+08         0.00000E+00
    0.00000E+00         0.00000E+00        -0.28577E+08
 
   -0.32194E+08         0.67752E+05         0.00000E+00
    0.67752E+05        -0.49089E+08         0.00000E+00
    0.00000E+00         0.00000E+00        -0.28545E+08
 
   -0.32002E+08         0.79648E+05         0.00000E+00
    0.79648E+05        -0.49119E+08         0.00000E+00
    0.00000E+00         0.00000E+00        -0.28512E+08
 
   -0.31805E+08         0.92180E+05         0.00000E+00
    0.92180E+05        -0.49153E+08         0.00000E+00
    0.00000E+00         0.00000E+00        -0.28480E+08
 
   -0.31603E+08         0.10546E+06         0.00000E+00
    0.10546E+06        -0.49193E+08         0.00000E+00
    0.00000E+00         0.00000E+00        -0.28447E+08
 
   -0.31394E+08         0.11963E+06         0.00000E+00
    0.11963E+06        -0.49238E+08         0.00000E+00
    0.00000E+00         0.00000E+00        -0.28414E+08
 
   -0.31178E+08         0.13486E+06         0.00000E+00
    0.13486E+06        -0.49289E+08         0.00000E+00
    0.00000E+00         0.00000E+00        -0.28381E+08
 
   -0.30953E+08         0.15139E+06         0.00000E+00
    0.15139E+06        -0.49346E+08         0.00000E+00
    0.00000E+00         0.00000E+00        -0.28348E+08
 
   -0.30719E+08         0.16951E+06         0.00000E+00
    0.16951E+06        -0.49410E+08         0.00000E+00
    0.00000E+00         0.00000E+00        -0.28314E+08
 
   -0.30473E+08         0.18963E+06         0.00000E+00
    0.18963E+06        -0.49481E+08         0.00000E+00
    0.00000E+00         0.00000E+00        -0.28279E+08
 
   -0.30215E+08         0.21229E+06         0.00000E+00
    0.21229E+06        -0.49561E+08         0.00000E+00
    0.00000E+00         0.00000E+00        -0.28243E+08
 
   -0.29941E+08         0.23827E+06         0.00000E+00
    0.23827E+06        -0.49650E+08         0.00000E+00
    0.00000E+00         0.00000E+00        -0.28206E+08
 
   -0.29648E+08         0.26870E+06         0.00000E+00
    0.26870E+06        -0.49750E+08         0.00000E+00
    0.00000E+00         0.00000E+00        -0.28168E+08
 
   -0.29334E+08         0.30528E+06         0.00000E+00
    0.30528E+06        -0.49862E+08         0.00000E+00
    0.00000E+00         0.00000E+00        -0.28127E+08
 
   -0.28991E+08         0.35071E+06         0.00000E+00
    0.35071E+06        -0.49988E+08         0.00000E+00
    0.00000E+00         0.00000E+00        -0.28084E+08
 
   -0.28612E+08         0.40946E+06         0.00000E+00
    0.40946E+06        -0.50132E+08         0.00000E+00
    0.00000E+00         0.00000E+00        -0.28037E+08
 
   -0.28184E+08         0.48940E+06         0.00000E+00
    0.48940E+06        -0.50298E+08         0.00000E+00
    0.00000E+00         0.00000E+00        -0.27985E+08
 
SCALARS stresss double 
LOOKUP_TABLE default
  -55656910.5246365     
  -55875610.7208499     
  -56104202.6978536     
  -56330853.3338379     
  -56540421.9927613     
  -56692561.5198332     
  -56827300.9727407     
  -56964021.4244386     
  -57099399.5477523     
  -57228798.3499014     
  -57352110.1547336     
  -57468210.5720358     
  -57577750.7335823     
  -57681238.7721139     
  -57779412.2901062     
  -57872840.2071957     
  -57961793.8957068     
  -58046834.2298686     
  -58128122.3564745     
  -58205824.9635408     
  -58279990.9257605     
  -58350659.0527010     
  -58417588.9494490     
  -58480552.6977383     
  -58539173.0821378     
  -58592987.2721525     
  -58641492.5560016     
  -58684289.8857336     
  -58721337.4232131     
  -58752476.0438765     
  -58777711.7558138     
  -58797243.8784611     
  -58811584.9025210     
  -58821104.5153412     
  -58826088.0427754     
  -58826914.1893567     
  -58823774.6984913     
  -58817158.4388810     
  -58806910.9969081     
  -58793083.3786424     
  -58775685.1245560     
  -58754166.3644414     
  -58728392.6192841     
  -58698152.4987104     
  -58662590.7814155     
  -58621166.1280950     
  -58573300.5925739     
  -58517610.8434648     
  -58454559.9332443     
  -58385752.7792820     
  -56489681.3096707     
  -56518050.3986054     
  -56573349.5837940     
  -56646602.7865837     
  -56710151.7549355     
  -56769746.5436273     
  -56839610.0113434     
  -56916833.7436283     
  -56999134.0278786     
  -57085380.0509136     
  -57173260.5796902     
  -57261170.8356329     
  -57348122.2346494     
  -57433341.7902178     
  -57516560.5403256     
  -57597430.7736067     
  -57675905.7746201     
  -57751722.8744879     
  -57825260.3382825     
  -57896475.3022053     
  -57965263.1576699     
  -58031206.2354803     
  -58095109.2596270     
  -58156356.2343723     
  -58214830.0001747     
  -58270347.1043916     
  -58322546.5328272     
  -58370778.9989129     
  -58413102.0594423     
  -58449634.2678973     
  -58480649.4657826     
  -58505648.5616770     
  -58523505.8840672     
  -58535396.7551809     
  -58542026.0254953     
  -58543215.7680206     
  -58540391.6602438     
  -58533231.9182012     
  -58521936.6088493     
  -58506598.4500454     
  -58487310.1307257     
  -58464030.1039715     
  -58436415.2520987     
  -58403982.3600331     
  -58366139.7070952     
  -58322381.6809914     
  -58272085.8339071     
  -58214868.1170766     
  -58147352.8085602     
  -58063860.4956429     
  -56552110.3498880     
  -56591210.2342869     
  -56630256.1318999     
  -56670670.5537130     
  -56716108.4986601     
  -56765596.4558899     
  -56817156.5950863     
  -56871137.2766725     
  -56927538.6595109     
  -56986143.5039949     
  -57046788.1958258     
  -57109053.8422645     
  -57172426.4570096     
  -57236421.0440528     
  -57300571.4080247     
  -57364453.9454725     
  -57427767.8526802     
  -57490010.4790515     
  -57551269.6233386     
  -57611338.1998623     
  -57670064.1077447     
  -57726947.0823900     
  -57782843.1306913     
  -57837212.8687516     
  -57890154.4799170     
  -57941814.3532018     
  -57992381.0712967     
  -58042088.3171731     
  -58088515.3819235     
  -58134061.6172195     
  -58173297.4309068     
  -58204922.7732955     
  -58232246.6502967     
  -58250740.4537287     
  -58260128.7595920     
  -58264386.9721202     
  -58259739.3526745     
  -58248928.9610083     
  -58232324.0885052     
  -58210945.8926125     
  -58185387.0321366     
  -58155344.6037632     
  -58120806.4482490     
  -58081629.4975135     
  -58037970.3666993     
  -57989504.2450083     
  -57936100.9383811     
  -57877284.2826817     
  -57816054.1906543     
  -57756269.6961561     
  -56529391.5476289     
  -56572031.1581818     
  -56613601.8912806     
  -56654904.9616537     
  -56695935.6538505     
  -56737355.9441941     
  -56779737.3988528     
  -56823012.2632433     
  -56867172.4977383     
  -56912188.5570475     
  -56957960.0399102     
  -57004399.5391187     
  -57051394.7512440     
  -57098795.6884686     
  -57146436.7290732     
  -57194141.6000867     
  -57241730.7136555     
  -57289087.8955386     
  -57336038.4698083     
  -57382474.7662657     
  -57428297.1149900     
  -57473525.6211464     
  -57517986.4043936     
  -57561780.8273705     
  -57604934.1192193     
  -57647538.7174208     
  -57689770.3129981     
  -57731742.0353362     
  -57769723.6727891     
  -57808391.5435521     
  -57844002.7327873     
  -57876539.6725695     
  -57910456.7849585     
  -57939922.3440554     
  -57967958.4583468     
  -57974828.8478989     
  -57975571.3827205     
  -57964077.2198638     
  -57944921.9496506     
  -57918529.3315447     
  -57884419.1427213     
  -57845013.3915307     
  -57800824.3078296     
  -57754361.7868144     
  -57705071.5777783     
  -57653553.4683409     
  -57600353.8036515     
  -57546432.2358820     
  -57491432.9799613     
  -57435246.1465284     
  -56526232.4424215     
  -56556287.0596186     
  -56587330.7970954     
  -56618945.6366324     
  -56651078.9111620     
  -56683633.5975824     
  -56716570.7716702     
  -56749959.6514697     
  -56783805.2831393     
  -56818091.3814531     
  -56852793.5669775     
  -56887862.9290363     
  -56923240.6541096     
  -56958862.9165319     
  -56994658.4489376     
  -57030551.6315140     
  -57066466.7583813     
  -57102313.6681942     
  -57138021.8651211     
  -57173514.0271420     
  -57208726.7715896     
  -57243575.4063806     
  -57278035.7335241     
  -57312028.4161866     
  -57345504.8511328     
  -57378394.7979818     
  -57410584.2582330     
  -57441915.2707916     
  -57473271.4738587     
  -57503395.2897950     
  -57532877.1610200     
  -57562213.8779214     
  -57591810.0121656     
  -57614639.2783668     
  -57638730.9976779     
  -57649153.8484032     
  -57661246.0980156     
  -57666875.9341362     
  -57659645.9411619     
  -57635122.0853858     
  -57600256.9534827     
  -57555428.7984182     
  -57508341.3888429     
  -57453533.6334975     
  -57396552.6818405     
  -57339062.0856625     
  -57282240.8431386     
  -57227828.5091479     
  -57174247.3490809     
  -57120760.3037566     
  -56511722.8430502     
  -56531628.0586298     
  -56552180.1609178     
  -56573486.7030465     
  -56595508.1971444     
  -56618197.4432642     
  -56641495.5935177     
  -56665332.9597158     
  -56689662.1502378     
  -56714437.4239357     
  -56739610.4291191     
  -56765133.3899414     
  -56790955.2547303     
  -56817021.5641553     
  -56843275.8832084     
  -56869659.7711733     
  -56896112.0699123     
  -56922573.9440640     
  -56948981.5065885     
  -56975272.8597393     
  -57001382.2425599     
  -57027251.2702177     
  -57052807.4586651     
  -57077991.5270311     
  -57102734.8679913     
  -57126975.0695030     
  -57150666.4691610     
  -57173798.7599123     
  -57196082.5552100     
  -57217775.0925934     
  -57238667.5576556     
  -57258523.0599487     
  -57276953.4403906     
  -57295550.7931974     
  -57311983.7331155     
  -57328843.6293090     
  -57343128.9735965     
  -57347131.1496820     
  -57343666.8246416     
  -57331955.0288550     
  -57315010.9231924     
  -57297100.7097030     
  -57249620.2181747     
  -57199703.7176762     
  -57139117.7731748     
  -57074151.6741800     
  -57011112.1553649     
  -56945015.6382876     
  -56882889.6232209     
  -56827432.2396331     
  -56479922.6519476     
  -56490154.6100937     
  -56501471.9166969     
  -56513733.2924841     
  -56526860.0580571     
  -56540782.8907374     
  -56555437.3103668     
  -56570761.2167400     
  -56586689.1763916     
  -56603158.6948268     
  -56620109.8967274     
  -56637483.8514873     
  -56655222.8486730     
  -56673269.7672789     
  -56691567.4007460     
  -56710058.2998265     
  -56728684.9999241     
  -56747388.5735180     
  -56766110.3190118     
  -56784789.9920142     
  -56803367.5466319     
  -56821779.6783153     
  -56839965.3287833     
  -56857859.1768655     
  -56875397.5436927     
  -56892514.1591658     
  -56909136.1573462     
  -56925171.5290118     
  -56940598.4181500     
  -56955248.9316878     
  -56969054.9053928     
  -56981945.9396220     
  -56993931.1532703     
  -57004483.1846236     
  -57014090.1133393     
  -57021819.3895834     
  -57027879.5736489     
  -57033757.4402320     
  -57037650.9436841     
  -57041277.8248068     
  -57031269.2467047     
  -57020662.3518296     
  -56987570.8562824     
  -56958586.8787313     
  -56920505.1279116     
  -56880955.8275726     
  -56810431.0889872     
  -56741259.9460572     
  -56662238.4822929     
  -56580848.3159821     
  -56424615.3602579     
  -56427419.3808191     
  -56431311.9394457     
  -56436233.6057480     
  -56442108.1439306     
  -56448861.6504801     
  -56456423.6653270     
  -56464727.1408985     
  -56473708.5409668     
  -56483305.6709456     
  -56493457.7460040     
  -56504105.5383216     
  -56515190.9801434     
  -56526657.0168879     
  -56538447.4358682     
  -56550506.6002044     
  -56562779.0789476     
  -56575209.7896189     
  -56587743.3816407     
  -56600324.4680565     
  -56612896.8901026     
  -56625404.5178414     
  -56637789.6005637     
  -56649994.0133394     
  -56661957.2683393     
  -56673616.9269189     
  -56684908.9399358     
  -56695772.3542245     
  -56706122.9603636     
  -56715908.5443070     
  -56725050.4260094     
  -56733467.7262929     
  -56741038.2231978     
  -56747772.4725362     
  -56753398.7029294     
  -56758021.2132606     
  -56761523.1713772     
  -56763449.6332685     
  -56764055.4845856     
  -56762310.1124486     
  -56761158.7020194     
  -56756784.8570080     
  -56752613.4656586     
  -56746236.4840064     
  -56720971.0968514     
  -56697341.5201802     
  -56649175.4818537     
  -56607082.9258681     
  -56554832.2585767     
  -56501149.8369630     
  -56344322.0491651     
  -56341618.8879472     
  -56340006.5013303     
  -56339410.9230751     
  -56339767.0273202     
  -56341011.6010222     
  -56343083.0531446     
  -56345921.3897994     
  -56349468.1776577     
  -56353666.8519665     
  -56358462.3765671     
  -56363801.0008558     
  -56369630.1751844     
  -56375898.4015421     
  -56382555.1041410     
  -56389550.5197570     
  -56396835.6300287     
  -56404361.9586426     
  -56412081.5640945     
  -56419946.8315199     
  -56427910.5392411     
  -56435925.4785661     
  -56443944.7238313     
  -56451921.1863455     
  -56459808.0029092     
  -56467558.3970474     
  -56475125.6362697     
  -56482461.1750748     
  -56489522.1956958     
  -56496257.5286884     
  -56502620.9797657     
  -56508564.7406777     
  -56514054.5811714     
  -56519021.0211039     
  -56523472.3387800     
  -56527321.0342108     
  -56530515.8687040     
  -56533085.6051466     
  -56534894.3378701     
  -56536236.0286587     
  -56536363.0627812     
  -56536290.7186045     
  -56534951.9209170     
  -56532294.8302721     
  -56532380.2450302     
  -56529570.9253881     
  -56529220.5549736     
  -56530587.7465942     
  -56514391.0521698     
  -56506338.5416538     
  -56239883.7294098     
  -56233425.9973508     
  -56227974.1598044     
  -56223475.7063567     
  -56219877.3705561     
  -56217127.3574530     
  -56215175.2192213     
  -56213971.7421585     
  -56213468.8614370     
  -56213619.5403897     
  -56214377.8139708     
  -56215698.7720243     
  -56217538.5044162     
  -56219854.0701549     
  -56222603.4651834     
  -56225745.5946587     
  -56229240.2386794     
  -56233048.0627394     
  -56237130.5898322     
  -56241450.2350421     
  -56245970.2783184     
  -56250654.9844992     
  -56255469.5779244     
  -56260380.4283976     
  -56265355.0625514     
  -56270362.3263246     
  -56275372.5331629     
  -56280358.3540147     
  -56285292.9715277     
  -56290153.9791857     
  -56294920.9178741     
  -56299577.9168029     
  -56304109.2755673     
  -56308514.2164429     
  -56312776.9929776     
  -56316912.7405367     
  -56320941.8364073     
  -56324879.9565692     
  -56328801.9246984     
  -56332668.5054330     
  -56336737.7457614     
  -56340828.7308854     
  -56345366.3687428     
  -56350719.2534520     
  -56356197.5174002     
  -56363702.1005907     
  -56372231.8384133     
  -56381989.9770435     
  -56398860.4689384     
  -56417932.1987062     
  -56113835.3866851     
  -56104998.6079326     
  -56097056.3025481     
  -56089968.7401056     
  -56083697.1019589     
  -56078202.8542314     
  -56073447.8992352     
  -56069394.6659296     
  -56066006.1726211     
  -56063246.0824304     
  -56061078.7168699     
  -56059469.0906241     
  -56058382.9524339     
  -56057786.8185063     
  -56057648.0087377     
  -56057934.6850782     
  -56058615.8988677     
  -56059661.6351283     
  -56061042.8772380     
  -56062731.6692104     
  -56064701.2123668     
  -56066925.9409295     
  -56069381.6582497     
  -56072045.6447784     
  -56074896.8385857     
  -56077916.0187587     
  -56081086.0490545     
  -56084391.9127970     
  -56087821.6105860     
  -56091365.6440509     
  -56095018.0497382     
  -56098776.1766362     
  -56102642.8152396     
  -56106622.7961742     
  -56110732.1762645     
  -56114988.0226981     
  -56119414.6476294     
  -56124047.4255878     
  -56128917.1109800     
  -56134102.7281605     
  -56139621.1444326     
  -56145627.5019348     
  -56152143.4253176     
  -56159185.0997066     
  -56167069.6605996     
  -56175435.9649428     
  -56184661.0768417     
  -56194909.0382536     
  -56204577.8552231     
  -56214350.7463931     
  -55969560.4566991     
  -55959349.9846776     
  -55949911.5622052     
  -55941218.9805334     
  -55933245.5916940     
  -55925964.6427694     
  -55919349.3433335     
  -55913372.9549979     
  -55908008.8802918     
  -55903230.7455891     
  -55899012.4859082     
  -55895328.4175780     
  -55892153.3072615     
  -55889462.4417001     
  -55887231.6964843     
  -55885437.6059475     
  -55884057.4335134     
  -55883069.2474392     
  -55882451.9976646     
  -55882185.6011751     
  -55882251.0273368     
  -55882630.4001507     
  -55883307.0973323     
  -55884265.8710366     
  -55885492.9668698     
  -55886976.2581446     
  -55888705.3775365     
  -55890671.9411665     
  -55892869.5438043     
  -55895294.1285498     
  -55897944.0125481     
  -55900820.2726079     
  -55903926.4186755     
  -55907269.6972610     
  -55910858.8720583     
  -55914706.8506276     
  -55918829.5689470     
  -55923245.0955589     
  -55927978.0863906     
  -55933044.0637746     
  -55938478.5739030     
  -55944280.7390675     
  -55950478.8523656     
  -55957105.6642342     
  -55964101.6126631     
  -55971571.7318096     
  -55979419.5941180     
  -55987542.0612308     
  -55996333.0886765     
  -56005758.1305389     
  -55810665.4473116     
  -55799754.0542867     
  -55789499.5802048     
  -55779885.7276442     
  -55770895.6629544     
  -55762512.0745930     
  -55754717.3025578     
  -55747493.4455199     
  -55740822.4591492     
  -55734686.2486709     
  -55729066.7551443     
  -55723946.0397566     
  -55719306.3643564     
  -55715130.2684777     
  -55711400.6444160     
  -55708100.8105941     
  -55705214.5843426     
  -55702726.3535257     
  -55700621.1487597     
  -55698884.7148808     
  -55697503.5845289     
  -55696465.1495587     
  -55695757.7357225     
  -55695370.6739888     
  -55695294.3736710     
  -55695520.3926327     
  -55696041.5094125     
  -55696851.7631751     
  -55697946.5531163     
  -55699322.6361155     
  -55700978.1907477     
  -55702912.7580868     
  -55705127.3655835     
  -55707624.1271195     
  -55710406.7584042     
  -55713479.8301906     
  -55716848.7564599     
  -55720519.6759564     
  -55724497.5758489     
  -55728790.0600704     
  -55733398.5043286     
  -55738332.5790979     
  -55743593.7356132     
  -55749177.9368035     
  -55755104.2965202     
  -55761347.2581882     
  -55767930.1370199     
  -55774894.7268484     
  -55782150.0830549     
  -55789665.3714309     
  -55640542.2705477     
  -55629344.5675229     
  -55618703.8827507     
  -55608610.9851110     
  -55599055.9640190     
  -55590028.3469242     
  -55581517.1882972     
  -55573511.1601074     
  -55565998.6384801     
  -55558967.7861896     
  -55552406.6316107     
  -55546303.1436297     
  -55540645.3035367     
  -55535421.1741218     
  -55530618.9659270     
  -55526227.1009677     
  -55522234.2738794     
  -55518629.5108393     
  -55515402.2259218     
  -55512542.2752353     
  -55510040.0079018     
  -55507886.3147342     
  -55506072.6726838     
  -55504591.1860870     
  -55503434.6225562     
  -55502596.4434220     
  -55502070.8253532     
  -55501852.6823049     
  -55501937.6590954     
  -55502322.1353170     
  -55503003.1958497     
  -55503978.6151883     
  -55505246.7621774     
  -55506806.6307534     
  -55508657.5921516     
  -55510799.4203354     
  -55513232.1285915     
  -55515955.7890351     
  -55518970.8836456     
  -55522277.0594693     
  -55525875.4512885     
  -55529764.7044960     
  -55533944.8074136     
  -55538417.2898979     
  -55543176.9087346     
  -55548229.6633249     
  -55553569.5124060     
  -55559179.6041860     
  -55565074.3234666     
  -55571264.1586153     
  -55462138.1411868     
  -55450887.1339085     
  -55440111.1469656     
  -55429805.4269383     
  -55419964.6000717     
  -55410582.7393993     
  -55401653.4370168     
  -55393169.8721734     
  -55385124.8772106     
  -55377511.0013599     
  -55370320.5722058     
  -55363545.7549292     
  -55357178.6090830     
  -55351211.1429091     
  -55345635.3652186     
  -55340443.3347288     
  -55335627.2068253     
  -55331179.2775660     
  -55327092.0248675     
  -55323358.1465706     
  -55319970.5953625     
  -55316922.6099666     
  -55314207.7426678     
  -55311819.8823832     
  -55309753.2731904     
  -55308002.5276583     
  -55306562.6353069     
  -55305428.9624025     
  -55304597.2503396     
  -55304063.6021134     
  -55303824.4671288     
  -55303876.6112125     
  -55304217.0993166     
  -55304843.2311132     
  -55305752.5423998     
  -55306942.7369753     
  -55308411.6593044     
  -55310157.2827706     
  -55312177.5401018     
  -55314470.6140137     
  -55317034.2302588     
  -55319866.6480671     
  -55322965.7399888     
  -55326328.6291627     
  -55329953.9912247     
  -55333837.1585184     
  -55337975.5692848     
  -55342370.3038151     
  -55347015.1839745     
  -55351901.6558386     
  -55277883.6233941     
  -55266696.2214109     
  -55255918.6831020     
  -55245548.8734162     
  -55235584.1322483     
  -55226021.3233794     
  -55216856.8811308     
  -55208086.8572104     
  -55199706.9667327     
  -55191712.6332136     
  -55184099.0324022     
  -55176861.1347473     
  -55169993.7463963     
  -55163491.5485627     
  -55157349.1351057     
  -55151561.0482018     
  -55146121.8119570     
  -55141025.9638347     
  -55136268.0837364     
  -55131842.8206120     
  -55127744.9163937     
  -55123969.2271769     
  -55120510.7413922     
  -55117364.5949275     
  -55114526.0829954     
  -55111990.6687007     
  -55109753.9879725     
  -55107811.8518994     
  -55106160.2444343     
  -55104795.3181866     
  -55103713.3859506     
  -55102910.9119825     
  -55102384.4955186     
  -55102130.8647596     
  -55102146.8515978     
  -55102429.3812677     
  -55102975.4519483     
  -55103782.1062994     
  -55104846.4501336     
  -55106165.5390370     
  -55107736.5447239     
  -55109556.4698596     
  -55111622.3180730     
  -55113931.2269993     
  -55116479.7960622     
  -55119265.3882623     
  -55122284.9378947     
  -55125534.0730693     
  -55129009.7396084     
  -55132710.0531014     
  -55089718.7071852     
  -55078644.2822441     
  -55067928.7721025     
  -55057571.4078248     
  -55047571.0066983     
  -55037926.0009351     
  -55028634.4673998     
  -55019694.1573176     
  -55011102.5260053     
  -55002856.7623973     
  -54994953.8181569     
  -54987390.4362008     
  -54980163.1784569     
  -54973268.4527058     
  -54966702.5383638     
  -54960461.6110635     
  -54954541.7659103     
  -54948939.0392876     
  -54943649.4291076     
  -54938668.9133956     
  -54933993.4671340     
  -54929619.0772653     
  -54925541.7558188     
  -54921757.5510911     
  -54918262.5568742     
  -54915052.9197166     
  -54912124.8443388     
  -54909474.5969453     
  -54907098.5070810     
  -54904992.9674988     
  -54903154.4328325     
  -54901579.4161894     
  -54900264.4861449     
  -54899206.2591364     
  -54898401.3953839     
  -54897846.5901515     
  -54897538.5662702     
  -54897474.0691531     
  -54897649.8473661     
  -54898062.6711612     
  -54898709.2732878     
  -54899586.4093711     
  -54900690.8153983     
  -54902019.1488855     
  -54903568.1726154     
  -54905334.4029887     
  -54907314.3316039     
  -54909504.7529249     
  -54911902.1764721     
  -54914502.5816517     
  -54899164.0791786     
  -54888217.0514526     
  -54877589.1975692     
  -54867280.3456819     
  -54857290.0089893     
  -54847617.4023826     
  -54838261.4596220     
  -54829220.8510922     
  -54820494.0018785     
  -54812079.1100075     
  -54803974.1647057     
  -54796176.9645233     
  -54788685.1351921     
  -54781496.1470839     
  -54774607.3321509     
  -54768015.9002403     
  -54761718.9546790     
  -54755713.5070417     
  -54749996.4910174     
  -54744564.7753096     
  -54739415.1755059     
  -54734544.4648777     
  -54729949.3840678     
  -54725626.6496538     
  -54721572.9615740     
  -54717785.0094279     
  -54714259.4776393     
  -54710993.0496041     
  -54707982.4107161     
  -54705224.2504828     
  -54702715.2636155     
  -54700452.1504497     
  -54698431.6160725     
  -54696650.3697024     
  -54695105.1223257     
  -54693792.5847398     
  -54692709.4648378     
  -54691852.4635365     
  -54691218.2747467     
  -54690803.5743125     
  -54690605.0305724     
  -54690619.2840922     
  -54690842.9499202     
  -54691272.6311895     
  -54691904.8607490     
  -54692736.1863423     
  -54693763.1338691     
  -54694982.0981312     
  -54696389.4574619     
  -54697981.7020678     
  -54707403.0664218     
  -54696582.9903922     
  -54686050.8349239     
  -54675806.5852649     
  -54665849.9924141     
  -54656180.5817517     
  -54646797.6623813     
  -54637700.3370011     
  -54628887.5122134     
  -54620357.9091531     
  -54612110.0743286     
  -54604142.3905665     
  -54596453.0879635     
  -54589040.2547522     
  -54581901.8479916     
  -54575035.7040039     
  -54568439.5484819     
  -54562111.0062017     
  -54556047.6102808     
  -54550246.8109306     
  -54544705.9836606     
  -54539422.4368968     
  -54534393.4189898     
  -54529616.1245914     
  -54525087.7003876     
  -54520805.2501844     
  -54516765.8393574     
  -54512966.4986491     
  -54509404.2273686     
  -54506075.9959749     
  -54502978.7481160     
  -54500109.4020738     
  -54497464.8518586     
  -54495041.9675859     
  -54492837.5957171     
  -54490848.5587029     
  -54489071.6543368     
  -54487503.6551604     
  -54486141.3063334     
  -54484981.3263945     
  -54484020.4018186     
  -54483255.1891871     
  -54482682.3125916     
  -54482298.3561846     
  -54482099.8779915     
  -54482083.3862717     
  -54482245.3391404     
  -54482582.1731374     
  -54483090.2813010     
  -54483765.9612753     
  -54515356.3836846     
  -54504659.3737004     
  -54494225.3009633     
  -54484054.0780467     
  -54474145.4453469     
  -54464498.9750328     
  -54455114.0755476     
  -54445989.9966075     
  -54437125.8346123     
  -54428520.5383996     
  -54420172.9152688     
  -54412081.6372067     
  -54404245.2472470     
  -54396662.1659000     
  -54389330.6975926     
  -54382249.0370617     
  -54375415.2756489     
  -54368827.4074482     
  -54362483.3352641     
  -54356380.8763409     
  -54350517.7678288     
  -54344891.6719600     
  -54339500.1809083     
  -54334340.8213140     
  -54329411.0584598     
  -54324708.3000878     
  -54320229.8998476     
  -54315973.1603832     
  -54311935.3360486     
  -54308113.6352691     
  -54304505.2225445     
  -54301107.2201304     
  -54297916.7093474     
  -54294930.7316468     
  -54292146.2893079     
  -54289560.3459062     
  -54287169.8265170     
  -54284971.6175584     
  -54282962.5667832     
  -54281139.4821642     
  -54279499.1322322     
  -54278038.2443241     
  -54276753.5035538     
  -54275641.5533768     
  -54274698.9897707     
  -54273922.3647098     
  -54273308.1859034     
  -54272852.9068703     
  -54272552.9271304     
  -54272404.6066167     
  -54323743.1658809     
  -54313167.7983378     
  -54302834.9520837     
  -54292744.3631418     
  -54282895.6416954     
  -54273288.2733365     
  -54263921.6207595     
  -54254794.9258528     
  -54245907.3121432     
  -54237257.7875492     
  -54228845.2473962     
  -54220668.4776499     
  -54212726.1583252     
  -54205016.8670272     
  -54197539.0825846     
  -54190291.1887375     
  -54183271.4778431     
  -54176478.1545649     
  -54169909.3395153     
  -54163563.0728222     
  -54157437.3175933     
  -54151529.9632571     
  -54145838.8287578     
  -54140361.6655879     
  -54135096.1606451     
  -54130039.9388983     
  -54125190.5658571     
  -54120545.5498341     
  -54116102.3439987     
  -54111858.3482162     
  -54107810.9106757     
  -54103957.3292992     
  -54100294.8529523     
  -54096820.6824303     
  -54093531.9712600     
  -54090425.8262925     
  -54087499.3081023     
  -54084749.4312407     
  -54082173.1641997     
  -54079767.4294651     
  -54077529.1029617     
  -54075455.0138011     
  -54073541.9437295     
  -54071786.6258278     
  -54070185.7448594     
  -54068735.9352003     
  -54067433.7789043     
  -54066275.8064465     
  -54065258.4956001     
  -54064378.2648761     
  -54133127.8529296     
  -54122677.7654876     
  -54112453.0879287     
  -54102453.3476993     
  -54092677.9803508     
  -54083126.3293238     
  -54073797.6460697     
  -54064691.0904819     
  -54055805.7316104     
  -54047140.5486313     
  -54038694.4320443     
  -54030466.1850693     
  -54022454.5252154     
  -54014658.0859945     
  -54007075.4187531     
  -53999704.9945977     
  -53992545.2063878     
  -53985594.3707734     
  -53978850.7302574     
  -53972312.4552574     
  -53965977.6461533     
  -53959844.3352985     
  -53953910.4889813     
  -53948174.0093216     
  -53942632.7360891     
  -53937284.4484328     
  -53932126.8665111     
  -53927157.6530151     
  -53922374.4145773     
  -53917774.7030608     
  -53913356.0167233     
  -53909115.8012564     
  -53905051.4506897     
  -53901160.3081710     
  -53897439.6666087     
  -53893886.7691861     
  -53890498.8097473     
  -53887272.9330418     
  -53884206.2348742     
  -53881295.7620546     
  -53878538.5123422     
  -53875931.4341588     
  -53873471.4262015     
  -53871155.3371367     
  -53868979.9646802     
  -53866942.0550919     
  -53865038.3026595     
  -53863265.3483167     
  -53861619.7783339     
  -53860098.1246588     
  -53943955.0138343     
  -53933639.6364777     
  -53923534.9443962     
  -53913640.2632199     
  -53903954.8512705     
  -53894477.8986072     
  -53885208.5263232     
  -53876145.7860782     
  -53867288.6598506     
  -53858636.0598920     
  -53850186.8288679     
  -53841939.7401674     
  -53833893.4983629     
  -53826046.7398054     
  -53818398.0333346     
  -53810945.8810911     
  -53803688.7194103     
  -53796624.9197855     
  -53789752.7898830     
  -53783070.5745946     
  -53776576.4571158     
  -53770268.5600337     
  -53764144.9464147     
  -53758203.6208807     
  -53752442.5306614     
  -53746859.5666161     
  -53741452.5642144     
  -53736219.3044685     
  -53731157.5148114     
  -53726264.8699132     
  -53721538.9924328     
  -53716977.4536970     
  -53712577.7743084     
  -53708337.4246729     
  -53704253.8254506     
  -53700324.3479239     
  -53696546.3142822     
  -53692916.9978271     
  -53689433.6230842     
  -53686093.3658524     
  -53682893.3531393     
  -53679830.6630397     
  -53676902.3245353     
  -53674105.3171502     
  -53671436.5706648     
  -53668892.9646404     
  -53666471.3278034     
  -53664168.4375493     
  -53661981.0194086     
  -53659905.7459061     
  -53756574.7793412     
  -53746409.0715383     
  -53736441.0525048     
  -53726669.8721055     
  -53717094.6305554     
  -53707714.3771473     
  -53698528.1091672     
  -53689534.7709847     
  -53680733.2533118     
  -53672122.3926181     
  -53663700.9706936     
  -53655467.7143475     
  -53647421.2952331     
  -53639560.3297865     
  -53631883.3792694     
  -53624388.9499052     
  -53617075.4930961     
  -53609941.4057122     
  -53602985.0304419     
  -53596204.6561927     
  -53589598.5185342     
  -53583164.8001725     
  -53576901.6314489     
  -53570807.0908526     
  -53564879.2055415     
  -53559115.9518627     
  -53553515.2558659     
  -53548074.9938036     
  -53542792.9926130     
  -53537667.0303734     
  -53532694.8367350     
  -53527874.0933148     
  -53523202.4340565     
  -53518677.4455499     
  -53514296.6673087     
  -53510057.5920034     
  -53505957.6656484     
  -53501994.2877399     
  -53498164.8113483     
  -53494466.5431558     
  -53490896.7434512     
  -53487452.6260710     
  -53484131.3582879     
  -53480930.0606717     
  -53477845.8068671     
  -53474875.6233477     
  -53472016.4891534     
  -53469265.3355398     
  -53466619.0455605     
  -53464074.4537724     
  -53571261.3006339     
  -53561265.0065933     
  -53551454.6644165     
  -53541829.2823020     
  -53532387.8313777     
  -53523129.2443547     
  -53514052.4143166     
  -53505156.1936404     
  -53496439.3930440     
  -53487900.7807526     
  -53479539.0817805     
  -53471352.9773192     
  -53463341.1042269     
  -53455502.0546124     
  -53447834.3755059     
  -53440336.5686095     
  -53433007.0901219     
  -53425844.3506289     
  -53418846.7150533     
  -53412012.5026577     
  -53405339.9870929     
  -53398827.3964873     
  -53392472.9135682     
  -53386274.6758118     
  -53380230.7756151     
  -53374339.2604842     
  -53368598.1332340     
  -53363005.3521954     
  -53357558.8314239     
  -53352256.4409079     
  -53347096.0067702     
  -53342075.3114620     
  -53337192.0939445     
  -53332444.0498560     
  -53327828.8316628     
  -53323344.0487909     
  -53318987.2677372     
  -53314756.0121593     
  -53310647.7629423     
  -53306659.9582430     
  -53302789.9935091     
  -53299035.2214755     
  -53295392.9521386     
  -53291860.4527021     
  -53288434.9475093     
  -53285113.6179523     
  -53281893.6023520     
  -53278771.9958321     
  -53275745.8501894     
  -53272812.1737071     
  -53388226.1545900     
  -53378422.8681603     
  -53368794.7258689     
  -53359340.6300457     
  -53350059.4548315     
  -53340950.0448905     
  -53332011.2142212     
  -53323241.7450658     
  -53314640.3869123     
  -53306205.8555880     
  -53297936.8324400     
  -53289831.9635994     
  -53281889.8593237     
  -53274109.0934166     
  -53266488.2027166     
  -53259025.6866538     
  -53251720.0068681     
  -53244569.5868860     
  -53237572.8118501     
  -53230728.0282979     
  -53224033.5439849     
  -53217487.6277489     
  -53211088.5094091     
  -53204834.3796986     
  -53198723.3902242     
  -53192753.6534509     
  -53186923.2427076     
  -53181230.1922096     
  -53175672.4970960     
  -53170248.1134783     
  -53164954.9584971     
  -53159790.9103855     
  -53154753.8085361     
  -53149841.4535698     
  -53145051.6074041     
  -53140381.9933208     
  -53135830.2960299     
  -53131394.1617305     
  -53127071.1981663     
  -53122858.9746763     
  -53118755.0222405     
  -53114756.8335196     
  -53110861.8628891     
  -53107067.5264711     
  -53103371.2021589     
  -53099770.2296404     
  -53096261.9104215     
  -53092843.5078481     
  -53089512.2471250     
  -53086265.3153515     
  -53207628.1305567     
  -53198044.3315130     
  -53188625.5672657     
  -53179370.6683038     
  -53170278.4431308     
  -53161347.6771056     
  -53152577.1313550     
  -53143965.5417589     
  -53135511.6180032     
  -53127214.0427022     
  -53119071.4705850     
  -53111082.5277476     
  -53103245.8109652     
  -53095559.8870642     
  -53088023.2923510     
  -53080634.5320944     
  -53073392.0800596     
  -53066294.3780913     
  -53059339.8357415     
  -53052526.8299419     
  -53045853.7047148     
  -53039318.7709237     
  -53032920.3060564     
  -53026656.5540422     
  -53020525.7250974     
  -53014525.9955984     
  -53008655.5079794     
  -53002912.3706525     
  -52997294.6579476     
  -52991800.4100709     
  -52986427.6330793     
  -52981174.2988698     
  -52976038.3451814     
  -52971017.6756081     
  -52966110.1596235     
  -52961313.6326132     
  -52956625.8959161     
  -52952044.7168735     
  -52947567.8288845     
  -52943192.9314695     
  -52938917.6903386     
  -52934739.7374682     
  -52930656.6711836     
  -52926666.0562493     
  -52922765.4239673     
  -52918952.2722846     
  -52915224.0659098     
  -52911578.2364415     
  -52908012.1825097     
  -52904523.2699297     
  -53029580.4409342     
  -53020244.5890311     
  -53011064.2016496     
  -53002038.0679226     
  -52993164.9592764     
  -52984443.6284321     
  -52975872.8084596     
  -52967451.2118816     
  -52959177.5298304     
  -52951050.4312527     
  -52943068.5621648     
  -52935230.5449559     
  -52927534.9777384     
  -52919980.4337439     
  -52912565.4607637     
  -52905288.5806323     
  -52898148.2887530     
  -52891143.0536621     
  -52884271.3166327     
  -52877531.4913147     
  -52870921.9634092     
  -52864441.0903769     
  -52858087.2011776     
  -52851858.5960404     
  -52845753.5462605     
  -52839770.2940251     
  -52833907.0522624     
  -52828162.0045152     
  -52822533.3048372     
  -52817019.0777095     
  -52811617.4179773     
  -52806326.3908053     
  -52801144.0316507     
  -52796068.3462525     
  -52791097.3106374     
  -52786228.8711406     
  -52781460.9444409     
  -52776791.4176107     
  -52772218.1481798     
  -52767738.9642122     
  -52763351.6643983     
  -52759054.0181590     
  -52754843.7657657     
  -52750718.6184734     
  -52746676.2586703     
  -52742714.3400415     
  -52738830.4877509     
  -52735022.2986396     
  -52731287.3414425     
  -52727623.1570267     
  -52854156.1046181     
  -52845097.8340751     
  -52836185.8884273     
  -52827419.0416240     
  -52818796.0528210     
  -52810315.6655517     
  -52801976.6069346     
  -52793777.5869170     
  -52785717.2975555     
  -52777794.4123329     
  -52770007.5855116     
  -52762355.4515224     
  -52754836.6243894     
  -52747449.6971899     
  -52740193.2415479     
  -52733065.8071626     
  -52726065.9213685     
  -52719192.0887290     
  -52712442.7906597     
  -52705816.4850839     
  -52699311.6061159     
  -52692926.5637742     
  -52686659.7437210     
  -52680509.5070296     
  -52674474.1899767     
  -52668552.1038594     
  -52662741.5348366     
  -52657040.7437930     
  -52651447.9662255     
  -52645961.4121507     
  -52640579.2660331     
  -52635299.6867339     
  -52630120.8074783     
  -52625040.7358420     
  -52620057.5537564     
  -52615169.3175314     
  -52610374.0578958     
  -52605669.7800560     
  -52601054.4637704     
  -52596526.0634434     
  -52592082.5082345     
  -52587721.7021863     
  -52583441.5243701     
  -52579239.8290491     
  -52575114.4458603     
  -52571063.1800158     
  -52567083.8125235     
  -52563174.1004277     
  -52559331.7770724     
  -52555554.5523843     
  -52681392.0405418     
  -52672641.4721780     
  -52664028.4471228     
  -52655551.7458314     
  -52647210.1359267     
  -52639002.3715347     
  -52630927.1926438     
  -52622983.3244899     
  -52615169.4769671     
  -52607484.3440648     
  -52599926.6033303     
  -52592494.9153593     
  -52585187.9233108     
  -52578004.2524498     
  -52570942.5097162     
  -52564001.2833183     
  -52557179.1423539     
  -52550474.6364555     
  -52543886.2954614     
  -52537412.6291108     
  -52531052.1267641     
  -52524803.2571465     
  -52518664.4681149     
  -52512634.1864481     
  -52506710.8176595     
  -52500892.7458317     
  -52495178.3334723     
  -52489565.9213917     
  -52484053.8286002     
  -52478640.3522273     
  -52473323.7674589     
  -52468102.3274952     
  -52462974.2635276     
  -52457937.7847349     
  -52452991.0782971     
  -52448132.3094294     
  -52443359.6214334     
  -52438671.1357670     
  -52434064.9521334     
  -52429539.1485870     
  -52425091.7816595     
  -52420720.8865033     
  -52416424.4770547     
  -52412200.5462158     
  -52408047.0660560     
  -52403961.9880332     
  -52399943.2432362     
  -52395988.7426466     
  -52392096.3774236     
  -52388264.0192097     
  -52511292.2570249     
  -52502879.4304454     
  -52494595.6757561     
  -52486439.7973027     
  -52478410.5879139     
  -52470506.8283872     
  -52462727.2869896     
  -52455070.7189767     
  -52447535.8661285     
  -52440121.4563043     
  -52432826.2030148     
  -52425648.8050150     
  -52418587.9459150     
  -52411642.2938100     
  -52404810.5009317     
  -52398091.2033173     
  -52391483.0204995     
  -52384984.5552164     
  -52378594.3931408     
  -52372311.1026287     
  -52366133.2344892     
  -52360059.3217721     
  -52354087.8795759     
  -52348217.4048749     
  -52342446.3763655     
  -52336773.2543314     
  -52331196.4805273     
  -52325714.4780817     
  -52320325.6514184     
  -52315028.3861953     
  -52309821.0492623     
  -52304701.9886370     
  -52299669.5334983     
  -52294721.9941978     
  -52289857.6622892     
  -52285074.8105755     
  -52280371.6931734     
  -52275746.5455966     
  -52271197.5848557     
  -52266723.0095769     
  -52262321.0001386     
  -52257989.7188255     
  -52253727.3100027     
  -52249531.9003065     
  -52245401.5988555     
  -52241334.4974803     
  -52237328.6709728     
  -52233382.1773557     
  -52229493.0581713     
  -52225659.3387923     
  -52343830.4138949     
  -52335784.8336630     
  -52327860.1328195     
  -52320055.1530525     
  -52312368.7254275     
  -52304799.6700047     
  -52297346.7954676     
  -52290008.8987617     
  -52282784.7647458     
  -52275673.1658539     
  -52268672.8617718     
  -52261782.5991251     
  -52255001.1111822     
  -52248327.1175708     
  -52241759.3240086     
  -52235296.4220489     
  -52228937.0888415     
  -52222679.9869078     
  -52216523.7639326     
  -52210467.0525699     
  -52204508.4702651     
  -52198646.6190935     
  -52192880.0856128     
  -52187207.4407335     
  -52181627.2396039     
  -52176138.0215112     
  -52170738.3097990     
  -52165426.6118000     
  -52160201.4187858     
  -52155061.2059316     
  -52150004.4322973     
  -52145029.5408250     
  -52140134.9583516     
  -52135319.0956389     
  -52130580.3474182     
  -52125917.0924526     
  -52121327.6936142     
  -52116810.4979786     
  -52112363.8369352     
  -52107986.0263145     
  -52103675.3665319     
  -52099430.1427478     
  -52095248.6250456     
  -52091129.0686261     
  -52087069.7140194     
  -52083068.7873146     
  -52079124.5004069     
  -52075235.0512633     
  -52071398.6242058     
  -52067613.3902137     
  -52178951.9557464     
  -52171302.2408939     
  -52163765.4712885     
  -52156340.5359486     
  -52149026.3139063     
  -52141821.6739383     
  -52134725.4743042     
  -52127736.5624903     
  -52120853.7749606     
  -52114075.9369155     
  -52107401.8620590     
  -52100830.3523751     
  -52094360.1979124     
  -52087990.1765798     
  -52081719.0539521     
  -52075545.5830856     
  -52069468.5043457     
  -52063486.5452448     
  -52057598.4202929     
  -52051802.8308594     
  -52046098.4650468     
  -52040483.9975778     
  -52034958.0896937     
  -52029519.3890666     
  -52024166.5297236     
  -52018898.1319851     
  -52013712.8024151     
  -52008609.1337858     
  -52003585.7050550     
  -51998641.0813577     
  -51993773.8140104     
  -51988982.4405304     
  -51984265.4846678     
  -51979621.4564522     
  -51975048.8522532     
  -51970546.1548553     
  -51966111.8335469     
  -51961744.3442233     
  -51957442.1295053     
  -51953203.6188714     
  -51949027.2288051     
  -51944911.3629570     
  -51940854.4123226     
  -51936854.7554342     
  -51932910.7585684     
  -51929020.7759700     
  -51925183.1500900     
  -51921396.2118405     
  -51917658.2808651     
  -51913967.6658253     
  -52016575.9574788     
  -52009349.5815493     
  -52002228.4609377     
  -51995211.5390186     
  -51988297.7496764     
  -51981486.0171322     
  -51974775.2557733     
  -51968164.3699857     
  -51961652.2539900     
  -51955237.7916827     
  -51948919.8564815     
  -51942697.3111770     
  -51936569.0077897     
  -51930533.7874347     
  -51924590.4801919     
  -51918737.9049853     
  -51912974.8694687     
  -51907300.1699211     
  -51901712.5911492     
  -51896210.9063997     
  -51890793.8772812     
  -51885460.2536944     
  -51880208.7737731     
  -51875038.1638346     
  -51869947.1383411     
  -51864934.3998703     
  -51859998.6390983     
  -51855138.5347917     
  -51850352.7538121     
  -51845639.9511311     
  -51840998.7698565     
  -51836427.8412707     
  -51831925.7848801     
  -51827491.2084767     
  -51823122.7082114     
  -51818818.8686797     
  -51814578.2630190     
  -51810399.4530191     
  -51806280.9892439     
  -51802221.4111671     
  -51798219.2473193     
  -51794273.0154486     
  -51790381.2226940     
  -51786542.3657717     
  -51782754.9311743     
  -51779017.3953837     
  -51775328.2250969     
  -51771685.8774651     
  -51768088.8003471     
  -51764535.4325753     
  -51856596.7814526     
  -51849819.8896398     
  -51843140.7966235     
  -51836558.5046945     
  -51830072.0070945     
  -51823680.2879193     
  -51817382.3220237     
  -51811177.0749263     
  -51805063.5027153     
  -51799040.5519580     
  -51793107.1596109     
  -51787262.2529346     
  -51781504.7494112     
  -51775833.5566666     
  -51770247.5723964     
  -51764745.6842981     
  -51759326.7700074     
  -51753989.6970410     
  -51748733.3227457     
  -51743556.4942530     
  -51738458.0484418     
  -51733436.8119076     
  -51728491.6009386     
  -51723621.2215008     
  -51718824.4692293     
  -51714100.1294299     
  -51709446.9770871     
  -51704863.7768818     
  -51700349.2832183     
  -51695902.2402589     
  -51691521.3819688     
  -51687205.4321707     
  -51682953.1046073     
  -51678763.1030159     
  -51674634.1212105     
  -51670564.8431758     
  -51666553.9431700     
  -51662600.0858387     
  -51658701.9263386     
  -51654858.1104724     
  -51651067.2748334     
  -51647328.0469618     
  -51643639.0455104     
  -51639998.8804230     
  -51636406.1531222     
  -51632859.4567087     
  -51629357.3761722     
  -51625898.4886125     
  -51622481.3634726     
  -51619104.5627824     
  -51698885.6151079     
  -51692582.9053609     
  -51686370.7616853     
  -51680248.2478513     
  -51674214.4190229     
  -51668268.3217217     
  -51662408.9937904     
  -51656635.4643551     
  -51650946.7537877     
  -51645341.8736687     
  -51639819.8267503     
  -51634379.6069217     
  -51629020.1991750     
  -51623740.5795745     
  -51618539.7152283     
  -51613416.5642627     
  -51608370.0757999     
  -51603399.1899407     
  -51598502.8377497     
  -51593679.9412469     
  -51588929.4134023     
  -51584250.1581370     
  -51579641.0703295     
  -51575101.0358272     
  -51570628.9314644     
  -51566223.6250867     
  -51561883.9755809     
  -51557608.8329132     
  -51553397.0381730     
  -51549247.4236242     
  -51545158.8127642     
  -51541130.0203897     
  -51537159.8526707     
  -51533247.1072324     
  -51529390.5732446     
  -51525589.0315194     
  -51521841.2546171     
  -51518146.0069607     
  -51514502.0449589     
  -51510908.1171367     
  -51507362.9642762     
  -51503865.3195652     
  -51500413.9087540     
  -51497007.4503231     
  -51493644.6556577     
  -51490324.2292324     
  -51487044.8688046     
  -51483805.2656169     
  -51480604.1046088     
  -51477440.0646374     
  -51543291.9357961     
  -51537486.5916273     
  -51531764.7947098     
  -51526125.6712865     
  -51520568.3394767     
  -51515091.9092870     
  -51509695.4826192     
  -51504378.1532764     
  -51499139.0069688     
  -51493977.1213173     
  -51488891.5658575     
  -51483881.4020442     
  -51478945.6832547     
  -51474083.4547950     
  -51469293.7539057     
  -51464575.6097706     
  -51459928.0435263     
  -51455350.0682752     
  -51450840.6891004     
  -51446398.9030838     
  -51442023.6993278     
  -51437714.0589802     
  -51433468.9552631     
  -51429287.3535060     
  -51425168.2111834     
  -51421110.4779565     
  -51417113.0957208     
  -51413174.9986572     
  -51409295.1132901     
  -51405472.3585500     
  -51401705.6458415     
  -51397993.8791182     
  -51394335.9549623     
  -51390730.7626713     
  -51387177.1843512     
  -51383674.0950145     
  -51380220.3626867     
  -51376814.8485182     
  -51373456.4069037     
  -51370143.8856076     
  -51366876.1258970     
  -51363651.9626820     
  -51360470.2246615     
  -51357329.7344782     
  -51354229.3088794     
  -51351167.7588852     
  -51348143.8899641     
  -51345156.5022159     
  -51342204.3905617     
  -51339286.3449409     
  -51389644.9337718     
  -51384358.5976573     
  -51379148.9927366     
  -51374015.3075267     
  -51368956.7229698     
  -51363972.4124762     
  -51359061.5419659     
  -51354223.2699063     
  -51349456.7473488     
  -51344761.1179630     
  -51340135.5180707     
  -51335579.0766778     
  -51331090.9155071     
  -51326670.1490299     
  -51322315.8844981     
  -51318027.2219771     
  -51313803.2543797     
  -51309643.0675008     
  -51305545.7400539     
  -51301510.3437089     
  -51297535.9431331     
  -51293621.5960333     
  -51289766.3532011     
  -51285969.2585615     
  -51282229.3492230     
  -51278545.6555332     
  -51274917.2011361     
  -51271343.0030340     
  -51267822.0716531     
  -51264353.4109132     
  -51260936.0183016     
  -51257568.8849515     
  -51254250.9957251     
  -51250981.3293009     
  -51247758.8582666     
  -51244582.5492162     
  -51241451.3628530     
  -51238364.2540966     
  -51235320.1721967     
  -51232318.0608509     
  -51229356.8583287     
  -51226435.4976004     
  -51223552.9064726     
  -51220708.0077277     
  -51217899.7192707     
  -51215126.9542802     
  -51212388.6213661     
  -51209683.6247323     
  -51207010.8643455     
  -51204369.2361094     
  -51237754.9131944     
  -51233007.6907299     
  -51228330.5731647     
  -51223722.8102318     
  -51219183.6447173     
  -51214712.3125253     
  -51210308.0427413     
  -51205970.0576912     
  -51201697.5729991     
  -51197489.7976420     
  -51193345.9340034     
  -51189265.1779254     
  -51185246.7187591     
  -51181289.7394153     
  -51177393.4164135     
  -51173556.9199316     
  -51169779.4138553     
  -51166060.0558278     
  -51162397.9973008     
  -51158792.3835851     
  -51155242.3539036     
  -51151747.0414452     
  -51148305.5734203     
  -51144917.0711179     
  -51141580.6499652     
  -51138295.4195893     
  -51135060.4838809     
  -51131874.9410616     
  -51128737.8837525     
  -51125648.3990474     
  -51122605.5685880     
  -51119608.4686425     
  -51116656.1701881     
  -51113747.7389963     
  -51110882.2357229     
  -51108058.7160002     
  -51105276.2305344     
  -51102533.8252065     
  -51099830.5411768     
  -51097165.4149943     
  -51094537.4787094     
  -51091945.7599915     
  -51089389.2822505     
  -51086867.0647628     
  -51084378.1228011     
  -51081921.4677695     
  -51079496.1073419     
  -51077101.0456056     
  -51074735.2832085     
  -51072397.8175116     
  -51087414.6833891     
  -51083225.1696438     
  -51079099.3090695     
  -51075036.4109824     
  -51071035.7784657     
  -51067096.7084476     
  -51063218.4917769     
  -51059400.4132947     
  -51055641.7519040     
  -51051941.7806366     
  -51048299.7667187     
  -51044714.9716336     
  -51041186.6511837     
  -51037714.0555511     
  -51034296.4293569     
  -51030933.0117204     
  -51027623.0363173     
  -51024365.7314377     
  -51021160.3200447     
  -51018006.0198322     
  -51014902.0432840     
  -51011847.5977336     
  -51008841.8854239     
  -51005884.1035691     
  -51002973.4444171     
  -51000109.0953135     
  -50997290.2387675     
  -50994516.0525189     
  -50991785.7096075     
  -50989098.3784444     
  -50986453.2228856     
  -50983849.4023077     
  -50981286.0716858     
  -50978762.3816749     
  -50976277.4786929     
  -50973830.5050068     
  -50971420.5988216     
  -50969046.8943726     
  -50966708.5220199     
  -50964404.6083465     
  -50962134.2762593     
  -50959896.6450936     
  -50957690.8307204     
  -50955515.9456565     
  -50953371.0991795     
  -50951255.3974441     
  -50949167.9436029     
  -50947107.8379301     
  -50945074.1779485     
  -50943066.0585600     
  -50938400.9476088     
  -50934786.2683344     
  -50931228.9475256     
  -50927728.3521168     
  -50924283.8436109     
  -50920894.7781627     
  -50917560.5066584     
  -50914280.3747928     
  -50911053.7231432     
  -50907879.8872413     
  -50904758.1976432     
  -50901687.9799963     
  -50898668.5551055     
  -50895699.2389981     
  -50892779.3429862     
  -50889908.1737294     
  -50887085.0332957     
  -50884309.2192225     
  -50881580.0245764     
  -50878896.7380134     
  -50876258.6438387     
  -50873665.0220672     
  -50871115.1484832     
  -50868608.2947014     
  -50866143.7282287     
  -50863720.7125259     
  -50861338.5070715     
  -50858996.3674252     
  -50856693.5452937     
  -50854429.2885976     
  -50852202.8415395     
  -50850013.4446735     
  -50847860.3349772     
  -50845742.7459244     
  -50843659.9075605     
  -50841611.0465795     
  -50839595.3864027     
  -50837612.1472606     
  -50835660.5462753     
  -50833739.7975469     
  -50831849.1122407     
  -50829987.6986776     
  -50828154.7624264     
  -50826349.5063987     
  -50824571.1309464     
  -50822818.8339608     
  -50821091.8109751     
  -50819389.2552687     
  -50817710.3579741     
  -50816054.3081860     
  -50790475.6933981     
  -50787451.5548618     
  -50784478.6172069     
  -50781556.3028924     
  -50778684.0298331     
  -50775861.2114806     
  -50773087.2569015     
  -50770361.5708526     
  -50767683.5538533     
  -50765052.6022563     
  -50762468.1083156     
  -50759929.4602524     
  -50757436.0423195     
  -50754987.2348642     
  -50752582.4143894     
  -50750220.9536136     
  -50747902.2215303     
  -50745625.5834658     
  -50743390.4011366     
  -50741196.0327065     
  -50739041.8328431     
  -50736927.1527738     
  -50734851.3403424     
  -50732813.7400647     
  -50730813.6931856     
  -50728850.5377352     
  -50726923.6085867     
  -50725032.2375136     
  -50723175.7532480     
  -50721353.4815406     
  -50719564.7452202     
  -50717808.8642547     
  -50716085.1558142     
  -50714392.9343332     
  -50712731.5115762     
  -50711100.1967029     
  -50709498.2963361     
  -50707925.1146304     
  -50706379.9533423     
  -50704862.1119018     
  -50703370.8874869     
  -50701905.5750975     
  -50700465.4676328     
  -50699049.8559698     
  -50697658.0290433     
  -50696289.2739279     
  -50694942.8759215     
  -50693618.1186311     
  -50692314.2840593     
  -50691030.6526937     
  -50643387.5868454     
  -50640968.3290571     
  -50638594.2295087     
  -50636264.7641330     
  -50633979.4052852     
  -50631737.6218175     
  -50629538.8791490     
  -50627382.6393352     
  -50625268.3611329     
  -50623195.5000642     
  -50621163.5084783     
  -50619171.8356108     
  -50617219.9276419     
  -50615307.2277522     
  -50613433.1761783     
  -50611597.2102655     
  -50609798.7645209     
  -50608037.2706647     
  -50606312.1576803     
  -50604622.8518645     
  -50602968.7768769     
  -50601349.3537882     
  -50599764.0011290     
  -50598212.1349378     
  -50596693.1688092     
  -50595206.5139419     
  -50593751.5791871     
  -50592327.7710966     
  -50590934.4939719     
  -50589571.1499130     
  -50588237.1388682     
  -50586931.8586841     
  -50585654.7051569     
  -50584405.0720829     
  -50583182.3513122     
  -50581985.9328007     
  -50580815.2046648     
  -50579669.5532366     
  -50578548.3631191     
  -50577451.0172440     
  -50576376.8969301     
  -50575325.3819417     
  -50574295.8505499     
  -50573287.6795937     
  -50572300.2445433     
  -50571332.9195635     
  -50570385.0775795     
  -50569456.0903430     
  -50568545.3284998     
  -50567652.1616592     
  -50496873.3721270     
  -50495072.0211034     
  -50493309.8763185     
  -50491586.4653095     
  -50489901.3130768     
  -50488253.9421451     
  -50486643.8726237     
  -50485070.6222626     
  -50483533.7065080     
  -50482032.6385547     
  -50480566.9293971     
  -50479136.0878784     
  -50477739.6207380     
  -50476377.0326573     
  -50475047.8263048     
  -50473751.5023787     
  -50472487.5596499     
  -50471255.4950024     
  -50470054.8034742     
  -50468884.9782961     
  -50467745.5109311     
  -50466635.8911121     
  -50465555.6068799     
  -50464504.1446201     
  -50463480.9891007     
  -50462485.6235082     
  -50461517.5294850     
  -50460576.1871653     
  -50459661.0752126     
  -50458771.6708558     
  -50457907.4499268     
  -50457067.8868973     
  -50456252.4549170     
  -50455460.6258507     
  -50454691.8703178     
  -50453945.6577305     
  -50453221.4563337     
  -50452518.7332449     
  -50451836.9544947     
  -50451175.5850687     
  -50450534.0889494     
  -50449911.9291587     
  -50449308.5678017     
  -50448723.4661112     
  -50448156.0844925     
  -50447605.8825696     
  -50447072.3192319     
  -50446554.8526815     
  -50446052.9404818     
  -50445566.0396066     
  -50350659.2774669     
  -50349487.5929442     
  -50348349.2270690     
  -50347243.7574117     
  -50346170.7601101     
  -50345129.8099159     
  -50344120.4802388     
  -50343142.3431889     
  -50342194.9696165     
  -50341277.9291512     
  -50340390.7902383     
  -50339533.1201744     
  -50338704.4851411     
  -50337904.4502374     
  -50337132.5795111     
  -50336388.4359887     
  -50335671.5817048     
  -50334981.5777295     
  -50334317.9841959     
  -50333680.3603268     
  -50333068.2644594     
  -50332481.2540712     
  -50331918.8858044     
  -50331380.7154893     
  -50330866.2981684     
  -50330375.1881200     
  -50329906.9388806     
  -50329461.1032681     
  -50329037.2334046     
  -50328634.8807392     
  -50328253.5960705     
  -50327892.9295695     
  -50327552.4308026     
  -50327231.6487544     
  -50326930.1318512     
  -50326647.4279843     
  -50326383.0845340     
  -50326136.6483937     
  -50325907.6659942     
  -50325695.6833287     
  -50325500.2459781     
  -50325320.8991366     
  -50325157.1876381     
  -50325008.6559827     
  -50324874.8483636     
  -50324755.3086956     
  -50324649.5806421     
  -50324557.2076446     
  -50324477.7329517     
  -50324410.6996485     
  -50204462.4287443     
  -50203930.9444133     
  -50203426.9276237     
  -50202950.0047963     
  -50202499.8020787     
  -50202075.9453747     
  -50201678.0603684     
  -50201305.7725503     
  -50200958.7072398     
  -50200636.4896067     
  -50200338.7446918     
  -50200065.0974250     
  -50199815.1726438     
  -50199588.5951094     
  -50199384.9895217     
  -50199203.9805344     
  -50199045.1927682     
  -50198908.2508232     
  -50198792.7792909     
  -50198698.4027655     
  -50198624.7458540     
  -50198571.4331859     
  -50198538.0894232     
  -50198524.3392687     
  -50198529.8074743     
  -50198554.1188497     
  -50198596.8982693     
  -50198657.7706807     
  -50198736.3611109     
  -50198832.2946747     
  -50198945.1965804     
  -50199074.6921379     
  -50199220.4067651     
  -50199381.9659949     
  -50199558.9954821     
  -50199751.1210110     
  -50199957.9685016     
  -50200179.1640183     
  -50200414.3337762     
  -50200663.1041493     
  -50200925.1016783     
  -50201199.9530786     
  -50201487.2852492     
  -50201786.7252806     
  -50202097.9004643     
  -50202420.4383014     
  -50202753.9665128     
  -50203098.1130483     
  -50203452.5060971     
  -50203816.7740976     
  -50057992.2723146     
  -50058110.3262351     
  -50058250.0037086     
  -50058410.9792853     
  -50058592.9284470     
  -50058795.5276150     
  -50059018.4541552     
  -50059261.3863840     
  -50059524.0035717     
  -50059805.9859449     
  -50060107.0146880     
  -50060426.7719439     
  -50060764.9408133     
  -50061121.2053534     
  -50061495.2505754     
  -50061886.7624415     
  -50062295.4278613     
  -50062720.9346868     
  -50063162.9717076     
  -50063621.2286448     
  -50064095.3961446     
  -50064585.1657715     
  -50065090.2300012     
  -50065610.2822122     
  -50066145.0166780     
  -50066694.1285585     
  -50067257.3138912     
  -50067834.2695819     
  -50068424.6933955     
  -50069028.2839467     
  -50069644.7406896     
  -50070273.7639084     
  -50070915.0547075     
  -50071568.3150011     
  -50072233.2475030     
  -50072909.5557172     
  -50073596.9439270     
  -50074295.1171853     
  -50075003.7813044     
  -50075722.6428460     
  -50076451.4091112     
  -50077189.7881304     
  -50077937.4886541     
  -50078694.2201427     
  -50079459.6927571     
  -50080233.6173491     
  -50081015.7054524     
  -50081805.6692732     
  -50082603.2216810     
  -50083408.0762000     
  -49910952.0090541     
  -49911727.7624101     
  -49912519.2719100     
  -49913326.2600281     
  -49914148.4514090     
  -49914985.5728529     
  -49915837.3533005     
  -49916703.5238165     
  -49917583.8175727     
  -49918477.9698301     
  -49919385.7179201     
  -49920306.8012253     
  -49921240.9611594     
  -49922187.9411465     
  -49923147.4866000     
  -49924119.3449005     
  -49925103.2653729     
  -49926098.9992646     
  -49927106.2997206     
  -49928124.9217609     
  -49929154.6222551     
  -49930195.1598980     
  -49931246.2951848     
  -49932307.7903849     
  -49933379.4095167     
  -49934460.9183212     
  -49935552.0842355     
  -49936652.6763666     
  -49937762.4654639     
  -49938881.2238926     
  -49940008.7256064     
  -49941144.7461199     
  -49942289.0624812     
  -49943441.4532442     
  -49944601.6984404     
  -49945769.5795518     
  -49946944.8794822     
  -49948127.3825297     
  -49949316.8743579     
  -49950513.1419687     
  -49951715.9736732     
  -49952925.1590641     
  -49954140.4889874     
  -49955361.7555139     
  -49956588.7519114     
  -49957821.2726160     
  -49959059.1132042     
  -49960302.0703648     
  -49961549.9418703     
  -49962802.5265491     
  -49763040.0421033     
  -49764480.4849181     
  -49765930.7616164     
  -49767390.6429452     
  -49768859.9030833     
  -49770338.3196047     
  -49771825.6734403     
  -49773321.7488395     
  -49774826.3333320     
  -49776339.2176877     
  -49777860.1958781     
  -49779389.0650355     
  -49780925.6254128     
  -49782469.6803427     
  -49784021.0361966     
  -49785579.5023432     
  -49787144.8911060     
  -49788717.0177221     
  -49790295.7002987     
  -49791880.7597711     
  -49793472.0198591     
  -49795069.3070240     
  -49796672.4504246     
  -49798281.2818737     
  -49799895.6357939     
  -49801515.3491731     
  -49803140.2615202     
  -49804770.2148202     
  -49806405.0534894     
  -49808044.6243301     
  -49809688.7764856     
  -49811337.3613945     
  -49812990.2327449     
  -49814647.2464293     
  -49816308.2604981     
  -49817973.1351138     
  -49819641.7325050     
  -49821313.9169197     
  -49822989.5545792     
  -49824668.5136317     
  -49826350.6641053     
  -49828035.8778617     
  -49829724.0285492     
  -49831414.9915558     
  -49833108.6439622     
  -49834804.8644947     
  -49836503.5334780     
  -49838204.5327882     
  -49839907.7458052     
  -49841613.0573651     
  -49613951.4412381     
  -49616062.3840776     
  -49618177.1516518     
  -49620295.5639057     
  -49622417.4454908     
  -49624542.6257047     
  -49626670.9384301     
  -49628802.2220746     
  -49630936.3195094     
  -49633073.0780084     
  -49635212.3491874     
  -49637353.9889432     
  -49639497.8573921     
  -49641643.8188084     
  -49643791.7415639     
  -49645941.4980653     
  -49648092.9646935     
  -49650246.0217413     
  -49652400.5533518     
  -49654556.4474561     
  -49656713.5957118     
  -49658871.8934400     
  -49661031.2395633     
  -49663191.5365434     
  -49665352.6903182     
  -49667514.6102390     
  -49669677.2090077     
  -49671840.4026135     
  -49674004.1102698     
  -49676168.2543508     
  -49678332.7603278     
  -49680497.5567058     
  -49682662.5749591     
  -49684827.7494680     
  -49686993.0174541     
  -49689158.3189160     
  -49691323.5965652     
  -49693488.7957612     
  -49695653.8644461     
  -49697818.7530810     
  -49699983.4145795     
  -49702147.8042431     
  -49704311.8796956     
  -49706475.6008173     
  -49708638.9296794     
  -49710801.8304779     
  -49712964.2694673     
  -49715126.2148944     
  -49717287.6369322     
  -49719448.5076124     
  -49463379.4271994     
  -49466165.4782745     
  -49468949.2256896     
  -49471730.5400999     
  -49474509.2981430     
  -49477285.3823552     
  -49480058.6810884     
  -49482829.0884268     
  -49485596.5041045     
  -49488360.8334228     
  -49491121.9871679     
  -49493879.8815295     
  -49496634.4380182     
  -49499385.5833844     
  -49502133.2495366     
  -49504877.3734601     
  -49507617.8971356     
  -49510354.7674580     
  -49513087.9361553     
  -49515817.3597076     
  -49518542.9992659     
  -49521264.8205707     
  -49523982.7938716     
  -49526696.8938454     
  -49529407.0995155     
  -49532113.3941704     
  -49534815.7652821     
  -49537514.2044254     
  -49540208.7071955     
  -49542899.2731270     
  -49545585.9056121     
  -49548268.6118180     
  -49550947.4026058     
  -49553622.2924474     
  -49556293.2993438     
  -49558960.4447420     
  -49561623.7534522     
  -49564283.2535654     
  -49566938.9763694     
  -49569590.9562659     
  -49572239.2306866     
  -49574883.8400096     
  -49577524.8274751     
  -49580162.2391008     
  -49582796.1235977     
  -49585426.5322852     
  -49588053.5190056     
  -49590677.1400392     
  -49593297.4540181     
  -49595914.5218410     
  -49311016.8796438     
  -49314481.4070839     
  -49317937.3508314     
  -49321384.6343448     
  -49324823.1883321     
  -49328252.9506444     
  -49331673.8661706     
  -49335085.8867331     
  -49338488.9709834     
  -49341883.0842993     
  -49345268.1986818     
  -49348644.2926527     
  -49352011.3511529     
  -49355369.3654409     
  -49358718.3329919     
  -49362058.2573966     
  -49365389.1482613     
  -49368711.0211075     
  -49372023.8972717     
  -49375327.8038061     
  -49378622.7733786     
  -49381908.8441732     
  -49385186.0597911     
  -49388454.4691509     
  -49391714.1263893     
  -49394965.0907620     
  -49398207.4265441     
  -49401441.2029308     
  -49404666.4939378     
  -49407883.3783022     
  -49411091.9393819     
  -49414292.2650566     
  -49417484.4476273     
  -49420668.5837160     
  -49423844.7741659     
  -49427013.1239400     
  -49430173.7420209     
  -49433326.7413089     
  -49436472.2385214     
  -49439610.3540907     
  -49442741.2120622     
  -49445864.9399920     
  -49448981.6688444     
  -49452091.5328889     
  -49455194.6695970     
  -49458291.2195382     
  -49461381.3262765     
  -49464465.1362659     
  -49467542.7987454     
  -49470614.4656343     
  -49156557.8726513     
  -49160702.9520777     
  -49164832.9839899     
  -49168947.9473062     
  -49173047.8294421     
  -49177132.6261821     
  -49181202.3415549     
  -49185256.9877075     
  -49189296.5847817     
  -49193321.1607908     
  -49197330.7514974     
  -49201325.4002919     
  -49205305.1580714     
  -49209270.0831197     
  -49213220.2409877     
  -49217155.7043740     
  -49221076.5530064     
  -49224982.8735238     
  -49228874.7593577     
  -49232752.3106154     
  -49236615.6339621     
  -49240464.8425038     
  -49244300.0556705     
  -49248121.3990992     
  -49251929.0045171     
  -49255723.0096253     
  -49259503.5579811     
  -49263270.7988824     
  -49267024.8872498     
  -49270765.9835102     
  -49274494.2534796     
  -49278209.8682458     
  -49281913.0040510     
  -49285603.8421736     
  -49289282.5688109     
  -49292949.3749606     
  -49296604.4563019     
  -49300248.0130771     
  -49303880.2499720     
  -49307501.3759963     
  -49311111.6043639     
  -49314711.1523720     
  -49318300.2412806     
  -49321879.0961908     
  -49325447.9459238     
  -49329007.0228976     
  -49332556.5630053     
  -49336096.8054913     
  -49339627.9928279     
  -49343150.3705909     
  -48999699.2419443     
  -49004525.5898199     
  -49009330.2109258     
  -49014113.1428271     
  -49018874.4328044     
  -49023614.1377075     
  -49028332.3238110     
  -49033029.0666696     
  -49037704.4509770     
  -49042358.5704236     
  -49046991.5275572     
  -49051603.4336428     
  -49056194.4085252     
  -49060764.5804909     
  -49065314.0861315     
  -49069843.0702073     
  -49074351.6855120     
  -49078840.0927377     
  -49083308.4603397     
  -49087756.9644032     
  -49092185.7885085     
  -49096595.1235979     
  -49100985.1678419     
  -49105356.1265061     
  -49109708.2118180     
  -49114041.6428336     
  -49118356.6453043     
  -49122653.4515437     
  -49126932.3002941     
  -49131193.4365930     
  -49135437.1116395     
  -49139663.5826601     
  -49143873.1127748     
  -49148065.9708620     
  -49152242.4314242     
  -49156402.7744524     
  -49160547.2852904     
  -49164676.2544987     
  -49168789.9777182     
  -49172888.7555325     
  -49176972.8933307     
  -49181042.7011693     
  -49185098.4936331     
  -49189140.5896962     
  -49193169.3125820     
  -49197184.9896224     
  -49201187.9521171     
  -49205178.5351915     
  -49209157.0776543     
  -49213123.9218540     
  -48840142.1881572     
  -48845649.0817452     
  -48851127.3229797     
  -48856577.0117428     
  -48861998.2588143     
  -48867391.1857087     
  -48872755.9245132     
  -48878092.6177283     
  -48883401.4181087     
  -48888682.4885066     
  -48893936.0017151     
  -48899162.1403141     
  -48904361.0965155     
  -48909533.0720108     
  -48914678.2778191     
  -48919796.9341351     
  -48924889.2701790     
  -48929955.5240458     
  -48934995.9425561     
  -48940010.7811063     
  -48945000.3035197     
  -48949964.7818982     
  -48954904.4964733     
  -48959819.7354579     
  -48964710.7948977     
  -48969577.9785231     
  -48974421.5976004     
  -48979241.9707836     
  -48984039.4239650     
  -48988814.2901269     
  -48993566.9091915     
  -48998297.6278716     
  -49003006.7995208     
  -49007694.7839825     
  -49012361.9474388     
  -49017008.6622597     
  -49021635.3068502     
  -49026242.2654984     
  -49030829.9282217     
  -49035398.6906127     
  -49039948.9536851     
  -49044481.1237182     
  -49048995.6121001     
  -49053492.8351720     
  -49057973.2140695     
  -49062437.1745646     
  -49066885.1469062     
  -49071317.5656601     
  -49075734.8695479     
  -49080137.5012849     
  -48677593.9206748     
  -48683779.1058013     
  -48689928.4367341     
  -48696042.0797658     
  -48702120.2132251     
  -48708163.0273004     
  -48714170.7238634     
  -48720143.5162968     
  -48726081.6293213     
  -48731985.2988254     
  -48737854.7716963     
  -48743690.3056514     
  -48749492.1690716     
  -48755260.6408352     
  -48760996.0101525     
  -48766698.5764015     
  -48772368.6489641     
  -48778006.5470627     
  -48783612.5995973     
  -48789187.1449834     
  -48794730.5309892     
  -48800243.1145740     
  -48805725.2617260     
  -48811177.3473005     
  -48816599.7548578     
  -48821992.8765014     
  -48827357.1127152     
  -48832692.8722013     
  -48838000.5717170     
  -48843280.6359114     
  -48848533.4971618     
  -48853759.5954094     
  -48858959.3779943     
  -48864133.2994904     
  -48869281.8215391     
  -48874405.4126825     
  -48879504.5481958     
  -48884579.7099193     
  -48889631.3860888     
  -48894660.0711656     
  -48899666.2656658     
  -48904650.4759883     
  -48909613.2142416     
  -48914554.9980705     
  -48919476.3504805     
  -48924377.7996624     
  -48929259.8788149     
  -48934123.1259669     
  -48938968.0837974     
  -48943795.2994560     
  -48511769.3467769     
  -48518628.9349649     
  -48525445.1620783     
  -48532218.2652604     
  -48538948.4947814     
  -48545636.1138508     
  -48552281.3984316     
  -48558884.6370571     
  -48565446.1306478     
  -48571966.1923311     
  -48578445.1472616     
  -48584883.3324428     
  -48591281.0965497     
  -48597638.7997522     
  -48603956.8135400     
  -48610235.5205468     
  -48616475.3143764     
  -48622676.5994284     
  -48628839.7907246     
  -48634965.3137355     
  -48641053.6042066     
  -48647105.1079857     
  -48653120.2808489     
  -48659099.5883271     
  -48665043.5055327     
  -48670952.5169848     
  -48676827.1164353     
  -48682667.8066935     
  -48688475.0994508     
  -48694249.5151046     
  -48699991.5825816     
  -48705701.8391601     
  -48711380.8302919     
  -48717029.1094230     
  -48722647.2378139     
  -48728235.7843582     
  -48733795.3254008     
  -48739326.4445550     
  -48744829.7325181     
  -48750305.7868864     
  -48755755.2119685     
  -48761178.6185980     
  -48766576.6239442     
  -48771949.8513220     
  -48777298.9300004     
  -48782624.4950100     
  -48787927.1869480     
  -48793207.6517833     
  -48798466.5406589     
  -48803704.5096934     
  -48342392.8111507     
  -48349921.1680713     
  -48357398.3244795     
  -48364824.5930661     
  -48372200.3006896     
  -48379525.7881814     
  -48386801.4101546     
  -48394027.5348134     
  -48401204.5437641     
  -48408332.8318280     
  -48415412.8068546     
  -48422444.8895364     
  -48429429.5132244     
  -48436367.1237444     
  -48443258.1792139     
  -48450103.1498590     
  -48456902.5178323     
  -48463656.7770308     
  -48470366.4329133     
  -48477032.0023188     
  -48483654.0132842     
  -48490233.0048618     
  -48496769.5269364     
  -48503264.1400422     
  -48509717.4151793     
  -48516129.9336295     
  -48522502.2867711     
  -48528835.0758936     
  -48535128.9120112     
  -48541384.4156752     
  -48547602.2167863     
  -48553782.9544046     
  -48559927.2765599     
  -48566035.8400600     
  -48572109.3102977     
  -48578148.3610573     
  -48584153.6743190     
  -48590125.9400625     
  -48596065.8560691     
  -48601974.1277219     
  -48607851.4678050     
  -48613698.5963010     
  -48619516.2401871     
  -48625305.1332291     
  -48631066.0157739     
  -48636799.6345412     
  -48642506.7424118     
  -48648188.0982155     
  -48653844.4665167     
  -48659476.6173985     
  -48169199.8913063     
  -48177389.5188784     
  -48185519.7477500     
  -48193590.9710080     
  -48201603.5968985     
  -48209558.0486311     
  -48217454.7641851     
  -48225294.1961171     
  -48233076.8113693     
  -48240803.0910796     
  -48248473.5303918     
  -48256088.6382673     
  -48263648.9372964     
  -48271154.9635110     
  -48278607.2661967     
  -48286006.4077055     
  -48293352.9632685     
  -48300647.5208084     
  -48307890.6807512     
  -48315083.0558387     
  -48322225.2709394     
  -48329317.9628596     
  -48336361.7801532     
  -48343357.3829315     
  -48350305.4426715     
  -48357206.6420234     
  -48364061.6746177     
  -48370871.2448698     
  -48377636.0677855     
  -48384356.8687632     
  -48391034.3833963     
  -48397669.3572734     
  -48404262.5457771     
  -48410814.7138823     
  -48417326.6359515     
  -48423799.0955295     
  -48430232.8851361     
  -48436628.8060573     
  -48442987.6681341     
  -48449310.2895504     
  -48455597.4966187     
  -48461850.1235631     
  -48468069.0123019     
  -48474255.0122268     
  -48480408.9799804     
  -48486531.7792327     
  -48492624.2804532     
  -48498687.3606838     
  -48504721.9033066     
  -48510728.7978114     
  -47991939.2551766     
  -48000780.6700221     
  -48009554.1043225     
  -48018260.0364416     
  -48026898.9608522     
  -48035471.3879432     
  -48043977.8438295     
  -48052418.8701607     
  -48060795.0239326     
  -48069106.8772977     
  -48077355.0173771     
  -48085540.0460719     
  -48093662.5798751     
  -48101723.2496833     
  -48109722.7006079     
  -48117661.5917862     
  -48125540.5961921     
  -48133360.4004456     
  -48141121.7046227     
  -48148825.2220629     
  -48156471.6791773     
  -48164061.8152542     
  -48171596.3822650     
  -48179076.1446682     
  -48186501.8792118     
  -48193874.3747349     
  -48201194.4319675     
  -48208462.8633289     
  -48215680.4927249     
  -48222848.1553426     
  -48229966.6974441     
  -48237036.9761581     
  -48244059.8592697     
  -48251036.2250092     
  -48257966.9618369     
  -48264852.9682282     
  -48271695.1524554     
  -48278494.4323674     
  -48285251.7351676     
  -48291967.9971899     
  -48298644.1636712     
  -48305281.1885232     
  -48311880.0341008     
  -48318441.6709682     
  -48324967.0776629     
  -48331457.2404570     
  -48337913.1531158     
  -48344335.8166543     
  -48350726.2390901     
  -48357085.4351947     
  -47810374.5882939     
  -47819856.1996108     
  -47829260.8411076     
  -47838589.0812095     
  -47847841.5053696     
  -47857018.7158848     
  -47866121.3317135     
  -47875149.9882918     
  -47884105.3373510     
  -47892988.0467339     
  -47901798.8002117     
  -47910538.2973000     
  -47919207.2530733     
  -47927806.3979804     
  -47936336.4776574     
  -47944798.2527402     
  -47953192.4986760     
  -47961520.0055331     
  -47969781.5778100     
  -47977978.0342419     
  -47986110.2076069     
  -47994178.9445300     
  -48002185.1052853     
  -48010129.5635965     
  -48018013.2064360     
  -48025836.9338213     
  -48033601.6586103     
  -48041308.3062940     
  -48048957.8147875     
  -48056551.1342187     
  -48064089.2267146     
  -48071573.0661862     
  -48079003.6381103     
  -48086381.9393094     
  -48093708.9777292     
  -48100985.7722135     
  -48108213.3522772     
  -48115392.7578759     
  -48122525.0391741     
  -48129611.2563097     
  -48136652.4791566     
  -48143649.7870841     
  -48150604.2687139     
  -48157517.0216745     
  -48164389.1523517     
  -48171221.7756374     
  -48178016.0146745     
  -48184773.0005995     
  -48191493.8722815     
  -48198179.7760578     
  -47624286.5995547     
  -47634394.5897730     
  -47644416.1905223     
  -47654352.0648386     
  -47664202.8936933     
  -47673969.3758233     
  -47683652.2275619     
  -47693252.1826662     
  -47702769.9921458     
  -47712206.4240892     
  -47721562.2634888     
  -47730838.3120651     
  -47740035.3880880     
  -47749154.3261980     
  -47758195.9772239     
  -47767161.2080000     
  -47776050.9011801     
  -47784865.9550501     
  -47793607.2833382     
  -47802275.8150229     
  -47810872.4941386     
  -47819398.2795790     
  -47827854.1448985     
  -47836241.0781099     
  -47844560.0814817     
  -47852812.1713304     
  -47860998.3778127     
  -47869119.7447138     
  -47877177.3292331     
  -47885172.2017681     
  -47893105.4456946     
  -47900978.1571456     
  -47908791.4447860     
  -47916546.4295858     
  -47924244.2445900     
  -47931886.0346859     
  -47939472.9563670     
  -47947006.1774954     
  -47954486.8770595     
  -47961916.2449302     
  -47969295.4816136     
  -47976625.7980001     
  -47983908.4151117     
  -47991144.5638443     
  -47998335.4847090     
  -48005482.4275673     
  -48012586.6513658     
  -48019649.4238658     
  -48026672.0213689     
  -48033655.7284406     
  -47433475.1168771     
  -47444193.3286846     
  -47454815.2783931     
  -47465341.7278241     
  -47475773.4576589     
  -47486111.2672881     
  -47496355.9746591     
  -47506508.4161210     
  -47516569.4462668     
  -47526539.9377741     
  -47536420.7812416     
  -47546212.8850236     
  -47555917.1750617     
  -47565534.5947134     
  -47575066.1045771     
  -47584512.6823148     
  -47593875.3224715     
  -47603155.0362912     
  -47612352.8515300     
  -47621469.8122658     
  -47630506.9787052     
  -47639465.4269870     
  -47648346.2489825     
  -47657150.5520927     
  -47665879.4590426     
  -47674534.1076721     
  -47683115.6507236     
  -47691625.2556271     
  -47700064.1042822     
  -47708433.3928358     
  -47716734.3314584     
  -47724968.1441166     
  -47733136.0683420     
  -47741239.3549979     
  -47749279.2680429     
  -47757257.0842904     
  -47765174.0931665     
  -47773031.5964632     
  -47780830.9080898     
  -47788573.3538201     
  -47796260.2710370     
  -47803893.0084732     
  -47811472.9259494     
  -47819001.3941078     
  -47826479.7941438     
  -47833909.5175317     
  -47841291.9657496     
  -47848628.5499983     
  -47855920.6909170     
  -47863169.8182954     
  -47237761.2872371     
  -47249071.1206371     
  -47260274.3433262     
  -47271371.8195780     
  -47282364.4335065     
  -47293253.0889388     
  -47304038.7092834     
  -47314722.2373955     
  -47325304.6354365     
  -47335786.8847301     
  -47346169.9856137     
  -47356454.9572844     
  -47366642.8376418     
  -47376734.6831258     
  -47386731.5685496     
  -47396634.5869285     
  -47406444.8493043     
  -47416163.4845654     
  -47425791.6392624     
  -47435330.4774196     
  -47444781.1803425     
  -47454144.9464207     
  -47463422.9909277     
  -47472616.5458155     
  -47481726.8595067     
  -47490755.1966818     
  -47499702.8380637     
  -47508571.0801979     
  -47517361.2352288     
  -47526074.6306743     
  -47534712.6091950     
  -47543276.5283609     
  -47551767.7604152     
  -47560187.6920338     
  -47568537.7240828     
  -47576819.2713714     
  -47585033.7624028     
  -47593182.6391209     
  -47601267.3566548     
  -47609289.3830588     
  -47617250.1990502     
  -47625151.2977431     
  -47632994.1843789     
  -47640780.3760533     
  -47648511.4014405     
  -47656188.8005118     
  -47663814.1242527     
  -47671388.9343745     
  -47678914.8030222     
  -47686393.3124789     
  -47036989.8998432     
  -47048870.2227715     
  -47060633.0859757     
  -47072279.4592262     
  -47083810.3332222     
  -47095226.7194915     
  -47106529.6502824     
  -47117720.1784497     
  -47128799.3773336     
  -47139768.3406319     
  -47150628.1822651     
  -47161380.0362357     
  -47172025.0564801     
  -47182564.4167152     
  -47192999.3102773     
  -47203330.9499567     
  -47213560.5678247     
  -47223689.4150555     
  -47233718.7617428     
  -47243649.8967108     
  -47253484.1273191     
  -47263222.7792642     
  -47272867.1963743     
  -47282418.7404013     
  -47291878.7908061     
  -47301248.7445420     
  -47310530.0158317     
  -47319724.0359421     
  -47328832.2529538     
  -47337856.1315278     
  -47346797.1526688     
  -47355656.8134841     
  -47364436.6269402     
  -47373138.1216153     
  -47381762.8414494     
  -47390312.3454907     
  -47398788.2076393     
  -47407192.0163880     
  -47415525.3745596     
  -47423789.8990417     
  -47431987.2205180     
  -47440118.9831973     
  -47448186.8445383     
  -47456192.4749720     
  -47464137.5576207     
  -47472023.7880131     
  -47479852.8737961     
  -47487626.5344433     
  -47495346.5009583     
  -47503014.5155758     
  -46831031.8568691     
  -46843458.9324421     
  -46855757.1716542     
  -46867927.6521162     
  -46879971.4736347     
  -46891889.7581383     
  -46903683.6495935     
  -46915354.3139101     
  -46926902.9388377     
  -46938330.7338517     
  -46949638.9300306     
  -46960828.7799235     
  -46971901.5574092     
  -46982858.5575465     
  -46993701.0964160     
  -47004430.5109544     
  -47015048.1587802     
  -47025555.4180129     
  -47035953.6870848     
  -47046244.3845463     
  -47056428.9488644     
  -47066508.8382154     
  -47076485.5302723     
  -47086360.5219861     
  -47096135.3293628     
  -47105811.4872351     
  -47115390.5490299     
  -47124874.0865319     
  -47134263.6896420     
  -47143560.9661346     
  -47152767.5414091     
  -47161885.0582395     
  -47170915.1765205     
  -47179859.5730109     
  -47188719.9410750     
  -47197497.9904203     
  -47206195.4468341     
  -47214814.0519164     
  -47223355.5628116     
  -47231821.7519379     
  -47240214.4067134     
  -47248535.3292815     
  -47256786.3362323     
  -47264969.2583227     
  -47273085.9401940     
  -47281138.2400858     
  -47289128.0295479     
  -47297057.1931493     
  -47304927.6281828     
  -47312741.2443678     
  -46619786.8234630     
  -46632734.2560280     
  -46645540.9161219     
  -46658207.9908240     
  -46670736.6909435     
  -46683128.2509682     
  -46695383.9289994     
  -46707505.0066732     
  -46719492.7890678     
  -46731348.6045978     
  -46743073.8048958     
  -46754669.7646818     
  -46766137.8816207     
  -46777479.5761688     
  -46788696.2914094     
  -46799789.4928783     
  -46810760.6683798     
  -46821611.3277934     
  -46832343.0028716     
  -46842957.2470310     
  -46853455.6351349     
  -46863839.7632687     
  -46874111.2485103     
  -46884271.7286932     
  -46894322.8621657     
  -46904266.3275441     
  -46914103.8234614     
  -46923837.0683142     
  -46933467.8000029     
  -46942997.7756716     
  -46952428.7714440     
  -46961762.5821568     
  -46971001.0210919     
  -46980145.9197059     
  -46989199.1273590     
  -46998162.5110420     
  -47007037.9551024     
  -47015827.3609698     
  -47024532.6468796     
  -47033155.7475974     
  -47041698.6141411     
  -47050163.2135032     
  -47058551.5283720     
  -47066865.5568519     
  -47075107.3121829     
  -47083278.8224583     
  -47091382.1303419     
  -47099419.2927824     
  -47107392.3807272     
  -47115303.4788330     
  -46403186.0980187     
  -46416624.7986399     
  -46429910.1923852     
  -46443043.5767955     
  -46456026.2750529     
  -46468859.6359437     
  -46481545.0338032     
  -46494083.8684409     
  -46506477.5650475     
  -46518727.5740860     
  -46530835.3711640     
  -46542802.4568915     
  -46554630.3567237     
  -46566320.6207895     
  -46577874.8237061     
  -46589294.5643817     
  -46600581.4658064     
  -46611737.1748321     
  -46622763.3619421     
  -46633661.7210131     
  -46644433.9690666     
  -46655081.8460144     
  -46665607.1143976     
  -46676011.5591178     
  -46686296.9871658     
  -46696465.2273438     
  -46706518.1299840     
  -46716457.5666662     
  -46726285.4299300     
  -46736003.6329876     
  -46745614.1094345     
  -46755118.8129585     
  -46764519.7170502     
  -46773818.8147121     
  -46783018.1181697     
  -46792119.6585822     
  -46801125.4857545     
  -46810037.6678519     
  -46818858.2911153     
  -46827589.4595778     
  -46836233.2947839     
  -46844791.9355103     
  -46853267.5374886     
  -46861662.2731289     
  -46869978.3312461     
  -46878217.9167868     
  -46886383.2505578     
  -46894476.5689543     
  -46902500.1236897     
  -46910456.1815257     
  -46181195.7551734     
  -46195093.9248010     
  -46208825.6061032     
  -46222392.2076595     
  -46235795.1661175     
  -46249035.9461538     
  -46262116.0404095     
  -46275036.9694016     
  -46287800.2814106     
  -46300407.5523463     
  -46312860.3855910     
  -46325160.4118252     
  -46337309.2888326     
  -46349308.7012884     
  -46361160.3605318     
  -46372866.0043224     
  -46384427.3965844     
  -46395846.3271373     
  -46407124.6114153     
  -46418264.0901774     
  -46429266.6292085     
  -46440134.1190123     
  -46450868.4744982     
  -46461471.6346627     
  -46471945.5622671     
  -46482292.2435102     
  -46492513.6877009     
  -46502611.9269279     
  -46512589.0157302     
  -46522447.0307666     
  -46532188.0704880     
  -46541814.2548106     
  -46551327.7247923     
  -46560730.6423120     
  -46570025.1897532     
  -46579213.5696919     
  -46588298.0045885     
  -46597280.7364859     
  -46606164.0267125     
  -46614950.1555908     
  -46623641.4221513     
  -46632240.1438536     
  -46640748.6563117     
  -46649169.3130262     
  -46657504.4851213     
  -46665756.5610876     
  -46673927.9465302     
  -46682021.0639202     
  -46690038.3523518     
  -46697982.2673026     
  -45953820.1279285     
  -45968143.2529624     
  -45982285.9988323     
  -45996249.8857393     
  -46010036.4650602     
  -46023647.3192796     
  -46037084.0618884     
  -46050348.3372505     
  -46063441.8204407     
  -46076366.2170543     
  -46089123.2629903     
  -46101714.7242111     
  -46114142.3964779     
  -46126408.1050674     
  -46138513.7044672     
  -46150461.0780558     
  -46162252.1377659     
  -46173888.8237344     
  -46185373.1039401     
  -46196706.9738313     
  -46207892.4559446     
  -46218931.5995167     
  -46229826.4800906     
  -46240579.1991181     
  -46251191.8835595     
  -46261666.6854828     
  -46272005.7816632     
  -46282211.3731835     
  -46292285.6850388     
  -46302230.9657442     
  -46312049.4869483     
  -46321743.5430523     
  -46331315.4508376     
  -46340767.5491000     
  -46350102.1982934     
  -46359321.7801833     
  -46368428.6975098     
  -46377425.3736618     
  -46386314.2523619     
  -46395097.7973629     
  -46403778.4921558     
  -46412358.8396896     
  -46420841.3621030     
  -46429228.6004673     
  -46437523.1145417     
  -46445727.4825390     
  -46453844.3009030     
  -46461876.1840957     
  -46469825.7643945     
  -46477695.6916993     
  -45721105.7117810     
  -45735816.5616992     
  -45750332.3518354     
  -45764654.7152941     
  -45778785.3203436     
  -45792725.8702756     
  -45806478.1032229     
  -45820043.7919388     
  -45833424.7435393     
  -45846622.7992116     
  -45859639.8338908     
  -45872477.7559070     
  -45885138.5066066     
  -45897624.0599482     
  -45909936.4220778     
  -45922077.6308843     
  -45934049.7555379     
  -45945854.8960142     
  -45957495.1826063     
  -45968972.7754270     
  -45980289.8639031     
  -45991448.6662652     
  -46002451.4290333     
  -46013300.4265019     
  -46023997.9602259     
  -46034546.3585091     
  -46044947.9758977     
  -46055205.1926794     
  -46065320.4143922     
  -46075296.0713411     
  -46085134.6181270     
  -46094838.5331879     
  -46104410.3183539     
  -46113852.4984173     
  -46123167.6207184     
  -46132358.2547490     
  -46141426.9917727     
  -46150376.4444649     
  -46159209.2465711     
  -46167928.0525851     
  -46176535.5374472     
  -46185034.3962627     
  -46193427.3440402     
  -46201717.1154506     
  -46209906.4646062     
  -46217998.1648593     
  -46225995.0086202     
  -46233899.8071944     
  -46241715.3906374     
  -46249444.6076272     
  -45483145.5926893     
  -45498204.2024296     
  -45513052.1782410     
  -45527691.2691825     
  -45542123.2645724     
  -45556349.9937145     
  -45570373.3255739     
  -45584195.1684045     
  -45597817.4693326     
  -45611242.2139000     
  -45624471.4255695     
  -45637507.1651964     
  -45650351.5304696     
  -45663006.6553253     
  -45675474.7093368     
  -45687757.8970841     
  -45699858.4575053     
  -45711778.6632350     
  -45723520.8199304     
  -45735087.2655905     
  -45746480.3698701     
  -45757702.5333910     
  -45768756.1870551     
  -45779643.7913605     
  -45790367.8357233     
  -45800930.8378091     
  -45811335.3428749     
  -45821583.9231246     
  -45831679.1770800     
  -45841623.7289702     
  -45851420.2281397     
  -45861071.3484785     
  -45870579.7878759     
  -45879948.2676975     
  -45889179.5322902     
  -45898276.3485132     
  -45907241.5052983     
  -45916077.8132393     
  -45924788.1042120     
  -45933375.2310250     
  -45941842.0671019     
  -45950191.5061956     
  -45958426.4621348     
  -45966549.8686018     
  -45974564.6789427     
  -45982473.8660098     
  -45990280.4220340     
  -45997987.3585284     
  -46005597.7062217     
  -46013114.5150199     
  -45240084.5216583     
  -45255448.1319844     
  -45270584.5074095     
  -45285495.5193241     
  -45300183.0858398     
  -45314649.1712968     
  -45328895.7857091     
  -45342924.9841549     
  -45356738.8661122     
  -45370339.5747506     
  -45383729.2961765     
  -45396910.2586430     
  -45409884.7317241     
  -45422655.0254610     
  -45435223.4894814     
  -45447592.5121012     
  -45459764.5194060     
  -45471741.9743237     
  -45483527.3756874     
  -45495123.2572941     
  -45506532.1869635     
  -45517756.7656004     
  -45528799.6262640     
  -45539663.4332475     
  -45550350.8811729     
  -45560864.6941019     
  -45571207.6246679     
  -45581382.4532319     
  -45591391.9870633     
  -45601239.0595508     
  -45610926.5294449     
  -45620457.2801332     
  -45629834.2189524     
  -45639060.2765383     
  -45648138.4062156     
  -45657071.5834291     
  -45665862.8052178     
  -45674515.0897335     
  -45683031.4758053     
  -45691415.0225488     
  -45699668.8090244     
  -45707795.9339413     
  -45715799.5154109     
  -45723682.6907472     
  -45731448.6163150     
  -45739100.4674274     
  -45746641.4382875     
  -45754074.7419801     
  -45761403.6105055     
  -45768631.2948606     
  -44992124.7807500     
  -45007747.6973091     
  -45023125.5812991     
  -45038260.4383402     
  -45053154.3288842     
  -45067809.3673837     
  -45082227.7213917     
  -45096411.6105931     
  -45110363.3057792     
  -45124085.1277668     
  -45137579.4462708     
  -45150848.6787352     
  -45163895.2891283     
  -45176721.7867073     
  -45189330.7247595     
  -45201724.6993249     
  -45213906.3479043     
  -45225878.3481610     
  -45237643.4166186     
  -45249204.3073618     
  -45260563.8107442     
  -45271724.7521082     
  -45282689.9905217     
  -45293462.4175359     
  -45304044.9559683     
  -45314440.5587151     
  -45324652.2075985     
  -45334682.9122488     
  -45344535.7090297     
  -45354213.6600059     
  -45363719.8519599     
  -45373057.3954574     
  -45382229.4239666     
  -45391239.0930339     
  -45400089.5795169     
  -45408784.0808765     
  -45417325.8145340     
  -45425718.0172889     
  -45433963.9448039     
  -45442066.8711557     
  -45450030.0884533     
  -45457856.9065253     
  -45465550.6526742     
  -45473114.6715016     
  -45480552.3248017     
  -45487866.9915238     
  -45495062.0678023     
  -45502140.9670565     
  -45509107.1201546     
  -45515963.9756448     
  -44739533.0067360     
  -44755366.3222279     
  -44770935.3966305     
  -44786242.3902197     
  -44801289.5281527     
  -44816079.0991427     
  -44830613.4540548     
  -44844895.0044268     
  -44858926.2209243     
  -44872709.6317381     
  -44886247.8209311     
  -44899543.4267422     
  -44912599.1398562     
  -44925417.7016428     
  -44938001.9023787     
  -44950354.5794521     
  -44962478.6155631     
  -44974376.9369225     
  -44986052.5114565     
  -44997508.3470246     
  -45008747.4896564     
  -45019773.0218123     
  -45030588.0606745     
  -45041195.7564748     
  -45051599.2908626     
  -45061801.8753189     
  -45071806.7496236     
  -45081617.1803747     
  -45091236.4595719     
  -45100667.9032617     
  -45109914.8502518     
  -45118980.6608975     
  -45127868.7159637     
  -45136582.4155650     
  -45145125.1781885     
  -45153500.4397996     
  -45161711.6530361     
  -45169762.2864898     
  -45177655.8240796     
  -45185395.7645177     
  -45192985.6208690     
  -45200428.9202056     
  -45207729.2033564     
  -45214890.0247541     
  -45221914.9523788     
  -45228807.5677959     
  -45235571.4662924     
  -45242210.2571076     
  -45248727.5637575     
  -45255127.0244534     
  -44482648.1566196     
  -44498639.2597247     
  -44514345.2358564     
  -44529768.4329146     
  -44544911.2759488     
  -44559776.2651351     
  -44574365.9736654     
  -44588683.0455560     
  -44602730.1933868     
  -44616510.1959810     
  -44630025.8960344     
  -44643280.1977047     
  -44656276.0641691     
  -44669016.5151599     
  -44681504.6244864     
  -44693743.5175532     
  -44705736.3688811     
  -44717486.3996406     
  -44728996.8752052     
  -44740271.1027321     
  -44751312.4287785     
  -44762124.2369592     
  -44772709.9456546     
  -44783073.0057738     
  -44793216.8985803     
  -44803145.1335863     
  -44812861.2465211     
  -44822368.7973795     
  -44831671.3685564     
  -44840772.5630707     
  -44849676.0028849     
  -44858385.3273251     
  -44866904.1916037     
  -44875236.2654512     
  -44883385.2318587     
  -44891354.7859366     
  -44899148.6338893     
  -44906770.4921129     
  -44914224.0864142     
  -44921513.1513567     
  -44928641.4297322     
  -44935612.6721626     
  -44942430.6368303     
  -44949099.0893396     
  -44955621.8027107     
  -44962002.5575026     
  -44968245.1420693     
  -44974353.3529454     
  -44980330.9953625     
  -44986181.8838933     
  -44221890.8096135     
  -44237982.5783619     
  -44253766.3301462     
  -44269244.6512474     
  -44284420.2198183     
  -44299295.8029007     
  -44313874.2533509     
  -44328158.5066817     
  -44342151.5778382     
  -44355856.5579139     
  -44369276.6108253     
  -44382414.9699507     
  -44395274.9347490     
  -44407859.8673674     
  -44420173.1892479     
  -44432218.3777467     
  -44443998.9627717     
  -44455518.5234519     
  -44466780.6848457     
  -44477789.1146990     
  -44488547.5202608     
  -44499059.6451649     
  -44509329.2663870     
  -44519360.1912836     
  -44529156.2547213     
  -44538721.3163040     
  -44548059.2577036     
  -44557173.9801022     
  -44566069.4017519     
  -44574749.4556575     
  -44583218.0873888     
  -44591479.2530264     
  -44599536.9172486     
  -44607395.0515612     
  -44615057.6326766     
  -44622528.6410459     
  -44629812.0595470     
  -44636911.8723332     
  -44643832.0638454     
  -44650576.6179888     
  -44657149.5174797     
  -44663554.7433610     
  -44669796.2746912     
  -44675878.0884059     
  -44681804.1593542     
  -44687578.4605103     
  -44693204.9633588     
  -44698687.6384571     
  -44704030.4561710     
  -44709237.3875829     
  -43957773.9966421     
  -43973903.5421120     
  -43989699.7827679     
  -44005165.6185349     
  -44020304.0585207     
  -44035118.2167474     
  -44049611.3077913     
  -44063786.6423469     
  -44077647.6227302     
  -44091197.7383359     
  -44104440.5610624     
  -44117379.7407195     
  -44130019.0004313     
  -44142362.1320481     
  -44154412.9915788     
  -44166175.4946582     
  -44177653.6120585     
  -44188851.3652579     
  -44199772.8220772     
  -44210422.0923948     
  -44220803.3239502     
  -44230920.6982457     
  -44240778.4265569     
  -44250380.7460590     
  -44259731.9160801     
  -44268836.2144880     
  -44277697.9342186     
  -44286321.3799550     
  -44294710.8649634     
  -44302870.7080924     
  -44310805.2309436     
  -44318518.7552186     
  -44326015.6002496     
  -44333300.0807173     
  -44340376.5045634     
  -44347249.1711013     
  -44353922.3693302     
  -44360400.3764563     
  -44366687.4566256     
  -44372787.8598717     
  -44378705.8212808     
  -44384445.5603788     
  -44390011.2807401     
  -44395407.1698233     
  -44400637.3990324     
  -44405706.1240067     
  -44410617.4851401     
  -44415375.6083289     
  -44419984.6059491     
  -44424448.5780628     
  -43690915.7221325     
  -43707012.5103812     
  -43722747.8430278     
  -43738125.0418226     
  -43753147.5575624     
  -43767818.9641346     
  -43782142.9524838     
  -43796123.3245179     
  -43809763.9869723     
  -43823068.9452492     
  -43836042.2972498     
  -43848688.2272137     
  -43861010.9995828     
  -43873014.9529039     
  -43884704.4937842     
  -43896084.0909144     
  -43907158.2691722     
  -43917931.6038196     
  -43928408.7148050     
  -43938594.2611841     
  -43948492.9356691     
  -43958109.4593185     
  -43967448.5763767     
  -43976515.0492750     
  -43985313.6538019     
  -43993849.1744542     
  -44002126.3999749     
  -44010150.1190894     
  -44017925.1164462     
  -44025456.1687701     
  -44032748.0412359     
  -44039805.4840699     
  -44046633.2293847     
  -44053235.9882550     
  -44059618.4480403     
  -44065785.2699593     
  -44071741.0869229     
  -44077490.5016301     
  -44083038.0849310     
  -44088388.3744636     
  -44093545.8735649     
  -44098515.0504644     
  -44103300.3377595     
  -44107906.1321779     
  -44112336.7946298     
  -44116596.6505505     
  -44120689.9905373     
  -44124621.0712794     
  -44128394.1167849     
  -44132013.3199027     
  -43422053.2815945     
  -43438036.4176404     
  -43453626.5480700     
  -43468827.5678644     
  -43483643.5231515     
  -43498078.6030867     
  -43512137.1316844     
  -43525823.5596206     
  -43539142.4560288     
  -43552098.5003082     
  -43564696.4739619     
  -43576941.2524862     
  -43588837.7973251     
  -43600391.1479086     
  -43611606.4137909     
  -43622488.7669011     
  -43633043.4339249     
  -43643275.6888282     
  -43653190.8455355     
  -43662794.2507794     
  -43672091.2771289     
  -43681087.3162113     
  -43689787.7721375     
  -43698198.0551411     
  -43706323.5754427     
  -43714169.7373478     
  -43721741.9335887     
  -43729045.5399192     
  -43736085.9099706     
  -43742868.3703770     
  -43749398.2161789     
  -43755680.7065128     
  -43761721.0605921     
  -43767524.4539896     
  -43773096.0152271     
  -43778440.8226771     
  -43783563.9017863     
  -43788470.2226242     
  -43793164.6977640     
  -43797652.1805009     
  -43801937.4634136     
  -43806025.2772730     
  -43809920.2903037     
  -43813627.1078031     
  -43817150.2721199     
  -43820494.2629988     
  -43823663.4982920     
  -43826662.3350417     
  -43829495.0709365     
  -43832165.9461413     
  -43152059.3660399     
  -43167833.7743951     
  -43183179.6277138     
  -43198101.6011422     
  -43212604.5445784     
  -43226693.4718362     
  -43240373.5498131     
  -43253650.0876830     
  -43266528.5261372     
  -43279014.4266977     
  -43291113.4611192     
  -43302831.4009037     
  -43314174.1069411     
  -43325147.5192991     
  -43335757.6471730     
  -43346010.5590161     
  -43355912.3728625     
  -43365469.2468569     
  -43374687.3700063     
  -43383572.9531643     
  -43392132.2202609     
  -43400371.3997910     
  -43408296.7165686     
  -43415914.3837617     
  -43423230.5952148     
  -43430251.5180698     
  -43436983.2856951     
  -43443431.9909308     
  -43449603.6796595     
  -43455504.3447107     
  -43461139.9201072     
  -43466516.2756619     
  -43471639.2119314     
  -43476514.4555358     
  -43481147.6548518     
  -43485544.3760845     
  -43489710.0997288     
  -43493650.2174238     
  -43497370.0292100     
  -43500874.7411942     
  -43504169.4636308     
  -43507259.2094225     
  -43510148.8930531     
  -43512843.3299512     
  -43515347.2362965     
  -43517665.2292715     
  -43519801.8277652     
  -43521761.4535342     
  -43523548.4328250     
  -43525166.9984627     
  -42881959.7598645     
  -42897410.9436513     
  -42912393.3777342     
  -42926912.7941532     
  -42940975.1234753     
  -42954586.4806275     
  -42967753.1508152     
  -42980481.5755517     
  -42992778.3388204     
  -43004650.1533960     
  -43016103.8473406     
  -43027146.3507003     
  -43037784.6824121     
  -43048025.9374488     
  -43057877.2742085     
  -43067345.9021678     
  -43076439.0698134     
  -43085164.0528623     
  -43093528.1427855     
  -43101538.6356447     
  -43109202.8212532     
  -43116527.9726732     
  -43123521.3360554     
  -43130190.1208332     
  -43136541.4902797     
  -43142582.5524344     
  -43148320.3514095     
  -43153761.8590836     
  -43158913.9671890     
  -43163783.4798027     
  -43168377.1062467     
  -43172701.4544064     
  -43176763.0244735     
  -43180568.2031237     
  -43184123.2581322     
  -43187434.3334407     
  -43190507.4446786     
  -43193348.4751501     
  -43195963.1722935     
  -43198357.1446207     
  -43200535.8591484     
  -43202504.6393243     
  -43204268.6634636     
  -43205832.9636977     
  -43207202.4254489     
  -43208381.7874382     
  -43209375.6422338     
  -43210188.4373505     
  -43210824.4769092     
  -43211287.9238596     
  -42612952.1570399     
  -42627939.1659201     
  -42642411.9276477     
  -42656377.5936198     
  -42669843.5355419     
  -42682817.3272830     
  -42695306.7269279     
  -42707319.6590730     
  -42718864.1973760     
  -42729948.5473850     
  -42740581.0296668     
  -42750770.0632507     
  -42760524.1494043     
  -42769851.8557580     
  -42778761.8007866     
  -42787262.6386661     
  -42795363.0445127     
  -42803071.7000151     
  -42810397.2794694     
  -42817348.4362254     
  -42823933.7895504     
  -42830161.9119185     
  -42836041.3167324     
  -42841580.4464829     
  -42846787.6613518     
  -42851671.2282648     
  -42856239.3103994     
  -42860499.9571526     
  -42864461.0945750     
  -42868130.5162759     
  -42871515.8748066     
  -42874624.6735259     
  -42877464.2589563     
  -42880041.8136363     
  -42882364.3494769     
  -42884438.7016286     
  -42886271.5228697     
  -42887869.2785215     
  -42889238.2419020     
  -42890384.4903266     
  -42891313.9016677     
  -42892032.1514818     
  -42892544.7107192     
  -42892856.8440240     
  -42892973.6086408     
  -42892899.8539383     
  -42892640.2215640     
  -42892199.1462483     
  -42891580.8572555     
  -42890789.3805257     
  -42346425.2123879     
  -42360771.4045351     
  -42374551.9357463     
  -42387775.8419342     
  -42400452.3958824     
  -42412591.0844268     
  -42424201.5860850     
  -42435293.7490552     
  -42445877.5696580     
  -42455963.1712252     
  -42465560.7834476     
  -42474680.7221963     
  -42483333.3698303     
  -42491529.1560006     
  -42499278.5389565     
  -42506591.9873621     
  -42513479.9626279     
  -42519952.9017634     
  -42526021.2007513     
  -42531695.1984485     
  -42536985.1610141     
  -42541901.2668648     
  -42546453.5921627     
  -42550652.0968292     
  -42554506.6110927     
  -42558026.8225644     
  -42561222.2638467     
  -42564102.3006721     
  -42566676.1205758     
  -42568952.7221011     
  -42570940.9045423     
  -42572649.2582250     
  -42574086.1553298     
  -42575259.7412611     
  -42576177.9265705     
  -42576848.3794353     
  -42577278.5187054     
  -42577475.5075233     
  -42577446.2475299     
  -42577197.3736639     
  -42576735.2495719     
  -42576065.9636382     
  -42575195.3256529     
  -42574128.8641315     
  -42572871.8243061     
  -42571429.1668081     
  -42569805.5670583     
  -42568005.4153710     
  -42566032.8178580     
  -42563891.5980267     
  -42083976.3810336     
  -42097457.5351323     
  -42110315.2128284     
  -42122560.9193973     
  -42134206.4035685     
  -42145263.6296537     
  -42155744.7500874     
  -42165662.0787511     
  -42175028.0649062     
  -42183855.2677884     
  -42192156.3318845     
  -42199943.9628902     
  -42207230.9043450     
  -42214029.9149529     
  -42220353.7465849     
  -42226215.1229613     
  -42231626.7190122     
  -42236601.1409091     
  -42241150.9067643     
  -42245288.4279879     
  -42249025.9912984     
  -42252375.7413767     
  -42255349.6641549     
  -42257959.5707337     
  -42260217.0819160     
  -42262133.6133517     
  -42263720.3612824     
  -42264988.2888812     
  -42265948.1131777     
  -42266610.2925650     
  -42266985.0148805     
  -42267082.1860604     
  -42266911.4193618     
  -42266482.0251537     
  -42265803.0012794     
  -42264883.0239888     
  -42263730.4394494     
  -42262353.2558421     
  -42260759.1360505     
  -42258955.3909545     
  -42256948.9733449     
  -42254746.4724732     
  -42252354.1092569     
  -42249777.7321623     
  -42247022.8137848     
  -42244094.4481516     
  -42240997.3487829     
  -42237735.8475861     
  -42234313.8944033     
  -42230735.0576991     
  -41827426.3573748     
  -41839755.6884717     
  -41851397.0891218     
  -41862365.2534609     
  -41872675.1098972     
  -41882341.7870176     
  -41891380.5812550     
  -41899806.9250203     
  -41907636.3559119     
  -41914884.4869038     
  -41921566.9774532     
  -41927699.5055391     
  -41933297.7406301     
  -41938377.3175725     
  -41942953.8113843     
  -41947042.7129371     
  -41950659.4055123     
  -41953819.1422122     
  -41956537.0242089     
  -41958827.9798084     
  -41960706.7443122     
  -41962187.8406493     
  -41963285.5607618     
  -41964013.9477156     
  -41964386.7785185     
  -41964417.5476174     
  -41964119.4510587     
  -41963505.3712836     
  -41962587.8625439     
  -41961379.1369147     
  -41959891.0508890     
  -41958135.0925373     
  -41956122.3692205     
  -41953863.5958432     
  -41951369.0836417     
  -41948648.7295004     
  -41945712.0057953     
  -41942567.9507683     
  -41939225.1594357     
  -41935691.7750446     
  -41931975.4810886     
  -41928083.4939009     
  -41924022.5558460     
  -41919798.9291388     
  -41915418.3903319     
  -41910886.2255154     
  -41906207.2262103     
  -41901385.6859298     
  -41896425.3981178     
  -41891329.6538972     
  -41578827.0023279     
  -41589636.6733101     
  -41599687.4941482     
  -41608998.2148002     
  -41617587.7845219     
  -41625475.3142757     
  -41632680.0373885     
  -41639221.2731793     
  -41645118.3915623     
  -41650390.7787971     
  -41655057.8045635     
  -41659138.7903264     
  -41662652.9789346     
  -41665619.5054170     
  -41668057.3689560     
  -41669985.4060115     
  -41671422.2645654     
  -41672386.3794516     
  -41672895.9487319     
  -41672968.9110814     
  -41672622.9241408     
  -41671875.3437948     
  -41670743.2043327     
  -41669243.1994485     
  -41667391.6640319     
  -41665204.5567098     
  -41662697.4430893     
  -41659885.4796602     
  -41656783.3983126     
  -41653405.4914286     
  -41649765.5975092     
  -41645877.0872993     
  -41641752.8503779     
  -41637405.2821839     
  -41632846.2714540     
  -41628087.1880498     
  -41623138.8711629     
  -41618011.6178850     
  -41612715.1721427     
  -41607258.7139979     
  -41601650.8493281     
  -41595899.5999064     
  -41590012.3939108     
  -41583996.0568817     
  -41577856.8031382     
  -41571600.2277108     
  -41565231.2990378     
  -41558754.3525654     
  -41552173.0832696     
  -41545490.5429097     
  -41340458.5877174     
  -41349277.3907840     
  -41357260.7501591     
  -41364432.4876355     
  -41370816.5614295     
  -41376437.0139950     
  -41381317.9330247     
  -41385483.4087649     
  -41388957.4937356     
  -41391764.1647460     
  -41393927.2865361     
  -41395470.5769396     
  -41396417.5736347     
  -41396791.6024921     
  -41396615.7474831     
  -41395912.8220832     
  -41394705.3421193     
  -41393015.4999985     
  -41390865.1402694     
  -41388275.7364504     
  -41385268.3690607     
  -41381863.7047849     
  -41378081.9766941     
  -41373942.9654480     
  -41369465.9813962     
  -41364669.8475007     
  -41359572.8829925     
  -41354192.8876850     
  -41348547.1268584     
  -41342652.3166376     
  -41336524.6097855     
  -41330179.5818365     
  -41323632.2175033     
  -41316896.8972904     
  -41309987.3842599     
  -41302916.8108974     
  -41295697.6660411     
  -41288341.7818402     
  -41280860.3207250     
  -41273263.7623728     
  -41265561.8906635     
  -41257763.7806258     
  -41249877.7854071     
  -41241911.5233503     
  -41233871.8652938     
  -41225764.9220295     
  -41217596.0314075     
  -41209369.7454512     
  -41201089.8236283     
  -41192759.2124634     
  -41114811.1070443     
  -41121038.1161860     
  -41126349.0595912     
  -41130774.0163465     
  -41134343.0696773     
  -41137086.2831143     
  -41139033.6372225     
  -41140214.9858786     
  -41140660.0141455     
  -41140398.1963123     
  -41139458.7559123     
  -41137870.6282537     
  -41135662.4252699     
  -41132862.4024542     
  -41129498.4277827     
  -41125597.9525884     
  -41121187.9843593     
  -41116295.0613988     
  -41110945.2292689     
  -41105164.0189188     
  -41098976.4263896     
  -41092406.8939828     
  -41085479.2927687     
  -41078216.9063073     
  -41070642.4154468     
  -41062777.8840543     
  -41054644.7455378     
  -41046263.7900040     
  -41037655.1519065     
  -41028838.2980319     
  -41019832.0156807     
  -41010654.4008983     
  -41001322.8466279     
  -40991854.0306541     
  -40982263.9032257     
  -40972567.6742499     
  -40962779.7999662     
  -40952913.9690226     
  -40942983.0878995     
  -40932999.2656533     
  -40922973.7979785     
  -40912917.1505882     
  -40902838.9418643     
  -40892747.9246526     
  -40882651.9672088     
  -40872558.0340104     
  -40862472.1680045     
  -40852399.4719913     
  -40842344.0724936     
  -40832309.1341249     
  -40904543.5876563     
  -40907417.6474664     
  -40909293.7983891     
  -40910209.6570395     
  -40910202.7509338     
  -40909310.3612132     
  -40907569.5179125     
  -40905016.9457902     
  -40901689.0095589     
  -40897621.6680583     
  -40892850.4331689     
  -40887410.3309810     
  -40881335.8651115     
  -40874660.9826709     
  -40867419.0431726     
  -40859642.7903937     
  -40851364.3270711     
  -40842615.0922781     
  -40833425.8413462     
  -40823826.6281948     
  -40813846.7899194     
  -40803514.9334749     
  -40792858.9242554     
  -40781905.8763550     
  -40770682.1442661     
  -40759213.3157655     
  -40747524.2057177     
  -40735638.8505249     
  -40723580.5029454     
  -40711371.6270029     
  -40699033.8927176     
  -40686588.1703885     
  -40674054.5241792     
  -40661452.2047698     
  -40648799.6408616     
  -40636114.4293436     
  -40623413.3239473     
  -40610712.2222376     
  -40598026.1507844     
  -40585369.2483822     
  -40572754.7472326     
  -40560194.9521385     
  -40547701.2179903     
  -40535283.9258857     
  -40522952.4575599     
  -40510715.1658396     
  -40498579.3385271     
  -40486551.1675508     
  -40474635.7660229     
  -40462837.0081105     
  -40712415.1510159     
  -40710980.0657568     
  -40708468.0453531     
  -40704925.9551665     
  -40700400.0397422     
  -40694936.2319413     
  -40688579.9383515     
  -40681375.9742832     
  -40673368.5301494     
  -40664601.1270377     
  -40655116.5673296     
  -40644956.8888920     
  -40634163.3254342     
  -40622776.2725024     
  -40610835.2581464     
  -40598378.9177429     
  -40585444.9728743     
  -40572070.2143039     
  -40558290.4890472     
  -40544140.6914263     
  -40529654.7578773     
  -40514865.6651964     
  -40499805.4318490     
  -40484505.1219229     
  -40468994.8512751     
  -40453303.7954070     
  -40437460.1985697     
  -40421491.3836015     
  -40405423.7619803     
  -40389282.8435797     
  -40373093.2456173     
  -40356878.7002986     
  -40340662.0606765     
  -40324465.3042756     
  -40308309.5340659     
  -40292214.9764298     
  -40276200.9758344     
  -40260285.9860149     
  -40244487.5575453     
  -40228822.3216812     
  -40213305.9702332     
  -40197953.2309290     
  -40182777.8375536     
  -40167792.4948452     
  -40153008.8409671     
  -40138437.4144434     
  -40124087.6265907     
  -40109967.6950437     
  -40096084.4465423     
  -40082443.7151238     
  -40541183.0500021     
  -40534247.1362269     
  -40526164.2492771     
  -40516991.4826035     
  -40506786.1411163     
  -40495604.3020613     
  -40483501.1831376     
  -40470531.1503714     
  -40456747.5976355     
  -40442202.8511372     
  -40426948.1101516     
  -40411033.4041856     
  -40394507.5549285     
  -40377418.1410416     
  -40359811.4677662     
  -40341732.5434985     
  -40323225.0644510     
  -40304331.4075715     
  -40285092.6313471     
  -40265548.4839061     
  -40245737.4177735     
  -40225696.6106311     
  -40205461.9914109     
  -40185068.2709880     
  -40164548.9766722     
  -40143936.4896036     
  -40123262.0841030     
  -40102555.9679637     
  -40081847.3226675     
  -40061164.3425160     
  -40040534.2717081     
  -40019983.4384573     
  -39999537.2853126     
  -39979220.3949093     
  -39959056.5104324     
  -39939068.5501084     
  -39919278.6150781     
  -39899707.9900916     
  -39880377.1366847     
  -39861305.6789418     
  -39842512.3826157     
  -39824015.1288900     
  -39805830.8833958     
  -39787975.6574161     
  -39770464.4509756     
  -39753311.1649347     
  -39736528.5040619     
  -39720128.0145588     
  -39704120.3970895     
  -39688513.8424445     
  -40393465.4524148     
  -40379553.6389984     
  -40364439.1024137     
  -40348194.7795809     
  -40330889.0926873     
  -40312590.6426640     
  -40293366.9425975     
  -40273283.8825009     
  -40252405.7007244     
  -40230795.0073257     
  -40208512.7448682     
  -40185618.1109959     
  -40162168.4804743     
  -40138219.3458690     
  -40113824.2808740     
  -40089034.9237798     
  -40063900.9775297     
  -40038470.2238837     
  -40012788.5504398     
  -39986899.9900059     
  -39960846.7719827     
  -39934669.3852136     
  -39908406.6513612     
  -39882095.8074499     
  -39855772.5958433     
  -39829471.3596573     
  -39803225.1414488     
  -39777065.7829466     
  -39751024.0236228     
  -39725129.5960002     
  -39699411.3157528     
  -39673897.1648977     
  -39648614.3666488     
  -39623589.4508302     
  -39598848.3090553     
  -39574416.2391277     
  -39550317.9781904     
  -39526577.7239417     
  -39503219.1426702     
  -39480265.3620924     
  -39457738.9466385     
  -39435661.8544024     
  -39414055.3807338     
  -39392940.1046301     
  -39372335.8638391     
  -39352261.7615448     
  -39332736.0795426     
  -39313775.7176366     
  -39295395.1930083     
  -39277611.8771814     
  -40271576.0520582     
  -40248859.1268040     
  -40224915.1467995     
  -40199823.5188747     
  -40173674.7773659     
  -40146553.9001558     
  -40118542.4778453     
  -40089720.2161163     
  -40060164.9366944     
  -40029952.1439831     
  -39999154.6695785     
  -39967842.4809326     
  -39936082.6012870     
  -39903939.0819153     
  -39871472.9948392     
  -39838742.4372285     
  -39805802.5505379     
  -39772705.5607331     
  -39739500.8447851     
  -39706235.0258322     
  -39672952.0966419     
  -39639693.5688621     
  -39606498.6441959     
  -39573404.4029271     
  -39540446.0050052     
  -39507656.8989810     
  -39475069.0343138     
  -39442713.0728615     
  -39410618.5956502     
  -39378814.3012598     
  -39347328.1923838     
  -39316187.7473508     
  -39285420.0736815     
  -39255052.0412211     
  -39225110.3930895     
  -39195621.8337666     
  -39166613.0950483     
  -39138110.9822372     
  -39110142.4041850     
  -39082734.3905252     
  -39055914.0956321     
  -39029708.7791569     
  -39004145.7369652     
  -38979252.1422634     
  -38955054.7770696     
  -38931579.7659705     
  -38908852.7628036     
  -38886900.3481742     
  -38865751.2303906     
  -38845418.6086724     
  -40177332.8727643     
  -40143536.6117323     
  -40108495.8312817     
  -40072354.5714522     
  -40035208.9905538     
  -39997160.7623828     
  -39958314.5163336     
  -39918772.1902700     
  -39878630.8279341     
  -39837982.3640434     
  -39796913.9300845     
  -39755508.0690703     
  -39713842.7523467     
  -39671991.2741507     
  -39630022.1243260     
  -39587998.9108130     
  -39545980.3679904     
  -39504020.4600598     
  -39462168.5724967     
  -39420469.7768292     
  -39378965.1517065     
  -39337692.1439877     
  -39296684.9557976     
  -39255974.9461608     
  -39215591.0383970     
  -39175560.1266555     
  -39135907.4766782     
  -39096657.1170827     
  -39057832.2181448     
  -39019455.4552845     
  -38981549.3542275     
  -38944136.6141886     
  -38907240.4044552     
  -38870884.6285763     
  -38835094.1491980     
  -38799894.9658466     
  -38765314.3383262     
  -38731380.8509331     
  -38698124.4188670     
  -38665576.2496511     
  -38633768.7897572     
  -38602735.7067666     
  -38572511.9664788     
  -38543134.0252088     
  -38514639.9936161     
  -38487069.2359795     
  -38460460.3091302     
  -38434846.6202431     
  -38410256.9788075     
  -38386769.1416380     
  -40111890.5006403     
  -40064014.6560292     
  -40015046.9408821     
  -39965010.3944870     
  -39914080.9959172     
  -39862422.6983902     
  -39810174.6709715     
  -39757461.8799405     
  -39704402.3224319     
  -39651109.1330711     
  -39597689.9431986     
  -39544245.4136315     
  -39490867.9176693     
  -39437640.7212646     
  -39384637.6913433     
  -39331923.4385491     
  -39279553.7716089     
  -39227576.3517911     
  -39176031.4599217     
  -39124952.8130108     
  -39074368.3882711     
  -39024301.2282375     
  -38974770.2122808     
  -38925790.7878949     
  -38877375.6605873     
  -38829535.4447334     
  -38782279.2799095     
  -38735615.4183672     
  -38689551.7897091     
  -38644096.5485825     
  -38599258.6103458     
  -38555048.1780995     
  -38511477.2620284     
  -38468560.1883751     
  -38426314.0901752     
  -38384759.3646806     
  -38343920.0727891     
  -38303824.2437974     
  -38264504.0355254     
  -38225995.6890916     
  -38188339.2187893     
  -38151577.8109720     
  -38115757.0106922     
  -38080924.0146840     
  -38047127.8326712     
  -38014421.6613587     
  -37982868.7577208     
  -37952548.8029730     
  -37923539.7066501     
  -37895763.5549139     
  -40075482.1290211     
  -40009689.9576669     
  -39942522.1501518     
  -39874660.9205849     
  -39806284.7020829     
  -39737515.9681931     
  -39668507.4560862     
  -39599435.8060047     
  -39530481.1694852     
  -39461811.8546575     
  -39393576.0398083     
  -39325898.6940653     
  -39258881.6363891     
  -39192605.2394524     
  -39127130.8497738     
  -39062503.3955839     
  -38998753.9052941     
  -38935901.8073587     
  -38873956.9652129     
  -38812921.4451095     
  -38752791.0365344     
  -38693556.5543694     
  -38635204.9548266     
  -38577720.2967230     
  -38521084.5777360     
  -38465278.4729127     
  -38410282.0004230     
  -38356075.1376404     
  -38302638.4092202     
  -38249953.4679425     
  -38198003.6886845     
  -38146774.7958455     
  -38096255.5446770     
  -38046438.4768601     
  -37997320.7696165     
  -37948905.1943643     
  -37901201.1932020     
  -37854226.0654440     
  -37808006.2254508     
  -37762578.4362252     
  -37717990.8237086     
  -37674303.3106925     
  -37631586.8525928     
  -37589920.5176725     
  -37549385.1885224     
  -37510053.1578402     
  -37471976.5482116     
  -37435191.9623888     
  -37399807.5528285     
  -37366392.3769856     
  -40067270.5919909     
  -39976175.8938483     
  -39885721.4427895     
  -39794675.2985739     
  -39703184.3275135     
  -39611744.6095018     
  -39520856.9108054     
  -39430928.9177169     
  -39342262.6559876     
  -39255068.0614584     
  -39169481.8103823     
  -39085584.6289205     
  -39003415.3969814     
  -38922982.0848538     
  -38844270.0457073     
  -38767248.2392993     
  -38691873.8826369     
  -38618095.9194852     
  -38545857.6072536     
  -38475098.4450926     
  -38405755.6101424     
  -38337765.0265764     
  -38271062.1609772     
  -38205582.6148865     
  -38141262.5689101     
  -38078039.1209736     
  -38015850.5530758     
  -37954636.5554281     
  -37894338.4336941     
  -37834899.3239050     
  -37776264.4404549     
  -37718381.3855120     
  -37661200.5535568     
  -37604675.6731895     
  -37548764.5407194     
  -37493430.0176515     
  -37438641.3886870     
  -37384376.2101951     
  -37330622.8229798     
  -37277383.7570854     
  -37224680.3127482     
  -37172558.6320324     
  -37121097.4956962     
  -37070417.6567786     
  -37020691.1352068     
  -36972144.9041379     
  -36925042.4494714     
  -36879597.1750518     
  -36835692.2686745     
  -36792067.0516239     
  -40084423.0594589     
  -39961761.5945033     
  -39833301.4356894     
  -39704534.1999359     
  -39578011.4346403     
  -39454897.1215807     
  -39335674.6802999     
  -39220483.3777136     
  -39109285.3513204     
  -39001951.8134991     
  -38898309.0247179     
  -38798163.4185587     
  -38701315.5211760     
  -38607567.6542646     
  -38516728.0988468     
  -38428613.2046443     
  -38343048.2923360     
  -38259867.8439525     
  -38178915.2763839     
  -38100042.4760722     
  -38023109.2031497     
  -37947982.4308128     
  -37874535.6594847     
  -37802648.2289293     
  -37732204.6411689     
  -37663093.9005915     
  -37595208.8736265     
  -37528445.6680130     
  -37462703.0304986     
  -37397881.7615434     
  -37333884.1462363     
  -37270613.4022757     
  -37207973.1489197     
  -37145866.9059821     
  -37084197.6405048     
  -37022867.3928981     
  -36961777.0379826     
  -36900826.2764524     
  -36839914.0215215     
  -36778939.4677699     
  -36717804.3505938     
  -36656417.3170231     
  -36594702.1209832     
  -36532612.9304301     
  -36470163.2751924     
  -36407482.0874415     
  -36344925.6299584     
  -36283309.3680817     
  -36224407.7371584     
  -36172075.9546025     
  -40109877.4784016     
  -39888464.2213022     
  -39690325.3073423     
  -39509922.8918433     
  -39343669.9725435     
  -39189084.7760201     
  -39044356.6236605     
  -38908108.1373730     
  -38779256.6657431     
  -38656928.8337774     
  -38540405.1640422     
  -38429082.6213287     
  -38322448.3464600     
  -38220060.6643699     
  -38121534.9898784     
  -38026533.1313381     
  -37934755.0125644     
  -37845932.1535759     
  -37759822.4541170     
  -37676205.9569918     
  -37594881.3574374     
  -37515663.0858391     
  -37438378.8336557     
  -37362867.4224830     
  -37288976.9375789     
  -37216563.0624036     
  -37145487.5614236     
  -37075616.8656575     
  -37006820.7198516     
  -36938970.8521291     
  -36871939.6265576     
  -36805598.6361772     
  -36739817.1881880     
  -36674460.6234111     
  -36609388.3974439     
  -36544451.8289490     
  -36479491.3876690     
  -36414333.3452273     
  -36348785.5357058     
  -36282631.8534503     
  -36215624.9223038     
  -36147476.0478188     
  -36077841.0053607     
  -36006299.2104467     
  -35932321.9245657     
  -35855221.4251727     
  -35774065.3953690     
  -35687524.2409723     
  -35593581.7481909     
  -35488951.9030537     
SCALARS 2waySource double 
LOOKUP_TABLE default
  0.000000000000000E+000
  0.000000000000000E+000
  0.000000000000000E+000
  0.000000000000000E+000
  0.000000000000000E+000
  0.000000000000000E+000
  0.000000000000000E+000
  0.000000000000000E+000
  0.000000000000000E+000
  0.000000000000000E+000
  0.000000000000000E+000
  0.000000000000000E+000
  0.000000000000000E+000
  0.000000000000000E+000
  0.000000000000000E+000
  0.000000000000000E+000
  0.000000000000000E+000
  0.000000000000000E+000
  0.000000000000000E+000
  0.000000000000000E+000
  0.000000000000000E+000
  0.000000000000000E+000
  0.000000000000000E+000
  0.000000000000000E+000
  0.000000000000000E+000
  0.000000000000000E+000
  0.000000000000000E+000
  0.000000000000000E+000
  0.000000000000000E+000
  0.000000000000000E+000
  0.000000000000000E+000
  0.000000000000000E+000
  0.000000000000000E+000
  0.000000000000000E+000
  0.000000000000000E+000
  0.000000000000000E+000
  0.000000000000000E+000
  0.000000000000000E+000
  0.000000000000000E+000
  0.000000000000000E+000
  0.000000000000000E+000
  0.000000000000000E+000
  0.000000000000000E+000
  0.000000000000000E+000
  0.000000000000000E+000
  0.000000000000000E+000
  0.000000000000000E+000
  0.000000000000000E+000
  0.000000000000000E+000
  0.000000000000000E+000
  0.000000000000000E+000
  0.000000000000000E+000
  0.000000000000000E+000
  0.000000000000000E+000
  0.000000000000000E+000
  0.000000000000000E+000
  0.000000000000000E+000
  0.000000000000000E+000
  0.000000000000000E+000
  0.000000000000000E+000
  0.000000000000000E+000
  0.000000000000000E+000
  0.000000000000000E+000
  0.000000000000000E+000
  0.000000000000000E+000
  0.000000000000000E+000
  0.000000000000000E+000
  0.000000000000000E+000
  0.000000000000000E+000
  0.000000000000000E+000
  0.000000000000000E+000
  0.000000000000000E+000
  0.000000000000000E+000
  0.000000000000000E+000
  0.000000000000000E+000
  0.000000000000000E+000
  0.000000000000000E+000
  0.000000000000000E+000
  0.000000000000000E+000
  0.000000000000000E+000
  0.000000000000000E+000
  0.000000000000000E+000
  0.000000000000000E+000
  0.000000000000000E+000
  0.000000000000000E+000
  0.000000000000000E+000
  0.000000000000000E+000
  0.000000000000000E+000
  0.000000000000000E+000
  0.000000000000000E+000
  0.000000000000000E+000
  0.000000000000000E+000
  0.000000000000000E+000
  0.000000000000000E+000
  0.000000000000000E+000
  0.000000000000000E+000
  0.000000000000000E+000
  0.000000000000000E+000
  0.000000000000000E+000
  0.000000000000000E+000
  0.000000000000000E+000
  0.000000000000000E+000
  0.000000000000000E+000
  0.000000000000000E+000
  0.000000000000000E+000
  0.000000000000000E+000
  0.000000000000000E+000
  0.000000000000000E+000
  0.000000000000000E+000
  0.000000000000000E+000
  0.000000000000000E+000
  0.000000000000000E+000
  0.000000000000000E+000
  0.000000000000000E+000
  0.000000000000000E+000
  0.000000000000000E+000
  0.000000000000000E+000
  0.000000000000000E+000
  0.000000000000000E+000
  0.000000000000000E+000
  0.000000000000000E+000
  0.000000000000000E+000
  0.000000000000000E+000
  0.000000000000000E+000
  0.000000000000000E+000
  0.000000000000000E+000
  0.000000000000000E+000
  0.000000000000000E+000
  0.000000000000000E+000
  0.000000000000000E+000
  0.000000000000000E+000
  0.000000000000000E+000
  0.000000000000000E+000
  0.000000000000000E+000
  0.000000000000000E+000
  0.000000000000000E+000
  0.000000000000000E+000
  0.000000000000000E+000
  0.000000000000000E+000
  0.000000000000000E+000
  0.000000000000000E+000
  0.000000000000000E+000
  0.000000000000000E+000
  0.000000000000000E+000
  0.000000000000000E+000
  0.000000000000000E+000
  0.000000000000000E+000
  0.000000000000000E+000
  0.000000000000000E+000
  0.000000000000000E+000
  0.000000000000000E+000
  0.000000000000000E+000
  0.000000000000000E+000
  0.000000000000000E+000
  0.000000000000000E+000
  0.000000000000000E+000
  0.000000000000000E+000
  0.000000000000000E+000
  0.000000000000000E+000
  0.000000000000000E+000
  0.000000000000000E+000
  0.000000000000000E+000
  0.000000000000000E+000
  0.000000000000000E+000
  0.000000000000000E+000
  0.000000000000000E+000
  0.000000000000000E+000
  0.000000000000000E+000
  0.000000000000000E+000
  0.000000000000000E+000
  0.000000000000000E+000
  0.000000000000000E+000
  0.000000000000000E+000
  0.000000000000000E+000
  0.000000000000000E+000
  0.000000000000000E+000
  0.000000000000000E+000
  0.000000000000000E+000
  0.000000000000000E+000
  0.000000000000000E+000
  0.000000000000000E+000
  0.000000000000000E+000
  0.000000000000000E+000
  0.000000000000000E+000
  0.000000000000000E+000
  0.000000000000000E+000
  0.000000000000000E+000
  0.000000000000000E+000
  0.000000000000000E+000
  0.000000000000000E+000
  0.000000000000000E+000
  0.000000000000000E+000
  0.000000000000000E+000
  0.000000000000000E+000
  0.000000000000000E+000
  0.000000000000000E+000
  0.000000000000000E+000
  0.000000000000000E+000
  0.000000000000000E+000
  0.000000000000000E+000
  0.000000000000000E+000
  0.000000000000000E+000
  0.000000000000000E+000
  0.000000000000000E+000
  0.000000000000000E+000
  0.000000000000000E+000
  0.000000000000000E+000
  0.000000000000000E+000
  0.000000000000000E+000
  0.000000000000000E+000
  0.000000000000000E+000
  0.000000000000000E+000
  0.000000000000000E+000
  0.000000000000000E+000
  0.000000000000000E+000
  0.000000000000000E+000
  0.000000000000000E+000
  0.000000000000000E+000
  0.000000000000000E+000
  0.000000000000000E+000
  0.000000000000000E+000
  0.000000000000000E+000
  0.000000000000000E+000
  0.000000000000000E+000
  0.000000000000000E+000
  0.000000000000000E+000
  0.000000000000000E+000
  0.000000000000000E+000
  0.000000000000000E+000
  0.000000000000000E+000
  0.000000000000000E+000
  0.000000000000000E+000
  0.000000000000000E+000
  0.000000000000000E+000
  0.000000000000000E+000
  0.000000000000000E+000
  0.000000000000000E+000
  0.000000000000000E+000
  0.000000000000000E+000
  0.000000000000000E+000
  0.000000000000000E+000
  0.000000000000000E+000
  0.000000000000000E+000
  0.000000000000000E+000
  0.000000000000000E+000
  0.000000000000000E+000
  0.000000000000000E+000
  0.000000000000000E+000
  0.000000000000000E+000
  0.000000000000000E+000
  0.000000000000000E+000
  0.000000000000000E+000
  0.000000000000000E+000
  0.000000000000000E+000
  0.000000000000000E+000
  0.000000000000000E+000
  0.000000000000000E+000
  0.000000000000000E+000
  0.000000000000000E+000
  0.000000000000000E+000
  0.000000000000000E+000
  0.000000000000000E+000
  0.000000000000000E+000
  0.000000000000000E+000
  0.000000000000000E+000
  0.000000000000000E+000
  0.000000000000000E+000
  0.000000000000000E+000
  0.000000000000000E+000
  0.000000000000000E+000
  0.000000000000000E+000
  0.000000000000000E+000
  0.000000000000000E+000
  0.000000000000000E+000
  0.000000000000000E+000
  0.000000000000000E+000
  0.000000000000000E+000
  0.000000000000000E+000
  0.000000000000000E+000
  0.000000000000000E+000
  0.000000000000000E+000
  0.000000000000000E+000
  0.000000000000000E+000
  0.000000000000000E+000
  0.000000000000000E+000
  0.000000000000000E+000
  0.000000000000000E+000
  0.000000000000000E+000
  0.000000000000000E+000
  0.000000000000000E+000
  0.000000000000000E+000
  0.000000000000000E+000
  0.000000000000000E+000
  0.000000000000000E+000
  0.000000000000000E+000
  0.000000000000000E+000
  0.000000000000000E+000
  0.000000000000000E+000
  0.000000000000000E+000
  0.000000000000000E+000
  0.000000000000000E+000
  0.000000000000000E+000
  0.000000000000000E+000
  0.000000000000000E+000
  0.000000000000000E+000
  0.000000000000000E+000
  0.000000000000000E+000
  0.000000000000000E+000
  0.000000000000000E+000
  0.000000000000000E+000
  0.000000000000000E+000
  0.000000000000000E+000
  0.000000000000000E+000
  0.000000000000000E+000
  0.000000000000000E+000
  0.000000000000000E+000
  0.000000000000000E+000
  0.000000000000000E+000
  0.000000000000000E+000
  0.000000000000000E+000
  0.000000000000000E+000
  0.000000000000000E+000
  0.000000000000000E+000
  0.000000000000000E+000
  0.000000000000000E+000
  0.000000000000000E+000
  0.000000000000000E+000
  0.000000000000000E+000
  0.000000000000000E+000
  0.000000000000000E+000
  0.000000000000000E+000
  0.000000000000000E+000
  0.000000000000000E+000
  0.000000000000000E+000
  0.000000000000000E+000
  0.000000000000000E+000
  0.000000000000000E+000
  0.000000000000000E+000
  0.000000000000000E+000
  0.000000000000000E+000
  0.000000000000000E+000
  0.000000000000000E+000
  0.000000000000000E+000
  0.000000000000000E+000
  0.000000000000000E+000
  0.000000000000000E+000
  0.000000000000000E+000
  0.000000000000000E+000
  0.000000000000000E+000
  0.000000000000000E+000
  0.000000000000000E+000
  0.000000000000000E+000
  0.000000000000000E+000
  0.000000000000000E+000
  0.000000000000000E+000
  0.000000000000000E+000
  0.000000000000000E+000
  0.000000000000000E+000
  0.000000000000000E+000
  0.000000000000000E+000
  0.000000000000000E+000
  0.000000000000000E+000
  0.000000000000000E+000
  0.000000000000000E+000
  0.000000000000000E+000
  0.000000000000000E+000
  0.000000000000000E+000
  0.000000000000000E+000
  0.000000000000000E+000
  0.000000000000000E+000
  0.000000000000000E+000
  0.000000000000000E+000
  0.000000000000000E+000
  0.000000000000000E+000
  0.000000000000000E+000
  0.000000000000000E+000
  0.000000000000000E+000
  0.000000000000000E+000
  0.000000000000000E+000
  0.000000000000000E+000
  0.000000000000000E+000
  0.000000000000000E+000
  0.000000000000000E+000
  0.000000000000000E+000
  0.000000000000000E+000
  0.000000000000000E+000
  0.000000000000000E+000
  0.000000000000000E+000
  0.000000000000000E+000
  0.000000000000000E+000
  0.000000000000000E+000
  0.000000000000000E+000
  0.000000000000000E+000
  0.000000000000000E+000
  0.000000000000000E+000
  0.000000000000000E+000
  0.000000000000000E+000
  0.000000000000000E+000
  0.000000000000000E+000
  0.000000000000000E+000
  0.000000000000000E+000
  0.000000000000000E+000
  0.000000000000000E+000
  0.000000000000000E+000
  0.000000000000000E+000
  0.000000000000000E+000
  0.000000000000000E+000
  0.000000000000000E+000
  0.000000000000000E+000
  0.000000000000000E+000
  0.000000000000000E+000
  0.000000000000000E+000
  0.000000000000000E+000
  0.000000000000000E+000
  0.000000000000000E+000
  0.000000000000000E+000
  0.000000000000000E+000
  0.000000000000000E+000
  0.000000000000000E+000
  0.000000000000000E+000
  0.000000000000000E+000
  0.000000000000000E+000
  0.000000000000000E+000
  0.000000000000000E+000
  0.000000000000000E+000
  0.000000000000000E+000
  0.000000000000000E+000
  0.000000000000000E+000
  0.000000000000000E+000
  0.000000000000000E+000
  0.000000000000000E+000
  0.000000000000000E+000
  0.000000000000000E+000
  0.000000000000000E+000
  0.000000000000000E+000
  0.000000000000000E+000
  0.000000000000000E+000
  0.000000000000000E+000
  0.000000000000000E+000
  0.000000000000000E+000
  0.000000000000000E+000
  0.000000000000000E+000
  0.000000000000000E+000
  0.000000000000000E+000
  0.000000000000000E+000
  0.000000000000000E+000
  0.000000000000000E+000
  0.000000000000000E+000
  0.000000000000000E+000
  0.000000000000000E+000
  0.000000000000000E+000
  0.000000000000000E+000
  0.000000000000000E+000
  0.000000000000000E+000
  0.000000000000000E+000
  0.000000000000000E+000
  0.000000000000000E+000
  0.000000000000000E+000
  0.000000000000000E+000
  0.000000000000000E+000
  0.000000000000000E+000
  0.000000000000000E+000
  0.000000000000000E+000
  0.000000000000000E+000
  0.000000000000000E+000
  0.000000000000000E+000
  0.000000000000000E+000
  0.000000000000000E+000
  0.000000000000000E+000
  0.000000000000000E+000
  0.000000000000000E+000
  0.000000000000000E+000
  0.000000000000000E+000
  0.000000000000000E+000
  0.000000000000000E+000
  0.000000000000000E+000
  0.000000000000000E+000
  0.000000000000000E+000
  0.000000000000000E+000
  0.000000000000000E+000
  0.000000000000000E+000
  0.000000000000000E+000
  0.000000000000000E+000
  0.000000000000000E+000
  0.000000000000000E+000
  0.000000000000000E+000
  0.000000000000000E+000
  0.000000000000000E+000
  0.000000000000000E+000
  0.000000000000000E+000
  0.000000000000000E+000
  0.000000000000000E+000
  0.000000000000000E+000
  0.000000000000000E+000
  0.000000000000000E+000
  0.000000000000000E+000
  0.000000000000000E+000
  0.000000000000000E+000
  0.000000000000000E+000
  0.000000000000000E+000
  0.000000000000000E+000
  0.000000000000000E+000
  0.000000000000000E+000
  0.000000000000000E+000
  0.000000000000000E+000
  0.000000000000000E+000
  0.000000000000000E+000
  0.000000000000000E+000
  0.000000000000000E+000
  0.000000000000000E+000
  0.000000000000000E+000
  0.000000000000000E+000
  0.000000000000000E+000
  0.000000000000000E+000
  0.000000000000000E+000
  0.000000000000000E+000
  0.000000000000000E+000
  0.000000000000000E+000
  0.000000000000000E+000
  0.000000000000000E+000
  0.000000000000000E+000
  0.000000000000000E+000
  0.000000000000000E+000
  0.000000000000000E+000
  0.000000000000000E+000
  0.000000000000000E+000
  0.000000000000000E+000
  0.000000000000000E+000
  0.000000000000000E+000
  0.000000000000000E+000
  0.000000000000000E+000
  0.000000000000000E+000
  0.000000000000000E+000
  0.000000000000000E+000
  0.000000000000000E+000
  0.000000000000000E+000
  0.000000000000000E+000
  0.000000000000000E+000
  0.000000000000000E+000
  0.000000000000000E+000
  0.000000000000000E+000
  0.000000000000000E+000
  0.000000000000000E+000
  0.000000000000000E+000
  0.000000000000000E+000
  0.000000000000000E+000
  0.000000000000000E+000
  0.000000000000000E+000
  0.000000000000000E+000
  0.000000000000000E+000
  0.000000000000000E+000
  0.000000000000000E+000
  0.000000000000000E+000
  0.000000000000000E+000
  0.000000000000000E+000
  0.000000000000000E+000
  0.000000000000000E+000
  0.000000000000000E+000
  0.000000000000000E+000
  0.000000000000000E+000
  0.000000000000000E+000
  0.000000000000000E+000
  0.000000000000000E+000
  0.000000000000000E+000
  0.000000000000000E+000
  0.000000000000000E+000
  0.000000000000000E+000
  0.000000000000000E+000
  0.000000000000000E+000
  0.000000000000000E+000
  0.000000000000000E+000
  0.000000000000000E+000
  0.000000000000000E+000
  0.000000000000000E+000
  0.000000000000000E+000
  0.000000000000000E+000
  0.000000000000000E+000
  0.000000000000000E+000
  0.000000000000000E+000
  0.000000000000000E+000
  0.000000000000000E+000
  0.000000000000000E+000
  0.000000000000000E+000
  0.000000000000000E+000
  0.000000000000000E+000
  0.000000000000000E+000
  0.000000000000000E+000
  0.000000000000000E+000
  0.000000000000000E+000
  0.000000000000000E+000
  0.000000000000000E+000
  0.000000000000000E+000
  0.000000000000000E+000
  0.000000000000000E+000
  0.000000000000000E+000
  0.000000000000000E+000
  0.000000000000000E+000
  0.000000000000000E+000
  0.000000000000000E+000
  0.000000000000000E+000
  0.000000000000000E+000
  0.000000000000000E+000
  0.000000000000000E+000
  0.000000000000000E+000
  0.000000000000000E+000
  0.000000000000000E+000
  0.000000000000000E+000
  0.000000000000000E+000
  0.000000000000000E+000
  0.000000000000000E+000
  0.000000000000000E+000
  0.000000000000000E+000
  0.000000000000000E+000
  0.000000000000000E+000
  0.000000000000000E+000
  0.000000000000000E+000
  0.000000000000000E+000
  0.000000000000000E+000
  0.000000000000000E+000
  0.000000000000000E+000
  0.000000000000000E+000
  0.000000000000000E+000
  0.000000000000000E+000
  0.000000000000000E+000
  0.000000000000000E+000
  0.000000000000000E+000
  0.000000000000000E+000
  0.000000000000000E+000
  0.000000000000000E+000
  0.000000000000000E+000
  0.000000000000000E+000
  0.000000000000000E+000
  0.000000000000000E+000
  0.000000000000000E+000
  0.000000000000000E+000
  0.000000000000000E+000
  0.000000000000000E+000
  0.000000000000000E+000
  0.000000000000000E+000
  0.000000000000000E+000
  0.000000000000000E+000
  0.000000000000000E+000
  0.000000000000000E+000
  0.000000000000000E+000
  0.000000000000000E+000
  0.000000000000000E+000
  0.000000000000000E+000
  0.000000000000000E+000
  0.000000000000000E+000
  0.000000000000000E+000
  0.000000000000000E+000
  0.000000000000000E+000
  0.000000000000000E+000
  0.000000000000000E+000
  0.000000000000000E+000
  0.000000000000000E+000
  0.000000000000000E+000
  0.000000000000000E+000
  0.000000000000000E+000
  0.000000000000000E+000
  0.000000000000000E+000
  0.000000000000000E+000
  0.000000000000000E+000
  0.000000000000000E+000
  0.000000000000000E+000
  0.000000000000000E+000
  0.000000000000000E+000
  0.000000000000000E+000
  0.000000000000000E+000
  0.000000000000000E+000
  0.000000000000000E+000
  0.000000000000000E+000
  0.000000000000000E+000
  0.000000000000000E+000
  0.000000000000000E+000
  0.000000000000000E+000
  0.000000000000000E+000
  0.000000000000000E+000
  0.000000000000000E+000
  0.000000000000000E+000
  0.000000000000000E+000
  0.000000000000000E+000
  0.000000000000000E+000
  0.000000000000000E+000
  0.000000000000000E+000
  0.000000000000000E+000
  0.000000000000000E+000
  0.000000000000000E+000
  0.000000000000000E+000
  0.000000000000000E+000
  0.000000000000000E+000
  0.000000000000000E+000
  0.000000000000000E+000
  0.000000000000000E+000
  0.000000000000000E+000
  0.000000000000000E+000
  0.000000000000000E+000
  0.000000000000000E+000
  0.000000000000000E+000
  0.000000000000000E+000
  0.000000000000000E+000
  0.000000000000000E+000
  0.000000000000000E+000
  0.000000000000000E+000
  0.000000000000000E+000
  0.000000000000000E+000
  0.000000000000000E+000
  0.000000000000000E+000
  0.000000000000000E+000
  0.000000000000000E+000
  0.000000000000000E+000
  0.000000000000000E+000
  0.000000000000000E+000
  0.000000000000000E+000
  0.000000000000000E+000
  0.000000000000000E+000
  0.000000000000000E+000
  0.000000000000000E+000
  0.000000000000000E+000
  0.000000000000000E+000
  0.000000000000000E+000
  0.000000000000000E+000
  0.000000000000000E+000
  0.000000000000000E+000
  0.000000000000000E+000
  0.000000000000000E+000
  0.000000000000000E+000
  0.000000000000000E+000
  0.000000000000000E+000
  0.000000000000000E+000
  0.000000000000000E+000
  0.000000000000000E+000
  0.000000000000000E+000
  0.000000000000000E+000
  0.000000000000000E+000
  0.000000000000000E+000
  0.000000000000000E+000
  0.000000000000000E+000
  0.000000000000000E+000
  0.000000000000000E+000
  0.000000000000000E+000
  0.000000000000000E+000
  0.000000000000000E+000
  0.000000000000000E+000
  0.000000000000000E+000
  0.000000000000000E+000
  0.000000000000000E+000
  0.000000000000000E+000
  0.000000000000000E+000
  0.000000000000000E+000
  0.000000000000000E+000
  0.000000000000000E+000
  0.000000000000000E+000
  0.000000000000000E+000
  0.000000000000000E+000
  0.000000000000000E+000
  0.000000000000000E+000
  0.000000000000000E+000
  0.000000000000000E+000
  0.000000000000000E+000
  0.000000000000000E+000
  0.000000000000000E+000
  0.000000000000000E+000
  0.000000000000000E+000
  0.000000000000000E+000
  0.000000000000000E+000
  0.000000000000000E+000
  0.000000000000000E+000
  0.000000000000000E+000
  0.000000000000000E+000
  0.000000000000000E+000
  0.000000000000000E+000
  0.000000000000000E+000
  0.000000000000000E+000
  0.000000000000000E+000
  0.000000000000000E+000
  0.000000000000000E+000
  0.000000000000000E+000
  0.000000000000000E+000
  0.000000000000000E+000
  0.000000000000000E+000
  0.000000000000000E+000
  0.000000000000000E+000
  0.000000000000000E+000
  0.000000000000000E+000
  0.000000000000000E+000
  0.000000000000000E+000
  0.000000000000000E+000
  0.000000000000000E+000
  0.000000000000000E+000
  0.000000000000000E+000
  0.000000000000000E+000
  0.000000000000000E+000
  0.000000000000000E+000
  0.000000000000000E+000
  0.000000000000000E+000
  0.000000000000000E+000
  0.000000000000000E+000
  0.000000000000000E+000
  0.000000000000000E+000
  0.000000000000000E+000
  0.000000000000000E+000
  0.000000000000000E+000
  0.000000000000000E+000
  0.000000000000000E+000
  0.000000000000000E+000
  0.000000000000000E+000
  0.000000000000000E+000
  0.000000000000000E+000
  0.000000000000000E+000
  0.000000000000000E+000
  0.000000000000000E+000
  0.000000000000000E+000
  0.000000000000000E+000
  0.000000000000000E+000
  0.000000000000000E+000
  0.000000000000000E+000
  0.000000000000000E+000
  0.000000000000000E+000
  0.000000000000000E+000
  0.000000000000000E+000
  0.000000000000000E+000
  0.000000000000000E+000
  0.000000000000000E+000
  0.000000000000000E+000
  0.000000000000000E+000
  0.000000000000000E+000
  0.000000000000000E+000
  0.000000000000000E+000
  0.000000000000000E+000
  0.000000000000000E+000
  0.000000000000000E+000
  0.000000000000000E+000
  0.000000000000000E+000
  0.000000000000000E+000
  0.000000000000000E+000
  0.000000000000000E+000
  0.000000000000000E+000
  0.000000000000000E+000
  0.000000000000000E+000
  0.000000000000000E+000
  0.000000000000000E+000
  0.000000000000000E+000
  0.000000000000000E+000
  0.000000000000000E+000
  0.000000000000000E+000
  0.000000000000000E+000
  0.000000000000000E+000
  0.000000000000000E+000
  0.000000000000000E+000
  0.000000000000000E+000
  0.000000000000000E+000
  0.000000000000000E+000
  0.000000000000000E+000
  0.000000000000000E+000
  0.000000000000000E+000
  0.000000000000000E+000
  0.000000000000000E+000
  0.000000000000000E+000
  0.000000000000000E+000
  0.000000000000000E+000
  0.000000000000000E+000
  0.000000000000000E+000
  0.000000000000000E+000
  0.000000000000000E+000
  0.000000000000000E+000
  0.000000000000000E+000
  0.000000000000000E+000
  0.000000000000000E+000
  0.000000000000000E+000
  0.000000000000000E+000
  0.000000000000000E+000
  0.000000000000000E+000
  0.000000000000000E+000
  0.000000000000000E+000
  0.000000000000000E+000
  0.000000000000000E+000
  0.000000000000000E+000
  0.000000000000000E+000
  0.000000000000000E+000
  0.000000000000000E+000
  0.000000000000000E+000
  0.000000000000000E+000
  0.000000000000000E+000
  0.000000000000000E+000
  0.000000000000000E+000
  0.000000000000000E+000
  0.000000000000000E+000
  0.000000000000000E+000
  0.000000000000000E+000
  0.000000000000000E+000
  0.000000000000000E+000
  0.000000000000000E+000
  0.000000000000000E+000
  0.000000000000000E+000
  0.000000000000000E+000
  0.000000000000000E+000
  0.000000000000000E+000
  0.000000000000000E+000
  0.000000000000000E+000
  0.000000000000000E+000
  0.000000000000000E+000
  0.000000000000000E+000
  0.000000000000000E+000
  0.000000000000000E+000
  0.000000000000000E+000
  0.000000000000000E+000
  0.000000000000000E+000
  0.000000000000000E+000
  0.000000000000000E+000
  0.000000000000000E+000
  0.000000000000000E+000
  0.000000000000000E+000
  0.000000000000000E+000
  0.000000000000000E+000
  0.000000000000000E+000
  0.000000000000000E+000
  0.000000000000000E+000
  0.000000000000000E+000
  0.000000000000000E+000
  0.000000000000000E+000
  0.000000000000000E+000
  0.000000000000000E+000
  0.000000000000000E+000
  0.000000000000000E+000
  0.000000000000000E+000
  0.000000000000000E+000
  0.000000000000000E+000
  0.000000000000000E+000
  0.000000000000000E+000
  0.000000000000000E+000
  0.000000000000000E+000
  0.000000000000000E+000
  0.000000000000000E+000
  0.000000000000000E+000
  0.000000000000000E+000
  0.000000000000000E+000
  0.000000000000000E+000
  0.000000000000000E+000
  0.000000000000000E+000
  0.000000000000000E+000
  0.000000000000000E+000
  0.000000000000000E+000
  0.000000000000000E+000
  0.000000000000000E+000
  0.000000000000000E+000
  0.000000000000000E+000
  0.000000000000000E+000
  0.000000000000000E+000
  0.000000000000000E+000
  0.000000000000000E+000
  0.000000000000000E+000
  0.000000000000000E+000
  0.000000000000000E+000
  0.000000000000000E+000
  0.000000000000000E+000
  0.000000000000000E+000
  0.000000000000000E+000
  0.000000000000000E+000
  0.000000000000000E+000
  0.000000000000000E+000
  0.000000000000000E+000
  0.000000000000000E+000
  0.000000000000000E+000
  0.000000000000000E+000
  0.000000000000000E+000
  0.000000000000000E+000
  0.000000000000000E+000
  0.000000000000000E+000
  0.000000000000000E+000
  0.000000000000000E+000
  0.000000000000000E+000
  0.000000000000000E+000
  0.000000000000000E+000
  0.000000000000000E+000
  0.000000000000000E+000
  0.000000000000000E+000
  0.000000000000000E+000
  0.000000000000000E+000
  0.000000000000000E+000
  0.000000000000000E+000
  0.000000000000000E+000
  0.000000000000000E+000
  0.000000000000000E+000
  0.000000000000000E+000
  0.000000000000000E+000
  0.000000000000000E+000
  0.000000000000000E+000
  0.000000000000000E+000
  0.000000000000000E+000
  0.000000000000000E+000
  0.000000000000000E+000
  0.000000000000000E+000
  0.000000000000000E+000
  0.000000000000000E+000
  0.000000000000000E+000
  0.000000000000000E+000
  0.000000000000000E+000
  0.000000000000000E+000
  0.000000000000000E+000
  0.000000000000000E+000
  0.000000000000000E+000
  0.000000000000000E+000
  0.000000000000000E+000
  0.000000000000000E+000
  0.000000000000000E+000
  0.000000000000000E+000
  0.000000000000000E+000
  0.000000000000000E+000
  0.000000000000000E+000
  0.000000000000000E+000
  0.000000000000000E+000
  0.000000000000000E+000
  0.000000000000000E+000
  0.000000000000000E+000
  0.000000000000000E+000
  0.000000000000000E+000
  0.000000000000000E+000
  0.000000000000000E+000
  0.000000000000000E+000
  0.000000000000000E+000
  0.000000000000000E+000
  0.000000000000000E+000
  0.000000000000000E+000
  0.000000000000000E+000
  0.000000000000000E+000
  0.000000000000000E+000
  0.000000000000000E+000
  0.000000000000000E+000
  0.000000000000000E+000
  0.000000000000000E+000
  0.000000000000000E+000
  0.000000000000000E+000
  0.000000000000000E+000
  0.000000000000000E+000
  0.000000000000000E+000
  0.000000000000000E+000
  0.000000000000000E+000
  0.000000000000000E+000
  0.000000000000000E+000
  0.000000000000000E+000
  0.000000000000000E+000
  0.000000000000000E+000
  0.000000000000000E+000
  0.000000000000000E+000
  0.000000000000000E+000
  0.000000000000000E+000
  0.000000000000000E+000
  0.000000000000000E+000
  0.000000000000000E+000
  0.000000000000000E+000
  0.000000000000000E+000
  0.000000000000000E+000
  0.000000000000000E+000
  0.000000000000000E+000
  0.000000000000000E+000
  0.000000000000000E+000
  0.000000000000000E+000
  0.000000000000000E+000
  0.000000000000000E+000
  0.000000000000000E+000
  0.000000000000000E+000
  0.000000000000000E+000
  0.000000000000000E+000
  0.000000000000000E+000
  0.000000000000000E+000
  0.000000000000000E+000
  0.000000000000000E+000
  0.000000000000000E+000
  0.000000000000000E+000
  0.000000000000000E+000
  0.000000000000000E+000
  0.000000000000000E+000
  0.000000000000000E+000
  0.000000000000000E+000
  0.000000000000000E+000
  0.000000000000000E+000
  0.000000000000000E+000
  0.000000000000000E+000
  0.000000000000000E+000
  0.000000000000000E+000
  0.000000000000000E+000
  0.000000000000000E+000
  0.000000000000000E+000
  0.000000000000000E+000
  0.000000000000000E+000
  0.000000000000000E+000
  0.000000000000000E+000
  0.000000000000000E+000
  0.000000000000000E+000
  0.000000000000000E+000
  0.000000000000000E+000
  0.000000000000000E+000
  0.000000000000000E+000
  0.000000000000000E+000
  0.000000000000000E+000
  0.000000000000000E+000
  0.000000000000000E+000
  0.000000000000000E+000
  0.000000000000000E+000
  0.000000000000000E+000
  0.000000000000000E+000
  0.000000000000000E+000
  0.000000000000000E+000
  0.000000000000000E+000
  0.000000000000000E+000
  0.000000000000000E+000
  0.000000000000000E+000
  0.000000000000000E+000
  0.000000000000000E+000
  0.000000000000000E+000
  0.000000000000000E+000
  0.000000000000000E+000
  0.000000000000000E+000
  0.000000000000000E+000
  0.000000000000000E+000
  0.000000000000000E+000
  0.000000000000000E+000
  0.000000000000000E+000
  0.000000000000000E+000
  0.000000000000000E+000
  0.000000000000000E+000
  0.000000000000000E+000
  0.000000000000000E+000
  0.000000000000000E+000
  0.000000000000000E+000
  0.000000000000000E+000
  0.000000000000000E+000
  0.000000000000000E+000
  0.000000000000000E+000
  0.000000000000000E+000
  0.000000000000000E+000
  0.000000000000000E+000
  0.000000000000000E+000
  0.000000000000000E+000
  0.000000000000000E+000
  0.000000000000000E+000
  0.000000000000000E+000
  0.000000000000000E+000
  0.000000000000000E+000
  0.000000000000000E+000
  0.000000000000000E+000
  0.000000000000000E+000
  0.000000000000000E+000
  0.000000000000000E+000
  0.000000000000000E+000
  0.000000000000000E+000
  0.000000000000000E+000
  0.000000000000000E+000
  0.000000000000000E+000
  0.000000000000000E+000
  0.000000000000000E+000
  0.000000000000000E+000
  0.000000000000000E+000
  0.000000000000000E+000
  0.000000000000000E+000
  0.000000000000000E+000
  0.000000000000000E+000
  0.000000000000000E+000
  0.000000000000000E+000
  0.000000000000000E+000
  0.000000000000000E+000
  0.000000000000000E+000
  0.000000000000000E+000
  0.000000000000000E+000
  0.000000000000000E+000
  0.000000000000000E+000
  0.000000000000000E+000
  0.000000000000000E+000
  0.000000000000000E+000
  0.000000000000000E+000
  0.000000000000000E+000
  0.000000000000000E+000
  0.000000000000000E+000
  0.000000000000000E+000
  0.000000000000000E+000
  0.000000000000000E+000
  0.000000000000000E+000
  0.000000000000000E+000
  0.000000000000000E+000
  0.000000000000000E+000
  0.000000000000000E+000
  0.000000000000000E+000
  0.000000000000000E+000
  0.000000000000000E+000
  0.000000000000000E+000
  0.000000000000000E+000
  0.000000000000000E+000
  0.000000000000000E+000
  0.000000000000000E+000
  0.000000000000000E+000
  0.000000000000000E+000
  0.000000000000000E+000
  0.000000000000000E+000
  0.000000000000000E+000
  0.000000000000000E+000
  0.000000000000000E+000
  0.000000000000000E+000
  0.000000000000000E+000
  0.000000000000000E+000
  0.000000000000000E+000
  0.000000000000000E+000
  0.000000000000000E+000
  0.000000000000000E+000
  0.000000000000000E+000
  0.000000000000000E+000
  0.000000000000000E+000
  0.000000000000000E+000
  0.000000000000000E+000
  0.000000000000000E+000
  0.000000000000000E+000
  0.000000000000000E+000
  0.000000000000000E+000
  0.000000000000000E+000
  0.000000000000000E+000
  0.000000000000000E+000
  0.000000000000000E+000
  0.000000000000000E+000
  0.000000000000000E+000
  0.000000000000000E+000
  0.000000000000000E+000
  0.000000000000000E+000
  0.000000000000000E+000
  0.000000000000000E+000
  0.000000000000000E+000
  0.000000000000000E+000
  0.000000000000000E+000
  0.000000000000000E+000
  0.000000000000000E+000
  0.000000000000000E+000
  0.000000000000000E+000
  0.000000000000000E+000
  0.000000000000000E+000
  0.000000000000000E+000
  0.000000000000000E+000
  0.000000000000000E+000
  0.000000000000000E+000
  0.000000000000000E+000
  0.000000000000000E+000
  0.000000000000000E+000
  0.000000000000000E+000
  0.000000000000000E+000
  0.000000000000000E+000
  0.000000000000000E+000
  0.000000000000000E+000
  0.000000000000000E+000
  0.000000000000000E+000
  0.000000000000000E+000
  0.000000000000000E+000
  0.000000000000000E+000
  0.000000000000000E+000
  0.000000000000000E+000
  0.000000000000000E+000
  0.000000000000000E+000
  0.000000000000000E+000
  0.000000000000000E+000
  0.000000000000000E+000
  0.000000000000000E+000
  0.000000000000000E+000
  0.000000000000000E+000
  0.000000000000000E+000
  0.000000000000000E+000
  0.000000000000000E+000
  0.000000000000000E+000
  0.000000000000000E+000
  0.000000000000000E+000
  0.000000000000000E+000
  0.000000000000000E+000
  0.000000000000000E+000
  0.000000000000000E+000
  0.000000000000000E+000
  0.000000000000000E+000
  0.000000000000000E+000
  0.000000000000000E+000
  0.000000000000000E+000
  0.000000000000000E+000
  0.000000000000000E+000
  0.000000000000000E+000
  0.000000000000000E+000
  0.000000000000000E+000
  0.000000000000000E+000
  0.000000000000000E+000
  0.000000000000000E+000
  0.000000000000000E+000
  0.000000000000000E+000
  0.000000000000000E+000
  0.000000000000000E+000
  0.000000000000000E+000
  0.000000000000000E+000
  0.000000000000000E+000
  0.000000000000000E+000
  0.000000000000000E+000
  0.000000000000000E+000
  0.000000000000000E+000
  0.000000000000000E+000
  0.000000000000000E+000
  0.000000000000000E+000
  0.000000000000000E+000
  0.000000000000000E+000
  0.000000000000000E+000
  0.000000000000000E+000
  0.000000000000000E+000
  0.000000000000000E+000
  0.000000000000000E+000
  0.000000000000000E+000
  0.000000000000000E+000
  0.000000000000000E+000
  0.000000000000000E+000
  0.000000000000000E+000
  0.000000000000000E+000
  0.000000000000000E+000
  0.000000000000000E+000
  0.000000000000000E+000
  0.000000000000000E+000
  0.000000000000000E+000
  0.000000000000000E+000
  0.000000000000000E+000
  0.000000000000000E+000
  0.000000000000000E+000
  0.000000000000000E+000
  0.000000000000000E+000
  0.000000000000000E+000
  0.000000000000000E+000
  0.000000000000000E+000
  0.000000000000000E+000
  0.000000000000000E+000
  0.000000000000000E+000
  0.000000000000000E+000
  0.000000000000000E+000
  0.000000000000000E+000
  0.000000000000000E+000
  0.000000000000000E+000
  0.000000000000000E+000
  0.000000000000000E+000
  0.000000000000000E+000
  0.000000000000000E+000
  0.000000000000000E+000
  0.000000000000000E+000
  0.000000000000000E+000
  0.000000000000000E+000
  0.000000000000000E+000
  0.000000000000000E+000
  0.000000000000000E+000
  0.000000000000000E+000
  0.000000000000000E+000
  0.000000000000000E+000
  0.000000000000000E+000
  0.000000000000000E+000
  0.000000000000000E+000
  0.000000000000000E+000
  0.000000000000000E+000
  0.000000000000000E+000
  0.000000000000000E+000
  0.000000000000000E+000
  0.000000000000000E+000
  0.000000000000000E+000
  0.000000000000000E+000
  0.000000000000000E+000
  0.000000000000000E+000
  0.000000000000000E+000
  0.000000000000000E+000
  0.000000000000000E+000
  0.000000000000000E+000
  0.000000000000000E+000
  0.000000000000000E+000
  0.000000000000000E+000
  0.000000000000000E+000
  0.000000000000000E+000
  0.000000000000000E+000
  0.000000000000000E+000
  0.000000000000000E+000
  0.000000000000000E+000
  0.000000000000000E+000
  0.000000000000000E+000
  0.000000000000000E+000
  0.000000000000000E+000
  0.000000000000000E+000
  0.000000000000000E+000
  0.000000000000000E+000
  0.000000000000000E+000
  0.000000000000000E+000
  0.000000000000000E+000
  0.000000000000000E+000
  0.000000000000000E+000
  0.000000000000000E+000
  0.000000000000000E+000
  0.000000000000000E+000
  0.000000000000000E+000
  0.000000000000000E+000
  0.000000000000000E+000
  0.000000000000000E+000
  0.000000000000000E+000
  0.000000000000000E+000
  0.000000000000000E+000
  0.000000000000000E+000
  0.000000000000000E+000
  0.000000000000000E+000
  0.000000000000000E+000
  0.000000000000000E+000
  0.000000000000000E+000
  0.000000000000000E+000
  0.000000000000000E+000
  0.000000000000000E+000
  0.000000000000000E+000
  0.000000000000000E+000
  0.000000000000000E+000
  0.000000000000000E+000
  0.000000000000000E+000
  0.000000000000000E+000
  0.000000000000000E+000
  0.000000000000000E+000
  0.000000000000000E+000
  0.000000000000000E+000
  0.000000000000000E+000
  0.000000000000000E+000
  0.000000000000000E+000
  0.000000000000000E+000
  0.000000000000000E+000
  0.000000000000000E+000
  0.000000000000000E+000
  0.000000000000000E+000
  0.000000000000000E+000
  0.000000000000000E+000
  0.000000000000000E+000
  0.000000000000000E+000
  0.000000000000000E+000
  0.000000000000000E+000
  0.000000000000000E+000
  0.000000000000000E+000
  0.000000000000000E+000
  0.000000000000000E+000
  0.000000000000000E+000
  0.000000000000000E+000
  0.000000000000000E+000
  0.000000000000000E+000
  0.000000000000000E+000
  0.000000000000000E+000
  0.000000000000000E+000
  0.000000000000000E+000
  0.000000000000000E+000
  0.000000000000000E+000
  0.000000000000000E+000
  0.000000000000000E+000
  0.000000000000000E+000
  0.000000000000000E+000
  0.000000000000000E+000
  0.000000000000000E+000
  0.000000000000000E+000
  0.000000000000000E+000
  0.000000000000000E+000
  0.000000000000000E+000
  0.000000000000000E+000
  0.000000000000000E+000
  0.000000000000000E+000
  0.000000000000000E+000
  0.000000000000000E+000
  0.000000000000000E+000
  0.000000000000000E+000
  0.000000000000000E+000
  0.000000000000000E+000
  0.000000000000000E+000
  0.000000000000000E+000
  0.000000000000000E+000
  0.000000000000000E+000
  0.000000000000000E+000
  0.000000000000000E+000
  0.000000000000000E+000
  0.000000000000000E+000
  0.000000000000000E+000
  0.000000000000000E+000
  0.000000000000000E+000
  0.000000000000000E+000
  0.000000000000000E+000
  0.000000000000000E+000
  0.000000000000000E+000
  0.000000000000000E+000
  0.000000000000000E+000
  0.000000000000000E+000
  0.000000000000000E+000
  0.000000000000000E+000
  0.000000000000000E+000
  0.000000000000000E+000
  0.000000000000000E+000
  0.000000000000000E+000
  0.000000000000000E+000
  0.000000000000000E+000
  0.000000000000000E+000
  0.000000000000000E+000
  0.000000000000000E+000
  0.000000000000000E+000
  0.000000000000000E+000
  0.000000000000000E+000
  0.000000000000000E+000
  0.000000000000000E+000
  0.000000000000000E+000
  0.000000000000000E+000
  0.000000000000000E+000
  0.000000000000000E+000
  0.000000000000000E+000
  0.000000000000000E+000
  0.000000000000000E+000
  0.000000000000000E+000
  0.000000000000000E+000
  0.000000000000000E+000
  0.000000000000000E+000
  0.000000000000000E+000
  0.000000000000000E+000
  0.000000000000000E+000
  0.000000000000000E+000
  0.000000000000000E+000
  0.000000000000000E+000
  0.000000000000000E+000
  0.000000000000000E+000
  0.000000000000000E+000
  0.000000000000000E+000
  0.000000000000000E+000
  0.000000000000000E+000
  0.000000000000000E+000
  0.000000000000000E+000
  0.000000000000000E+000
  0.000000000000000E+000
  0.000000000000000E+000
  0.000000000000000E+000
  0.000000000000000E+000
  0.000000000000000E+000
  0.000000000000000E+000
  0.000000000000000E+000
  0.000000000000000E+000
  0.000000000000000E+000
  0.000000000000000E+000
  0.000000000000000E+000
  0.000000000000000E+000
  0.000000000000000E+000
  0.000000000000000E+000
  0.000000000000000E+000
  0.000000000000000E+000
  0.000000000000000E+000
  0.000000000000000E+000
  0.000000000000000E+000
  0.000000000000000E+000
  0.000000000000000E+000
  0.000000000000000E+000
  0.000000000000000E+000
  0.000000000000000E+000
  0.000000000000000E+000
  0.000000000000000E+000
  0.000000000000000E+000
  0.000000000000000E+000
  0.000000000000000E+000
  0.000000000000000E+000
  0.000000000000000E+000
  0.000000000000000E+000
  0.000000000000000E+000
  0.000000000000000E+000
  0.000000000000000E+000
  0.000000000000000E+000
  0.000000000000000E+000
  0.000000000000000E+000
  0.000000000000000E+000
  0.000000000000000E+000
  0.000000000000000E+000
  0.000000000000000E+000
  0.000000000000000E+000
  0.000000000000000E+000
  0.000000000000000E+000
  0.000000000000000E+000
  0.000000000000000E+000
  0.000000000000000E+000
  0.000000000000000E+000
  0.000000000000000E+000
  0.000000000000000E+000
  0.000000000000000E+000
  0.000000000000000E+000
  0.000000000000000E+000
  0.000000000000000E+000
  0.000000000000000E+000
  0.000000000000000E+000
  0.000000000000000E+000
  0.000000000000000E+000
  0.000000000000000E+000
  0.000000000000000E+000
  0.000000000000000E+000
  0.000000000000000E+000
  0.000000000000000E+000
  0.000000000000000E+000
  0.000000000000000E+000
  0.000000000000000E+000
  0.000000000000000E+000
  0.000000000000000E+000
  0.000000000000000E+000
  0.000000000000000E+000
  0.000000000000000E+000
  0.000000000000000E+000
  0.000000000000000E+000
  0.000000000000000E+000
  0.000000000000000E+000
  0.000000000000000E+000
  0.000000000000000E+000
  0.000000000000000E+000
  0.000000000000000E+000
  0.000000000000000E+000
  0.000000000000000E+000
  0.000000000000000E+000
  0.000000000000000E+000
  0.000000000000000E+000
  0.000000000000000E+000
  0.000000000000000E+000
  0.000000000000000E+000
  0.000000000000000E+000
  0.000000000000000E+000
  0.000000000000000E+000
  0.000000000000000E+000
  0.000000000000000E+000
  0.000000000000000E+000
  0.000000000000000E+000
  0.000000000000000E+000
  0.000000000000000E+000
  0.000000000000000E+000
  0.000000000000000E+000
  0.000000000000000E+000
  0.000000000000000E+000
  0.000000000000000E+000
  0.000000000000000E+000
  0.000000000000000E+000
  0.000000000000000E+000
  0.000000000000000E+000
  0.000000000000000E+000
  0.000000000000000E+000
  0.000000000000000E+000
  0.000000000000000E+000
  0.000000000000000E+000
  0.000000000000000E+000
  0.000000000000000E+000
  0.000000000000000E+000
  0.000000000000000E+000
  0.000000000000000E+000
  0.000000000000000E+000
  0.000000000000000E+000
  0.000000000000000E+000
  0.000000000000000E+000
  0.000000000000000E+000
  0.000000000000000E+000
  0.000000000000000E+000
  0.000000000000000E+000
  0.000000000000000E+000
  0.000000000000000E+000
  0.000000000000000E+000
  0.000000000000000E+000
  0.000000000000000E+000
  0.000000000000000E+000
  0.000000000000000E+000
  0.000000000000000E+000
  0.000000000000000E+000
  0.000000000000000E+000
  0.000000000000000E+000
  0.000000000000000E+000
  0.000000000000000E+000
  0.000000000000000E+000
  0.000000000000000E+000
  0.000000000000000E+000
  0.000000000000000E+000
  0.000000000000000E+000
  0.000000000000000E+000
  0.000000000000000E+000
  0.000000000000000E+000
  0.000000000000000E+000
  0.000000000000000E+000
  0.000000000000000E+000
  0.000000000000000E+000
  0.000000000000000E+000
  0.000000000000000E+000
  0.000000000000000E+000
  0.000000000000000E+000
  0.000000000000000E+000
  0.000000000000000E+000
  0.000000000000000E+000
  0.000000000000000E+000
  0.000000000000000E+000
  0.000000000000000E+000
  0.000000000000000E+000
  0.000000000000000E+000
  0.000000000000000E+000
  0.000000000000000E+000
  0.000000000000000E+000
  0.000000000000000E+000
  0.000000000000000E+000
  0.000000000000000E+000
  0.000000000000000E+000
  0.000000000000000E+000
  0.000000000000000E+000
  0.000000000000000E+000
  0.000000000000000E+000
  0.000000000000000E+000
  0.000000000000000E+000
  0.000000000000000E+000
  0.000000000000000E+000
  0.000000000000000E+000
  0.000000000000000E+000
  0.000000000000000E+000
  0.000000000000000E+000
  0.000000000000000E+000
  0.000000000000000E+000
  0.000000000000000E+000
  0.000000000000000E+000
  0.000000000000000E+000
  0.000000000000000E+000
  0.000000000000000E+000
  0.000000000000000E+000
  0.000000000000000E+000
  0.000000000000000E+000
  0.000000000000000E+000
  0.000000000000000E+000
  0.000000000000000E+000
  0.000000000000000E+000
  0.000000000000000E+000
  0.000000000000000E+000
  0.000000000000000E+000
  0.000000000000000E+000
  0.000000000000000E+000
  0.000000000000000E+000
  0.000000000000000E+000
  0.000000000000000E+000
  0.000000000000000E+000
  0.000000000000000E+000
  0.000000000000000E+000
  0.000000000000000E+000
  0.000000000000000E+000
  0.000000000000000E+000
  0.000000000000000E+000
  0.000000000000000E+000
  0.000000000000000E+000
  0.000000000000000E+000
  0.000000000000000E+000
  0.000000000000000E+000
  0.000000000000000E+000
  0.000000000000000E+000
  0.000000000000000E+000
  0.000000000000000E+000
  0.000000000000000E+000
  0.000000000000000E+000
  0.000000000000000E+000
  0.000000000000000E+000
  0.000000000000000E+000
  0.000000000000000E+000
  0.000000000000000E+000
  0.000000000000000E+000
  0.000000000000000E+000
  0.000000000000000E+000
  0.000000000000000E+000
  0.000000000000000E+000
  0.000000000000000E+000
  0.000000000000000E+000
  0.000000000000000E+000
  0.000000000000000E+000
  0.000000000000000E+000
  0.000000000000000E+000
  0.000000000000000E+000
  0.000000000000000E+000
  0.000000000000000E+000
  0.000000000000000E+000
  0.000000000000000E+000
  0.000000000000000E+000
  0.000000000000000E+000
  0.000000000000000E+000
  0.000000000000000E+000
  0.000000000000000E+000
  0.000000000000000E+000
  0.000000000000000E+000
  0.000000000000000E+000
  0.000000000000000E+000
  0.000000000000000E+000
  0.000000000000000E+000
  0.000000000000000E+000
  0.000000000000000E+000
  0.000000000000000E+000
  0.000000000000000E+000
  0.000000000000000E+000
  0.000000000000000E+000
  0.000000000000000E+000
  0.000000000000000E+000
  0.000000000000000E+000
  0.000000000000000E+000
  0.000000000000000E+000
  0.000000000000000E+000
  0.000000000000000E+000
  0.000000000000000E+000
  0.000000000000000E+000
  0.000000000000000E+000
  0.000000000000000E+000
  0.000000000000000E+000
  0.000000000000000E+000
  0.000000000000000E+000
  0.000000000000000E+000
  0.000000000000000E+000
  0.000000000000000E+000
  0.000000000000000E+000
  0.000000000000000E+000
  0.000000000000000E+000
  0.000000000000000E+000
  0.000000000000000E+000
  0.000000000000000E+000
  0.000000000000000E+000
  0.000000000000000E+000
  0.000000000000000E+000
  0.000000000000000E+000
  0.000000000000000E+000
  0.000000000000000E+000
  0.000000000000000E+000
  0.000000000000000E+000
  0.000000000000000E+000
  0.000000000000000E+000
  0.000000000000000E+000
  0.000000000000000E+000
  0.000000000000000E+000
  0.000000000000000E+000
  0.000000000000000E+000
  0.000000000000000E+000
  0.000000000000000E+000
  0.000000000000000E+000
  0.000000000000000E+000
  0.000000000000000E+000
  0.000000000000000E+000
  0.000000000000000E+000
  0.000000000000000E+000
  0.000000000000000E+000
  0.000000000000000E+000
  0.000000000000000E+000
  0.000000000000000E+000
  0.000000000000000E+000
  0.000000000000000E+000
  0.000000000000000E+000
  0.000000000000000E+000
  0.000000000000000E+000
  0.000000000000000E+000
  0.000000000000000E+000
  0.000000000000000E+000
  0.000000000000000E+000
  0.000000000000000E+000
  0.000000000000000E+000
  0.000000000000000E+000
  0.000000000000000E+000
  0.000000000000000E+000
  0.000000000000000E+000
  0.000000000000000E+000
  0.000000000000000E+000
  0.000000000000000E+000
  0.000000000000000E+000
  0.000000000000000E+000
  0.000000000000000E+000
  0.000000000000000E+000
  0.000000000000000E+000
  0.000000000000000E+000
  0.000000000000000E+000
  0.000000000000000E+000
  0.000000000000000E+000
  0.000000000000000E+000
  0.000000000000000E+000
  0.000000000000000E+000
  0.000000000000000E+000
  0.000000000000000E+000
  0.000000000000000E+000
  0.000000000000000E+000
  0.000000000000000E+000
  0.000000000000000E+000
  0.000000000000000E+000
  0.000000000000000E+000
  0.000000000000000E+000
  0.000000000000000E+000
  0.000000000000000E+000
  0.000000000000000E+000
  0.000000000000000E+000
  0.000000000000000E+000
  0.000000000000000E+000
  0.000000000000000E+000
  0.000000000000000E+000
  0.000000000000000E+000
  0.000000000000000E+000
  0.000000000000000E+000
  0.000000000000000E+000
  0.000000000000000E+000
  0.000000000000000E+000
  0.000000000000000E+000
  0.000000000000000E+000
  0.000000000000000E+000
  0.000000000000000E+000
  0.000000000000000E+000
  0.000000000000000E+000
  0.000000000000000E+000
  0.000000000000000E+000
  0.000000000000000E+000
  0.000000000000000E+000
  0.000000000000000E+000
  0.000000000000000E+000
  0.000000000000000E+000
  0.000000000000000E+000
  0.000000000000000E+000
  0.000000000000000E+000
  0.000000000000000E+000
  0.000000000000000E+000
  0.000000000000000E+000
  0.000000000000000E+000
  0.000000000000000E+000
  0.000000000000000E+000
  0.000000000000000E+000
  0.000000000000000E+000
  0.000000000000000E+000
  0.000000000000000E+000
  0.000000000000000E+000
  0.000000000000000E+000
  0.000000000000000E+000
  0.000000000000000E+000
  0.000000000000000E+000
  0.000000000000000E+000
  0.000000000000000E+000
  0.000000000000000E+000
  0.000000000000000E+000
  0.000000000000000E+000
  0.000000000000000E+000
  0.000000000000000E+000
  0.000000000000000E+000
  0.000000000000000E+000
  0.000000000000000E+000
  0.000000000000000E+000
  0.000000000000000E+000
  0.000000000000000E+000
  0.000000000000000E+000
  0.000000000000000E+000
  0.000000000000000E+000
  0.000000000000000E+000
  0.000000000000000E+000
  0.000000000000000E+000
  0.000000000000000E+000
  0.000000000000000E+000
  0.000000000000000E+000
  0.000000000000000E+000
  0.000000000000000E+000
  0.000000000000000E+000
  0.000000000000000E+000
  0.000000000000000E+000
  0.000000000000000E+000
  0.000000000000000E+000
  0.000000000000000E+000
  0.000000000000000E+000
  0.000000000000000E+000
  0.000000000000000E+000
  0.000000000000000E+000
  0.000000000000000E+000
  0.000000000000000E+000
  0.000000000000000E+000
  0.000000000000000E+000
  0.000000000000000E+000
  0.000000000000000E+000
  0.000000000000000E+000
  0.000000000000000E+000
  0.000000000000000E+000
  0.000000000000000E+000
  0.000000000000000E+000
  0.000000000000000E+000
  0.000000000000000E+000
  0.000000000000000E+000
  0.000000000000000E+000
  0.000000000000000E+000
  0.000000000000000E+000
  0.000000000000000E+000
  0.000000000000000E+000
  0.000000000000000E+000
  0.000000000000000E+000
  0.000000000000000E+000
  0.000000000000000E+000
  0.000000000000000E+000
  0.000000000000000E+000
  0.000000000000000E+000
  0.000000000000000E+000
  0.000000000000000E+000
  0.000000000000000E+000
  0.000000000000000E+000
  0.000000000000000E+000
  0.000000000000000E+000
  0.000000000000000E+000
  0.000000000000000E+000
  0.000000000000000E+000
  0.000000000000000E+000
  0.000000000000000E+000
  0.000000000000000E+000
  0.000000000000000E+000
  0.000000000000000E+000
  0.000000000000000E+000
  0.000000000000000E+000
  0.000000000000000E+000
  0.000000000000000E+000
  0.000000000000000E+000
  0.000000000000000E+000
  0.000000000000000E+000
  0.000000000000000E+000
  0.000000000000000E+000
  0.000000000000000E+000
  0.000000000000000E+000
  0.000000000000000E+000
  0.000000000000000E+000
  0.000000000000000E+000
  0.000000000000000E+000
  0.000000000000000E+000
  0.000000000000000E+000
  0.000000000000000E+000
  0.000000000000000E+000
  0.000000000000000E+000
  0.000000000000000E+000
  0.000000000000000E+000
  0.000000000000000E+000
  0.000000000000000E+000
  0.000000000000000E+000
  0.000000000000000E+000
  0.000000000000000E+000
  0.000000000000000E+000
  0.000000000000000E+000
  0.000000000000000E+000
  0.000000000000000E+000
  0.000000000000000E+000
  0.000000000000000E+000
  0.000000000000000E+000
  0.000000000000000E+000
  0.000000000000000E+000
  0.000000000000000E+000
  0.000000000000000E+000
  0.000000000000000E+000
  0.000000000000000E+000
  0.000000000000000E+000
  0.000000000000000E+000
  0.000000000000000E+000
  0.000000000000000E+000
  0.000000000000000E+000
  0.000000000000000E+000
  0.000000000000000E+000
  0.000000000000000E+000
  0.000000000000000E+000
  0.000000000000000E+000
  0.000000000000000E+000
  0.000000000000000E+000
  0.000000000000000E+000
  0.000000000000000E+000
  0.000000000000000E+000
  0.000000000000000E+000
  0.000000000000000E+000
  0.000000000000000E+000
  0.000000000000000E+000
  0.000000000000000E+000
  0.000000000000000E+000
  0.000000000000000E+000
  0.000000000000000E+000
  0.000000000000000E+000
  0.000000000000000E+000
  0.000000000000000E+000
  0.000000000000000E+000
  0.000000000000000E+000
  0.000000000000000E+000
  0.000000000000000E+000
  0.000000000000000E+000
  0.000000000000000E+000
  0.000000000000000E+000
  0.000000000000000E+000
  0.000000000000000E+000
  0.000000000000000E+000
  0.000000000000000E+000
  0.000000000000000E+000
  0.000000000000000E+000
  0.000000000000000E+000
  0.000000000000000E+000
  0.000000000000000E+000
  0.000000000000000E+000
  0.000000000000000E+000
  0.000000000000000E+000
  0.000000000000000E+000
  0.000000000000000E+000
  0.000000000000000E+000
  0.000000000000000E+000
  0.000000000000000E+000
  0.000000000000000E+000
  0.000000000000000E+000
  0.000000000000000E+000
  0.000000000000000E+000
  0.000000000000000E+000
  0.000000000000000E+000
  0.000000000000000E+000
  0.000000000000000E+000
  0.000000000000000E+000
  0.000000000000000E+000
  0.000000000000000E+000
  0.000000000000000E+000
  0.000000000000000E+000
  0.000000000000000E+000
  0.000000000000000E+000
  0.000000000000000E+000
  0.000000000000000E+000
  0.000000000000000E+000
  0.000000000000000E+000
  0.000000000000000E+000
  0.000000000000000E+000
  0.000000000000000E+000
  0.000000000000000E+000
  0.000000000000000E+000
  0.000000000000000E+000
  0.000000000000000E+000
  0.000000000000000E+000
  0.000000000000000E+000
  0.000000000000000E+000
  0.000000000000000E+000
  0.000000000000000E+000
  0.000000000000000E+000
  0.000000000000000E+000
  0.000000000000000E+000
  0.000000000000000E+000
  0.000000000000000E+000
  0.000000000000000E+000
  0.000000000000000E+000
  0.000000000000000E+000
  0.000000000000000E+000
  0.000000000000000E+000
  0.000000000000000E+000
  0.000000000000000E+000
  0.000000000000000E+000
  0.000000000000000E+000
  0.000000000000000E+000
  0.000000000000000E+000
  0.000000000000000E+000
  0.000000000000000E+000
  0.000000000000000E+000
  0.000000000000000E+000
  0.000000000000000E+000
  0.000000000000000E+000
  0.000000000000000E+000
  0.000000000000000E+000
  0.000000000000000E+000
  0.000000000000000E+000
  0.000000000000000E+000
  0.000000000000000E+000
  0.000000000000000E+000
  0.000000000000000E+000
  0.000000000000000E+000
  0.000000000000000E+000
  0.000000000000000E+000
  0.000000000000000E+000
  0.000000000000000E+000
  0.000000000000000E+000
  0.000000000000000E+000
  0.000000000000000E+000
  0.000000000000000E+000
  0.000000000000000E+000
  0.000000000000000E+000
  0.000000000000000E+000
  0.000000000000000E+000
  0.000000000000000E+000
  0.000000000000000E+000
  0.000000000000000E+000
  0.000000000000000E+000
  0.000000000000000E+000
  0.000000000000000E+000
  0.000000000000000E+000
  0.000000000000000E+000
  0.000000000000000E+000
  0.000000000000000E+000
  0.000000000000000E+000
  0.000000000000000E+000
  0.000000000000000E+000
  0.000000000000000E+000
  0.000000000000000E+000
  0.000000000000000E+000
  0.000000000000000E+000
  0.000000000000000E+000
  0.000000000000000E+000
  0.000000000000000E+000
  0.000000000000000E+000
  0.000000000000000E+000
  0.000000000000000E+000
  0.000000000000000E+000
  0.000000000000000E+000
  0.000000000000000E+000
  0.000000000000000E+000
  0.000000000000000E+000
  0.000000000000000E+000
  0.000000000000000E+000
  0.000000000000000E+000
  0.000000000000000E+000
  0.000000000000000E+000
  0.000000000000000E+000
  0.000000000000000E+000
  0.000000000000000E+000
  0.000000000000000E+000
  0.000000000000000E+000
  0.000000000000000E+000
  0.000000000000000E+000
  0.000000000000000E+000
  0.000000000000000E+000
  0.000000000000000E+000
  0.000000000000000E+000
  0.000000000000000E+000
  0.000000000000000E+000
  0.000000000000000E+000
  0.000000000000000E+000
  0.000000000000000E+000
  0.000000000000000E+000
  0.000000000000000E+000
  0.000000000000000E+000
  0.000000000000000E+000
  0.000000000000000E+000
  0.000000000000000E+000
  0.000000000000000E+000
  0.000000000000000E+000
  0.000000000000000E+000
  0.000000000000000E+000
  0.000000000000000E+000
  0.000000000000000E+000
  0.000000000000000E+000
  0.000000000000000E+000
  0.000000000000000E+000
  0.000000000000000E+000
  0.000000000000000E+000
  0.000000000000000E+000
  0.000000000000000E+000
  0.000000000000000E+000
  0.000000000000000E+000
  0.000000000000000E+000
  0.000000000000000E+000
  0.000000000000000E+000
  0.000000000000000E+000
  0.000000000000000E+000
  0.000000000000000E+000
  0.000000000000000E+000
  0.000000000000000E+000
  0.000000000000000E+000
  0.000000000000000E+000
  0.000000000000000E+000
  0.000000000000000E+000
  0.000000000000000E+000
  0.000000000000000E+000
  0.000000000000000E+000
  0.000000000000000E+000
  0.000000000000000E+000
  0.000000000000000E+000
  0.000000000000000E+000
  0.000000000000000E+000
  0.000000000000000E+000
  0.000000000000000E+000
  0.000000000000000E+000
  0.000000000000000E+000
  0.000000000000000E+000
  0.000000000000000E+000
  0.000000000000000E+000
  0.000000000000000E+000
  0.000000000000000E+000
  0.000000000000000E+000
  0.000000000000000E+000
  0.000000000000000E+000
  0.000000000000000E+000
  0.000000000000000E+000
  0.000000000000000E+000
  0.000000000000000E+000
  0.000000000000000E+000
  0.000000000000000E+000
  0.000000000000000E+000
  0.000000000000000E+000
  0.000000000000000E+000
  0.000000000000000E+000
  0.000000000000000E+000
  0.000000000000000E+000
  0.000000000000000E+000
  0.000000000000000E+000
  0.000000000000000E+000
  0.000000000000000E+000
  0.000000000000000E+000
  0.000000000000000E+000
  0.000000000000000E+000
  0.000000000000000E+000
  0.000000000000000E+000
  0.000000000000000E+000
  0.000000000000000E+000
  0.000000000000000E+000
  0.000000000000000E+000
  0.000000000000000E+000
  0.000000000000000E+000
  0.000000000000000E+000
  0.000000000000000E+000
  0.000000000000000E+000
  0.000000000000000E+000
  0.000000000000000E+000
  0.000000000000000E+000
  0.000000000000000E+000
  0.000000000000000E+000
  0.000000000000000E+000
  0.000000000000000E+000
  0.000000000000000E+000
  0.000000000000000E+000
  0.000000000000000E+000
  0.000000000000000E+000
  0.000000000000000E+000
  0.000000000000000E+000
  0.000000000000000E+000
  0.000000000000000E+000
  0.000000000000000E+000
  0.000000000000000E+000
  0.000000000000000E+000
  0.000000000000000E+000
  0.000000000000000E+000
  0.000000000000000E+000
  0.000000000000000E+000
  0.000000000000000E+000
  0.000000000000000E+000
  0.000000000000000E+000
  0.000000000000000E+000
  0.000000000000000E+000
  0.000000000000000E+000
  0.000000000000000E+000
  0.000000000000000E+000
  0.000000000000000E+000
  0.000000000000000E+000
  0.000000000000000E+000
  0.000000000000000E+000
  0.000000000000000E+000
  0.000000000000000E+000
  0.000000000000000E+000
  0.000000000000000E+000
  0.000000000000000E+000
  0.000000000000000E+000
  0.000000000000000E+000
  0.000000000000000E+000
  0.000000000000000E+000
  0.000000000000000E+000
  0.000000000000000E+000
  0.000000000000000E+000
  0.000000000000000E+000
  0.000000000000000E+000
  0.000000000000000E+000
  0.000000000000000E+000
  0.000000000000000E+000
  0.000000000000000E+000
  0.000000000000000E+000
  0.000000000000000E+000
  0.000000000000000E+000
  0.000000000000000E+000
  0.000000000000000E+000
  0.000000000000000E+000
  0.000000000000000E+000
  0.000000000000000E+000
  0.000000000000000E+000
  0.000000000000000E+000
  0.000000000000000E+000
  0.000000000000000E+000
  0.000000000000000E+000
  0.000000000000000E+000
  0.000000000000000E+000
  0.000000000000000E+000
  0.000000000000000E+000
  0.000000000000000E+000
  0.000000000000000E+000
  0.000000000000000E+000
  0.000000000000000E+000
  0.000000000000000E+000
  0.000000000000000E+000
  0.000000000000000E+000
  0.000000000000000E+000
  0.000000000000000E+000
  0.000000000000000E+000
  0.000000000000000E+000
  0.000000000000000E+000
  0.000000000000000E+000
  0.000000000000000E+000
  0.000000000000000E+000
  0.000000000000000E+000
  0.000000000000000E+000
  0.000000000000000E+000
  0.000000000000000E+000
  0.000000000000000E+000
  0.000000000000000E+000
  0.000000000000000E+000
  0.000000000000000E+000
  0.000000000000000E+000
  0.000000000000000E+000
  0.000000000000000E+000
  0.000000000000000E+000
  0.000000000000000E+000
  0.000000000000000E+000
  0.000000000000000E+000
  0.000000000000000E+000
  0.000000000000000E+000
  0.000000000000000E+000
  0.000000000000000E+000
  0.000000000000000E+000
  0.000000000000000E+000
  0.000000000000000E+000
  0.000000000000000E+000
  0.000000000000000E+000
  0.000000000000000E+000
  0.000000000000000E+000
  0.000000000000000E+000
  0.000000000000000E+000
  0.000000000000000E+000
  0.000000000000000E+000
  0.000000000000000E+000
  0.000000000000000E+000
  0.000000000000000E+000
  0.000000000000000E+000
  0.000000000000000E+000
  0.000000000000000E+000
  0.000000000000000E+000
  0.000000000000000E+000
  0.000000000000000E+000
  0.000000000000000E+000
  0.000000000000000E+000
  0.000000000000000E+000
  0.000000000000000E+000
  0.000000000000000E+000
  0.000000000000000E+000
  0.000000000000000E+000
  0.000000000000000E+000
  0.000000000000000E+000
  0.000000000000000E+000
  0.000000000000000E+000
  0.000000000000000E+000
  0.000000000000000E+000
  0.000000000000000E+000
  0.000000000000000E+000
  0.000000000000000E+000
  0.000000000000000E+000
  0.000000000000000E+000
  0.000000000000000E+000
  0.000000000000000E+000
  0.000000000000000E+000
  0.000000000000000E+000
  0.000000000000000E+000
  0.000000000000000E+000
  0.000000000000000E+000
  0.000000000000000E+000
  0.000000000000000E+000
  0.000000000000000E+000
  0.000000000000000E+000
  0.000000000000000E+000
  0.000000000000000E+000
  0.000000000000000E+000
  0.000000000000000E+000
  0.000000000000000E+000
  0.000000000000000E+000
  0.000000000000000E+000
  0.000000000000000E+000
  0.000000000000000E+000
  0.000000000000000E+000
  0.000000000000000E+000
  0.000000000000000E+000
  0.000000000000000E+000
  0.000000000000000E+000
  0.000000000000000E+000
  0.000000000000000E+000
  0.000000000000000E+000
  0.000000000000000E+000
  0.000000000000000E+000
  0.000000000000000E+000
  0.000000000000000E+000
  0.000000000000000E+000
  0.000000000000000E+000
  0.000000000000000E+000
  0.000000000000000E+000
  0.000000000000000E+000
  0.000000000000000E+000
  0.000000000000000E+000
  0.000000000000000E+000
  0.000000000000000E+000
  0.000000000000000E+000
  0.000000000000000E+000
  0.000000000000000E+000
  0.000000000000000E+000
  0.000000000000000E+000
  0.000000000000000E+000
  0.000000000000000E+000
  0.000000000000000E+000
  0.000000000000000E+000
  0.000000000000000E+000
  0.000000000000000E+000
  0.000000000000000E+000
  0.000000000000000E+000
  0.000000000000000E+000
  0.000000000000000E+000
  0.000000000000000E+000
  0.000000000000000E+000
  0.000000000000000E+000
  0.000000000000000E+000
  0.000000000000000E+000
  0.000000000000000E+000
  0.000000000000000E+000
  0.000000000000000E+000
  0.000000000000000E+000
  0.000000000000000E+000
  0.000000000000000E+000
  0.000000000000000E+000
  0.000000000000000E+000
  0.000000000000000E+000
  0.000000000000000E+000
  0.000000000000000E+000
  0.000000000000000E+000
  0.000000000000000E+000
  0.000000000000000E+000
  0.000000000000000E+000
  0.000000000000000E+000
  0.000000000000000E+000
  0.000000000000000E+000
  0.000000000000000E+000
  0.000000000000000E+000
  0.000000000000000E+000
  0.000000000000000E+000
  0.000000000000000E+000
  0.000000000000000E+000
  0.000000000000000E+000
  0.000000000000000E+000
  0.000000000000000E+000
  0.000000000000000E+000
  0.000000000000000E+000
  0.000000000000000E+000
  0.000000000000000E+000
  0.000000000000000E+000
  0.000000000000000E+000
  0.000000000000000E+000
  0.000000000000000E+000
  0.000000000000000E+000
  0.000000000000000E+000
  0.000000000000000E+000
  0.000000000000000E+000
  0.000000000000000E+000
  0.000000000000000E+000
  0.000000000000000E+000
  0.000000000000000E+000
  0.000000000000000E+000
  0.000000000000000E+000
  0.000000000000000E+000
  0.000000000000000E+000
  0.000000000000000E+000
  0.000000000000000E+000
  0.000000000000000E+000
  0.000000000000000E+000
  0.000000000000000E+000
  0.000000000000000E+000
  0.000000000000000E+000
  0.000000000000000E+000
  0.000000000000000E+000
  0.000000000000000E+000
  0.000000000000000E+000
  0.000000000000000E+000
  0.000000000000000E+000
  0.000000000000000E+000
  0.000000000000000E+000
  0.000000000000000E+000
  0.000000000000000E+000
  0.000000000000000E+000
  0.000000000000000E+000
  0.000000000000000E+000
  0.000000000000000E+000
  0.000000000000000E+000
  0.000000000000000E+000
  0.000000000000000E+000
  0.000000000000000E+000
  0.000000000000000E+000
  0.000000000000000E+000
  0.000000000000000E+000
  0.000000000000000E+000
  0.000000000000000E+000
  0.000000000000000E+000
  0.000000000000000E+000
  0.000000000000000E+000
  0.000000000000000E+000
  0.000000000000000E+000
  0.000000000000000E+000
  0.000000000000000E+000
  0.000000000000000E+000
  0.000000000000000E+000
  0.000000000000000E+000
  0.000000000000000E+000
  0.000000000000000E+000
  0.000000000000000E+000
  0.000000000000000E+000
  0.000000000000000E+000
  0.000000000000000E+000
  0.000000000000000E+000
  0.000000000000000E+000
  0.000000000000000E+000
  0.000000000000000E+000
  0.000000000000000E+000
  0.000000000000000E+000
  0.000000000000000E+000
  0.000000000000000E+000
  0.000000000000000E+000
  0.000000000000000E+000
  0.000000000000000E+000
  0.000000000000000E+000
  0.000000000000000E+000
  0.000000000000000E+000
  0.000000000000000E+000
  0.000000000000000E+000
  0.000000000000000E+000
  0.000000000000000E+000
  0.000000000000000E+000
  0.000000000000000E+000
  0.000000000000000E+000
  0.000000000000000E+000
  0.000000000000000E+000
  0.000000000000000E+000
  0.000000000000000E+000
  0.000000000000000E+000
  0.000000000000000E+000
  0.000000000000000E+000
  0.000000000000000E+000
  0.000000000000000E+000
  0.000000000000000E+000
  0.000000000000000E+000
  0.000000000000000E+000
  0.000000000000000E+000
  0.000000000000000E+000
  0.000000000000000E+000
  0.000000000000000E+000
  0.000000000000000E+000
  0.000000000000000E+000
  0.000000000000000E+000
  0.000000000000000E+000
  0.000000000000000E+000
  0.000000000000000E+000
  0.000000000000000E+000
  0.000000000000000E+000
  0.000000000000000E+000
  0.000000000000000E+000
  0.000000000000000E+000
  0.000000000000000E+000
  0.000000000000000E+000
  0.000000000000000E+000
  0.000000000000000E+000
  0.000000000000000E+000
  0.000000000000000E+000
  0.000000000000000E+000
  0.000000000000000E+000
  0.000000000000000E+000
  0.000000000000000E+000
  0.000000000000000E+000
  0.000000000000000E+000
  0.000000000000000E+000
  0.000000000000000E+000
  0.000000000000000E+000
  0.000000000000000E+000
  0.000000000000000E+000
  0.000000000000000E+000
  0.000000000000000E+000
  0.000000000000000E+000
  0.000000000000000E+000
  0.000000000000000E+000
  0.000000000000000E+000
  0.000000000000000E+000
  0.000000000000000E+000
  0.000000000000000E+000
  0.000000000000000E+000
  0.000000000000000E+000
  0.000000000000000E+000
  0.000000000000000E+000
  0.000000000000000E+000
  0.000000000000000E+000
  0.000000000000000E+000
  0.000000000000000E+000
  0.000000000000000E+000
  0.000000000000000E+000
  0.000000000000000E+000
  0.000000000000000E+000
  0.000000000000000E+000
  0.000000000000000E+000
  0.000000000000000E+000
  0.000000000000000E+000
  0.000000000000000E+000
  0.000000000000000E+000
  0.000000000000000E+000
  0.000000000000000E+000
  0.000000000000000E+000
  0.000000000000000E+000
  0.000000000000000E+000
  0.000000000000000E+000
  0.000000000000000E+000
  0.000000000000000E+000
  0.000000000000000E+000
  0.000000000000000E+000
  0.000000000000000E+000
  0.000000000000000E+000
  0.000000000000000E+000
  0.000000000000000E+000
  0.000000000000000E+000
  0.000000000000000E+000
  0.000000000000000E+000
  0.000000000000000E+000
  0.000000000000000E+000
  0.000000000000000E+000
  0.000000000000000E+000
  0.000000000000000E+000
  0.000000000000000E+000
  0.000000000000000E+000
  0.000000000000000E+000
  0.000000000000000E+000
  0.000000000000000E+000
  0.000000000000000E+000
  0.000000000000000E+000
  0.000000000000000E+000
  0.000000000000000E+000
  0.000000000000000E+000
  0.000000000000000E+000
  0.000000000000000E+000
  0.000000000000000E+000
  0.000000000000000E+000
  0.000000000000000E+000
  0.000000000000000E+000
  0.000000000000000E+000
  0.000000000000000E+000
  0.000000000000000E+000
  0.000000000000000E+000
  0.000000000000000E+000
  0.000000000000000E+000
  0.000000000000000E+000
  0.000000000000000E+000
  0.000000000000000E+000
  0.000000000000000E+000
  0.000000000000000E+000
  0.000000000000000E+000
  0.000000000000000E+000
  0.000000000000000E+000
  0.000000000000000E+000
  0.000000000000000E+000
  0.000000000000000E+000
  0.000000000000000E+000
  0.000000000000000E+000
  0.000000000000000E+000
  0.000000000000000E+000
  0.000000000000000E+000
  0.000000000000000E+000
  0.000000000000000E+000
  0.000000000000000E+000
  0.000000000000000E+000
  0.000000000000000E+000
  0.000000000000000E+000
  0.000000000000000E+000
  0.000000000000000E+000
  0.000000000000000E+000
  0.000000000000000E+000
  0.000000000000000E+000
  0.000000000000000E+000
  0.000000000000000E+000
  0.000000000000000E+000
  0.000000000000000E+000
  0.000000000000000E+000
  0.000000000000000E+000
  0.000000000000000E+000
  0.000000000000000E+000
  0.000000000000000E+000
  0.000000000000000E+000
  0.000000000000000E+000
  0.000000000000000E+000
  0.000000000000000E+000
  0.000000000000000E+000
  0.000000000000000E+000
  0.000000000000000E+000
  0.000000000000000E+000
  0.000000000000000E+000
  0.000000000000000E+000
  0.000000000000000E+000
  0.000000000000000E+000
  0.000000000000000E+000
  0.000000000000000E+000
  0.000000000000000E+000
  0.000000000000000E+000
  0.000000000000000E+000
  0.000000000000000E+000
  0.000000000000000E+000
  0.000000000000000E+000
  0.000000000000000E+000
  0.000000000000000E+000
  0.000000000000000E+000
  0.000000000000000E+000
  0.000000000000000E+000
  0.000000000000000E+000
  0.000000000000000E+000
  0.000000000000000E+000
  0.000000000000000E+000
  0.000000000000000E+000
  0.000000000000000E+000
  0.000000000000000E+000
  0.000000000000000E+000
  0.000000000000000E+000
  0.000000000000000E+000
  0.000000000000000E+000
  0.000000000000000E+000
  0.000000000000000E+000
  0.000000000000000E+000
  0.000000000000000E+000
  0.000000000000000E+000
  0.000000000000000E+000
  0.000000000000000E+000
  0.000000000000000E+000
  0.000000000000000E+000
  0.000000000000000E+000
  0.000000000000000E+000
  0.000000000000000E+000
  0.000000000000000E+000
  0.000000000000000E+000
  0.000000000000000E+000
  0.000000000000000E+000
  0.000000000000000E+000
  0.000000000000000E+000
  0.000000000000000E+000
  0.000000000000000E+000
  0.000000000000000E+000
  0.000000000000000E+000
  0.000000000000000E+000
  0.000000000000000E+000
  0.000000000000000E+000
  0.000000000000000E+000
  0.000000000000000E+000
  0.000000000000000E+000
  0.000000000000000E+000
  0.000000000000000E+000
  0.000000000000000E+000
  0.000000000000000E+000
  0.000000000000000E+000
  0.000000000000000E+000
  0.000000000000000E+000
  0.000000000000000E+000
  0.000000000000000E+000
  0.000000000000000E+000
  0.000000000000000E+000
  0.000000000000000E+000
  0.000000000000000E+000
  0.000000000000000E+000
  0.000000000000000E+000
  0.000000000000000E+000
  0.000000000000000E+000
  0.000000000000000E+000
  0.000000000000000E+000
  0.000000000000000E+000
  0.000000000000000E+000
  0.000000000000000E+000
  0.000000000000000E+000
  0.000000000000000E+000
  0.000000000000000E+000
  0.000000000000000E+000
  0.000000000000000E+000
  0.000000000000000E+000
  0.000000000000000E+000
  0.000000000000000E+000
  0.000000000000000E+000
  0.000000000000000E+000
  0.000000000000000E+000
  0.000000000000000E+000
  0.000000000000000E+000
  0.000000000000000E+000
  0.000000000000000E+000
  0.000000000000000E+000
  0.000000000000000E+000
  0.000000000000000E+000
  0.000000000000000E+000
  0.000000000000000E+000
  0.000000000000000E+000
  0.000000000000000E+000
  0.000000000000000E+000
  0.000000000000000E+000
  0.000000000000000E+000
  0.000000000000000E+000
  0.000000000000000E+000
  0.000000000000000E+000
  0.000000000000000E+000
  0.000000000000000E+000
  0.000000000000000E+000
  0.000000000000000E+000
  0.000000000000000E+000
  0.000000000000000E+000
  0.000000000000000E+000
  0.000000000000000E+000
  0.000000000000000E+000
  0.000000000000000E+000
  0.000000000000000E+000
  0.000000000000000E+000
  0.000000000000000E+000
  0.000000000000000E+000
  0.000000000000000E+000
  0.000000000000000E+000
  0.000000000000000E+000
  0.000000000000000E+000
  0.000000000000000E+000
  0.000000000000000E+000
  0.000000000000000E+000
  0.000000000000000E+000
  0.000000000000000E+000
  0.000000000000000E+000
  0.000000000000000E+000
  0.000000000000000E+000
  0.000000000000000E+000
  0.000000000000000E+000
  0.000000000000000E+000
  0.000000000000000E+000
  0.000000000000000E+000
  0.000000000000000E+000
  0.000000000000000E+000
  0.000000000000000E+000
  0.000000000000000E+000
  0.000000000000000E+000
  0.000000000000000E+000
  0.000000000000000E+000
  0.000000000000000E+000
  0.000000000000000E+000
  0.000000000000000E+000
  0.000000000000000E+000
  0.000000000000000E+000
  0.000000000000000E+000
  0.000000000000000E+000
  0.000000000000000E+000
  0.000000000000000E+000
  0.000000000000000E+000
  0.000000000000000E+000
  0.000000000000000E+000
  0.000000000000000E+000
  0.000000000000000E+000
  0.000000000000000E+000
  0.000000000000000E+000
  0.000000000000000E+000
  0.000000000000000E+000
  0.000000000000000E+000
  0.000000000000000E+000
  0.000000000000000E+000
  0.000000000000000E+000
  0.000000000000000E+000
  0.000000000000000E+000
  0.000000000000000E+000
  0.000000000000000E+000
  0.000000000000000E+000
  0.000000000000000E+000
  0.000000000000000E+000
  0.000000000000000E+000
  0.000000000000000E+000
  0.000000000000000E+000
  0.000000000000000E+000
  0.000000000000000E+000
  0.000000000000000E+000
  0.000000000000000E+000
  0.000000000000000E+000
  0.000000000000000E+000
  0.000000000000000E+000
  0.000000000000000E+000
  0.000000000000000E+000
  0.000000000000000E+000
  0.000000000000000E+000
  0.000000000000000E+000
  0.000000000000000E+000
  0.000000000000000E+000
  0.000000000000000E+000
  0.000000000000000E+000
  0.000000000000000E+000
  0.000000000000000E+000
  0.000000000000000E+000
  0.000000000000000E+000
  0.000000000000000E+000
  0.000000000000000E+000
  0.000000000000000E+000
  0.000000000000000E+000
  0.000000000000000E+000
  0.000000000000000E+000
  0.000000000000000E+000
  0.000000000000000E+000
  0.000000000000000E+000
  0.000000000000000E+000
  0.000000000000000E+000
  0.000000000000000E+000
  0.000000000000000E+000
  0.000000000000000E+000
  0.000000000000000E+000
  0.000000000000000E+000
  0.000000000000000E+000
  0.000000000000000E+000
  0.000000000000000E+000
  0.000000000000000E+000
  0.000000000000000E+000
  0.000000000000000E+000
  0.000000000000000E+000
  0.000000000000000E+000
  0.000000000000000E+000
  0.000000000000000E+000
  0.000000000000000E+000
  0.000000000000000E+000
  0.000000000000000E+000
  0.000000000000000E+000
  0.000000000000000E+000
  0.000000000000000E+000
  0.000000000000000E+000
  0.000000000000000E+000
  0.000000000000000E+000
  0.000000000000000E+000
  0.000000000000000E+000
  0.000000000000000E+000
  0.000000000000000E+000
  0.000000000000000E+000
  0.000000000000000E+000
  0.000000000000000E+000
  0.000000000000000E+000
  0.000000000000000E+000
  0.000000000000000E+000
  0.000000000000000E+000
  0.000000000000000E+000
  0.000000000000000E+000
  0.000000000000000E+000
  0.000000000000000E+000
  0.000000000000000E+000
  0.000000000000000E+000
  0.000000000000000E+000
  0.000000000000000E+000
  0.000000000000000E+000
  0.000000000000000E+000
  0.000000000000000E+000
  0.000000000000000E+000
  0.000000000000000E+000
  0.000000000000000E+000
  0.000000000000000E+000
  0.000000000000000E+000
  0.000000000000000E+000
  0.000000000000000E+000
  0.000000000000000E+000
  0.000000000000000E+000
  0.000000000000000E+000
  0.000000000000000E+000
  0.000000000000000E+000
  0.000000000000000E+000
  0.000000000000000E+000
  0.000000000000000E+000
  0.000000000000000E+000
  0.000000000000000E+000
  0.000000000000000E+000
  0.000000000000000E+000
  0.000000000000000E+000
  0.000000000000000E+000
  0.000000000000000E+000
  0.000000000000000E+000
  0.000000000000000E+000
  0.000000000000000E+000
  0.000000000000000E+000
  0.000000000000000E+000
  0.000000000000000E+000
  0.000000000000000E+000
  0.000000000000000E+000
  0.000000000000000E+000
  0.000000000000000E+000
  0.000000000000000E+000
  0.000000000000000E+000
  0.000000000000000E+000
  0.000000000000000E+000
  0.000000000000000E+000
  0.000000000000000E+000
  0.000000000000000E+000
  0.000000000000000E+000
  0.000000000000000E+000
  0.000000000000000E+000
  0.000000000000000E+000
  0.000000000000000E+000
  0.000000000000000E+000
  0.000000000000000E+000
  0.000000000000000E+000
  0.000000000000000E+000
  0.000000000000000E+000
  0.000000000000000E+000
  0.000000000000000E+000
  0.000000000000000E+000
  0.000000000000000E+000
  0.000000000000000E+000
  0.000000000000000E+000
  0.000000000000000E+000
  0.000000000000000E+000
  0.000000000000000E+000
  0.000000000000000E+000
  0.000000000000000E+000
  0.000000000000000E+000
  0.000000000000000E+000
  0.000000000000000E+000
  0.000000000000000E+000
  0.000000000000000E+000
  0.000000000000000E+000
  0.000000000000000E+000
  0.000000000000000E+000
  0.000000000000000E+000
  0.000000000000000E+000
  0.000000000000000E+000
  0.000000000000000E+000
  0.000000000000000E+000
  0.000000000000000E+000
  0.000000000000000E+000
  0.000000000000000E+000
  0.000000000000000E+000
  0.000000000000000E+000
  0.000000000000000E+000
  0.000000000000000E+000
  0.000000000000000E+000
  0.000000000000000E+000
  0.000000000000000E+000
  0.000000000000000E+000
  0.000000000000000E+000
  0.000000000000000E+000
  0.000000000000000E+000
  0.000000000000000E+000
  0.000000000000000E+000
  0.000000000000000E+000
  0.000000000000000E+000
  0.000000000000000E+000
  0.000000000000000E+000
  0.000000000000000E+000
  0.000000000000000E+000
  0.000000000000000E+000
  0.000000000000000E+000
  0.000000000000000E+000
  0.000000000000000E+000
  0.000000000000000E+000
  0.000000000000000E+000
  0.000000000000000E+000
  0.000000000000000E+000
  0.000000000000000E+000
  0.000000000000000E+000
  0.000000000000000E+000
  0.000000000000000E+000
  0.000000000000000E+000
  0.000000000000000E+000
  0.000000000000000E+000
  0.000000000000000E+000
  0.000000000000000E+000
  0.000000000000000E+000
  0.000000000000000E+000
  0.000000000000000E+000
  0.000000000000000E+000
  0.000000000000000E+000
  0.000000000000000E+000
  0.000000000000000E+000
  0.000000000000000E+000
  0.000000000000000E+000
  0.000000000000000E+000
  0.000000000000000E+000
  0.000000000000000E+000
  0.000000000000000E+000
  0.000000000000000E+000
  0.000000000000000E+000
  0.000000000000000E+000
  0.000000000000000E+000
  0.000000000000000E+000
  0.000000000000000E+000
  0.000000000000000E+000
  0.000000000000000E+000
  0.000000000000000E+000
  0.000000000000000E+000
  0.000000000000000E+000
  0.000000000000000E+000
  0.000000000000000E+000
  0.000000000000000E+000
  0.000000000000000E+000
  0.000000000000000E+000
  0.000000000000000E+000
  0.000000000000000E+000
  0.000000000000000E+000
  0.000000000000000E+000
  0.000000000000000E+000
  0.000000000000000E+000
  0.000000000000000E+000
  0.000000000000000E+000
  0.000000000000000E+000
  0.000000000000000E+000
  0.000000000000000E+000
  0.000000000000000E+000
  0.000000000000000E+000
  0.000000000000000E+000
  0.000000000000000E+000
  0.000000000000000E+000
  0.000000000000000E+000
  0.000000000000000E+000
  0.000000000000000E+000
  0.000000000000000E+000
  0.000000000000000E+000
  0.000000000000000E+000
  0.000000000000000E+000
  0.000000000000000E+000
  0.000000000000000E+000
  0.000000000000000E+000
  0.000000000000000E+000
  0.000000000000000E+000
  0.000000000000000E+000
  0.000000000000000E+000
  0.000000000000000E+000
  0.000000000000000E+000
  0.000000000000000E+000
  0.000000000000000E+000
  0.000000000000000E+000
  0.000000000000000E+000
  0.000000000000000E+000
  0.000000000000000E+000
  0.000000000000000E+000
  0.000000000000000E+000
  0.000000000000000E+000
  0.000000000000000E+000
  0.000000000000000E+000
  0.000000000000000E+000
  0.000000000000000E+000
  0.000000000000000E+000
  0.000000000000000E+000
  0.000000000000000E+000
  0.000000000000000E+000
  0.000000000000000E+000
  0.000000000000000E+000
  0.000000000000000E+000
  0.000000000000000E+000
  0.000000000000000E+000
  0.000000000000000E+000
  0.000000000000000E+000
  0.000000000000000E+000
  0.000000000000000E+000
  0.000000000000000E+000
  0.000000000000000E+000
  0.000000000000000E+000
  0.000000000000000E+000
  0.000000000000000E+000
  0.000000000000000E+000
  0.000000000000000E+000
  0.000000000000000E+000
  0.000000000000000E+000
  0.000000000000000E+000
  0.000000000000000E+000
  0.000000000000000E+000
  0.000000000000000E+000
  0.000000000000000E+000
  0.000000000000000E+000
  0.000000000000000E+000
  0.000000000000000E+000
  0.000000000000000E+000
  0.000000000000000E+000
  0.000000000000000E+000
  0.000000000000000E+000
  0.000000000000000E+000
  0.000000000000000E+000
  0.000000000000000E+000
  0.000000000000000E+000
  0.000000000000000E+000
  0.000000000000000E+000
  0.000000000000000E+000
  0.000000000000000E+000
  0.000000000000000E+000
  0.000000000000000E+000
  0.000000000000000E+000
  0.000000000000000E+000
  0.000000000000000E+000
  0.000000000000000E+000
  0.000000000000000E+000
  0.000000000000000E+000
  0.000000000000000E+000
  0.000000000000000E+000
  0.000000000000000E+000
  0.000000000000000E+000
  0.000000000000000E+000
  0.000000000000000E+000
  0.000000000000000E+000
  0.000000000000000E+000
  0.000000000000000E+000
  0.000000000000000E+000
  0.000000000000000E+000
  0.000000000000000E+000
  0.000000000000000E+000
  0.000000000000000E+000
  0.000000000000000E+000
  0.000000000000000E+000
  0.000000000000000E+000
  0.000000000000000E+000
  0.000000000000000E+000
  0.000000000000000E+000
  0.000000000000000E+000
  0.000000000000000E+000
  0.000000000000000E+000
  0.000000000000000E+000
  0.000000000000000E+000
  0.000000000000000E+000
  0.000000000000000E+000
  0.000000000000000E+000
  0.000000000000000E+000
  0.000000000000000E+000
  0.000000000000000E+000
  0.000000000000000E+000
  0.000000000000000E+000
  0.000000000000000E+000
  0.000000000000000E+000
  0.000000000000000E+000
  0.000000000000000E+000
  0.000000000000000E+000
  0.000000000000000E+000
  0.000000000000000E+000
  0.000000000000000E+000
  0.000000000000000E+000
  0.000000000000000E+000
  0.000000000000000E+000
  0.000000000000000E+000
  0.000000000000000E+000
  0.000000000000000E+000
  0.000000000000000E+000
  0.000000000000000E+000
  0.000000000000000E+000
  0.000000000000000E+000
  0.000000000000000E+000
  0.000000000000000E+000
  0.000000000000000E+000
  0.000000000000000E+000
  0.000000000000000E+000
  0.000000000000000E+000
  0.000000000000000E+000
  0.000000000000000E+000
  0.000000000000000E+000
  0.000000000000000E+000
  0.000000000000000E+000
  0.000000000000000E+000
  0.000000000000000E+000
  0.000000000000000E+000
  0.000000000000000E+000
  0.000000000000000E+000
  0.000000000000000E+000
  0.000000000000000E+000
  0.000000000000000E+000
  0.000000000000000E+000
  0.000000000000000E+000
  0.000000000000000E+000
  0.000000000000000E+000
  0.000000000000000E+000
  0.000000000000000E+000
  0.000000000000000E+000
  0.000000000000000E+000
  0.000000000000000E+000
  0.000000000000000E+000
  0.000000000000000E+000
  0.000000000000000E+000
  0.000000000000000E+000
  0.000000000000000E+000
  0.000000000000000E+000
  0.000000000000000E+000
  0.000000000000000E+000
  0.000000000000000E+000
  0.000000000000000E+000
  0.000000000000000E+000
  0.000000000000000E+000
  0.000000000000000E+000
  0.000000000000000E+000
  0.000000000000000E+000
  0.000000000000000E+000
  0.000000000000000E+000
  0.000000000000000E+000
  0.000000000000000E+000
  0.000000000000000E+000
  0.000000000000000E+000
  0.000000000000000E+000
  0.000000000000000E+000
  0.000000000000000E+000
  0.000000000000000E+000
  0.000000000000000E+000
  0.000000000000000E+000
  0.000000000000000E+000
  0.000000000000000E+000
  0.000000000000000E+000
  0.000000000000000E+000
  0.000000000000000E+000
  0.000000000000000E+000
  0.000000000000000E+000
  0.000000000000000E+000
  0.000000000000000E+000
  0.000000000000000E+000
  0.000000000000000E+000
  0.000000000000000E+000
  0.000000000000000E+000
  0.000000000000000E+000
  0.000000000000000E+000
  0.000000000000000E+000
  0.000000000000000E+000
  0.000000000000000E+000
  0.000000000000000E+000
  0.000000000000000E+000
  0.000000000000000E+000
  0.000000000000000E+000
  0.000000000000000E+000
  0.000000000000000E+000
  0.000000000000000E+000
  0.000000000000000E+000
  0.000000000000000E+000
  0.000000000000000E+000
  0.000000000000000E+000
  0.000000000000000E+000
  0.000000000000000E+000
  0.000000000000000E+000
  0.000000000000000E+000
  0.000000000000000E+000
  0.000000000000000E+000
  0.000000000000000E+000
  0.000000000000000E+000
  0.000000000000000E+000
  0.000000000000000E+000
  0.000000000000000E+000
  0.000000000000000E+000
  0.000000000000000E+000
  0.000000000000000E+000
  0.000000000000000E+000
  0.000000000000000E+000
  0.000000000000000E+000
  0.000000000000000E+000
  0.000000000000000E+000
  0.000000000000000E+000
  0.000000000000000E+000
  0.000000000000000E+000
  0.000000000000000E+000
  0.000000000000000E+000
  0.000000000000000E+000
  0.000000000000000E+000
  0.000000000000000E+000
  0.000000000000000E+000
  0.000000000000000E+000
  0.000000000000000E+000
  0.000000000000000E+000
  0.000000000000000E+000
  0.000000000000000E+000
  0.000000000000000E+000
  0.000000000000000E+000
  0.000000000000000E+000
  0.000000000000000E+000
  0.000000000000000E+000
  0.000000000000000E+000
  0.000000000000000E+000
  0.000000000000000E+000
  0.000000000000000E+000
  0.000000000000000E+000
  0.000000000000000E+000
  0.000000000000000E+000
  0.000000000000000E+000
  0.000000000000000E+000
  0.000000000000000E+000
  0.000000000000000E+000
  0.000000000000000E+000
  0.000000000000000E+000
  0.000000000000000E+000
  0.000000000000000E+000
  0.000000000000000E+000
  0.000000000000000E+000
  0.000000000000000E+000
  0.000000000000000E+000
  0.000000000000000E+000
  0.000000000000000E+000
  0.000000000000000E+000
  0.000000000000000E+000
  0.000000000000000E+000
  0.000000000000000E+000
  0.000000000000000E+000
  0.000000000000000E+000
  0.000000000000000E+000
  0.000000000000000E+000
  0.000000000000000E+000
  0.000000000000000E+000
  0.000000000000000E+000
  0.000000000000000E+000
  0.000000000000000E+000
  0.000000000000000E+000
  0.000000000000000E+000
  0.000000000000000E+000
  0.000000000000000E+000
  0.000000000000000E+000
  0.000000000000000E+000
  0.000000000000000E+000
  0.000000000000000E+000
  0.000000000000000E+000
  0.000000000000000E+000
  0.000000000000000E+000
  0.000000000000000E+000
  0.000000000000000E+000
  0.000000000000000E+000
  0.000000000000000E+000
  0.000000000000000E+000
  0.000000000000000E+000
  0.000000000000000E+000
  0.000000000000000E+000
  0.000000000000000E+000
  0.000000000000000E+000
  0.000000000000000E+000
  0.000000000000000E+000
  0.000000000000000E+000
  0.000000000000000E+000
  0.000000000000000E+000
  0.000000000000000E+000
  0.000000000000000E+000
  0.000000000000000E+000
  0.000000000000000E+000
  0.000000000000000E+000
  0.000000000000000E+000
  0.000000000000000E+000
  0.000000000000000E+000
  0.000000000000000E+000
  0.000000000000000E+000
  0.000000000000000E+000
  0.000000000000000E+000
  0.000000000000000E+000
  0.000000000000000E+000
  0.000000000000000E+000
  0.000000000000000E+000
  0.000000000000000E+000
  0.000000000000000E+000
  0.000000000000000E+000
  0.000000000000000E+000
  0.000000000000000E+000
  0.000000000000000E+000
  0.000000000000000E+000
  0.000000000000000E+000
  0.000000000000000E+000
  0.000000000000000E+000
  0.000000000000000E+000
  0.000000000000000E+000
  0.000000000000000E+000
  0.000000000000000E+000
  0.000000000000000E+000
  0.000000000000000E+000
  0.000000000000000E+000
  0.000000000000000E+000
  0.000000000000000E+000
  0.000000000000000E+000
  0.000000000000000E+000
  0.000000000000000E+000
  0.000000000000000E+000
  0.000000000000000E+000
  0.000000000000000E+000
  0.000000000000000E+000
  0.000000000000000E+000
  0.000000000000000E+000
  0.000000000000000E+000
  0.000000000000000E+000
  0.000000000000000E+000
  0.000000000000000E+000
  0.000000000000000E+000
  0.000000000000000E+000
  0.000000000000000E+000
  0.000000000000000E+000
  0.000000000000000E+000
  0.000000000000000E+000
  0.000000000000000E+000
  0.000000000000000E+000
  0.000000000000000E+000
  0.000000000000000E+000
  0.000000000000000E+000
  0.000000000000000E+000
  0.000000000000000E+000
  0.000000000000000E+000
  0.000000000000000E+000
  0.000000000000000E+000
  0.000000000000000E+000
  0.000000000000000E+000
  0.000000000000000E+000
  0.000000000000000E+000
  0.000000000000000E+000
  0.000000000000000E+000
  0.000000000000000E+000
  0.000000000000000E+000
  0.000000000000000E+000
  0.000000000000000E+000
  0.000000000000000E+000
  0.000000000000000E+000
  0.000000000000000E+000
  0.000000000000000E+000
  0.000000000000000E+000
  0.000000000000000E+000
  0.000000000000000E+000
  0.000000000000000E+000
  0.000000000000000E+000
  0.000000000000000E+000
  0.000000000000000E+000
  0.000000000000000E+000
  0.000000000000000E+000
  0.000000000000000E+000
  0.000000000000000E+000
  0.000000000000000E+000
  0.000000000000000E+000
  0.000000000000000E+000
  0.000000000000000E+000
  0.000000000000000E+000
  0.000000000000000E+000
  0.000000000000000E+000
  0.000000000000000E+000
  0.000000000000000E+000
  0.000000000000000E+000
  0.000000000000000E+000
  0.000000000000000E+000
  0.000000000000000E+000
  0.000000000000000E+000
  0.000000000000000E+000
  0.000000000000000E+000
  0.000000000000000E+000
  0.000000000000000E+000
  0.000000000000000E+000
  0.000000000000000E+000
  0.000000000000000E+000
  0.000000000000000E+000
  0.000000000000000E+000
  0.000000000000000E+000
  0.000000000000000E+000
  0.000000000000000E+000
  0.000000000000000E+000
  0.000000000000000E+000
  0.000000000000000E+000
  0.000000000000000E+000
  0.000000000000000E+000
  0.000000000000000E+000
  0.000000000000000E+000
  0.000000000000000E+000
  0.000000000000000E+000
  0.000000000000000E+000
  0.000000000000000E+000
  0.000000000000000E+000
  0.000000000000000E+000
  0.000000000000000E+000
  0.000000000000000E+000
  0.000000000000000E+000
  0.000000000000000E+000
  0.000000000000000E+000
  0.000000000000000E+000
  0.000000000000000E+000
  0.000000000000000E+000
  0.000000000000000E+000
  0.000000000000000E+000
  0.000000000000000E+000
  0.000000000000000E+000
  0.000000000000000E+000
  0.000000000000000E+000
  0.000000000000000E+000
  0.000000000000000E+000
  0.000000000000000E+000
  0.000000000000000E+000
  0.000000000000000E+000
  0.000000000000000E+000
  0.000000000000000E+000
  0.000000000000000E+000
  0.000000000000000E+000
  0.000000000000000E+000
  0.000000000000000E+000
  0.000000000000000E+000
  0.000000000000000E+000
  0.000000000000000E+000
  0.000000000000000E+000
  0.000000000000000E+000
  0.000000000000000E+000
  0.000000000000000E+000
  0.000000000000000E+000
  0.000000000000000E+000
  0.000000000000000E+000
  0.000000000000000E+000
  0.000000000000000E+000
  0.000000000000000E+000
  0.000000000000000E+000
  0.000000000000000E+000
  0.000000000000000E+000
  0.000000000000000E+000
  0.000000000000000E+000
  0.000000000000000E+000
  0.000000000000000E+000
  0.000000000000000E+000
  0.000000000000000E+000
  0.000000000000000E+000
  0.000000000000000E+000
  0.000000000000000E+000
  0.000000000000000E+000
  0.000000000000000E+000
  0.000000000000000E+000
  0.000000000000000E+000
  0.000000000000000E+000
  0.000000000000000E+000
  0.000000000000000E+000
  0.000000000000000E+000
  0.000000000000000E+000
  0.000000000000000E+000
  0.000000000000000E+000
  0.000000000000000E+000
  0.000000000000000E+000
  0.000000000000000E+000
  0.000000000000000E+000
  0.000000000000000E+000
  0.000000000000000E+000
  0.000000000000000E+000
  0.000000000000000E+000
  0.000000000000000E+000
  0.000000000000000E+000
  0.000000000000000E+000
  0.000000000000000E+000
  0.000000000000000E+000
  0.000000000000000E+000
  0.000000000000000E+000
  0.000000000000000E+000
  0.000000000000000E+000
  0.000000000000000E+000
  0.000000000000000E+000
  0.000000000000000E+000
  0.000000000000000E+000
  0.000000000000000E+000
  0.000000000000000E+000
  0.000000000000000E+000
  0.000000000000000E+000
  0.000000000000000E+000
  0.000000000000000E+000
  0.000000000000000E+000
  0.000000000000000E+000
  0.000000000000000E+000
  0.000000000000000E+000
  0.000000000000000E+000
  0.000000000000000E+000
  0.000000000000000E+000
  0.000000000000000E+000
  0.000000000000000E+000
  0.000000000000000E+000
  0.000000000000000E+000
  0.000000000000000E+000
  0.000000000000000E+000
  0.000000000000000E+000
  0.000000000000000E+000
  0.000000000000000E+000
  0.000000000000000E+000
  0.000000000000000E+000
  0.000000000000000E+000
  0.000000000000000E+000
  0.000000000000000E+000
  0.000000000000000E+000
  0.000000000000000E+000
  0.000000000000000E+000
  0.000000000000000E+000
  0.000000000000000E+000
  0.000000000000000E+000
  0.000000000000000E+000
  0.000000000000000E+000
  0.000000000000000E+000
  0.000000000000000E+000
  0.000000000000000E+000
  0.000000000000000E+000
  0.000000000000000E+000
  0.000000000000000E+000
  0.000000000000000E+000
  0.000000000000000E+000
  0.000000000000000E+000
  0.000000000000000E+000
  0.000000000000000E+000
  0.000000000000000E+000
  0.000000000000000E+000
  0.000000000000000E+000
  0.000000000000000E+000
  0.000000000000000E+000
  0.000000000000000E+000
  0.000000000000000E+000
  0.000000000000000E+000
  0.000000000000000E+000
  0.000000000000000E+000
  0.000000000000000E+000
  0.000000000000000E+000
  0.000000000000000E+000
  0.000000000000000E+000
  0.000000000000000E+000
  0.000000000000000E+000
  0.000000000000000E+000
  0.000000000000000E+000
  0.000000000000000E+000
  0.000000000000000E+000
  0.000000000000000E+000
  0.000000000000000E+000
  0.000000000000000E+000
  0.000000000000000E+000
  0.000000000000000E+000
  0.000000000000000E+000
  0.000000000000000E+000
  0.000000000000000E+000
  0.000000000000000E+000
  0.000000000000000E+000
  0.000000000000000E+000
  0.000000000000000E+000
  0.000000000000000E+000
  0.000000000000000E+000
  0.000000000000000E+000
  0.000000000000000E+000
  0.000000000000000E+000
  0.000000000000000E+000
  0.000000000000000E+000
  0.000000000000000E+000
  0.000000000000000E+000
  0.000000000000000E+000
  0.000000000000000E+000
  0.000000000000000E+000
  0.000000000000000E+000
  0.000000000000000E+000
  0.000000000000000E+000
  0.000000000000000E+000
  0.000000000000000E+000
  0.000000000000000E+000
  0.000000000000000E+000
  0.000000000000000E+000
  0.000000000000000E+000
  0.000000000000000E+000
  0.000000000000000E+000
  0.000000000000000E+000
  0.000000000000000E+000
  0.000000000000000E+000
  0.000000000000000E+000
  0.000000000000000E+000
  0.000000000000000E+000
  0.000000000000000E+000
  0.000000000000000E+000
  0.000000000000000E+000
  0.000000000000000E+000
  0.000000000000000E+000
  0.000000000000000E+000
  0.000000000000000E+000
  0.000000000000000E+000
  0.000000000000000E+000
  0.000000000000000E+000
  0.000000000000000E+000
  0.000000000000000E+000
  0.000000000000000E+000
  0.000000000000000E+000
  0.000000000000000E+000
  0.000000000000000E+000
  0.000000000000000E+000
  0.000000000000000E+000
  0.000000000000000E+000
  0.000000000000000E+000
  0.000000000000000E+000
  0.000000000000000E+000
  0.000000000000000E+000
  0.000000000000000E+000
  0.000000000000000E+000
  0.000000000000000E+000
  0.000000000000000E+000
  0.000000000000000E+000
  0.000000000000000E+000
  0.000000000000000E+000
  0.000000000000000E+000
  0.000000000000000E+000
  0.000000000000000E+000
  0.000000000000000E+000
  0.000000000000000E+000
  0.000000000000000E+000
  0.000000000000000E+000
  0.000000000000000E+000
  0.000000000000000E+000
  0.000000000000000E+000
  0.000000000000000E+000
  0.000000000000000E+000
  0.000000000000000E+000
  0.000000000000000E+000
  0.000000000000000E+000
  0.000000000000000E+000
  0.000000000000000E+000
  0.000000000000000E+000
  0.000000000000000E+000
  0.000000000000000E+000
  0.000000000000000E+000
  0.000000000000000E+000
  0.000000000000000E+000
  0.000000000000000E+000
  0.000000000000000E+000
  0.000000000000000E+000
  0.000000000000000E+000
  0.000000000000000E+000
  0.000000000000000E+000
  0.000000000000000E+000
  0.000000000000000E+000
  0.000000000000000E+000
  0.000000000000000E+000
  0.000000000000000E+000
  0.000000000000000E+000
  0.000000000000000E+000
  0.000000000000000E+000
  0.000000000000000E+000
  0.000000000000000E+000
  0.000000000000000E+000
  0.000000000000000E+000
  0.000000000000000E+000
  0.000000000000000E+000
  0.000000000000000E+000
  0.000000000000000E+000
  0.000000000000000E+000
  0.000000000000000E+000
  0.000000000000000E+000
  0.000000000000000E+000
  0.000000000000000E+000
  0.000000000000000E+000
  0.000000000000000E+000
  0.000000000000000E+000
  0.000000000000000E+000
  0.000000000000000E+000
  0.000000000000000E+000
  0.000000000000000E+000
  0.000000000000000E+000
  0.000000000000000E+000
  0.000000000000000E+000
  0.000000000000000E+000
  0.000000000000000E+000
  0.000000000000000E+000
  0.000000000000000E+000
  0.000000000000000E+000
  0.000000000000000E+000
  0.000000000000000E+000
  0.000000000000000E+000
  0.000000000000000E+000
  0.000000000000000E+000
  0.000000000000000E+000
  0.000000000000000E+000
  0.000000000000000E+000
  0.000000000000000E+000
  0.000000000000000E+000
  0.000000000000000E+000
  0.000000000000000E+000
  0.000000000000000E+000
  0.000000000000000E+000
  0.000000000000000E+000
  0.000000000000000E+000
  0.000000000000000E+000
  0.000000000000000E+000
  0.000000000000000E+000
  0.000000000000000E+000
  0.000000000000000E+000
  0.000000000000000E+000
  0.000000000000000E+000
  0.000000000000000E+000
  0.000000000000000E+000
  0.000000000000000E+000
  0.000000000000000E+000
  0.000000000000000E+000
  0.000000000000000E+000
  0.000000000000000E+000
  0.000000000000000E+000
  0.000000000000000E+000
  0.000000000000000E+000
  0.000000000000000E+000
  0.000000000000000E+000
  0.000000000000000E+000
  0.000000000000000E+000
  0.000000000000000E+000
  0.000000000000000E+000
  0.000000000000000E+000
  0.000000000000000E+000
  0.000000000000000E+000
  0.000000000000000E+000
  0.000000000000000E+000
  0.000000000000000E+000
  0.000000000000000E+000
  0.000000000000000E+000
  0.000000000000000E+000
  0.000000000000000E+000
  0.000000000000000E+000
  0.000000000000000E+000
  0.000000000000000E+000
  0.000000000000000E+000
  0.000000000000000E+000
  0.000000000000000E+000
  0.000000000000000E+000
  0.000000000000000E+000
  0.000000000000000E+000
  0.000000000000000E+000
  0.000000000000000E+000
  0.000000000000000E+000
  0.000000000000000E+000
  0.000000000000000E+000
  0.000000000000000E+000
  0.000000000000000E+000
  0.000000000000000E+000
  0.000000000000000E+000
  0.000000000000000E+000
  0.000000000000000E+000
  0.000000000000000E+000
  0.000000000000000E+000
  0.000000000000000E+000
  0.000000000000000E+000
  0.000000000000000E+000
  0.000000000000000E+000
  0.000000000000000E+000
  0.000000000000000E+000
  0.000000000000000E+000
  0.000000000000000E+000
  0.000000000000000E+000
  0.000000000000000E+000
  0.000000000000000E+000
  0.000000000000000E+000
  0.000000000000000E+000
  0.000000000000000E+000
  0.000000000000000E+000
  0.000000000000000E+000
  0.000000000000000E+000
  0.000000000000000E+000
  0.000000000000000E+000
  0.000000000000000E+000
  0.000000000000000E+000
  0.000000000000000E+000
  0.000000000000000E+000
  0.000000000000000E+000
  0.000000000000000E+000
  0.000000000000000E+000
  0.000000000000000E+000
  0.000000000000000E+000
  0.000000000000000E+000
  0.000000000000000E+000
  0.000000000000000E+000
  0.000000000000000E+000
  0.000000000000000E+000
  0.000000000000000E+000
  0.000000000000000E+000
  0.000000000000000E+000
  0.000000000000000E+000
  0.000000000000000E+000
  0.000000000000000E+000
  0.000000000000000E+000
  0.000000000000000E+000
  0.000000000000000E+000
  0.000000000000000E+000
  0.000000000000000E+000
  0.000000000000000E+000
  0.000000000000000E+000
  0.000000000000000E+000
  0.000000000000000E+000
  0.000000000000000E+000
  0.000000000000000E+000
  0.000000000000000E+000
  0.000000000000000E+000
  0.000000000000000E+000
  0.000000000000000E+000
  0.000000000000000E+000
  0.000000000000000E+000
  0.000000000000000E+000
  0.000000000000000E+000
  0.000000000000000E+000
  0.000000000000000E+000
  0.000000000000000E+000
  0.000000000000000E+000
  0.000000000000000E+000
  0.000000000000000E+000
  0.000000000000000E+000
  0.000000000000000E+000
  0.000000000000000E+000
  0.000000000000000E+000
  0.000000000000000E+000
  0.000000000000000E+000
  0.000000000000000E+000
  0.000000000000000E+000
  0.000000000000000E+000
  0.000000000000000E+000
  0.000000000000000E+000
  0.000000000000000E+000
  0.000000000000000E+000
  0.000000000000000E+000
  0.000000000000000E+000
  0.000000000000000E+000
  0.000000000000000E+000
  0.000000000000000E+000
  0.000000000000000E+000
  0.000000000000000E+000
  0.000000000000000E+000
  0.000000000000000E+000
  0.000000000000000E+000
  0.000000000000000E+000
  0.000000000000000E+000
  0.000000000000000E+000
  0.000000000000000E+000
  0.000000000000000E+000
  0.000000000000000E+000
  0.000000000000000E+000
  0.000000000000000E+000
  0.000000000000000E+000
  0.000000000000000E+000
  0.000000000000000E+000
  0.000000000000000E+000
  0.000000000000000E+000
  0.000000000000000E+000
  0.000000000000000E+000
  0.000000000000000E+000
  0.000000000000000E+000
  0.000000000000000E+000
  0.000000000000000E+000
  0.000000000000000E+000
  0.000000000000000E+000
  0.000000000000000E+000
  0.000000000000000E+000
  0.000000000000000E+000
  0.000000000000000E+000
  0.000000000000000E+000
  0.000000000000000E+000
  0.000000000000000E+000
  0.000000000000000E+000
  0.000000000000000E+000
  0.000000000000000E+000
  0.000000000000000E+000
  0.000000000000000E+000
  0.000000000000000E+000
  0.000000000000000E+000
  0.000000000000000E+000
  0.000000000000000E+000
  0.000000000000000E+000
  0.000000000000000E+000
  0.000000000000000E+000
  0.000000000000000E+000
  0.000000000000000E+000
  0.000000000000000E+000
  0.000000000000000E+000
  0.000000000000000E+000
  0.000000000000000E+000
  0.000000000000000E+000
  0.000000000000000E+000
  0.000000000000000E+000
  0.000000000000000E+000
  0.000000000000000E+000
  0.000000000000000E+000
  0.000000000000000E+000
  0.000000000000000E+000
  0.000000000000000E+000
  0.000000000000000E+000
  0.000000000000000E+000
  0.000000000000000E+000
  0.000000000000000E+000
  0.000000000000000E+000
  0.000000000000000E+000
  0.000000000000000E+000
  0.000000000000000E+000
  0.000000000000000E+000
  0.000000000000000E+000
  0.000000000000000E+000
  0.000000000000000E+000
  0.000000000000000E+000
  0.000000000000000E+000
  0.000000000000000E+000
  0.000000000000000E+000
  0.000000000000000E+000
  0.000000000000000E+000
  0.000000000000000E+000
  0.000000000000000E+000
  0.000000000000000E+000
  0.000000000000000E+000
  0.000000000000000E+000
  0.000000000000000E+000
  0.000000000000000E+000
  0.000000000000000E+000
  0.000000000000000E+000
  0.000000000000000E+000
  0.000000000000000E+000
  0.000000000000000E+000
  0.000000000000000E+000
  0.000000000000000E+000
  0.000000000000000E+000
  0.000000000000000E+000
  0.000000000000000E+000
  0.000000000000000E+000
  0.000000000000000E+000
  0.000000000000000E+000
  0.000000000000000E+000
  0.000000000000000E+000
  0.000000000000000E+000
  0.000000000000000E+000
  0.000000000000000E+000
  0.000000000000000E+000
  0.000000000000000E+000
  0.000000000000000E+000
  0.000000000000000E+000
  0.000000000000000E+000
  0.000000000000000E+000
  0.000000000000000E+000
  0.000000000000000E+000
  0.000000000000000E+000
  0.000000000000000E+000
  0.000000000000000E+000
  0.000000000000000E+000
  0.000000000000000E+000
  0.000000000000000E+000
  0.000000000000000E+000
  0.000000000000000E+000
  0.000000000000000E+000
  0.000000000000000E+000
  0.000000000000000E+000
  0.000000000000000E+000
  0.000000000000000E+000
  0.000000000000000E+000
  0.000000000000000E+000
  0.000000000000000E+000
  0.000000000000000E+000
  0.000000000000000E+000
  0.000000000000000E+000
  0.000000000000000E+000
  0.000000000000000E+000
  0.000000000000000E+000
  0.000000000000000E+000
  0.000000000000000E+000
  0.000000000000000E+000
  0.000000000000000E+000
  0.000000000000000E+000
  0.000000000000000E+000
  0.000000000000000E+000
  0.000000000000000E+000
  0.000000000000000E+000
  0.000000000000000E+000
  0.000000000000000E+000
  0.000000000000000E+000
  0.000000000000000E+000
  0.000000000000000E+000
  0.000000000000000E+000
  0.000000000000000E+000
  0.000000000000000E+000
  0.000000000000000E+000
  0.000000000000000E+000
  0.000000000000000E+000
  0.000000000000000E+000
  0.000000000000000E+000
  0.000000000000000E+000
  0.000000000000000E+000
  0.000000000000000E+000
  0.000000000000000E+000
  0.000000000000000E+000
  0.000000000000000E+000
  0.000000000000000E+000
  0.000000000000000E+000
  0.000000000000000E+000
  0.000000000000000E+000
  0.000000000000000E+000
  0.000000000000000E+000
  0.000000000000000E+000
  0.000000000000000E+000
  0.000000000000000E+000
  0.000000000000000E+000
  0.000000000000000E+000
  0.000000000000000E+000
  0.000000000000000E+000
  0.000000000000000E+000
  0.000000000000000E+000
  0.000000000000000E+000
  0.000000000000000E+000
  0.000000000000000E+000
  0.000000000000000E+000
  0.000000000000000E+000
  0.000000000000000E+000
  0.000000000000000E+000
  0.000000000000000E+000
  0.000000000000000E+000
  0.000000000000000E+000
  0.000000000000000E+000
  0.000000000000000E+000
  0.000000000000000E+000
  0.000000000000000E+000
  0.000000000000000E+000
  0.000000000000000E+000
  0.000000000000000E+000
  0.000000000000000E+000
  0.000000000000000E+000
  0.000000000000000E+000
  0.000000000000000E+000
  0.000000000000000E+000
  0.000000000000000E+000
  0.000000000000000E+000
  0.000000000000000E+000
  0.000000000000000E+000
  0.000000000000000E+000
  0.000000000000000E+000
  0.000000000000000E+000
  0.000000000000000E+000
  0.000000000000000E+000
  0.000000000000000E+000
  0.000000000000000E+000
  0.000000000000000E+000
  0.000000000000000E+000
  0.000000000000000E+000
  0.000000000000000E+000
  0.000000000000000E+000
  0.000000000000000E+000
  0.000000000000000E+000
  0.000000000000000E+000
  0.000000000000000E+000
  0.000000000000000E+000
  0.000000000000000E+000
  0.000000000000000E+000
  0.000000000000000E+000
  0.000000000000000E+000
  0.000000000000000E+000
  0.000000000000000E+000
  0.000000000000000E+000
  0.000000000000000E+000
  0.000000000000000E+000
  0.000000000000000E+000
  0.000000000000000E+000
  0.000000000000000E+000
  0.000000000000000E+000
  0.000000000000000E+000
  0.000000000000000E+000
  0.000000000000000E+000
  0.000000000000000E+000
  0.000000000000000E+000
  0.000000000000000E+000
  0.000000000000000E+000
  0.000000000000000E+000
  0.000000000000000E+000
  0.000000000000000E+000
  0.000000000000000E+000
  0.000000000000000E+000
  0.000000000000000E+000
  0.000000000000000E+000
  0.000000000000000E+000
  0.000000000000000E+000
  0.000000000000000E+000
  0.000000000000000E+000
  0.000000000000000E+000
  0.000000000000000E+000
  0.000000000000000E+000
  0.000000000000000E+000
  0.000000000000000E+000
  0.000000000000000E+000
  0.000000000000000E+000
  0.000000000000000E+000
  0.000000000000000E+000
  0.000000000000000E+000
  0.000000000000000E+000
  0.000000000000000E+000
  0.000000000000000E+000
  0.000000000000000E+000
  0.000000000000000E+000
  0.000000000000000E+000
  0.000000000000000E+000
  0.000000000000000E+000
  0.000000000000000E+000
  0.000000000000000E+000
  0.000000000000000E+000
  0.000000000000000E+000
  0.000000000000000E+000
  0.000000000000000E+000
  0.000000000000000E+000
  0.000000000000000E+000
  0.000000000000000E+000
  0.000000000000000E+000
  0.000000000000000E+000
  0.000000000000000E+000
  0.000000000000000E+000
  0.000000000000000E+000
  0.000000000000000E+000
  0.000000000000000E+000
  0.000000000000000E+000
  0.000000000000000E+000
  0.000000000000000E+000
  0.000000000000000E+000
  0.000000000000000E+000
  0.000000000000000E+000
  0.000000000000000E+000
  0.000000000000000E+000
  0.000000000000000E+000
  0.000000000000000E+000
  0.000000000000000E+000
  0.000000000000000E+000
  0.000000000000000E+000
  0.000000000000000E+000
  0.000000000000000E+000
  0.000000000000000E+000
  0.000000000000000E+000
  0.000000000000000E+000
  0.000000000000000E+000
  0.000000000000000E+000
  0.000000000000000E+000
  0.000000000000000E+000
  0.000000000000000E+000
  0.000000000000000E+000
  0.000000000000000E+000
  0.000000000000000E+000
  0.000000000000000E+000
  0.000000000000000E+000
  0.000000000000000E+000
  0.000000000000000E+000
  0.000000000000000E+000
  0.000000000000000E+000
  0.000000000000000E+000
  0.000000000000000E+000
  0.000000000000000E+000
  0.000000000000000E+000
  0.000000000000000E+000
  0.000000000000000E+000
  0.000000000000000E+000
  0.000000000000000E+000
  0.000000000000000E+000
  0.000000000000000E+000
  0.000000000000000E+000
  0.000000000000000E+000
  0.000000000000000E+000
  0.000000000000000E+000
  0.000000000000000E+000
  0.000000000000000E+000
  0.000000000000000E+000
  0.000000000000000E+000
  0.000000000000000E+000
  0.000000000000000E+000
  0.000000000000000E+000
  0.000000000000000E+000
  0.000000000000000E+000
  0.000000000000000E+000
  0.000000000000000E+000
  0.000000000000000E+000
  0.000000000000000E+000
  0.000000000000000E+000
  0.000000000000000E+000
  0.000000000000000E+000
  0.000000000000000E+000
  0.000000000000000E+000
  0.000000000000000E+000
  0.000000000000000E+000
  0.000000000000000E+000
  0.000000000000000E+000
  0.000000000000000E+000
  0.000000000000000E+000
  0.000000000000000E+000
  0.000000000000000E+000
  0.000000000000000E+000
  0.000000000000000E+000
  0.000000000000000E+000
  0.000000000000000E+000
  0.000000000000000E+000
  0.000000000000000E+000
  0.000000000000000E+000
  0.000000000000000E+000
  0.000000000000000E+000
  0.000000000000000E+000
  0.000000000000000E+000
  0.000000000000000E+000
  0.000000000000000E+000
  0.000000000000000E+000
  0.000000000000000E+000
  0.000000000000000E+000
  0.000000000000000E+000
  0.000000000000000E+000
  0.000000000000000E+000
  0.000000000000000E+000
  0.000000000000000E+000
  0.000000000000000E+000
  0.000000000000000E+000
  0.000000000000000E+000
  0.000000000000000E+000
  0.000000000000000E+000
  0.000000000000000E+000
  0.000000000000000E+000
  0.000000000000000E+000
  0.000000000000000E+000
  0.000000000000000E+000
  0.000000000000000E+000
  0.000000000000000E+000
  0.000000000000000E+000
  0.000000000000000E+000
  0.000000000000000E+000
  0.000000000000000E+000
  0.000000000000000E+000
  0.000000000000000E+000
  0.000000000000000E+000
  0.000000000000000E+000
  0.000000000000000E+000
  0.000000000000000E+000
  0.000000000000000E+000
  0.000000000000000E+000
  0.000000000000000E+000
  0.000000000000000E+000
  0.000000000000000E+000
  0.000000000000000E+000
  0.000000000000000E+000
  0.000000000000000E+000
  0.000000000000000E+000
  0.000000000000000E+000
  0.000000000000000E+000
  0.000000000000000E+000
  0.000000000000000E+000
  0.000000000000000E+000
  0.000000000000000E+000
  0.000000000000000E+000
  0.000000000000000E+000
  0.000000000000000E+000
  0.000000000000000E+000
  0.000000000000000E+000
  0.000000000000000E+000
  0.000000000000000E+000
  0.000000000000000E+000
  0.000000000000000E+000
  0.000000000000000E+000
  0.000000000000000E+000
  0.000000000000000E+000
  0.000000000000000E+000
  0.000000000000000E+000
  0.000000000000000E+000
  0.000000000000000E+000
  0.000000000000000E+000
  0.000000000000000E+000
  0.000000000000000E+000
  0.000000000000000E+000
  0.000000000000000E+000
  0.000000000000000E+000
  0.000000000000000E+000
  0.000000000000000E+000
  0.000000000000000E+000
  0.000000000000000E+000
  0.000000000000000E+000
  0.000000000000000E+000
  0.000000000000000E+000
  0.000000000000000E+000
  0.000000000000000E+000
  0.000000000000000E+000
  0.000000000000000E+000
  0.000000000000000E+000
  0.000000000000000E+000
  0.000000000000000E+000
  0.000000000000000E+000
  0.000000000000000E+000
  0.000000000000000E+000
  0.000000000000000E+000
  0.000000000000000E+000
  0.000000000000000E+000
  0.000000000000000E+000
  0.000000000000000E+000
  0.000000000000000E+000
  0.000000000000000E+000
  0.000000000000000E+000
  0.000000000000000E+000
  0.000000000000000E+000
  0.000000000000000E+000
  0.000000000000000E+000
  0.000000000000000E+000
  0.000000000000000E+000
  0.000000000000000E+000
  0.000000000000000E+000
  0.000000000000000E+000
  0.000000000000000E+000
  0.000000000000000E+000
  0.000000000000000E+000
  0.000000000000000E+000
  0.000000000000000E+000
  0.000000000000000E+000
  0.000000000000000E+000
  0.000000000000000E+000
  0.000000000000000E+000
  0.000000000000000E+000
  0.000000000000000E+000
  0.000000000000000E+000
  0.000000000000000E+000
  0.000000000000000E+000
  0.000000000000000E+000
  0.000000000000000E+000
  0.000000000000000E+000
  0.000000000000000E+000
  0.000000000000000E+000
  0.000000000000000E+000
  0.000000000000000E+000
  0.000000000000000E+000
  0.000000000000000E+000
  0.000000000000000E+000
  0.000000000000000E+000
  0.000000000000000E+000
  0.000000000000000E+000
  0.000000000000000E+000
  0.000000000000000E+000
  0.000000000000000E+000
  0.000000000000000E+000
  0.000000000000000E+000
  0.000000000000000E+000
  0.000000000000000E+000
  0.000000000000000E+000
  0.000000000000000E+000
  0.000000000000000E+000
  0.000000000000000E+000
  0.000000000000000E+000
  0.000000000000000E+000
  0.000000000000000E+000
  0.000000000000000E+000
  0.000000000000000E+000
  0.000000000000000E+000
  0.000000000000000E+000
  0.000000000000000E+000
  0.000000000000000E+000
  0.000000000000000E+000
  0.000000000000000E+000
  0.000000000000000E+000
  0.000000000000000E+000
  0.000000000000000E+000
  0.000000000000000E+000
  0.000000000000000E+000
  0.000000000000000E+000
  0.000000000000000E+000
  0.000000000000000E+000
  0.000000000000000E+000
  0.000000000000000E+000
  0.000000000000000E+000
  0.000000000000000E+000
  0.000000000000000E+000
  0.000000000000000E+000
  0.000000000000000E+000
  0.000000000000000E+000
  0.000000000000000E+000
  0.000000000000000E+000
  0.000000000000000E+000
  0.000000000000000E+000
  0.000000000000000E+000
  0.000000000000000E+000
  0.000000000000000E+000
  0.000000000000000E+000
  0.000000000000000E+000
  0.000000000000000E+000
  0.000000000000000E+000
  0.000000000000000E+000
  0.000000000000000E+000
  0.000000000000000E+000
  0.000000000000000E+000
  0.000000000000000E+000
  0.000000000000000E+000
  0.000000000000000E+000
  0.000000000000000E+000
  0.000000000000000E+000
  0.000000000000000E+000
  0.000000000000000E+000
  0.000000000000000E+000
  0.000000000000000E+000
  0.000000000000000E+000
  0.000000000000000E+000
  0.000000000000000E+000
  0.000000000000000E+000
  0.000000000000000E+000
  0.000000000000000E+000
  0.000000000000000E+000
  0.000000000000000E+000
  0.000000000000000E+000
  0.000000000000000E+000
  0.000000000000000E+000
  0.000000000000000E+000
  0.000000000000000E+000
  0.000000000000000E+000
  0.000000000000000E+000
  0.000000000000000E+000
  0.000000000000000E+000
  0.000000000000000E+000
  0.000000000000000E+000
  0.000000000000000E+000
  0.000000000000000E+000
  0.000000000000000E+000
  0.000000000000000E+000
  0.000000000000000E+000
  0.000000000000000E+000
  0.000000000000000E+000
  0.000000000000000E+000
  0.000000000000000E+000
  0.000000000000000E+000
  0.000000000000000E+000
  0.000000000000000E+000
  0.000000000000000E+000
  0.000000000000000E+000
  0.000000000000000E+000
  0.000000000000000E+000
  0.000000000000000E+000
  0.000000000000000E+000
  0.000000000000000E+000
  0.000000000000000E+000
  0.000000000000000E+000
  0.000000000000000E+000
  0.000000000000000E+000
  0.000000000000000E+000
  0.000000000000000E+000
  0.000000000000000E+000
  0.000000000000000E+000
  0.000000000000000E+000
  0.000000000000000E+000
  0.000000000000000E+000
  0.000000000000000E+000
  0.000000000000000E+000
  0.000000000000000E+000
  0.000000000000000E+000
  0.000000000000000E+000
  0.000000000000000E+000
  0.000000000000000E+000
  0.000000000000000E+000
  0.000000000000000E+000
  0.000000000000000E+000
  0.000000000000000E+000
  0.000000000000000E+000
  0.000000000000000E+000
  0.000000000000000E+000
  0.000000000000000E+000
  0.000000000000000E+000
  0.000000000000000E+000
  0.000000000000000E+000
  0.000000000000000E+000
  0.000000000000000E+000
  0.000000000000000E+000
  0.000000000000000E+000
  0.000000000000000E+000
  0.000000000000000E+000
  0.000000000000000E+000
  0.000000000000000E+000
  0.000000000000000E+000
  0.000000000000000E+000
  0.000000000000000E+000
  0.000000000000000E+000
  0.000000000000000E+000
  0.000000000000000E+000
  0.000000000000000E+000
  0.000000000000000E+000
  0.000000000000000E+000
  0.000000000000000E+000
  0.000000000000000E+000
  0.000000000000000E+000
  0.000000000000000E+000
  0.000000000000000E+000
  0.000000000000000E+000
  0.000000000000000E+000
  0.000000000000000E+000
  0.000000000000000E+000
  0.000000000000000E+000
  0.000000000000000E+000
  0.000000000000000E+000
  0.000000000000000E+000
  0.000000000000000E+000
  0.000000000000000E+000
  0.000000000000000E+000
  0.000000000000000E+000
  0.000000000000000E+000
  0.000000000000000E+000
  0.000000000000000E+000
  0.000000000000000E+000
  0.000000000000000E+000
  0.000000000000000E+000
  0.000000000000000E+000
  0.000000000000000E+000
  0.000000000000000E+000
  0.000000000000000E+000
  0.000000000000000E+000
  0.000000000000000E+000
  0.000000000000000E+000
  0.000000000000000E+000
  0.000000000000000E+000
  0.000000000000000E+000
  0.000000000000000E+000
  0.000000000000000E+000
  0.000000000000000E+000
  0.000000000000000E+000
  0.000000000000000E+000
  0.000000000000000E+000
  0.000000000000000E+000
  0.000000000000000E+000
  0.000000000000000E+000
  0.000000000000000E+000
  0.000000000000000E+000
  0.000000000000000E+000
  0.000000000000000E+000
  0.000000000000000E+000
  0.000000000000000E+000
  0.000000000000000E+000
  0.000000000000000E+000
  0.000000000000000E+000
  0.000000000000000E+000
  0.000000000000000E+000
  0.000000000000000E+000
  0.000000000000000E+000
  0.000000000000000E+000
  0.000000000000000E+000
  0.000000000000000E+000
  0.000000000000000E+000
  0.000000000000000E+000
  0.000000000000000E+000
  0.000000000000000E+000
  0.000000000000000E+000
  0.000000000000000E+000
  0.000000000000000E+000
  0.000000000000000E+000
  0.000000000000000E+000
  0.000000000000000E+000
  0.000000000000000E+000
  0.000000000000000E+000
  0.000000000000000E+000
  0.000000000000000E+000
  0.000000000000000E+000
  0.000000000000000E+000
  0.000000000000000E+000
  0.000000000000000E+000
  0.000000000000000E+000
  0.000000000000000E+000
  0.000000000000000E+000
  0.000000000000000E+000
  0.000000000000000E+000
  0.000000000000000E+000
  0.000000000000000E+000
  0.000000000000000E+000
  0.000000000000000E+000
  0.000000000000000E+000
  0.000000000000000E+000
  0.000000000000000E+000
  0.000000000000000E+000
  0.000000000000000E+000
  0.000000000000000E+000
  0.000000000000000E+000
  0.000000000000000E+000
  0.000000000000000E+000
  0.000000000000000E+000
  0.000000000000000E+000
  0.000000000000000E+000
  0.000000000000000E+000
  0.000000000000000E+000
  0.000000000000000E+000
  0.000000000000000E+000
  0.000000000000000E+000
  0.000000000000000E+000
  0.000000000000000E+000
  0.000000000000000E+000
  0.000000000000000E+000
  0.000000000000000E+000
  0.000000000000000E+000
  0.000000000000000E+000
  0.000000000000000E+000
  0.000000000000000E+000
  0.000000000000000E+000
  0.000000000000000E+000
  0.000000000000000E+000
  0.000000000000000E+000
  0.000000000000000E+000
  0.000000000000000E+000
  0.000000000000000E+000
  0.000000000000000E+000
  0.000000000000000E+000
  0.000000000000000E+000
  0.000000000000000E+000
  0.000000000000000E+000
  0.000000000000000E+000
  0.000000000000000E+000
  0.000000000000000E+000
  0.000000000000000E+000
  0.000000000000000E+000
  0.000000000000000E+000
  0.000000000000000E+000
  0.000000000000000E+000
  0.000000000000000E+000
  0.000000000000000E+000
  0.000000000000000E+000
  0.000000000000000E+000
  0.000000000000000E+000
  0.000000000000000E+000
  0.000000000000000E+000
  0.000000000000000E+000
  0.000000000000000E+000
  0.000000000000000E+000
  0.000000000000000E+000
  0.000000000000000E+000
  0.000000000000000E+000
  0.000000000000000E+000
  0.000000000000000E+000
  0.000000000000000E+000
  0.000000000000000E+000
  0.000000000000000E+000
  0.000000000000000E+000
  0.000000000000000E+000
  0.000000000000000E+000
  0.000000000000000E+000
  0.000000000000000E+000
  0.000000000000000E+000
  0.000000000000000E+000
  0.000000000000000E+000
  0.000000000000000E+000
  0.000000000000000E+000
  0.000000000000000E+000
  0.000000000000000E+000
  0.000000000000000E+000
  0.000000000000000E+000
  0.000000000000000E+000
  0.000000000000000E+000
  0.000000000000000E+000
  0.000000000000000E+000
  0.000000000000000E+000
  0.000000000000000E+000
  0.000000000000000E+000
  0.000000000000000E+000
  0.000000000000000E+000
  0.000000000000000E+000
  0.000000000000000E+000
  0.000000000000000E+000
  0.000000000000000E+000
  0.000000000000000E+000
  0.000000000000000E+000
  0.000000000000000E+000
  0.000000000000000E+000
  0.000000000000000E+000
  0.000000000000000E+000
  0.000000000000000E+000
  0.000000000000000E+000
  0.000000000000000E+000
  0.000000000000000E+000
  0.000000000000000E+000
  0.000000000000000E+000
  0.000000000000000E+000
  0.000000000000000E+000
  0.000000000000000E+000
  0.000000000000000E+000
  0.000000000000000E+000
  0.000000000000000E+000
  0.000000000000000E+000
  0.000000000000000E+000
  0.000000000000000E+000
  0.000000000000000E+000
  0.000000000000000E+000
  0.000000000000000E+000
  0.000000000000000E+000
  0.000000000000000E+000
  0.000000000000000E+000
  0.000000000000000E+000
  0.000000000000000E+000
  0.000000000000000E+000
  0.000000000000000E+000
  0.000000000000000E+000
  0.000000000000000E+000
  0.000000000000000E+000
  0.000000000000000E+000
  0.000000000000000E+000
  0.000000000000000E+000
  0.000000000000000E+000
  0.000000000000000E+000
  0.000000000000000E+000
  0.000000000000000E+000
  0.000000000000000E+000
  0.000000000000000E+000
  0.000000000000000E+000
  0.000000000000000E+000
  0.000000000000000E+000
  0.000000000000000E+000
  0.000000000000000E+000
  0.000000000000000E+000
  0.000000000000000E+000
  0.000000000000000E+000
  0.000000000000000E+000
  0.000000000000000E+000
  0.000000000000000E+000
  0.000000000000000E+000
  0.000000000000000E+000
  0.000000000000000E+000
  0.000000000000000E+000
  0.000000000000000E+000
  0.000000000000000E+000
  0.000000000000000E+000
  0.000000000000000E+000
  0.000000000000000E+000
  0.000000000000000E+000
  0.000000000000000E+000
  0.000000000000000E+000
  0.000000000000000E+000
  0.000000000000000E+000
  0.000000000000000E+000
  0.000000000000000E+000
  0.000000000000000E+000
  0.000000000000000E+000
  0.000000000000000E+000
  0.000000000000000E+000
  0.000000000000000E+000
  0.000000000000000E+000
  0.000000000000000E+000
  0.000000000000000E+000
  0.000000000000000E+000
  0.000000000000000E+000
  0.000000000000000E+000
  0.000000000000000E+000
  0.000000000000000E+000
  0.000000000000000E+000
  0.000000000000000E+000
  0.000000000000000E+000
  0.000000000000000E+000
  0.000000000000000E+000
  0.000000000000000E+000
  0.000000000000000E+000
  0.000000000000000E+000
  0.000000000000000E+000
  0.000000000000000E+000
  0.000000000000000E+000
  0.000000000000000E+000
  0.000000000000000E+000
  0.000000000000000E+000
  0.000000000000000E+000
  0.000000000000000E+000
  0.000000000000000E+000
  0.000000000000000E+000
  0.000000000000000E+000
  0.000000000000000E+000
  0.000000000000000E+000
  0.000000000000000E+000
  0.000000000000000E+000
  0.000000000000000E+000
  0.000000000000000E+000
  0.000000000000000E+000
  0.000000000000000E+000
  0.000000000000000E+000
  0.000000000000000E+000
  0.000000000000000E+000
  0.000000000000000E+000
  0.000000000000000E+000
  0.000000000000000E+000
  0.000000000000000E+000
  0.000000000000000E+000
  0.000000000000000E+000
  0.000000000000000E+000
  0.000000000000000E+000
  0.000000000000000E+000
  0.000000000000000E+000
  0.000000000000000E+000
  0.000000000000000E+000
  0.000000000000000E+000
  0.000000000000000E+000
  0.000000000000000E+000
  0.000000000000000E+000
  0.000000000000000E+000
  0.000000000000000E+000
  0.000000000000000E+000
  0.000000000000000E+000
  0.000000000000000E+000
  0.000000000000000E+000
  0.000000000000000E+000
  0.000000000000000E+000
SCALARS elementIsPlast double 
LOOKUP_TABLE default
  0.000000000000000E+000
  0.000000000000000E+000
  0.000000000000000E+000
  0.000000000000000E+000
   1.00000000000000     
   1.00000000000000     
   1.00000000000000     
   1.00000000000000     
   1.00000000000000     
   1.00000000000000     
   1.00000000000000     
   1.00000000000000     
   1.00000000000000     
   1.00000000000000     
   1.00000000000000     
   1.00000000000000     
   1.00000000000000     
   1.00000000000000     
   1.00000000000000     
   1.00000000000000     
   1.00000000000000     
   1.00000000000000     
   1.00000000000000     
   1.00000000000000     
   1.00000000000000     
   1.00000000000000     
   1.00000000000000     
   1.00000000000000     
   1.00000000000000     
   1.00000000000000     
   1.00000000000000     
   1.00000000000000     
   1.00000000000000     
   1.00000000000000     
   1.00000000000000     
   1.00000000000000     
   1.00000000000000     
   1.00000000000000     
   1.00000000000000     
   1.00000000000000     
   1.00000000000000     
   1.00000000000000     
   1.00000000000000     
   1.00000000000000     
   1.00000000000000     
   1.00000000000000     
   1.00000000000000     
   1.00000000000000     
   1.00000000000000     
   1.00000000000000     
   1.00000000000000     
   1.00000000000000     
   1.00000000000000     
   1.00000000000000     
   1.00000000000000     
   1.00000000000000     
   1.00000000000000     
   1.00000000000000     
   1.00000000000000     
   1.00000000000000     
   1.00000000000000     
   1.00000000000000     
   1.00000000000000     
   1.00000000000000     
   1.00000000000000     
   1.00000000000000     
   1.00000000000000     
   1.00000000000000     
   1.00000000000000     
   1.00000000000000     
   1.00000000000000     
   1.00000000000000     
   1.00000000000000     
   1.00000000000000     
   1.00000000000000     
   1.00000000000000     
   1.00000000000000     
   1.00000000000000     
   1.00000000000000     
   1.00000000000000     
   1.00000000000000     
   1.00000000000000     
   1.00000000000000     
   1.00000000000000     
   1.00000000000000     
   1.00000000000000     
   1.00000000000000     
   1.00000000000000     
   1.00000000000000     
   1.00000000000000     
   1.00000000000000     
   1.00000000000000     
   1.00000000000000     
   1.00000000000000     
   1.00000000000000     
   1.00000000000000     
   1.00000000000000     
   1.00000000000000     
   1.00000000000000     
   1.00000000000000     
  0.000000000000000E+000
  0.000000000000000E+000
  0.000000000000000E+000
  0.000000000000000E+000
  0.000000000000000E+000
  0.000000000000000E+000
  0.000000000000000E+000
  0.000000000000000E+000
  0.000000000000000E+000
  0.000000000000000E+000
  0.000000000000000E+000
  0.000000000000000E+000
  0.000000000000000E+000
  0.000000000000000E+000
  0.000000000000000E+000
   1.00000000000000     
   1.00000000000000     
   1.00000000000000     
   1.00000000000000     
   1.00000000000000     
   1.00000000000000     
   1.00000000000000     
   1.00000000000000     
   1.00000000000000     
   1.00000000000000     
   1.00000000000000     
   1.00000000000000     
   1.00000000000000     
   1.00000000000000     
   1.00000000000000     
   1.00000000000000     
   1.00000000000000     
   1.00000000000000     
   1.00000000000000     
   1.00000000000000     
   1.00000000000000     
   1.00000000000000     
   1.00000000000000     
   1.00000000000000     
   1.00000000000000     
   1.00000000000000     
   1.00000000000000     
   1.00000000000000     
   1.00000000000000     
   1.00000000000000     
   1.00000000000000     
   1.00000000000000     
   1.00000000000000     
   1.00000000000000     
   1.00000000000000     
  0.000000000000000E+000
  0.000000000000000E+000
  0.000000000000000E+000
  0.000000000000000E+000
  0.000000000000000E+000
  0.000000000000000E+000
  0.000000000000000E+000
  0.000000000000000E+000
  0.000000000000000E+000
  0.000000000000000E+000
  0.000000000000000E+000
  0.000000000000000E+000
  0.000000000000000E+000
  0.000000000000000E+000
  0.000000000000000E+000
  0.000000000000000E+000
  0.000000000000000E+000
  0.000000000000000E+000
  0.000000000000000E+000
  0.000000000000000E+000
  0.000000000000000E+000
  0.000000000000000E+000
  0.000000000000000E+000
  0.000000000000000E+000
  0.000000000000000E+000
  0.000000000000000E+000
  0.000000000000000E+000
  0.000000000000000E+000
  0.000000000000000E+000
  0.000000000000000E+000
   1.00000000000000     
   1.00000000000000     
   1.00000000000000     
   1.00000000000000     
   1.00000000000000     
   1.00000000000000     
   1.00000000000000     
   1.00000000000000     
   1.00000000000000     
   1.00000000000000     
   1.00000000000000     
   1.00000000000000     
   1.00000000000000     
   1.00000000000000     
   1.00000000000000     
   1.00000000000000     
   1.00000000000000     
   1.00000000000000     
   1.00000000000000     
   1.00000000000000     
  0.000000000000000E+000
  0.000000000000000E+000
  0.000000000000000E+000
  0.000000000000000E+000
  0.000000000000000E+000
  0.000000000000000E+000
  0.000000000000000E+000
  0.000000000000000E+000
  0.000000000000000E+000
  0.000000000000000E+000
  0.000000000000000E+000
  0.000000000000000E+000
  0.000000000000000E+000
  0.000000000000000E+000
  0.000000000000000E+000
  0.000000000000000E+000
  0.000000000000000E+000
  0.000000000000000E+000
  0.000000000000000E+000
  0.000000000000000E+000
  0.000000000000000E+000
  0.000000000000000E+000
  0.000000000000000E+000
  0.000000000000000E+000
  0.000000000000000E+000
  0.000000000000000E+000
  0.000000000000000E+000
  0.000000000000000E+000
  0.000000000000000E+000
  0.000000000000000E+000
  0.000000000000000E+000
  0.000000000000000E+000
  0.000000000000000E+000
  0.000000000000000E+000
   1.00000000000000     
   1.00000000000000     
   1.00000000000000     
   1.00000000000000     
   1.00000000000000     
   1.00000000000000     
   1.00000000000000     
   1.00000000000000     
   1.00000000000000     
   1.00000000000000     
   1.00000000000000     
   1.00000000000000     
   1.00000000000000     
   1.00000000000000     
   1.00000000000000     
   1.00000000000000     
  0.000000000000000E+000
  0.000000000000000E+000
  0.000000000000000E+000
  0.000000000000000E+000
  0.000000000000000E+000
  0.000000000000000E+000
  0.000000000000000E+000
  0.000000000000000E+000
  0.000000000000000E+000
  0.000000000000000E+000
  0.000000000000000E+000
  0.000000000000000E+000
  0.000000000000000E+000
  0.000000000000000E+000
  0.000000000000000E+000
  0.000000000000000E+000
  0.000000000000000E+000
  0.000000000000000E+000
  0.000000000000000E+000
  0.000000000000000E+000
  0.000000000000000E+000
  0.000000000000000E+000
  0.000000000000000E+000
  0.000000000000000E+000
  0.000000000000000E+000
  0.000000000000000E+000
  0.000000000000000E+000
  0.000000000000000E+000
  0.000000000000000E+000
  0.000000000000000E+000
  0.000000000000000E+000
  0.000000000000000E+000
  0.000000000000000E+000
  0.000000000000000E+000
  0.000000000000000E+000
  0.000000000000000E+000
  0.000000000000000E+000
  0.000000000000000E+000
   1.00000000000000     
   1.00000000000000     
   1.00000000000000     
   1.00000000000000     
   1.00000000000000     
   1.00000000000000     
   1.00000000000000     
   1.00000000000000     
   1.00000000000000     
   1.00000000000000     
   1.00000000000000     
   1.00000000000000     
  0.000000000000000E+000
  0.000000000000000E+000
  0.000000000000000E+000
  0.000000000000000E+000
  0.000000000000000E+000
  0.000000000000000E+000
  0.000000000000000E+000
  0.000000000000000E+000
  0.000000000000000E+000
  0.000000000000000E+000
  0.000000000000000E+000
  0.000000000000000E+000
  0.000000000000000E+000
  0.000000000000000E+000
  0.000000000000000E+000
  0.000000000000000E+000
  0.000000000000000E+000
  0.000000000000000E+000
  0.000000000000000E+000
  0.000000000000000E+000
  0.000000000000000E+000
  0.000000000000000E+000
  0.000000000000000E+000
  0.000000000000000E+000
  0.000000000000000E+000
  0.000000000000000E+000
  0.000000000000000E+000
  0.000000000000000E+000
  0.000000000000000E+000
  0.000000000000000E+000
  0.000000000000000E+000
  0.000000000000000E+000
  0.000000000000000E+000
  0.000000000000000E+000
  0.000000000000000E+000
  0.000000000000000E+000
  0.000000000000000E+000
  0.000000000000000E+000
  0.000000000000000E+000
  0.000000000000000E+000
  0.000000000000000E+000
   1.00000000000000     
   1.00000000000000     
   1.00000000000000     
   1.00000000000000     
   1.00000000000000     
   1.00000000000000     
   1.00000000000000     
   1.00000000000000     
   1.00000000000000     
  0.000000000000000E+000
  0.000000000000000E+000
  0.000000000000000E+000
  0.000000000000000E+000
  0.000000000000000E+000
  0.000000000000000E+000
  0.000000000000000E+000
  0.000000000000000E+000
  0.000000000000000E+000
  0.000000000000000E+000
  0.000000000000000E+000
  0.000000000000000E+000
  0.000000000000000E+000
  0.000000000000000E+000
  0.000000000000000E+000
  0.000000000000000E+000
  0.000000000000000E+000
  0.000000000000000E+000
  0.000000000000000E+000
  0.000000000000000E+000
  0.000000000000000E+000
  0.000000000000000E+000
  0.000000000000000E+000
  0.000000000000000E+000
  0.000000000000000E+000
  0.000000000000000E+000
  0.000000000000000E+000
  0.000000000000000E+000
  0.000000000000000E+000
  0.000000000000000E+000
  0.000000000000000E+000
  0.000000000000000E+000
  0.000000000000000E+000
  0.000000000000000E+000
  0.000000000000000E+000
  0.000000000000000E+000
  0.000000000000000E+000
  0.000000000000000E+000
  0.000000000000000E+000
  0.000000000000000E+000
  0.000000000000000E+000
  0.000000000000000E+000
  0.000000000000000E+000
  0.000000000000000E+000
  0.000000000000000E+000
   1.00000000000000     
   1.00000000000000     
   1.00000000000000     
   1.00000000000000     
   1.00000000000000     
  0.000000000000000E+000
  0.000000000000000E+000
  0.000000000000000E+000
  0.000000000000000E+000
  0.000000000000000E+000
  0.000000000000000E+000
  0.000000000000000E+000
  0.000000000000000E+000
  0.000000000000000E+000
  0.000000000000000E+000
  0.000000000000000E+000
  0.000000000000000E+000
  0.000000000000000E+000
  0.000000000000000E+000
  0.000000000000000E+000
  0.000000000000000E+000
  0.000000000000000E+000
  0.000000000000000E+000
  0.000000000000000E+000
  0.000000000000000E+000
  0.000000000000000E+000
  0.000000000000000E+000
  0.000000000000000E+000
  0.000000000000000E+000
  0.000000000000000E+000
  0.000000000000000E+000
  0.000000000000000E+000
  0.000000000000000E+000
  0.000000000000000E+000
  0.000000000000000E+000
  0.000000000000000E+000
  0.000000000000000E+000
  0.000000000000000E+000
  0.000000000000000E+000
  0.000000000000000E+000
  0.000000000000000E+000
  0.000000000000000E+000
  0.000000000000000E+000
  0.000000000000000E+000
  0.000000000000000E+000
  0.000000000000000E+000
  0.000000000000000E+000
  0.000000000000000E+000
  0.000000000000000E+000
  0.000000000000000E+000
  0.000000000000000E+000
  0.000000000000000E+000
  0.000000000000000E+000
  0.000000000000000E+000
  0.000000000000000E+000
  0.000000000000000E+000
  0.000000000000000E+000
  0.000000000000000E+000
  0.000000000000000E+000
  0.000000000000000E+000
  0.000000000000000E+000
  0.000000000000000E+000
  0.000000000000000E+000
  0.000000000000000E+000
  0.000000000000000E+000
  0.000000000000000E+000
  0.000000000000000E+000
  0.000000000000000E+000
  0.000000000000000E+000
  0.000000000000000E+000
  0.000000000000000E+000
  0.000000000000000E+000
  0.000000000000000E+000
  0.000000000000000E+000
  0.000000000000000E+000
  0.000000000000000E+000
  0.000000000000000E+000
  0.000000000000000E+000
  0.000000000000000E+000
  0.000000000000000E+000
  0.000000000000000E+000
  0.000000000000000E+000
  0.000000000000000E+000
  0.000000000000000E+000
  0.000000000000000E+000
  0.000000000000000E+000
  0.000000000000000E+000
  0.000000000000000E+000
  0.000000000000000E+000
  0.000000000000000E+000
  0.000000000000000E+000
  0.000000000000000E+000
  0.000000000000000E+000
  0.000000000000000E+000
  0.000000000000000E+000
  0.000000000000000E+000
  0.000000000000000E+000
  0.000000000000000E+000
  0.000000000000000E+000
  0.000000000000000E+000
  0.000000000000000E+000
  0.000000000000000E+000
  0.000000000000000E+000
  0.000000000000000E+000
  0.000000000000000E+000
  0.000000000000000E+000
  0.000000000000000E+000
  0.000000000000000E+000
  0.000000000000000E+000
  0.000000000000000E+000
  0.000000000000000E+000
  0.000000000000000E+000
  0.000000000000000E+000
  0.000000000000000E+000
  0.000000000000000E+000
  0.000000000000000E+000
  0.000000000000000E+000
  0.000000000000000E+000
  0.000000000000000E+000
  0.000000000000000E+000
  0.000000000000000E+000
  0.000000000000000E+000
  0.000000000000000E+000
  0.000000000000000E+000
  0.000000000000000E+000
  0.000000000000000E+000
  0.000000000000000E+000
  0.000000000000000E+000
  0.000000000000000E+000
  0.000000000000000E+000
  0.000000000000000E+000
  0.000000000000000E+000
  0.000000000000000E+000
  0.000000000000000E+000
  0.000000000000000E+000
  0.000000000000000E+000
  0.000000000000000E+000
  0.000000000000000E+000
  0.000000000000000E+000
  0.000000000000000E+000
  0.000000000000000E+000
  0.000000000000000E+000
  0.000000000000000E+000
  0.000000000000000E+000
  0.000000000000000E+000
  0.000000000000000E+000
  0.000000000000000E+000
  0.000000000000000E+000
  0.000000000000000E+000
  0.000000000000000E+000
  0.000000000000000E+000
  0.000000000000000E+000
  0.000000000000000E+000
  0.000000000000000E+000
  0.000000000000000E+000
  0.000000000000000E+000
  0.000000000000000E+000
  0.000000000000000E+000
  0.000000000000000E+000
  0.000000000000000E+000
  0.000000000000000E+000
  0.000000000000000E+000
  0.000000000000000E+000
  0.000000000000000E+000
  0.000000000000000E+000
  0.000000000000000E+000
  0.000000000000000E+000
  0.000000000000000E+000
  0.000000000000000E+000
  0.000000000000000E+000
  0.000000000000000E+000
  0.000000000000000E+000
  0.000000000000000E+000
  0.000000000000000E+000
  0.000000000000000E+000
  0.000000000000000E+000
  0.000000000000000E+000
  0.000000000000000E+000
  0.000000000000000E+000
  0.000000000000000E+000
  0.000000000000000E+000
  0.000000000000000E+000
  0.000000000000000E+000
  0.000000000000000E+000
  0.000000000000000E+000
  0.000000000000000E+000
  0.000000000000000E+000
  0.000000000000000E+000
  0.000000000000000E+000
  0.000000000000000E+000
  0.000000000000000E+000
  0.000000000000000E+000
  0.000000000000000E+000
  0.000000000000000E+000
  0.000000000000000E+000
  0.000000000000000E+000
  0.000000000000000E+000
  0.000000000000000E+000
  0.000000000000000E+000
  0.000000000000000E+000
  0.000000000000000E+000
  0.000000000000000E+000
  0.000000000000000E+000
  0.000000000000000E+000
  0.000000000000000E+000
  0.000000000000000E+000
  0.000000000000000E+000
  0.000000000000000E+000
  0.000000000000000E+000
  0.000000000000000E+000
  0.000000000000000E+000
  0.000000000000000E+000
  0.000000000000000E+000
  0.000000000000000E+000
  0.000000000000000E+000
  0.000000000000000E+000
  0.000000000000000E+000
  0.000000000000000E+000
  0.000000000000000E+000
  0.000000000000000E+000
  0.000000000000000E+000
  0.000000000000000E+000
  0.000000000000000E+000
  0.000000000000000E+000
  0.000000000000000E+000
  0.000000000000000E+000
  0.000000000000000E+000
  0.000000000000000E+000
  0.000000000000000E+000
  0.000000000000000E+000
  0.000000000000000E+000
  0.000000000000000E+000
  0.000000000000000E+000
  0.000000000000000E+000
  0.000000000000000E+000
  0.000000000000000E+000
  0.000000000000000E+000
  0.000000000000000E+000
  0.000000000000000E+000
  0.000000000000000E+000
  0.000000000000000E+000
  0.000000000000000E+000
  0.000000000000000E+000
  0.000000000000000E+000
  0.000000000000000E+000
  0.000000000000000E+000
  0.000000000000000E+000
  0.000000000000000E+000
  0.000000000000000E+000
  0.000000000000000E+000
  0.000000000000000E+000
  0.000000000000000E+000
  0.000000000000000E+000
  0.000000000000000E+000
  0.000000000000000E+000
  0.000000000000000E+000
  0.000000000000000E+000
  0.000000000000000E+000
  0.000000000000000E+000
  0.000000000000000E+000
  0.000000000000000E+000
  0.000000000000000E+000
  0.000000000000000E+000
  0.000000000000000E+000
  0.000000000000000E+000
  0.000000000000000E+000
  0.000000000000000E+000
  0.000000000000000E+000
  0.000000000000000E+000
  0.000000000000000E+000
  0.000000000000000E+000
  0.000000000000000E+000
  0.000000000000000E+000
  0.000000000000000E+000
  0.000000000000000E+000
  0.000000000000000E+000
  0.000000000000000E+000
  0.000000000000000E+000
  0.000000000000000E+000
  0.000000000000000E+000
  0.000000000000000E+000
  0.000000000000000E+000
  0.000000000000000E+000
  0.000000000000000E+000
  0.000000000000000E+000
  0.000000000000000E+000
  0.000000000000000E+000
  0.000000000000000E+000
  0.000000000000000E+000
  0.000000000000000E+000
  0.000000000000000E+000
  0.000000000000000E+000
  0.000000000000000E+000
  0.000000000000000E+000
  0.000000000000000E+000
  0.000000000000000E+000
  0.000000000000000E+000
  0.000000000000000E+000
  0.000000000000000E+000
  0.000000000000000E+000
  0.000000000000000E+000
  0.000000000000000E+000
  0.000000000000000E+000
  0.000000000000000E+000
  0.000000000000000E+000
  0.000000000000000E+000
  0.000000000000000E+000
  0.000000000000000E+000
  0.000000000000000E+000
  0.000000000000000E+000
  0.000000000000000E+000
  0.000000000000000E+000
  0.000000000000000E+000
  0.000000000000000E+000
  0.000000000000000E+000
  0.000000000000000E+000
  0.000000000000000E+000
  0.000000000000000E+000
  0.000000000000000E+000
  0.000000000000000E+000
  0.000000000000000E+000
  0.000000000000000E+000
  0.000000000000000E+000
  0.000000000000000E+000
  0.000000000000000E+000
  0.000000000000000E+000
  0.000000000000000E+000
  0.000000000000000E+000
  0.000000000000000E+000
  0.000000000000000E+000
  0.000000000000000E+000
  0.000000000000000E+000
  0.000000000000000E+000
  0.000000000000000E+000
  0.000000000000000E+000
  0.000000000000000E+000
  0.000000000000000E+000
  0.000000000000000E+000
  0.000000000000000E+000
  0.000000000000000E+000
  0.000000000000000E+000
  0.000000000000000E+000
  0.000000000000000E+000
  0.000000000000000E+000
  0.000000000000000E+000
  0.000000000000000E+000
  0.000000000000000E+000
  0.000000000000000E+000
  0.000000000000000E+000
  0.000000000000000E+000
  0.000000000000000E+000
  0.000000000000000E+000
  0.000000000000000E+000
  0.000000000000000E+000
  0.000000000000000E+000
  0.000000000000000E+000
  0.000000000000000E+000
  0.000000000000000E+000
  0.000000000000000E+000
  0.000000000000000E+000
  0.000000000000000E+000
  0.000000000000000E+000
  0.000000000000000E+000
  0.000000000000000E+000
  0.000000000000000E+000
  0.000000000000000E+000
  0.000000000000000E+000
  0.000000000000000E+000
  0.000000000000000E+000
  0.000000000000000E+000
  0.000000000000000E+000
  0.000000000000000E+000
  0.000000000000000E+000
  0.000000000000000E+000
  0.000000000000000E+000
  0.000000000000000E+000
  0.000000000000000E+000
  0.000000000000000E+000
  0.000000000000000E+000
  0.000000000000000E+000
  0.000000000000000E+000
  0.000000000000000E+000
  0.000000000000000E+000
  0.000000000000000E+000
  0.000000000000000E+000
  0.000000000000000E+000
  0.000000000000000E+000
  0.000000000000000E+000
  0.000000000000000E+000
  0.000000000000000E+000
  0.000000000000000E+000
  0.000000000000000E+000
  0.000000000000000E+000
  0.000000000000000E+000
  0.000000000000000E+000
  0.000000000000000E+000
  0.000000000000000E+000
  0.000000000000000E+000
  0.000000000000000E+000
  0.000000000000000E+000
  0.000000000000000E+000
  0.000000000000000E+000
  0.000000000000000E+000
  0.000000000000000E+000
  0.000000000000000E+000
  0.000000000000000E+000
  0.000000000000000E+000
  0.000000000000000E+000
  0.000000000000000E+000
  0.000000000000000E+000
  0.000000000000000E+000
  0.000000000000000E+000
  0.000000000000000E+000
  0.000000000000000E+000
  0.000000000000000E+000
  0.000000000000000E+000
  0.000000000000000E+000
  0.000000000000000E+000
  0.000000000000000E+000
  0.000000000000000E+000
  0.000000000000000E+000
  0.000000000000000E+000
  0.000000000000000E+000
  0.000000000000000E+000
  0.000000000000000E+000
  0.000000000000000E+000
  0.000000000000000E+000
  0.000000000000000E+000
  0.000000000000000E+000
  0.000000000000000E+000
  0.000000000000000E+000
  0.000000000000000E+000
  0.000000000000000E+000
  0.000000000000000E+000
  0.000000000000000E+000
  0.000000000000000E+000
  0.000000000000000E+000
  0.000000000000000E+000
  0.000000000000000E+000
  0.000000000000000E+000
  0.000000000000000E+000
  0.000000000000000E+000
  0.000000000000000E+000
  0.000000000000000E+000
  0.000000000000000E+000
  0.000000000000000E+000
  0.000000000000000E+000
  0.000000000000000E+000
  0.000000000000000E+000
  0.000000000000000E+000
  0.000000000000000E+000
  0.000000000000000E+000
  0.000000000000000E+000
  0.000000000000000E+000
  0.000000000000000E+000
  0.000000000000000E+000
  0.000000000000000E+000
  0.000000000000000E+000
  0.000000000000000E+000
  0.000000000000000E+000
  0.000000000000000E+000
  0.000000000000000E+000
  0.000000000000000E+000
  0.000000000000000E+000
  0.000000000000000E+000
  0.000000000000000E+000
  0.000000000000000E+000
  0.000000000000000E+000
  0.000000000000000E+000
  0.000000000000000E+000
  0.000000000000000E+000
  0.000000000000000E+000
  0.000000000000000E+000
  0.000000000000000E+000
  0.000000000000000E+000
  0.000000000000000E+000
  0.000000000000000E+000
  0.000000000000000E+000
  0.000000000000000E+000
  0.000000000000000E+000
  0.000000000000000E+000
  0.000000000000000E+000
  0.000000000000000E+000
  0.000000000000000E+000
  0.000000000000000E+000
  0.000000000000000E+000
  0.000000000000000E+000
  0.000000000000000E+000
  0.000000000000000E+000
  0.000000000000000E+000
  0.000000000000000E+000
  0.000000000000000E+000
  0.000000000000000E+000
  0.000000000000000E+000
  0.000000000000000E+000
  0.000000000000000E+000
  0.000000000000000E+000
  0.000000000000000E+000
  0.000000000000000E+000
  0.000000000000000E+000
  0.000000000000000E+000
  0.000000000000000E+000
  0.000000000000000E+000
  0.000000000000000E+000
  0.000000000000000E+000
  0.000000000000000E+000
  0.000000000000000E+000
  0.000000000000000E+000
  0.000000000000000E+000
  0.000000000000000E+000
  0.000000000000000E+000
  0.000000000000000E+000
  0.000000000000000E+000
  0.000000000000000E+000
  0.000000000000000E+000
  0.000000000000000E+000
  0.000000000000000E+000
  0.000000000000000E+000
  0.000000000000000E+000
  0.000000000000000E+000
  0.000000000000000E+000
  0.000000000000000E+000
  0.000000000000000E+000
  0.000000000000000E+000
  0.000000000000000E+000
  0.000000000000000E+000
  0.000000000000000E+000
  0.000000000000000E+000
  0.000000000000000E+000
  0.000000000000000E+000
  0.000000000000000E+000
  0.000000000000000E+000
  0.000000000000000E+000
  0.000000000000000E+000
  0.000000000000000E+000
  0.000000000000000E+000
  0.000000000000000E+000
  0.000000000000000E+000
  0.000000000000000E+000
  0.000000000000000E+000
  0.000000000000000E+000
  0.000000000000000E+000
  0.000000000000000E+000
  0.000000000000000E+000
  0.000000000000000E+000
  0.000000000000000E+000
  0.000000000000000E+000
  0.000000000000000E+000
  0.000000000000000E+000
  0.000000000000000E+000
  0.000000000000000E+000
  0.000000000000000E+000
  0.000000000000000E+000
  0.000000000000000E+000
  0.000000000000000E+000
  0.000000000000000E+000
  0.000000000000000E+000
  0.000000000000000E+000
  0.000000000000000E+000
  0.000000000000000E+000
  0.000000000000000E+000
  0.000000000000000E+000
  0.000000000000000E+000
  0.000000000000000E+000
  0.000000000000000E+000
  0.000000000000000E+000
  0.000000000000000E+000
  0.000000000000000E+000
  0.000000000000000E+000
  0.000000000000000E+000
  0.000000000000000E+000
  0.000000000000000E+000
  0.000000000000000E+000
  0.000000000000000E+000
  0.000000000000000E+000
  0.000000000000000E+000
  0.000000000000000E+000
  0.000000000000000E+000
  0.000000000000000E+000
  0.000000000000000E+000
  0.000000000000000E+000
  0.000000000000000E+000
  0.000000000000000E+000
  0.000000000000000E+000
  0.000000000000000E+000
  0.000000000000000E+000
  0.000000000000000E+000
  0.000000000000000E+000
  0.000000000000000E+000
  0.000000000000000E+000
  0.000000000000000E+000
  0.000000000000000E+000
  0.000000000000000E+000
  0.000000000000000E+000
  0.000000000000000E+000
  0.000000000000000E+000
  0.000000000000000E+000
  0.000000000000000E+000
  0.000000000000000E+000
  0.000000000000000E+000
  0.000000000000000E+000
  0.000000000000000E+000
  0.000000000000000E+000
  0.000000000000000E+000
  0.000000000000000E+000
  0.000000000000000E+000
  0.000000000000000E+000
  0.000000000000000E+000
  0.000000000000000E+000
  0.000000000000000E+000
  0.000000000000000E+000
  0.000000000000000E+000
  0.000000000000000E+000
  0.000000000000000E+000
  0.000000000000000E+000
  0.000000000000000E+000
  0.000000000000000E+000
  0.000000000000000E+000
  0.000000000000000E+000
  0.000000000000000E+000
  0.000000000000000E+000
  0.000000000000000E+000
  0.000000000000000E+000
  0.000000000000000E+000
  0.000000000000000E+000
  0.000000000000000E+000
  0.000000000000000E+000
  0.000000000000000E+000
  0.000000000000000E+000
  0.000000000000000E+000
  0.000000000000000E+000
  0.000000000000000E+000
  0.000000000000000E+000
  0.000000000000000E+000
  0.000000000000000E+000
  0.000000000000000E+000
  0.000000000000000E+000
  0.000000000000000E+000
  0.000000000000000E+000
  0.000000000000000E+000
  0.000000000000000E+000
  0.000000000000000E+000
  0.000000000000000E+000
  0.000000000000000E+000
  0.000000000000000E+000
  0.000000000000000E+000
  0.000000000000000E+000
  0.000000000000000E+000
  0.000000000000000E+000
  0.000000000000000E+000
  0.000000000000000E+000
  0.000000000000000E+000
  0.000000000000000E+000
  0.000000000000000E+000
  0.000000000000000E+000
  0.000000000000000E+000
  0.000000000000000E+000
  0.000000000000000E+000
  0.000000000000000E+000
  0.000000000000000E+000
  0.000000000000000E+000
  0.000000000000000E+000
  0.000000000000000E+000
  0.000000000000000E+000
  0.000000000000000E+000
  0.000000000000000E+000
  0.000000000000000E+000
  0.000000000000000E+000
  0.000000000000000E+000
  0.000000000000000E+000
  0.000000000000000E+000
  0.000000000000000E+000
  0.000000000000000E+000
  0.000000000000000E+000
  0.000000000000000E+000
  0.000000000000000E+000
  0.000000000000000E+000
  0.000000000000000E+000
  0.000000000000000E+000
  0.000000000000000E+000
  0.000000000000000E+000
  0.000000000000000E+000
  0.000000000000000E+000
  0.000000000000000E+000
  0.000000000000000E+000
  0.000000000000000E+000
  0.000000000000000E+000
  0.000000000000000E+000
  0.000000000000000E+000
  0.000000000000000E+000
  0.000000000000000E+000
  0.000000000000000E+000
  0.000000000000000E+000
  0.000000000000000E+000
  0.000000000000000E+000
  0.000000000000000E+000
  0.000000000000000E+000
  0.000000000000000E+000
  0.000000000000000E+000
  0.000000000000000E+000
  0.000000000000000E+000
  0.000000000000000E+000
  0.000000000000000E+000
  0.000000000000000E+000
  0.000000000000000E+000
  0.000000000000000E+000
  0.000000000000000E+000
  0.000000000000000E+000
  0.000000000000000E+000
  0.000000000000000E+000
  0.000000000000000E+000
  0.000000000000000E+000
  0.000000000000000E+000
  0.000000000000000E+000
  0.000000000000000E+000
  0.000000000000000E+000
  0.000000000000000E+000
  0.000000000000000E+000
  0.000000000000000E+000
  0.000000000000000E+000
  0.000000000000000E+000
  0.000000000000000E+000
  0.000000000000000E+000
  0.000000000000000E+000
  0.000000000000000E+000
  0.000000000000000E+000
  0.000000000000000E+000
  0.000000000000000E+000
  0.000000000000000E+000
  0.000000000000000E+000
  0.000000000000000E+000
  0.000000000000000E+000
  0.000000000000000E+000
  0.000000000000000E+000
  0.000000000000000E+000
  0.000000000000000E+000
  0.000000000000000E+000
  0.000000000000000E+000
  0.000000000000000E+000
  0.000000000000000E+000
  0.000000000000000E+000
  0.000000000000000E+000
  0.000000000000000E+000
  0.000000000000000E+000
  0.000000000000000E+000
  0.000000000000000E+000
  0.000000000000000E+000
  0.000000000000000E+000
  0.000000000000000E+000
  0.000000000000000E+000
  0.000000000000000E+000
  0.000000000000000E+000
  0.000000000000000E+000
  0.000000000000000E+000
  0.000000000000000E+000
  0.000000000000000E+000
  0.000000000000000E+000
  0.000000000000000E+000
  0.000000000000000E+000
  0.000000000000000E+000
  0.000000000000000E+000
  0.000000000000000E+000
  0.000000000000000E+000
  0.000000000000000E+000
  0.000000000000000E+000
  0.000000000000000E+000
  0.000000000000000E+000
  0.000000000000000E+000
  0.000000000000000E+000
  0.000000000000000E+000
  0.000000000000000E+000
  0.000000000000000E+000
  0.000000000000000E+000
  0.000000000000000E+000
  0.000000000000000E+000
  0.000000000000000E+000
  0.000000000000000E+000
  0.000000000000000E+000
  0.000000000000000E+000
  0.000000000000000E+000
  0.000000000000000E+000
  0.000000000000000E+000
  0.000000000000000E+000
  0.000000000000000E+000
  0.000000000000000E+000
  0.000000000000000E+000
  0.000000000000000E+000
  0.000000000000000E+000
  0.000000000000000E+000
  0.000000000000000E+000
  0.000000000000000E+000
  0.000000000000000E+000
  0.000000000000000E+000
  0.000000000000000E+000
  0.000000000000000E+000
  0.000000000000000E+000
  0.000000000000000E+000
  0.000000000000000E+000
  0.000000000000000E+000
  0.000000000000000E+000
  0.000000000000000E+000
  0.000000000000000E+000
  0.000000000000000E+000
  0.000000000000000E+000
  0.000000000000000E+000
  0.000000000000000E+000
  0.000000000000000E+000
  0.000000000000000E+000
  0.000000000000000E+000
  0.000000000000000E+000
  0.000000000000000E+000
  0.000000000000000E+000
  0.000000000000000E+000
  0.000000000000000E+000
  0.000000000000000E+000
  0.000000000000000E+000
  0.000000000000000E+000
  0.000000000000000E+000
  0.000000000000000E+000
  0.000000000000000E+000
  0.000000000000000E+000
  0.000000000000000E+000
  0.000000000000000E+000
  0.000000000000000E+000
  0.000000000000000E+000
  0.000000000000000E+000
  0.000000000000000E+000
  0.000000000000000E+000
  0.000000000000000E+000
  0.000000000000000E+000
  0.000000000000000E+000
  0.000000000000000E+000
  0.000000000000000E+000
  0.000000000000000E+000
  0.000000000000000E+000
  0.000000000000000E+000
  0.000000000000000E+000
  0.000000000000000E+000
  0.000000000000000E+000
  0.000000000000000E+000
  0.000000000000000E+000
  0.000000000000000E+000
  0.000000000000000E+000
  0.000000000000000E+000
  0.000000000000000E+000
  0.000000000000000E+000
  0.000000000000000E+000
  0.000000000000000E+000
  0.000000000000000E+000
  0.000000000000000E+000
  0.000000000000000E+000
  0.000000000000000E+000
  0.000000000000000E+000
  0.000000000000000E+000
  0.000000000000000E+000
  0.000000000000000E+000
  0.000000000000000E+000
  0.000000000000000E+000
  0.000000000000000E+000
  0.000000000000000E+000
  0.000000000000000E+000
  0.000000000000000E+000
  0.000000000000000E+000
  0.000000000000000E+000
  0.000000000000000E+000
  0.000000000000000E+000
  0.000000000000000E+000
  0.000000000000000E+000
  0.000000000000000E+000
  0.000000000000000E+000
  0.000000000000000E+000
  0.000000000000000E+000
  0.000000000000000E+000
  0.000000000000000E+000
  0.000000000000000E+000
  0.000000000000000E+000
  0.000000000000000E+000
  0.000000000000000E+000
  0.000000000000000E+000
  0.000000000000000E+000
  0.000000000000000E+000
  0.000000000000000E+000
  0.000000000000000E+000
  0.000000000000000E+000
  0.000000000000000E+000
  0.000000000000000E+000
  0.000000000000000E+000
  0.000000000000000E+000
  0.000000000000000E+000
  0.000000000000000E+000
  0.000000000000000E+000
  0.000000000000000E+000
  0.000000000000000E+000
  0.000000000000000E+000
  0.000000000000000E+000
  0.000000000000000E+000
  0.000000000000000E+000
  0.000000000000000E+000
  0.000000000000000E+000
  0.000000000000000E+000
  0.000000000000000E+000
  0.000000000000000E+000
  0.000000000000000E+000
  0.000000000000000E+000
  0.000000000000000E+000
  0.000000000000000E+000
  0.000000000000000E+000
  0.000000000000000E+000
  0.000000000000000E+000
  0.000000000000000E+000
  0.000000000000000E+000
  0.000000000000000E+000
  0.000000000000000E+000
  0.000000000000000E+000
  0.000000000000000E+000
  0.000000000000000E+000
  0.000000000000000E+000
  0.000000000000000E+000
  0.000000000000000E+000
  0.000000000000000E+000
  0.000000000000000E+000
  0.000000000000000E+000
  0.000000000000000E+000
  0.000000000000000E+000
  0.000000000000000E+000
  0.000000000000000E+000
  0.000000000000000E+000
  0.000000000000000E+000
  0.000000000000000E+000
  0.000000000000000E+000
  0.000000000000000E+000
  0.000000000000000E+000
  0.000000000000000E+000
  0.000000000000000E+000
  0.000000000000000E+000
  0.000000000000000E+000
  0.000000000000000E+000
  0.000000000000000E+000
  0.000000000000000E+000
  0.000000000000000E+000
  0.000000000000000E+000
  0.000000000000000E+000
  0.000000000000000E+000
  0.000000000000000E+000
  0.000000000000000E+000
  0.000000000000000E+000
  0.000000000000000E+000
  0.000000000000000E+000
  0.000000000000000E+000
  0.000000000000000E+000
  0.000000000000000E+000
  0.000000000000000E+000
  0.000000000000000E+000
  0.000000000000000E+000
  0.000000000000000E+000
  0.000000000000000E+000
  0.000000000000000E+000
  0.000000000000000E+000
  0.000000000000000E+000
  0.000000000000000E+000
  0.000000000000000E+000
  0.000000000000000E+000
  0.000000000000000E+000
  0.000000000000000E+000
  0.000000000000000E+000
  0.000000000000000E+000
  0.000000000000000E+000
  0.000000000000000E+000
  0.000000000000000E+000
  0.000000000000000E+000
  0.000000000000000E+000
  0.000000000000000E+000
  0.000000000000000E+000
  0.000000000000000E+000
  0.000000000000000E+000
  0.000000000000000E+000
  0.000000000000000E+000
  0.000000000000000E+000
  0.000000000000000E+000
  0.000000000000000E+000
  0.000000000000000E+000
  0.000000000000000E+000
  0.000000000000000E+000
  0.000000000000000E+000
  0.000000000000000E+000
  0.000000000000000E+000
  0.000000000000000E+000
  0.000000000000000E+000
  0.000000000000000E+000
  0.000000000000000E+000
  0.000000000000000E+000
  0.000000000000000E+000
  0.000000000000000E+000
  0.000000000000000E+000
  0.000000000000000E+000
  0.000000000000000E+000
  0.000000000000000E+000
  0.000000000000000E+000
  0.000000000000000E+000
  0.000000000000000E+000
  0.000000000000000E+000
  0.000000000000000E+000
  0.000000000000000E+000
  0.000000000000000E+000
  0.000000000000000E+000
  0.000000000000000E+000
  0.000000000000000E+000
  0.000000000000000E+000
  0.000000000000000E+000
  0.000000000000000E+000
  0.000000000000000E+000
  0.000000000000000E+000
  0.000000000000000E+000
  0.000000000000000E+000
  0.000000000000000E+000
  0.000000000000000E+000
  0.000000000000000E+000
  0.000000000000000E+000
  0.000000000000000E+000
  0.000000000000000E+000
  0.000000000000000E+000
  0.000000000000000E+000
  0.000000000000000E+000
  0.000000000000000E+000
  0.000000000000000E+000
  0.000000000000000E+000
  0.000000000000000E+000
  0.000000000000000E+000
  0.000000000000000E+000
  0.000000000000000E+000
  0.000000000000000E+000
  0.000000000000000E+000
  0.000000000000000E+000
  0.000000000000000E+000
  0.000000000000000E+000
  0.000000000000000E+000
  0.000000000000000E+000
  0.000000000000000E+000
  0.000000000000000E+000
  0.000000000000000E+000
  0.000000000000000E+000
  0.000000000000000E+000
  0.000000000000000E+000
  0.000000000000000E+000
  0.000000000000000E+000
  0.000000000000000E+000
  0.000000000000000E+000
  0.000000000000000E+000
  0.000000000000000E+000
  0.000000000000000E+000
  0.000000000000000E+000
  0.000000000000000E+000
  0.000000000000000E+000
  0.000000000000000E+000
  0.000000000000000E+000
  0.000000000000000E+000
  0.000000000000000E+000
  0.000000000000000E+000
  0.000000000000000E+000
  0.000000000000000E+000
  0.000000000000000E+000
  0.000000000000000E+000
  0.000000000000000E+000
  0.000000000000000E+000
  0.000000000000000E+000
  0.000000000000000E+000
  0.000000000000000E+000
  0.000000000000000E+000
  0.000000000000000E+000
  0.000000000000000E+000
  0.000000000000000E+000
  0.000000000000000E+000
  0.000000000000000E+000
  0.000000000000000E+000
  0.000000000000000E+000
  0.000000000000000E+000
  0.000000000000000E+000
  0.000000000000000E+000
  0.000000000000000E+000
  0.000000000000000E+000
  0.000000000000000E+000
  0.000000000000000E+000
  0.000000000000000E+000
  0.000000000000000E+000
  0.000000000000000E+000
  0.000000000000000E+000
  0.000000000000000E+000
  0.000000000000000E+000
  0.000000000000000E+000
  0.000000000000000E+000
  0.000000000000000E+000
  0.000000000000000E+000
  0.000000000000000E+000
  0.000000000000000E+000
  0.000000000000000E+000
  0.000000000000000E+000
  0.000000000000000E+000
  0.000000000000000E+000
  0.000000000000000E+000
  0.000000000000000E+000
  0.000000000000000E+000
  0.000000000000000E+000
  0.000000000000000E+000
  0.000000000000000E+000
  0.000000000000000E+000
  0.000000000000000E+000
  0.000000000000000E+000
  0.000000000000000E+000
  0.000000000000000E+000
  0.000000000000000E+000
  0.000000000000000E+000
  0.000000000000000E+000
  0.000000000000000E+000
  0.000000000000000E+000
  0.000000000000000E+000
  0.000000000000000E+000
  0.000000000000000E+000
  0.000000000000000E+000
  0.000000000000000E+000
  0.000000000000000E+000
  0.000000000000000E+000
  0.000000000000000E+000
  0.000000000000000E+000
  0.000000000000000E+000
  0.000000000000000E+000
  0.000000000000000E+000
  0.000000000000000E+000
  0.000000000000000E+000
  0.000000000000000E+000
  0.000000000000000E+000
  0.000000000000000E+000
  0.000000000000000E+000
  0.000000000000000E+000
  0.000000000000000E+000
  0.000000000000000E+000
  0.000000000000000E+000
  0.000000000000000E+000
  0.000000000000000E+000
  0.000000000000000E+000
  0.000000000000000E+000
  0.000000000000000E+000
  0.000000000000000E+000
  0.000000000000000E+000
  0.000000000000000E+000
  0.000000000000000E+000
  0.000000000000000E+000
  0.000000000000000E+000
  0.000000000000000E+000
  0.000000000000000E+000
  0.000000000000000E+000
  0.000000000000000E+000
  0.000000000000000E+000
  0.000000000000000E+000
  0.000000000000000E+000
  0.000000000000000E+000
  0.000000000000000E+000
  0.000000000000000E+000
  0.000000000000000E+000
  0.000000000000000E+000
  0.000000000000000E+000
  0.000000000000000E+000
  0.000000000000000E+000
  0.000000000000000E+000
  0.000000000000000E+000
  0.000000000000000E+000
  0.000000000000000E+000
  0.000000000000000E+000
  0.000000000000000E+000
  0.000000000000000E+000
  0.000000000000000E+000
  0.000000000000000E+000
  0.000000000000000E+000
  0.000000000000000E+000
  0.000000000000000E+000
  0.000000000000000E+000
  0.000000000000000E+000
  0.000000000000000E+000
  0.000000000000000E+000
  0.000000000000000E+000
  0.000000000000000E+000
  0.000000000000000E+000
  0.000000000000000E+000
  0.000000000000000E+000
  0.000000000000000E+000
  0.000000000000000E+000
  0.000000000000000E+000
  0.000000000000000E+000
  0.000000000000000E+000
  0.000000000000000E+000
  0.000000000000000E+000
  0.000000000000000E+000
  0.000000000000000E+000
  0.000000000000000E+000
  0.000000000000000E+000
  0.000000000000000E+000
  0.000000000000000E+000
  0.000000000000000E+000
  0.000000000000000E+000
  0.000000000000000E+000
  0.000000000000000E+000
  0.000000000000000E+000
  0.000000000000000E+000
  0.000000000000000E+000
  0.000000000000000E+000
  0.000000000000000E+000
  0.000000000000000E+000
  0.000000000000000E+000
  0.000000000000000E+000
  0.000000000000000E+000
  0.000000000000000E+000
  0.000000000000000E+000
  0.000000000000000E+000
  0.000000000000000E+000
  0.000000000000000E+000
  0.000000000000000E+000
  0.000000000000000E+000
  0.000000000000000E+000
  0.000000000000000E+000
  0.000000000000000E+000
  0.000000000000000E+000
  0.000000000000000E+000
  0.000000000000000E+000
  0.000000000000000E+000
  0.000000000000000E+000
  0.000000000000000E+000
  0.000000000000000E+000
  0.000000000000000E+000
  0.000000000000000E+000
  0.000000000000000E+000
  0.000000000000000E+000
  0.000000000000000E+000
  0.000000000000000E+000
  0.000000000000000E+000
  0.000000000000000E+000
  0.000000000000000E+000
  0.000000000000000E+000
  0.000000000000000E+000
  0.000000000000000E+000
  0.000000000000000E+000
  0.000000000000000E+000
  0.000000000000000E+000
  0.000000000000000E+000
  0.000000000000000E+000
  0.000000000000000E+000
  0.000000000000000E+000
  0.000000000000000E+000
  0.000000000000000E+000
  0.000000000000000E+000
  0.000000000000000E+000
  0.000000000000000E+000
  0.000000000000000E+000
  0.000000000000000E+000
  0.000000000000000E+000
  0.000000000000000E+000
  0.000000000000000E+000
  0.000000000000000E+000
  0.000000000000000E+000
  0.000000000000000E+000
  0.000000000000000E+000
  0.000000000000000E+000
  0.000000000000000E+000
  0.000000000000000E+000
  0.000000000000000E+000
  0.000000000000000E+000
  0.000000000000000E+000
  0.000000000000000E+000
  0.000000000000000E+000
  0.000000000000000E+000
  0.000000000000000E+000
  0.000000000000000E+000
  0.000000000000000E+000
  0.000000000000000E+000
  0.000000000000000E+000
  0.000000000000000E+000
  0.000000000000000E+000
  0.000000000000000E+000
  0.000000000000000E+000
  0.000000000000000E+000
  0.000000000000000E+000
  0.000000000000000E+000
  0.000000000000000E+000
  0.000000000000000E+000
  0.000000000000000E+000
  0.000000000000000E+000
  0.000000000000000E+000
  0.000000000000000E+000
  0.000000000000000E+000
  0.000000000000000E+000
  0.000000000000000E+000
  0.000000000000000E+000
  0.000000000000000E+000
  0.000000000000000E+000
  0.000000000000000E+000
  0.000000000000000E+000
  0.000000000000000E+000
  0.000000000000000E+000
  0.000000000000000E+000
  0.000000000000000E+000
  0.000000000000000E+000
  0.000000000000000E+000
  0.000000000000000E+000
  0.000000000000000E+000
  0.000000000000000E+000
  0.000000000000000E+000
  0.000000000000000E+000
  0.000000000000000E+000
  0.000000000000000E+000
  0.000000000000000E+000
  0.000000000000000E+000
  0.000000000000000E+000
  0.000000000000000E+000
  0.000000000000000E+000
  0.000000000000000E+000
  0.000000000000000E+000
  0.000000000000000E+000
  0.000000000000000E+000
  0.000000000000000E+000
  0.000000000000000E+000
  0.000000000000000E+000
  0.000000000000000E+000
  0.000000000000000E+000
  0.000000000000000E+000
  0.000000000000000E+000
  0.000000000000000E+000
  0.000000000000000E+000
  0.000000000000000E+000
  0.000000000000000E+000
  0.000000000000000E+000
  0.000000000000000E+000
  0.000000000000000E+000
  0.000000000000000E+000
  0.000000000000000E+000
  0.000000000000000E+000
  0.000000000000000E+000
  0.000000000000000E+000
  0.000000000000000E+000
  0.000000000000000E+000
  0.000000000000000E+000
  0.000000000000000E+000
  0.000000000000000E+000
  0.000000000000000E+000
  0.000000000000000E+000
  0.000000000000000E+000
  0.000000000000000E+000
  0.000000000000000E+000
  0.000000000000000E+000
  0.000000000000000E+000
  0.000000000000000E+000
  0.000000000000000E+000
  0.000000000000000E+000
  0.000000000000000E+000
  0.000000000000000E+000
  0.000000000000000E+000
  0.000000000000000E+000
  0.000000000000000E+000
  0.000000000000000E+000
  0.000000000000000E+000
  0.000000000000000E+000
  0.000000000000000E+000
  0.000000000000000E+000
  0.000000000000000E+000
  0.000000000000000E+000
  0.000000000000000E+000
  0.000000000000000E+000
  0.000000000000000E+000
  0.000000000000000E+000
  0.000000000000000E+000
  0.000000000000000E+000
  0.000000000000000E+000
  0.000000000000000E+000
  0.000000000000000E+000
  0.000000000000000E+000
  0.000000000000000E+000
  0.000000000000000E+000
  0.000000000000000E+000
  0.000000000000000E+000
  0.000000000000000E+000
  0.000000000000000E+000
  0.000000000000000E+000
  0.000000000000000E+000
  0.000000000000000E+000
  0.000000000000000E+000
  0.000000000000000E+000
  0.000000000000000E+000
  0.000000000000000E+000
  0.000000000000000E+000
  0.000000000000000E+000
  0.000000000000000E+000
  0.000000000000000E+000
  0.000000000000000E+000
  0.000000000000000E+000
  0.000000000000000E+000
  0.000000000000000E+000
  0.000000000000000E+000
  0.000000000000000E+000
  0.000000000000000E+000
  0.000000000000000E+000
  0.000000000000000E+000
  0.000000000000000E+000
  0.000000000000000E+000
  0.000000000000000E+000
  0.000000000000000E+000
  0.000000000000000E+000
  0.000000000000000E+000
  0.000000000000000E+000
  0.000000000000000E+000
  0.000000000000000E+000
  0.000000000000000E+000
  0.000000000000000E+000
  0.000000000000000E+000
  0.000000000000000E+000
  0.000000000000000E+000
  0.000000000000000E+000
  0.000000000000000E+000
  0.000000000000000E+000
  0.000000000000000E+000
  0.000000000000000E+000
  0.000000000000000E+000
  0.000000000000000E+000
  0.000000000000000E+000
  0.000000000000000E+000
  0.000000000000000E+000
  0.000000000000000E+000
  0.000000000000000E+000
  0.000000000000000E+000
  0.000000000000000E+000
  0.000000000000000E+000
  0.000000000000000E+000
  0.000000000000000E+000
  0.000000000000000E+000
  0.000000000000000E+000
  0.000000000000000E+000
  0.000000000000000E+000
  0.000000000000000E+000
  0.000000000000000E+000
  0.000000000000000E+000
  0.000000000000000E+000
  0.000000000000000E+000
  0.000000000000000E+000
  0.000000000000000E+000
  0.000000000000000E+000
  0.000000000000000E+000
  0.000000000000000E+000
  0.000000000000000E+000
  0.000000000000000E+000
  0.000000000000000E+000
  0.000000000000000E+000
  0.000000000000000E+000
  0.000000000000000E+000
  0.000000000000000E+000
  0.000000000000000E+000
  0.000000000000000E+000
  0.000000000000000E+000
  0.000000000000000E+000
  0.000000000000000E+000
  0.000000000000000E+000
  0.000000000000000E+000
  0.000000000000000E+000
  0.000000000000000E+000
  0.000000000000000E+000
  0.000000000000000E+000
  0.000000000000000E+000
  0.000000000000000E+000
  0.000000000000000E+000
  0.000000000000000E+000
  0.000000000000000E+000
  0.000000000000000E+000
  0.000000000000000E+000
  0.000000000000000E+000
  0.000000000000000E+000
  0.000000000000000E+000
  0.000000000000000E+000
  0.000000000000000E+000
  0.000000000000000E+000
  0.000000000000000E+000
  0.000000000000000E+000
  0.000000000000000E+000
  0.000000000000000E+000
  0.000000000000000E+000
  0.000000000000000E+000
  0.000000000000000E+000
  0.000000000000000E+000
  0.000000000000000E+000
  0.000000000000000E+000
  0.000000000000000E+000
  0.000000000000000E+000
  0.000000000000000E+000
  0.000000000000000E+000
  0.000000000000000E+000
  0.000000000000000E+000
  0.000000000000000E+000
  0.000000000000000E+000
  0.000000000000000E+000
  0.000000000000000E+000
  0.000000000000000E+000
  0.000000000000000E+000
  0.000000000000000E+000
  0.000000000000000E+000
  0.000000000000000E+000
  0.000000000000000E+000
  0.000000000000000E+000
  0.000000000000000E+000
  0.000000000000000E+000
  0.000000000000000E+000
  0.000000000000000E+000
  0.000000000000000E+000
  0.000000000000000E+000
  0.000000000000000E+000
  0.000000000000000E+000
  0.000000000000000E+000
  0.000000000000000E+000
  0.000000000000000E+000
  0.000000000000000E+000
  0.000000000000000E+000
  0.000000000000000E+000
  0.000000000000000E+000
  0.000000000000000E+000
  0.000000000000000E+000
  0.000000000000000E+000
  0.000000000000000E+000
  0.000000000000000E+000
  0.000000000000000E+000
  0.000000000000000E+000
  0.000000000000000E+000
  0.000000000000000E+000
  0.000000000000000E+000
  0.000000000000000E+000
  0.000000000000000E+000
  0.000000000000000E+000
  0.000000000000000E+000
  0.000000000000000E+000
  0.000000000000000E+000
  0.000000000000000E+000
  0.000000000000000E+000
  0.000000000000000E+000
  0.000000000000000E+000
  0.000000000000000E+000
  0.000000000000000E+000
  0.000000000000000E+000
  0.000000000000000E+000
  0.000000000000000E+000
  0.000000000000000E+000
  0.000000000000000E+000
  0.000000000000000E+000
  0.000000000000000E+000
  0.000000000000000E+000
  0.000000000000000E+000
  0.000000000000000E+000
  0.000000000000000E+000
  0.000000000000000E+000
  0.000000000000000E+000
  0.000000000000000E+000
  0.000000000000000E+000
  0.000000000000000E+000
  0.000000000000000E+000
  0.000000000000000E+000
  0.000000000000000E+000
  0.000000000000000E+000
  0.000000000000000E+000
  0.000000000000000E+000
  0.000000000000000E+000
  0.000000000000000E+000
  0.000000000000000E+000
  0.000000000000000E+000
  0.000000000000000E+000
  0.000000000000000E+000
  0.000000000000000E+000
  0.000000000000000E+000
  0.000000000000000E+000
  0.000000000000000E+000
  0.000000000000000E+000
  0.000000000000000E+000
  0.000000000000000E+000
  0.000000000000000E+000
  0.000000000000000E+000
  0.000000000000000E+000
  0.000000000000000E+000
  0.000000000000000E+000
  0.000000000000000E+000
  0.000000000000000E+000
  0.000000000000000E+000
  0.000000000000000E+000
  0.000000000000000E+000
  0.000000000000000E+000
  0.000000000000000E+000
  0.000000000000000E+000
  0.000000000000000E+000
  0.000000000000000E+000
  0.000000000000000E+000
  0.000000000000000E+000
  0.000000000000000E+000
  0.000000000000000E+000
  0.000000000000000E+000
  0.000000000000000E+000
  0.000000000000000E+000
  0.000000000000000E+000
  0.000000000000000E+000
  0.000000000000000E+000
  0.000000000000000E+000
  0.000000000000000E+000
  0.000000000000000E+000
  0.000000000000000E+000
  0.000000000000000E+000
  0.000000000000000E+000
  0.000000000000000E+000
  0.000000000000000E+000
  0.000000000000000E+000
  0.000000000000000E+000
  0.000000000000000E+000
  0.000000000000000E+000
  0.000000000000000E+000
  0.000000000000000E+000
  0.000000000000000E+000
  0.000000000000000E+000
  0.000000000000000E+000
  0.000000000000000E+000
  0.000000000000000E+000
  0.000000000000000E+000
  0.000000000000000E+000
  0.000000000000000E+000
  0.000000000000000E+000
  0.000000000000000E+000
  0.000000000000000E+000
  0.000000000000000E+000
  0.000000000000000E+000
  0.000000000000000E+000
  0.000000000000000E+000
  0.000000000000000E+000
  0.000000000000000E+000
  0.000000000000000E+000
  0.000000000000000E+000
  0.000000000000000E+000
  0.000000000000000E+000
  0.000000000000000E+000
  0.000000000000000E+000
  0.000000000000000E+000
  0.000000000000000E+000
  0.000000000000000E+000
  0.000000000000000E+000
  0.000000000000000E+000
  0.000000000000000E+000
  0.000000000000000E+000
  0.000000000000000E+000
  0.000000000000000E+000
  0.000000000000000E+000
  0.000000000000000E+000
  0.000000000000000E+000
  0.000000000000000E+000
  0.000000000000000E+000
  0.000000000000000E+000
  0.000000000000000E+000
  0.000000000000000E+000
  0.000000000000000E+000
  0.000000000000000E+000
  0.000000000000000E+000
  0.000000000000000E+000
  0.000000000000000E+000
  0.000000000000000E+000
  0.000000000000000E+000
  0.000000000000000E+000
  0.000000000000000E+000
  0.000000000000000E+000
  0.000000000000000E+000
  0.000000000000000E+000
  0.000000000000000E+000
  0.000000000000000E+000
  0.000000000000000E+000
  0.000000000000000E+000
  0.000000000000000E+000
  0.000000000000000E+000
  0.000000000000000E+000
  0.000000000000000E+000
  0.000000000000000E+000
  0.000000000000000E+000
  0.000000000000000E+000
  0.000000000000000E+000
  0.000000000000000E+000
  0.000000000000000E+000
  0.000000000000000E+000
  0.000000000000000E+000
  0.000000000000000E+000
  0.000000000000000E+000
  0.000000000000000E+000
  0.000000000000000E+000
  0.000000000000000E+000
  0.000000000000000E+000
  0.000000000000000E+000
  0.000000000000000E+000
  0.000000000000000E+000
  0.000000000000000E+000
  0.000000000000000E+000
  0.000000000000000E+000
  0.000000000000000E+000
  0.000000000000000E+000
  0.000000000000000E+000
  0.000000000000000E+000
  0.000000000000000E+000
  0.000000000000000E+000
  0.000000000000000E+000
  0.000000000000000E+000
  0.000000000000000E+000
  0.000000000000000E+000
  0.000000000000000E+000
  0.000000000000000E+000
  0.000000000000000E+000
  0.000000000000000E+000
  0.000000000000000E+000
  0.000000000000000E+000
  0.000000000000000E+000
  0.000000000000000E+000
  0.000000000000000E+000
  0.000000000000000E+000
  0.000000000000000E+000
  0.000000000000000E+000
  0.000000000000000E+000
  0.000000000000000E+000
  0.000000000000000E+000
  0.000000000000000E+000
  0.000000000000000E+000
  0.000000000000000E+000
  0.000000000000000E+000
  0.000000000000000E+000
  0.000000000000000E+000
  0.000000000000000E+000
  0.000000000000000E+000
  0.000000000000000E+000
  0.000000000000000E+000
  0.000000000000000E+000
  0.000000000000000E+000
  0.000000000000000E+000
  0.000000000000000E+000
  0.000000000000000E+000
  0.000000000000000E+000
  0.000000000000000E+000
  0.000000000000000E+000
  0.000000000000000E+000
  0.000000000000000E+000
  0.000000000000000E+000
  0.000000000000000E+000
  0.000000000000000E+000
  0.000000000000000E+000
  0.000000000000000E+000
  0.000000000000000E+000
  0.000000000000000E+000
  0.000000000000000E+000
  0.000000000000000E+000
  0.000000000000000E+000
  0.000000000000000E+000
  0.000000000000000E+000
  0.000000000000000E+000
  0.000000000000000E+000
  0.000000000000000E+000
  0.000000000000000E+000
  0.000000000000000E+000
  0.000000000000000E+000
  0.000000000000000E+000
  0.000000000000000E+000
  0.000000000000000E+000
  0.000000000000000E+000
  0.000000000000000E+000
  0.000000000000000E+000
  0.000000000000000E+000
  0.000000000000000E+000
  0.000000000000000E+000
  0.000000000000000E+000
  0.000000000000000E+000
  0.000000000000000E+000
  0.000000000000000E+000
  0.000000000000000E+000
  0.000000000000000E+000
  0.000000000000000E+000
  0.000000000000000E+000
  0.000000000000000E+000
  0.000000000000000E+000
  0.000000000000000E+000
  0.000000000000000E+000
  0.000000000000000E+000
  0.000000000000000E+000
  0.000000000000000E+000
  0.000000000000000E+000
  0.000000000000000E+000
  0.000000000000000E+000
  0.000000000000000E+000
  0.000000000000000E+000
  0.000000000000000E+000
  0.000000000000000E+000
  0.000000000000000E+000
  0.000000000000000E+000
  0.000000000000000E+000
  0.000000000000000E+000
  0.000000000000000E+000
  0.000000000000000E+000
  0.000000000000000E+000
  0.000000000000000E+000
  0.000000000000000E+000
  0.000000000000000E+000
  0.000000000000000E+000
  0.000000000000000E+000
  0.000000000000000E+000
  0.000000000000000E+000
  0.000000000000000E+000
  0.000000000000000E+000
  0.000000000000000E+000
  0.000000000000000E+000
  0.000000000000000E+000
  0.000000000000000E+000
  0.000000000000000E+000
  0.000000000000000E+000
  0.000000000000000E+000
  0.000000000000000E+000
  0.000000000000000E+000
  0.000000000000000E+000
  0.000000000000000E+000
  0.000000000000000E+000
  0.000000000000000E+000
  0.000000000000000E+000
  0.000000000000000E+000
  0.000000000000000E+000
  0.000000000000000E+000
  0.000000000000000E+000
  0.000000000000000E+000
  0.000000000000000E+000
  0.000000000000000E+000
  0.000000000000000E+000
  0.000000000000000E+000
  0.000000000000000E+000
  0.000000000000000E+000
  0.000000000000000E+000
  0.000000000000000E+000
  0.000000000000000E+000
  0.000000000000000E+000
  0.000000000000000E+000
  0.000000000000000E+000
  0.000000000000000E+000
  0.000000000000000E+000
  0.000000000000000E+000
  0.000000000000000E+000
  0.000000000000000E+000
  0.000000000000000E+000
  0.000000000000000E+000
  0.000000000000000E+000
  0.000000000000000E+000
  0.000000000000000E+000
  0.000000000000000E+000
  0.000000000000000E+000
  0.000000000000000E+000
  0.000000000000000E+000
  0.000000000000000E+000
  0.000000000000000E+000
  0.000000000000000E+000
  0.000000000000000E+000
  0.000000000000000E+000
  0.000000000000000E+000
  0.000000000000000E+000
  0.000000000000000E+000
  0.000000000000000E+000
  0.000000000000000E+000
  0.000000000000000E+000
  0.000000000000000E+000
  0.000000000000000E+000
  0.000000000000000E+000
  0.000000000000000E+000
  0.000000000000000E+000
  0.000000000000000E+000
  0.000000000000000E+000
  0.000000000000000E+000
  0.000000000000000E+000
  0.000000000000000E+000
  0.000000000000000E+000
  0.000000000000000E+000
  0.000000000000000E+000
  0.000000000000000E+000
  0.000000000000000E+000
  0.000000000000000E+000
  0.000000000000000E+000
  0.000000000000000E+000
  0.000000000000000E+000
  0.000000000000000E+000
  0.000000000000000E+000
  0.000000000000000E+000
  0.000000000000000E+000
  0.000000000000000E+000
  0.000000000000000E+000
  0.000000000000000E+000
  0.000000000000000E+000
  0.000000000000000E+000
  0.000000000000000E+000
  0.000000000000000E+000
  0.000000000000000E+000
  0.000000000000000E+000
  0.000000000000000E+000
  0.000000000000000E+000
  0.000000000000000E+000
  0.000000000000000E+000
  0.000000000000000E+000
  0.000000000000000E+000
  0.000000000000000E+000
  0.000000000000000E+000
  0.000000000000000E+000
  0.000000000000000E+000
  0.000000000000000E+000
  0.000000000000000E+000
  0.000000000000000E+000
  0.000000000000000E+000
  0.000000000000000E+000
  0.000000000000000E+000
  0.000000000000000E+000
  0.000000000000000E+000
  0.000000000000000E+000
  0.000000000000000E+000
  0.000000000000000E+000
  0.000000000000000E+000
  0.000000000000000E+000
  0.000000000000000E+000
  0.000000000000000E+000
  0.000000000000000E+000
  0.000000000000000E+000
  0.000000000000000E+000
  0.000000000000000E+000
  0.000000000000000E+000
  0.000000000000000E+000
  0.000000000000000E+000
  0.000000000000000E+000
  0.000000000000000E+000
  0.000000000000000E+000
  0.000000000000000E+000
  0.000000000000000E+000
  0.000000000000000E+000
  0.000000000000000E+000
  0.000000000000000E+000
  0.000000000000000E+000
  0.000000000000000E+000
  0.000000000000000E+000
  0.000000000000000E+000
  0.000000000000000E+000
  0.000000000000000E+000
  0.000000000000000E+000
  0.000000000000000E+000
  0.000000000000000E+000
  0.000000000000000E+000
  0.000000000000000E+000
  0.000000000000000E+000
  0.000000000000000E+000
  0.000000000000000E+000
  0.000000000000000E+000
  0.000000000000000E+000
  0.000000000000000E+000
  0.000000000000000E+000
  0.000000000000000E+000
  0.000000000000000E+000
  0.000000000000000E+000
  0.000000000000000E+000
  0.000000000000000E+000
  0.000000000000000E+000
  0.000000000000000E+000
  0.000000000000000E+000
  0.000000000000000E+000
  0.000000000000000E+000
  0.000000000000000E+000
  0.000000000000000E+000
  0.000000000000000E+000
  0.000000000000000E+000
  0.000000000000000E+000
  0.000000000000000E+000
  0.000000000000000E+000
  0.000000000000000E+000
  0.000000000000000E+000
  0.000000000000000E+000
  0.000000000000000E+000
  0.000000000000000E+000
  0.000000000000000E+000
  0.000000000000000E+000
  0.000000000000000E+000
  0.000000000000000E+000
  0.000000000000000E+000
  0.000000000000000E+000
  0.000000000000000E+000
  0.000000000000000E+000
  0.000000000000000E+000
  0.000000000000000E+000
  0.000000000000000E+000
  0.000000000000000E+000
  0.000000000000000E+000
  0.000000000000000E+000
  0.000000000000000E+000
  0.000000000000000E+000
  0.000000000000000E+000
  0.000000000000000E+000
  0.000000000000000E+000
  0.000000000000000E+000
  0.000000000000000E+000
  0.000000000000000E+000
  0.000000000000000E+000
  0.000000000000000E+000
  0.000000000000000E+000
  0.000000000000000E+000
  0.000000000000000E+000
  0.000000000000000E+000
  0.000000000000000E+000
  0.000000000000000E+000
  0.000000000000000E+000
  0.000000000000000E+000
  0.000000000000000E+000
  0.000000000000000E+000
  0.000000000000000E+000
  0.000000000000000E+000
  0.000000000000000E+000
  0.000000000000000E+000
  0.000000000000000E+000
  0.000000000000000E+000
  0.000000000000000E+000
  0.000000000000000E+000
  0.000000000000000E+000
  0.000000000000000E+000
  0.000000000000000E+000
  0.000000000000000E+000
  0.000000000000000E+000
  0.000000000000000E+000
  0.000000000000000E+000
  0.000000000000000E+000
  0.000000000000000E+000
  0.000000000000000E+000
  0.000000000000000E+000
  0.000000000000000E+000
  0.000000000000000E+000
  0.000000000000000E+000
  0.000000000000000E+000
  0.000000000000000E+000
  0.000000000000000E+000
  0.000000000000000E+000
  0.000000000000000E+000
  0.000000000000000E+000
  0.000000000000000E+000
  0.000000000000000E+000
  0.000000000000000E+000
  0.000000000000000E+000
  0.000000000000000E+000
  0.000000000000000E+000
  0.000000000000000E+000
  0.000000000000000E+000
  0.000000000000000E+000
  0.000000000000000E+000
  0.000000000000000E+000
  0.000000000000000E+000
  0.000000000000000E+000
  0.000000000000000E+000
  0.000000000000000E+000
  0.000000000000000E+000
  0.000000000000000E+000
  0.000000000000000E+000
  0.000000000000000E+000
  0.000000000000000E+000
  0.000000000000000E+000
  0.000000000000000E+000
  0.000000000000000E+000
  0.000000000000000E+000
  0.000000000000000E+000
  0.000000000000000E+000
  0.000000000000000E+000
  0.000000000000000E+000
  0.000000000000000E+000
  0.000000000000000E+000
  0.000000000000000E+000
  0.000000000000000E+000
  0.000000000000000E+000
  0.000000000000000E+000
  0.000000000000000E+000
  0.000000000000000E+000
  0.000000000000000E+000
  0.000000000000000E+000
  0.000000000000000E+000
  0.000000000000000E+000
  0.000000000000000E+000
  0.000000000000000E+000
  0.000000000000000E+000
  0.000000000000000E+000
  0.000000000000000E+000
  0.000000000000000E+000
  0.000000000000000E+000
  0.000000000000000E+000
  0.000000000000000E+000
  0.000000000000000E+000
  0.000000000000000E+000
  0.000000000000000E+000
  0.000000000000000E+000
  0.000000000000000E+000
  0.000000000000000E+000
  0.000000000000000E+000
  0.000000000000000E+000
  0.000000000000000E+000
  0.000000000000000E+000
  0.000000000000000E+000
  0.000000000000000E+000
  0.000000000000000E+000
  0.000000000000000E+000
  0.000000000000000E+000
  0.000000000000000E+000
  0.000000000000000E+000
  0.000000000000000E+000
  0.000000000000000E+000
  0.000000000000000E+000
  0.000000000000000E+000
  0.000000000000000E+000
  0.000000000000000E+000
  0.000000000000000E+000
  0.000000000000000E+000
  0.000000000000000E+000
  0.000000000000000E+000
  0.000000000000000E+000
  0.000000000000000E+000
  0.000000000000000E+000
  0.000000000000000E+000
  0.000000000000000E+000
  0.000000000000000E+000
  0.000000000000000E+000
  0.000000000000000E+000
  0.000000000000000E+000
  0.000000000000000E+000
  0.000000000000000E+000
  0.000000000000000E+000
  0.000000000000000E+000
  0.000000000000000E+000
  0.000000000000000E+000
  0.000000000000000E+000
  0.000000000000000E+000
  0.000000000000000E+000
  0.000000000000000E+000
  0.000000000000000E+000
  0.000000000000000E+000
  0.000000000000000E+000
  0.000000000000000E+000
  0.000000000000000E+000
  0.000000000000000E+000
  0.000000000000000E+000
  0.000000000000000E+000
  0.000000000000000E+000
  0.000000000000000E+000
  0.000000000000000E+000
  0.000000000000000E+000
  0.000000000000000E+000
  0.000000000000000E+000
  0.000000000000000E+000
  0.000000000000000E+000
  0.000000000000000E+000
  0.000000000000000E+000
  0.000000000000000E+000
  0.000000000000000E+000
  0.000000000000000E+000
  0.000000000000000E+000
  0.000000000000000E+000
  0.000000000000000E+000
  0.000000000000000E+000
  0.000000000000000E+000
  0.000000000000000E+000
  0.000000000000000E+000
  0.000000000000000E+000
  0.000000000000000E+000
  0.000000000000000E+000
  0.000000000000000E+000
  0.000000000000000E+000
  0.000000000000000E+000
  0.000000000000000E+000
  0.000000000000000E+000
  0.000000000000000E+000
  0.000000000000000E+000
  0.000000000000000E+000
  0.000000000000000E+000
  0.000000000000000E+000
  0.000000000000000E+000
  0.000000000000000E+000
  0.000000000000000E+000
  0.000000000000000E+000
  0.000000000000000E+000
  0.000000000000000E+000
  0.000000000000000E+000
  0.000000000000000E+000
  0.000000000000000E+000
  0.000000000000000E+000
  0.000000000000000E+000
  0.000000000000000E+000
  0.000000000000000E+000
  0.000000000000000E+000
  0.000000000000000E+000
  0.000000000000000E+000
  0.000000000000000E+000
  0.000000000000000E+000
  0.000000000000000E+000
  0.000000000000000E+000
  0.000000000000000E+000
  0.000000000000000E+000
  0.000000000000000E+000
  0.000000000000000E+000
  0.000000000000000E+000
  0.000000000000000E+000
  0.000000000000000E+000
  0.000000000000000E+000
  0.000000000000000E+000
  0.000000000000000E+000
  0.000000000000000E+000
  0.000000000000000E+000
  0.000000000000000E+000
  0.000000000000000E+000
  0.000000000000000E+000
  0.000000000000000E+000
  0.000000000000000E+000
  0.000000000000000E+000
  0.000000000000000E+000
  0.000000000000000E+000
  0.000000000000000E+000
  0.000000000000000E+000
  0.000000000000000E+000
  0.000000000000000E+000
  0.000000000000000E+000
  0.000000000000000E+000
  0.000000000000000E+000
  0.000000000000000E+000
  0.000000000000000E+000
  0.000000000000000E+000
  0.000000000000000E+000
  0.000000000000000E+000
  0.000000000000000E+000
  0.000000000000000E+000
  0.000000000000000E+000
  0.000000000000000E+000
  0.000000000000000E+000
  0.000000000000000E+000
  0.000000000000000E+000
  0.000000000000000E+000
  0.000000000000000E+000
  0.000000000000000E+000
  0.000000000000000E+000
  0.000000000000000E+000
  0.000000000000000E+000
  0.000000000000000E+000
  0.000000000000000E+000
  0.000000000000000E+000
  0.000000000000000E+000
  0.000000000000000E+000
  0.000000000000000E+000
  0.000000000000000E+000
  0.000000000000000E+000
  0.000000000000000E+000
  0.000000000000000E+000
  0.000000000000000E+000
  0.000000000000000E+000
  0.000000000000000E+000
  0.000000000000000E+000
  0.000000000000000E+000
  0.000000000000000E+000
  0.000000000000000E+000
  0.000000000000000E+000
  0.000000000000000E+000
  0.000000000000000E+000
  0.000000000000000E+000
  0.000000000000000E+000
  0.000000000000000E+000
  0.000000000000000E+000
  0.000000000000000E+000
  0.000000000000000E+000
  0.000000000000000E+000
  0.000000000000000E+000
  0.000000000000000E+000
  0.000000000000000E+000
  0.000000000000000E+000
  0.000000000000000E+000
  0.000000000000000E+000
  0.000000000000000E+000
  0.000000000000000E+000
  0.000000000000000E+000
  0.000000000000000E+000
  0.000000000000000E+000
  0.000000000000000E+000
  0.000000000000000E+000
  0.000000000000000E+000
  0.000000000000000E+000
  0.000000000000000E+000
  0.000000000000000E+000
  0.000000000000000E+000
  0.000000000000000E+000
  0.000000000000000E+000
  0.000000000000000E+000
  0.000000000000000E+000
  0.000000000000000E+000
  0.000000000000000E+000
  0.000000000000000E+000
  0.000000000000000E+000
  0.000000000000000E+000
  0.000000000000000E+000
  0.000000000000000E+000
  0.000000000000000E+000
  0.000000000000000E+000
  0.000000000000000E+000
  0.000000000000000E+000
  0.000000000000000E+000
  0.000000000000000E+000
  0.000000000000000E+000
  0.000000000000000E+000
  0.000000000000000E+000
  0.000000000000000E+000
  0.000000000000000E+000
  0.000000000000000E+000
  0.000000000000000E+000
  0.000000000000000E+000
  0.000000000000000E+000
  0.000000000000000E+000
  0.000000000000000E+000
  0.000000000000000E+000
  0.000000000000000E+000
  0.000000000000000E+000
  0.000000000000000E+000
  0.000000000000000E+000
  0.000000000000000E+000
  0.000000000000000E+000
  0.000000000000000E+000
  0.000000000000000E+000
  0.000000000000000E+000
  0.000000000000000E+000
  0.000000000000000E+000
  0.000000000000000E+000
  0.000000000000000E+000
  0.000000000000000E+000
  0.000000000000000E+000
  0.000000000000000E+000
  0.000000000000000E+000
  0.000000000000000E+000
  0.000000000000000E+000
  0.000000000000000E+000
  0.000000000000000E+000
  0.000000000000000E+000
  0.000000000000000E+000
  0.000000000000000E+000
  0.000000000000000E+000
  0.000000000000000E+000
  0.000000000000000E+000
  0.000000000000000E+000
  0.000000000000000E+000
  0.000000000000000E+000
  0.000000000000000E+000
  0.000000000000000E+000
  0.000000000000000E+000
  0.000000000000000E+000
  0.000000000000000E+000
  0.000000000000000E+000
  0.000000000000000E+000
  0.000000000000000E+000
  0.000000000000000E+000
  0.000000000000000E+000
  0.000000000000000E+000
  0.000000000000000E+000
  0.000000000000000E+000
  0.000000000000000E+000
  0.000000000000000E+000
  0.000000000000000E+000
  0.000000000000000E+000
  0.000000000000000E+000
  0.000000000000000E+000
  0.000000000000000E+000
  0.000000000000000E+000
  0.000000000000000E+000
  0.000000000000000E+000
  0.000000000000000E+000
  0.000000000000000E+000
  0.000000000000000E+000
  0.000000000000000E+000
  0.000000000000000E+000
  0.000000000000000E+000
  0.000000000000000E+000
  0.000000000000000E+000
  0.000000000000000E+000
  0.000000000000000E+000
  0.000000000000000E+000
  0.000000000000000E+000
  0.000000000000000E+000
  0.000000000000000E+000
  0.000000000000000E+000
  0.000000000000000E+000
  0.000000000000000E+000
  0.000000000000000E+000
  0.000000000000000E+000
  0.000000000000000E+000
  0.000000000000000E+000
  0.000000000000000E+000
  0.000000000000000E+000
  0.000000000000000E+000
  0.000000000000000E+000
  0.000000000000000E+000
  0.000000000000000E+000
  0.000000000000000E+000
  0.000000000000000E+000
  0.000000000000000E+000
  0.000000000000000E+000
  0.000000000000000E+000
  0.000000000000000E+000
  0.000000000000000E+000
  0.000000000000000E+000
  0.000000000000000E+000
  0.000000000000000E+000
  0.000000000000000E+000
  0.000000000000000E+000
  0.000000000000000E+000
  0.000000000000000E+000
  0.000000000000000E+000
  0.000000000000000E+000
  0.000000000000000E+000
  0.000000000000000E+000
  0.000000000000000E+000
  0.000000000000000E+000
  0.000000000000000E+000
  0.000000000000000E+000
  0.000000000000000E+000
  0.000000000000000E+000
  0.000000000000000E+000
  0.000000000000000E+000
  0.000000000000000E+000
  0.000000000000000E+000
  0.000000000000000E+000
  0.000000000000000E+000
  0.000000000000000E+000
  0.000000000000000E+000
  0.000000000000000E+000
  0.000000000000000E+000
  0.000000000000000E+000
  0.000000000000000E+000
  0.000000000000000E+000
  0.000000000000000E+000
  0.000000000000000E+000
  0.000000000000000E+000
  0.000000000000000E+000
  0.000000000000000E+000
  0.000000000000000E+000
  0.000000000000000E+000
  0.000000000000000E+000
  0.000000000000000E+000
  0.000000000000000E+000
  0.000000000000000E+000
  0.000000000000000E+000
  0.000000000000000E+000
  0.000000000000000E+000
  0.000000000000000E+000
  0.000000000000000E+000
  0.000000000000000E+000
  0.000000000000000E+000
  0.000000000000000E+000
  0.000000000000000E+000
  0.000000000000000E+000
  0.000000000000000E+000
  0.000000000000000E+000
  0.000000000000000E+000
  0.000000000000000E+000
  0.000000000000000E+000
  0.000000000000000E+000
  0.000000000000000E+000
  0.000000000000000E+000
  0.000000000000000E+000
  0.000000000000000E+000
  0.000000000000000E+000
  0.000000000000000E+000
  0.000000000000000E+000
  0.000000000000000E+000
  0.000000000000000E+000
  0.000000000000000E+000
  0.000000000000000E+000
  0.000000000000000E+000
  0.000000000000000E+000
  0.000000000000000E+000
  0.000000000000000E+000
  0.000000000000000E+000
  0.000000000000000E+000
  0.000000000000000E+000
  0.000000000000000E+000
  0.000000000000000E+000
  0.000000000000000E+000
  0.000000000000000E+000
  0.000000000000000E+000
  0.000000000000000E+000
  0.000000000000000E+000
  0.000000000000000E+000
  0.000000000000000E+000
  0.000000000000000E+000
  0.000000000000000E+000
  0.000000000000000E+000
  0.000000000000000E+000
  0.000000000000000E+000
  0.000000000000000E+000
  0.000000000000000E+000
  0.000000000000000E+000
  0.000000000000000E+000
  0.000000000000000E+000
  0.000000000000000E+000
  0.000000000000000E+000
  0.000000000000000E+000
  0.000000000000000E+000
  0.000000000000000E+000
  0.000000000000000E+000
  0.000000000000000E+000
  0.000000000000000E+000
  0.000000000000000E+000
  0.000000000000000E+000
  0.000000000000000E+000
  0.000000000000000E+000
  0.000000000000000E+000
  0.000000000000000E+000
  0.000000000000000E+000
  0.000000000000000E+000
  0.000000000000000E+000
  0.000000000000000E+000
  0.000000000000000E+000
  0.000000000000000E+000
  0.000000000000000E+000
  0.000000000000000E+000
  0.000000000000000E+000
  0.000000000000000E+000
  0.000000000000000E+000
  0.000000000000000E+000
  0.000000000000000E+000
  0.000000000000000E+000
  0.000000000000000E+000
  0.000000000000000E+000
  0.000000000000000E+000
  0.000000000000000E+000
  0.000000000000000E+000
  0.000000000000000E+000
  0.000000000000000E+000
  0.000000000000000E+000
  0.000000000000000E+000
  0.000000000000000E+000
  0.000000000000000E+000
  0.000000000000000E+000
  0.000000000000000E+000
  0.000000000000000E+000
  0.000000000000000E+000
  0.000000000000000E+000
  0.000000000000000E+000
  0.000000000000000E+000
  0.000000000000000E+000
  0.000000000000000E+000
  0.000000000000000E+000
  0.000000000000000E+000
  0.000000000000000E+000
  0.000000000000000E+000
  0.000000000000000E+000
  0.000000000000000E+000
  0.000000000000000E+000
  0.000000000000000E+000
  0.000000000000000E+000
  0.000000000000000E+000
  0.000000000000000E+000
  0.000000000000000E+000
  0.000000000000000E+000
  0.000000000000000E+000
  0.000000000000000E+000
  0.000000000000000E+000
  0.000000000000000E+000
  0.000000000000000E+000
  0.000000000000000E+000
  0.000000000000000E+000
  0.000000000000000E+000
  0.000000000000000E+000
  0.000000000000000E+000
  0.000000000000000E+000
  0.000000000000000E+000
  0.000000000000000E+000
  0.000000000000000E+000
  0.000000000000000E+000
  0.000000000000000E+000
  0.000000000000000E+000
  0.000000000000000E+000
  0.000000000000000E+000
  0.000000000000000E+000
  0.000000000000000E+000
  0.000000000000000E+000
  0.000000000000000E+000
  0.000000000000000E+000
  0.000000000000000E+000
  0.000000000000000E+000
  0.000000000000000E+000
  0.000000000000000E+000
  0.000000000000000E+000
  0.000000000000000E+000
  0.000000000000000E+000
  0.000000000000000E+000
  0.000000000000000E+000
  0.000000000000000E+000
  0.000000000000000E+000
  0.000000000000000E+000
  0.000000000000000E+000
  0.000000000000000E+000
  0.000000000000000E+000
  0.000000000000000E+000
  0.000000000000000E+000
  0.000000000000000E+000
  0.000000000000000E+000
  0.000000000000000E+000
  0.000000000000000E+000
  0.000000000000000E+000
  0.000000000000000E+000
  0.000000000000000E+000
  0.000000000000000E+000
  0.000000000000000E+000
  0.000000000000000E+000
  0.000000000000000E+000
  0.000000000000000E+000
  0.000000000000000E+000
  0.000000000000000E+000
  0.000000000000000E+000
  0.000000000000000E+000
  0.000000000000000E+000
  0.000000000000000E+000
  0.000000000000000E+000
  0.000000000000000E+000
  0.000000000000000E+000
  0.000000000000000E+000
  0.000000000000000E+000
  0.000000000000000E+000
  0.000000000000000E+000
  0.000000000000000E+000
  0.000000000000000E+000
  0.000000000000000E+000
  0.000000000000000E+000
  0.000000000000000E+000
  0.000000000000000E+000
  0.000000000000000E+000
  0.000000000000000E+000
  0.000000000000000E+000
  0.000000000000000E+000
  0.000000000000000E+000
  0.000000000000000E+000
  0.000000000000000E+000
  0.000000000000000E+000
  0.000000000000000E+000
  0.000000000000000E+000
  0.000000000000000E+000
  0.000000000000000E+000
  0.000000000000000E+000
  0.000000000000000E+000
  0.000000000000000E+000
  0.000000000000000E+000
  0.000000000000000E+000
  0.000000000000000E+000
  0.000000000000000E+000
  0.000000000000000E+000
  0.000000000000000E+000
  0.000000000000000E+000
  0.000000000000000E+000
  0.000000000000000E+000
  0.000000000000000E+000
  0.000000000000000E+000
  0.000000000000000E+000
  0.000000000000000E+000
  0.000000000000000E+000
  0.000000000000000E+000
  0.000000000000000E+000
  0.000000000000000E+000
  0.000000000000000E+000
  0.000000000000000E+000
  0.000000000000000E+000
  0.000000000000000E+000
  0.000000000000000E+000
  0.000000000000000E+000
  0.000000000000000E+000
  0.000000000000000E+000
  0.000000000000000E+000
  0.000000000000000E+000
  0.000000000000000E+000
  0.000000000000000E+000
  0.000000000000000E+000
  0.000000000000000E+000
  0.000000000000000E+000
  0.000000000000000E+000
  0.000000000000000E+000
  0.000000000000000E+000
  0.000000000000000E+000
  0.000000000000000E+000
  0.000000000000000E+000
  0.000000000000000E+000
  0.000000000000000E+000
  0.000000000000000E+000
  0.000000000000000E+000
  0.000000000000000E+000
  0.000000000000000E+000
  0.000000000000000E+000
  0.000000000000000E+000
  0.000000000000000E+000
  0.000000000000000E+000
  0.000000000000000E+000
  0.000000000000000E+000
  0.000000000000000E+000
  0.000000000000000E+000
  0.000000000000000E+000
  0.000000000000000E+000
  0.000000000000000E+000
  0.000000000000000E+000
  0.000000000000000E+000
  0.000000000000000E+000
  0.000000000000000E+000
  0.000000000000000E+000
  0.000000000000000E+000
  0.000000000000000E+000
  0.000000000000000E+000
  0.000000000000000E+000
  0.000000000000000E+000
  0.000000000000000E+000
  0.000000000000000E+000
  0.000000000000000E+000
  0.000000000000000E+000
  0.000000000000000E+000
  0.000000000000000E+000
  0.000000000000000E+000
  0.000000000000000E+000
  0.000000000000000E+000
  0.000000000000000E+000
  0.000000000000000E+000
  0.000000000000000E+000
  0.000000000000000E+000
  0.000000000000000E+000
  0.000000000000000E+000
  0.000000000000000E+000
  0.000000000000000E+000
  0.000000000000000E+000
  0.000000000000000E+000
  0.000000000000000E+000
  0.000000000000000E+000
  0.000000000000000E+000
  0.000000000000000E+000
  0.000000000000000E+000
  0.000000000000000E+000
  0.000000000000000E+000
  0.000000000000000E+000
  0.000000000000000E+000
  0.000000000000000E+000
  0.000000000000000E+000
  0.000000000000000E+000
  0.000000000000000E+000
  0.000000000000000E+000
  0.000000000000000E+000
  0.000000000000000E+000
  0.000000000000000E+000
  0.000000000000000E+000
  0.000000000000000E+000
  0.000000000000000E+000
  0.000000000000000E+000
  0.000000000000000E+000
  0.000000000000000E+000
  0.000000000000000E+000
  0.000000000000000E+000
  0.000000000000000E+000
  0.000000000000000E+000
  0.000000000000000E+000
  0.000000000000000E+000
  0.000000000000000E+000
  0.000000000000000E+000
  0.000000000000000E+000
  0.000000000000000E+000
  0.000000000000000E+000
  0.000000000000000E+000
  0.000000000000000E+000
  0.000000000000000E+000
  0.000000000000000E+000
  0.000000000000000E+000
  0.000000000000000E+000
  0.000000000000000E+000
  0.000000000000000E+000
  0.000000000000000E+000
  0.000000000000000E+000
  0.000000000000000E+000
  0.000000000000000E+000
  0.000000000000000E+000
  0.000000000000000E+000
  0.000000000000000E+000
  0.000000000000000E+000
  0.000000000000000E+000
  0.000000000000000E+000
  0.000000000000000E+000
  0.000000000000000E+000
  0.000000000000000E+000
  0.000000000000000E+000
  0.000000000000000E+000
  0.000000000000000E+000
  0.000000000000000E+000
  0.000000000000000E+000
  0.000000000000000E+000
  0.000000000000000E+000
  0.000000000000000E+000
  0.000000000000000E+000
  0.000000000000000E+000
  0.000000000000000E+000
  0.000000000000000E+000
  0.000000000000000E+000
  0.000000000000000E+000
  0.000000000000000E+000
  0.000000000000000E+000
  0.000000000000000E+000
  0.000000000000000E+000
  0.000000000000000E+000
  0.000000000000000E+000
  0.000000000000000E+000
  0.000000000000000E+000
  0.000000000000000E+000
  0.000000000000000E+000
  0.000000000000000E+000
  0.000000000000000E+000
  0.000000000000000E+000
  0.000000000000000E+000
  0.000000000000000E+000
  0.000000000000000E+000
  0.000000000000000E+000
  0.000000000000000E+000
  0.000000000000000E+000
  0.000000000000000E+000
  0.000000000000000E+000
  0.000000000000000E+000
  0.000000000000000E+000
  0.000000000000000E+000
  0.000000000000000E+000
  0.000000000000000E+000
  0.000000000000000E+000
  0.000000000000000E+000
  0.000000000000000E+000
  0.000000000000000E+000
  0.000000000000000E+000
  0.000000000000000E+000
  0.000000000000000E+000
  0.000000000000000E+000
  0.000000000000000E+000
  0.000000000000000E+000
  0.000000000000000E+000
  0.000000000000000E+000
  0.000000000000000E+000
  0.000000000000000E+000
  0.000000000000000E+000
  0.000000000000000E+000
  0.000000000000000E+000
  0.000000000000000E+000
  0.000000000000000E+000
  0.000000000000000E+000
  0.000000000000000E+000
  0.000000000000000E+000
  0.000000000000000E+000
  0.000000000000000E+000
  0.000000000000000E+000
  0.000000000000000E+000
  0.000000000000000E+000
  0.000000000000000E+000
  0.000000000000000E+000
  0.000000000000000E+000
  0.000000000000000E+000
  0.000000000000000E+000
  0.000000000000000E+000
  0.000000000000000E+000
  0.000000000000000E+000
  0.000000000000000E+000
  0.000000000000000E+000
  0.000000000000000E+000
  0.000000000000000E+000
  0.000000000000000E+000
  0.000000000000000E+000
  0.000000000000000E+000
  0.000000000000000E+000
  0.000000000000000E+000
  0.000000000000000E+000
  0.000000000000000E+000
  0.000000000000000E+000
  0.000000000000000E+000
  0.000000000000000E+000
  0.000000000000000E+000
  0.000000000000000E+000
  0.000000000000000E+000
  0.000000000000000E+000
  0.000000000000000E+000
  0.000000000000000E+000
  0.000000000000000E+000
  0.000000000000000E+000
  0.000000000000000E+000
  0.000000000000000E+000
  0.000000000000000E+000
  0.000000000000000E+000
  0.000000000000000E+000
  0.000000000000000E+000
  0.000000000000000E+000
  0.000000000000000E+000
  0.000000000000000E+000
  0.000000000000000E+000
  0.000000000000000E+000
  0.000000000000000E+000
  0.000000000000000E+000
  0.000000000000000E+000
  0.000000000000000E+000
  0.000000000000000E+000
  0.000000000000000E+000
  0.000000000000000E+000
  0.000000000000000E+000
  0.000000000000000E+000
  0.000000000000000E+000
  0.000000000000000E+000
  0.000000000000000E+000
  0.000000000000000E+000
  0.000000000000000E+000
  0.000000000000000E+000
  0.000000000000000E+000
  0.000000000000000E+000
  0.000000000000000E+000
  0.000000000000000E+000
  0.000000000000000E+000
  0.000000000000000E+000
  0.000000000000000E+000
  0.000000000000000E+000
  0.000000000000000E+000
  0.000000000000000E+000
  0.000000000000000E+000
  0.000000000000000E+000
  0.000000000000000E+000
  0.000000000000000E+000
  0.000000000000000E+000
  0.000000000000000E+000
  0.000000000000000E+000
  0.000000000000000E+000
  0.000000000000000E+000
  0.000000000000000E+000
  0.000000000000000E+000
  0.000000000000000E+000
  0.000000000000000E+000
  0.000000000000000E+000
  0.000000000000000E+000
  0.000000000000000E+000
  0.000000000000000E+000
  0.000000000000000E+000
  0.000000000000000E+000
  0.000000000000000E+000
  0.000000000000000E+000
  0.000000000000000E+000
  0.000000000000000E+000
  0.000000000000000E+000
  0.000000000000000E+000
  0.000000000000000E+000
  0.000000000000000E+000
  0.000000000000000E+000
  0.000000000000000E+000
  0.000000000000000E+000
  0.000000000000000E+000
  0.000000000000000E+000
  0.000000000000000E+000
  0.000000000000000E+000
  0.000000000000000E+000
  0.000000000000000E+000
  0.000000000000000E+000
  0.000000000000000E+000
  0.000000000000000E+000
  0.000000000000000E+000
  0.000000000000000E+000
  0.000000000000000E+000
  0.000000000000000E+000
  0.000000000000000E+000
  0.000000000000000E+000
  0.000000000000000E+000
  0.000000000000000E+000
  0.000000000000000E+000
  0.000000000000000E+000
  0.000000000000000E+000
  0.000000000000000E+000
  0.000000000000000E+000
  0.000000000000000E+000
  0.000000000000000E+000
  0.000000000000000E+000
  0.000000000000000E+000
  0.000000000000000E+000
  0.000000000000000E+000
  0.000000000000000E+000
  0.000000000000000E+000
  0.000000000000000E+000
  0.000000000000000E+000
  0.000000000000000E+000
  0.000000000000000E+000
  0.000000000000000E+000
  0.000000000000000E+000
  0.000000000000000E+000
  0.000000000000000E+000
  0.000000000000000E+000
  0.000000000000000E+000
  0.000000000000000E+000
  0.000000000000000E+000
  0.000000000000000E+000
  0.000000000000000E+000
  0.000000000000000E+000
  0.000000000000000E+000
  0.000000000000000E+000
  0.000000000000000E+000
  0.000000000000000E+000
  0.000000000000000E+000
  0.000000000000000E+000
  0.000000000000000E+000
  0.000000000000000E+000
  0.000000000000000E+000
  0.000000000000000E+000
  0.000000000000000E+000
  0.000000000000000E+000
  0.000000000000000E+000
  0.000000000000000E+000
  0.000000000000000E+000
  0.000000000000000E+000
  0.000000000000000E+000
  0.000000000000000E+000
  0.000000000000000E+000
  0.000000000000000E+000
  0.000000000000000E+000
  0.000000000000000E+000
  0.000000000000000E+000
  0.000000000000000E+000
  0.000000000000000E+000
  0.000000000000000E+000
  0.000000000000000E+000
  0.000000000000000E+000
  0.000000000000000E+000
  0.000000000000000E+000
  0.000000000000000E+000
  0.000000000000000E+000
  0.000000000000000E+000
  0.000000000000000E+000
  0.000000000000000E+000
  0.000000000000000E+000
  0.000000000000000E+000
  0.000000000000000E+000
  0.000000000000000E+000
  0.000000000000000E+000
  0.000000000000000E+000
  0.000000000000000E+000
  0.000000000000000E+000
  0.000000000000000E+000
  0.000000000000000E+000
  0.000000000000000E+000
  0.000000000000000E+000
  0.000000000000000E+000
  0.000000000000000E+000
  0.000000000000000E+000
  0.000000000000000E+000
  0.000000000000000E+000
  0.000000000000000E+000
  0.000000000000000E+000
  0.000000000000000E+000
  0.000000000000000E+000
  0.000000000000000E+000
  0.000000000000000E+000
  0.000000000000000E+000
  0.000000000000000E+000
  0.000000000000000E+000
  0.000000000000000E+000
  0.000000000000000E+000
  0.000000000000000E+000
  0.000000000000000E+000
  0.000000000000000E+000
  0.000000000000000E+000
  0.000000000000000E+000
  0.000000000000000E+000
  0.000000000000000E+000
  0.000000000000000E+000
  0.000000000000000E+000
  0.000000000000000E+000
  0.000000000000000E+000
  0.000000000000000E+000
  0.000000000000000E+000
  0.000000000000000E+000
  0.000000000000000E+000
  0.000000000000000E+000
  0.000000000000000E+000
  0.000000000000000E+000
  0.000000000000000E+000
  0.000000000000000E+000
  0.000000000000000E+000
  0.000000000000000E+000
  0.000000000000000E+000
  0.000000000000000E+000
  0.000000000000000E+000
  0.000000000000000E+000
  0.000000000000000E+000
  0.000000000000000E+000
  0.000000000000000E+000
  0.000000000000000E+000
  0.000000000000000E+000
  0.000000000000000E+000
  0.000000000000000E+000
  0.000000000000000E+000
  0.000000000000000E+000
  0.000000000000000E+000
  0.000000000000000E+000
  0.000000000000000E+000
  0.000000000000000E+000
  0.000000000000000E+000
  0.000000000000000E+000
  0.000000000000000E+000
  0.000000000000000E+000
  0.000000000000000E+000
  0.000000000000000E+000
  0.000000000000000E+000
  0.000000000000000E+000
  0.000000000000000E+000
  0.000000000000000E+000
  0.000000000000000E+000
  0.000000000000000E+000
  0.000000000000000E+000
  0.000000000000000E+000
  0.000000000000000E+000
  0.000000000000000E+000
  0.000000000000000E+000
  0.000000000000000E+000
  0.000000000000000E+000
  0.000000000000000E+000
  0.000000000000000E+000
  0.000000000000000E+000
  0.000000000000000E+000
  0.000000000000000E+000
  0.000000000000000E+000
  0.000000000000000E+000
  0.000000000000000E+000
  0.000000000000000E+000
  0.000000000000000E+000
  0.000000000000000E+000
  0.000000000000000E+000
  0.000000000000000E+000
  0.000000000000000E+000
  0.000000000000000E+000
  0.000000000000000E+000
  0.000000000000000E+000
  0.000000000000000E+000
  0.000000000000000E+000
  0.000000000000000E+000
  0.000000000000000E+000
  0.000000000000000E+000
  0.000000000000000E+000
  0.000000000000000E+000
  0.000000000000000E+000
  0.000000000000000E+000
  0.000000000000000E+000
  0.000000000000000E+000
  0.000000000000000E+000
  0.000000000000000E+000
  0.000000000000000E+000
  0.000000000000000E+000
  0.000000000000000E+000
  0.000000000000000E+000
  0.000000000000000E+000
  0.000000000000000E+000
  0.000000000000000E+000
  0.000000000000000E+000
  0.000000000000000E+000
  0.000000000000000E+000
  0.000000000000000E+000
  0.000000000000000E+000
  0.000000000000000E+000
  0.000000000000000E+000
  0.000000000000000E+000
  0.000000000000000E+000
  0.000000000000000E+000
  0.000000000000000E+000
  0.000000000000000E+000
  0.000000000000000E+000
  0.000000000000000E+000
  0.000000000000000E+000
  0.000000000000000E+000
  0.000000000000000E+000
  0.000000000000000E+000
  0.000000000000000E+000
  0.000000000000000E+000
  0.000000000000000E+000
  0.000000000000000E+000
  0.000000000000000E+000
  0.000000000000000E+000
  0.000000000000000E+000
  0.000000000000000E+000
  0.000000000000000E+000
  0.000000000000000E+000
  0.000000000000000E+000
  0.000000000000000E+000
  0.000000000000000E+000
  0.000000000000000E+000
  0.000000000000000E+000
  0.000000000000000E+000
  0.000000000000000E+000
  0.000000000000000E+000
  0.000000000000000E+000
  0.000000000000000E+000
  0.000000000000000E+000
  0.000000000000000E+000
  0.000000000000000E+000
  0.000000000000000E+000
  0.000000000000000E+000
  0.000000000000000E+000
  0.000000000000000E+000
  0.000000000000000E+000
  0.000000000000000E+000
  0.000000000000000E+000
  0.000000000000000E+000
  0.000000000000000E+000
  0.000000000000000E+000
  0.000000000000000E+000
  0.000000000000000E+000
  0.000000000000000E+000
  0.000000000000000E+000
  0.000000000000000E+000
  0.000000000000000E+000
  0.000000000000000E+000
  0.000000000000000E+000
  0.000000000000000E+000
  0.000000000000000E+000
  0.000000000000000E+000
  0.000000000000000E+000
  0.000000000000000E+000
  0.000000000000000E+000
  0.000000000000000E+000
  0.000000000000000E+000
  0.000000000000000E+000
  0.000000000000000E+000
  0.000000000000000E+000
  0.000000000000000E+000
  0.000000000000000E+000
  0.000000000000000E+000
  0.000000000000000E+000
  0.000000000000000E+000
  0.000000000000000E+000
  0.000000000000000E+000
  0.000000000000000E+000
  0.000000000000000E+000
  0.000000000000000E+000
  0.000000000000000E+000
  0.000000000000000E+000
  0.000000000000000E+000
  0.000000000000000E+000
  0.000000000000000E+000
  0.000000000000000E+000
  0.000000000000000E+000
  0.000000000000000E+000
  0.000000000000000E+000
  0.000000000000000E+000
  0.000000000000000E+000
  0.000000000000000E+000
  0.000000000000000E+000
  0.000000000000000E+000
  0.000000000000000E+000
  0.000000000000000E+000
  0.000000000000000E+000
  0.000000000000000E+000
  0.000000000000000E+000
  0.000000000000000E+000
  0.000000000000000E+000
  0.000000000000000E+000
  0.000000000000000E+000
  0.000000000000000E+000
  0.000000000000000E+000
  0.000000000000000E+000
  0.000000000000000E+000
  0.000000000000000E+000
  0.000000000000000E+000
  0.000000000000000E+000
  0.000000000000000E+000
  0.000000000000000E+000
  0.000000000000000E+000
  0.000000000000000E+000
  0.000000000000000E+000
  0.000000000000000E+000
  0.000000000000000E+000
  0.000000000000000E+000
  0.000000000000000E+000
  0.000000000000000E+000
  0.000000000000000E+000
  0.000000000000000E+000
  0.000000000000000E+000
  0.000000000000000E+000
  0.000000000000000E+000
  0.000000000000000E+000
  0.000000000000000E+000
  0.000000000000000E+000
  0.000000000000000E+000
  0.000000000000000E+000
  0.000000000000000E+000
  0.000000000000000E+000
  0.000000000000000E+000
  0.000000000000000E+000
  0.000000000000000E+000
  0.000000000000000E+000
  0.000000000000000E+000
  0.000000000000000E+000
  0.000000000000000E+000
  0.000000000000000E+000
  0.000000000000000E+000
  0.000000000000000E+000
  0.000000000000000E+000
  0.000000000000000E+000
  0.000000000000000E+000
  0.000000000000000E+000
  0.000000000000000E+000
  0.000000000000000E+000
  0.000000000000000E+000
  0.000000000000000E+000
  0.000000000000000E+000
  0.000000000000000E+000
  0.000000000000000E+000
  0.000000000000000E+000
  0.000000000000000E+000
  0.000000000000000E+000
  0.000000000000000E+000
  0.000000000000000E+000
  0.000000000000000E+000
  0.000000000000000E+000
  0.000000000000000E+000
  0.000000000000000E+000
  0.000000000000000E+000
  0.000000000000000E+000
  0.000000000000000E+000
  0.000000000000000E+000
  0.000000000000000E+000
  0.000000000000000E+000
  0.000000000000000E+000
  0.000000000000000E+000
  0.000000000000000E+000
  0.000000000000000E+000
  0.000000000000000E+000
  0.000000000000000E+000
  0.000000000000000E+000
  0.000000000000000E+000
  0.000000000000000E+000
  0.000000000000000E+000
  0.000000000000000E+000
  0.000000000000000E+000
  0.000000000000000E+000
  0.000000000000000E+000
  0.000000000000000E+000
  0.000000000000000E+000
  0.000000000000000E+000
  0.000000000000000E+000
  0.000000000000000E+000
  0.000000000000000E+000
  0.000000000000000E+000
  0.000000000000000E+000
  0.000000000000000E+000
  0.000000000000000E+000
  0.000000000000000E+000
  0.000000000000000E+000
  0.000000000000000E+000
  0.000000000000000E+000
  0.000000000000000E+000
  0.000000000000000E+000
  0.000000000000000E+000
  0.000000000000000E+000
  0.000000000000000E+000
  0.000000000000000E+000
  0.000000000000000E+000
  0.000000000000000E+000
  0.000000000000000E+000
  0.000000000000000E+000
  0.000000000000000E+000
  0.000000000000000E+000
  0.000000000000000E+000
  0.000000000000000E+000
  0.000000000000000E+000
  0.000000000000000E+000
  0.000000000000000E+000
  0.000000000000000E+000
  0.000000000000000E+000
  0.000000000000000E+000
  0.000000000000000E+000
  0.000000000000000E+000
  0.000000000000000E+000
  0.000000000000000E+000
  0.000000000000000E+000
  0.000000000000000E+000
  0.000000000000000E+000
  0.000000000000000E+000
  0.000000000000000E+000
  0.000000000000000E+000
  0.000000000000000E+000
  0.000000000000000E+000
  0.000000000000000E+000
  0.000000000000000E+000
  0.000000000000000E+000
  0.000000000000000E+000
  0.000000000000000E+000
  0.000000000000000E+000
  0.000000000000000E+000
  0.000000000000000E+000
  0.000000000000000E+000
  0.000000000000000E+000
  0.000000000000000E+000
  0.000000000000000E+000
  0.000000000000000E+000
  0.000000000000000E+000
  0.000000000000000E+000
  0.000000000000000E+000
  0.000000000000000E+000
  0.000000000000000E+000
  0.000000000000000E+000
  0.000000000000000E+000
  0.000000000000000E+000
  0.000000000000000E+000
  0.000000000000000E+000
  0.000000000000000E+000
  0.000000000000000E+000
  0.000000000000000E+000
  0.000000000000000E+000
  0.000000000000000E+000
  0.000000000000000E+000
  0.000000000000000E+000
  0.000000000000000E+000
  0.000000000000000E+000
  0.000000000000000E+000
  0.000000000000000E+000
  0.000000000000000E+000
  0.000000000000000E+000
  0.000000000000000E+000
  0.000000000000000E+000
  0.000000000000000E+000
  0.000000000000000E+000
  0.000000000000000E+000
  0.000000000000000E+000
  0.000000000000000E+000
  0.000000000000000E+000
  0.000000000000000E+000
  0.000000000000000E+000
  0.000000000000000E+000
  0.000000000000000E+000
  0.000000000000000E+000
  0.000000000000000E+000
  0.000000000000000E+000
  0.000000000000000E+000
  0.000000000000000E+000
  0.000000000000000E+000
  0.000000000000000E+000
  0.000000000000000E+000
  0.000000000000000E+000
  0.000000000000000E+000
  0.000000000000000E+000
  0.000000000000000E+000
  0.000000000000000E+000
  0.000000000000000E+000
  0.000000000000000E+000
  0.000000000000000E+000
  0.000000000000000E+000
  0.000000000000000E+000
  0.000000000000000E+000
  0.000000000000000E+000
  0.000000000000000E+000
  0.000000000000000E+000
  0.000000000000000E+000
  0.000000000000000E+000
  0.000000000000000E+000
  0.000000000000000E+000
  0.000000000000000E+000
  0.000000000000000E+000
  0.000000000000000E+000
  0.000000000000000E+000
  0.000000000000000E+000
  0.000000000000000E+000
  0.000000000000000E+000
  0.000000000000000E+000
  0.000000000000000E+000
  0.000000000000000E+000
  0.000000000000000E+000
  0.000000000000000E+000
  0.000000000000000E+000
  0.000000000000000E+000
  0.000000000000000E+000
  0.000000000000000E+000
  0.000000000000000E+000
  0.000000000000000E+000
  0.000000000000000E+000
  0.000000000000000E+000
  0.000000000000000E+000
  0.000000000000000E+000
  0.000000000000000E+000
  0.000000000000000E+000
  0.000000000000000E+000
  0.000000000000000E+000
  0.000000000000000E+000
  0.000000000000000E+000
  0.000000000000000E+000
  0.000000000000000E+000
  0.000000000000000E+000
  0.000000000000000E+000
  0.000000000000000E+000
  0.000000000000000E+000
  0.000000000000000E+000
  0.000000000000000E+000
  0.000000000000000E+000
  0.000000000000000E+000
  0.000000000000000E+000
  0.000000000000000E+000
  0.000000000000000E+000
  0.000000000000000E+000
  0.000000000000000E+000
  0.000000000000000E+000
  0.000000000000000E+000
  0.000000000000000E+000
  0.000000000000000E+000
  0.000000000000000E+000
  0.000000000000000E+000
  0.000000000000000E+000
  0.000000000000000E+000
  0.000000000000000E+000
  0.000000000000000E+000
  0.000000000000000E+000
  0.000000000000000E+000
  0.000000000000000E+000
  0.000000000000000E+000
  0.000000000000000E+000
  0.000000000000000E+000
  0.000000000000000E+000
  0.000000000000000E+000
  0.000000000000000E+000
  0.000000000000000E+000
  0.000000000000000E+000
  0.000000000000000E+000
  0.000000000000000E+000
  0.000000000000000E+000
  0.000000000000000E+000
  0.000000000000000E+000
  0.000000000000000E+000
  0.000000000000000E+000
  0.000000000000000E+000
  0.000000000000000E+000
  0.000000000000000E+000
  0.000000000000000E+000
  0.000000000000000E+000
  0.000000000000000E+000
  0.000000000000000E+000
  0.000000000000000E+000
  0.000000000000000E+000
  0.000000000000000E+000
  0.000000000000000E+000
  0.000000000000000E+000
  0.000000000000000E+000
  0.000000000000000E+000
  0.000000000000000E+000
  0.000000000000000E+000
  0.000000000000000E+000
  0.000000000000000E+000
  0.000000000000000E+000
  0.000000000000000E+000
  0.000000000000000E+000
  0.000000000000000E+000
  0.000000000000000E+000
  0.000000000000000E+000
  0.000000000000000E+000
  0.000000000000000E+000
  0.000000000000000E+000
  0.000000000000000E+000
  0.000000000000000E+000
  0.000000000000000E+000
  0.000000000000000E+000
  0.000000000000000E+000
  0.000000000000000E+000
  0.000000000000000E+000
  0.000000000000000E+000
  0.000000000000000E+000
  0.000000000000000E+000
  0.000000000000000E+000
  0.000000000000000E+000
  0.000000000000000E+000
  0.000000000000000E+000
  0.000000000000000E+000
  0.000000000000000E+000
  0.000000000000000E+000
  0.000000000000000E+000
  0.000000000000000E+000
  0.000000000000000E+000
  0.000000000000000E+000
  0.000000000000000E+000
  0.000000000000000E+000
  0.000000000000000E+000
  0.000000000000000E+000
  0.000000000000000E+000
  0.000000000000000E+000
  0.000000000000000E+000
  0.000000000000000E+000
  0.000000000000000E+000
  0.000000000000000E+000
  0.000000000000000E+000
  0.000000000000000E+000
  0.000000000000000E+000
  0.000000000000000E+000
  0.000000000000000E+000
  0.000000000000000E+000
  0.000000000000000E+000
  0.000000000000000E+000
  0.000000000000000E+000
  0.000000000000000E+000
  0.000000000000000E+000
  0.000000000000000E+000
  0.000000000000000E+000
  0.000000000000000E+000
  0.000000000000000E+000
  0.000000000000000E+000
  0.000000000000000E+000
  0.000000000000000E+000
  0.000000000000000E+000
  0.000000000000000E+000
  0.000000000000000E+000
  0.000000000000000E+000
  0.000000000000000E+000
  0.000000000000000E+000
  0.000000000000000E+000
  0.000000000000000E+000
  0.000000000000000E+000
  0.000000000000000E+000
  0.000000000000000E+000
  0.000000000000000E+000
  0.000000000000000E+000
  0.000000000000000E+000
  0.000000000000000E+000
  0.000000000000000E+000
  0.000000000000000E+000
  0.000000000000000E+000
  0.000000000000000E+000
  0.000000000000000E+000
  0.000000000000000E+000
  0.000000000000000E+000
  0.000000000000000E+000
  0.000000000000000E+000
  0.000000000000000E+000
  0.000000000000000E+000
  0.000000000000000E+000
  0.000000000000000E+000
  0.000000000000000E+000
  0.000000000000000E+000
  0.000000000000000E+000
  0.000000000000000E+000
  0.000000000000000E+000
  0.000000000000000E+000
  0.000000000000000E+000
  0.000000000000000E+000
  0.000000000000000E+000
  0.000000000000000E+000
  0.000000000000000E+000
  0.000000000000000E+000
  0.000000000000000E+000
  0.000000000000000E+000
  0.000000000000000E+000
  0.000000000000000E+000
  0.000000000000000E+000
  0.000000000000000E+000
  0.000000000000000E+000
  0.000000000000000E+000
  0.000000000000000E+000
  0.000000000000000E+000
  0.000000000000000E+000
  0.000000000000000E+000
  0.000000000000000E+000
  0.000000000000000E+000
  0.000000000000000E+000
  0.000000000000000E+000
  0.000000000000000E+000
  0.000000000000000E+000
  0.000000000000000E+000
  0.000000000000000E+000
  0.000000000000000E+000
  0.000000000000000E+000
  0.000000000000000E+000
  0.000000000000000E+000
  0.000000000000000E+000
  0.000000000000000E+000
  0.000000000000000E+000
  0.000000000000000E+000
  0.000000000000000E+000
  0.000000000000000E+000
  0.000000000000000E+000
  0.000000000000000E+000
  0.000000000000000E+000
  0.000000000000000E+000
  0.000000000000000E+000
  0.000000000000000E+000
  0.000000000000000E+000
  0.000000000000000E+000
  0.000000000000000E+000
  0.000000000000000E+000
  0.000000000000000E+000
  0.000000000000000E+000
  0.000000000000000E+000
  0.000000000000000E+000
  0.000000000000000E+000
  0.000000000000000E+000
  0.000000000000000E+000
  0.000000000000000E+000
  0.000000000000000E+000
  0.000000000000000E+000
  0.000000000000000E+000
  0.000000000000000E+000
  0.000000000000000E+000
  0.000000000000000E+000
  0.000000000000000E+000
  0.000000000000000E+000
  0.000000000000000E+000
  0.000000000000000E+000
  0.000000000000000E+000
  0.000000000000000E+000
  0.000000000000000E+000
  0.000000000000000E+000
  0.000000000000000E+000
  0.000000000000000E+000
  0.000000000000000E+000
  0.000000000000000E+000
  0.000000000000000E+000
  0.000000000000000E+000
  0.000000000000000E+000
  0.000000000000000E+000
  0.000000000000000E+000
  0.000000000000000E+000
  0.000000000000000E+000
  0.000000000000000E+000
  0.000000000000000E+000
  0.000000000000000E+000
  0.000000000000000E+000
  0.000000000000000E+000
  0.000000000000000E+000
  0.000000000000000E+000
  0.000000000000000E+000
  0.000000000000000E+000
  0.000000000000000E+000
  0.000000000000000E+000
  0.000000000000000E+000
  0.000000000000000E+000
  0.000000000000000E+000
  0.000000000000000E+000
  0.000000000000000E+000
  0.000000000000000E+000
  0.000000000000000E+000
  0.000000000000000E+000
  0.000000000000000E+000
  0.000000000000000E+000
  0.000000000000000E+000
  0.000000000000000E+000
  0.000000000000000E+000
  0.000000000000000E+000
  0.000000000000000E+000
  0.000000000000000E+000
  0.000000000000000E+000
  0.000000000000000E+000
  0.000000000000000E+000
  0.000000000000000E+000
  0.000000000000000E+000
  0.000000000000000E+000
  0.000000000000000E+000
  0.000000000000000E+000
  0.000000000000000E+000
  0.000000000000000E+000
  0.000000000000000E+000
  0.000000000000000E+000
  0.000000000000000E+000
  0.000000000000000E+000
  0.000000000000000E+000
  0.000000000000000E+000
  0.000000000000000E+000
  0.000000000000000E+000
  0.000000000000000E+000
  0.000000000000000E+000
  0.000000000000000E+000
  0.000000000000000E+000
  0.000000000000000E+000
  0.000000000000000E+000
  0.000000000000000E+000
  0.000000000000000E+000
  0.000000000000000E+000
  0.000000000000000E+000
  0.000000000000000E+000
  0.000000000000000E+000
  0.000000000000000E+000
  0.000000000000000E+000
  0.000000000000000E+000
  0.000000000000000E+000
  0.000000000000000E+000
  0.000000000000000E+000
  0.000000000000000E+000
  0.000000000000000E+000
  0.000000000000000E+000
  0.000000000000000E+000
  0.000000000000000E+000
  0.000000000000000E+000
  0.000000000000000E+000
  0.000000000000000E+000
  0.000000000000000E+000
  0.000000000000000E+000
  0.000000000000000E+000
  0.000000000000000E+000
  0.000000000000000E+000
  0.000000000000000E+000
  0.000000000000000E+000
  0.000000000000000E+000
  0.000000000000000E+000
  0.000000000000000E+000
  0.000000000000000E+000
  0.000000000000000E+000
  0.000000000000000E+000
  0.000000000000000E+000
  0.000000000000000E+000
  0.000000000000000E+000
  0.000000000000000E+000
  0.000000000000000E+000
  0.000000000000000E+000
  0.000000000000000E+000
  0.000000000000000E+000
  0.000000000000000E+000
  0.000000000000000E+000
  0.000000000000000E+000
  0.000000000000000E+000
  0.000000000000000E+000
  0.000000000000000E+000
  0.000000000000000E+000
  0.000000000000000E+000
  0.000000000000000E+000
  0.000000000000000E+000
  0.000000000000000E+000
  0.000000000000000E+000
  0.000000000000000E+000
  0.000000000000000E+000
  0.000000000000000E+000
  0.000000000000000E+000
  0.000000000000000E+000
  0.000000000000000E+000
  0.000000000000000E+000
  0.000000000000000E+000
  0.000000000000000E+000
  0.000000000000000E+000
  0.000000000000000E+000
  0.000000000000000E+000
  0.000000000000000E+000
  0.000000000000000E+000
  0.000000000000000E+000
  0.000000000000000E+000
  0.000000000000000E+000
  0.000000000000000E+000
  0.000000000000000E+000
  0.000000000000000E+000
  0.000000000000000E+000
  0.000000000000000E+000
  0.000000000000000E+000
  0.000000000000000E+000
  0.000000000000000E+000
  0.000000000000000E+000
  0.000000000000000E+000
  0.000000000000000E+000
  0.000000000000000E+000
  0.000000000000000E+000
  0.000000000000000E+000
  0.000000000000000E+000
  0.000000000000000E+000
  0.000000000000000E+000
  0.000000000000000E+000
  0.000000000000000E+000
  0.000000000000000E+000
  0.000000000000000E+000
  0.000000000000000E+000
  0.000000000000000E+000
  0.000000000000000E+000
  0.000000000000000E+000
  0.000000000000000E+000
  0.000000000000000E+000
  0.000000000000000E+000
  0.000000000000000E+000
  0.000000000000000E+000
  0.000000000000000E+000
  0.000000000000000E+000
  0.000000000000000E+000
  0.000000000000000E+000
  0.000000000000000E+000
  0.000000000000000E+000
  0.000000000000000E+000
  0.000000000000000E+000
  0.000000000000000E+000
  0.000000000000000E+000
  0.000000000000000E+000
  0.000000000000000E+000
  0.000000000000000E+000
  0.000000000000000E+000
  0.000000000000000E+000
  0.000000000000000E+000
  0.000000000000000E+000
  0.000000000000000E+000
  0.000000000000000E+000
  0.000000000000000E+000
  0.000000000000000E+000
  0.000000000000000E+000
  0.000000000000000E+000
  0.000000000000000E+000
  0.000000000000000E+000
  0.000000000000000E+000
  0.000000000000000E+000
  0.000000000000000E+000
  0.000000000000000E+000
  0.000000000000000E+000
  0.000000000000000E+000
  0.000000000000000E+000
  0.000000000000000E+000
  0.000000000000000E+000
  0.000000000000000E+000
  0.000000000000000E+000
  0.000000000000000E+000
  0.000000000000000E+000
  0.000000000000000E+000
  0.000000000000000E+000
  0.000000000000000E+000
  0.000000000000000E+000
  0.000000000000000E+000
  0.000000000000000E+000
  0.000000000000000E+000
  0.000000000000000E+000
  0.000000000000000E+000
  0.000000000000000E+000
  0.000000000000000E+000
  0.000000000000000E+000
  0.000000000000000E+000
  0.000000000000000E+000
  0.000000000000000E+000
  0.000000000000000E+000
  0.000000000000000E+000
  0.000000000000000E+000
  0.000000000000000E+000
  0.000000000000000E+000
  0.000000000000000E+000
  0.000000000000000E+000
  0.000000000000000E+000
  0.000000000000000E+000
  0.000000000000000E+000
  0.000000000000000E+000
  0.000000000000000E+000
  0.000000000000000E+000
  0.000000000000000E+000
  0.000000000000000E+000
  0.000000000000000E+000
  0.000000000000000E+000
  0.000000000000000E+000
  0.000000000000000E+000
  0.000000000000000E+000
  0.000000000000000E+000
  0.000000000000000E+000
  0.000000000000000E+000
  0.000000000000000E+000
  0.000000000000000E+000
  0.000000000000000E+000
  0.000000000000000E+000
  0.000000000000000E+000
  0.000000000000000E+000
  0.000000000000000E+000
  0.000000000000000E+000
  0.000000000000000E+000
  0.000000000000000E+000
  0.000000000000000E+000
  0.000000000000000E+000
  0.000000000000000E+000
  0.000000000000000E+000
  0.000000000000000E+000
  0.000000000000000E+000
  0.000000000000000E+000
  0.000000000000000E+000
  0.000000000000000E+000
  0.000000000000000E+000
  0.000000000000000E+000
  0.000000000000000E+000
  0.000000000000000E+000
  0.000000000000000E+000
  0.000000000000000E+000
  0.000000000000000E+000
  0.000000000000000E+000
  0.000000000000000E+000
  0.000000000000000E+000
  0.000000000000000E+000
  0.000000000000000E+000
  0.000000000000000E+000
  0.000000000000000E+000
  0.000000000000000E+000
  0.000000000000000E+000
  0.000000000000000E+000
  0.000000000000000E+000
  0.000000000000000E+000
  0.000000000000000E+000
  0.000000000000000E+000
  0.000000000000000E+000
  0.000000000000000E+000
  0.000000000000000E+000
  0.000000000000000E+000
  0.000000000000000E+000
  0.000000000000000E+000
  0.000000000000000E+000
  0.000000000000000E+000
  0.000000000000000E+000
  0.000000000000000E+000
  0.000000000000000E+000
  0.000000000000000E+000
  0.000000000000000E+000
  0.000000000000000E+000
  0.000000000000000E+000
  0.000000000000000E+000
  0.000000000000000E+000
  0.000000000000000E+000
  0.000000000000000E+000
  0.000000000000000E+000
  0.000000000000000E+000
  0.000000000000000E+000
  0.000000000000000E+000
  0.000000000000000E+000
  0.000000000000000E+000
  0.000000000000000E+000
  0.000000000000000E+000
  0.000000000000000E+000
  0.000000000000000E+000
  0.000000000000000E+000
  0.000000000000000E+000
  0.000000000000000E+000
  0.000000000000000E+000
  0.000000000000000E+000
  0.000000000000000E+000
  0.000000000000000E+000
  0.000000000000000E+000
  0.000000000000000E+000
  0.000000000000000E+000
  0.000000000000000E+000
  0.000000000000000E+000
  0.000000000000000E+000
  0.000000000000000E+000
  0.000000000000000E+000
  0.000000000000000E+000
  0.000000000000000E+000
  0.000000000000000E+000
  0.000000000000000E+000
  0.000000000000000E+000
  0.000000000000000E+000
  0.000000000000000E+000
  0.000000000000000E+000
  0.000000000000000E+000
  0.000000000000000E+000
  0.000000000000000E+000
  0.000000000000000E+000
  0.000000000000000E+000
  0.000000000000000E+000
  0.000000000000000E+000
  0.000000000000000E+000
  0.000000000000000E+000
  0.000000000000000E+000
  0.000000000000000E+000
  0.000000000000000E+000
  0.000000000000000E+000
  0.000000000000000E+000
  0.000000000000000E+000
  0.000000000000000E+000
  0.000000000000000E+000
  0.000000000000000E+000
  0.000000000000000E+000
  0.000000000000000E+000
  0.000000000000000E+000
  0.000000000000000E+000
  0.000000000000000E+000
  0.000000000000000E+000
  0.000000000000000E+000
  0.000000000000000E+000
  0.000000000000000E+000
  0.000000000000000E+000
  0.000000000000000E+000
  0.000000000000000E+000
  0.000000000000000E+000
  0.000000000000000E+000
  0.000000000000000E+000
  0.000000000000000E+000
  0.000000000000000E+000
  0.000000000000000E+000
  0.000000000000000E+000
  0.000000000000000E+000
  0.000000000000000E+000
  0.000000000000000E+000
  0.000000000000000E+000
  0.000000000000000E+000
  0.000000000000000E+000
  0.000000000000000E+000
  0.000000000000000E+000
  0.000000000000000E+000
  0.000000000000000E+000
  0.000000000000000E+000
  0.000000000000000E+000
  0.000000000000000E+000
  0.000000000000000E+000
  0.000000000000000E+000
  0.000000000000000E+000
  0.000000000000000E+000
  0.000000000000000E+000
  0.000000000000000E+000
  0.000000000000000E+000
  0.000000000000000E+000
  0.000000000000000E+000
  0.000000000000000E+000
  0.000000000000000E+000
  0.000000000000000E+000
  0.000000000000000E+000
  0.000000000000000E+000
  0.000000000000000E+000
  0.000000000000000E+000
  0.000000000000000E+000
  0.000000000000000E+000
  0.000000000000000E+000
  0.000000000000000E+000
  0.000000000000000E+000
  0.000000000000000E+000
  0.000000000000000E+000
  0.000000000000000E+000
  0.000000000000000E+000
  0.000000000000000E+000
  0.000000000000000E+000
  0.000000000000000E+000
  0.000000000000000E+000
  0.000000000000000E+000
  0.000000000000000E+000
  0.000000000000000E+000
  0.000000000000000E+000
  0.000000000000000E+000
  0.000000000000000E+000
  0.000000000000000E+000
  0.000000000000000E+000
  0.000000000000000E+000
  0.000000000000000E+000
  0.000000000000000E+000
  0.000000000000000E+000
  0.000000000000000E+000
  0.000000000000000E+000
  0.000000000000000E+000
  0.000000000000000E+000
  0.000000000000000E+000
  0.000000000000000E+000
  0.000000000000000E+000
  0.000000000000000E+000
  0.000000000000000E+000
  0.000000000000000E+000
  0.000000000000000E+000
  0.000000000000000E+000
  0.000000000000000E+000
  0.000000000000000E+000
  0.000000000000000E+000
  0.000000000000000E+000
  0.000000000000000E+000
  0.000000000000000E+000
  0.000000000000000E+000
  0.000000000000000E+000
  0.000000000000000E+000
  0.000000000000000E+000
  0.000000000000000E+000
  0.000000000000000E+000
  0.000000000000000E+000
  0.000000000000000E+000
  0.000000000000000E+000
  0.000000000000000E+000
  0.000000000000000E+000
  0.000000000000000E+000
  0.000000000000000E+000
  0.000000000000000E+000
  0.000000000000000E+000
  0.000000000000000E+000
  0.000000000000000E+000
  0.000000000000000E+000
  0.000000000000000E+000
  0.000000000000000E+000
  0.000000000000000E+000
  0.000000000000000E+000
  0.000000000000000E+000
  0.000000000000000E+000
  0.000000000000000E+000
  0.000000000000000E+000
  0.000000000000000E+000
  0.000000000000000E+000
  0.000000000000000E+000
  0.000000000000000E+000
  0.000000000000000E+000
  0.000000000000000E+000
  0.000000000000000E+000
  0.000000000000000E+000
  0.000000000000000E+000
  0.000000000000000E+000
  0.000000000000000E+000
  0.000000000000000E+000
  0.000000000000000E+000
  0.000000000000000E+000
  0.000000000000000E+000
  0.000000000000000E+000
  0.000000000000000E+000
  0.000000000000000E+000
  0.000000000000000E+000
  0.000000000000000E+000
  0.000000000000000E+000
  0.000000000000000E+000
  0.000000000000000E+000
  0.000000000000000E+000
  0.000000000000000E+000
  0.000000000000000E+000
  0.000000000000000E+000
  0.000000000000000E+000
  0.000000000000000E+000
  0.000000000000000E+000
  0.000000000000000E+000
  0.000000000000000E+000
  0.000000000000000E+000
  0.000000000000000E+000
  0.000000000000000E+000
  0.000000000000000E+000
  0.000000000000000E+000
  0.000000000000000E+000
  0.000000000000000E+000
  0.000000000000000E+000
  0.000000000000000E+000
  0.000000000000000E+000
  0.000000000000000E+000
  0.000000000000000E+000
  0.000000000000000E+000
  0.000000000000000E+000
  0.000000000000000E+000
  0.000000000000000E+000
  0.000000000000000E+000
  0.000000000000000E+000
  0.000000000000000E+000
  0.000000000000000E+000
  0.000000000000000E+000
  0.000000000000000E+000
  0.000000000000000E+000
  0.000000000000000E+000
  0.000000000000000E+000
  0.000000000000000E+000
  0.000000000000000E+000
  0.000000000000000E+000
  0.000000000000000E+000
  0.000000000000000E+000
  0.000000000000000E+000
  0.000000000000000E+000
  0.000000000000000E+000
  0.000000000000000E+000
  0.000000000000000E+000
  0.000000000000000E+000
  0.000000000000000E+000
  0.000000000000000E+000
  0.000000000000000E+000
  0.000000000000000E+000
  0.000000000000000E+000
  0.000000000000000E+000
  0.000000000000000E+000
  0.000000000000000E+000
  0.000000000000000E+000
  0.000000000000000E+000
  0.000000000000000E+000
  0.000000000000000E+000
  0.000000000000000E+000
  0.000000000000000E+000
  0.000000000000000E+000
  0.000000000000000E+000
  0.000000000000000E+000
  0.000000000000000E+000
  0.000000000000000E+000
  0.000000000000000E+000
  0.000000000000000E+000
  0.000000000000000E+000
  0.000000000000000E+000
  0.000000000000000E+000
  0.000000000000000E+000
  0.000000000000000E+000
  0.000000000000000E+000
  0.000000000000000E+000
  0.000000000000000E+000
  0.000000000000000E+000
  0.000000000000000E+000
  0.000000000000000E+000
  0.000000000000000E+000
  0.000000000000000E+000
  0.000000000000000E+000
  0.000000000000000E+000
  0.000000000000000E+000
  0.000000000000000E+000
  0.000000000000000E+000
  0.000000000000000E+000
  0.000000000000000E+000
  0.000000000000000E+000
  0.000000000000000E+000
  0.000000000000000E+000
  0.000000000000000E+000
  0.000000000000000E+000
  0.000000000000000E+000
  0.000000000000000E+000
  0.000000000000000E+000
  0.000000000000000E+000
  0.000000000000000E+000
  0.000000000000000E+000
  0.000000000000000E+000
  0.000000000000000E+000
  0.000000000000000E+000
  0.000000000000000E+000
  0.000000000000000E+000
  0.000000000000000E+000
  0.000000000000000E+000
  0.000000000000000E+000
  0.000000000000000E+000
  0.000000000000000E+000
  0.000000000000000E+000
  0.000000000000000E+000
  0.000000000000000E+000
  0.000000000000000E+000
  0.000000000000000E+000
  0.000000000000000E+000
  0.000000000000000E+000
  0.000000000000000E+000
  0.000000000000000E+000
  0.000000000000000E+000
  0.000000000000000E+000
  0.000000000000000E+000
  0.000000000000000E+000
  0.000000000000000E+000
  0.000000000000000E+000
  0.000000000000000E+000
  0.000000000000000E+000
  0.000000000000000E+000
  0.000000000000000E+000
  0.000000000000000E+000
  0.000000000000000E+000
  0.000000000000000E+000
  0.000000000000000E+000
  0.000000000000000E+000
  0.000000000000000E+000
  0.000000000000000E+000
  0.000000000000000E+000
  0.000000000000000E+000
  0.000000000000000E+000
  0.000000000000000E+000
  0.000000000000000E+000
  0.000000000000000E+000
  0.000000000000000E+000
  0.000000000000000E+000
  0.000000000000000E+000
  0.000000000000000E+000
  0.000000000000000E+000
  0.000000000000000E+000
  0.000000000000000E+000
  0.000000000000000E+000
  0.000000000000000E+000
  0.000000000000000E+000
  0.000000000000000E+000
  0.000000000000000E+000
  0.000000000000000E+000
  0.000000000000000E+000
  0.000000000000000E+000
  0.000000000000000E+000
  0.000000000000000E+000
  0.000000000000000E+000
  0.000000000000000E+000
  0.000000000000000E+000
  0.000000000000000E+000
  0.000000000000000E+000
  0.000000000000000E+000
  0.000000000000000E+000
  0.000000000000000E+000
  0.000000000000000E+000
  0.000000000000000E+000
  0.000000000000000E+000
  0.000000000000000E+000
  0.000000000000000E+000
  0.000000000000000E+000
  0.000000000000000E+000
  0.000000000000000E+000
  0.000000000000000E+000
  0.000000000000000E+000
  0.000000000000000E+000
  0.000000000000000E+000
  0.000000000000000E+000
  0.000000000000000E+000
  0.000000000000000E+000
  0.000000000000000E+000
  0.000000000000000E+000
  0.000000000000000E+000
  0.000000000000000E+000
  0.000000000000000E+000
  0.000000000000000E+000
  0.000000000000000E+000
  0.000000000000000E+000
  0.000000000000000E+000
  0.000000000000000E+000
  0.000000000000000E+000
  0.000000000000000E+000
  0.000000000000000E+000
  0.000000000000000E+000
  0.000000000000000E+000
  0.000000000000000E+000
  0.000000000000000E+000
  0.000000000000000E+000
  0.000000000000000E+000
  0.000000000000000E+000
  0.000000000000000E+000
  0.000000000000000E+000
  0.000000000000000E+000
  0.000000000000000E+000
  0.000000000000000E+000
  0.000000000000000E+000
  0.000000000000000E+000
  0.000000000000000E+000
  0.000000000000000E+000
  0.000000000000000E+000
  0.000000000000000E+000
  0.000000000000000E+000
  0.000000000000000E+000
  0.000000000000000E+000
  0.000000000000000E+000
  0.000000000000000E+000
  0.000000000000000E+000
  0.000000000000000E+000
  0.000000000000000E+000
  0.000000000000000E+000
  0.000000000000000E+000
  0.000000000000000E+000
  0.000000000000000E+000
  0.000000000000000E+000
  0.000000000000000E+000
  0.000000000000000E+000
  0.000000000000000E+000
  0.000000000000000E+000
  0.000000000000000E+000
  0.000000000000000E+000
  0.000000000000000E+000
  0.000000000000000E+000
  0.000000000000000E+000
  0.000000000000000E+000
  0.000000000000000E+000
  0.000000000000000E+000
  0.000000000000000E+000
  0.000000000000000E+000
  0.000000000000000E+000
  0.000000000000000E+000
  0.000000000000000E+000
  0.000000000000000E+000
  0.000000000000000E+000
  0.000000000000000E+000
  0.000000000000000E+000
  0.000000000000000E+000
  0.000000000000000E+000
  0.000000000000000E+000
  0.000000000000000E+000
  0.000000000000000E+000
  0.000000000000000E+000
  0.000000000000000E+000
  0.000000000000000E+000
  0.000000000000000E+000
  0.000000000000000E+000
  0.000000000000000E+000
  0.000000000000000E+000
  0.000000000000000E+000
  0.000000000000000E+000
  0.000000000000000E+000
  0.000000000000000E+000
  0.000000000000000E+000
  0.000000000000000E+000
  0.000000000000000E+000
  0.000000000000000E+000
  0.000000000000000E+000
  0.000000000000000E+000
  0.000000000000000E+000
  0.000000000000000E+000
  0.000000000000000E+000
  0.000000000000000E+000
  0.000000000000000E+000
  0.000000000000000E+000
  0.000000000000000E+000
  0.000000000000000E+000
  0.000000000000000E+000
  0.000000000000000E+000
  0.000000000000000E+000
  0.000000000000000E+000
  0.000000000000000E+000
  0.000000000000000E+000
  0.000000000000000E+000
  0.000000000000000E+000
  0.000000000000000E+000
  0.000000000000000E+000
  0.000000000000000E+000
  0.000000000000000E+000
  0.000000000000000E+000
  0.000000000000000E+000
  0.000000000000000E+000
  0.000000000000000E+000
  0.000000000000000E+000
  0.000000000000000E+000
  0.000000000000000E+000
  0.000000000000000E+000
  0.000000000000000E+000
  0.000000000000000E+000
  0.000000000000000E+000
  0.000000000000000E+000
  0.000000000000000E+000
  0.000000000000000E+000
  0.000000000000000E+000
  0.000000000000000E+000
  0.000000000000000E+000
  0.000000000000000E+000
  0.000000000000000E+000
  0.000000000000000E+000
  0.000000000000000E+000
  0.000000000000000E+000
  0.000000000000000E+000
  0.000000000000000E+000
  0.000000000000000E+000
  0.000000000000000E+000
  0.000000000000000E+000
  0.000000000000000E+000
  0.000000000000000E+000
  0.000000000000000E+000
  0.000000000000000E+000
  0.000000000000000E+000
  0.000000000000000E+000
  0.000000000000000E+000
  0.000000000000000E+000
  0.000000000000000E+000
  0.000000000000000E+000
  0.000000000000000E+000
  0.000000000000000E+000
  0.000000000000000E+000
  0.000000000000000E+000
  0.000000000000000E+000
  0.000000000000000E+000
  0.000000000000000E+000
  0.000000000000000E+000
  0.000000000000000E+000
  0.000000000000000E+000
  0.000000000000000E+000
  0.000000000000000E+000
  0.000000000000000E+000
  0.000000000000000E+000
  0.000000000000000E+000
  0.000000000000000E+000
  0.000000000000000E+000
  0.000000000000000E+000
  0.000000000000000E+000
  0.000000000000000E+000
  0.000000000000000E+000
  0.000000000000000E+000
  0.000000000000000E+000
  0.000000000000000E+000
  0.000000000000000E+000
  0.000000000000000E+000
  0.000000000000000E+000
  0.000000000000000E+000
  0.000000000000000E+000
  0.000000000000000E+000
  0.000000000000000E+000
  0.000000000000000E+000
  0.000000000000000E+000
  0.000000000000000E+000
  0.000000000000000E+000
  0.000000000000000E+000
  0.000000000000000E+000
  0.000000000000000E+000
  0.000000000000000E+000
  0.000000000000000E+000
  0.000000000000000E+000
  0.000000000000000E+000
  0.000000000000000E+000
  0.000000000000000E+000
  0.000000000000000E+000
  0.000000000000000E+000
  0.000000000000000E+000
  0.000000000000000E+000
  0.000000000000000E+000
  0.000000000000000E+000
  0.000000000000000E+000
  0.000000000000000E+000
  0.000000000000000E+000
  0.000000000000000E+000
  0.000000000000000E+000
  0.000000000000000E+000
  0.000000000000000E+000
  0.000000000000000E+000
  0.000000000000000E+000
  0.000000000000000E+000
  0.000000000000000E+000
  0.000000000000000E+000
  0.000000000000000E+000
  0.000000000000000E+000
  0.000000000000000E+000
  0.000000000000000E+000
  0.000000000000000E+000
  0.000000000000000E+000
  0.000000000000000E+000
  0.000000000000000E+000
  0.000000000000000E+000
  0.000000000000000E+000
  0.000000000000000E+000
  0.000000000000000E+000
  0.000000000000000E+000
  0.000000000000000E+000
  0.000000000000000E+000
  0.000000000000000E+000
  0.000000000000000E+000
  0.000000000000000E+000
  0.000000000000000E+000
  0.000000000000000E+000
  0.000000000000000E+000
  0.000000000000000E+000
  0.000000000000000E+000
  0.000000000000000E+000
  0.000000000000000E+000
  0.000000000000000E+000
  0.000000000000000E+000
  0.000000000000000E+000
  0.000000000000000E+000
  0.000000000000000E+000
  0.000000000000000E+000
  0.000000000000000E+000
  0.000000000000000E+000
  0.000000000000000E+000
  0.000000000000000E+000
  0.000000000000000E+000
  0.000000000000000E+000
  0.000000000000000E+000
  0.000000000000000E+000
  0.000000000000000E+000
