# vtk DataFile Version 3.0
vtk output
ASCII
DATASET UNSTRUCTURED_GRID
POINTS      1456 double 
  0.00000000E+00  1.00000000E+01  0.00000000E+00
  0.00000000E+00  9.33333333E+00  0.00000000E+00
  0.00000000E+00  8.66666667E+00  0.00000000E+00
  0.00000000E+00  8.00000000E+00  0.00000000E+00
  0.00000000E+00  7.33333333E+00  0.00000000E+00
  0.00000000E+00  6.66666667E+00  0.00000000E+00
  0.00000000E+00  6.00000000E+00  0.00000000E+00
  0.00000000E+00  5.33333333E+00  0.00000000E+00
  0.00000000E+00  4.66666667E+00  0.00000000E+00
  0.00000000E+00  4.00000000E+00  0.00000000E+00
  0.00000000E+00  3.33333333E+00  0.00000000E+00
  0.00000000E+00  2.66666667E+00  0.00000000E+00
  0.00000000E+00  2.00000000E+00  0.00000000E+00
  0.00000000E+00  1.33333333E+00  0.00000000E+00
  0.00000000E+00  6.66666667E-01  0.00000000E+00
  0.00000000E+00  1.66533454E-15  0.00000000E+00
  1.11111111E+00  1.00000000E+01  0.00000000E+00
  1.11111111E+00  9.33333333E+00  0.00000000E+00
  1.11111111E+00  8.66666667E+00  0.00000000E+00
  1.11111111E+00  8.00000000E+00  0.00000000E+00
  1.11111111E+00  7.33333333E+00  0.00000000E+00
  1.11111111E+00  6.66666667E+00  0.00000000E+00
  1.11111111E+00  6.00000000E+00  0.00000000E+00
  1.11111111E+00  5.33333333E+00  0.00000000E+00
  1.11111111E+00  4.66666667E+00  0.00000000E+00
  1.11111111E+00  4.00000000E+00  0.00000000E+00
  1.11111111E+00  3.33333333E+00  0.00000000E+00
  1.11111111E+00  2.66666667E+00  0.00000000E+00
  1.11111111E+00  2.00000000E+00  0.00000000E+00
  1.11111111E+00  1.33333333E+00  0.00000000E+00
  1.11111111E+00  6.66666667E-01  0.00000000E+00
  1.11111111E+00  1.66533454E-15  0.00000000E+00
  2.22222222E+00  1.00000000E+01  0.00000000E+00
  2.22222222E+00  9.33333333E+00  0.00000000E+00
  2.22222222E+00  8.66666667E+00  0.00000000E+00
  2.22222222E+00  8.00000000E+00  0.00000000E+00
  2.22222222E+00  7.33333333E+00  0.00000000E+00
  2.22222222E+00  6.66666667E+00  0.00000000E+00
  2.22222222E+00  6.00000000E+00  0.00000000E+00
  2.22222222E+00  5.33333333E+00  0.00000000E+00
  2.22222222E+00  4.66666667E+00  0.00000000E+00
  2.22222222E+00  4.00000000E+00  0.00000000E+00
  2.22222222E+00  3.33333333E+00  0.00000000E+00
  2.22222222E+00  2.66666667E+00  0.00000000E+00
  2.22222222E+00  2.00000000E+00  0.00000000E+00
  2.22222222E+00  1.33333333E+00  0.00000000E+00
  2.22222222E+00  6.66666667E-01  0.00000000E+00
  2.22222222E+00  1.66533454E-15  0.00000000E+00
  3.33333333E+00  1.00000000E+01  0.00000000E+00
  3.33333333E+00  9.33333333E+00  0.00000000E+00
  3.33333333E+00  8.66666667E+00  0.00000000E+00
  3.33333333E+00  8.00000000E+00  0.00000000E+00
  3.33333333E+00  7.33333333E+00  0.00000000E+00
  3.33333333E+00  6.66666667E+00  0.00000000E+00
  3.33333333E+00  6.00000000E+00  0.00000000E+00
  3.33333333E+00  5.33333333E+00  0.00000000E+00
  3.33333333E+00  4.66666667E+00  0.00000000E+00
  3.33333333E+00  4.00000000E+00  0.00000000E+00
  3.33333333E+00  3.33333333E+00  0.00000000E+00
  3.33333333E+00  2.66666667E+00  0.00000000E+00
  3.33333333E+00  2.00000000E+00  0.00000000E+00
  3.33333333E+00  1.33333333E+00  0.00000000E+00
  3.33333333E+00  6.66666667E-01  0.00000000E+00
  3.33333333E+00  1.66533454E-15  0.00000000E+00
  4.44444444E+00  1.00000000E+01  0.00000000E+00
  4.44444444E+00  9.33333333E+00  0.00000000E+00
  4.44444444E+00  8.66666667E+00  0.00000000E+00
  4.44444444E+00  8.00000000E+00  0.00000000E+00
  4.44444444E+00  7.33333333E+00  0.00000000E+00
  4.44444444E+00  6.66666667E+00  0.00000000E+00
  4.44444444E+00  6.00000000E+00  0.00000000E+00
  4.44444444E+00  5.33333333E+00  0.00000000E+00
  4.44444444E+00  4.66666667E+00  0.00000000E+00
  4.44444444E+00  4.00000000E+00  0.00000000E+00
  4.44444444E+00  3.33333333E+00  0.00000000E+00
  4.44444444E+00  2.66666667E+00  0.00000000E+00
  4.44444444E+00  2.00000000E+00  0.00000000E+00
  4.44444444E+00  1.33333333E+00  0.00000000E+00
  4.44444444E+00  6.66666667E-01  0.00000000E+00
  4.44444444E+00  1.66533454E-15  0.00000000E+00
  5.55555556E+00  1.00000000E+01  0.00000000E+00
  5.55555556E+00  9.33333333E+00  0.00000000E+00
  5.55555556E+00  8.66666667E+00  0.00000000E+00
  5.55555556E+00  8.00000000E+00  0.00000000E+00
  5.55555556E+00  7.33333333E+00  0.00000000E+00
  5.55555556E+00  6.66666667E+00  0.00000000E+00
  5.55555556E+00  6.00000000E+00  0.00000000E+00
  5.55555556E+00  5.33333333E+00  0.00000000E+00
  5.55555556E+00  4.66666667E+00  0.00000000E+00
  5.55555556E+00  4.00000000E+00  0.00000000E+00
  5.55555556E+00  3.33333333E+00  0.00000000E+00
  5.55555556E+00  2.66666667E+00  0.00000000E+00
  5.55555556E+00  2.00000000E+00  0.00000000E+00
  5.55555556E+00  1.33333333E+00  0.00000000E+00
  5.55555556E+00  6.66666667E-01  0.00000000E+00
  5.55555556E+00  1.66533454E-15  0.00000000E+00
  6.66666667E+00  1.00000000E+01  0.00000000E+00
  6.66666667E+00  9.33333333E+00  0.00000000E+00
  6.66666667E+00  8.66666667E+00  0.00000000E+00
  6.66666667E+00  8.00000000E+00  0.00000000E+00
  6.66666667E+00  7.33333333E+00  0.00000000E+00
  6.66666667E+00  6.66666667E+00  0.00000000E+00
  6.66666667E+00  6.00000000E+00  0.00000000E+00
  6.66666667E+00  5.33333333E+00  0.00000000E+00
  6.66666667E+00  4.66666667E+00  0.00000000E+00
  6.66666667E+00  4.00000000E+00  0.00000000E+00
  6.66666667E+00  3.33333333E+00  0.00000000E+00
  6.66666667E+00  2.66666667E+00  0.00000000E+00
  6.66666667E+00  2.00000000E+00  0.00000000E+00
  6.66666667E+00  1.33333333E+00  0.00000000E+00
  6.66666667E+00  6.66666667E-01  0.00000000E+00
  6.66666667E+00  1.66533454E-15  0.00000000E+00
  7.77777778E+00  1.00000000E+01  0.00000000E+00
  7.77777778E+00  9.33333333E+00  0.00000000E+00
  7.77777778E+00  8.66666667E+00  0.00000000E+00
  7.77777778E+00  8.00000000E+00  0.00000000E+00
  7.77777778E+00  7.33333333E+00  0.00000000E+00
  7.77777778E+00  6.66666667E+00  0.00000000E+00
  7.77777778E+00  6.00000000E+00  0.00000000E+00
  7.77777778E+00  5.33333333E+00  0.00000000E+00
  7.77777778E+00  4.66666667E+00  0.00000000E+00
  7.77777778E+00  4.00000000E+00  0.00000000E+00
  7.77777778E+00  3.33333333E+00  0.00000000E+00
  7.77777778E+00  2.66666667E+00  0.00000000E+00
  7.77777778E+00  2.00000000E+00  0.00000000E+00
  7.77777778E+00  1.33333333E+00  0.00000000E+00
  7.77777778E+00  6.66666667E-01  0.00000000E+00
  7.77777778E+00  1.66533454E-15  0.00000000E+00
  8.88888889E+00  1.00000000E+01  0.00000000E+00
  8.88888889E+00  9.33333333E+00  0.00000000E+00
  8.88888889E+00  8.66666667E+00  0.00000000E+00
  8.88888889E+00  8.00000000E+00  0.00000000E+00
  8.88888889E+00  7.33333333E+00  0.00000000E+00
  8.88888889E+00  6.66666667E+00  0.00000000E+00
  8.88888889E+00  6.00000000E+00  0.00000000E+00
  8.88888889E+00  5.33333333E+00  0.00000000E+00
  8.88888889E+00  4.66666667E+00  0.00000000E+00
  8.88888889E+00  4.00000000E+00  0.00000000E+00
  8.88888889E+00  3.33333333E+00  0.00000000E+00
  8.88888889E+00  2.66666667E+00  0.00000000E+00
  8.88888889E+00  2.00000000E+00  0.00000000E+00
  8.88888889E+00  1.33333333E+00  0.00000000E+00
  8.88888889E+00  6.66666667E-01  0.00000000E+00
  8.88888889E+00  1.66533454E-15  0.00000000E+00
  1.00000000E+01  1.00000000E+01  0.00000000E+00
  1.00000000E+01  9.33333333E+00  0.00000000E+00
  1.00000000E+01  8.66666667E+00  0.00000000E+00
  1.00000000E+01  8.00000000E+00  0.00000000E+00
  1.00000000E+01  7.33333333E+00  0.00000000E+00
  1.00000000E+01  6.66666667E+00  0.00000000E+00
  1.00000000E+01  6.00000000E+00  0.00000000E+00
  1.00000000E+01  5.33333333E+00  0.00000000E+00
  1.00000000E+01  4.66666667E+00  0.00000000E+00
  1.00000000E+01  4.00000000E+00  0.00000000E+00
  1.00000000E+01  3.33333333E+00  0.00000000E+00
  1.00000000E+01  2.66666667E+00  0.00000000E+00
  1.00000000E+01  2.00000000E+00  0.00000000E+00
  1.00000000E+01  1.33333333E+00  0.00000000E+00
  1.00000000E+01  6.66666667E-01  0.00000000E+00
  1.00000000E+01  1.66533454E-15  0.00000000E+00
  1.11111111E+01  1.00000000E+01  0.00000000E+00
  1.11111111E+01  9.33333333E+00  0.00000000E+00
  1.11111111E+01  8.66666667E+00  0.00000000E+00
  1.11111111E+01  8.00000000E+00  0.00000000E+00
  1.11111111E+01  7.33333333E+00  0.00000000E+00
  1.11111111E+01  6.66666667E+00  0.00000000E+00
  1.11111111E+01  6.00000000E+00  0.00000000E+00
  1.11111111E+01  5.33333333E+00  0.00000000E+00
  1.11111111E+01  4.66666667E+00  0.00000000E+00
  1.11111111E+01  4.00000000E+00  0.00000000E+00
  1.11111111E+01  3.33333333E+00  0.00000000E+00
  1.11111111E+01  2.66666667E+00  0.00000000E+00
  1.11111111E+01  2.00000000E+00  0.00000000E+00
  1.11111111E+01  1.33333333E+00  0.00000000E+00
  1.11111111E+01  6.66666667E-01  0.00000000E+00
  1.11111111E+01  1.66533454E-15  0.00000000E+00
  1.22222222E+01  1.00000000E+01  0.00000000E+00
  1.22222222E+01  9.33333333E+00  0.00000000E+00
  1.22222222E+01  8.66666667E+00  0.00000000E+00
  1.22222222E+01  8.00000000E+00  0.00000000E+00
  1.22222222E+01  7.33333333E+00  0.00000000E+00
  1.22222222E+01  6.66666667E+00  0.00000000E+00
  1.22222222E+01  6.00000000E+00  0.00000000E+00
  1.22222222E+01  5.33333333E+00  0.00000000E+00
  1.22222222E+01  4.66666667E+00  0.00000000E+00
  1.22222222E+01  4.00000000E+00  0.00000000E+00
  1.22222222E+01  3.33333333E+00  0.00000000E+00
  1.22222222E+01  2.66666667E+00  0.00000000E+00
  1.22222222E+01  2.00000000E+00  0.00000000E+00
  1.22222222E+01  1.33333333E+00  0.00000000E+00
  1.22222222E+01  6.66666667E-01  0.00000000E+00
  1.22222222E+01  1.66533454E-15  0.00000000E+00
  1.33333333E+01  1.00000000E+01  0.00000000E+00
  1.33333333E+01  9.33333333E+00  0.00000000E+00
  1.33333333E+01  8.66666667E+00  0.00000000E+00
  1.33333333E+01  8.00000000E+00  0.00000000E+00
  1.33333333E+01  7.33333333E+00  0.00000000E+00
  1.33333333E+01  6.66666667E+00  0.00000000E+00
  1.33333333E+01  6.00000000E+00  0.00000000E+00
  1.33333333E+01  5.33333333E+00  0.00000000E+00
  1.33333333E+01  4.66666667E+00  0.00000000E+00
  1.33333333E+01  4.00000000E+00  0.00000000E+00
  1.33333333E+01  3.33333333E+00  0.00000000E+00
  1.33333333E+01  2.66666667E+00  0.00000000E+00
  1.33333333E+01  2.00000000E+00  0.00000000E+00
  1.33333333E+01  1.33333333E+00  0.00000000E+00
  1.33333333E+01  6.66666667E-01  0.00000000E+00
  1.33333333E+01  1.66533454E-15  0.00000000E+00
  1.44444444E+01  1.00000000E+01  0.00000000E+00
  1.44444444E+01  9.33333333E+00  0.00000000E+00
  1.44444444E+01  8.66666667E+00  0.00000000E+00
  1.44444444E+01  8.00000000E+00  0.00000000E+00
  1.44444444E+01  7.33333333E+00  0.00000000E+00
  1.44444444E+01  6.66666667E+00  0.00000000E+00
  1.44444444E+01  6.00000000E+00  0.00000000E+00
  1.44444444E+01  5.33333333E+00  0.00000000E+00
  1.44444444E+01  4.66666667E+00  0.00000000E+00
  1.44444444E+01  4.00000000E+00  0.00000000E+00
  1.44444444E+01  3.33333333E+00  0.00000000E+00
  1.44444444E+01  2.66666667E+00  0.00000000E+00
  1.44444444E+01  2.00000000E+00  0.00000000E+00
  1.44444444E+01  1.33333333E+00  0.00000000E+00
  1.44444444E+01  6.66666667E-01  0.00000000E+00
  1.44444444E+01  1.66533454E-15  0.00000000E+00
  1.55555556E+01  1.00000000E+01  0.00000000E+00
  1.55555556E+01  9.33333333E+00  0.00000000E+00
  1.55555556E+01  8.66666667E+00  0.00000000E+00
  1.55555556E+01  8.00000000E+00  0.00000000E+00
  1.55555556E+01  7.33333333E+00  0.00000000E+00
  1.55555556E+01  6.66666667E+00  0.00000000E+00
  1.55555556E+01  6.00000000E+00  0.00000000E+00
  1.55555556E+01  5.33333333E+00  0.00000000E+00
  1.55555556E+01  4.66666667E+00  0.00000000E+00
  1.55555556E+01  4.00000000E+00  0.00000000E+00
  1.55555556E+01  3.33333333E+00  0.00000000E+00
  1.55555556E+01  2.66666667E+00  0.00000000E+00
  1.55555556E+01  2.00000000E+00  0.00000000E+00
  1.55555556E+01  1.33333333E+00  0.00000000E+00
  1.55555556E+01  6.66666667E-01  0.00000000E+00
  1.55555556E+01  1.66533454E-15  0.00000000E+00
  1.66666667E+01  1.00000000E+01  0.00000000E+00
  1.66666667E+01  9.33333333E+00  0.00000000E+00
  1.66666667E+01  8.66666667E+00  0.00000000E+00
  1.66666667E+01  8.00000000E+00  0.00000000E+00
  1.66666667E+01  7.33333333E+00  0.00000000E+00
  1.66666667E+01  6.66666667E+00  0.00000000E+00
  1.66666667E+01  6.00000000E+00  0.00000000E+00
  1.66666667E+01  5.33333333E+00  0.00000000E+00
  1.66666667E+01  4.66666667E+00  0.00000000E+00
  1.66666667E+01  4.00000000E+00  0.00000000E+00
  1.66666667E+01  3.33333333E+00  0.00000000E+00
  1.66666667E+01  2.66666667E+00  0.00000000E+00
  1.66666667E+01  2.00000000E+00  0.00000000E+00
  1.66666667E+01  1.33333333E+00  0.00000000E+00
  1.66666667E+01  6.66666667E-01  0.00000000E+00
  1.66666667E+01  1.66533454E-15  0.00000000E+00
  1.77777778E+01  1.00000000E+01  0.00000000E+00
  1.77777778E+01  9.33333333E+00  0.00000000E+00
  1.77777778E+01  8.66666667E+00  0.00000000E+00
  1.77777778E+01  8.00000000E+00  0.00000000E+00
  1.77777778E+01  7.33333333E+00  0.00000000E+00
  1.77777778E+01  6.66666667E+00  0.00000000E+00
  1.77777778E+01  6.00000000E+00  0.00000000E+00
  1.77777778E+01  5.33333333E+00  0.00000000E+00
  1.77777778E+01  4.66666667E+00  0.00000000E+00
  1.77777778E+01  4.00000000E+00  0.00000000E+00
  1.77777778E+01  3.33333333E+00  0.00000000E+00
  1.77777778E+01  2.66666667E+00  0.00000000E+00
  1.77777778E+01  2.00000000E+00  0.00000000E+00
  1.77777778E+01  1.33333333E+00  0.00000000E+00
  1.77777778E+01  6.66666667E-01  0.00000000E+00
  1.77777778E+01  1.66533454E-15  0.00000000E+00
  1.88888889E+01  1.00000000E+01  0.00000000E+00
  1.88888889E+01  9.33333333E+00  0.00000000E+00
  1.88888889E+01  8.66666667E+00  0.00000000E+00
  1.88888889E+01  8.00000000E+00  0.00000000E+00
  1.88888889E+01  7.33333333E+00  0.00000000E+00
  1.88888889E+01  6.66666667E+00  0.00000000E+00
  1.88888889E+01  6.00000000E+00  0.00000000E+00
  1.88888889E+01  5.33333333E+00  0.00000000E+00
  1.88888889E+01  4.66666667E+00  0.00000000E+00
  1.88888889E+01  4.00000000E+00  0.00000000E+00
  1.88888889E+01  3.33333333E+00  0.00000000E+00
  1.88888889E+01  2.66666667E+00  0.00000000E+00
  1.88888889E+01  2.00000000E+00  0.00000000E+00
  1.88888889E+01  1.33333333E+00  0.00000000E+00
  1.88888889E+01  6.66666667E-01  0.00000000E+00
  1.88888889E+01  1.66533454E-15  0.00000000E+00
  2.00000000E+01  1.00000000E+01  0.00000000E+00
  2.00000000E+01  9.33333333E+00  0.00000000E+00
  2.00000000E+01  8.66666667E+00  0.00000000E+00
  2.00000000E+01  8.00000000E+00  0.00000000E+00
  2.00000000E+01  7.33333333E+00  0.00000000E+00
  2.00000000E+01  6.66666667E+00  0.00000000E+00
  2.00000000E+01  6.00000000E+00  0.00000000E+00
  2.00000000E+01  5.33333333E+00  0.00000000E+00
  2.00000000E+01  4.66666667E+00  0.00000000E+00
  2.00000000E+01  4.00000000E+00  0.00000000E+00
  2.00000000E+01  3.33333333E+00  0.00000000E+00
  2.00000000E+01  2.66666667E+00  0.00000000E+00
  2.00000000E+01  2.00000000E+00  0.00000000E+00
  2.00000000E+01  1.33333333E+00  0.00000000E+00
  2.00000000E+01  6.66666667E-01  0.00000000E+00
  2.00000000E+01  1.66533454E-15  0.00000000E+00
  2.11111111E+01  1.00000000E+01  0.00000000E+00
  2.11111111E+01  9.33333333E+00  0.00000000E+00
  2.11111111E+01  8.66666667E+00  0.00000000E+00
  2.11111111E+01  8.00000000E+00  0.00000000E+00
  2.11111111E+01  7.33333333E+00  0.00000000E+00
  2.11111111E+01  6.66666667E+00  0.00000000E+00
  2.11111111E+01  6.00000000E+00  0.00000000E+00
  2.11111111E+01  5.33333333E+00  0.00000000E+00
  2.11111111E+01  4.66666667E+00  0.00000000E+00
  2.11111111E+01  4.00000000E+00  0.00000000E+00
  2.11111111E+01  3.33333333E+00  0.00000000E+00
  2.11111111E+01  2.66666667E+00  0.00000000E+00
  2.11111111E+01  2.00000000E+00  0.00000000E+00
  2.11111111E+01  1.33333333E+00  0.00000000E+00
  2.11111111E+01  6.66666667E-01  0.00000000E+00
  2.11111111E+01  1.66533454E-15  0.00000000E+00
  2.22222222E+01  1.00000000E+01  0.00000000E+00
  2.22222222E+01  9.33333333E+00  0.00000000E+00
  2.22222222E+01  8.66666667E+00  0.00000000E+00
  2.22222222E+01  8.00000000E+00  0.00000000E+00
  2.22222222E+01  7.33333333E+00  0.00000000E+00
  2.22222222E+01  6.66666667E+00  0.00000000E+00
  2.22222222E+01  6.00000000E+00  0.00000000E+00
  2.22222222E+01  5.33333333E+00  0.00000000E+00
  2.22222222E+01  4.66666667E+00  0.00000000E+00
  2.22222222E+01  4.00000000E+00  0.00000000E+00
  2.22222222E+01  3.33333333E+00  0.00000000E+00
  2.22222222E+01  2.66666667E+00  0.00000000E+00
  2.22222222E+01  2.00000000E+00  0.00000000E+00
  2.22222222E+01  1.33333333E+00  0.00000000E+00
  2.22222222E+01  6.66666667E-01  0.00000000E+00
  2.22222222E+01  1.66533454E-15  0.00000000E+00
  2.33333333E+01  1.00000000E+01  0.00000000E+00
  2.33333333E+01  9.33333333E+00  0.00000000E+00
  2.33333333E+01  8.66666667E+00  0.00000000E+00
  2.33333333E+01  8.00000000E+00  0.00000000E+00
  2.33333333E+01  7.33333333E+00  0.00000000E+00
  2.33333333E+01  6.66666667E+00  0.00000000E+00
  2.33333333E+01  6.00000000E+00  0.00000000E+00
  2.33333333E+01  5.33333333E+00  0.00000000E+00
  2.33333333E+01  4.66666667E+00  0.00000000E+00
  2.33333333E+01  4.00000000E+00  0.00000000E+00
  2.33333333E+01  3.33333333E+00  0.00000000E+00
  2.33333333E+01  2.66666667E+00  0.00000000E+00
  2.33333333E+01  2.00000000E+00  0.00000000E+00
  2.33333333E+01  1.33333333E+00  0.00000000E+00
  2.33333333E+01  6.66666667E-01  0.00000000E+00
  2.33333333E+01  1.66533454E-15  0.00000000E+00
  2.44444444E+01  1.00000000E+01  0.00000000E+00
  2.44444444E+01  9.33333333E+00  0.00000000E+00
  2.44444444E+01  8.66666667E+00  0.00000000E+00
  2.44444444E+01  8.00000000E+00  0.00000000E+00
  2.44444444E+01  7.33333333E+00  0.00000000E+00
  2.44444444E+01  6.66666667E+00  0.00000000E+00
  2.44444444E+01  6.00000000E+00  0.00000000E+00
  2.44444444E+01  5.33333333E+00  0.00000000E+00
  2.44444444E+01  4.66666667E+00  0.00000000E+00
  2.44444444E+01  4.00000000E+00  0.00000000E+00
  2.44444444E+01  3.33333333E+00  0.00000000E+00
  2.44444444E+01  2.66666667E+00  0.00000000E+00
  2.44444444E+01  2.00000000E+00  0.00000000E+00
  2.44444444E+01  1.33333333E+00  0.00000000E+00
  2.44444444E+01  6.66666667E-01  0.00000000E+00
  2.44444444E+01  1.66533454E-15  0.00000000E+00
  2.55555556E+01  1.00000000E+01  0.00000000E+00
  2.55555556E+01  9.33333333E+00  0.00000000E+00
  2.55555556E+01  8.66666667E+00  0.00000000E+00
  2.55555556E+01  8.00000000E+00  0.00000000E+00
  2.55555556E+01  7.33333333E+00  0.00000000E+00
  2.55555556E+01  6.66666667E+00  0.00000000E+00
  2.55555556E+01  6.00000000E+00  0.00000000E+00
  2.55555556E+01  5.33333333E+00  0.00000000E+00
  2.55555556E+01  4.66666667E+00  0.00000000E+00
  2.55555556E+01  4.00000000E+00  0.00000000E+00
  2.55555556E+01  3.33333333E+00  0.00000000E+00
  2.55555556E+01  2.66666667E+00  0.00000000E+00
  2.55555556E+01  2.00000000E+00  0.00000000E+00
  2.55555556E+01  1.33333333E+00  0.00000000E+00
  2.55555556E+01  6.66666667E-01  0.00000000E+00
  2.55555556E+01  1.66533454E-15  0.00000000E+00
  2.66666667E+01  1.00000000E+01  0.00000000E+00
  2.66666667E+01  9.33333333E+00  0.00000000E+00
  2.66666667E+01  8.66666667E+00  0.00000000E+00
  2.66666667E+01  8.00000000E+00  0.00000000E+00
  2.66666667E+01  7.33333333E+00  0.00000000E+00
  2.66666667E+01  6.66666667E+00  0.00000000E+00
  2.66666667E+01  6.00000000E+00  0.00000000E+00
  2.66666667E+01  5.33333333E+00  0.00000000E+00
  2.66666667E+01  4.66666667E+00  0.00000000E+00
  2.66666667E+01  4.00000000E+00  0.00000000E+00
  2.66666667E+01  3.33333333E+00  0.00000000E+00
  2.66666667E+01  2.66666667E+00  0.00000000E+00
  2.66666667E+01  2.00000000E+00  0.00000000E+00
  2.66666667E+01  1.33333333E+00  0.00000000E+00
  2.66666667E+01  6.66666667E-01  0.00000000E+00
  2.66666667E+01  1.66533454E-15  0.00000000E+00
  2.77777778E+01  1.00000000E+01  0.00000000E+00
  2.77777778E+01  9.33333333E+00  0.00000000E+00
  2.77777778E+01  8.66666667E+00  0.00000000E+00
  2.77777778E+01  8.00000000E+00  0.00000000E+00
  2.77777778E+01  7.33333333E+00  0.00000000E+00
  2.77777778E+01  6.66666667E+00  0.00000000E+00
  2.77777778E+01  6.00000000E+00  0.00000000E+00
  2.77777778E+01  5.33333333E+00  0.00000000E+00
  2.77777778E+01  4.66666667E+00  0.00000000E+00
  2.77777778E+01  4.00000000E+00  0.00000000E+00
  2.77777778E+01  3.33333333E+00  0.00000000E+00
  2.77777778E+01  2.66666667E+00  0.00000000E+00
  2.77777778E+01  2.00000000E+00  0.00000000E+00
  2.77777778E+01  1.33333333E+00  0.00000000E+00
  2.77777778E+01  6.66666667E-01  0.00000000E+00
  2.77777778E+01  1.66533454E-15  0.00000000E+00
  2.88888889E+01  1.00000000E+01  0.00000000E+00
  2.88888889E+01  9.33333333E+00  0.00000000E+00
  2.88888889E+01  8.66666667E+00  0.00000000E+00
  2.88888889E+01  8.00000000E+00  0.00000000E+00
  2.88888889E+01  7.33333333E+00  0.00000000E+00
  2.88888889E+01  6.66666667E+00  0.00000000E+00
  2.88888889E+01  6.00000000E+00  0.00000000E+00
  2.88888889E+01  5.33333333E+00  0.00000000E+00
  2.88888889E+01  4.66666667E+00  0.00000000E+00
  2.88888889E+01  4.00000000E+00  0.00000000E+00
  2.88888889E+01  3.33333333E+00  0.00000000E+00
  2.88888889E+01  2.66666667E+00  0.00000000E+00
  2.88888889E+01  2.00000000E+00  0.00000000E+00
  2.88888889E+01  1.33333333E+00  0.00000000E+00
  2.88888889E+01  6.66666667E-01  0.00000000E+00
  2.88888889E+01  1.66533454E-15  0.00000000E+00
  3.00000000E+01  1.00000000E+01  0.00000000E+00
  3.00000000E+01  9.33333333E+00  0.00000000E+00
  3.00000000E+01  8.66666667E+00  0.00000000E+00
  3.00000000E+01  8.00000000E+00  0.00000000E+00
  3.00000000E+01  7.33333333E+00  0.00000000E+00
  3.00000000E+01  6.66666667E+00  0.00000000E+00
  3.00000000E+01  6.00000000E+00  0.00000000E+00
  3.00000000E+01  5.33333333E+00  0.00000000E+00
  3.00000000E+01  4.66666667E+00  0.00000000E+00
  3.00000000E+01  4.00000000E+00  0.00000000E+00
  3.00000000E+01  3.33333333E+00  0.00000000E+00
  3.00000000E+01  2.66666667E+00  0.00000000E+00
  3.00000000E+01  2.00000000E+00  0.00000000E+00
  3.00000000E+01  1.33333333E+00  0.00000000E+00
  3.00000000E+01  6.66666667E-01  0.00000000E+00
  3.00000000E+01  1.66533454E-15  0.00000000E+00
  3.11111111E+01  1.00000000E+01  0.00000000E+00
  3.11111111E+01  9.33333333E+00  0.00000000E+00
  3.11111111E+01  8.66666667E+00  0.00000000E+00
  3.11111111E+01  8.00000000E+00  0.00000000E+00
  3.11111111E+01  7.33333333E+00  0.00000000E+00
  3.11111111E+01  6.66666667E+00  0.00000000E+00
  3.11111111E+01  6.00000000E+00  0.00000000E+00
  3.11111111E+01  5.33333333E+00  0.00000000E+00
  3.11111111E+01  4.66666667E+00  0.00000000E+00
  3.11111111E+01  4.00000000E+00  0.00000000E+00
  3.11111111E+01  3.33333333E+00  0.00000000E+00
  3.11111111E+01  2.66666667E+00  0.00000000E+00
  3.11111111E+01  2.00000000E+00  0.00000000E+00
  3.11111111E+01  1.33333333E+00  0.00000000E+00
  3.11111111E+01  6.66666667E-01  0.00000000E+00
  3.11111111E+01  1.66533454E-15  0.00000000E+00
  3.22222222E+01  1.00000000E+01  0.00000000E+00
  3.22222222E+01  9.33333333E+00  0.00000000E+00
  3.22222222E+01  8.66666667E+00  0.00000000E+00
  3.22222222E+01  8.00000000E+00  0.00000000E+00
  3.22222222E+01  7.33333333E+00  0.00000000E+00
  3.22222222E+01  6.66666667E+00  0.00000000E+00
  3.22222222E+01  6.00000000E+00  0.00000000E+00
  3.22222222E+01  5.33333333E+00  0.00000000E+00
  3.22222222E+01  4.66666667E+00  0.00000000E+00
  3.22222222E+01  4.00000000E+00  0.00000000E+00
  3.22222222E+01  3.33333333E+00  0.00000000E+00
  3.22222222E+01  2.66666667E+00  0.00000000E+00
  3.22222222E+01  2.00000000E+00  0.00000000E+00
  3.22222222E+01  1.33333333E+00  0.00000000E+00
  3.22222222E+01  6.66666667E-01  0.00000000E+00
  3.22222222E+01  1.66533454E-15  0.00000000E+00
  3.33333333E+01  1.00000000E+01  0.00000000E+00
  3.33333333E+01  9.33333333E+00  0.00000000E+00
  3.33333333E+01  8.66666667E+00  0.00000000E+00
  3.33333333E+01  8.00000000E+00  0.00000000E+00
  3.33333333E+01  7.33333333E+00  0.00000000E+00
  3.33333333E+01  6.66666667E+00  0.00000000E+00
  3.33333333E+01  6.00000000E+00  0.00000000E+00
  3.33333333E+01  5.33333333E+00  0.00000000E+00
  3.33333333E+01  4.66666667E+00  0.00000000E+00
  3.33333333E+01  4.00000000E+00  0.00000000E+00
  3.33333333E+01  3.33333333E+00  0.00000000E+00
  3.33333333E+01  2.66666667E+00  0.00000000E+00
  3.33333333E+01  2.00000000E+00  0.00000000E+00
  3.33333333E+01  1.33333333E+00  0.00000000E+00
  3.33333333E+01  6.66666667E-01  0.00000000E+00
  3.33333333E+01  1.66533454E-15  0.00000000E+00
  3.44444444E+01  1.00000000E+01  0.00000000E+00
  3.44444444E+01  9.33333333E+00  0.00000000E+00
  3.44444444E+01  8.66666667E+00  0.00000000E+00
  3.44444444E+01  8.00000000E+00  0.00000000E+00
  3.44444444E+01  7.33333333E+00  0.00000000E+00
  3.44444444E+01  6.66666667E+00  0.00000000E+00
  3.44444444E+01  6.00000000E+00  0.00000000E+00
  3.44444444E+01  5.33333333E+00  0.00000000E+00
  3.44444444E+01  4.66666667E+00  0.00000000E+00
  3.44444444E+01  4.00000000E+00  0.00000000E+00
  3.44444444E+01  3.33333333E+00  0.00000000E+00
  3.44444444E+01  2.66666667E+00  0.00000000E+00
  3.44444444E+01  2.00000000E+00  0.00000000E+00
  3.44444444E+01  1.33333333E+00  0.00000000E+00
  3.44444444E+01  6.66666667E-01  0.00000000E+00
  3.44444444E+01  1.66533454E-15  0.00000000E+00
  3.55555556E+01  1.00000000E+01  0.00000000E+00
  3.55555556E+01  9.33333333E+00  0.00000000E+00
  3.55555556E+01  8.66666667E+00  0.00000000E+00
  3.55555556E+01  8.00000000E+00  0.00000000E+00
  3.55555556E+01  7.33333333E+00  0.00000000E+00
  3.55555556E+01  6.66666667E+00  0.00000000E+00
  3.55555556E+01  6.00000000E+00  0.00000000E+00
  3.55555556E+01  5.33333333E+00  0.00000000E+00
  3.55555556E+01  4.66666667E+00  0.00000000E+00
  3.55555556E+01  4.00000000E+00  0.00000000E+00
  3.55555556E+01  3.33333333E+00  0.00000000E+00
  3.55555556E+01  2.66666667E+00  0.00000000E+00
  3.55555556E+01  2.00000000E+00  0.00000000E+00
  3.55555556E+01  1.33333333E+00  0.00000000E+00
  3.55555556E+01  6.66666667E-01  0.00000000E+00
  3.55555556E+01  1.66533454E-15  0.00000000E+00
  3.66666667E+01  1.00000000E+01  0.00000000E+00
  3.66666667E+01  9.33333333E+00  0.00000000E+00
  3.66666667E+01  8.66666667E+00  0.00000000E+00
  3.66666667E+01  8.00000000E+00  0.00000000E+00
  3.66666667E+01  7.33333333E+00  0.00000000E+00
  3.66666667E+01  6.66666667E+00  0.00000000E+00
  3.66666667E+01  6.00000000E+00  0.00000000E+00
  3.66666667E+01  5.33333333E+00  0.00000000E+00
  3.66666667E+01  4.66666667E+00  0.00000000E+00
  3.66666667E+01  4.00000000E+00  0.00000000E+00
  3.66666667E+01  3.33333333E+00  0.00000000E+00
  3.66666667E+01  2.66666667E+00  0.00000000E+00
  3.66666667E+01  2.00000000E+00  0.00000000E+00
  3.66666667E+01  1.33333333E+00  0.00000000E+00
  3.66666667E+01  6.66666667E-01  0.00000000E+00
  3.66666667E+01  1.66533454E-15  0.00000000E+00
  3.77777778E+01  1.00000000E+01  0.00000000E+00
  3.77777778E+01  9.33333333E+00  0.00000000E+00
  3.77777778E+01  8.66666667E+00  0.00000000E+00
  3.77777778E+01  8.00000000E+00  0.00000000E+00
  3.77777778E+01  7.33333333E+00  0.00000000E+00
  3.77777778E+01  6.66666667E+00  0.00000000E+00
  3.77777778E+01  6.00000000E+00  0.00000000E+00
  3.77777778E+01  5.33333333E+00  0.00000000E+00
  3.77777778E+01  4.66666667E+00  0.00000000E+00
  3.77777778E+01  4.00000000E+00  0.00000000E+00
  3.77777778E+01  3.33333333E+00  0.00000000E+00
  3.77777778E+01  2.66666667E+00  0.00000000E+00
  3.77777778E+01  2.00000000E+00  0.00000000E+00
  3.77777778E+01  1.33333333E+00  0.00000000E+00
  3.77777778E+01  6.66666667E-01  0.00000000E+00
  3.77777778E+01  1.66533454E-15  0.00000000E+00
  3.88888889E+01  1.00000000E+01  0.00000000E+00
  3.88888889E+01  9.33333333E+00  0.00000000E+00
  3.88888889E+01  8.66666667E+00  0.00000000E+00
  3.88888889E+01  8.00000000E+00  0.00000000E+00
  3.88888889E+01  7.33333333E+00  0.00000000E+00
  3.88888889E+01  6.66666667E+00  0.00000000E+00
  3.88888889E+01  6.00000000E+00  0.00000000E+00
  3.88888889E+01  5.33333333E+00  0.00000000E+00
  3.88888889E+01  4.66666667E+00  0.00000000E+00
  3.88888889E+01  4.00000000E+00  0.00000000E+00
  3.88888889E+01  3.33333333E+00  0.00000000E+00
  3.88888889E+01  2.66666667E+00  0.00000000E+00
  3.88888889E+01  2.00000000E+00  0.00000000E+00
  3.88888889E+01  1.33333333E+00  0.00000000E+00
  3.88888889E+01  6.66666667E-01  0.00000000E+00
  3.88888889E+01  1.66533454E-15  0.00000000E+00
  4.00000000E+01  1.00000000E+01  0.00000000E+00
  4.00000000E+01  9.33333333E+00  0.00000000E+00
  4.00000000E+01  8.66666667E+00  0.00000000E+00
  4.00000000E+01  8.00000000E+00  0.00000000E+00
  4.00000000E+01  7.33333333E+00  0.00000000E+00
  4.00000000E+01  6.66666667E+00  0.00000000E+00
  4.00000000E+01  6.00000000E+00  0.00000000E+00
  4.00000000E+01  5.33333333E+00  0.00000000E+00
  4.00000000E+01  4.66666667E+00  0.00000000E+00
  4.00000000E+01  4.00000000E+00  0.00000000E+00
  4.00000000E+01  3.33333333E+00  0.00000000E+00
  4.00000000E+01  2.66666667E+00  0.00000000E+00
  4.00000000E+01  2.00000000E+00  0.00000000E+00
  4.00000000E+01  1.33333333E+00  0.00000000E+00
  4.00000000E+01  6.66666667E-01  0.00000000E+00
  4.00000000E+01  1.66533454E-15  0.00000000E+00
  4.11111111E+01  1.00000000E+01  0.00000000E+00
  4.11111111E+01  9.33333333E+00  0.00000000E+00
  4.11111111E+01  8.66666667E+00  0.00000000E+00
  4.11111111E+01  8.00000000E+00  0.00000000E+00
  4.11111111E+01  7.33333333E+00  0.00000000E+00
  4.11111111E+01  6.66666667E+00  0.00000000E+00
  4.11111111E+01  6.00000000E+00  0.00000000E+00
  4.11111111E+01  5.33333333E+00  0.00000000E+00
  4.11111111E+01  4.66666667E+00  0.00000000E+00
  4.11111111E+01  4.00000000E+00  0.00000000E+00
  4.11111111E+01  3.33333333E+00  0.00000000E+00
  4.11111111E+01  2.66666667E+00  0.00000000E+00
  4.11111111E+01  2.00000000E+00  0.00000000E+00
  4.11111111E+01  1.33333333E+00  0.00000000E+00
  4.11111111E+01  6.66666667E-01  0.00000000E+00
  4.11111111E+01  1.66533454E-15  0.00000000E+00
  4.22222222E+01  1.00000000E+01  0.00000000E+00
  4.22222222E+01  9.33333333E+00  0.00000000E+00
  4.22222222E+01  8.66666667E+00  0.00000000E+00
  4.22222222E+01  8.00000000E+00  0.00000000E+00
  4.22222222E+01  7.33333333E+00  0.00000000E+00
  4.22222222E+01  6.66666667E+00  0.00000000E+00
  4.22222222E+01  6.00000000E+00  0.00000000E+00
  4.22222222E+01  5.33333333E+00  0.00000000E+00
  4.22222222E+01  4.66666667E+00  0.00000000E+00
  4.22222222E+01  4.00000000E+00  0.00000000E+00
  4.22222222E+01  3.33333333E+00  0.00000000E+00
  4.22222222E+01  2.66666667E+00  0.00000000E+00
  4.22222222E+01  2.00000000E+00  0.00000000E+00
  4.22222222E+01  1.33333333E+00  0.00000000E+00
  4.22222222E+01  6.66666667E-01  0.00000000E+00
  4.22222222E+01  1.66533454E-15  0.00000000E+00
  4.33333333E+01  1.00000000E+01  0.00000000E+00
  4.33333333E+01  9.33333333E+00  0.00000000E+00
  4.33333333E+01  8.66666667E+00  0.00000000E+00
  4.33333333E+01  8.00000000E+00  0.00000000E+00
  4.33333333E+01  7.33333333E+00  0.00000000E+00
  4.33333333E+01  6.66666667E+00  0.00000000E+00
  4.33333333E+01  6.00000000E+00  0.00000000E+00
  4.33333333E+01  5.33333333E+00  0.00000000E+00
  4.33333333E+01  4.66666667E+00  0.00000000E+00
  4.33333333E+01  4.00000000E+00  0.00000000E+00
  4.33333333E+01  3.33333333E+00  0.00000000E+00
  4.33333333E+01  2.66666667E+00  0.00000000E+00
  4.33333333E+01  2.00000000E+00  0.00000000E+00
  4.33333333E+01  1.33333333E+00  0.00000000E+00
  4.33333333E+01  6.66666667E-01  0.00000000E+00
  4.33333333E+01  1.66533454E-15  0.00000000E+00
  4.44444444E+01  1.00000000E+01  0.00000000E+00
  4.44444444E+01  9.33333333E+00  0.00000000E+00
  4.44444444E+01  8.66666667E+00  0.00000000E+00
  4.44444444E+01  8.00000000E+00  0.00000000E+00
  4.44444444E+01  7.33333333E+00  0.00000000E+00
  4.44444444E+01  6.66666667E+00  0.00000000E+00
  4.44444444E+01  6.00000000E+00  0.00000000E+00
  4.44444444E+01  5.33333333E+00  0.00000000E+00
  4.44444444E+01  4.66666667E+00  0.00000000E+00
  4.44444444E+01  4.00000000E+00  0.00000000E+00
  4.44444444E+01  3.33333333E+00  0.00000000E+00
  4.44444444E+01  2.66666667E+00  0.00000000E+00
  4.44444444E+01  2.00000000E+00  0.00000000E+00
  4.44444444E+01  1.33333333E+00  0.00000000E+00
  4.44444444E+01  6.66666667E-01  0.00000000E+00
  4.44444444E+01  1.66533454E-15  0.00000000E+00
  4.55555556E+01  1.00000000E+01  0.00000000E+00
  4.55555556E+01  9.33333333E+00  0.00000000E+00
  4.55555556E+01  8.66666667E+00  0.00000000E+00
  4.55555556E+01  8.00000000E+00  0.00000000E+00
  4.55555556E+01  7.33333333E+00  0.00000000E+00
  4.55555556E+01  6.66666667E+00  0.00000000E+00
  4.55555556E+01  6.00000000E+00  0.00000000E+00
  4.55555556E+01  5.33333333E+00  0.00000000E+00
  4.55555556E+01  4.66666667E+00  0.00000000E+00
  4.55555556E+01  4.00000000E+00  0.00000000E+00
  4.55555556E+01  3.33333333E+00  0.00000000E+00
  4.55555556E+01  2.66666667E+00  0.00000000E+00
  4.55555556E+01  2.00000000E+00  0.00000000E+00
  4.55555556E+01  1.33333333E+00  0.00000000E+00
  4.55555556E+01  6.66666667E-01  0.00000000E+00
  4.55555556E+01  1.66533454E-15  0.00000000E+00
  4.66666667E+01  1.00000000E+01  0.00000000E+00
  4.66666667E+01  9.33333333E+00  0.00000000E+00
  4.66666667E+01  8.66666667E+00  0.00000000E+00
  4.66666667E+01  8.00000000E+00  0.00000000E+00
  4.66666667E+01  7.33333333E+00  0.00000000E+00
  4.66666667E+01  6.66666667E+00  0.00000000E+00
  4.66666667E+01  6.00000000E+00  0.00000000E+00
  4.66666667E+01  5.33333333E+00  0.00000000E+00
  4.66666667E+01  4.66666667E+00  0.00000000E+00
  4.66666667E+01  4.00000000E+00  0.00000000E+00
  4.66666667E+01  3.33333333E+00  0.00000000E+00
  4.66666667E+01  2.66666667E+00  0.00000000E+00
  4.66666667E+01  2.00000000E+00  0.00000000E+00
  4.66666667E+01  1.33333333E+00  0.00000000E+00
  4.66666667E+01  6.66666667E-01  0.00000000E+00
  4.66666667E+01  1.66533454E-15  0.00000000E+00
  4.77777778E+01  1.00000000E+01  0.00000000E+00
  4.77777778E+01  9.33333333E+00  0.00000000E+00
  4.77777778E+01  8.66666667E+00  0.00000000E+00
  4.77777778E+01  8.00000000E+00  0.00000000E+00
  4.77777778E+01  7.33333333E+00  0.00000000E+00
  4.77777778E+01  6.66666667E+00  0.00000000E+00
  4.77777778E+01  6.00000000E+00  0.00000000E+00
  4.77777778E+01  5.33333333E+00  0.00000000E+00
  4.77777778E+01  4.66666667E+00  0.00000000E+00
  4.77777778E+01  4.00000000E+00  0.00000000E+00
  4.77777778E+01  3.33333333E+00  0.00000000E+00
  4.77777778E+01  2.66666667E+00  0.00000000E+00
  4.77777778E+01  2.00000000E+00  0.00000000E+00
  4.77777778E+01  1.33333333E+00  0.00000000E+00
  4.77777778E+01  6.66666667E-01  0.00000000E+00
  4.77777778E+01  1.66533454E-15  0.00000000E+00
  4.88888889E+01  1.00000000E+01  0.00000000E+00
  4.88888889E+01  9.33333333E+00  0.00000000E+00
  4.88888889E+01  8.66666667E+00  0.00000000E+00
  4.88888889E+01  8.00000000E+00  0.00000000E+00
  4.88888889E+01  7.33333333E+00  0.00000000E+00
  4.88888889E+01  6.66666667E+00  0.00000000E+00
  4.88888889E+01  6.00000000E+00  0.00000000E+00
  4.88888889E+01  5.33333333E+00  0.00000000E+00
  4.88888889E+01  4.66666667E+00  0.00000000E+00
  4.88888889E+01  4.00000000E+00  0.00000000E+00
  4.88888889E+01  3.33333333E+00  0.00000000E+00
  4.88888889E+01  2.66666667E+00  0.00000000E+00
  4.88888889E+01  2.00000000E+00  0.00000000E+00
  4.88888889E+01  1.33333333E+00  0.00000000E+00
  4.88888889E+01  6.66666667E-01  0.00000000E+00
  4.88888889E+01  1.66533454E-15  0.00000000E+00
  5.00000000E+01  1.00000000E+01  0.00000000E+00
  5.00000000E+01  9.33333333E+00  0.00000000E+00
  5.00000000E+01  8.66666667E+00  0.00000000E+00
  5.00000000E+01  8.00000000E+00  0.00000000E+00
  5.00000000E+01  7.33333333E+00  0.00000000E+00
  5.00000000E+01  6.66666667E+00  0.00000000E+00
  5.00000000E+01  6.00000000E+00  0.00000000E+00
  5.00000000E+01  5.33333333E+00  0.00000000E+00
  5.00000000E+01  4.66666667E+00  0.00000000E+00
  5.00000000E+01  4.00000000E+00  0.00000000E+00
  5.00000000E+01  3.33333333E+00  0.00000000E+00
  5.00000000E+01  2.66666667E+00  0.00000000E+00
  5.00000000E+01  2.00000000E+00  0.00000000E+00
  5.00000000E+01  1.33333333E+00  0.00000000E+00
  5.00000000E+01  6.66666667E-01  0.00000000E+00
  5.00000000E+01  1.66533454E-15  0.00000000E+00
  5.11111111E+01  1.00000000E+01  0.00000000E+00
  5.11111111E+01  9.33333333E+00  0.00000000E+00
  5.11111111E+01  8.66666667E+00  0.00000000E+00
  5.11111111E+01  8.00000000E+00  0.00000000E+00
  5.11111111E+01  7.33333333E+00  0.00000000E+00
  5.11111111E+01  6.66666667E+00  0.00000000E+00
  5.11111111E+01  6.00000000E+00  0.00000000E+00
  5.11111111E+01  5.33333333E+00  0.00000000E+00
  5.11111111E+01  4.66666667E+00  0.00000000E+00
  5.11111111E+01  4.00000000E+00  0.00000000E+00
  5.11111111E+01  3.33333333E+00  0.00000000E+00
  5.11111111E+01  2.66666667E+00  0.00000000E+00
  5.11111111E+01  2.00000000E+00  0.00000000E+00
  5.11111111E+01  1.33333333E+00  0.00000000E+00
  5.11111111E+01  6.66666667E-01  0.00000000E+00
  5.11111111E+01  1.66533454E-15  0.00000000E+00
  5.22222222E+01  1.00000000E+01  0.00000000E+00
  5.22222222E+01  9.33333333E+00  0.00000000E+00
  5.22222222E+01  8.66666667E+00  0.00000000E+00
  5.22222222E+01  8.00000000E+00  0.00000000E+00
  5.22222222E+01  7.33333333E+00  0.00000000E+00
  5.22222222E+01  6.66666667E+00  0.00000000E+00
  5.22222222E+01  6.00000000E+00  0.00000000E+00
  5.22222222E+01  5.33333333E+00  0.00000000E+00
  5.22222222E+01  4.66666667E+00  0.00000000E+00
  5.22222222E+01  4.00000000E+00  0.00000000E+00
  5.22222222E+01  3.33333333E+00  0.00000000E+00
  5.22222222E+01  2.66666667E+00  0.00000000E+00
  5.22222222E+01  2.00000000E+00  0.00000000E+00
  5.22222222E+01  1.33333333E+00  0.00000000E+00
  5.22222222E+01  6.66666667E-01  0.00000000E+00
  5.22222222E+01  1.66533454E-15  0.00000000E+00
  5.33333333E+01  1.00000000E+01  0.00000000E+00
  5.33333333E+01  9.33333333E+00  0.00000000E+00
  5.33333333E+01  8.66666667E+00  0.00000000E+00
  5.33333333E+01  8.00000000E+00  0.00000000E+00
  5.33333333E+01  7.33333333E+00  0.00000000E+00
  5.33333333E+01  6.66666667E+00  0.00000000E+00
  5.33333333E+01  6.00000000E+00  0.00000000E+00
  5.33333333E+01  5.33333333E+00  0.00000000E+00
  5.33333333E+01  4.66666667E+00  0.00000000E+00
  5.33333333E+01  4.00000000E+00  0.00000000E+00
  5.33333333E+01  3.33333333E+00  0.00000000E+00
  5.33333333E+01  2.66666667E+00  0.00000000E+00
  5.33333333E+01  2.00000000E+00  0.00000000E+00
  5.33333333E+01  1.33333333E+00  0.00000000E+00
  5.33333333E+01  6.66666667E-01  0.00000000E+00
  5.33333333E+01  1.66533454E-15  0.00000000E+00
  5.44444444E+01  1.00000000E+01  0.00000000E+00
  5.44444444E+01  9.33333333E+00  0.00000000E+00
  5.44444444E+01  8.66666667E+00  0.00000000E+00
  5.44444444E+01  8.00000000E+00  0.00000000E+00
  5.44444444E+01  7.33333333E+00  0.00000000E+00
  5.44444444E+01  6.66666667E+00  0.00000000E+00
  5.44444444E+01  6.00000000E+00  0.00000000E+00
  5.44444444E+01  5.33333333E+00  0.00000000E+00
  5.44444444E+01  4.66666667E+00  0.00000000E+00
  5.44444444E+01  4.00000000E+00  0.00000000E+00
  5.44444444E+01  3.33333333E+00  0.00000000E+00
  5.44444444E+01  2.66666667E+00  0.00000000E+00
  5.44444444E+01  2.00000000E+00  0.00000000E+00
  5.44444444E+01  1.33333333E+00  0.00000000E+00
  5.44444444E+01  6.66666667E-01  0.00000000E+00
  5.44444444E+01  1.66533454E-15  0.00000000E+00
  5.55555556E+01  1.00000000E+01  0.00000000E+00
  5.55555556E+01  9.33333333E+00  0.00000000E+00
  5.55555556E+01  8.66666667E+00  0.00000000E+00
  5.55555556E+01  8.00000000E+00  0.00000000E+00
  5.55555556E+01  7.33333333E+00  0.00000000E+00
  5.55555556E+01  6.66666667E+00  0.00000000E+00
  5.55555556E+01  6.00000000E+00  0.00000000E+00
  5.55555556E+01  5.33333333E+00  0.00000000E+00
  5.55555556E+01  4.66666667E+00  0.00000000E+00
  5.55555556E+01  4.00000000E+00  0.00000000E+00
  5.55555556E+01  3.33333333E+00  0.00000000E+00
  5.55555556E+01  2.66666667E+00  0.00000000E+00
  5.55555556E+01  2.00000000E+00  0.00000000E+00
  5.55555556E+01  1.33333333E+00  0.00000000E+00
  5.55555556E+01  6.66666667E-01  0.00000000E+00
  5.55555556E+01  1.66533454E-15  0.00000000E+00
  5.66666667E+01  1.00000000E+01  0.00000000E+00
  5.66666667E+01  9.33333333E+00  0.00000000E+00
  5.66666667E+01  8.66666667E+00  0.00000000E+00
  5.66666667E+01  8.00000000E+00  0.00000000E+00
  5.66666667E+01  7.33333333E+00  0.00000000E+00
  5.66666667E+01  6.66666667E+00  0.00000000E+00
  5.66666667E+01  6.00000000E+00  0.00000000E+00
  5.66666667E+01  5.33333333E+00  0.00000000E+00
  5.66666667E+01  4.66666667E+00  0.00000000E+00
  5.66666667E+01  4.00000000E+00  0.00000000E+00
  5.66666667E+01  3.33333333E+00  0.00000000E+00
  5.66666667E+01  2.66666667E+00  0.00000000E+00
  5.66666667E+01  2.00000000E+00  0.00000000E+00
  5.66666667E+01  1.33333333E+00  0.00000000E+00
  5.66666667E+01  6.66666667E-01  0.00000000E+00
  5.66666667E+01  1.66533454E-15  0.00000000E+00
  5.77777778E+01  1.00000000E+01  0.00000000E+00
  5.77777778E+01  9.33333333E+00  0.00000000E+00
  5.77777778E+01  8.66666667E+00  0.00000000E+00
  5.77777778E+01  8.00000000E+00  0.00000000E+00
  5.77777778E+01  7.33333333E+00  0.00000000E+00
  5.77777778E+01  6.66666667E+00  0.00000000E+00
  5.77777778E+01  6.00000000E+00  0.00000000E+00
  5.77777778E+01  5.33333333E+00  0.00000000E+00
  5.77777778E+01  4.66666667E+00  0.00000000E+00
  5.77777778E+01  4.00000000E+00  0.00000000E+00
  5.77777778E+01  3.33333333E+00  0.00000000E+00
  5.77777778E+01  2.66666667E+00  0.00000000E+00
  5.77777778E+01  2.00000000E+00  0.00000000E+00
  5.77777778E+01  1.33333333E+00  0.00000000E+00
  5.77777778E+01  6.66666667E-01  0.00000000E+00
  5.77777778E+01  1.66533454E-15  0.00000000E+00
  5.88888889E+01  1.00000000E+01  0.00000000E+00
  5.88888889E+01  9.33333333E+00  0.00000000E+00
  5.88888889E+01  8.66666667E+00  0.00000000E+00
  5.88888889E+01  8.00000000E+00  0.00000000E+00
  5.88888889E+01  7.33333333E+00  0.00000000E+00
  5.88888889E+01  6.66666667E+00  0.00000000E+00
  5.88888889E+01  6.00000000E+00  0.00000000E+00
  5.88888889E+01  5.33333333E+00  0.00000000E+00
  5.88888889E+01  4.66666667E+00  0.00000000E+00
  5.88888889E+01  4.00000000E+00  0.00000000E+00
  5.88888889E+01  3.33333333E+00  0.00000000E+00
  5.88888889E+01  2.66666667E+00  0.00000000E+00
  5.88888889E+01  2.00000000E+00  0.00000000E+00
  5.88888889E+01  1.33333333E+00  0.00000000E+00
  5.88888889E+01  6.66666667E-01  0.00000000E+00
  5.88888889E+01  1.66533454E-15  0.00000000E+00
  6.00000000E+01  1.00000000E+01  0.00000000E+00
  6.00000000E+01  9.33333333E+00  0.00000000E+00
  6.00000000E+01  8.66666667E+00  0.00000000E+00
  6.00000000E+01  8.00000000E+00  0.00000000E+00
  6.00000000E+01  7.33333333E+00  0.00000000E+00
  6.00000000E+01  6.66666667E+00  0.00000000E+00
  6.00000000E+01  6.00000000E+00  0.00000000E+00
  6.00000000E+01  5.33333333E+00  0.00000000E+00
  6.00000000E+01  4.66666667E+00  0.00000000E+00
  6.00000000E+01  4.00000000E+00  0.00000000E+00
  6.00000000E+01  3.33333333E+00  0.00000000E+00
  6.00000000E+01  2.66666667E+00  0.00000000E+00
  6.00000000E+01  2.00000000E+00  0.00000000E+00
  6.00000000E+01  1.33333333E+00  0.00000000E+00
  6.00000000E+01  6.66666667E-01  0.00000000E+00
  6.00000000E+01  1.66533454E-15  0.00000000E+00
  6.11111111E+01  1.00000000E+01  0.00000000E+00
  6.11111111E+01  9.33333333E+00  0.00000000E+00
  6.11111111E+01  8.66666667E+00  0.00000000E+00
  6.11111111E+01  8.00000000E+00  0.00000000E+00
  6.11111111E+01  7.33333333E+00  0.00000000E+00
  6.11111111E+01  6.66666667E+00  0.00000000E+00
  6.11111111E+01  6.00000000E+00  0.00000000E+00
  6.11111111E+01  5.33333333E+00  0.00000000E+00
  6.11111111E+01  4.66666667E+00  0.00000000E+00
  6.11111111E+01  4.00000000E+00  0.00000000E+00
  6.11111111E+01  3.33333333E+00  0.00000000E+00
  6.11111111E+01  2.66666667E+00  0.00000000E+00
  6.11111111E+01  2.00000000E+00  0.00000000E+00
  6.11111111E+01  1.33333333E+00  0.00000000E+00
  6.11111111E+01  6.66666667E-01  0.00000000E+00
  6.11111111E+01  1.66533454E-15  0.00000000E+00
  6.22222222E+01  1.00000000E+01  0.00000000E+00
  6.22222222E+01  9.33333333E+00  0.00000000E+00
  6.22222222E+01  8.66666667E+00  0.00000000E+00
  6.22222222E+01  8.00000000E+00  0.00000000E+00
  6.22222222E+01  7.33333333E+00  0.00000000E+00
  6.22222222E+01  6.66666667E+00  0.00000000E+00
  6.22222222E+01  6.00000000E+00  0.00000000E+00
  6.22222222E+01  5.33333333E+00  0.00000000E+00
  6.22222222E+01  4.66666667E+00  0.00000000E+00
  6.22222222E+01  4.00000000E+00  0.00000000E+00
  6.22222222E+01  3.33333333E+00  0.00000000E+00
  6.22222222E+01  2.66666667E+00  0.00000000E+00
  6.22222222E+01  2.00000000E+00  0.00000000E+00
  6.22222222E+01  1.33333333E+00  0.00000000E+00
  6.22222222E+01  6.66666667E-01  0.00000000E+00
  6.22222222E+01  1.66533454E-15  0.00000000E+00
  6.33333333E+01  1.00000000E+01  0.00000000E+00
  6.33333333E+01  9.33333333E+00  0.00000000E+00
  6.33333333E+01  8.66666667E+00  0.00000000E+00
  6.33333333E+01  8.00000000E+00  0.00000000E+00
  6.33333333E+01  7.33333333E+00  0.00000000E+00
  6.33333333E+01  6.66666667E+00  0.00000000E+00
  6.33333333E+01  6.00000000E+00  0.00000000E+00
  6.33333333E+01  5.33333333E+00  0.00000000E+00
  6.33333333E+01  4.66666667E+00  0.00000000E+00
  6.33333333E+01  4.00000000E+00  0.00000000E+00
  6.33333333E+01  3.33333333E+00  0.00000000E+00
  6.33333333E+01  2.66666667E+00  0.00000000E+00
  6.33333333E+01  2.00000000E+00  0.00000000E+00
  6.33333333E+01  1.33333333E+00  0.00000000E+00
  6.33333333E+01  6.66666667E-01  0.00000000E+00
  6.33333333E+01  1.66533454E-15  0.00000000E+00
  6.44444444E+01  1.00000000E+01  0.00000000E+00
  6.44444444E+01  9.33333333E+00  0.00000000E+00
  6.44444444E+01  8.66666667E+00  0.00000000E+00
  6.44444444E+01  8.00000000E+00  0.00000000E+00
  6.44444444E+01  7.33333333E+00  0.00000000E+00
  6.44444444E+01  6.66666667E+00  0.00000000E+00
  6.44444444E+01  6.00000000E+00  0.00000000E+00
  6.44444444E+01  5.33333333E+00  0.00000000E+00
  6.44444444E+01  4.66666667E+00  0.00000000E+00
  6.44444444E+01  4.00000000E+00  0.00000000E+00
  6.44444444E+01  3.33333333E+00  0.00000000E+00
  6.44444444E+01  2.66666667E+00  0.00000000E+00
  6.44444444E+01  2.00000000E+00  0.00000000E+00
  6.44444444E+01  1.33333333E+00  0.00000000E+00
  6.44444444E+01  6.66666667E-01  0.00000000E+00
  6.44444444E+01  1.66533454E-15  0.00000000E+00
  6.55555556E+01  1.00000000E+01  0.00000000E+00
  6.55555556E+01  9.33333333E+00  0.00000000E+00
  6.55555556E+01  8.66666667E+00  0.00000000E+00
  6.55555556E+01  8.00000000E+00  0.00000000E+00
  6.55555556E+01  7.33333333E+00  0.00000000E+00
  6.55555556E+01  6.66666667E+00  0.00000000E+00
  6.55555556E+01  6.00000000E+00  0.00000000E+00
  6.55555556E+01  5.33333333E+00  0.00000000E+00
  6.55555556E+01  4.66666667E+00  0.00000000E+00
  6.55555556E+01  4.00000000E+00  0.00000000E+00
  6.55555556E+01  3.33333333E+00  0.00000000E+00
  6.55555556E+01  2.66666667E+00  0.00000000E+00
  6.55555556E+01  2.00000000E+00  0.00000000E+00
  6.55555556E+01  1.33333333E+00  0.00000000E+00
  6.55555556E+01  6.66666667E-01  0.00000000E+00
  6.55555556E+01  1.66533454E-15  0.00000000E+00
  6.66666667E+01  1.00000000E+01  0.00000000E+00
  6.66666667E+01  9.33333333E+00  0.00000000E+00
  6.66666667E+01  8.66666667E+00  0.00000000E+00
  6.66666667E+01  8.00000000E+00  0.00000000E+00
  6.66666667E+01  7.33333333E+00  0.00000000E+00
  6.66666667E+01  6.66666667E+00  0.00000000E+00
  6.66666667E+01  6.00000000E+00  0.00000000E+00
  6.66666667E+01  5.33333333E+00  0.00000000E+00
  6.66666667E+01  4.66666667E+00  0.00000000E+00
  6.66666667E+01  4.00000000E+00  0.00000000E+00
  6.66666667E+01  3.33333333E+00  0.00000000E+00
  6.66666667E+01  2.66666667E+00  0.00000000E+00
  6.66666667E+01  2.00000000E+00  0.00000000E+00
  6.66666667E+01  1.33333333E+00  0.00000000E+00
  6.66666667E+01  6.66666667E-01  0.00000000E+00
  6.66666667E+01  1.66533454E-15  0.00000000E+00
  6.77777778E+01  1.00000000E+01  0.00000000E+00
  6.77777778E+01  9.33333333E+00  0.00000000E+00
  6.77777778E+01  8.66666667E+00  0.00000000E+00
  6.77777778E+01  8.00000000E+00  0.00000000E+00
  6.77777778E+01  7.33333333E+00  0.00000000E+00
  6.77777778E+01  6.66666667E+00  0.00000000E+00
  6.77777778E+01  6.00000000E+00  0.00000000E+00
  6.77777778E+01  5.33333333E+00  0.00000000E+00
  6.77777778E+01  4.66666667E+00  0.00000000E+00
  6.77777778E+01  4.00000000E+00  0.00000000E+00
  6.77777778E+01  3.33333333E+00  0.00000000E+00
  6.77777778E+01  2.66666667E+00  0.00000000E+00
  6.77777778E+01  2.00000000E+00  0.00000000E+00
  6.77777778E+01  1.33333333E+00  0.00000000E+00
  6.77777778E+01  6.66666667E-01  0.00000000E+00
  6.77777778E+01  1.66533454E-15  0.00000000E+00
  6.88888889E+01  1.00000000E+01  0.00000000E+00
  6.88888889E+01  9.33333333E+00  0.00000000E+00
  6.88888889E+01  8.66666667E+00  0.00000000E+00
  6.88888889E+01  8.00000000E+00  0.00000000E+00
  6.88888889E+01  7.33333333E+00  0.00000000E+00
  6.88888889E+01  6.66666667E+00  0.00000000E+00
  6.88888889E+01  6.00000000E+00  0.00000000E+00
  6.88888889E+01  5.33333333E+00  0.00000000E+00
  6.88888889E+01  4.66666667E+00  0.00000000E+00
  6.88888889E+01  4.00000000E+00  0.00000000E+00
  6.88888889E+01  3.33333333E+00  0.00000000E+00
  6.88888889E+01  2.66666667E+00  0.00000000E+00
  6.88888889E+01  2.00000000E+00  0.00000000E+00
  6.88888889E+01  1.33333333E+00  0.00000000E+00
  6.88888889E+01  6.66666667E-01  0.00000000E+00
  6.88888889E+01  1.66533454E-15  0.00000000E+00
  7.00000000E+01  1.00000000E+01  0.00000000E+00
  7.00000000E+01  9.33333333E+00  0.00000000E+00
  7.00000000E+01  8.66666667E+00  0.00000000E+00
  7.00000000E+01  8.00000000E+00  0.00000000E+00
  7.00000000E+01  7.33333333E+00  0.00000000E+00
  7.00000000E+01  6.66666667E+00  0.00000000E+00
  7.00000000E+01  6.00000000E+00  0.00000000E+00
  7.00000000E+01  5.33333333E+00  0.00000000E+00
  7.00000000E+01  4.66666667E+00  0.00000000E+00
  7.00000000E+01  4.00000000E+00  0.00000000E+00
  7.00000000E+01  3.33333333E+00  0.00000000E+00
  7.00000000E+01  2.66666667E+00  0.00000000E+00
  7.00000000E+01  2.00000000E+00  0.00000000E+00
  7.00000000E+01  1.33333333E+00  0.00000000E+00
  7.00000000E+01  6.66666667E-01  0.00000000E+00
  7.00000000E+01  1.66533454E-15  0.00000000E+00
  7.11111111E+01  1.00000000E+01  0.00000000E+00
  7.11111111E+01  9.33333333E+00  0.00000000E+00
  7.11111111E+01  8.66666667E+00  0.00000000E+00
  7.11111111E+01  8.00000000E+00  0.00000000E+00
  7.11111111E+01  7.33333333E+00  0.00000000E+00
  7.11111111E+01  6.66666667E+00  0.00000000E+00
  7.11111111E+01  6.00000000E+00  0.00000000E+00
  7.11111111E+01  5.33333333E+00  0.00000000E+00
  7.11111111E+01  4.66666667E+00  0.00000000E+00
  7.11111111E+01  4.00000000E+00  0.00000000E+00
  7.11111111E+01  3.33333333E+00  0.00000000E+00
  7.11111111E+01  2.66666667E+00  0.00000000E+00
  7.11111111E+01  2.00000000E+00  0.00000000E+00
  7.11111111E+01  1.33333333E+00  0.00000000E+00
  7.11111111E+01  6.66666667E-01  0.00000000E+00
  7.11111111E+01  1.66533454E-15  0.00000000E+00
  7.22222222E+01  1.00000000E+01  0.00000000E+00
  7.22222222E+01  9.33333333E+00  0.00000000E+00
  7.22222222E+01  8.66666667E+00  0.00000000E+00
  7.22222222E+01  8.00000000E+00  0.00000000E+00
  7.22222222E+01  7.33333333E+00  0.00000000E+00
  7.22222222E+01  6.66666667E+00  0.00000000E+00
  7.22222222E+01  6.00000000E+00  0.00000000E+00
  7.22222222E+01  5.33333333E+00  0.00000000E+00
  7.22222222E+01  4.66666667E+00  0.00000000E+00
  7.22222222E+01  4.00000000E+00  0.00000000E+00
  7.22222222E+01  3.33333333E+00  0.00000000E+00
  7.22222222E+01  2.66666667E+00  0.00000000E+00
  7.22222222E+01  2.00000000E+00  0.00000000E+00
  7.22222222E+01  1.33333333E+00  0.00000000E+00
  7.22222222E+01  6.66666667E-01  0.00000000E+00
  7.22222222E+01  1.66533454E-15  0.00000000E+00
  7.33333333E+01  1.00000000E+01  0.00000000E+00
  7.33333333E+01  9.33333333E+00  0.00000000E+00
  7.33333333E+01  8.66666667E+00  0.00000000E+00
  7.33333333E+01  8.00000000E+00  0.00000000E+00
  7.33333333E+01  7.33333333E+00  0.00000000E+00
  7.33333333E+01  6.66666667E+00  0.00000000E+00
  7.33333333E+01  6.00000000E+00  0.00000000E+00
  7.33333333E+01  5.33333333E+00  0.00000000E+00
  7.33333333E+01  4.66666667E+00  0.00000000E+00
  7.33333333E+01  4.00000000E+00  0.00000000E+00
  7.33333333E+01  3.33333333E+00  0.00000000E+00
  7.33333333E+01  2.66666667E+00  0.00000000E+00
  7.33333333E+01  2.00000000E+00  0.00000000E+00
  7.33333333E+01  1.33333333E+00  0.00000000E+00
  7.33333333E+01  6.66666667E-01  0.00000000E+00
  7.33333333E+01  1.66533454E-15  0.00000000E+00
  7.44444444E+01  1.00000000E+01  0.00000000E+00
  7.44444444E+01  9.33333333E+00  0.00000000E+00
  7.44444444E+01  8.66666667E+00  0.00000000E+00
  7.44444444E+01  8.00000000E+00  0.00000000E+00
  7.44444444E+01  7.33333333E+00  0.00000000E+00
  7.44444444E+01  6.66666667E+00  0.00000000E+00
  7.44444444E+01  6.00000000E+00  0.00000000E+00
  7.44444444E+01  5.33333333E+00  0.00000000E+00
  7.44444444E+01  4.66666667E+00  0.00000000E+00
  7.44444444E+01  4.00000000E+00  0.00000000E+00
  7.44444444E+01  3.33333333E+00  0.00000000E+00
  7.44444444E+01  2.66666667E+00  0.00000000E+00
  7.44444444E+01  2.00000000E+00  0.00000000E+00
  7.44444444E+01  1.33333333E+00  0.00000000E+00
  7.44444444E+01  6.66666667E-01  0.00000000E+00
  7.44444444E+01  1.66533454E-15  0.00000000E+00
  7.55555556E+01  1.00000000E+01  0.00000000E+00
  7.55555556E+01  9.33333333E+00  0.00000000E+00
  7.55555556E+01  8.66666667E+00  0.00000000E+00
  7.55555556E+01  8.00000000E+00  0.00000000E+00
  7.55555556E+01  7.33333333E+00  0.00000000E+00
  7.55555556E+01  6.66666667E+00  0.00000000E+00
  7.55555556E+01  6.00000000E+00  0.00000000E+00
  7.55555556E+01  5.33333333E+00  0.00000000E+00
  7.55555556E+01  4.66666667E+00  0.00000000E+00
  7.55555556E+01  4.00000000E+00  0.00000000E+00
  7.55555556E+01  3.33333333E+00  0.00000000E+00
  7.55555556E+01  2.66666667E+00  0.00000000E+00
  7.55555556E+01  2.00000000E+00  0.00000000E+00
  7.55555556E+01  1.33333333E+00  0.00000000E+00
  7.55555556E+01  6.66666667E-01  0.00000000E+00
  7.55555556E+01  1.66533454E-15  0.00000000E+00
  7.66666667E+01  1.00000000E+01  0.00000000E+00
  7.66666667E+01  9.33333333E+00  0.00000000E+00
  7.66666667E+01  8.66666667E+00  0.00000000E+00
  7.66666667E+01  8.00000000E+00  0.00000000E+00
  7.66666667E+01  7.33333333E+00  0.00000000E+00
  7.66666667E+01  6.66666667E+00  0.00000000E+00
  7.66666667E+01  6.00000000E+00  0.00000000E+00
  7.66666667E+01  5.33333333E+00  0.00000000E+00
  7.66666667E+01  4.66666667E+00  0.00000000E+00
  7.66666667E+01  4.00000000E+00  0.00000000E+00
  7.66666667E+01  3.33333333E+00  0.00000000E+00
  7.66666667E+01  2.66666667E+00  0.00000000E+00
  7.66666667E+01  2.00000000E+00  0.00000000E+00
  7.66666667E+01  1.33333333E+00  0.00000000E+00
  7.66666667E+01  6.66666667E-01  0.00000000E+00
  7.66666667E+01  1.66533454E-15  0.00000000E+00
  7.77777778E+01  1.00000000E+01  0.00000000E+00
  7.77777778E+01  9.33333333E+00  0.00000000E+00
  7.77777778E+01  8.66666667E+00  0.00000000E+00
  7.77777778E+01  8.00000000E+00  0.00000000E+00
  7.77777778E+01  7.33333333E+00  0.00000000E+00
  7.77777778E+01  6.66666667E+00  0.00000000E+00
  7.77777778E+01  6.00000000E+00  0.00000000E+00
  7.77777778E+01  5.33333333E+00  0.00000000E+00
  7.77777778E+01  4.66666667E+00  0.00000000E+00
  7.77777778E+01  4.00000000E+00  0.00000000E+00
  7.77777778E+01  3.33333333E+00  0.00000000E+00
  7.77777778E+01  2.66666667E+00  0.00000000E+00
  7.77777778E+01  2.00000000E+00  0.00000000E+00
  7.77777778E+01  1.33333333E+00  0.00000000E+00
  7.77777778E+01  6.66666667E-01  0.00000000E+00
  7.77777778E+01  1.66533454E-15  0.00000000E+00
  7.88888889E+01  1.00000000E+01  0.00000000E+00
  7.88888889E+01  9.33333333E+00  0.00000000E+00
  7.88888889E+01  8.66666667E+00  0.00000000E+00
  7.88888889E+01  8.00000000E+00  0.00000000E+00
  7.88888889E+01  7.33333333E+00  0.00000000E+00
  7.88888889E+01  6.66666667E+00  0.00000000E+00
  7.88888889E+01  6.00000000E+00  0.00000000E+00
  7.88888889E+01  5.33333333E+00  0.00000000E+00
  7.88888889E+01  4.66666667E+00  0.00000000E+00
  7.88888889E+01  4.00000000E+00  0.00000000E+00
  7.88888889E+01  3.33333333E+00  0.00000000E+00
  7.88888889E+01  2.66666667E+00  0.00000000E+00
  7.88888889E+01  2.00000000E+00  0.00000000E+00
  7.88888889E+01  1.33333333E+00  0.00000000E+00
  7.88888889E+01  6.66666667E-01  0.00000000E+00
  7.88888889E+01  1.66533454E-15  0.00000000E+00
  8.00000000E+01  1.00000000E+01  0.00000000E+00
  8.00000000E+01  9.33333333E+00  0.00000000E+00
  8.00000000E+01  8.66666667E+00  0.00000000E+00
  8.00000000E+01  8.00000000E+00  0.00000000E+00
  8.00000000E+01  7.33333333E+00  0.00000000E+00
  8.00000000E+01  6.66666667E+00  0.00000000E+00
  8.00000000E+01  6.00000000E+00  0.00000000E+00
  8.00000000E+01  5.33333333E+00  0.00000000E+00
  8.00000000E+01  4.66666667E+00  0.00000000E+00
  8.00000000E+01  4.00000000E+00  0.00000000E+00
  8.00000000E+01  3.33333333E+00  0.00000000E+00
  8.00000000E+01  2.66666667E+00  0.00000000E+00
  8.00000000E+01  2.00000000E+00  0.00000000E+00
  8.00000000E+01  1.33333333E+00  0.00000000E+00
  8.00000000E+01  6.66666667E-01  0.00000000E+00
  8.00000000E+01  1.66533454E-15  0.00000000E+00
  8.11111111E+01  1.00000000E+01  0.00000000E+00
  8.11111111E+01  9.33333333E+00  0.00000000E+00
  8.11111111E+01  8.66666667E+00  0.00000000E+00
  8.11111111E+01  8.00000000E+00  0.00000000E+00
  8.11111111E+01  7.33333333E+00  0.00000000E+00
  8.11111111E+01  6.66666667E+00  0.00000000E+00
  8.11111111E+01  6.00000000E+00  0.00000000E+00
  8.11111111E+01  5.33333333E+00  0.00000000E+00
  8.11111111E+01  4.66666667E+00  0.00000000E+00
  8.11111111E+01  4.00000000E+00  0.00000000E+00
  8.11111111E+01  3.33333333E+00  0.00000000E+00
  8.11111111E+01  2.66666667E+00  0.00000000E+00
  8.11111111E+01  2.00000000E+00  0.00000000E+00
  8.11111111E+01  1.33333333E+00  0.00000000E+00
  8.11111111E+01  6.66666667E-01  0.00000000E+00
  8.11111111E+01  1.66533454E-15  0.00000000E+00
  8.22222222E+01  1.00000000E+01  0.00000000E+00
  8.22222222E+01  9.33333333E+00  0.00000000E+00
  8.22222222E+01  8.66666667E+00  0.00000000E+00
  8.22222222E+01  8.00000000E+00  0.00000000E+00
  8.22222222E+01  7.33333333E+00  0.00000000E+00
  8.22222222E+01  6.66666667E+00  0.00000000E+00
  8.22222222E+01  6.00000000E+00  0.00000000E+00
  8.22222222E+01  5.33333333E+00  0.00000000E+00
  8.22222222E+01  4.66666667E+00  0.00000000E+00
  8.22222222E+01  4.00000000E+00  0.00000000E+00
  8.22222222E+01  3.33333333E+00  0.00000000E+00
  8.22222222E+01  2.66666667E+00  0.00000000E+00
  8.22222222E+01  2.00000000E+00  0.00000000E+00
  8.22222222E+01  1.33333333E+00  0.00000000E+00
  8.22222222E+01  6.66666667E-01  0.00000000E+00
  8.22222222E+01  1.66533454E-15  0.00000000E+00
  8.33333333E+01  1.00000000E+01  0.00000000E+00
  8.33333333E+01  9.33333333E+00  0.00000000E+00
  8.33333333E+01  8.66666667E+00  0.00000000E+00
  8.33333333E+01  8.00000000E+00  0.00000000E+00
  8.33333333E+01  7.33333333E+00  0.00000000E+00
  8.33333333E+01  6.66666667E+00  0.00000000E+00
  8.33333333E+01  6.00000000E+00  0.00000000E+00
  8.33333333E+01  5.33333333E+00  0.00000000E+00
  8.33333333E+01  4.66666667E+00  0.00000000E+00
  8.33333333E+01  4.00000000E+00  0.00000000E+00
  8.33333333E+01  3.33333333E+00  0.00000000E+00
  8.33333333E+01  2.66666667E+00  0.00000000E+00
  8.33333333E+01  2.00000000E+00  0.00000000E+00
  8.33333333E+01  1.33333333E+00  0.00000000E+00
  8.33333333E+01  6.66666667E-01  0.00000000E+00
  8.33333333E+01  1.66533454E-15  0.00000000E+00
  8.44444444E+01  1.00000000E+01  0.00000000E+00
  8.44444444E+01  9.33333333E+00  0.00000000E+00
  8.44444444E+01  8.66666667E+00  0.00000000E+00
  8.44444444E+01  8.00000000E+00  0.00000000E+00
  8.44444444E+01  7.33333333E+00  0.00000000E+00
  8.44444444E+01  6.66666667E+00  0.00000000E+00
  8.44444444E+01  6.00000000E+00  0.00000000E+00
  8.44444444E+01  5.33333333E+00  0.00000000E+00
  8.44444444E+01  4.66666667E+00  0.00000000E+00
  8.44444444E+01  4.00000000E+00  0.00000000E+00
  8.44444444E+01  3.33333333E+00  0.00000000E+00
  8.44444444E+01  2.66666667E+00  0.00000000E+00
  8.44444444E+01  2.00000000E+00  0.00000000E+00
  8.44444444E+01  1.33333333E+00  0.00000000E+00
  8.44444444E+01  6.66666667E-01  0.00000000E+00
  8.44444444E+01  1.66533454E-15  0.00000000E+00
  8.55555556E+01  1.00000000E+01  0.00000000E+00
  8.55555556E+01  9.33333333E+00  0.00000000E+00
  8.55555556E+01  8.66666667E+00  0.00000000E+00
  8.55555556E+01  8.00000000E+00  0.00000000E+00
  8.55555556E+01  7.33333333E+00  0.00000000E+00
  8.55555556E+01  6.66666667E+00  0.00000000E+00
  8.55555556E+01  6.00000000E+00  0.00000000E+00
  8.55555556E+01  5.33333333E+00  0.00000000E+00
  8.55555556E+01  4.66666667E+00  0.00000000E+00
  8.55555556E+01  4.00000000E+00  0.00000000E+00
  8.55555556E+01  3.33333333E+00  0.00000000E+00
  8.55555556E+01  2.66666667E+00  0.00000000E+00
  8.55555556E+01  2.00000000E+00  0.00000000E+00
  8.55555556E+01  1.33333333E+00  0.00000000E+00
  8.55555556E+01  6.66666667E-01  0.00000000E+00
  8.55555556E+01  1.66533454E-15  0.00000000E+00
  8.66666667E+01  1.00000000E+01  0.00000000E+00
  8.66666667E+01  9.33333333E+00  0.00000000E+00
  8.66666667E+01  8.66666667E+00  0.00000000E+00
  8.66666667E+01  8.00000000E+00  0.00000000E+00
  8.66666667E+01  7.33333333E+00  0.00000000E+00
  8.66666667E+01  6.66666667E+00  0.00000000E+00
  8.66666667E+01  6.00000000E+00  0.00000000E+00
  8.66666667E+01  5.33333333E+00  0.00000000E+00
  8.66666667E+01  4.66666667E+00  0.00000000E+00
  8.66666667E+01  4.00000000E+00  0.00000000E+00
  8.66666667E+01  3.33333333E+00  0.00000000E+00
  8.66666667E+01  2.66666667E+00  0.00000000E+00
  8.66666667E+01  2.00000000E+00  0.00000000E+00
  8.66666667E+01  1.33333333E+00  0.00000000E+00
  8.66666667E+01  6.66666667E-01  0.00000000E+00
  8.66666667E+01  1.66533454E-15  0.00000000E+00
  8.77777778E+01  1.00000000E+01  0.00000000E+00
  8.77777778E+01  9.33333333E+00  0.00000000E+00
  8.77777778E+01  8.66666667E+00  0.00000000E+00
  8.77777778E+01  8.00000000E+00  0.00000000E+00
  8.77777778E+01  7.33333333E+00  0.00000000E+00
  8.77777778E+01  6.66666667E+00  0.00000000E+00
  8.77777778E+01  6.00000000E+00  0.00000000E+00
  8.77777778E+01  5.33333333E+00  0.00000000E+00
  8.77777778E+01  4.66666667E+00  0.00000000E+00
  8.77777778E+01  4.00000000E+00  0.00000000E+00
  8.77777778E+01  3.33333333E+00  0.00000000E+00
  8.77777778E+01  2.66666667E+00  0.00000000E+00
  8.77777778E+01  2.00000000E+00  0.00000000E+00
  8.77777778E+01  1.33333333E+00  0.00000000E+00
  8.77777778E+01  6.66666667E-01  0.00000000E+00
  8.77777778E+01  1.66533454E-15  0.00000000E+00
  8.88888889E+01  1.00000000E+01  0.00000000E+00
  8.88888889E+01  9.33333333E+00  0.00000000E+00
  8.88888889E+01  8.66666667E+00  0.00000000E+00
  8.88888889E+01  8.00000000E+00  0.00000000E+00
  8.88888889E+01  7.33333333E+00  0.00000000E+00
  8.88888889E+01  6.66666667E+00  0.00000000E+00
  8.88888889E+01  6.00000000E+00  0.00000000E+00
  8.88888889E+01  5.33333333E+00  0.00000000E+00
  8.88888889E+01  4.66666667E+00  0.00000000E+00
  8.88888889E+01  4.00000000E+00  0.00000000E+00
  8.88888889E+01  3.33333333E+00  0.00000000E+00
  8.88888889E+01  2.66666667E+00  0.00000000E+00
  8.88888889E+01  2.00000000E+00  0.00000000E+00
  8.88888889E+01  1.33333333E+00  0.00000000E+00
  8.88888889E+01  6.66666667E-01  0.00000000E+00
  8.88888889E+01  1.66533454E-15  0.00000000E+00
  9.00000000E+01  1.00000000E+01  0.00000000E+00
  9.00000000E+01  9.33333333E+00  0.00000000E+00
  9.00000000E+01  8.66666667E+00  0.00000000E+00
  9.00000000E+01  8.00000000E+00  0.00000000E+00
  9.00000000E+01  7.33333333E+00  0.00000000E+00
  9.00000000E+01  6.66666667E+00  0.00000000E+00
  9.00000000E+01  6.00000000E+00  0.00000000E+00
  9.00000000E+01  5.33333333E+00  0.00000000E+00
  9.00000000E+01  4.66666667E+00  0.00000000E+00
  9.00000000E+01  4.00000000E+00  0.00000000E+00
  9.00000000E+01  3.33333333E+00  0.00000000E+00
  9.00000000E+01  2.66666667E+00  0.00000000E+00
  9.00000000E+01  2.00000000E+00  0.00000000E+00
  9.00000000E+01  1.33333333E+00  0.00000000E+00
  9.00000000E+01  6.66666667E-01  0.00000000E+00
  9.00000000E+01  1.66533454E-15  0.00000000E+00
  9.11111111E+01  1.00000000E+01  0.00000000E+00
  9.11111111E+01  9.33333333E+00  0.00000000E+00
  9.11111111E+01  8.66666667E+00  0.00000000E+00
  9.11111111E+01  8.00000000E+00  0.00000000E+00
  9.11111111E+01  7.33333333E+00  0.00000000E+00
  9.11111111E+01  6.66666667E+00  0.00000000E+00
  9.11111111E+01  6.00000000E+00  0.00000000E+00
  9.11111111E+01  5.33333333E+00  0.00000000E+00
  9.11111111E+01  4.66666667E+00  0.00000000E+00
  9.11111111E+01  4.00000000E+00  0.00000000E+00
  9.11111111E+01  3.33333333E+00  0.00000000E+00
  9.11111111E+01  2.66666667E+00  0.00000000E+00
  9.11111111E+01  2.00000000E+00  0.00000000E+00
  9.11111111E+01  1.33333333E+00  0.00000000E+00
  9.11111111E+01  6.66666667E-01  0.00000000E+00
  9.11111111E+01  1.66533454E-15  0.00000000E+00
  9.22222222E+01  1.00000000E+01  0.00000000E+00
  9.22222222E+01  9.33333333E+00  0.00000000E+00
  9.22222222E+01  8.66666667E+00  0.00000000E+00
  9.22222222E+01  8.00000000E+00  0.00000000E+00
  9.22222222E+01  7.33333333E+00  0.00000000E+00
  9.22222222E+01  6.66666667E+00  0.00000000E+00
  9.22222222E+01  6.00000000E+00  0.00000000E+00
  9.22222222E+01  5.33333333E+00  0.00000000E+00
  9.22222222E+01  4.66666667E+00  0.00000000E+00
  9.22222222E+01  4.00000000E+00  0.00000000E+00
  9.22222222E+01  3.33333333E+00  0.00000000E+00
  9.22222222E+01  2.66666667E+00  0.00000000E+00
  9.22222222E+01  2.00000000E+00  0.00000000E+00
  9.22222222E+01  1.33333333E+00  0.00000000E+00
  9.22222222E+01  6.66666667E-01  0.00000000E+00
  9.22222222E+01  1.66533454E-15  0.00000000E+00
  9.33333333E+01  1.00000000E+01  0.00000000E+00
  9.33333333E+01  9.33333333E+00  0.00000000E+00
  9.33333333E+01  8.66666667E+00  0.00000000E+00
  9.33333333E+01  8.00000000E+00  0.00000000E+00
  9.33333333E+01  7.33333333E+00  0.00000000E+00
  9.33333333E+01  6.66666667E+00  0.00000000E+00
  9.33333333E+01  6.00000000E+00  0.00000000E+00
  9.33333333E+01  5.33333333E+00  0.00000000E+00
  9.33333333E+01  4.66666667E+00  0.00000000E+00
  9.33333333E+01  4.00000000E+00  0.00000000E+00
  9.33333333E+01  3.33333333E+00  0.00000000E+00
  9.33333333E+01  2.66666667E+00  0.00000000E+00
  9.33333333E+01  2.00000000E+00  0.00000000E+00
  9.33333333E+01  1.33333333E+00  0.00000000E+00
  9.33333333E+01  6.66666667E-01  0.00000000E+00
  9.33333333E+01  1.66533454E-15  0.00000000E+00
  9.44444444E+01  1.00000000E+01  0.00000000E+00
  9.44444444E+01  9.33333333E+00  0.00000000E+00
  9.44444444E+01  8.66666667E+00  0.00000000E+00
  9.44444444E+01  8.00000000E+00  0.00000000E+00
  9.44444444E+01  7.33333333E+00  0.00000000E+00
  9.44444444E+01  6.66666667E+00  0.00000000E+00
  9.44444444E+01  6.00000000E+00  0.00000000E+00
  9.44444444E+01  5.33333333E+00  0.00000000E+00
  9.44444444E+01  4.66666667E+00  0.00000000E+00
  9.44444444E+01  4.00000000E+00  0.00000000E+00
  9.44444444E+01  3.33333333E+00  0.00000000E+00
  9.44444444E+01  2.66666667E+00  0.00000000E+00
  9.44444444E+01  2.00000000E+00  0.00000000E+00
  9.44444444E+01  1.33333333E+00  0.00000000E+00
  9.44444444E+01  6.66666667E-01  0.00000000E+00
  9.44444444E+01  1.66533454E-15  0.00000000E+00
  9.55555556E+01  1.00000000E+01  0.00000000E+00
  9.55555556E+01  9.33333333E+00  0.00000000E+00
  9.55555556E+01  8.66666667E+00  0.00000000E+00
  9.55555556E+01  8.00000000E+00  0.00000000E+00
  9.55555556E+01  7.33333333E+00  0.00000000E+00
  9.55555556E+01  6.66666667E+00  0.00000000E+00
  9.55555556E+01  6.00000000E+00  0.00000000E+00
  9.55555556E+01  5.33333333E+00  0.00000000E+00
  9.55555556E+01  4.66666667E+00  0.00000000E+00
  9.55555556E+01  4.00000000E+00  0.00000000E+00
  9.55555556E+01  3.33333333E+00  0.00000000E+00
  9.55555556E+01  2.66666667E+00  0.00000000E+00
  9.55555556E+01  2.00000000E+00  0.00000000E+00
  9.55555556E+01  1.33333333E+00  0.00000000E+00
  9.55555556E+01  6.66666667E-01  0.00000000E+00
  9.55555556E+01  1.66533454E-15  0.00000000E+00
  9.66666667E+01  1.00000000E+01  0.00000000E+00
  9.66666667E+01  9.33333333E+00  0.00000000E+00
  9.66666667E+01  8.66666667E+00  0.00000000E+00
  9.66666667E+01  8.00000000E+00  0.00000000E+00
  9.66666667E+01  7.33333333E+00  0.00000000E+00
  9.66666667E+01  6.66666667E+00  0.00000000E+00
  9.66666667E+01  6.00000000E+00  0.00000000E+00
  9.66666667E+01  5.33333333E+00  0.00000000E+00
  9.66666667E+01  4.66666667E+00  0.00000000E+00
  9.66666667E+01  4.00000000E+00  0.00000000E+00
  9.66666667E+01  3.33333333E+00  0.00000000E+00
  9.66666667E+01  2.66666667E+00  0.00000000E+00
  9.66666667E+01  2.00000000E+00  0.00000000E+00
  9.66666667E+01  1.33333333E+00  0.00000000E+00
  9.66666667E+01  6.66666667E-01  0.00000000E+00
  9.66666667E+01  1.66533454E-15  0.00000000E+00
  9.77777778E+01  1.00000000E+01  0.00000000E+00
  9.77777778E+01  9.33333333E+00  0.00000000E+00
  9.77777778E+01  8.66666667E+00  0.00000000E+00
  9.77777778E+01  8.00000000E+00  0.00000000E+00
  9.77777778E+01  7.33333333E+00  0.00000000E+00
  9.77777778E+01  6.66666667E+00  0.00000000E+00
  9.77777778E+01  6.00000000E+00  0.00000000E+00
  9.77777778E+01  5.33333333E+00  0.00000000E+00
  9.77777778E+01  4.66666667E+00  0.00000000E+00
  9.77777778E+01  4.00000000E+00  0.00000000E+00
  9.77777778E+01  3.33333333E+00  0.00000000E+00
  9.77777778E+01  2.66666667E+00  0.00000000E+00
  9.77777778E+01  2.00000000E+00  0.00000000E+00
  9.77777778E+01  1.33333333E+00  0.00000000E+00
  9.77777778E+01  6.66666667E-01  0.00000000E+00
  9.77777778E+01  1.66533454E-15  0.00000000E+00
  9.88888889E+01  1.00000000E+01  0.00000000E+00
  9.88888889E+01  9.33333333E+00  0.00000000E+00
  9.88888889E+01  8.66666667E+00  0.00000000E+00
  9.88888889E+01  8.00000000E+00  0.00000000E+00
  9.88888889E+01  7.33333333E+00  0.00000000E+00
  9.88888889E+01  6.66666667E+00  0.00000000E+00
  9.88888889E+01  6.00000000E+00  0.00000000E+00
  9.88888889E+01  5.33333333E+00  0.00000000E+00
  9.88888889E+01  4.66666667E+00  0.00000000E+00
  9.88888889E+01  4.00000000E+00  0.00000000E+00
  9.88888889E+01  3.33333333E+00  0.00000000E+00
  9.88888889E+01  2.66666667E+00  0.00000000E+00
  9.88888889E+01  2.00000000E+00  0.00000000E+00
  9.88888889E+01  1.33333333E+00  0.00000000E+00
  9.88888889E+01  6.66666667E-01  0.00000000E+00
  9.88888889E+01  1.66533454E-15  0.00000000E+00
  1.00000000E+02  1.00000000E+01  0.00000000E+00
  1.00000000E+02  9.33333333E+00  0.00000000E+00
  1.00000000E+02  8.66666667E+00  0.00000000E+00
  1.00000000E+02  8.00000000E+00  0.00000000E+00
  1.00000000E+02  7.33333333E+00  0.00000000E+00
  1.00000000E+02  6.66666667E+00  0.00000000E+00
  1.00000000E+02  6.00000000E+00  0.00000000E+00
  1.00000000E+02  5.33333333E+00  0.00000000E+00
  1.00000000E+02  4.66666667E+00  0.00000000E+00
  1.00000000E+02  4.00000000E+00  0.00000000E+00
  1.00000000E+02  3.33333333E+00  0.00000000E+00
  1.00000000E+02  2.66666667E+00  0.00000000E+00
  1.00000000E+02  2.00000000E+00  0.00000000E+00
  1.00000000E+02  1.33333333E+00  0.00000000E+00
  1.00000000E+02  6.66666667E-01  0.00000000E+00
  1.00000000E+02  1.66533454E-15  0.00000000E+00
CELLS      1350      6750
         4           0           1          17          16
         4           1           2          18          17
         4           2           3          19          18
         4           3           4          20          19
         4           4           5          21          20
         4           5           6          22          21
         4           6           7          23          22
         4           7           8          24          23
         4           8           9          25          24
         4           9          10          26          25
         4          10          11          27          26
         4          11          12          28          27
         4          12          13          29          28
         4          13          14          30          29
         4          14          15          31          30
         4          16          17          33          32
         4          17          18          34          33
         4          18          19          35          34
         4          19          20          36          35
         4          20          21          37          36
         4          21          22          38          37
         4          22          23          39          38
         4          23          24          40          39
         4          24          25          41          40
         4          25          26          42          41
         4          26          27          43          42
         4          27          28          44          43
         4          28          29          45          44
         4          29          30          46          45
         4          30          31          47          46
         4          32          33          49          48
         4          33          34          50          49
         4          34          35          51          50
         4          35          36          52          51
         4          36          37          53          52
         4          37          38          54          53
         4          38          39          55          54
         4          39          40          56          55
         4          40          41          57          56
         4          41          42          58          57
         4          42          43          59          58
         4          43          44          60          59
         4          44          45          61          60
         4          45          46          62          61
         4          46          47          63          62
         4          48          49          65          64
         4          49          50          66          65
         4          50          51          67          66
         4          51          52          68          67
         4          52          53          69          68
         4          53          54          70          69
         4          54          55          71          70
         4          55          56          72          71
         4          56          57          73          72
         4          57          58          74          73
         4          58          59          75          74
         4          59          60          76          75
         4          60          61          77          76
         4          61          62          78          77
         4          62          63          79          78
         4          64          65          81          80
         4          65          66          82          81
         4          66          67          83          82
         4          67          68          84          83
         4          68          69          85          84
         4          69          70          86          85
         4          70          71          87          86
         4          71          72          88          87
         4          72          73          89          88
         4          73          74          90          89
         4          74          75          91          90
         4          75          76          92          91
         4          76          77          93          92
         4          77          78          94          93
         4          78          79          95          94
         4          80          81          97          96
         4          81          82          98          97
         4          82          83          99          98
         4          83          84         100          99
         4          84          85         101         100
         4          85          86         102         101
         4          86          87         103         102
         4          87          88         104         103
         4          88          89         105         104
         4          89          90         106         105
         4          90          91         107         106
         4          91          92         108         107
         4          92          93         109         108
         4          93          94         110         109
         4          94          95         111         110
         4          96          97         113         112
         4          97          98         114         113
         4          98          99         115         114
         4          99         100         116         115
         4         100         101         117         116
         4         101         102         118         117
         4         102         103         119         118
         4         103         104         120         119
         4         104         105         121         120
         4         105         106         122         121
         4         106         107         123         122
         4         107         108         124         123
         4         108         109         125         124
         4         109         110         126         125
         4         110         111         127         126
         4         112         113         129         128
         4         113         114         130         129
         4         114         115         131         130
         4         115         116         132         131
         4         116         117         133         132
         4         117         118         134         133
         4         118         119         135         134
         4         119         120         136         135
         4         120         121         137         136
         4         121         122         138         137
         4         122         123         139         138
         4         123         124         140         139
         4         124         125         141         140
         4         125         126         142         141
         4         126         127         143         142
         4         128         129         145         144
         4         129         130         146         145
         4         130         131         147         146
         4         131         132         148         147
         4         132         133         149         148
         4         133         134         150         149
         4         134         135         151         150
         4         135         136         152         151
         4         136         137         153         152
         4         137         138         154         153
         4         138         139         155         154
         4         139         140         156         155
         4         140         141         157         156
         4         141         142         158         157
         4         142         143         159         158
         4         144         145         161         160
         4         145         146         162         161
         4         146         147         163         162
         4         147         148         164         163
         4         148         149         165         164
         4         149         150         166         165
         4         150         151         167         166
         4         151         152         168         167
         4         152         153         169         168
         4         153         154         170         169
         4         154         155         171         170
         4         155         156         172         171
         4         156         157         173         172
         4         157         158         174         173
         4         158         159         175         174
         4         160         161         177         176
         4         161         162         178         177
         4         162         163         179         178
         4         163         164         180         179
         4         164         165         181         180
         4         165         166         182         181
         4         166         167         183         182
         4         167         168         184         183
         4         168         169         185         184
         4         169         170         186         185
         4         170         171         187         186
         4         171         172         188         187
         4         172         173         189         188
         4         173         174         190         189
         4         174         175         191         190
         4         176         177         193         192
         4         177         178         194         193
         4         178         179         195         194
         4         179         180         196         195
         4         180         181         197         196
         4         181         182         198         197
         4         182         183         199         198
         4         183         184         200         199
         4         184         185         201         200
         4         185         186         202         201
         4         186         187         203         202
         4         187         188         204         203
         4         188         189         205         204
         4         189         190         206         205
         4         190         191         207         206
         4         192         193         209         208
         4         193         194         210         209
         4         194         195         211         210
         4         195         196         212         211
         4         196         197         213         212
         4         197         198         214         213
         4         198         199         215         214
         4         199         200         216         215
         4         200         201         217         216
         4         201         202         218         217
         4         202         203         219         218
         4         203         204         220         219
         4         204         205         221         220
         4         205         206         222         221
         4         206         207         223         222
         4         208         209         225         224
         4         209         210         226         225
         4         210         211         227         226
         4         211         212         228         227
         4         212         213         229         228
         4         213         214         230         229
         4         214         215         231         230
         4         215         216         232         231
         4         216         217         233         232
         4         217         218         234         233
         4         218         219         235         234
         4         219         220         236         235
         4         220         221         237         236
         4         221         222         238         237
         4         222         223         239         238
         4         224         225         241         240
         4         225         226         242         241
         4         226         227         243         242
         4         227         228         244         243
         4         228         229         245         244
         4         229         230         246         245
         4         230         231         247         246
         4         231         232         248         247
         4         232         233         249         248
         4         233         234         250         249
         4         234         235         251         250
         4         235         236         252         251
         4         236         237         253         252
         4         237         238         254         253
         4         238         239         255         254
         4         240         241         257         256
         4         241         242         258         257
         4         242         243         259         258
         4         243         244         260         259
         4         244         245         261         260
         4         245         246         262         261
         4         246         247         263         262
         4         247         248         264         263
         4         248         249         265         264
         4         249         250         266         265
         4         250         251         267         266
         4         251         252         268         267
         4         252         253         269         268
         4         253         254         270         269
         4         254         255         271         270
         4         256         257         273         272
         4         257         258         274         273
         4         258         259         275         274
         4         259         260         276         275
         4         260         261         277         276
         4         261         262         278         277
         4         262         263         279         278
         4         263         264         280         279
         4         264         265         281         280
         4         265         266         282         281
         4         266         267         283         282
         4         267         268         284         283
         4         268         269         285         284
         4         269         270         286         285
         4         270         271         287         286
         4         272         273         289         288
         4         273         274         290         289
         4         274         275         291         290
         4         275         276         292         291
         4         276         277         293         292
         4         277         278         294         293
         4         278         279         295         294
         4         279         280         296         295
         4         280         281         297         296
         4         281         282         298         297
         4         282         283         299         298
         4         283         284         300         299
         4         284         285         301         300
         4         285         286         302         301
         4         286         287         303         302
         4         288         289         305         304
         4         289         290         306         305
         4         290         291         307         306
         4         291         292         308         307
         4         292         293         309         308
         4         293         294         310         309
         4         294         295         311         310
         4         295         296         312         311
         4         296         297         313         312
         4         297         298         314         313
         4         298         299         315         314
         4         299         300         316         315
         4         300         301         317         316
         4         301         302         318         317
         4         302         303         319         318
         4         304         305         321         320
         4         305         306         322         321
         4         306         307         323         322
         4         307         308         324         323
         4         308         309         325         324
         4         309         310         326         325
         4         310         311         327         326
         4         311         312         328         327
         4         312         313         329         328
         4         313         314         330         329
         4         314         315         331         330
         4         315         316         332         331
         4         316         317         333         332
         4         317         318         334         333
         4         318         319         335         334
         4         320         321         337         336
         4         321         322         338         337
         4         322         323         339         338
         4         323         324         340         339
         4         324         325         341         340
         4         325         326         342         341
         4         326         327         343         342
         4         327         328         344         343
         4         328         329         345         344
         4         329         330         346         345
         4         330         331         347         346
         4         331         332         348         347
         4         332         333         349         348
         4         333         334         350         349
         4         334         335         351         350
         4         336         337         353         352
         4         337         338         354         353
         4         338         339         355         354
         4         339         340         356         355
         4         340         341         357         356
         4         341         342         358         357
         4         342         343         359         358
         4         343         344         360         359
         4         344         345         361         360
         4         345         346         362         361
         4         346         347         363         362
         4         347         348         364         363
         4         348         349         365         364
         4         349         350         366         365
         4         350         351         367         366
         4         352         353         369         368
         4         353         354         370         369
         4         354         355         371         370
         4         355         356         372         371
         4         356         357         373         372
         4         357         358         374         373
         4         358         359         375         374
         4         359         360         376         375
         4         360         361         377         376
         4         361         362         378         377
         4         362         363         379         378
         4         363         364         380         379
         4         364         365         381         380
         4         365         366         382         381
         4         366         367         383         382
         4         368         369         385         384
         4         369         370         386         385
         4         370         371         387         386
         4         371         372         388         387
         4         372         373         389         388
         4         373         374         390         389
         4         374         375         391         390
         4         375         376         392         391
         4         376         377         393         392
         4         377         378         394         393
         4         378         379         395         394
         4         379         380         396         395
         4         380         381         397         396
         4         381         382         398         397
         4         382         383         399         398
         4         384         385         401         400
         4         385         386         402         401
         4         386         387         403         402
         4         387         388         404         403
         4         388         389         405         404
         4         389         390         406         405
         4         390         391         407         406
         4         391         392         408         407
         4         392         393         409         408
         4         393         394         410         409
         4         394         395         411         410
         4         395         396         412         411
         4         396         397         413         412
         4         397         398         414         413
         4         398         399         415         414
         4         400         401         417         416
         4         401         402         418         417
         4         402         403         419         418
         4         403         404         420         419
         4         404         405         421         420
         4         405         406         422         421
         4         406         407         423         422
         4         407         408         424         423
         4         408         409         425         424
         4         409         410         426         425
         4         410         411         427         426
         4         411         412         428         427
         4         412         413         429         428
         4         413         414         430         429
         4         414         415         431         430
         4         416         417         433         432
         4         417         418         434         433
         4         418         419         435         434
         4         419         420         436         435
         4         420         421         437         436
         4         421         422         438         437
         4         422         423         439         438
         4         423         424         440         439
         4         424         425         441         440
         4         425         426         442         441
         4         426         427         443         442
         4         427         428         444         443
         4         428         429         445         444
         4         429         430         446         445
         4         430         431         447         446
         4         432         433         449         448
         4         433         434         450         449
         4         434         435         451         450
         4         435         436         452         451
         4         436         437         453         452
         4         437         438         454         453
         4         438         439         455         454
         4         439         440         456         455
         4         440         441         457         456
         4         441         442         458         457
         4         442         443         459         458
         4         443         444         460         459
         4         444         445         461         460
         4         445         446         462         461
         4         446         447         463         462
         4         448         449         465         464
         4         449         450         466         465
         4         450         451         467         466
         4         451         452         468         467
         4         452         453         469         468
         4         453         454         470         469
         4         454         455         471         470
         4         455         456         472         471
         4         456         457         473         472
         4         457         458         474         473
         4         458         459         475         474
         4         459         460         476         475
         4         460         461         477         476
         4         461         462         478         477
         4         462         463         479         478
         4         464         465         481         480
         4         465         466         482         481
         4         466         467         483         482
         4         467         468         484         483
         4         468         469         485         484
         4         469         470         486         485
         4         470         471         487         486
         4         471         472         488         487
         4         472         473         489         488
         4         473         474         490         489
         4         474         475         491         490
         4         475         476         492         491
         4         476         477         493         492
         4         477         478         494         493
         4         478         479         495         494
         4         480         481         497         496
         4         481         482         498         497
         4         482         483         499         498
         4         483         484         500         499
         4         484         485         501         500
         4         485         486         502         501
         4         486         487         503         502
         4         487         488         504         503
         4         488         489         505         504
         4         489         490         506         505
         4         490         491         507         506
         4         491         492         508         507
         4         492         493         509         508
         4         493         494         510         509
         4         494         495         511         510
         4         496         497         513         512
         4         497         498         514         513
         4         498         499         515         514
         4         499         500         516         515
         4         500         501         517         516
         4         501         502         518         517
         4         502         503         519         518
         4         503         504         520         519
         4         504         505         521         520
         4         505         506         522         521
         4         506         507         523         522
         4         507         508         524         523
         4         508         509         525         524
         4         509         510         526         525
         4         510         511         527         526
         4         512         513         529         528
         4         513         514         530         529
         4         514         515         531         530
         4         515         516         532         531
         4         516         517         533         532
         4         517         518         534         533
         4         518         519         535         534
         4         519         520         536         535
         4         520         521         537         536
         4         521         522         538         537
         4         522         523         539         538
         4         523         524         540         539
         4         524         525         541         540
         4         525         526         542         541
         4         526         527         543         542
         4         528         529         545         544
         4         529         530         546         545
         4         530         531         547         546
         4         531         532         548         547
         4         532         533         549         548
         4         533         534         550         549
         4         534         535         551         550
         4         535         536         552         551
         4         536         537         553         552
         4         537         538         554         553
         4         538         539         555         554
         4         539         540         556         555
         4         540         541         557         556
         4         541         542         558         557
         4         542         543         559         558
         4         544         545         561         560
         4         545         546         562         561
         4         546         547         563         562
         4         547         548         564         563
         4         548         549         565         564
         4         549         550         566         565
         4         550         551         567         566
         4         551         552         568         567
         4         552         553         569         568
         4         553         554         570         569
         4         554         555         571         570
         4         555         556         572         571
         4         556         557         573         572
         4         557         558         574         573
         4         558         559         575         574
         4         560         561         577         576
         4         561         562         578         577
         4         562         563         579         578
         4         563         564         580         579
         4         564         565         581         580
         4         565         566         582         581
         4         566         567         583         582
         4         567         568         584         583
         4         568         569         585         584
         4         569         570         586         585
         4         570         571         587         586
         4         571         572         588         587
         4         572         573         589         588
         4         573         574         590         589
         4         574         575         591         590
         4         576         577         593         592
         4         577         578         594         593
         4         578         579         595         594
         4         579         580         596         595
         4         580         581         597         596
         4         581         582         598         597
         4         582         583         599         598
         4         583         584         600         599
         4         584         585         601         600
         4         585         586         602         601
         4         586         587         603         602
         4         587         588         604         603
         4         588         589         605         604
         4         589         590         606         605
         4         590         591         607         606
         4         592         593         609         608
         4         593         594         610         609
         4         594         595         611         610
         4         595         596         612         611
         4         596         597         613         612
         4         597         598         614         613
         4         598         599         615         614
         4         599         600         616         615
         4         600         601         617         616
         4         601         602         618         617
         4         602         603         619         618
         4         603         604         620         619
         4         604         605         621         620
         4         605         606         622         621
         4         606         607         623         622
         4         608         609         625         624
         4         609         610         626         625
         4         610         611         627         626
         4         611         612         628         627
         4         612         613         629         628
         4         613         614         630         629
         4         614         615         631         630
         4         615         616         632         631
         4         616         617         633         632
         4         617         618         634         633
         4         618         619         635         634
         4         619         620         636         635
         4         620         621         637         636
         4         621         622         638         637
         4         622         623         639         638
         4         624         625         641         640
         4         625         626         642         641
         4         626         627         643         642
         4         627         628         644         643
         4         628         629         645         644
         4         629         630         646         645
         4         630         631         647         646
         4         631         632         648         647
         4         632         633         649         648
         4         633         634         650         649
         4         634         635         651         650
         4         635         636         652         651
         4         636         637         653         652
         4         637         638         654         653
         4         638         639         655         654
         4         640         641         657         656
         4         641         642         658         657
         4         642         643         659         658
         4         643         644         660         659
         4         644         645         661         660
         4         645         646         662         661
         4         646         647         663         662
         4         647         648         664         663
         4         648         649         665         664
         4         649         650         666         665
         4         650         651         667         666
         4         651         652         668         667
         4         652         653         669         668
         4         653         654         670         669
         4         654         655         671         670
         4         656         657         673         672
         4         657         658         674         673
         4         658         659         675         674
         4         659         660         676         675
         4         660         661         677         676
         4         661         662         678         677
         4         662         663         679         678
         4         663         664         680         679
         4         664         665         681         680
         4         665         666         682         681
         4         666         667         683         682
         4         667         668         684         683
         4         668         669         685         684
         4         669         670         686         685
         4         670         671         687         686
         4         672         673         689         688
         4         673         674         690         689
         4         674         675         691         690
         4         675         676         692         691
         4         676         677         693         692
         4         677         678         694         693
         4         678         679         695         694
         4         679         680         696         695
         4         680         681         697         696
         4         681         682         698         697
         4         682         683         699         698
         4         683         684         700         699
         4         684         685         701         700
         4         685         686         702         701
         4         686         687         703         702
         4         688         689         705         704
         4         689         690         706         705
         4         690         691         707         706
         4         691         692         708         707
         4         692         693         709         708
         4         693         694         710         709
         4         694         695         711         710
         4         695         696         712         711
         4         696         697         713         712
         4         697         698         714         713
         4         698         699         715         714
         4         699         700         716         715
         4         700         701         717         716
         4         701         702         718         717
         4         702         703         719         718
         4         704         705         721         720
         4         705         706         722         721
         4         706         707         723         722
         4         707         708         724         723
         4         708         709         725         724
         4         709         710         726         725
         4         710         711         727         726
         4         711         712         728         727
         4         712         713         729         728
         4         713         714         730         729
         4         714         715         731         730
         4         715         716         732         731
         4         716         717         733         732
         4         717         718         734         733
         4         718         719         735         734
         4         720         721         737         736
         4         721         722         738         737
         4         722         723         739         738
         4         723         724         740         739
         4         724         725         741         740
         4         725         726         742         741
         4         726         727         743         742
         4         727         728         744         743
         4         728         729         745         744
         4         729         730         746         745
         4         730         731         747         746
         4         731         732         748         747
         4         732         733         749         748
         4         733         734         750         749
         4         734         735         751         750
         4         736         737         753         752
         4         737         738         754         753
         4         738         739         755         754
         4         739         740         756         755
         4         740         741         757         756
         4         741         742         758         757
         4         742         743         759         758
         4         743         744         760         759
         4         744         745         761         760
         4         745         746         762         761
         4         746         747         763         762
         4         747         748         764         763
         4         748         749         765         764
         4         749         750         766         765
         4         750         751         767         766
         4         752         753         769         768
         4         753         754         770         769
         4         754         755         771         770
         4         755         756         772         771
         4         756         757         773         772
         4         757         758         774         773
         4         758         759         775         774
         4         759         760         776         775
         4         760         761         777         776
         4         761         762         778         777
         4         762         763         779         778
         4         763         764         780         779
         4         764         765         781         780
         4         765         766         782         781
         4         766         767         783         782
         4         768         769         785         784
         4         769         770         786         785
         4         770         771         787         786
         4         771         772         788         787
         4         772         773         789         788
         4         773         774         790         789
         4         774         775         791         790
         4         775         776         792         791
         4         776         777         793         792
         4         777         778         794         793
         4         778         779         795         794
         4         779         780         796         795
         4         780         781         797         796
         4         781         782         798         797
         4         782         783         799         798
         4         784         785         801         800
         4         785         786         802         801
         4         786         787         803         802
         4         787         788         804         803
         4         788         789         805         804
         4         789         790         806         805
         4         790         791         807         806
         4         791         792         808         807
         4         792         793         809         808
         4         793         794         810         809
         4         794         795         811         810
         4         795         796         812         811
         4         796         797         813         812
         4         797         798         814         813
         4         798         799         815         814
         4         800         801         817         816
         4         801         802         818         817
         4         802         803         819         818
         4         803         804         820         819
         4         804         805         821         820
         4         805         806         822         821
         4         806         807         823         822
         4         807         808         824         823
         4         808         809         825         824
         4         809         810         826         825
         4         810         811         827         826
         4         811         812         828         827
         4         812         813         829         828
         4         813         814         830         829
         4         814         815         831         830
         4         816         817         833         832
         4         817         818         834         833
         4         818         819         835         834
         4         819         820         836         835
         4         820         821         837         836
         4         821         822         838         837
         4         822         823         839         838
         4         823         824         840         839
         4         824         825         841         840
         4         825         826         842         841
         4         826         827         843         842
         4         827         828         844         843
         4         828         829         845         844
         4         829         830         846         845
         4         830         831         847         846
         4         832         833         849         848
         4         833         834         850         849
         4         834         835         851         850
         4         835         836         852         851
         4         836         837         853         852
         4         837         838         854         853
         4         838         839         855         854
         4         839         840         856         855
         4         840         841         857         856
         4         841         842         858         857
         4         842         843         859         858
         4         843         844         860         859
         4         844         845         861         860
         4         845         846         862         861
         4         846         847         863         862
         4         848         849         865         864
         4         849         850         866         865
         4         850         851         867         866
         4         851         852         868         867
         4         852         853         869         868
         4         853         854         870         869
         4         854         855         871         870
         4         855         856         872         871
         4         856         857         873         872
         4         857         858         874         873
         4         858         859         875         874
         4         859         860         876         875
         4         860         861         877         876
         4         861         862         878         877
         4         862         863         879         878
         4         864         865         881         880
         4         865         866         882         881
         4         866         867         883         882
         4         867         868         884         883
         4         868         869         885         884
         4         869         870         886         885
         4         870         871         887         886
         4         871         872         888         887
         4         872         873         889         888
         4         873         874         890         889
         4         874         875         891         890
         4         875         876         892         891
         4         876         877         893         892
         4         877         878         894         893
         4         878         879         895         894
         4         880         881         897         896
         4         881         882         898         897
         4         882         883         899         898
         4         883         884         900         899
         4         884         885         901         900
         4         885         886         902         901
         4         886         887         903         902
         4         887         888         904         903
         4         888         889         905         904
         4         889         890         906         905
         4         890         891         907         906
         4         891         892         908         907
         4         892         893         909         908
         4         893         894         910         909
         4         894         895         911         910
         4         896         897         913         912
         4         897         898         914         913
         4         898         899         915         914
         4         899         900         916         915
         4         900         901         917         916
         4         901         902         918         917
         4         902         903         919         918
         4         903         904         920         919
         4         904         905         921         920
         4         905         906         922         921
         4         906         907         923         922
         4         907         908         924         923
         4         908         909         925         924
         4         909         910         926         925
         4         910         911         927         926
         4         912         913         929         928
         4         913         914         930         929
         4         914         915         931         930
         4         915         916         932         931
         4         916         917         933         932
         4         917         918         934         933
         4         918         919         935         934
         4         919         920         936         935
         4         920         921         937         936
         4         921         922         938         937
         4         922         923         939         938
         4         923         924         940         939
         4         924         925         941         940
         4         925         926         942         941
         4         926         927         943         942
         4         928         929         945         944
         4         929         930         946         945
         4         930         931         947         946
         4         931         932         948         947
         4         932         933         949         948
         4         933         934         950         949
         4         934         935         951         950
         4         935         936         952         951
         4         936         937         953         952
         4         937         938         954         953
         4         938         939         955         954
         4         939         940         956         955
         4         940         941         957         956
         4         941         942         958         957
         4         942         943         959         958
         4         944         945         961         960
         4         945         946         962         961
         4         946         947         963         962
         4         947         948         964         963
         4         948         949         965         964
         4         949         950         966         965
         4         950         951         967         966
         4         951         952         968         967
         4         952         953         969         968
         4         953         954         970         969
         4         954         955         971         970
         4         955         956         972         971
         4         956         957         973         972
         4         957         958         974         973
         4         958         959         975         974
         4         960         961         977         976
         4         961         962         978         977
         4         962         963         979         978
         4         963         964         980         979
         4         964         965         981         980
         4         965         966         982         981
         4         966         967         983         982
         4         967         968         984         983
         4         968         969         985         984
         4         969         970         986         985
         4         970         971         987         986
         4         971         972         988         987
         4         972         973         989         988
         4         973         974         990         989
         4         974         975         991         990
         4         976         977         993         992
         4         977         978         994         993
         4         978         979         995         994
         4         979         980         996         995
         4         980         981         997         996
         4         981         982         998         997
         4         982         983         999         998
         4         983         984        1000         999
         4         984         985        1001        1000
         4         985         986        1002        1001
         4         986         987        1003        1002
         4         987         988        1004        1003
         4         988         989        1005        1004
         4         989         990        1006        1005
         4         990         991        1007        1006
         4         992         993        1009        1008
         4         993         994        1010        1009
         4         994         995        1011        1010
         4         995         996        1012        1011
         4         996         997        1013        1012
         4         997         998        1014        1013
         4         998         999        1015        1014
         4         999        1000        1016        1015
         4        1000        1001        1017        1016
         4        1001        1002        1018        1017
         4        1002        1003        1019        1018
         4        1003        1004        1020        1019
         4        1004        1005        1021        1020
         4        1005        1006        1022        1021
         4        1006        1007        1023        1022
         4        1008        1009        1025        1024
         4        1009        1010        1026        1025
         4        1010        1011        1027        1026
         4        1011        1012        1028        1027
         4        1012        1013        1029        1028
         4        1013        1014        1030        1029
         4        1014        1015        1031        1030
         4        1015        1016        1032        1031
         4        1016        1017        1033        1032
         4        1017        1018        1034        1033
         4        1018        1019        1035        1034
         4        1019        1020        1036        1035
         4        1020        1021        1037        1036
         4        1021        1022        1038        1037
         4        1022        1023        1039        1038
         4        1024        1025        1041        1040
         4        1025        1026        1042        1041
         4        1026        1027        1043        1042
         4        1027        1028        1044        1043
         4        1028        1029        1045        1044
         4        1029        1030        1046        1045
         4        1030        1031        1047        1046
         4        1031        1032        1048        1047
         4        1032        1033        1049        1048
         4        1033        1034        1050        1049
         4        1034        1035        1051        1050
         4        1035        1036        1052        1051
         4        1036        1037        1053        1052
         4        1037        1038        1054        1053
         4        1038        1039        1055        1054
         4        1040        1041        1057        1056
         4        1041        1042        1058        1057
         4        1042        1043        1059        1058
         4        1043        1044        1060        1059
         4        1044        1045        1061        1060
         4        1045        1046        1062        1061
         4        1046        1047        1063        1062
         4        1047        1048        1064        1063
         4        1048        1049        1065        1064
         4        1049        1050        1066        1065
         4        1050        1051        1067        1066
         4        1051        1052        1068        1067
         4        1052        1053        1069        1068
         4        1053        1054        1070        1069
         4        1054        1055        1071        1070
         4        1056        1057        1073        1072
         4        1057        1058        1074        1073
         4        1058        1059        1075        1074
         4        1059        1060        1076        1075
         4        1060        1061        1077        1076
         4        1061        1062        1078        1077
         4        1062        1063        1079        1078
         4        1063        1064        1080        1079
         4        1064        1065        1081        1080
         4        1065        1066        1082        1081
         4        1066        1067        1083        1082
         4        1067        1068        1084        1083
         4        1068        1069        1085        1084
         4        1069        1070        1086        1085
         4        1070        1071        1087        1086
         4        1072        1073        1089        1088
         4        1073        1074        1090        1089
         4        1074        1075        1091        1090
         4        1075        1076        1092        1091
         4        1076        1077        1093        1092
         4        1077        1078        1094        1093
         4        1078        1079        1095        1094
         4        1079        1080        1096        1095
         4        1080        1081        1097        1096
         4        1081        1082        1098        1097
         4        1082        1083        1099        1098
         4        1083        1084        1100        1099
         4        1084        1085        1101        1100
         4        1085        1086        1102        1101
         4        1086        1087        1103        1102
         4        1088        1089        1105        1104
         4        1089        1090        1106        1105
         4        1090        1091        1107        1106
         4        1091        1092        1108        1107
         4        1092        1093        1109        1108
         4        1093        1094        1110        1109
         4        1094        1095        1111        1110
         4        1095        1096        1112        1111
         4        1096        1097        1113        1112
         4        1097        1098        1114        1113
         4        1098        1099        1115        1114
         4        1099        1100        1116        1115
         4        1100        1101        1117        1116
         4        1101        1102        1118        1117
         4        1102        1103        1119        1118
         4        1104        1105        1121        1120
         4        1105        1106        1122        1121
         4        1106        1107        1123        1122
         4        1107        1108        1124        1123
         4        1108        1109        1125        1124
         4        1109        1110        1126        1125
         4        1110        1111        1127        1126
         4        1111        1112        1128        1127
         4        1112        1113        1129        1128
         4        1113        1114        1130        1129
         4        1114        1115        1131        1130
         4        1115        1116        1132        1131
         4        1116        1117        1133        1132
         4        1117        1118        1134        1133
         4        1118        1119        1135        1134
         4        1120        1121        1137        1136
         4        1121        1122        1138        1137
         4        1122        1123        1139        1138
         4        1123        1124        1140        1139
         4        1124        1125        1141        1140
         4        1125        1126        1142        1141
         4        1126        1127        1143        1142
         4        1127        1128        1144        1143
         4        1128        1129        1145        1144
         4        1129        1130        1146        1145
         4        1130        1131        1147        1146
         4        1131        1132        1148        1147
         4        1132        1133        1149        1148
         4        1133        1134        1150        1149
         4        1134        1135        1151        1150
         4        1136        1137        1153        1152
         4        1137        1138        1154        1153
         4        1138        1139        1155        1154
         4        1139        1140        1156        1155
         4        1140        1141        1157        1156
         4        1141        1142        1158        1157
         4        1142        1143        1159        1158
         4        1143        1144        1160        1159
         4        1144        1145        1161        1160
         4        1145        1146        1162        1161
         4        1146        1147        1163        1162
         4        1147        1148        1164        1163
         4        1148        1149        1165        1164
         4        1149        1150        1166        1165
         4        1150        1151        1167        1166
         4        1152        1153        1169        1168
         4        1153        1154        1170        1169
         4        1154        1155        1171        1170
         4        1155        1156        1172        1171
         4        1156        1157        1173        1172
         4        1157        1158        1174        1173
         4        1158        1159        1175        1174
         4        1159        1160        1176        1175
         4        1160        1161        1177        1176
         4        1161        1162        1178        1177
         4        1162        1163        1179        1178
         4        1163        1164        1180        1179
         4        1164        1165        1181        1180
         4        1165        1166        1182        1181
         4        1166        1167        1183        1182
         4        1168        1169        1185        1184
         4        1169        1170        1186        1185
         4        1170        1171        1187        1186
         4        1171        1172        1188        1187
         4        1172        1173        1189        1188
         4        1173        1174        1190        1189
         4        1174        1175        1191        1190
         4        1175        1176        1192        1191
         4        1176        1177        1193        1192
         4        1177        1178        1194        1193
         4        1178        1179        1195        1194
         4        1179        1180        1196        1195
         4        1180        1181        1197        1196
         4        1181        1182        1198        1197
         4        1182        1183        1199        1198
         4        1184        1185        1201        1200
         4        1185        1186        1202        1201
         4        1186        1187        1203        1202
         4        1187        1188        1204        1203
         4        1188        1189        1205        1204
         4        1189        1190        1206        1205
         4        1190        1191        1207        1206
         4        1191        1192        1208        1207
         4        1192        1193        1209        1208
         4        1193        1194        1210        1209
         4        1194        1195        1211        1210
         4        1195        1196        1212        1211
         4        1196        1197        1213        1212
         4        1197        1198        1214        1213
         4        1198        1199        1215        1214
         4        1200        1201        1217        1216
         4        1201        1202        1218        1217
         4        1202        1203        1219        1218
         4        1203        1204        1220        1219
         4        1204        1205        1221        1220
         4        1205        1206        1222        1221
         4        1206        1207        1223        1222
         4        1207        1208        1224        1223
         4        1208        1209        1225        1224
         4        1209        1210        1226        1225
         4        1210        1211        1227        1226
         4        1211        1212        1228        1227
         4        1212        1213        1229        1228
         4        1213        1214        1230        1229
         4        1214        1215        1231        1230
         4        1216        1217        1233        1232
         4        1217        1218        1234        1233
         4        1218        1219        1235        1234
         4        1219        1220        1236        1235
         4        1220        1221        1237        1236
         4        1221        1222        1238        1237
         4        1222        1223        1239        1238
         4        1223        1224        1240        1239
         4        1224        1225        1241        1240
         4        1225        1226        1242        1241
         4        1226        1227        1243        1242
         4        1227        1228        1244        1243
         4        1228        1229        1245        1244
         4        1229        1230        1246        1245
         4        1230        1231        1247        1246
         4        1232        1233        1249        1248
         4        1233        1234        1250        1249
         4        1234        1235        1251        1250
         4        1235        1236        1252        1251
         4        1236        1237        1253        1252
         4        1237        1238        1254        1253
         4        1238        1239        1255        1254
         4        1239        1240        1256        1255
         4        1240        1241        1257        1256
         4        1241        1242        1258        1257
         4        1242        1243        1259        1258
         4        1243        1244        1260        1259
         4        1244        1245        1261        1260
         4        1245        1246        1262        1261
         4        1246        1247        1263        1262
         4        1248        1249        1265        1264
         4        1249        1250        1266        1265
         4        1250        1251        1267        1266
         4        1251        1252        1268        1267
         4        1252        1253        1269        1268
         4        1253        1254        1270        1269
         4        1254        1255        1271        1270
         4        1255        1256        1272        1271
         4        1256        1257        1273        1272
         4        1257        1258        1274        1273
         4        1258        1259        1275        1274
         4        1259        1260        1276        1275
         4        1260        1261        1277        1276
         4        1261        1262        1278        1277
         4        1262        1263        1279        1278
         4        1264        1265        1281        1280
         4        1265        1266        1282        1281
         4        1266        1267        1283        1282
         4        1267        1268        1284        1283
         4        1268        1269        1285        1284
         4        1269        1270        1286        1285
         4        1270        1271        1287        1286
         4        1271        1272        1288        1287
         4        1272        1273        1289        1288
         4        1273        1274        1290        1289
         4        1274        1275        1291        1290
         4        1275        1276        1292        1291
         4        1276        1277        1293        1292
         4        1277        1278        1294        1293
         4        1278        1279        1295        1294
         4        1280        1281        1297        1296
         4        1281        1282        1298        1297
         4        1282        1283        1299        1298
         4        1283        1284        1300        1299
         4        1284        1285        1301        1300
         4        1285        1286        1302        1301
         4        1286        1287        1303        1302
         4        1287        1288        1304        1303
         4        1288        1289        1305        1304
         4        1289        1290        1306        1305
         4        1290        1291        1307        1306
         4        1291        1292        1308        1307
         4        1292        1293        1309        1308
         4        1293        1294        1310        1309
         4        1294        1295        1311        1310
         4        1296        1297        1313        1312
         4        1297        1298        1314        1313
         4        1298        1299        1315        1314
         4        1299        1300        1316        1315
         4        1300        1301        1317        1316
         4        1301        1302        1318        1317
         4        1302        1303        1319        1318
         4        1303        1304        1320        1319
         4        1304        1305        1321        1320
         4        1305        1306        1322        1321
         4        1306        1307        1323        1322
         4        1307        1308        1324        1323
         4        1308        1309        1325        1324
         4        1309        1310        1326        1325
         4        1310        1311        1327        1326
         4        1312        1313        1329        1328
         4        1313        1314        1330        1329
         4        1314        1315        1331        1330
         4        1315        1316        1332        1331
         4        1316        1317        1333        1332
         4        1317        1318        1334        1333
         4        1318        1319        1335        1334
         4        1319        1320        1336        1335
         4        1320        1321        1337        1336
         4        1321        1322        1338        1337
         4        1322        1323        1339        1338
         4        1323        1324        1340        1339
         4        1324        1325        1341        1340
         4        1325        1326        1342        1341
         4        1326        1327        1343        1342
         4        1328        1329        1345        1344
         4        1329        1330        1346        1345
         4        1330        1331        1347        1346
         4        1331        1332        1348        1347
         4        1332        1333        1349        1348
         4        1333        1334        1350        1349
         4        1334        1335        1351        1350
         4        1335        1336        1352        1351
         4        1336        1337        1353        1352
         4        1337        1338        1354        1353
         4        1338        1339        1355        1354
         4        1339        1340        1356        1355
         4        1340        1341        1357        1356
         4        1341        1342        1358        1357
         4        1342        1343        1359        1358
         4        1344        1345        1361        1360
         4        1345        1346        1362        1361
         4        1346        1347        1363        1362
         4        1347        1348        1364        1363
         4        1348        1349        1365        1364
         4        1349        1350        1366        1365
         4        1350        1351        1367        1366
         4        1351        1352        1368        1367
         4        1352        1353        1369        1368
         4        1353        1354        1370        1369
         4        1354        1355        1371        1370
         4        1355        1356        1372        1371
         4        1356        1357        1373        1372
         4        1357        1358        1374        1373
         4        1358        1359        1375        1374
         4        1360        1361        1377        1376
         4        1361        1362        1378        1377
         4        1362        1363        1379        1378
         4        1363        1364        1380        1379
         4        1364        1365        1381        1380
         4        1365        1366        1382        1381
         4        1366        1367        1383        1382
         4        1367        1368        1384        1383
         4        1368        1369        1385        1384
         4        1369        1370        1386        1385
         4        1370        1371        1387        1386
         4        1371        1372        1388        1387
         4        1372        1373        1389        1388
         4        1373        1374        1390        1389
         4        1374        1375        1391        1390
         4        1376        1377        1393        1392
         4        1377        1378        1394        1393
         4        1378        1379        1395        1394
         4        1379        1380        1396        1395
         4        1380        1381        1397        1396
         4        1381        1382        1398        1397
         4        1382        1383        1399        1398
         4        1383        1384        1400        1399
         4        1384        1385        1401        1400
         4        1385        1386        1402        1401
         4        1386        1387        1403        1402
         4        1387        1388        1404        1403
         4        1388        1389        1405        1404
         4        1389        1390        1406        1405
         4        1390        1391        1407        1406
         4        1392        1393        1409        1408
         4        1393        1394        1410        1409
         4        1394        1395        1411        1410
         4        1395        1396        1412        1411
         4        1396        1397        1413        1412
         4        1397        1398        1414        1413
         4        1398        1399        1415        1414
         4        1399        1400        1416        1415
         4        1400        1401        1417        1416
         4        1401        1402        1418        1417
         4        1402        1403        1419        1418
         4        1403        1404        1420        1419
         4        1404        1405        1421        1420
         4        1405        1406        1422        1421
         4        1406        1407        1423        1422
         4        1408        1409        1425        1424
         4        1409        1410        1426        1425
         4        1410        1411        1427        1426
         4        1411        1412        1428        1427
         4        1412        1413        1429        1428
         4        1413        1414        1430        1429
         4        1414        1415        1431        1430
         4        1415        1416        1432        1431
         4        1416        1417        1433        1432
         4        1417        1418        1434        1433
         4        1418        1419        1435        1434
         4        1419        1420        1436        1435
         4        1420        1421        1437        1436
         4        1421        1422        1438        1437
         4        1422        1423        1439        1438
         4        1424        1425        1441        1440
         4        1425        1426        1442        1441
         4        1426        1427        1443        1442
         4        1427        1428        1444        1443
         4        1428        1429        1445        1444
         4        1429        1430        1446        1445
         4        1430        1431        1447        1446
         4        1431        1432        1448        1447
         4        1432        1433        1449        1448
         4        1433        1434        1450        1449
         4        1434        1435        1451        1450
         4        1435        1436        1452        1451
         4        1436        1437        1453        1452
         4        1437        1438        1454        1453
         4        1438        1439        1455        1454
CELL_TYPES       1350
9
9
9
9
9
9
9
9
9
9
9
9
9
9
9
9
9
9
9
9
9
9
9
9
9
9
9
9
9
9
9
9
9
9
9
9
9
9
9
9
9
9
9
9
9
9
9
9
9
9
9
9
9
9
9
9
9
9
9
9
9
9
9
9
9
9
9
9
9
9
9
9
9
9
9
9
9
9
9
9
9
9
9
9
9
9
9
9
9
9
9
9
9
9
9
9
9
9
9
9
9
9
9
9
9
9
9
9
9
9
9
9
9
9
9
9
9
9
9
9
9
9
9
9
9
9
9
9
9
9
9
9
9
9
9
9
9
9
9
9
9
9
9
9
9
9
9
9
9
9
9
9
9
9
9
9
9
9
9
9
9
9
9
9
9
9
9
9
9
9
9
9
9
9
9
9
9
9
9
9
9
9
9
9
9
9
9
9
9
9
9
9
9
9
9
9
9
9
9
9
9
9
9
9
9
9
9
9
9
9
9
9
9
9
9
9
9
9
9
9
9
9
9
9
9
9
9
9
9
9
9
9
9
9
9
9
9
9
9
9
9
9
9
9
9
9
9
9
9
9
9
9
9
9
9
9
9
9
9
9
9
9
9
9
9
9
9
9
9
9
9
9
9
9
9
9
9
9
9
9
9
9
9
9
9
9
9
9
9
9
9
9
9
9
9
9
9
9
9
9
9
9
9
9
9
9
9
9
9
9
9
9
9
9
9
9
9
9
9
9
9
9
9
9
9
9
9
9
9
9
9
9
9
9
9
9
9
9
9
9
9
9
9
9
9
9
9
9
9
9
9
9
9
9
9
9
9
9
9
9
9
9
9
9
9
9
9
9
9
9
9
9
9
9
9
9
9
9
9
9
9
9
9
9
9
9
9
9
9
9
9
9
9
9
9
9
9
9
9
9
9
9
9
9
9
9
9
9
9
9
9
9
9
9
9
9
9
9
9
9
9
9
9
9
9
9
9
9
9
9
9
9
9
9
9
9
9
9
9
9
9
9
9
9
9
9
9
9
9
9
9
9
9
9
9
9
9
9
9
9
9
9
9
9
9
9
9
9
9
9
9
9
9
9
9
9
9
9
9
9
9
9
9
9
9
9
9
9
9
9
9
9
9
9
9
9
9
9
9
9
9
9
9
9
9
9
9
9
9
9
9
9
9
9
9
9
9
9
9
9
9
9
9
9
9
9
9
9
9
9
9
9
9
9
9
9
9
9
9
9
9
9
9
9
9
9
9
9
9
9
9
9
9
9
9
9
9
9
9
9
9
9
9
9
9
9
9
9
9
9
9
9
9
9
9
9
9
9
9
9
9
9
9
9
9
9
9
9
9
9
9
9
9
9
9
9
9
9
9
9
9
9
9
9
9
9
9
9
9
9
9
9
9
9
9
9
9
9
9
9
9
9
9
9
9
9
9
9
9
9
9
9
9
9
9
9
9
9
9
9
9
9
9
9
9
9
9
9
9
9
9
9
9
9
9
9
9
9
9
9
9
9
9
9
9
9
9
9
9
9
9
9
9
9
9
9
9
9
9
9
9
9
9
9
9
9
9
9
9
9
9
9
9
9
9
9
9
9
9
9
9
9
9
9
9
9
9
9
9
9
9
9
9
9
9
9
9
9
9
9
9
9
9
9
9
9
9
9
9
9
9
9
9
9
9
9
9
9
9
9
9
9
9
9
9
9
9
9
9
9
9
9
9
9
9
9
9
9
9
9
9
9
9
9
9
9
9
9
9
9
9
9
9
9
9
9
9
9
9
9
9
9
9
9
9
9
9
9
9
9
9
9
9
9
9
9
9
9
9
9
9
9
9
9
9
9
9
9
9
9
9
9
9
9
9
9
9
9
9
9
9
9
9
9
9
9
9
9
9
9
9
9
9
9
9
9
9
9
9
9
9
9
9
9
9
9
9
9
9
9
9
9
9
9
9
9
9
9
9
9
9
9
9
9
9
9
9
9
9
9
9
9
9
9
9
9
9
9
9
9
9
9
9
9
9
9
9
9
9
9
9
9
9
9
9
9
9
9
9
9
9
9
9
9
9
9
9
9
9
9
9
9
9
9
9
9
9
9
9
9
9
9
9
9
9
9
9
9
9
9
9
9
9
9
9
9
9
9
9
9
9
9
9
9
9
9
9
9
9
9
9
9
9
9
9
9
9
9
9
9
9
9
9
9
9
9
9
9
9
9
9
9
9
9
9
9
9
9
9
9
9
9
9
9
9
9
9
9
9
9
9
9
9
9
9
9
9
9
9
9
9
9
9
9
9
9
9
9
9
9
9
9
9
9
9
9
9
9
9
9
9
9
9
9
9
9
9
9
9
9
9
9
9
9
9
9
9
9
9
9
9
9
9
9
9
9
9
9
9
9
9
9
9
9
9
9
9
9
9
9
9
9
9
9
9
9
9
9
9
9
9
9
9
9
9
9
9
9
9
9
9
9
9
9
9
9
9
9
9
9
9
9
9
9
9
9
9
9
9
9
9
9
9
9
9
9
9
9
9
9
9
9
9
9
9
9
9
9
9
9
9
9
9
9
9
9
9
9
9
9
9
9
9
9
9
9
9
9
9
9
9
9
9
9
9
9
9
9
9
9
9
9
9
9
9
9
9
9
9
9
9
9
9
9
9
9
9
9
9
9
9
9
9
9
9
9
9
9
9
9
9
9
9
9
9
9
9
9
9
9
9
9
9
9
9
9
9
9
9
9
9
9
9
9
9
9
9
9
9
9
9
9
9
9
9
9
9
9
9
9
9
9
9
9
9
9
9
9
9
9
9
9
9
9
9
9
9
9
9
9
9
9
9
9
9
9
9
9
9
9
9
9
9
9
9
9
9
9
9
9
9
9
9
9
9
9
9
9
9
9
9
9
9
9
9
9
9
9
9
9
9
9
9
9
9
9
9
9
9
9
9
9
9
9
9
9
9
9
9
9
9
9
9
9
9
9
9
9
9
9
9
9
9
9
9
9
9
9
9
9
9
9
9
9
9
9
9
9
9
9
9
9
9
9
9
9
9
9
9
9
9
9
9
9
9
9
9
9
9
9
POINT_DATA      1456
SCALARS p double 
LOOKUP_TABLE default
   312005.506291109     
   312005.516810477     
   312005.578449726     
   312005.680357925     
   312005.807682322     
   312005.951495270     
   312006.104156005     
   312006.258813526     
   312006.409352686     
   312006.550382001     
   312006.677222366     
   312006.785888978     
   312006.873045268     
   312006.935779181     
   312006.969992869     
   312006.975874096     
   311968.288882720     
   311968.305862454     
   311968.365903554     
   311968.462831597     
   311968.587203762     
   311968.729321039     
   311968.880917488     
   311969.034839006     
   311969.184824716     
   311969.325405400     
   311969.451849237     
   311969.560117675     
   311969.646807710     
   311969.709111269     
   311969.745543432     
   311969.756075037     
   311856.606700598     
   311856.630051360     
   311856.693017098     
   311856.789725853     
   311856.912208094     
   311857.052277089     
   311857.202078426     
   311857.354499152     
   311857.503236674     
   311857.642778260     
   311857.768371088     
   311857.876004383     
   311857.962427660     
   311858.025264468     
   311858.063060413     
   311858.075991441     
   311670.444872350     
   311670.469052842     
   311670.534582705     
   311670.632502586     
   311670.754920844     
   311670.894058841     
   311671.042543447     
   311671.193558504     
   311671.340958904     
   311671.479321532     
   311671.603964463     
   311671.710960792     
   311671.797161716     
   311671.860219019     
   311671.898674902     
   311671.911528491     
   311409.765397384     
   311409.789888958     
   311409.856077976     
   311409.954673342     
   311410.077178148     
   311410.215817661     
   311410.363373893     
   311410.513228157     
   311410.659406801     
   311410.796620231     
   311410.920289875     
   311411.026566476     
   311411.112342425     
   311411.175261119     
   311411.213648191     
   311411.226559783     
   311074.515702087     
   311074.540206941     
   311074.606418834     
   311074.704920692     
   311074.827104560     
   311074.965094620     
   311075.111710262     
   311075.260430188     
   311075.405397466     
   311075.541433481     
   311075.664052164     
   311075.769470651     
   311075.854614137     
   311075.917106105     
   311075.955270385     
   311075.968101073     
   310664.628288163     
   310664.652654500     
   310664.718496748     
   310664.816418119     
   310664.937802310     
   310665.074780240     
   310665.220197259     
   310665.367594246     
   310665.511195405     
   310665.645906500     
   310665.767317128     
   310665.871703022     
   310665.956025523     
   310666.017930702     
   310666.055741767     
   310666.068456908     
   310180.020914211     
   310180.045040555     
   310180.110240101     
   310180.207199384     
   310180.327365290     
   310180.462923703     
   310180.606779502     
   310180.752539306     
   310180.894499805     
   310181.027640033     
   310181.147617079     
   310181.250763355     
   310181.334084422     
   310181.395255813     
   310181.432620563     
   310181.445185679     
   309620.596764520     
   309620.620569064     
   309620.684903850     
   309620.780577649     
   309620.899142524     
   309621.032877984     
   309621.174775554     
   309621.318525068     
   309621.458503149     
   309621.589764328     
   309621.708034298     
   309621.809704844     
   309621.891829757     
   309621.952121576     
   309621.988948633     
   309622.001332934     
   308986.244639811     
   308986.268049742     
   308986.331320816     
   308986.425414118     
   308986.542018117     
   308986.673535201     
   308986.813068664     
   308986.954410653     
   308987.092031547     
   308987.221070895     
   308987.337329941     
   308987.437265543     
   308987.517985292     
   308987.577243595     
   308987.613438669     
   308987.625610330     
   308276.839180269     
   308276.862126656     
   308276.924145806     
   308277.016377526     
   308277.130673148     
   308277.259583108     
   308277.396345073     
   308277.534872865     
   308277.669746425     
   308277.796202948     
   308277.910129251     
   308278.008055349     
   308278.087149158     
   308278.145212269     
   308278.180676689     
   308278.192602541     
   307492.241119003     
   307492.263534578     
   307492.324118269     
   307492.414213685     
   307492.525859430     
   307492.651777142     
   307492.785360157     
   307492.920662942     
   307493.052391427     
   307493.175894342     
   307493.287155610     
   307493.382787813     
   307493.460026736     
   307493.516726954     
   307493.551358429     
   307493.563004096     
   306632.297567797     
   306632.319385777     
   306632.378351970     
   306632.466038447     
   306632.574694708     
   306632.697235871     
   306632.827231562     
   306632.958895592     
   306633.087076475     
   306633.207248893     
   306633.315506128     
   306633.408553513     
   306633.483702900     
   306633.538868152     
   306633.572561655     
   306633.583891832     
   305696.842335835     
   305696.863489224     
   305696.920655440     
   305697.005659717     
   305697.110985882     
   305697.229764534     
   305697.355761983     
   305697.483369979     
   305697.607596306     
   305697.724056279     
   305697.828965198     
   305697.919131769     
   305697.991952536     
   305698.045407318     
   305698.078055661     
   305698.089034303     
   304685.696282364     
   304685.716703463     
   304685.771885421     
   304685.853931622     
   304685.955583802     
   304686.070210110     
   304686.191793963     
   304686.314923730     
   304686.434783284     
   304686.547143471     
   304686.648354524     
   304686.735339447     
   304686.805588397     
   304686.857154066     
   304686.888648092     
   304686.899238487     
   303598.667704303     
   303598.687324308     
   303598.740334822     
   303598.819142827     
   303598.916771910     
   303599.026850118     
   303599.143598639     
   303599.261821347     
   303599.376895245     
   303599.484761835     
   303599.581919448     
   303599.665416550     
   303599.732846056     
   303599.782340651     
   303599.812569151     
   303599.822733889     
   302435.552759862     
   302435.571508514     
   302435.622156523     
   302435.697440524     
   302435.790690414     
   302435.895816918     
   302436.007300036     
   302436.120178371     
   302436.230039400     
   302436.333010688     
   302436.425752089     
   302436.505448936     
   302436.569806261     
   302436.617044038     
   302436.645893476     
   302436.655594364     
   301196.135929374     
   301196.153734632     
   301196.201824309     
   301196.273291477     
   301196.361797439     
   301196.461558950     
   301196.567336352     
   301196.674422639     
   301196.778633492     
   301196.876298289     
   301196.964252135     
   301197.039828901     
   301197.100855318     
   301197.145646121     
   301197.173000262     
   301197.182198197     
   299880.190514610     
   299880.207302344     
   299880.252632257     
   299880.319981484     
   299880.403368585     
   299880.497340366     
   299880.596959641     
   299880.697793984     
   299880.795905476     
   299880.887841469     
   299880.970626397     
   299881.041754640     
   299881.099184460     
   299881.141333019     
   299881.167072502     
   299881.175727331     
   298487.479177967     
   298487.494871665     
   298487.537233978     
   298487.600154677     
   298487.678036293     
   298487.765780468     
   298487.858775312     
   298487.952883780     
   298488.044433089     
   298488.130205197     
   298488.207428358     
   298488.273769771     
   298488.327329338     
   298488.366634538     
   298488.390636432     
   298488.398706802     
   297017.754523007     
   297017.769043498     
   297017.808223208     
   297017.866394169     
   297017.938370546     
   297018.019434473     
   297018.105322953     
   297018.192215818     
   297018.276724770     
   297018.355883538     
   297018.427139145     
   297018.488344310     
   297018.537751004     
   297018.574005151     
   297018.596142509     
   297018.603585714     
   295470.759717960     
   295470.772983141     
   295470.808757342     
   295470.861845626     
   295470.927502498     
   295471.001417197     
   295471.079700075     
   295471.158870101     
   295471.235843498     
   295471.307923527     
   295471.372791442     
   295471.428498615     
   295471.473459861     
   295471.506447958     
   295471.526589373     
   295471.533361209     
   293846.229163869     
   293846.241088448     
   293846.273225618     
   293846.320885481     
   293846.379792736     
   293846.446071365     
   293846.516230466     
   293846.587151254     
   293846.656075249     
   293846.720593667     
   293846.778638016     
   293846.828471934     
   293846.868684245     
   293846.898183282     
   293846.916192453     
   293846.922247072     
   292143.889209210     
   292143.899704450     
   292143.927963757     
   292143.969835612     
   292144.021545980     
   292144.079682352     
   292144.141178980     
   292144.203303346     
   292144.263643862     
   292144.320098829     
   292144.370866658     
   292144.414437373     
   292144.449585402     
   292144.475363668     
   292144.491098981     
   292144.496388745     
   290363.458912918     
   290363.467886387     
   290363.492017007     
   290363.527726396     
   290363.571774173     
   290363.621241296     
   290363.673514679     
   290363.726273072     
   290363.777474249     
   290363.825343499     
   290363.868363444     
   290363.905265188     
   290363.935020809     
   290363.956837208     
   290363.970151316     
   290363.974626661     
   288504.650857850     
   288504.658213175     
   288504.677953617     
   288504.707110204     
   288504.743009984     
   288504.783258633     
   288504.825724389     
   288504.868523327     
   288504.910005991     
   288504.948745391     
   288504.983526383     
   288505.013336441     
   288505.037357837     
   288505.054961223     
   288505.065700638     
   288505.069309935     
   286567.172016877     
   286567.177653497     
   286567.192730933     
   286567.214927497     
   286567.242172925     
   286567.272630212     
   286567.304678829     
   286567.336899354     
   286567.368059509     
   286567.397101634     
   286567.423131605     
   286567.445409208     
   286567.463339973     
   286567.476468486     
   286567.484473178     
   286567.487162598     
   284550.724673883     
   284550.728486803     
   284550.738616399     
   284550.753427831     
   284550.771490348     
   284550.791558305     
   284550.812553632     
   284550.833549769     
   284550.853757087     
   284550.872509802     
   284550.889254411     
   284550.903539629     
   284550.915007875     
   284550.923388286     
   284550.928491277     
   284550.930204654     
   282455.007402098     
   282455.009281642     
   282455.014165886     
   282455.021148183     
   282455.029475772     
   282455.038529934     
   282455.047807663     
   282455.056904880     
   282455.065501196     
   282455.073346246     
   282455.080247594     
   282455.086060238     
   282455.090677706     
   282455.094024762     
   282455.096051730     
   282455.096730426     
   280279.716102324     
   280279.715933886     
   280279.715261909     
   280279.713951161     
   280279.711967089     
   280279.709355062     
   280279.706221210     
   280279.702714875     
   280279.699012686     
   280279.695304272     
   280279.691779630     
   280279.688618148     
   280279.685979313     
   280279.683995083     
   280279.682763957     
   280279.682346732     
   278024.545103735     
   278024.542767524     
   278024.536214415     
   278024.526125786     
   278024.513227335     
   278024.498267364     
   278024.481996745     
   278024.465150575     
   278024.448431518     
   278024.432494881     
   278024.417935399     
   278024.405275775     
   278024.394956957     
   278024.387330174     
   278024.382650737     
   278024.381073608     
   275689.188330072     
   275689.183700863     
   275689.170926978     
   275689.151553677     
   275689.127110862     
   275689.099090381     
   275689.068925072     
   275689.037969570     
   275689.007482908     
   275688.978612896     
   275688.952382323     
   275688.929676964     
   275688.911235429     
   275688.897640833     
   275688.889314319     
   275688.886510430     
   273273.340534219     
   273273.333481088     
   273273.314131358     
   273273.284943593     
   273273.248297876     
   273273.206472057     
   273273.161619845     
   273273.115750739     
   273273.070711828     
   273273.028171469     
   273272.989604854     
   273272.956281485     
   273272.929254550     
   273272.909352229     
   273272.897170921     
   273272.893070402     
   270776.698604238     
   270776.688990307     
   270776.662693528     
   270776.623137471     
   270776.573600462     
   270776.517190750     
   270776.456823589     
   270776.395200255     
   270776.334789020     
   270776.277808083     
   270776.226210490     
   270776.181671038     
   270776.145575174     
   270776.119009907     
   270776.102756732     
   270776.097286569     
   268198.962944143     
   268198.950626319     
   268198.916994451     
   268198.866491181     
   268198.803343344     
   268198.731535997     
   268198.654788455     
   268198.576532353     
   268198.499891758     
   268198.427665327     
   268198.362310545     
   268198.305930038     
   268198.260259977     
   268198.226660577     
   268198.206108709     
   268198.199192610     
   265539.838932807     
   265539.823761516     
   265539.782388976     
   265539.720333439     
   265539.642822799     
   265539.554767433     
   265539.460735153     
   265539.364928271     
   265539.271162811     
   265539.182849870     
   265539.102979140     
   265539.034104613     
   265538.978332466     
   265538.937311137     
   265538.912223602     
   265538.903781857     
   262799.038464534     
   262799.020283467     
   262798.970746434     
   262798.896506408     
   262798.803847272     
   262798.698655429     
   262798.586393613     
   262798.472076936     
   262798.360251152     
   262798.254973195     
   262798.159793963     
   262798.077743389     
   262798.011317786     
   262797.962469485     
   262797.932598775     
   262797.922548134     
   259976.281575034     
   259976.260220887     
   259976.202076612     
   259976.114991694     
   259976.006363409     
   259975.883107155     
   259975.751629093     
   259975.617801115     
   259975.486938153     
   259975.363777842     
   259975.252462554     
   259975.156523809     
   259975.078869062     
   259975.021770894     
   259974.986858594     
   259974.975112140     
   257071.298156601     
   257071.273458832     
   257071.206244979     
   257071.105625607     
   257070.980171355     
   257070.837881942     
   257070.686157596     
   257070.531772906     
   257070.380853142     
   257070.238853026     
   257070.110537982     
   257069.999967864     
   257069.910483183     
   257069.844693822     
   257069.804470257     
   257069.790937286     
   254083.829766535     
   254083.801547124     
   254083.724781139     
   254083.609907668     
   254083.466733339     
   254083.304399946     
   254083.131354629     
   254082.955322583     
   254082.783282352     
   254082.621443684     
   254082.475227973     
   254082.349251300     
   254082.247310062     
   254082.172369217     
   254082.126553133     
   254082.111139044     
   251013.631532916     
   251013.599606149     
   251013.512784675     
   251013.382906531     
   251013.221079688     
   251013.037648276     
   251012.842161460     
   251012.643344993     
   251012.449075444     
   251012.266357120     
   251012.101301686     
   251011.959110489     
   251011.844059597     
   251011.759487548     
   251011.707785820     
   251011.690392024     
   247860.474162022     
   247860.438334292     
   247860.340932659     
   247860.195267591     
   247860.013816576     
   247859.808188897     
   247859.589093193     
   247859.366307806     
   247859.148653939     
   247858.943971617     
   247858.759098469     
   247858.599851335     
   247858.471010688     
   247858.376307893     
   247858.318415296     
   247858.298939135     
   244624.146051809     
   244624.106121453     
   244623.997593251     
   244623.835326725     
   244623.633239932     
   244623.404272756     
   244623.160353117     
   244622.912366106     
   244622.670126044     
   244622.442351479     
   244622.236643117     
   244622.059464698     
   244621.916126807     
   244621.810773635     
   244621.746372675     
   244621.724707364     
   241304.455515973     
   241304.411273150     
   241304.291049918     
   241304.111334695     
   241303.887560088     
   241303.634064688     
   241303.364057911     
   241303.089587894     
   241302.821512461     
   241302.569473138     
   241302.341872239     
   241302.145853003     
   241301.987282801     
   241301.870739388     
   241301.799500220     
   241301.775534825     
   237901.233123260     
   237901.184349883     
   237901.051840955     
   237900.853796892     
   237900.607241812     
   237900.327983806     
   237900.030578407     
   237899.728295250     
   237899.433087935     
   237899.155567072     
   237898.904976519     
   237898.689172796     
   237898.514607680     
   237898.386313973     
   237898.307894433     
   237898.281513876     
   234414.334156745     
   234414.280626480     
   234414.135219019     
   234413.917933181     
   234413.647464536     
   234413.341164162     
   234413.015000734     
   234412.683525967     
   234412.359843382     
   234412.055580398     
   234411.780863736     
   234411.544298127     
   234411.352948313     
   234411.212324336     
   234411.126370103     
   234411.097455221     
   230843.641197901     
   230843.582676255     
   230843.423735536     
   230843.186262671     
   230842.890707606     
   230842.556040549     
   230842.199712717     
   230841.837620572     
   230841.484073522     
   230841.151765090     
   230840.851747515     
   230840.593409773     
   230840.384459022     
   230840.230905420     
   230840.137050353     
   230840.105478011     
   227189.066840305     
   227189.003084824     
   227188.829954817     
   227188.571318305     
   227188.249465460     
   227187.885064373     
   227187.497120494     
   227187.102939707     
   227186.718095020     
   227186.356396847     
   227186.029866852     
   227185.748715336     
   227185.521322145     
   227185.354221075     
   227185.252087762     
   227185.217731040     
   223450.556537840     
   223450.487298445     
   223450.299302783     
   223450.018496162     
   223449.669097670     
   223449.273554533     
   223448.852500310     
   223448.424716876     
   223448.007100169     
   223447.614629658     
   223447.260341494     
   223446.955305318     
   223446.708604693     
   223446.527321131     
   223446.416521696     
   223446.379250158     
   219628.091592228     
   219628.016611713     
   219627.813055120     
   219627.509044321     
   219627.130818707     
   219626.702688232     
   219626.246990452     
   219625.784051527     
   219625.332151114     
   219624.907491118     
   219624.524168238     
   219624.194150283     
   219623.927256196     
   219623.731139766     
   219623.611276990     
   219623.570957065     
   215721.692284606     
   215721.611299347     
   215721.391469640     
   215721.063196090     
   215720.654832267     
   215720.192636556     
   215719.700728192     
   215719.201047402     
   215718.713319584     
   215718.255023464     
   215717.841363165     
   215717.485244124     
   215717.197252819     
   215716.985640236     
   215716.856309061     
   215716.812804549     
   211731.421155736     
   211731.333896646     
   211731.097067423     
   211730.743452199     
   211730.303614784     
   211729.805849520     
   211729.276136474     
   211728.738100911     
   211728.212976929     
   211727.719575198     
   211727.274254692     
   211726.890898360     
   211726.580892668     
   211726.353110932     
   211726.213900416     
   211726.167073149     
   207657.386439161     
   207657.292632952     
   207657.038067116     
   207656.658016353     
   207656.185352588     
   207655.650495045     
   207655.081364857     
   207654.503344091     
   207653.939239076     
   207653.409247922     
   207652.930932126     
   207652.519192170     
   207652.186247027     
   207651.941617499     
   207651.792113326     
   207651.741824009     
   203499.745651317     
   203499.645022114     
   203499.371976386     
   203498.964388205     
   203498.457536765     
   203497.884055999     
   203497.273888896     
   203496.654246394     
   203496.049570669     
   203495.481502717     
   203494.968854072     
   203494.527582556     
   203494.170771949     
   203493.908615487     
   203493.748403105     
   203493.694512380     
   199258.709342098     
   199258.601613487     
   199258.309344106     
   199257.873117315     
   199257.330719374     
   199256.717088980     
   199256.064271697     
   199255.401379066     
   199254.754552239     
   199254.146929942     
   199253.598620618     
   199253.126678602     
   199252.745084192     
   199252.464727508     
   199252.293396039     
   199252.235765797     
   194934.545008795     
   194934.429906379     
   194934.117676189     
   194933.651721100     
   194933.072434035     
   194932.417147935     
   194931.720090762     
   194931.012345314     
   194930.321813627     
   194929.673185738     
   194929.087912631     
   194928.584183170     
   194928.176904867     
   194927.877688342     
   194927.694835360     
   194927.633330354     
   190527.581175527     
   190527.458430077     
   190527.125517251     
   190526.628768945     
   190526.011283132     
   190525.312874871     
   190524.570032486     
   190523.815878652     
   190523.080136106     
   190522.389097716     
   190521.765600679     
   190521.229004624     
   190520.795173430     
   190520.476460579     
   190520.281697920     
   190520.216187718     
   186038.211639283     
   186038.080990577     
   186037.726699233     
   186037.198133683     
   186036.541192858     
   186035.798258973     
   186035.008155617     
   186034.206110805     
   186033.423724647     
   186032.688941329     
   186032.026025118     
   186031.455540120     
   186030.994333568     
   186030.655522428     
   186030.448483158     
   186030.378844495     
   181466.899882424     
   181466.761083888     
   181466.384756885     
   181465.823410360     
   181465.125836080     
   181464.337064126     
   181463.498323763     
   181462.647009290     
   181461.816650460     
   181461.036887095     
   181460.333447549     
   181459.728130711     
   181459.238791262     
   181458.879327947     
   181458.659674670     
   181458.585794241     
   176814.183649979     
   176814.036474244     
   176813.637508474     
   176813.042500665     
   176812.303221434     
   176811.467423304     
   176810.578805417     
   176809.676983185     
   176808.797462383     
   176807.971617263     
   176807.226672258     
   176806.585686904     
   176806.067543668     
   176805.686938379     
   176805.454373032     
   176805.376150791     
   172080.679688145     
   172080.523933633     
   172080.101798126     
   172079.472359496     
   172078.690445128     
   172077.806596308     
   172076.867038030     
   172075.913653628     
   172074.983963653     
   172074.111108491     
   172073.323834214     
   172072.646481239     
   172072.098975408     
   172071.696821155     
   172071.451096474     
   172071.368449494     
   167267.088638105     
   167266.924136783     
   167266.478393958     
   167265.813897782     
   167264.988599606     
   167264.055885029     
   167263.064550276     
   167262.058783197     
   167261.078148222     
   167260.157574657     
   167259.327347749     
   167258.613102011     
   167258.035816363     
   167257.611810689     
   167257.352743499     
   167257.265610446     
   162374.200076530     
   162374.026702941     
   162373.557033336     
   162372.857032911     
   162371.987830380     
   162371.005697504     
   162369.962033771     
   162368.903355380     
   162367.871287768     
   162366.902560948     
   162366.029007011     
   162365.277559198     
   162364.670252017     
   162364.224221957     
   162363.951708443     
   162363.860054714     
   157402.897690799     
   157402.715372504     
   157402.221603281     
   157401.485874741     
   157400.572528961     
   157399.540748629     
   157398.444552024     
   157397.332791849     
   157396.249157050     
   157395.232176767     
   157394.315225668     
   157393.526529992     
   157392.889173695     
   157392.421104194     
   157392.135137276     
   157392.038960846     
   152354.164573106     
   152353.973302620     
   152353.455440110     
   152352.684031199     
   152351.726645801     
   152350.645381331     
   152349.496870278     
   152348.332291035     
   152347.197380958     
   152346.132450703     
   152345.172398984     
   152344.346726969     
   152343.679551648     
   152343.189617568     
   152342.890306479     
   152342.789644491     
   147229.088612995     
   147228.888461304     
   147228.346727763     
   147227.540012806     
   147226.539102405     
   147225.408987142     
   147224.208884996     
   147222.992266571     
   147221.806881607     
   147220.694785694     
   147219.692366228     
   147218.830366715     
   147218.133908676     
   147217.622510482     
   147217.310102580     
   147217.205038679     
   142028.867962596     
   142028.659094285     
   142028.093968909     
   142027.252709996     
   142026.209276220     
   142025.031499514     
   142023.781125989     
   142022.513858258     
   142021.279397850     
   142020.121486509     
   142019.077945308     
   142018.180710580     
   142017.455865839     
   142016.923668914     
   142016.598573716     
   142016.489246135     
   136754.816542715     
   136754.599232653     
   136754.011496699     
   136753.136910801     
   136752.052525502     
   136750.828926603     
   136749.530297474     
   136748.214481411     
   136746.933042639     
   136745.731324603     
   136744.648504380     
   136743.717642130     
   136742.965724632     
   136742.413702075     
   136742.076517422     
   136741.963127787     
   131408.369551048     
   131408.144202490     
   131407.534988029     
   131406.628819291     
   131405.505713916     
   131404.238882645     
   131402.894816507     
   131401.533372398     
   131400.207855507     
   131398.965097185     
   131397.845526960     
   131396.883237534     
   131396.106041724     
   131395.535520397     
   131395.187060631     
   131395.069883445     
   125991.088926202     
   125990.856089974     
   125990.226931320     
   125989.291526998     
   125988.132686215     
   125986.826068243     
   125985.440298152     
   125984.037078861     
   125982.671297954     
   125981.391127768     
   125980.238117442     
   125979.247275669     
   125978.447142992     
   125977.859852595     
   125977.501178647     
   125977.380571428     
   120504.668713142     
   120504.429107290     
   120503.781993307     
   120502.820380605     
   120501.629636749     
   120500.287639783     
   120498.864926094     
   120497.424832113     
   120496.023628329     
   120494.710644240     
   120493.528382923     
   120492.512623905     
   120491.692513069     
   120491.090638314     
   120490.723089834     
   120490.599503963     
   114950.940267639     
   114950.694796426     
   114950.032220514     
   114949.048179441     
   114947.830301850     
   114946.458396386     
   114945.004634819     
   114943.533725977     
   114942.103079349     
   114940.762957247     
   114939.556614354     
   114938.520423356     
   114937.683985149     
   114937.070222050     
   114936.695452380     
   114936.569444972     
   109331.877230499     
   109331.627000719     
   109330.952002716     
   109329.950126286     
   109328.710895085     
   109327.315698935     
   109325.838013943     
   109324.343609907     
   109322.890744723     
   109321.530345400     
   109320.306174922     
   109319.254983701     
   109318.406643759     
   109317.784263393     
   109317.404279837     
   109317.276527506     
   103649.600199103     
   103649.346529990     
   103648.662719420     
   103647.648445378     
   103646.394690985     
   103644.984018510     
   103643.490825191     
   103641.981582306     
   103640.515059114     
   103639.142532862     
   103637.907984992     
   103636.848282414     
   103635.993341306     
   103635.366269805     
   103634.983485304     
   103634.854802039     
   97906.3810289588     
   97906.1254486596     
   97905.4369894578     
   97904.4165739665     
   97903.1561475985     
   97901.7389890527     
   97900.2399941125     
   97898.7259382302     
   97897.2557236615     
   97895.8806155318     
   97894.6444689123     
   97893.5839459735     
   97892.7287192232     
   97892.1016543718     
   97891.7189647180     
   97891.5903289005     
   92104.6467213606     
   92104.3909364806     
   92103.7024548771     
   92102.6828314367     
   92101.4244405137     
   92100.0108065144     
   92098.5168944108     
   92097.0093749469     
   92095.5468782151     
   92094.1802468795     
   92092.9527948358     
   92091.9005707589     
   92091.0526195653     
   92090.4312291119     
   92090.0521466791     
   92089.9247482022     
   86246.9829150655     
   86246.7287264403     
   86246.0450670184     
   86245.0334792400     
   86243.7862589835     
   86242.3867646632     
   86240.9096672335     
   86239.4211701925     
   86237.9792325004     
   86236.6338179632     
   86235.4271850550     
   86234.3942172091     
   86233.5627795442     
   86232.9540781213     
   86232.5829879539     
   86232.4583191298     
   80336.1371396289     
   80335.8862526266     
   80335.2119314060     
   80334.2151192061     
   80332.9876843092     
   80331.6126266288     
   80330.1641785617     
   80328.7078826338     
   80327.3007028005     
   80325.9912261486     
   80324.8199818804     
   80323.8198784306     
   80323.0167334051     
   80322.4298407747     
   80322.0725189814     
   80321.9525570352     
   74375.0222963931     
   74374.7759116013     
   74374.1139702789     
   74373.1364591098     
   74371.9349257960     
   74370.5923589719     
   74369.1829493582     
   74367.7718017183     
   74366.4147782660     
   74365.1585580247     
   74364.0409808735     
   74363.0916782513     
   74362.3329255824     
   74361.7806352459     
   74361.4453119846     
   74361.3329025490     
   68366.7214416278     
   68366.4794469187     
   68365.8290613382     
   68364.8696757105     
   68363.6936001702     
   68362.3854230986     
   68361.0208570160     
   68359.6657313541     
   68358.3751982562     
   68357.1934759871     
   68356.1542112851     
   68355.2814640619     
   68354.5912398025     
   68354.0932513110     
   68353.7928490048     
   68353.6924639143     
   62314.4964175112     
   62314.2555336741     
   62313.6072968041     
   62312.6519257531     
   62311.4861259955     
   62310.2001253246     
   62308.8753332167     
   62307.5813923300     
   62306.3742230240     
   62305.2950257383     
   62304.3706517148     
   62303.6153471565     
   62303.0334704966     
   62302.6232277977     
   62302.3798348122     
   62302.2993450774     
   56221.8048230973     
   56221.5558692763     
   56220.8812423396     
   56219.8887292307     
   56218.6862872582     
   56217.3802219354     
   56216.0665727555     
   56214.8261012944     
   56213.7191540774     
   56212.7833744817     
   56212.0340684659     
   56211.4672308822     
   56211.0654412761     
   56210.8036693428     
   56210.6587317710     
   56210.6120210502     
   50092.3398167025     
   50092.0563652744     
   50091.2907454090     
   50090.1606880684     
   50088.8101636865     
   50087.3788036997     
   50085.9988668736     
   50084.7771017477     
   50083.7864803319     
   50083.0605946127     
   50082.5940009435     
   50082.3485199960     
   50082.2622235166     
   50082.2683344593     
   50082.2990885240     
   50082.3172260328     
   43930.0964622620     
   43929.7418702934     
   43928.7239749457     
   43927.2469130373     
   43925.4966434627     
   43923.7084651901     
   43922.0851857472     
   43920.7924581410     
   43919.9325653920     
   43919.5346288216     
   43919.5549138232     
   43919.8872393358     
   43920.3898321302     
   43920.8906724169     
   43921.2700764270     
   43921.3940491593     
   37739.6206448898     
   37738.9950734025     
   37737.4714140689     
   37735.1387142386     
   37732.4810657335     
   37729.8398697983     
   37727.5987755621     
   37726.0388573381     
   37725.3212291600     
   37725.4702267772     
   37726.3736611290     
   37727.8001433697     
   37729.4169818512     
   37730.9355359921     
   37731.9268825505     
   37732.3602427194     
   31525.9827744802     
   31525.3007478822     
   31522.2082127499     
   31518.2206636031     
   31513.4767642483     
   31508.9908359241     
   31505.3891157540     
   31503.1662462726     
   31502.5981639448     
   31503.7042318682     
   31506.2474378854     
   31509.7726448888     
   31513.6940511987     
   31517.0390182076     
   31519.7120870871     
   31520.2429731106     
   25297.9821218277     
   25294.0633393714     
   25289.6753851494     
   25280.8289104270     
   25271.9664610413     
   25263.6834191265     
   25257.3249007464     
   25253.7554238887     
   25253.3383028146     
   25256.0878861837     
   25261.6697120806     
   25269.2485512125     
   25277.5092018339     
   25285.8868471124     
   25289.9701296171     
   25293.7796723824     
   19057.7184352799     
   19063.4182126706     
   19043.4730013918     
   19028.7692864649     
   19010.1598639318     
   18994.2430963885     
   18983.3384336605     
   18977.7901732589     
   18977.5176690963     
   18982.5303945481     
   18992.9280684499     
   19008.3858138185     
   19026.6040699457     
   19041.0047161266     
   19060.7545758736     
   19054.9861343013     
   12883.4139474540     
   12810.5099829437     
   12813.9422518245     
   12761.4447229170     
   12721.4338660384     
   12695.9796678315     
   12681.2230261322     
   12674.4086502061     
   12674.2642103114     
   12680.7947475489     
   12695.2827583357     
   12720.4939287239     
   12760.2980560877     
   12812.6361573555     
   12809.1035976733     
   12881.9719943248     
   6518.96976970433     
   6832.88701631117     
   6536.71986146354     
   6431.59130461426     
   6385.27080931788     
   6362.23824986817     
   6350.50385740975     
   6345.44868503036     
   6345.40181339578     
   6350.36485643928     
   6362.01198394280     
   6384.96543488214     
   6431.21822017066     
   6536.29322376860     
   6832.42165535332     
   6518.49787101760     
   2745.87395104863     
  0.000000000000000E+000
  0.000000000000000E+000
  0.000000000000000E+000
  0.000000000000000E+000
  0.000000000000000E+000
  0.000000000000000E+000
  0.000000000000000E+000
  0.000000000000000E+000
  0.000000000000000E+000
  0.000000000000000E+000
  0.000000000000000E+000
  0.000000000000000E+000
  0.000000000000000E+000
  0.000000000000000E+000
   2745.82513857703     
VECTORS u double 
    0.18699E-04        -0.73524E-01         0.00000E+00
    0.00000E+00        -0.68623E-01         0.00000E+00
    0.00000E+00        -0.63721E-01         0.00000E+00
    0.00000E+00        -0.58819E-01         0.00000E+00
    0.00000E+00        -0.53917E-01         0.00000E+00
    0.00000E+00        -0.49015E-01         0.00000E+00
    0.00000E+00        -0.44112E-01         0.00000E+00
    0.00000E+00        -0.39210E-01         0.00000E+00
    0.00000E+00        -0.34309E-01         0.00000E+00
    0.00000E+00        -0.29407E-01         0.00000E+00
    0.00000E+00        -0.24505E-01         0.00000E+00
    0.00000E+00        -0.19604E-01         0.00000E+00
    0.00000E+00        -0.14703E-01         0.00000E+00
    0.00000E+00        -0.98015E-02         0.00000E+00
    0.00000E+00        -0.49003E-02         0.00000E+00
   -0.69873E-05         0.00000E+00         0.00000E+00
    0.51848E-02        -0.73538E-01         0.00000E+00
    0.51792E-02        -0.68633E-01         0.00000E+00
    0.51733E-02        -0.63727E-01         0.00000E+00
    0.51701E-02        -0.58823E-01         0.00000E+00
    0.51675E-02        -0.53920E-01         0.00000E+00
    0.51652E-02        -0.49017E-01         0.00000E+00
    0.51631E-02        -0.44114E-01         0.00000E+00
    0.51613E-02        -0.39212E-01         0.00000E+00
    0.51597E-02        -0.34310E-01         0.00000E+00
    0.51582E-02        -0.29408E-01         0.00000E+00
    0.51570E-02        -0.24506E-01         0.00000E+00
    0.51560E-02        -0.19605E-01         0.00000E+00
    0.51552E-02        -0.14704E-01         0.00000E+00
    0.51544E-02        -0.98025E-02         0.00000E+00
    0.51530E-02        -0.49017E-02         0.00000E+00
    0.51527E-02         0.00000E+00         0.00000E+00
    0.10360E-01        -0.73546E-01         0.00000E+00
    0.10353E-01        -0.68641E-01         0.00000E+00
    0.10346E-01        -0.63736E-01         0.00000E+00
    0.10340E-01        -0.58831E-01         0.00000E+00
    0.10335E-01        -0.53927E-01         0.00000E+00
    0.10330E-01        -0.49023E-01         0.00000E+00
    0.10326E-01        -0.44120E-01         0.00000E+00
    0.10322E-01        -0.39217E-01         0.00000E+00
    0.10319E-01        -0.34314E-01         0.00000E+00
    0.10316E-01        -0.29412E-01         0.00000E+00
    0.10313E-01        -0.24509E-01         0.00000E+00
    0.10311E-01        -0.19607E-01         0.00000E+00
    0.10310E-01        -0.14705E-01         0.00000E+00
    0.10308E-01        -0.98037E-02         0.00000E+00
    0.10308E-01        -0.49018E-02         0.00000E+00
    0.10307E-01         0.00000E+00         0.00000E+00
    0.15536E-01        -0.73559E-01         0.00000E+00
    0.15526E-01        -0.68653E-01         0.00000E+00
    0.15517E-01        -0.63747E-01         0.00000E+00
    0.15509E-01        -0.58842E-01         0.00000E+00
    0.15501E-01        -0.53937E-01         0.00000E+00
    0.15494E-01        -0.49032E-01         0.00000E+00
    0.15487E-01        -0.44128E-01         0.00000E+00
    0.15482E-01        -0.39224E-01         0.00000E+00
    0.15477E-01        -0.34321E-01         0.00000E+00
    0.15472E-01        -0.29417E-01         0.00000E+00
    0.15469E-01        -0.24514E-01         0.00000E+00
    0.15466E-01        -0.19611E-01         0.00000E+00
    0.15463E-01        -0.14708E-01         0.00000E+00
    0.15462E-01        -0.98054E-02         0.00000E+00
    0.15461E-01        -0.49027E-02         0.00000E+00
    0.15460E-01         0.00000E+00         0.00000E+00
    0.20710E-01        -0.73578E-01         0.00000E+00
    0.20698E-01        -0.68670E-01         0.00000E+00
    0.20686E-01        -0.63764E-01         0.00000E+00
    0.20675E-01        -0.58857E-01         0.00000E+00
    0.20665E-01        -0.53951E-01         0.00000E+00
    0.20655E-01        -0.49045E-01         0.00000E+00
    0.20647E-01        -0.44140E-01         0.00000E+00
    0.20640E-01        -0.39234E-01         0.00000E+00
    0.20633E-01        -0.34330E-01         0.00000E+00
    0.20627E-01        -0.29425E-01         0.00000E+00
    0.20622E-01        -0.24520E-01         0.00000E+00
    0.20618E-01        -0.19616E-01         0.00000E+00
    0.20615E-01        -0.14712E-01         0.00000E+00
    0.20613E-01        -0.98080E-02         0.00000E+00
    0.20612E-01        -0.49040E-02         0.00000E+00
    0.20611E-01         0.00000E+00         0.00000E+00
    0.25883E-01        -0.73602E-01         0.00000E+00
    0.25867E-01        -0.68693E-01         0.00000E+00
    0.25852E-01        -0.63784E-01         0.00000E+00
    0.25839E-01        -0.58876E-01         0.00000E+00
    0.25826E-01        -0.53969E-01         0.00000E+00
    0.25815E-01        -0.49061E-01         0.00000E+00
    0.25804E-01        -0.44154E-01         0.00000E+00
    0.25795E-01        -0.39247E-01         0.00000E+00
    0.25787E-01        -0.34341E-01         0.00000E+00
    0.25780E-01        -0.29435E-01         0.00000E+00
    0.25774E-01        -0.24529E-01         0.00000E+00
    0.25769E-01        -0.19623E-01         0.00000E+00
    0.25765E-01        -0.14717E-01         0.00000E+00
    0.25762E-01        -0.98112E-02         0.00000E+00
    0.25760E-01        -0.49056E-02         0.00000E+00
    0.25760E-01         0.00000E+00         0.00000E+00
    0.31052E-01        -0.73631E-01         0.00000E+00
    0.31033E-01        -0.68720E-01         0.00000E+00
    0.31016E-01        -0.63810E-01         0.00000E+00
    0.31000E-01        -0.58900E-01         0.00000E+00
    0.30985E-01        -0.53990E-01         0.00000E+00
    0.30971E-01        -0.49081E-01         0.00000E+00
    0.30959E-01        -0.44172E-01         0.00000E+00
    0.30948E-01        -0.39263E-01         0.00000E+00
    0.30938E-01        -0.34355E-01         0.00000E+00
    0.30929E-01        -0.29446E-01         0.00000E+00
    0.30922E-01        -0.24538E-01         0.00000E+00
    0.30916E-01        -0.19631E-01         0.00000E+00
    0.30911E-01        -0.14723E-01         0.00000E+00
    0.30908E-01        -0.98151E-02         0.00000E+00
    0.30906E-01        -0.49076E-02         0.00000E+00
    0.30906E-01         0.00000E+00         0.00000E+00
    0.36218E-01        -0.73666E-01         0.00000E+00
    0.36196E-01        -0.68753E-01         0.00000E+00
    0.36176E-01        -0.63840E-01         0.00000E+00
    0.36157E-01        -0.58928E-01         0.00000E+00
    0.36140E-01        -0.54016E-01         0.00000E+00
    0.36124E-01        -0.49104E-01         0.00000E+00
    0.36109E-01        -0.44193E-01         0.00000E+00
    0.36096E-01        -0.39282E-01         0.00000E+00
    0.36085E-01        -0.34371E-01         0.00000E+00
    0.36075E-01        -0.29460E-01         0.00000E+00
    0.36067E-01        -0.24550E-01         0.00000E+00
    0.36060E-01        -0.19640E-01         0.00000E+00
    0.36054E-01        -0.14730E-01         0.00000E+00
    0.36051E-01        -0.98198E-02         0.00000E+00
    0.36048E-01        -0.49099E-02         0.00000E+00
    0.36048E-01         0.00000E+00         0.00000E+00
    0.41380E-01        -0.73706E-01         0.00000E+00
    0.41355E-01        -0.68791E-01         0.00000E+00
    0.41332E-01        -0.63875E-01         0.00000E+00
    0.41310E-01        -0.58960E-01         0.00000E+00
    0.41290E-01        -0.54045E-01         0.00000E+00
    0.41272E-01        -0.49131E-01         0.00000E+00
    0.41256E-01        -0.44217E-01         0.00000E+00
    0.41241E-01        -0.39303E-01         0.00000E+00
    0.41228E-01        -0.34390E-01         0.00000E+00
    0.41217E-01        -0.29477E-01         0.00000E+00
    0.41207E-01        -0.24563E-01         0.00000E+00
    0.41199E-01        -0.19651E-01         0.00000E+00
    0.41193E-01        -0.14738E-01         0.00000E+00
    0.41189E-01        -0.98252E-02         0.00000E+00
    0.41186E-01        -0.49126E-02         0.00000E+00
    0.41185E-01         0.00000E+00         0.00000E+00
    0.46537E-01        -0.73752E-01         0.00000E+00
    0.46509E-01        -0.68833E-01         0.00000E+00
    0.46483E-01        -0.63915E-01         0.00000E+00
    0.46459E-01        -0.58996E-01         0.00000E+00
    0.46436E-01        -0.54079E-01         0.00000E+00
    0.46416E-01        -0.49161E-01         0.00000E+00
    0.46397E-01        -0.44244E-01         0.00000E+00
    0.46381E-01        -0.39328E-01         0.00000E+00
    0.46366E-01        -0.34411E-01         0.00000E+00
    0.46354E-01        -0.29495E-01         0.00000E+00
    0.46343E-01        -0.24579E-01         0.00000E+00
    0.46334E-01        -0.19663E-01         0.00000E+00
    0.46327E-01        -0.14747E-01         0.00000E+00
    0.46322E-01        -0.98312E-02         0.00000E+00
    0.46319E-01        -0.49156E-02         0.00000E+00
    0.46318E-01         0.00000E+00         0.00000E+00
    0.51689E-01        -0.73803E-01         0.00000E+00
    0.51658E-01        -0.68881E-01         0.00000E+00
    0.51629E-01        -0.63959E-01         0.00000E+00
    0.51602E-01        -0.59037E-01         0.00000E+00
    0.51577E-01        -0.54116E-01         0.00000E+00
    0.51554E-01        -0.49195E-01         0.00000E+00
    0.51534E-01        -0.44275E-01         0.00000E+00
    0.51515E-01        -0.39355E-01         0.00000E+00
    0.51499E-01        -0.34435E-01         0.00000E+00
    0.51485E-01        -0.29515E-01         0.00000E+00
    0.51473E-01        -0.24596E-01         0.00000E+00
    0.51463E-01        -0.19676E-01         0.00000E+00
    0.51456E-01        -0.14757E-01         0.00000E+00
    0.51450E-01        -0.98380E-02         0.00000E+00
    0.51447E-01        -0.49190E-02         0.00000E+00
    0.51446E-01         0.00000E+00         0.00000E+00
    0.56835E-01        -0.73860E-01         0.00000E+00
    0.56801E-01        -0.68933E-01         0.00000E+00
    0.56769E-01        -0.64008E-01         0.00000E+00
    0.56739E-01        -0.59082E-01         0.00000E+00
    0.56712E-01        -0.54158E-01         0.00000E+00
    0.56687E-01        -0.49233E-01         0.00000E+00
    0.56664E-01        -0.44309E-01         0.00000E+00
    0.56644E-01        -0.39385E-01         0.00000E+00
    0.56626E-01        -0.34461E-01         0.00000E+00
    0.56611E-01        -0.29538E-01         0.00000E+00
    0.56597E-01        -0.24614E-01         0.00000E+00
    0.56587E-01        -0.19691E-01         0.00000E+00
    0.56578E-01        -0.14768E-01         0.00000E+00
    0.56572E-01        -0.98456E-02         0.00000E+00
    0.56569E-01        -0.49228E-02         0.00000E+00
    0.56568E-01         0.00000E+00         0.00000E+00
    0.61974E-01        -0.73921E-01         0.00000E+00
    0.61937E-01        -0.68991E-01         0.00000E+00
    0.61902E-01        -0.64061E-01         0.00000E+00
    0.61870E-01        -0.59132E-01         0.00000E+00
    0.61840E-01        -0.54203E-01         0.00000E+00
    0.61813E-01        -0.49274E-01         0.00000E+00
    0.61788E-01        -0.44346E-01         0.00000E+00
    0.61766E-01        -0.39418E-01         0.00000E+00
    0.61746E-01        -0.34490E-01         0.00000E+00
    0.61729E-01        -0.29562E-01         0.00000E+00
    0.61715E-01        -0.24635E-01         0.00000E+00
    0.61703E-01        -0.19708E-01         0.00000E+00
    0.61694E-01        -0.14781E-01         0.00000E+00
    0.61688E-01        -0.98538E-02         0.00000E+00
    0.61684E-01        -0.49269E-02         0.00000E+00
    0.61683E-01         0.00000E+00         0.00000E+00
    0.67107E-01        -0.73989E-01         0.00000E+00
    0.67066E-01        -0.69054E-01         0.00000E+00
    0.67028E-01        -0.64120E-01         0.00000E+00
    0.66993E-01        -0.59186E-01         0.00000E+00
    0.66961E-01        -0.54252E-01         0.00000E+00
    0.66931E-01        -0.49319E-01         0.00000E+00
    0.66905E-01        -0.44386E-01         0.00000E+00
    0.66881E-01        -0.39454E-01         0.00000E+00
    0.66859E-01        -0.34521E-01         0.00000E+00
    0.66841E-01        -0.29589E-01         0.00000E+00
    0.66826E-01        -0.24657E-01         0.00000E+00
    0.66813E-01        -0.19726E-01         0.00000E+00
    0.66803E-01        -0.14794E-01         0.00000E+00
    0.66796E-01        -0.98628E-02         0.00000E+00
    0.66792E-01        -0.49314E-02         0.00000E+00
    0.66790E-01         0.00000E+00         0.00000E+00
    0.72231E-01        -0.74062E-01         0.00000E+00
    0.72187E-01        -0.69122E-01         0.00000E+00
    0.72147E-01        -0.64183E-01         0.00000E+00
    0.72109E-01        -0.59244E-01         0.00000E+00
    0.72074E-01        -0.54306E-01         0.00000E+00
    0.72042E-01        -0.49368E-01         0.00000E+00
    0.72013E-01        -0.44430E-01         0.00000E+00
    0.71988E-01        -0.39492E-01         0.00000E+00
    0.71965E-01        -0.34555E-01         0.00000E+00
    0.71945E-01        -0.29618E-01         0.00000E+00
    0.71928E-01        -0.24682E-01         0.00000E+00
    0.71915E-01        -0.19745E-01         0.00000E+00
    0.71904E-01        -0.14809E-01         0.00000E+00
    0.71896E-01        -0.98725E-02         0.00000E+00
    0.71892E-01        -0.49362E-02         0.00000E+00
    0.71890E-01         0.00000E+00         0.00000E+00
    0.77347E-01        -0.74140E-01         0.00000E+00
    0.77300E-01        -0.69195E-01         0.00000E+00
    0.77257E-01        -0.64251E-01         0.00000E+00
    0.77216E-01        -0.59307E-01         0.00000E+00
    0.77179E-01        -0.54363E-01         0.00000E+00
    0.77145E-01        -0.49420E-01         0.00000E+00
    0.77114E-01        -0.44477E-01         0.00000E+00
    0.77086E-01        -0.39534E-01         0.00000E+00
    0.77062E-01        -0.34592E-01         0.00000E+00
    0.77041E-01        -0.29650E-01         0.00000E+00
    0.77023E-01        -0.24708E-01         0.00000E+00
    0.77008E-01        -0.19766E-01         0.00000E+00
    0.76997E-01        -0.14824E-01         0.00000E+00
    0.76988E-01        -0.98829E-02         0.00000E+00
    0.76984E-01        -0.49414E-02         0.00000E+00
    0.76982E-01         0.00000E+00         0.00000E+00
    0.82455E-01        -0.74224E-01         0.00000E+00
    0.82404E-01        -0.69273E-01         0.00000E+00
    0.82358E-01        -0.64323E-01         0.00000E+00
    0.82314E-01        -0.59373E-01         0.00000E+00
    0.82275E-01        -0.54424E-01         0.00000E+00
    0.82238E-01        -0.49475E-01         0.00000E+00
    0.82205E-01        -0.44527E-01         0.00000E+00
    0.82176E-01        -0.39579E-01         0.00000E+00
    0.82150E-01        -0.34631E-01         0.00000E+00
    0.82127E-01        -0.29683E-01         0.00000E+00
    0.82108E-01        -0.24736E-01         0.00000E+00
    0.82092E-01        -0.19788E-01         0.00000E+00
    0.82080E-01        -0.14841E-01         0.00000E+00
    0.82071E-01        -0.98940E-02         0.00000E+00
    0.82066E-01        -0.49470E-02         0.00000E+00
    0.82064E-01         0.00000E+00         0.00000E+00
    0.87552E-01        -0.74313E-01         0.00000E+00
    0.87499E-01        -0.69356E-01         0.00000E+00
    0.87449E-01        -0.64400E-01         0.00000E+00
    0.87403E-01        -0.59445E-01         0.00000E+00
    0.87361E-01        -0.54490E-01         0.00000E+00
    0.87322E-01        -0.49535E-01         0.00000E+00
    0.87287E-01        -0.44580E-01         0.00000E+00
    0.87256E-01        -0.39626E-01         0.00000E+00
    0.87228E-01        -0.34672E-01         0.00000E+00
    0.87204E-01        -0.29719E-01         0.00000E+00
    0.87184E-01        -0.24765E-01         0.00000E+00
    0.87167E-01        -0.19812E-01         0.00000E+00
    0.87154E-01        -0.14859E-01         0.00000E+00
    0.87145E-01        -0.99059E-02         0.00000E+00
    0.87139E-01        -0.49529E-02         0.00000E+00
    0.87137E-01         0.00000E+00         0.00000E+00
    0.92640E-01        -0.74408E-01         0.00000E+00
    0.92583E-01        -0.69445E-01         0.00000E+00
    0.92531E-01        -0.64482E-01         0.00000E+00
    0.92482E-01        -0.59521E-01         0.00000E+00
    0.92437E-01        -0.54559E-01         0.00000E+00
    0.92396E-01        -0.49598E-01         0.00000E+00
    0.92359E-01        -0.44637E-01         0.00000E+00
    0.92325E-01        -0.39677E-01         0.00000E+00
    0.92296E-01        -0.34717E-01         0.00000E+00
    0.92270E-01        -0.29757E-01         0.00000E+00
    0.92249E-01        -0.24797E-01         0.00000E+00
    0.92231E-01        -0.19837E-01         0.00000E+00
    0.92218E-01        -0.14878E-01         0.00000E+00
    0.92208E-01        -0.99185E-02         0.00000E+00
    0.92202E-01        -0.49593E-02         0.00000E+00
    0.92200E-01         0.00000E+00         0.00000E+00
    0.97717E-01        -0.74508E-01         0.00000E+00
    0.97657E-01        -0.69538E-01         0.00000E+00
    0.97601E-01        -0.64569E-01         0.00000E+00
    0.97550E-01        -0.59601E-01         0.00000E+00
    0.97502E-01        -0.54633E-01         0.00000E+00
    0.97459E-01        -0.49665E-01         0.00000E+00
    0.97419E-01        -0.44697E-01         0.00000E+00
    0.97384E-01        -0.39730E-01         0.00000E+00
    0.97353E-01        -0.34763E-01         0.00000E+00
    0.97326E-01        -0.29797E-01         0.00000E+00
    0.97303E-01        -0.24830E-01         0.00000E+00
    0.97285E-01        -0.19864E-01         0.00000E+00
    0.97270E-01        -0.14898E-01         0.00000E+00
    0.97260E-01        -0.99319E-02         0.00000E+00
    0.97254E-01        -0.49659E-02         0.00000E+00
    0.97252E-01         0.00000E+00         0.00000E+00
    0.10278E+00        -0.74614E-01         0.00000E+00
    0.10272E+00        -0.69637E-01         0.00000E+00
    0.10266E+00        -0.64661E-01         0.00000E+00
    0.10261E+00        -0.59685E-01         0.00000E+00
    0.10256E+00        -0.54710E-01         0.00000E+00
    0.10251E+00        -0.49735E-01         0.00000E+00
    0.10247E+00        -0.44761E-01         0.00000E+00
    0.10243E+00        -0.39787E-01         0.00000E+00
    0.10240E+00        -0.34813E-01         0.00000E+00
    0.10237E+00        -0.29839E-01         0.00000E+00
    0.10235E+00        -0.24866E-01         0.00000E+00
    0.10233E+00        -0.19892E-01         0.00000E+00
    0.10231E+00        -0.14919E-01         0.00000E+00
    0.10230E+00        -0.99460E-02         0.00000E+00
    0.10229E+00        -0.49730E-02         0.00000E+00
    0.10229E+00         0.00000E+00         0.00000E+00
    0.10784E+00        -0.74725E-01         0.00000E+00
    0.10777E+00        -0.69741E-01         0.00000E+00
    0.10771E+00        -0.64758E-01         0.00000E+00
    0.10765E+00        -0.59775E-01         0.00000E+00
    0.10760E+00        -0.54792E-01         0.00000E+00
    0.10755E+00        -0.49810E-01         0.00000E+00
    0.10751E+00        -0.44828E-01         0.00000E+00
    0.10747E+00        -0.39846E-01         0.00000E+00
    0.10743E+00        -0.34865E-01         0.00000E+00
    0.10740E+00        -0.29884E-01         0.00000E+00
    0.10738E+00        -0.24903E-01         0.00000E+00
    0.10736E+00        -0.19922E-01         0.00000E+00
    0.10734E+00        -0.14941E-01         0.00000E+00
    0.10733E+00        -0.99609E-02         0.00000E+00
    0.10732E+00        -0.49804E-02         0.00000E+00
    0.10732E+00         0.00000E+00         0.00000E+00
    0.11288E+00        -0.74842E-01         0.00000E+00
    0.11281E+00        -0.69850E-01         0.00000E+00
    0.11274E+00        -0.64859E-01         0.00000E+00
    0.11268E+00        -0.59868E-01         0.00000E+00
    0.11263E+00        -0.54878E-01         0.00000E+00
    0.11258E+00        -0.49888E-01         0.00000E+00
    0.11253E+00        -0.44898E-01         0.00000E+00
    0.11249E+00        -0.39908E-01         0.00000E+00
    0.11245E+00        -0.34919E-01         0.00000E+00
    0.11242E+00        -0.29930E-01         0.00000E+00
    0.11240E+00        -0.24942E-01         0.00000E+00
    0.11237E+00        -0.19953E-01         0.00000E+00
    0.11236E+00        -0.14965E-01         0.00000E+00
    0.11235E+00        -0.99764E-02         0.00000E+00
    0.11234E+00        -0.49882E-02         0.00000E+00
    0.11234E+00         0.00000E+00         0.00000E+00
    0.11790E+00        -0.74965E-01         0.00000E+00
    0.11783E+00        -0.69965E-01         0.00000E+00
    0.11776E+00        -0.64965E-01         0.00000E+00
    0.11770E+00        -0.59966E-01         0.00000E+00
    0.11764E+00        -0.54968E-01         0.00000E+00
    0.11759E+00        -0.49969E-01         0.00000E+00
    0.11754E+00        -0.44971E-01         0.00000E+00
    0.11750E+00        -0.39974E-01         0.00000E+00
    0.11746E+00        -0.34976E-01         0.00000E+00
    0.11743E+00        -0.29979E-01         0.00000E+00
    0.11740E+00        -0.24983E-01         0.00000E+00
    0.11738E+00        -0.19986E-01         0.00000E+00
    0.11736E+00        -0.14989E-01         0.00000E+00
    0.11735E+00        -0.99928E-02         0.00000E+00
    0.11734E+00        -0.49964E-02         0.00000E+00
    0.11734E+00         0.00000E+00         0.00000E+00
    0.12292E+00        -0.75093E-01         0.00000E+00
    0.12284E+00        -0.70084E-01         0.00000E+00
    0.12277E+00        -0.65076E-01         0.00000E+00
    0.12270E+00        -0.60069E-01         0.00000E+00
    0.12264E+00        -0.55062E-01         0.00000E+00
    0.12259E+00        -0.50055E-01         0.00000E+00
    0.12254E+00        -0.45048E-01         0.00000E+00
    0.12249E+00        -0.40042E-01         0.00000E+00
    0.12245E+00        -0.35036E-01         0.00000E+00
    0.12242E+00        -0.30031E-01         0.00000E+00
    0.12239E+00        -0.25025E-01         0.00000E+00
    0.12237E+00        -0.20020E-01         0.00000E+00
    0.12235E+00        -0.15015E-01         0.00000E+00
    0.12234E+00        -0.10010E-01         0.00000E+00
    0.12233E+00        -0.50049E-02         0.00000E+00
    0.12233E+00         0.00000E+00         0.00000E+00
    0.12792E+00        -0.75227E-01         0.00000E+00
    0.12784E+00        -0.70209E-01         0.00000E+00
    0.12776E+00        -0.65192E-01         0.00000E+00
    0.12769E+00        -0.60176E-01         0.00000E+00
    0.12763E+00        -0.55160E-01         0.00000E+00
    0.12757E+00        -0.50144E-01         0.00000E+00
    0.12752E+00        -0.45129E-01         0.00000E+00
    0.12748E+00        -0.40114E-01         0.00000E+00
    0.12743E+00        -0.35099E-01         0.00000E+00
    0.12740E+00        -0.30084E-01         0.00000E+00
    0.12737E+00        -0.25070E-01         0.00000E+00
    0.12734E+00        -0.20056E-01         0.00000E+00
    0.12732E+00        -0.15042E-01         0.00000E+00
    0.12731E+00        -0.10028E-01         0.00000E+00
    0.12730E+00        -0.50138E-02         0.00000E+00
    0.12730E+00         0.00000E+00         0.00000E+00
    0.13290E+00        -0.75366E-01         0.00000E+00
    0.13282E+00        -0.70339E-01         0.00000E+00
    0.13274E+00        -0.65313E-01         0.00000E+00
    0.13267E+00        -0.60287E-01         0.00000E+00
    0.13260E+00        -0.55262E-01         0.00000E+00
    0.13254E+00        -0.50237E-01         0.00000E+00
    0.13249E+00        -0.45212E-01         0.00000E+00
    0.13244E+00        -0.40188E-01         0.00000E+00
    0.13240E+00        -0.35164E-01         0.00000E+00
    0.13236E+00        -0.30140E-01         0.00000E+00
    0.13233E+00        -0.25116E-01         0.00000E+00
    0.13230E+00        -0.20093E-01         0.00000E+00
    0.13228E+00        -0.15070E-01         0.00000E+00
    0.13227E+00        -0.10046E-01         0.00000E+00
    0.13226E+00        -0.50231E-02         0.00000E+00
    0.13226E+00         0.00000E+00         0.00000E+00
    0.13787E+00        -0.75511E-01         0.00000E+00
    0.13778E+00        -0.70475E-01         0.00000E+00
    0.13770E+00        -0.65439E-01         0.00000E+00
    0.13763E+00        -0.60403E-01         0.00000E+00
    0.13756E+00        -0.55368E-01         0.00000E+00
    0.13750E+00        -0.50334E-01         0.00000E+00
    0.13744E+00        -0.45299E-01         0.00000E+00
    0.13739E+00        -0.40265E-01         0.00000E+00
    0.13735E+00        -0.35232E-01         0.00000E+00
    0.13731E+00        -0.30198E-01         0.00000E+00
    0.13727E+00        -0.25165E-01         0.00000E+00
    0.13725E+00        -0.20132E-01         0.00000E+00
    0.13723E+00        -0.15099E-01         0.00000E+00
    0.13721E+00        -0.10066E-01         0.00000E+00
    0.13720E+00        -0.50328E-02         0.00000E+00
    0.13720E+00         0.00000E+00         0.00000E+00
    0.14282E+00        -0.75662E-01         0.00000E+00
    0.14273E+00        -0.70616E-01         0.00000E+00
    0.14265E+00        -0.65570E-01         0.00000E+00
    0.14257E+00        -0.60524E-01         0.00000E+00
    0.14250E+00        -0.55479E-01         0.00000E+00
    0.14244E+00        -0.50434E-01         0.00000E+00
    0.14238E+00        -0.45390E-01         0.00000E+00
    0.14232E+00        -0.40346E-01         0.00000E+00
    0.14228E+00        -0.35302E-01         0.00000E+00
    0.14224E+00        -0.30258E-01         0.00000E+00
    0.14220E+00        -0.25215E-01         0.00000E+00
    0.14218E+00        -0.20172E-01         0.00000E+00
    0.14215E+00        -0.15129E-01         0.00000E+00
    0.14214E+00        -0.10086E-01         0.00000E+00
    0.14213E+00        -0.50429E-02         0.00000E+00
    0.14213E+00         0.00000E+00         0.00000E+00
    0.14775E+00        -0.75819E-01         0.00000E+00
    0.14766E+00        -0.70762E-01         0.00000E+00
    0.14758E+00        -0.65705E-01         0.00000E+00
    0.14750E+00        -0.60649E-01         0.00000E+00
    0.14742E+00        -0.55594E-01         0.00000E+00
    0.14736E+00        -0.50539E-01         0.00000E+00
    0.14729E+00        -0.45484E-01         0.00000E+00
    0.14724E+00        -0.40429E-01         0.00000E+00
    0.14719E+00        -0.35375E-01         0.00000E+00
    0.14715E+00        -0.30321E-01         0.00000E+00
    0.14712E+00        -0.25267E-01         0.00000E+00
    0.14709E+00        -0.20214E-01         0.00000E+00
    0.14706E+00        -0.15160E-01         0.00000E+00
    0.14705E+00        -0.10107E-01         0.00000E+00
    0.14704E+00        -0.50533E-02         0.00000E+00
    0.14704E+00         0.00000E+00         0.00000E+00
    0.15267E+00        -0.75981E-01         0.00000E+00
    0.15258E+00        -0.70913E-01         0.00000E+00
    0.15249E+00        -0.65846E-01         0.00000E+00
    0.15240E+00        -0.60779E-01         0.00000E+00
    0.15233E+00        -0.55713E-01         0.00000E+00
    0.15226E+00        -0.50647E-01         0.00000E+00
    0.15220E+00        -0.45581E-01         0.00000E+00
    0.15214E+00        -0.40516E-01         0.00000E+00
    0.15209E+00        -0.35451E-01         0.00000E+00
    0.15205E+00        -0.30386E-01         0.00000E+00
    0.15201E+00        -0.25321E-01         0.00000E+00
    0.15198E+00        -0.20257E-01         0.00000E+00
    0.15196E+00        -0.15193E-01         0.00000E+00
    0.15194E+00        -0.10128E-01         0.00000E+00
    0.15193E+00        -0.50641E-02         0.00000E+00
    0.15193E+00         0.00000E+00         0.00000E+00
    0.15757E+00        -0.76149E-01         0.00000E+00
    0.15747E+00        -0.71070E-01         0.00000E+00
    0.15738E+00        -0.65992E-01         0.00000E+00
    0.15729E+00        -0.60914E-01         0.00000E+00
    0.15721E+00        -0.55836E-01         0.00000E+00
    0.15714E+00        -0.50759E-01         0.00000E+00
    0.15708E+00        -0.45682E-01         0.00000E+00
    0.15702E+00        -0.40606E-01         0.00000E+00
    0.15697E+00        -0.35529E-01         0.00000E+00
    0.15692E+00        -0.30453E-01         0.00000E+00
    0.15689E+00        -0.25377E-01         0.00000E+00
    0.15685E+00        -0.20302E-01         0.00000E+00
    0.15683E+00        -0.15226E-01         0.00000E+00
    0.15681E+00        -0.10151E-01         0.00000E+00
    0.15680E+00        -0.50753E-02         0.00000E+00
    0.15680E+00         0.00000E+00         0.00000E+00
    0.16245E+00        -0.76323E-01         0.00000E+00
    0.16235E+00        -0.71233E-01         0.00000E+00
    0.16225E+00        -0.66143E-01         0.00000E+00
    0.16216E+00        -0.61053E-01         0.00000E+00
    0.16208E+00        -0.55964E-01         0.00000E+00
    0.16201E+00        -0.50875E-01         0.00000E+00
    0.16194E+00        -0.45787E-01         0.00000E+00
    0.16188E+00        -0.40698E-01         0.00000E+00
    0.16183E+00        -0.35610E-01         0.00000E+00
    0.16178E+00        -0.30523E-01         0.00000E+00
    0.16174E+00        -0.25435E-01         0.00000E+00
    0.16171E+00        -0.20348E-01         0.00000E+00
    0.16169E+00        -0.15261E-01         0.00000E+00
    0.16167E+00        -0.10174E-01         0.00000E+00
    0.16166E+00        -0.50869E-02         0.00000E+00
    0.16165E+00         0.00000E+00         0.00000E+00
    0.16731E+00        -0.76503E-01         0.00000E+00
    0.16720E+00        -0.71401E-01         0.00000E+00
    0.16711E+00        -0.66298E-01         0.00000E+00
    0.16701E+00        -0.61197E-01         0.00000E+00
    0.16693E+00        -0.56096E-01         0.00000E+00
    0.16685E+00        -0.50995E-01         0.00000E+00
    0.16678E+00        -0.45894E-01         0.00000E+00
    0.16672E+00        -0.40794E-01         0.00000E+00
    0.16667E+00        -0.35694E-01         0.00000E+00
    0.16662E+00        -0.30595E-01         0.00000E+00
    0.16658E+00        -0.25495E-01         0.00000E+00
    0.16655E+00        -0.20396E-01         0.00000E+00
    0.16652E+00        -0.15297E-01         0.00000E+00
    0.16650E+00        -0.10198E-01         0.00000E+00
    0.16649E+00        -0.50989E-02         0.00000E+00
    0.16649E+00         0.00000E+00         0.00000E+00
    0.17215E+00        -0.76689E-01         0.00000E+00
    0.17204E+00        -0.71574E-01         0.00000E+00
    0.17194E+00        -0.66459E-01         0.00000E+00
    0.17185E+00        -0.61345E-01         0.00000E+00
    0.17176E+00        -0.56232E-01         0.00000E+00
    0.17168E+00        -0.51119E-01         0.00000E+00
    0.17161E+00        -0.46006E-01         0.00000E+00
    0.17154E+00        -0.40893E-01         0.00000E+00
    0.17149E+00        -0.35781E-01         0.00000E+00
    0.17144E+00        -0.30669E-01         0.00000E+00
    0.17140E+00        -0.25557E-01         0.00000E+00
    0.17136E+00        -0.20445E-01         0.00000E+00
    0.17134E+00        -0.15334E-01         0.00000E+00
    0.17132E+00        -0.10223E-01         0.00000E+00
    0.17130E+00        -0.51113E-02         0.00000E+00
    0.17130E+00         0.00000E+00         0.00000E+00
    0.17697E+00        -0.76880E-01         0.00000E+00
    0.17686E+00        -0.71753E-01         0.00000E+00
    0.17675E+00        -0.66625E-01         0.00000E+00
    0.17665E+00        -0.61499E-01         0.00000E+00
    0.17657E+00        -0.56372E-01         0.00000E+00
    0.17648E+00        -0.51246E-01         0.00000E+00
    0.17641E+00        -0.46121E-01         0.00000E+00
    0.17634E+00        -0.40995E-01         0.00000E+00
    0.17628E+00        -0.35870E-01         0.00000E+00
    0.17623E+00        -0.30745E-01         0.00000E+00
    0.17619E+00        -0.25621E-01         0.00000E+00
    0.17616E+00        -0.20497E-01         0.00000E+00
    0.17613E+00        -0.15372E-01         0.00000E+00
    0.17611E+00        -0.10248E-01         0.00000E+00
    0.17610E+00        -0.51240E-02         0.00000E+00
    0.17609E+00         0.00000E+00         0.00000E+00
    0.18177E+00        -0.77078E-01         0.00000E+00
    0.18165E+00        -0.71937E-01         0.00000E+00
    0.18154E+00        -0.66796E-01         0.00000E+00
    0.18144E+00        -0.61656E-01         0.00000E+00
    0.18135E+00        -0.56517E-01         0.00000E+00
    0.18127E+00        -0.51378E-01         0.00000E+00
    0.18119E+00        -0.46239E-01         0.00000E+00
    0.18112E+00        -0.41101E-01         0.00000E+00
    0.18106E+00        -0.35962E-01         0.00000E+00
    0.18101E+00        -0.30824E-01         0.00000E+00
    0.18097E+00        -0.25687E-01         0.00000E+00
    0.18093E+00        -0.20549E-01         0.00000E+00
    0.18090E+00        -0.15412E-01         0.00000E+00
    0.18088E+00        -0.10274E-01         0.00000E+00
    0.18087E+00        -0.51372E-02         0.00000E+00
    0.18087E+00         0.00000E+00         0.00000E+00
    0.18654E+00        -0.77281E-01         0.00000E+00
    0.18642E+00        -0.72126E-01         0.00000E+00
    0.18631E+00        -0.66972E-01         0.00000E+00
    0.18621E+00        -0.61819E-01         0.00000E+00
    0.18611E+00        -0.56666E-01         0.00000E+00
    0.18603E+00        -0.51513E-01         0.00000E+00
    0.18595E+00        -0.46361E-01         0.00000E+00
    0.18588E+00        -0.41209E-01         0.00000E+00
    0.18582E+00        -0.36057E-01         0.00000E+00
    0.18576E+00        -0.30906E-01         0.00000E+00
    0.18572E+00        -0.25754E-01         0.00000E+00
    0.18568E+00        -0.20603E-01         0.00000E+00
    0.18565E+00        -0.15452E-01         0.00000E+00
    0.18563E+00        -0.10302E-01         0.00000E+00
    0.18562E+00        -0.51507E-02         0.00000E+00
    0.18561E+00         0.00000E+00         0.00000E+00
    0.19130E+00        -0.77490E-01         0.00000E+00
    0.19117E+00        -0.72322E-01         0.00000E+00
    0.19106E+00        -0.67154E-01         0.00000E+00
    0.19095E+00        -0.61986E-01         0.00000E+00
    0.19085E+00        -0.56819E-01         0.00000E+00
    0.19076E+00        -0.51653E-01         0.00000E+00
    0.19068E+00        -0.46486E-01         0.00000E+00
    0.19061E+00        -0.41320E-01         0.00000E+00
    0.19055E+00        -0.36155E-01         0.00000E+00
    0.19049E+00        -0.30989E-01         0.00000E+00
    0.19045E+00        -0.25824E-01         0.00000E+00
    0.19041E+00        -0.20659E-01         0.00000E+00
    0.19038E+00        -0.15494E-01         0.00000E+00
    0.19036E+00        -0.10329E-01         0.00000E+00
    0.19034E+00        -0.51647E-02         0.00000E+00
    0.19034E+00         0.00000E+00         0.00000E+00
    0.19602E+00        -0.77705E-01         0.00000E+00
    0.19590E+00        -0.72522E-01         0.00000E+00
    0.19578E+00        -0.67340E-01         0.00000E+00
    0.19567E+00        -0.62158E-01         0.00000E+00
    0.19557E+00        -0.56977E-01         0.00000E+00
    0.19548E+00        -0.51796E-01         0.00000E+00
    0.19540E+00        -0.46615E-01         0.00000E+00
    0.19532E+00        -0.41435E-01         0.00000E+00
    0.19526E+00        -0.36255E-01         0.00000E+00
    0.19520E+00        -0.31075E-01         0.00000E+00
    0.19515E+00        -0.25896E-01         0.00000E+00
    0.19511E+00        -0.20716E-01         0.00000E+00
    0.19508E+00        -0.15537E-01         0.00000E+00
    0.19506E+00        -0.10358E-01         0.00000E+00
    0.19505E+00        -0.51790E-02         0.00000E+00
    0.19504E+00         0.00000E+00         0.00000E+00
    0.20073E+00        -0.77926E-01         0.00000E+00
    0.20060E+00        -0.72729E-01         0.00000E+00
    0.20048E+00        -0.67532E-01         0.00000E+00
    0.20037E+00        -0.62335E-01         0.00000E+00
    0.20026E+00        -0.57139E-01         0.00000E+00
    0.20017E+00        -0.51943E-01         0.00000E+00
    0.20008E+00        -0.46748E-01         0.00000E+00
    0.20001E+00        -0.41553E-01         0.00000E+00
    0.19994E+00        -0.36358E-01         0.00000E+00
    0.19988E+00        -0.31164E-01         0.00000E+00
    0.19983E+00        -0.25970E-01         0.00000E+00
    0.19979E+00        -0.20775E-01         0.00000E+00
    0.19976E+00        -0.15581E-01         0.00000E+00
    0.19974E+00        -0.10388E-01         0.00000E+00
    0.19972E+00        -0.51938E-02         0.00000E+00
    0.19972E+00         0.00000E+00         0.00000E+00
    0.20541E+00        -0.78153E-01         0.00000E+00
    0.20528E+00        -0.72941E-01         0.00000E+00
    0.20515E+00        -0.67729E-01         0.00000E+00
    0.20504E+00        -0.62517E-01         0.00000E+00
    0.20493E+00        -0.57306E-01         0.00000E+00
    0.20483E+00        -0.52095E-01         0.00000E+00
    0.20475E+00        -0.46884E-01         0.00000E+00
    0.20467E+00        -0.41674E-01         0.00000E+00
    0.20460E+00        -0.36464E-01         0.00000E+00
    0.20454E+00        -0.31255E-01         0.00000E+00
    0.20449E+00        -0.26045E-01         0.00000E+00
    0.20445E+00        -0.20836E-01         0.00000E+00
    0.20441E+00        -0.15627E-01         0.00000E+00
    0.20439E+00        -0.10418E-01         0.00000E+00
    0.20438E+00        -0.52089E-02         0.00000E+00
    0.20437E+00         0.00000E+00         0.00000E+00
    0.21006E+00        -0.78386E-01         0.00000E+00
    0.20993E+00        -0.73158E-01         0.00000E+00
    0.20980E+00        -0.67931E-01         0.00000E+00
    0.20968E+00        -0.62703E-01         0.00000E+00
    0.20957E+00        -0.57477E-01         0.00000E+00
    0.20947E+00        -0.52250E-01         0.00000E+00
    0.20938E+00        -0.47024E-01         0.00000E+00
    0.20930E+00        -0.41798E-01         0.00000E+00
    0.20923E+00        -0.36573E-01         0.00000E+00
    0.20917E+00        -0.31348E-01         0.00000E+00
    0.20912E+00        -0.26123E-01         0.00000E+00
    0.20908E+00        -0.20898E-01         0.00000E+00
    0.20904E+00        -0.15673E-01         0.00000E+00
    0.20902E+00        -0.10449E-01         0.00000E+00
    0.20901E+00        -0.52244E-02         0.00000E+00
    0.20900E+00         0.00000E+00         0.00000E+00
    0.21469E+00        -0.78625E-01         0.00000E+00
    0.21455E+00        -0.73381E-01         0.00000E+00
    0.21442E+00        -0.68138E-01         0.00000E+00
    0.21430E+00        -0.62895E-01         0.00000E+00
    0.21419E+00        -0.57652E-01         0.00000E+00
    0.21409E+00        -0.52410E-01         0.00000E+00
    0.21399E+00        -0.47168E-01         0.00000E+00
    0.21391E+00        -0.41926E-01         0.00000E+00
    0.21384E+00        -0.36685E-01         0.00000E+00
    0.21378E+00        -0.31444E-01         0.00000E+00
    0.21372E+00        -0.26203E-01         0.00000E+00
    0.21368E+00        -0.20962E-01         0.00000E+00
    0.21365E+00        -0.15721E-01         0.00000E+00
    0.21362E+00        -0.10481E-01         0.00000E+00
    0.21361E+00        -0.52404E-02         0.00000E+00
    0.21360E+00         0.00000E+00         0.00000E+00
    0.21929E+00        -0.78871E-01         0.00000E+00
    0.21915E+00        -0.73610E-01         0.00000E+00
    0.21902E+00        -0.68350E-01         0.00000E+00
    0.21889E+00        -0.63091E-01         0.00000E+00
    0.21878E+00        -0.57832E-01         0.00000E+00
    0.21867E+00        -0.52573E-01         0.00000E+00
    0.21858E+00        -0.47315E-01         0.00000E+00
    0.21849E+00        -0.42057E-01         0.00000E+00
    0.21842E+00        -0.36799E-01         0.00000E+00
    0.21836E+00        -0.31542E-01         0.00000E+00
    0.21830E+00        -0.26284E-01         0.00000E+00
    0.21826E+00        -0.21027E-01         0.00000E+00
    0.21822E+00        -0.15770E-01         0.00000E+00
    0.21820E+00        -0.10513E-01         0.00000E+00
    0.21818E+00        -0.52567E-02         0.00000E+00
    0.21818E+00         0.00000E+00         0.00000E+00
    0.22387E+00        -0.79122E-01         0.00000E+00
    0.22372E+00        -0.73844E-01         0.00000E+00
    0.22358E+00        -0.68568E-01         0.00000E+00
    0.22346E+00        -0.63292E-01         0.00000E+00
    0.22334E+00        -0.58016E-01         0.00000E+00
    0.22323E+00        -0.52740E-01         0.00000E+00
    0.22314E+00        -0.47465E-01         0.00000E+00
    0.22305E+00        -0.42191E-01         0.00000E+00
    0.22297E+00        -0.36916E-01         0.00000E+00
    0.22291E+00        -0.31642E-01         0.00000E+00
    0.22285E+00        -0.26368E-01         0.00000E+00
    0.22281E+00        -0.21094E-01         0.00000E+00
    0.22277E+00        -0.15821E-01         0.00000E+00
    0.22274E+00        -0.10547E-01         0.00000E+00
    0.22273E+00        -0.52735E-02         0.00000E+00
    0.22272E+00         0.00000E+00         0.00000E+00
    0.22841E+00        -0.79379E-01         0.00000E+00
    0.22826E+00        -0.74084E-01         0.00000E+00
    0.22812E+00        -0.68791E-01         0.00000E+00
    0.22799E+00        -0.63497E-01         0.00000E+00
    0.22787E+00        -0.58204E-01         0.00000E+00
    0.22776E+00        -0.52912E-01         0.00000E+00
    0.22766E+00        -0.47620E-01         0.00000E+00
    0.22758E+00        -0.42328E-01         0.00000E+00
    0.22750E+00        -0.37036E-01         0.00000E+00
    0.22743E+00        -0.31745E-01         0.00000E+00
    0.22737E+00        -0.26454E-01         0.00000E+00
    0.22733E+00        -0.21163E-01         0.00000E+00
    0.22729E+00        -0.15872E-01         0.00000E+00
    0.22726E+00        -0.10581E-01         0.00000E+00
    0.22725E+00        -0.52906E-02         0.00000E+00
    0.22724E+00         0.00000E+00         0.00000E+00
    0.23293E+00        -0.79642E-01         0.00000E+00
    0.23278E+00        -0.74330E-01         0.00000E+00
    0.23263E+00        -0.69019E-01         0.00000E+00
    0.23250E+00        -0.63708E-01         0.00000E+00
    0.23238E+00        -0.58397E-01         0.00000E+00
    0.23226E+00        -0.53087E-01         0.00000E+00
    0.23216E+00        -0.47778E-01         0.00000E+00
    0.23207E+00        -0.42468E-01         0.00000E+00
    0.23199E+00        -0.37159E-01         0.00000E+00
    0.23192E+00        -0.31850E-01         0.00000E+00
    0.23187E+00        -0.26541E-01         0.00000E+00
    0.23182E+00        -0.21233E-01         0.00000E+00
    0.23178E+00        -0.15925E-01         0.00000E+00
    0.23175E+00        -0.10616E-01         0.00000E+00
    0.23174E+00        -0.53082E-02         0.00000E+00
    0.23173E+00         0.00000E+00         0.00000E+00
    0.23742E+00        -0.79911E-01         0.00000E+00
    0.23726E+00        -0.74581E-01         0.00000E+00
    0.23711E+00        -0.69252E-01         0.00000E+00
    0.23698E+00        -0.63923E-01         0.00000E+00
    0.23685E+00        -0.58595E-01         0.00000E+00
    0.23674E+00        -0.53267E-01         0.00000E+00
    0.23663E+00        -0.47939E-01         0.00000E+00
    0.23654E+00        -0.42612E-01         0.00000E+00
    0.23646E+00        -0.37285E-01         0.00000E+00
    0.23639E+00        -0.31958E-01         0.00000E+00
    0.23633E+00        -0.26631E-01         0.00000E+00
    0.23628E+00        -0.21305E-01         0.00000E+00
    0.23624E+00        -0.15978E-01         0.00000E+00
    0.23621E+00        -0.10652E-01         0.00000E+00
    0.23620E+00        -0.53261E-02         0.00000E+00
    0.23619E+00         0.00000E+00         0.00000E+00
    0.24187E+00        -0.80186E-01         0.00000E+00
    0.24171E+00        -0.74838E-01         0.00000E+00
    0.24156E+00        -0.69491E-01         0.00000E+00
    0.24142E+00        -0.64143E-01         0.00000E+00
    0.24130E+00        -0.58797E-01         0.00000E+00
    0.24118E+00        -0.53450E-01         0.00000E+00
    0.24107E+00        -0.48104E-01         0.00000E+00
    0.24098E+00        -0.42759E-01         0.00000E+00
    0.24089E+00        -0.37413E-01         0.00000E+00
    0.24082E+00        -0.32068E-01         0.00000E+00
    0.24076E+00        -0.26723E-01         0.00000E+00
    0.24071E+00        -0.21378E-01         0.00000E+00
    0.24067E+00        -0.16034E-01         0.00000E+00
    0.24064E+00        -0.10689E-01         0.00000E+00
    0.24063E+00        -0.53445E-02         0.00000E+00
    0.24062E+00         0.00000E+00         0.00000E+00
    0.24630E+00        -0.80468E-01         0.00000E+00
    0.24614E+00        -0.75101E-01         0.00000E+00
    0.24598E+00        -0.69734E-01         0.00000E+00
    0.24584E+00        -0.64368E-01         0.00000E+00
    0.24571E+00        -0.59003E-01         0.00000E+00
    0.24559E+00        -0.53638E-01         0.00000E+00
    0.24548E+00        -0.48273E-01         0.00000E+00
    0.24539E+00        -0.42909E-01         0.00000E+00
    0.24530E+00        -0.37544E-01         0.00000E+00
    0.24523E+00        -0.32181E-01         0.00000E+00
    0.24516E+00        -0.26817E-01         0.00000E+00
    0.24511E+00        -0.21453E-01         0.00000E+00
    0.24507E+00        -0.16090E-01         0.00000E+00
    0.24504E+00        -0.10726E-01         0.00000E+00
    0.24503E+00        -0.53632E-02         0.00000E+00
    0.24502E+00         0.00000E+00         0.00000E+00
    0.25069E+00        -0.80755E-01         0.00000E+00
    0.25053E+00        -0.75369E-01         0.00000E+00
    0.25037E+00        -0.69983E-01         0.00000E+00
    0.25022E+00        -0.64598E-01         0.00000E+00
    0.25009E+00        -0.59214E-01         0.00000E+00
    0.24997E+00        -0.53829E-01         0.00000E+00
    0.24986E+00        -0.48446E-01         0.00000E+00
    0.24976E+00        -0.43062E-01         0.00000E+00
    0.24967E+00        -0.37679E-01         0.00000E+00
    0.24960E+00        -0.32295E-01         0.00000E+00
    0.24953E+00        -0.26913E-01         0.00000E+00
    0.24948E+00        -0.21530E-01         0.00000E+00
    0.24944E+00        -0.16147E-01         0.00000E+00
    0.24941E+00        -0.10765E-01         0.00000E+00
    0.24939E+00        -0.53824E-02         0.00000E+00
    0.24939E+00         0.00000E+00         0.00000E+00
    0.25506E+00        -0.81048E-01         0.00000E+00
    0.25488E+00        -0.75643E-01         0.00000E+00
    0.25472E+00        -0.70238E-01         0.00000E+00
    0.25458E+00        -0.64833E-01         0.00000E+00
    0.25444E+00        -0.59429E-01         0.00000E+00
    0.25432E+00        -0.54025E-01         0.00000E+00
    0.25420E+00        -0.48622E-01         0.00000E+00
    0.25410E+00        -0.43218E-01         0.00000E+00
    0.25401E+00        -0.37816E-01         0.00000E+00
    0.25394E+00        -0.32413E-01         0.00000E+00
    0.25387E+00        -0.27010E-01         0.00000E+00
    0.25382E+00        -0.21608E-01         0.00000E+00
    0.25378E+00        -0.16206E-01         0.00000E+00
    0.25375E+00        -0.10804E-01         0.00000E+00
    0.25373E+00        -0.54019E-02         0.00000E+00
    0.25372E+00         0.00000E+00         0.00000E+00
    0.25939E+00        -0.81348E-01         0.00000E+00
    0.25921E+00        -0.75922E-01         0.00000E+00
    0.25905E+00        -0.70497E-01         0.00000E+00
    0.25890E+00        -0.65073E-01         0.00000E+00
    0.25876E+00        -0.59649E-01         0.00000E+00
    0.25863E+00        -0.54225E-01         0.00000E+00
    0.25852E+00        -0.48801E-01         0.00000E+00
    0.25841E+00        -0.43378E-01         0.00000E+00
    0.25832E+00        -0.37955E-01         0.00000E+00
    0.25824E+00        -0.32533E-01         0.00000E+00
    0.25818E+00        -0.27110E-01         0.00000E+00
    0.25812E+00        -0.21688E-01         0.00000E+00
    0.25808E+00        -0.16266E-01         0.00000E+00
    0.25805E+00        -0.10844E-01         0.00000E+00
    0.25803E+00        -0.54219E-02         0.00000E+00
    0.25803E+00         0.00000E+00         0.00000E+00
    0.26368E+00        -0.81653E-01         0.00000E+00
    0.26350E+00        -0.76207E-01         0.00000E+00
    0.26334E+00        -0.70762E-01         0.00000E+00
    0.26318E+00        -0.65317E-01         0.00000E+00
    0.26304E+00        -0.59873E-01         0.00000E+00
    0.26291E+00        -0.54428E-01         0.00000E+00
    0.26279E+00        -0.48985E-01         0.00000E+00
    0.26269E+00        -0.43541E-01         0.00000E+00
    0.26260E+00        -0.38098E-01         0.00000E+00
    0.26252E+00        -0.32655E-01         0.00000E+00
    0.26245E+00        -0.27212E-01         0.00000E+00
    0.26239E+00        -0.21769E-01         0.00000E+00
    0.26235E+00        -0.16327E-01         0.00000E+00
    0.26232E+00        -0.10885E-01         0.00000E+00
    0.26230E+00        -0.54423E-02         0.00000E+00
    0.26230E+00         0.00000E+00         0.00000E+00
    0.26794E+00        -0.81965E-01         0.00000E+00
    0.26776E+00        -0.76498E-01         0.00000E+00
    0.26759E+00        -0.71032E-01         0.00000E+00
    0.26743E+00        -0.65566E-01         0.00000E+00
    0.26729E+00        -0.60101E-01         0.00000E+00
    0.26716E+00        -0.54636E-01         0.00000E+00
    0.26704E+00        -0.49171E-01         0.00000E+00
    0.26693E+00        -0.43707E-01         0.00000E+00
    0.26684E+00        -0.38243E-01         0.00000E+00
    0.26676E+00        -0.32779E-01         0.00000E+00
    0.26669E+00        -0.27316E-01         0.00000E+00
    0.26663E+00        -0.21853E-01         0.00000E+00
    0.26659E+00        -0.16389E-01         0.00000E+00
    0.26656E+00        -0.10926E-01         0.00000E+00
    0.26654E+00        -0.54631E-02         0.00000E+00
    0.26653E+00         0.00000E+00         0.00000E+00
    0.27217E+00        -0.82282E-01         0.00000E+00
    0.27198E+00        -0.76794E-01         0.00000E+00
    0.27181E+00        -0.71307E-01         0.00000E+00
    0.27165E+00        -0.65820E-01         0.00000E+00
    0.27150E+00        -0.60334E-01         0.00000E+00
    0.27137E+00        -0.54848E-01         0.00000E+00
    0.27125E+00        -0.49362E-01         0.00000E+00
    0.27114E+00        -0.43877E-01         0.00000E+00
    0.27104E+00        -0.38391E-01         0.00000E+00
    0.27096E+00        -0.32906E-01         0.00000E+00
    0.27089E+00        -0.27422E-01         0.00000E+00
    0.27083E+00        -0.21937E-01         0.00000E+00
    0.27079E+00        -0.16453E-01         0.00000E+00
    0.27076E+00        -0.10968E-01         0.00000E+00
    0.27074E+00        -0.54842E-02         0.00000E+00
    0.27073E+00         0.00000E+00         0.00000E+00
    0.27636E+00        -0.82605E-01         0.00000E+00
    0.27617E+00        -0.77096E-01         0.00000E+00
    0.27599E+00        -0.71587E-01         0.00000E+00
    0.27583E+00        -0.66079E-01         0.00000E+00
    0.27568E+00        -0.60571E-01         0.00000E+00
    0.27554E+00        -0.55063E-01         0.00000E+00
    0.27542E+00        -0.49556E-01         0.00000E+00
    0.27531E+00        -0.44049E-01         0.00000E+00
    0.27521E+00        -0.38542E-01         0.00000E+00
    0.27513E+00        -0.33036E-01         0.00000E+00
    0.27506E+00        -0.27530E-01         0.00000E+00
    0.27500E+00        -0.22023E-01         0.00000E+00
    0.27495E+00        -0.16518E-01         0.00000E+00
    0.27492E+00        -0.11012E-01         0.00000E+00
    0.27490E+00        -0.55058E-02         0.00000E+00
    0.27489E+00         0.00000E+00         0.00000E+00
    0.28051E+00        -0.82935E-01         0.00000E+00
    0.28032E+00        -0.77403E-01         0.00000E+00
    0.28014E+00        -0.71873E-01         0.00000E+00
    0.27998E+00        -0.66342E-01         0.00000E+00
    0.27982E+00        -0.60812E-01         0.00000E+00
    0.27968E+00        -0.55283E-01         0.00000E+00
    0.27956E+00        -0.49754E-01         0.00000E+00
    0.27945E+00        -0.44225E-01         0.00000E+00
    0.27935E+00        -0.38696E-01         0.00000E+00
    0.27926E+00        -0.33168E-01         0.00000E+00
    0.27919E+00        -0.27639E-01         0.00000E+00
    0.27913E+00        -0.22111E-01         0.00000E+00
    0.27908E+00        -0.16583E-01         0.00000E+00
    0.27905E+00        -0.11056E-01         0.00000E+00
    0.27903E+00        -0.55278E-02         0.00000E+00
    0.27902E+00         0.00000E+00         0.00000E+00
    0.28463E+00        -0.83270E-01         0.00000E+00
    0.28443E+00        -0.77716E-01         0.00000E+00
    0.28425E+00        -0.72163E-01         0.00000E+00
    0.28408E+00        -0.66610E-01         0.00000E+00
    0.28393E+00        -0.61058E-01         0.00000E+00
    0.28379E+00        -0.55506E-01         0.00000E+00
    0.28366E+00        -0.49955E-01         0.00000E+00
    0.28354E+00        -0.44403E-01         0.00000E+00
    0.28344E+00        -0.38853E-01         0.00000E+00
    0.28336E+00        -0.33302E-01         0.00000E+00
    0.28328E+00        -0.27751E-01         0.00000E+00
    0.28322E+00        -0.22201E-01         0.00000E+00
    0.28317E+00        -0.16650E-01         0.00000E+00
    0.28314E+00        -0.11100E-01         0.00000E+00
    0.28312E+00        -0.55501E-02         0.00000E+00
    0.28311E+00         0.00000E+00         0.00000E+00
    0.28871E+00        -0.83610E-01         0.00000E+00
    0.28851E+00        -0.78034E-01         0.00000E+00
    0.28832E+00        -0.72458E-01         0.00000E+00
    0.28815E+00        -0.66883E-01         0.00000E+00
    0.28800E+00        -0.61308E-01         0.00000E+00
    0.28785E+00        -0.55734E-01         0.00000E+00
    0.28772E+00        -0.50159E-01         0.00000E+00
    0.28760E+00        -0.44585E-01         0.00000E+00
    0.28750E+00        -0.39012E-01         0.00000E+00
    0.28741E+00        -0.33438E-01         0.00000E+00
    0.28734E+00        -0.27865E-01         0.00000E+00
    0.28728E+00        -0.22292E-01         0.00000E+00
    0.28723E+00        -0.16719E-01         0.00000E+00
    0.28719E+00        -0.11146E-01         0.00000E+00
    0.28717E+00        -0.55729E-02         0.00000E+00
    0.28717E+00         0.00000E+00         0.00000E+00
    0.29275E+00        -0.83957E-01         0.00000E+00
    0.29255E+00        -0.78358E-01         0.00000E+00
    0.29236E+00        -0.72759E-01         0.00000E+00
    0.29218E+00        -0.67161E-01         0.00000E+00
    0.29202E+00        -0.61562E-01         0.00000E+00
    0.29188E+00        -0.55965E-01         0.00000E+00
    0.29175E+00        -0.50367E-01         0.00000E+00
    0.29163E+00        -0.44770E-01         0.00000E+00
    0.29152E+00        -0.39174E-01         0.00000E+00
    0.29143E+00        -0.33577E-01         0.00000E+00
    0.29136E+00        -0.27980E-01         0.00000E+00
    0.29129E+00        -0.22384E-01         0.00000E+00
    0.29124E+00        -0.16788E-01         0.00000E+00
    0.29121E+00        -0.11192E-01         0.00000E+00
    0.29119E+00        -0.55960E-02         0.00000E+00
    0.29118E+00         0.00000E+00         0.00000E+00
    0.29675E+00        -0.84310E-01         0.00000E+00
    0.29655E+00        -0.78687E-01         0.00000E+00
    0.29636E+00        -0.73064E-01         0.00000E+00
    0.29618E+00        -0.67443E-01         0.00000E+00
    0.29601E+00        -0.61821E-01         0.00000E+00
    0.29587E+00        -0.56200E-01         0.00000E+00
    0.29573E+00        -0.50579E-01         0.00000E+00
    0.29561E+00        -0.44958E-01         0.00000E+00
    0.29551E+00        -0.39338E-01         0.00000E+00
    0.29541E+00        -0.33718E-01         0.00000E+00
    0.29534E+00        -0.28098E-01         0.00000E+00
    0.29527E+00        -0.22478E-01         0.00000E+00
    0.29522E+00        -0.16859E-01         0.00000E+00
    0.29519E+00        -0.11239E-01         0.00000E+00
    0.29517E+00        -0.56195E-02         0.00000E+00
    0.29516E+00         0.00000E+00         0.00000E+00
    0.30071E+00        -0.84668E-01         0.00000E+00
    0.30051E+00        -0.79021E-01         0.00000E+00
    0.30031E+00        -0.73375E-01         0.00000E+00
    0.30013E+00        -0.67729E-01         0.00000E+00
    0.29997E+00        -0.62084E-01         0.00000E+00
    0.29981E+00        -0.56439E-01         0.00000E+00
    0.29968E+00        -0.50794E-01         0.00000E+00
    0.29956E+00        -0.45149E-01         0.00000E+00
    0.29945E+00        -0.39505E-01         0.00000E+00
    0.29935E+00        -0.33861E-01         0.00000E+00
    0.29928E+00        -0.28217E-01         0.00000E+00
    0.29921E+00        -0.22574E-01         0.00000E+00
    0.29916E+00        -0.16930E-01         0.00000E+00
    0.29913E+00        -0.11287E-01         0.00000E+00
    0.29910E+00        -0.56434E-02         0.00000E+00
    0.29910E+00         0.00000E+00         0.00000E+00
    0.30464E+00        -0.85031E-01         0.00000E+00
    0.30442E+00        -0.79360E-01         0.00000E+00
    0.30423E+00        -0.73690E-01         0.00000E+00
    0.30404E+00        -0.68020E-01         0.00000E+00
    0.30388E+00        -0.62350E-01         0.00000E+00
    0.30372E+00        -0.56681E-01         0.00000E+00
    0.30358E+00        -0.51012E-01         0.00000E+00
    0.30346E+00        -0.45344E-01         0.00000E+00
    0.30335E+00        -0.39675E-01         0.00000E+00
    0.30326E+00        -0.34007E-01         0.00000E+00
    0.30318E+00        -0.28339E-01         0.00000E+00
    0.30311E+00        -0.22671E-01         0.00000E+00
    0.30306E+00        -0.17003E-01         0.00000E+00
    0.30302E+00        -0.11335E-01         0.00000E+00
    0.30300E+00        -0.56676E-02         0.00000E+00
    0.30299E+00         0.00000E+00         0.00000E+00
    0.30852E+00        -0.85400E-01         0.00000E+00
    0.30830E+00        -0.79705E-01         0.00000E+00
    0.30810E+00        -0.74010E-01         0.00000E+00
    0.30792E+00        -0.68315E-01         0.00000E+00
    0.30775E+00        -0.62621E-01         0.00000E+00
    0.30759E+00        -0.56927E-01         0.00000E+00
    0.30745E+00        -0.51234E-01         0.00000E+00
    0.30732E+00        -0.45541E-01         0.00000E+00
    0.30721E+00        -0.39847E-01         0.00000E+00
    0.30712E+00        -0.34155E-01         0.00000E+00
    0.30704E+00        -0.28462E-01         0.00000E+00
    0.30697E+00        -0.22769E-01         0.00000E+00
    0.30692E+00        -0.17077E-01         0.00000E+00
    0.30688E+00        -0.11385E-01         0.00000E+00
    0.30686E+00        -0.56923E-02         0.00000E+00
    0.30685E+00         0.00000E+00         0.00000E+00
    0.31236E+00        -0.85775E-01         0.00000E+00
    0.31214E+00        -0.80054E-01         0.00000E+00
    0.31194E+00        -0.74335E-01         0.00000E+00
    0.31175E+00        -0.68615E-01         0.00000E+00
    0.31157E+00        -0.62896E-01         0.00000E+00
    0.31142E+00        -0.57177E-01         0.00000E+00
    0.31127E+00        -0.51459E-01         0.00000E+00
    0.31115E+00        -0.45740E-01         0.00000E+00
    0.31103E+00        -0.40022E-01         0.00000E+00
    0.31094E+00        -0.34305E-01         0.00000E+00
    0.31085E+00        -0.28587E-01         0.00000E+00
    0.31079E+00        -0.22869E-01         0.00000E+00
    0.31073E+00        -0.17152E-01         0.00000E+00
    0.31070E+00        -0.11435E-01         0.00000E+00
    0.31067E+00        -0.57173E-02         0.00000E+00
    0.31067E+00         0.00000E+00         0.00000E+00
    0.31615E+00        -0.86155E-01         0.00000E+00
    0.31593E+00        -0.80409E-01         0.00000E+00
    0.31573E+00        -0.74664E-01         0.00000E+00
    0.31554E+00        -0.68919E-01         0.00000E+00
    0.31536E+00        -0.63175E-01         0.00000E+00
    0.31520E+00        -0.57431E-01         0.00000E+00
    0.31506E+00        -0.51687E-01         0.00000E+00
    0.31493E+00        -0.45943E-01         0.00000E+00
    0.31481E+00        -0.40200E-01         0.00000E+00
    0.31471E+00        -0.34457E-01         0.00000E+00
    0.31463E+00        -0.28714E-01         0.00000E+00
    0.31456E+00        -0.22971E-01         0.00000E+00
    0.31451E+00        -0.17228E-01         0.00000E+00
    0.31447E+00        -0.11485E-01         0.00000E+00
    0.31445E+00        -0.57426E-02         0.00000E+00
    0.31444E+00         0.00000E+00         0.00000E+00
    0.31991E+00        -0.86540E-01         0.00000E+00
    0.31968E+00        -0.80768E-01         0.00000E+00
    0.31948E+00        -0.74998E-01         0.00000E+00
    0.31928E+00        -0.69227E-01         0.00000E+00
    0.31910E+00        -0.63457E-01         0.00000E+00
    0.31894E+00        -0.57687E-01         0.00000E+00
    0.31880E+00        -0.51918E-01         0.00000E+00
    0.31867E+00        -0.46149E-01         0.00000E+00
    0.31855E+00        -0.40380E-01         0.00000E+00
    0.31845E+00        -0.34611E-01         0.00000E+00
    0.31837E+00        -0.28842E-01         0.00000E+00
    0.31830E+00        -0.23074E-01         0.00000E+00
    0.31824E+00        -0.17305E-01         0.00000E+00
    0.31820E+00        -0.11537E-01         0.00000E+00
    0.31818E+00        -0.57683E-02         0.00000E+00
    0.31817E+00         0.00000E+00         0.00000E+00
    0.32362E+00        -0.86930E-01         0.00000E+00
    0.32339E+00        -0.81133E-01         0.00000E+00
    0.32318E+00        -0.75336E-01         0.00000E+00
    0.32298E+00        -0.69539E-01         0.00000E+00
    0.32280E+00        -0.63743E-01         0.00000E+00
    0.32264E+00        -0.57948E-01         0.00000E+00
    0.32249E+00        -0.52152E-01         0.00000E+00
    0.32236E+00        -0.46357E-01         0.00000E+00
    0.32224E+00        -0.40562E-01         0.00000E+00
    0.32214E+00        -0.34767E-01         0.00000E+00
    0.32206E+00        -0.28972E-01         0.00000E+00
    0.32199E+00        -0.23178E-01         0.00000E+00
    0.32193E+00        -0.17383E-01         0.00000E+00
    0.32189E+00        -0.11589E-01         0.00000E+00
    0.32187E+00        -0.57944E-02         0.00000E+00
    0.32186E+00         0.00000E+00         0.00000E+00
    0.32729E+00        -0.87325E-01         0.00000E+00
    0.32706E+00        -0.81501E-01         0.00000E+00
    0.32684E+00        -0.75678E-01         0.00000E+00
    0.32664E+00        -0.69856E-01         0.00000E+00
    0.32646E+00        -0.64033E-01         0.00000E+00
    0.32630E+00        -0.58211E-01         0.00000E+00
    0.32615E+00        -0.52389E-01         0.00000E+00
    0.32601E+00        -0.46568E-01         0.00000E+00
    0.32589E+00        -0.40747E-01         0.00000E+00
    0.32579E+00        -0.34925E-01         0.00000E+00
    0.32570E+00        -0.29104E-01         0.00000E+00
    0.32563E+00        -0.23283E-01         0.00000E+00
    0.32558E+00        -0.17462E-01         0.00000E+00
    0.32554E+00        -0.11642E-01         0.00000E+00
    0.32552E+00        -0.58207E-02         0.00000E+00
    0.32551E+00         0.00000E+00         0.00000E+00
    0.33091E+00        -0.87725E-01         0.00000E+00
    0.33068E+00        -0.81875E-01         0.00000E+00
    0.33046E+00        -0.76025E-01         0.00000E+00
    0.33026E+00        -0.70176E-01         0.00000E+00
    0.33007E+00        -0.64327E-01         0.00000E+00
    0.32991E+00        -0.58478E-01         0.00000E+00
    0.32975E+00        -0.52630E-01         0.00000E+00
    0.32962E+00        -0.46781E-01         0.00000E+00
    0.32950E+00        -0.40933E-01         0.00000E+00
    0.32940E+00        -0.35085E-01         0.00000E+00
    0.32931E+00        -0.29238E-01         0.00000E+00
    0.32924E+00        -0.23390E-01         0.00000E+00
    0.32918E+00        -0.17542E-01         0.00000E+00
    0.32914E+00        -0.11695E-01         0.00000E+00
    0.32912E+00        -0.58475E-02         0.00000E+00
    0.32911E+00         0.00000E+00         0.00000E+00
    0.33449E+00        -0.88129E-01         0.00000E+00
    0.33425E+00        -0.82253E-01         0.00000E+00
    0.33403E+00        -0.76376E-01         0.00000E+00
    0.33383E+00        -0.70500E-01         0.00000E+00
    0.33364E+00        -0.64624E-01         0.00000E+00
    0.33347E+00        -0.58748E-01         0.00000E+00
    0.33332E+00        -0.52873E-01         0.00000E+00
    0.33318E+00        -0.46998E-01         0.00000E+00
    0.33306E+00        -0.41122E-01         0.00000E+00
    0.33296E+00        -0.35248E-01         0.00000E+00
    0.33287E+00        -0.29373E-01         0.00000E+00
    0.33280E+00        -0.23498E-01         0.00000E+00
    0.33274E+00        -0.17623E-01         0.00000E+00
    0.33270E+00        -0.11749E-01         0.00000E+00
    0.33267E+00        -0.58745E-02         0.00000E+00
    0.33267E+00         0.00000E+00         0.00000E+00
    0.33802E+00        -0.88539E-01         0.00000E+00
    0.33778E+00        -0.82635E-01         0.00000E+00
    0.33756E+00        -0.76731E-01         0.00000E+00
    0.33735E+00        -0.70827E-01         0.00000E+00
    0.33716E+00        -0.64924E-01         0.00000E+00
    0.33699E+00        -0.59021E-01         0.00000E+00
    0.33684E+00        -0.53119E-01         0.00000E+00
    0.33670E+00        -0.47216E-01         0.00000E+00
    0.33658E+00        -0.41314E-01         0.00000E+00
    0.33647E+00        -0.35411E-01         0.00000E+00
    0.33638E+00        -0.29509E-01         0.00000E+00
    0.33631E+00        -0.23607E-01         0.00000E+00
    0.33625E+00        -0.17705E-01         0.00000E+00
    0.33621E+00        -0.11804E-01         0.00000E+00
    0.33619E+00        -0.59018E-02         0.00000E+00
    0.33618E+00         0.00000E+00         0.00000E+00
    0.34150E+00        -0.88952E-01         0.00000E+00
    0.34126E+00        -0.83021E-01         0.00000E+00
    0.34104E+00        -0.77089E-01         0.00000E+00
    0.34083E+00        -0.71158E-01         0.00000E+00
    0.34064E+00        -0.65228E-01         0.00000E+00
    0.34047E+00        -0.59297E-01         0.00000E+00
    0.34031E+00        -0.53367E-01         0.00000E+00
    0.34017E+00        -0.47437E-01         0.00000E+00
    0.34005E+00        -0.41507E-01         0.00000E+00
    0.33994E+00        -0.35577E-01         0.00000E+00
    0.33985E+00        -0.29647E-01         0.00000E+00
    0.33978E+00        -0.23718E-01         0.00000E+00
    0.33972E+00        -0.17788E-01         0.00000E+00
    0.33968E+00        -0.11859E-01         0.00000E+00
    0.33965E+00        -0.59294E-02         0.00000E+00
    0.33965E+00         0.00000E+00         0.00000E+00
    0.34494E+00        -0.89370E-01         0.00000E+00
    0.34470E+00        -0.83411E-01         0.00000E+00
    0.34447E+00        -0.77452E-01         0.00000E+00
    0.34426E+00        -0.71493E-01         0.00000E+00
    0.34407E+00        -0.65534E-01         0.00000E+00
    0.34390E+00        -0.59576E-01         0.00000E+00
    0.34374E+00        -0.53618E-01         0.00000E+00
    0.34360E+00        -0.47660E-01         0.00000E+00
    0.34347E+00        -0.41702E-01         0.00000E+00
    0.34336E+00        -0.35744E-01         0.00000E+00
    0.34327E+00        -0.29787E-01         0.00000E+00
    0.34320E+00        -0.23829E-01         0.00000E+00
    0.34314E+00        -0.17872E-01         0.00000E+00
    0.34310E+00        -0.11915E-01         0.00000E+00
    0.34307E+00        -0.59573E-02         0.00000E+00
    0.34307E+00         0.00000E+00         0.00000E+00
    0.34833E+00        -0.89792E-01         0.00000E+00
    0.34809E+00        -0.83804E-01         0.00000E+00
    0.34786E+00        -0.77817E-01         0.00000E+00
    0.34765E+00        -0.71830E-01         0.00000E+00
    0.34745E+00        -0.65844E-01         0.00000E+00
    0.34728E+00        -0.59857E-01         0.00000E+00
    0.34712E+00        -0.53871E-01         0.00000E+00
    0.34698E+00        -0.47885E-01         0.00000E+00
    0.34685E+00        -0.41899E-01         0.00000E+00
    0.34674E+00        -0.35913E-01         0.00000E+00
    0.34665E+00        -0.29928E-01         0.00000E+00
    0.34657E+00        -0.23942E-01         0.00000E+00
    0.34652E+00        -0.17957E-01         0.00000E+00
    0.34647E+00        -0.11971E-01         0.00000E+00
    0.34645E+00        -0.59855E-02         0.00000E+00
    0.34644E+00         0.00000E+00         0.00000E+00
    0.35168E+00        -0.90217E-01         0.00000E+00
    0.35143E+00        -0.84202E-01         0.00000E+00
    0.35120E+00        -0.78186E-01         0.00000E+00
    0.35099E+00        -0.72171E-01         0.00000E+00
    0.35079E+00        -0.66156E-01         0.00000E+00
    0.35061E+00        -0.60142E-01         0.00000E+00
    0.35045E+00        -0.54127E-01         0.00000E+00
    0.35031E+00        -0.48112E-01         0.00000E+00
    0.35018E+00        -0.42098E-01         0.00000E+00
    0.35007E+00        -0.36084E-01         0.00000E+00
    0.34998E+00        -0.30070E-01         0.00000E+00
    0.34990E+00        -0.24056E-01         0.00000E+00
    0.34984E+00        -0.18042E-01         0.00000E+00
    0.34980E+00        -0.12028E-01         0.00000E+00
    0.34978E+00        -0.60139E-02         0.00000E+00
    0.34977E+00         0.00000E+00         0.00000E+00
    0.35497E+00        -0.90647E-01         0.00000E+00
    0.35472E+00        -0.84602E-01         0.00000E+00
    0.35449E+00        -0.78558E-01         0.00000E+00
    0.35428E+00        -0.72515E-01         0.00000E+00
    0.35408E+00        -0.66471E-01         0.00000E+00
    0.35390E+00        -0.60428E-01         0.00000E+00
    0.35374E+00        -0.54385E-01         0.00000E+00
    0.35359E+00        -0.48342E-01         0.00000E+00
    0.35347E+00        -0.42299E-01         0.00000E+00
    0.35335E+00        -0.36256E-01         0.00000E+00
    0.35326E+00        -0.30213E-01         0.00000E+00
    0.35319E+00        -0.24170E-01         0.00000E+00
    0.35313E+00        -0.18128E-01         0.00000E+00
    0.35308E+00        -0.12085E-01         0.00000E+00
    0.35306E+00        -0.60426E-02         0.00000E+00
    0.35305E+00         0.00000E+00         0.00000E+00
    0.35822E+00        -0.91079E-01         0.00000E+00
    0.35797E+00        -0.85006E-01         0.00000E+00
    0.35773E+00        -0.78934E-01         0.00000E+00
    0.35752E+00        -0.72861E-01         0.00000E+00
    0.35732E+00        -0.66789E-01         0.00000E+00
    0.35714E+00        -0.60717E-01         0.00000E+00
    0.35698E+00        -0.54645E-01         0.00000E+00
    0.35683E+00        -0.48573E-01         0.00000E+00
    0.35670E+00        -0.42501E-01         0.00000E+00
    0.35659E+00        -0.36429E-01         0.00000E+00
    0.35650E+00        -0.30358E-01         0.00000E+00
    0.35642E+00        -0.24286E-01         0.00000E+00
    0.35636E+00        -0.18214E-01         0.00000E+00
    0.35632E+00        -0.12143E-01         0.00000E+00
    0.35629E+00        -0.60715E-02         0.00000E+00
    0.35628E+00         0.00000E+00         0.00000E+00
    0.36142E+00        -0.91515E-01         0.00000E+00
    0.36116E+00        -0.85413E-01         0.00000E+00
    0.36093E+00        -0.79311E-01         0.00000E+00
    0.36071E+00        -0.73210E-01         0.00000E+00
    0.36051E+00        -0.67108E-01         0.00000E+00
    0.36033E+00        -0.61007E-01         0.00000E+00
    0.36016E+00        -0.54906E-01         0.00000E+00
    0.36002E+00        -0.48805E-01         0.00000E+00
    0.35989E+00        -0.42704E-01         0.00000E+00
    0.35978E+00        -0.36604E-01         0.00000E+00
    0.35968E+00        -0.30503E-01         0.00000E+00
    0.35961E+00        -0.24402E-01         0.00000E+00
    0.35955E+00        -0.18302E-01         0.00000E+00
    0.35950E+00        -0.12201E-01         0.00000E+00
    0.35948E+00        -0.61006E-02         0.00000E+00
    0.35947E+00         0.00000E+00         0.00000E+00
    0.36456E+00        -0.91953E-01         0.00000E+00
    0.36431E+00        -0.85822E-01         0.00000E+00
    0.36407E+00        -0.79691E-01         0.00000E+00
    0.36385E+00        -0.73561E-01         0.00000E+00
    0.36365E+00        -0.67430E-01         0.00000E+00
    0.36347E+00        -0.61300E-01         0.00000E+00
    0.36331E+00        -0.55170E-01         0.00000E+00
    0.36316E+00        -0.49039E-01         0.00000E+00
    0.36303E+00        -0.42909E-01         0.00000E+00
    0.36292E+00        -0.36779E-01         0.00000E+00
    0.36282E+00        -0.30649E-01         0.00000E+00
    0.36274E+00        -0.24519E-01         0.00000E+00
    0.36268E+00        -0.18390E-01         0.00000E+00
    0.36264E+00        -0.12260E-01         0.00000E+00
    0.36261E+00        -0.61298E-02         0.00000E+00
    0.36261E+00         0.00000E+00         0.00000E+00
    0.36766E+00        -0.92394E-01         0.00000E+00
    0.36741E+00        -0.86234E-01         0.00000E+00
    0.36717E+00        -0.80074E-01         0.00000E+00
    0.36695E+00        -0.73914E-01         0.00000E+00
    0.36675E+00        -0.67754E-01         0.00000E+00
    0.36656E+00        -0.61594E-01         0.00000E+00
    0.36640E+00        -0.55434E-01         0.00000E+00
    0.36625E+00        -0.49275E-01         0.00000E+00
    0.36612E+00        -0.43115E-01         0.00000E+00
    0.36601E+00        -0.36956E-01         0.00000E+00
    0.36591E+00        -0.30796E-01         0.00000E+00
    0.36583E+00        -0.24637E-01         0.00000E+00
    0.36577E+00        -0.18478E-01         0.00000E+00
    0.36573E+00        -0.12319E-01         0.00000E+00
    0.36570E+00        -0.61593E-02         0.00000E+00
    0.36569E+00         0.00000E+00         0.00000E+00
    0.37071E+00        -0.92837E-01         0.00000E+00
    0.37045E+00        -0.86647E-01         0.00000E+00
    0.37021E+00        -0.80458E-01         0.00000E+00
    0.36999E+00        -0.74268E-01         0.00000E+00
    0.36979E+00        -0.68079E-01         0.00000E+00
    0.36961E+00        -0.61890E-01         0.00000E+00
    0.36944E+00        -0.55700E-01         0.00000E+00
    0.36929E+00        -0.49511E-01         0.00000E+00
    0.36916E+00        -0.43322E-01         0.00000E+00
    0.36905E+00        -0.37133E-01         0.00000E+00
    0.36895E+00        -0.30944E-01         0.00000E+00
    0.36887E+00        -0.24755E-01         0.00000E+00
    0.36881E+00        -0.18566E-01         0.00000E+00
    0.36877E+00        -0.12378E-01         0.00000E+00
    0.36874E+00        -0.61888E-02         0.00000E+00
    0.36873E+00         0.00000E+00         0.00000E+00
    0.37371E+00        -0.93282E-01         0.00000E+00
    0.37345E+00        -0.87063E-01         0.00000E+00
    0.37321E+00        -0.80843E-01         0.00000E+00
    0.37299E+00        -0.74624E-01         0.00000E+00
    0.37279E+00        -0.68405E-01         0.00000E+00
    0.37260E+00        -0.62186E-01         0.00000E+00
    0.37243E+00        -0.55968E-01         0.00000E+00
    0.37228E+00        -0.49749E-01         0.00000E+00
    0.37215E+00        -0.43530E-01         0.00000E+00
    0.37204E+00        -0.37311E-01         0.00000E+00
    0.37194E+00        -0.31093E-01         0.00000E+00
    0.37187E+00        -0.24874E-01         0.00000E+00
    0.37180E+00        -0.18655E-01         0.00000E+00
    0.37176E+00        -0.12437E-01         0.00000E+00
    0.37173E+00        -0.62185E-02         0.00000E+00
    0.37173E+00         0.00000E+00         0.00000E+00
    0.37666E+00        -0.93728E-01         0.00000E+00
    0.37640E+00        -0.87479E-01         0.00000E+00
    0.37616E+00        -0.81230E-01         0.00000E+00
    0.37593E+00        -0.74982E-01         0.00000E+00
    0.37573E+00        -0.68733E-01         0.00000E+00
    0.37555E+00        -0.62484E-01         0.00000E+00
    0.37538E+00        -0.56235E-01         0.00000E+00
    0.37523E+00        -0.49987E-01         0.00000E+00
    0.37510E+00        -0.43738E-01         0.00000E+00
    0.37498E+00        -0.37490E-01         0.00000E+00
    0.37489E+00        -0.31241E-01         0.00000E+00
    0.37481E+00        -0.24993E-01         0.00000E+00
    0.37475E+00        -0.18745E-01         0.00000E+00
    0.37470E+00        -0.12496E-01         0.00000E+00
    0.37468E+00        -0.62482E-02         0.00000E+00
    0.37467E+00         0.00000E+00         0.00000E+00
    0.37955E+00        -0.94176E-01         0.00000E+00
    0.37929E+00        -0.87897E-01         0.00000E+00
    0.37905E+00        -0.81618E-01         0.00000E+00
    0.37883E+00        -0.75340E-01         0.00000E+00
    0.37863E+00        -0.69061E-01         0.00000E+00
    0.37844E+00        -0.62782E-01         0.00000E+00
    0.37827E+00        -0.56504E-01         0.00000E+00
    0.37812E+00        -0.50225E-01         0.00000E+00
    0.37799E+00        -0.43947E-01         0.00000E+00
    0.37788E+00        -0.37669E-01         0.00000E+00
    0.37778E+00        -0.31390E-01         0.00000E+00
    0.37770E+00        -0.25112E-01         0.00000E+00
    0.37764E+00        -0.18834E-01         0.00000E+00
    0.37759E+00        -0.12556E-01         0.00000E+00
    0.37757E+00        -0.62780E-02         0.00000E+00
    0.37756E+00         0.00000E+00         0.00000E+00
    0.38240E+00        -0.94624E-01         0.00000E+00
    0.38214E+00        -0.88315E-01         0.00000E+00
    0.38190E+00        -0.82007E-01         0.00000E+00
    0.38167E+00        -0.75698E-01         0.00000E+00
    0.38147E+00        -0.69390E-01         0.00000E+00
    0.38128E+00        -0.63081E-01         0.00000E+00
    0.38112E+00        -0.56772E-01         0.00000E+00
    0.38096E+00        -0.50464E-01         0.00000E+00
    0.38083E+00        -0.44156E-01         0.00000E+00
    0.38072E+00        -0.37847E-01         0.00000E+00
    0.38062E+00        -0.31539E-01         0.00000E+00
    0.38054E+00        -0.25231E-01         0.00000E+00
    0.38048E+00        -0.18923E-01         0.00000E+00
    0.38044E+00        -0.12615E-01         0.00000E+00
    0.38041E+00        -0.63077E-02         0.00000E+00
    0.38040E+00         0.00000E+00         0.00000E+00
    0.38519E+00        -0.95072E-01         0.00000E+00
    0.38493E+00        -0.88734E-01         0.00000E+00
    0.38469E+00        -0.82395E-01         0.00000E+00
    0.38447E+00        -0.76057E-01         0.00000E+00
    0.38426E+00        -0.69718E-01         0.00000E+00
    0.38408E+00        -0.63380E-01         0.00000E+00
    0.38391E+00        -0.57041E-01         0.00000E+00
    0.38376E+00        -0.50703E-01         0.00000E+00
    0.38363E+00        -0.44364E-01         0.00000E+00
    0.38351E+00        -0.38026E-01         0.00000E+00
    0.38341E+00        -0.31688E-01         0.00000E+00
    0.38334E+00        -0.25350E-01         0.00000E+00
    0.38327E+00        -0.19012E-01         0.00000E+00
    0.38323E+00        -0.12674E-01         0.00000E+00
    0.38320E+00        -0.63371E-02         0.00000E+00
    0.38320E+00         0.00000E+00         0.00000E+00
    0.38794E+00        -0.95520E-01         0.00000E+00
    0.38768E+00        -0.89153E-01         0.00000E+00
    0.38744E+00        -0.82785E-01         0.00000E+00
    0.38721E+00        -0.76416E-01         0.00000E+00
    0.38701E+00        -0.70047E-01         0.00000E+00
    0.38682E+00        -0.63678E-01         0.00000E+00
    0.38665E+00        -0.57309E-01         0.00000E+00
    0.38650E+00        -0.50941E-01         0.00000E+00
    0.38637E+00        -0.44572E-01         0.00000E+00
    0.38625E+00        -0.38204E-01         0.00000E+00
    0.38616E+00        -0.31835E-01         0.00000E+00
    0.38608E+00        -0.25467E-01         0.00000E+00
    0.38602E+00        -0.19100E-01         0.00000E+00
    0.38597E+00        -0.12732E-01         0.00000E+00
    0.38595E+00        -0.63664E-02         0.00000E+00
    0.38594E+00         0.00000E+00         0.00000E+00
    0.39064E+00        -0.95971E-01         0.00000E+00
    0.39037E+00        -0.89577E-01         0.00000E+00
    0.39013E+00        -0.83176E-01         0.00000E+00
    0.38990E+00        -0.76776E-01         0.00000E+00
    0.38970E+00        -0.70376E-01         0.00000E+00
    0.38951E+00        -0.63976E-01         0.00000E+00
    0.38934E+00        -0.57577E-01         0.00000E+00
    0.38919E+00        -0.51178E-01         0.00000E+00
    0.38906E+00        -0.44779E-01         0.00000E+00
    0.38894E+00        -0.38380E-01         0.00000E+00
    0.38885E+00        -0.31982E-01         0.00000E+00
    0.38877E+00        -0.25584E-01         0.00000E+00
    0.38871E+00        -0.19186E-01         0.00000E+00
    0.38867E+00        -0.12788E-01         0.00000E+00
    0.38864E+00        -0.63906E-02         0.00000E+00
    0.38864E+00         0.00000E+00         0.00000E+00
CELL_DATA       1350
VECTORS vDarcy double 
    0.32387E-08         0.19944E-11         0.00000E+00
    0.32387E-08         0.88252E-11         0.00000E+00
    0.32388E-08         0.14421E-10         0.00000E+00
    0.32391E-08         0.18254E-10         0.00000E+00
    0.32392E-08         0.20736E-10         0.00000E+00
    0.32392E-08         0.22065E-10         0.00000E+00
    0.32393E-08         0.22378E-10         0.00000E+00
    0.32393E-08         0.21793E-10         0.00000E+00
    0.32393E-08         0.20421E-10         0.00000E+00
    0.32393E-08         0.18367E-10         0.00000E+00
    0.32393E-08         0.15731E-10         0.00000E+00
    0.32393E-08         0.12606E-10         0.00000E+00
    0.32393E-08         0.90669E-11         0.00000E+00
    0.32392E-08         0.51227E-11         0.00000E+00
    0.32390E-08         0.11902E-11         0.00000E+00
    0.97193E-08         0.29249E-11         0.00000E+00
    0.97188E-08         0.89208E-11         0.00000E+00
    0.97186E-08         0.14043E-10         0.00000E+00
    0.97185E-08         0.17902E-10         0.00000E+00
    0.97184E-08         0.20464E-10         0.00000E+00
    0.97184E-08         0.21857E-10         0.00000E+00
    0.97184E-08         0.22215E-10         0.00000E+00
    0.97184E-08         0.21662E-10         0.00000E+00
    0.97183E-08         0.20313E-10         0.00000E+00
    0.97183E-08         0.18276E-10         0.00000E+00
    0.97183E-08         0.15656E-10         0.00000E+00
    0.97183E-08         0.12553E-10         0.00000E+00
    0.97182E-08         0.90742E-11         0.00000E+00
    0.97181E-08         0.53825E-11         0.00000E+00
    0.97179E-08         0.17013E-11         0.00000E+00
    0.16201E-07         0.34471E-11         0.00000E+00
    0.16201E-07         0.93187E-11         0.00000E+00
    0.16200E-07         0.14114E-10         0.00000E+00
    0.16200E-07         0.17760E-10         0.00000E+00
    0.16200E-07         0.20247E-10         0.00000E+00
    0.16199E-07         0.21631E-10         0.00000E+00
    0.16199E-07         0.22004E-10         0.00000E+00
    0.16199E-07         0.21474E-10         0.00000E+00
    0.16199E-07         0.20152E-10         0.00000E+00
    0.16199E-07         0.18145E-10         0.00000E+00
    0.16199E-07         0.15563E-10         0.00000E+00
    0.16199E-07         0.12517E-10         0.00000E+00
    0.16199E-07         0.91287E-11         0.00000E+00
    0.16199E-07         0.55291E-11         0.00000E+00
    0.16199E-07         0.18697E-11         0.00000E+00
    0.22686E-07         0.35297E-11         0.00000E+00
    0.22685E-07         0.95521E-11         0.00000E+00
    0.22684E-07         0.14251E-10         0.00000E+00
    0.22684E-07         0.17761E-10         0.00000E+00
    0.22683E-07         0.20143E-10         0.00000E+00
    0.22683E-07         0.21467E-10         0.00000E+00
    0.22683E-07         0.21817E-10         0.00000E+00
    0.22683E-07         0.21288E-10         0.00000E+00
    0.22682E-07         0.19982E-10         0.00000E+00
    0.22682E-07         0.18005E-10         0.00000E+00
    0.22682E-07         0.15464E-10         0.00000E+00
    0.22682E-07         0.12470E-10         0.00000E+00
    0.22682E-07         0.91342E-11         0.00000E+00
    0.22682E-07         0.55717E-11         0.00000E+00
    0.22682E-07         0.18682E-11         0.00000E+00
    0.29174E-07         0.35531E-11         0.00000E+00
    0.29173E-07         0.96011E-11         0.00000E+00
    0.29172E-07         0.14292E-10         0.00000E+00
    0.29172E-07         0.17743E-10         0.00000E+00
    0.29171E-07         0.20059E-10         0.00000E+00
    0.29171E-07         0.21330E-10         0.00000E+00
    0.29170E-07         0.21649E-10         0.00000E+00
    0.29170E-07         0.21110E-10         0.00000E+00
    0.29170E-07         0.19812E-10         0.00000E+00
    0.29169E-07         0.17857E-10         0.00000E+00
    0.29169E-07         0.15349E-10         0.00000E+00
    0.29169E-07         0.12392E-10         0.00000E+00
    0.29169E-07         0.90927E-11         0.00000E+00
    0.29169E-07         0.55502E-11         0.00000E+00
    0.29169E-07         0.18664E-11         0.00000E+00
    0.35666E-07         0.35438E-11         0.00000E+00
    0.35665E-07         0.95753E-11         0.00000E+00
    0.35665E-07         0.14242E-10         0.00000E+00
    0.35664E-07         0.17660E-10         0.00000E+00
    0.35663E-07         0.19937E-10         0.00000E+00
    0.35663E-07         0.21174E-10         0.00000E+00
    0.35662E-07         0.21469E-10         0.00000E+00
    0.35662E-07         0.20922E-10         0.00000E+00
    0.35661E-07         0.19629E-10         0.00000E+00
    0.35661E-07         0.17692E-10         0.00000E+00
    0.35661E-07         0.15211E-10         0.00000E+00
    0.35661E-07         0.12286E-10         0.00000E+00
    0.35661E-07         0.90187E-11         0.00000E+00
    0.35661E-07         0.55081E-11         0.00000E+00
    0.35661E-07         0.18520E-11         0.00000E+00
    0.42165E-07         0.35160E-11         0.00000E+00
    0.42164E-07         0.95011E-11         0.00000E+00
    0.42163E-07         0.14129E-10         0.00000E+00
    0.42162E-07         0.17513E-10         0.00000E+00
    0.42161E-07         0.19759E-10         0.00000E+00
    0.42160E-07         0.20972E-10         0.00000E+00
    0.42160E-07         0.21253E-10         0.00000E+00
    0.42159E-07         0.20702E-10         0.00000E+00
    0.42159E-07         0.19418E-10         0.00000E+00
    0.42159E-07         0.17499E-10         0.00000E+00
    0.42158E-07         0.15045E-10         0.00000E+00
    0.42158E-07         0.12153E-10         0.00000E+00
    0.42158E-07         0.89222E-11         0.00000E+00
    0.42158E-07         0.54497E-11         0.00000E+00
    0.42158E-07         0.18326E-11         0.00000E+00
    0.48670E-07         0.34750E-11         0.00000E+00
    0.48668E-07         0.93909E-11         0.00000E+00
    0.48667E-07         0.13965E-10         0.00000E+00
    0.48666E-07         0.17307E-10         0.00000E+00
    0.48666E-07         0.19522E-10         0.00000E+00
    0.48665E-07         0.20715E-10         0.00000E+00
    0.48664E-07         0.20987E-10         0.00000E+00
    0.48664E-07         0.20438E-10         0.00000E+00
    0.48663E-07         0.19166E-10         0.00000E+00
    0.48663E-07         0.17270E-10         0.00000E+00
    0.48663E-07         0.14847E-10         0.00000E+00
    0.48662E-07         0.11993E-10         0.00000E+00
    0.48662E-07         0.88044E-11         0.00000E+00
    0.48662E-07         0.53779E-11         0.00000E+00
    0.48662E-07         0.18085E-11         0.00000E+00
    0.55182E-07         0.34227E-11         0.00000E+00
    0.55181E-07         0.92501E-11         0.00000E+00
    0.55180E-07         0.13756E-10         0.00000E+00
    0.55179E-07         0.17047E-10         0.00000E+00
    0.55178E-07         0.19227E-10         0.00000E+00
    0.55177E-07         0.20399E-10         0.00000E+00
    0.55176E-07         0.20664E-10         0.00000E+00
    0.55176E-07         0.20121E-10         0.00000E+00
    0.55175E-07         0.18867E-10         0.00000E+00
    0.55175E-07         0.16999E-10         0.00000E+00
    0.55175E-07         0.14612E-10         0.00000E+00
    0.55174E-07         0.11803E-10         0.00000E+00
    0.55174E-07         0.86648E-11         0.00000E+00
    0.55174E-07         0.52925E-11         0.00000E+00
    0.55174E-07         0.17798E-11         0.00000E+00
    0.61704E-07         0.33600E-11         0.00000E+00
    0.61702E-07         0.90812E-11         0.00000E+00
    0.61701E-07         0.13505E-10         0.00000E+00
    0.61700E-07         0.16735E-10         0.00000E+00
    0.61699E-07         0.18875E-10         0.00000E+00
    0.61698E-07         0.20025E-10         0.00000E+00
    0.61697E-07         0.20283E-10         0.00000E+00
    0.61696E-07         0.19748E-10         0.00000E+00
    0.61696E-07         0.18516E-10         0.00000E+00
    0.61695E-07         0.16682E-10         0.00000E+00
    0.61695E-07         0.14339E-10         0.00000E+00
    0.61695E-07         0.11582E-10         0.00000E+00
    0.61695E-07         0.85022E-11         0.00000E+00
    0.61694E-07         0.51931E-11         0.00000E+00
    0.61694E-07         0.17463E-11         0.00000E+00
    0.68235E-07         0.32875E-11         0.00000E+00
    0.68233E-07         0.88852E-11         0.00000E+00
    0.68232E-07         0.13213E-10         0.00000E+00
    0.68230E-07         0.16374E-10         0.00000E+00
    0.68229E-07         0.18467E-10         0.00000E+00
    0.68228E-07         0.19591E-10         0.00000E+00
    0.68228E-07         0.19843E-10         0.00000E+00
    0.68227E-07         0.19319E-10         0.00000E+00
    0.68226E-07         0.18113E-10         0.00000E+00
    0.68226E-07         0.16317E-10         0.00000E+00
    0.68225E-07         0.14025E-10         0.00000E+00
    0.68225E-07         0.11328E-10         0.00000E+00
    0.68225E-07         0.83157E-11         0.00000E+00
    0.68225E-07         0.50791E-11         0.00000E+00
    0.68224E-07         0.17080E-11         0.00000E+00
    0.74776E-07         0.32053E-11         0.00000E+00
    0.74775E-07         0.86627E-11         0.00000E+00
    0.74773E-07         0.12882E-10         0.00000E+00
    0.74772E-07         0.15963E-10         0.00000E+00
    0.74770E-07         0.18002E-10         0.00000E+00
    0.74769E-07         0.19097E-10         0.00000E+00
    0.74768E-07         0.19343E-10         0.00000E+00
    0.74768E-07         0.18831E-10         0.00000E+00
    0.74767E-07         0.17655E-10         0.00000E+00
    0.74766E-07         0.15904E-10         0.00000E+00
    0.74766E-07         0.13670E-10         0.00000E+00
    0.74766E-07         0.11040E-10         0.00000E+00
    0.74765E-07         0.81045E-11         0.00000E+00
    0.74765E-07         0.49501E-11         0.00000E+00
    0.74765E-07         0.16646E-11         0.00000E+00
    0.81329E-07         0.31133E-11         0.00000E+00
    0.81327E-07         0.84137E-11         0.00000E+00
    0.81326E-07         0.12511E-10         0.00000E+00
    0.81324E-07         0.15502E-10         0.00000E+00
    0.81323E-07         0.17482E-10         0.00000E+00
    0.81322E-07         0.18545E-10         0.00000E+00
    0.81321E-07         0.18782E-10         0.00000E+00
    0.81320E-07         0.18285E-10         0.00000E+00
    0.81319E-07         0.17142E-10         0.00000E+00
    0.81319E-07         0.15442E-10         0.00000E+00
    0.81318E-07         0.13272E-10         0.00000E+00
    0.81318E-07         0.10719E-10         0.00000E+00
    0.81317E-07         0.78681E-11         0.00000E+00
    0.81317E-07         0.48056E-11         0.00000E+00
    0.81317E-07         0.16160E-11         0.00000E+00
    0.87895E-07         0.30116E-11         0.00000E+00
    0.87893E-07         0.81381E-11         0.00000E+00
    0.87891E-07         0.12100E-10         0.00000E+00
    0.87889E-07         0.14992E-10         0.00000E+00
    0.87888E-07         0.16906E-10         0.00000E+00
    0.87886E-07         0.17932E-10         0.00000E+00
    0.87885E-07         0.18161E-10         0.00000E+00
    0.87884E-07         0.17679E-10         0.00000E+00
    0.87884E-07         0.16573E-10         0.00000E+00
    0.87883E-07         0.14928E-10         0.00000E+00
    0.87882E-07         0.12830E-10         0.00000E+00
    0.87882E-07         0.10362E-10         0.00000E+00
    0.87882E-07         0.76061E-11         0.00000E+00
    0.87881E-07         0.46455E-11         0.00000E+00
    0.87881E-07         0.15621E-11         0.00000E+00
    0.94473E-07         0.29000E-11         0.00000E+00
    0.94471E-07         0.78356E-11         0.00000E+00
    0.94469E-07         0.11649E-10         0.00000E+00
    0.94467E-07         0.14432E-10         0.00000E+00
    0.94465E-07         0.16273E-10         0.00000E+00
    0.94464E-07         0.17259E-10         0.00000E+00
    0.94463E-07         0.17478E-10         0.00000E+00
    0.94462E-07         0.17013E-10         0.00000E+00
    0.94461E-07         0.15947E-10         0.00000E+00
    0.94460E-07         0.14364E-10         0.00000E+00
    0.94460E-07         0.12345E-10         0.00000E+00
    0.94459E-07         0.99695E-11         0.00000E+00
    0.94459E-07         0.73179E-11         0.00000E+00
    0.94459E-07         0.44694E-11         0.00000E+00
    0.94459E-07         0.15029E-11         0.00000E+00
    0.10107E-06         0.27783E-11         0.00000E+00
    0.10106E-06         0.75057E-11         0.00000E+00
    0.10106E-06         0.11157E-10         0.00000E+00
    0.10106E-06         0.13821E-10         0.00000E+00
    0.10106E-06         0.15581E-10         0.00000E+00
    0.10106E-06         0.16524E-10         0.00000E+00
    0.10105E-06         0.16732E-10         0.00000E+00
    0.10105E-06         0.16285E-10         0.00000E+00
    0.10105E-06         0.15264E-10         0.00000E+00
    0.10105E-06         0.13748E-10         0.00000E+00
    0.10105E-06         0.11815E-10         0.00000E+00
    0.10105E-06         0.95409E-11         0.00000E+00
    0.10105E-06         0.70030E-11         0.00000E+00
    0.10105E-06         0.42770E-11         0.00000E+00
    0.10105E-06         0.14382E-11         0.00000E+00
    0.10767E-06         0.26463E-11         0.00000E+00
    0.10767E-06         0.71478E-11         0.00000E+00
    0.10767E-06         0.10623E-10         0.00000E+00
    0.10766E-06         0.13157E-10         0.00000E+00
    0.10766E-06         0.14831E-10         0.00000E+00
    0.10766E-06         0.15727E-10         0.00000E+00
    0.10766E-06         0.15922E-10         0.00000E+00
    0.10766E-06         0.15495E-10         0.00000E+00
    0.10766E-06         0.14523E-10         0.00000E+00
    0.10766E-06         0.13079E-10         0.00000E+00
    0.10766E-06         0.11239E-10         0.00000E+00
    0.10766E-06         0.90754E-11         0.00000E+00
    0.10766E-06         0.66611E-11         0.00000E+00
    0.10766E-06         0.40680E-11         0.00000E+00
    0.10766E-06         0.13679E-11         0.00000E+00
    0.11429E-06         0.25038E-11         0.00000E+00
    0.11429E-06         0.67613E-11         0.00000E+00
    0.11429E-06         0.10047E-10         0.00000E+00
    0.11429E-06         0.12440E-10         0.00000E+00
    0.11428E-06         0.14021E-10         0.00000E+00
    0.11428E-06         0.14864E-10         0.00000E+00
    0.11428E-06         0.15047E-10         0.00000E+00
    0.11428E-06         0.14641E-10         0.00000E+00
    0.11428E-06         0.13721E-10         0.00000E+00
    0.11428E-06         0.12356E-10         0.00000E+00
    0.11428E-06         0.10616E-10         0.00000E+00
    0.11428E-06         0.85720E-11         0.00000E+00
    0.11428E-06         0.62912E-11         0.00000E+00
    0.11428E-06         0.38420E-11         0.00000E+00
    0.11428E-06         0.12919E-11         0.00000E+00
    0.12093E-06         0.23503E-11         0.00000E+00
    0.12093E-06         0.63452E-11         0.00000E+00
    0.12093E-06         0.94258E-11         0.00000E+00
    0.12092E-06         0.11669E-10         0.00000E+00
    0.12092E-06         0.13148E-10         0.00000E+00
    0.12092E-06         0.13936E-10         0.00000E+00
    0.12092E-06         0.14104E-10         0.00000E+00
    0.12092E-06         0.13722E-10         0.00000E+00
    0.12092E-06         0.12857E-10         0.00000E+00
    0.12092E-06         0.11576E-10         0.00000E+00
    0.12091E-06         0.99455E-11         0.00000E+00
    0.12091E-06         0.80297E-11         0.00000E+00
    0.12091E-06         0.58928E-11         0.00000E+00
    0.12091E-06         0.35986E-11         0.00000E+00
    0.12091E-06         0.12100E-11         0.00000E+00
    0.12759E-06         0.21857E-11         0.00000E+00
    0.12758E-06         0.58987E-11         0.00000E+00
    0.12758E-06         0.87595E-11         0.00000E+00
    0.12758E-06         0.10840E-10         0.00000E+00
    0.12758E-06         0.12211E-10         0.00000E+00
    0.12757E-06         0.12939E-10         0.00000E+00
    0.12757E-06         0.13092E-10         0.00000E+00
    0.12757E-06         0.12734E-10         0.00000E+00
    0.12757E-06         0.11929E-10         0.00000E+00
    0.12757E-06         0.10739E-10         0.00000E+00
    0.12757E-06         0.92252E-11         0.00000E+00
    0.12757E-06         0.74473E-11         0.00000E+00
    0.12757E-06         0.54650E-11         0.00000E+00
    0.12757E-06         0.33371E-11         0.00000E+00
    0.12757E-06         0.11220E-11         0.00000E+00
    0.13426E-06         0.20095E-11         0.00000E+00
    0.13425E-06         0.54206E-11         0.00000E+00
    0.13425E-06         0.80460E-11         0.00000E+00
    0.13425E-06         0.99531E-11         0.00000E+00
    0.13425E-06         0.11207E-10         0.00000E+00
    0.13424E-06         0.11872E-10         0.00000E+00
    0.13424E-06         0.12008E-10         0.00000E+00
    0.13424E-06         0.11677E-10         0.00000E+00
    0.13424E-06         0.10936E-10         0.00000E+00
    0.13424E-06         0.98430E-11         0.00000E+00
    0.13424E-06         0.84537E-11         0.00000E+00
    0.13424E-06         0.68235E-11         0.00000E+00
    0.13424E-06         0.50067E-11         0.00000E+00
    0.13424E-06         0.30571E-11         0.00000E+00
    0.13424E-06         0.10278E-11         0.00000E+00
    0.14095E-06         0.18212E-11         0.00000E+00
    0.14094E-06         0.49099E-11         0.00000E+00
    0.14094E-06         0.72838E-11         0.00000E+00
    0.14094E-06         0.90054E-11         0.00000E+00
    0.14093E-06         0.10135E-10         0.00000E+00
    0.14093E-06         0.10731E-10         0.00000E+00
    0.14093E-06         0.10850E-10         0.00000E+00
    0.14093E-06         0.10547E-10         0.00000E+00
    0.14093E-06         0.98746E-11         0.00000E+00
    0.14093E-06         0.88851E-11         0.00000E+00
    0.14093E-06         0.76293E-11         0.00000E+00
    0.14093E-06         0.61570E-11         0.00000E+00
    0.14093E-06         0.45170E-11         0.00000E+00
    0.14092E-06         0.27578E-11         0.00000E+00
    0.14092E-06         0.92718E-12         0.00000E+00
    0.14765E-06         0.16205E-11         0.00000E+00
    0.14765E-06         0.43653E-11         0.00000E+00
    0.14765E-06         0.64709E-11         0.00000E+00
    0.14764E-06         0.79947E-11         0.00000E+00
    0.14764E-06         0.89917E-11         0.00000E+00
    0.14764E-06         0.95149E-11         0.00000E+00
    0.14764E-06         0.96151E-11         0.00000E+00
    0.14763E-06         0.93417E-11         0.00000E+00
    0.14763E-06         0.87424E-11         0.00000E+00
    0.14763E-06         0.78635E-11         0.00000E+00
    0.14763E-06         0.67500E-11         0.00000E+00
    0.14763E-06         0.54459E-11         0.00000E+00
    0.14763E-06         0.39946E-11         0.00000E+00
    0.14763E-06         0.24385E-11         0.00000E+00
    0.14763E-06         0.81980E-12         0.00000E+00
    0.15438E-06         0.14067E-11         0.00000E+00
    0.15437E-06         0.37854E-11         0.00000E+00
    0.15437E-06         0.56054E-11         0.00000E+00
    0.15437E-06         0.69186E-11         0.00000E+00
    0.15436E-06         0.77743E-11         0.00000E+00
    0.15436E-06         0.82197E-11         0.00000E+00
    0.15436E-06         0.82999E-11         0.00000E+00
    0.15436E-06         0.80584E-11         0.00000E+00
    0.15436E-06         0.75369E-11         0.00000E+00
    0.15436E-06         0.67756E-11         0.00000E+00
    0.15436E-06         0.58136E-11         0.00000E+00
    0.15435E-06         0.46888E-11         0.00000E+00
    0.15435E-06         0.34383E-11         0.00000E+00
    0.15435E-06         0.20986E-11         0.00000E+00
    0.15435E-06         0.70545E-12         0.00000E+00
    0.16112E-06         0.11795E-11         0.00000E+00
    0.16112E-06         0.31688E-11         0.00000E+00
    0.16111E-06         0.46852E-11         0.00000E+00
    0.16111E-06         0.57744E-11         0.00000E+00
    0.16111E-06         0.64798E-11         0.00000E+00
    0.16110E-06         0.68425E-11         0.00000E+00
    0.16110E-06         0.69014E-11         0.00000E+00
    0.16110E-06         0.66938E-11         0.00000E+00
    0.16110E-06         0.62550E-11         0.00000E+00
    0.16110E-06         0.56188E-11         0.00000E+00
    0.16110E-06         0.48179E-11         0.00000E+00
    0.16110E-06         0.38837E-11         0.00000E+00
    0.16110E-06         0.28468E-11         0.00000E+00
    0.16110E-06         0.17371E-11         0.00000E+00
    0.16110E-06         0.58386E-12         0.00000E+00
    0.16788E-06         0.93812E-12         0.00000E+00
    0.16788E-06         0.25141E-11         0.00000E+00
    0.16787E-06         0.37079E-11         0.00000E+00
    0.16787E-06         0.45592E-11         0.00000E+00
    0.16787E-06         0.51050E-11         0.00000E+00
    0.16787E-06         0.53799E-11         0.00000E+00
    0.16786E-06         0.54163E-11         0.00000E+00
    0.16786E-06         0.52446E-11         0.00000E+00
    0.16786E-06         0.48936E-11         0.00000E+00
    0.16786E-06         0.43903E-11         0.00000E+00
    0.16786E-06         0.37605E-11         0.00000E+00
    0.16786E-06         0.30287E-11         0.00000E+00
    0.16786E-06         0.22186E-11         0.00000E+00
    0.16786E-06         0.13532E-11         0.00000E+00
    0.16786E-06         0.45472E-12         0.00000E+00
    0.17466E-06         0.68209E-12         0.00000E+00
    0.17466E-06         0.18194E-11         0.00000E+00
    0.17465E-06         0.26712E-11         0.00000E+00
    0.17465E-06         0.32702E-11         0.00000E+00
    0.17465E-06         0.36467E-11         0.00000E+00
    0.17464E-06         0.38284E-11         0.00000E+00
    0.17464E-06         0.38408E-11         0.00000E+00
    0.17464E-06         0.37073E-11         0.00000E+00
    0.17464E-06         0.34494E-11         0.00000E+00
    0.17464E-06         0.30870E-11         0.00000E+00
    0.17464E-06         0.26387E-11         0.00000E+00
    0.17464E-06         0.21217E-11         0.00000E+00
    0.17464E-06         0.15523E-11         0.00000E+00
    0.17464E-06         0.94595E-12         0.00000E+00
    0.17464E-06         0.31774E-12         0.00000E+00
    0.18146E-06         0.41074E-12         0.00000E+00
    0.18146E-06         0.10833E-11         0.00000E+00
    0.18145E-06         0.15725E-11         0.00000E+00
    0.18145E-06         0.19040E-11         0.00000E+00
    0.18145E-06         0.21011E-11         0.00000E+00
    0.18144E-06         0.21841E-11         0.00000E+00
    0.18144E-06         0.21711E-11         0.00000E+00
    0.18144E-06         0.20780E-11         0.00000E+00
    0.18144E-06         0.19189E-11         0.00000E+00
    0.18144E-06         0.17059E-11         0.00000E+00
    0.18144E-06         0.14499E-11         0.00000E+00
    0.18143E-06         0.11604E-11         0.00000E+00
    0.18143E-06         0.84603E-12         0.00000E+00
    0.18143E-06         0.51436E-12         0.00000E+00
    0.18143E-06         0.17257E-12         0.00000E+00
    0.18828E-06         0.12342E-12         0.00000E+00
    0.18827E-06         0.30381E-12         0.00000E+00
    0.18827E-06         0.40905E-12         0.00000E+00
    0.18827E-06         0.45751E-12         0.00000E+00
    0.18826E-06         0.46461E-12         0.00000E+00
    0.18826E-06         0.44309E-12         0.00000E+00
    0.18826E-06         0.40320E-12         0.00000E+00
    0.18826E-06         0.35295E-12         0.00000E+00
    0.18825E-06         0.29832E-12         0.00000E+00
    0.18825E-06         0.24351E-12         0.00000E+00
    0.18825E-06         0.19119E-12         0.00000E+00
    0.18825E-06         0.14269E-12         0.00000E+00
    0.18825E-06         0.98278E-13         0.00000E+00
    0.18825E-06         0.57390E-13         0.00000E+00
    0.18825E-06         0.18855E-13         0.00000E+00
    0.19511E-06        -0.18058E-12         0.00000E+00
    0.19511E-06        -0.52090E-12         0.00000E+00
    0.19510E-06        -0.82184E-12         0.00000E+00
    0.19510E-06        -0.10729E-11         0.00000E+00
    0.19510E-06        -0.12668E-11         0.00000E+00
    0.19509E-06        -0.13989E-11         0.00000E+00
    0.19509E-06        -0.14672E-11         0.00000E+00
    0.19509E-06        -0.14721E-11         0.00000E+00
    0.19509E-06        -0.14161E-11         0.00000E+00
    0.19509E-06        -0.13036E-11         0.00000E+00
    0.19509E-06        -0.11405E-11         0.00000E+00
    0.19509E-06        -0.93405E-12         0.00000E+00
    0.19509E-06        -0.69280E-12         0.00000E+00
    0.19508E-06        -0.42606E-12         0.00000E+00
    0.19508E-06        -0.14376E-12         0.00000E+00
    0.20197E-06        -0.50199E-12         0.00000E+00
    0.20196E-06        -0.13928E-11         0.00000E+00
    0.20196E-06        -0.21232E-11         0.00000E+00
    0.20195E-06        -0.26909E-11         0.00000E+00
    0.20195E-06        -0.30972E-11         0.00000E+00
    0.20195E-06        -0.33462E-11         0.00000E+00
    0.20195E-06        -0.34445E-11         0.00000E+00
    0.20194E-06        -0.34015E-11         0.00000E+00
    0.20194E-06        -0.32286E-11         0.00000E+00
    0.20194E-06        -0.29392E-11         0.00000E+00
    0.20194E-06        -0.25482E-11         0.00000E+00
    0.20194E-06        -0.20723E-11         0.00000E+00
    0.20194E-06        -0.15291E-11         0.00000E+00
    0.20194E-06        -0.93713E-12         0.00000E+00
    0.20194E-06        -0.31567E-12         0.00000E+00
    0.20884E-06        -0.84157E-12         0.00000E+00
    0.20883E-06        -0.23140E-11         0.00000E+00
    0.20883E-06        -0.34980E-11         0.00000E+00
    0.20882E-06        -0.44003E-11         0.00000E+00
    0.20882E-06        -0.50311E-11         0.00000E+00
    0.20882E-06        -0.54035E-11         0.00000E+00
    0.20882E-06        -0.55335E-11         0.00000E+00
    0.20881E-06        -0.54399E-11         0.00000E+00
    0.20881E-06        -0.51434E-11         0.00000E+00
    0.20881E-06        -0.46670E-11         0.00000E+00
    0.20881E-06        -0.40354E-11         0.00000E+00
    0.20881E-06        -0.32748E-11         0.00000E+00
    0.20881E-06        -0.24126E-11         0.00000E+00
    0.20881E-06        -0.14770E-11         0.00000E+00
    0.20881E-06        -0.49728E-12         0.00000E+00
    0.21573E-06        -0.12001E-11         0.00000E+00
    0.21572E-06        -0.32867E-11         0.00000E+00
    0.21572E-06        -0.49497E-11         0.00000E+00
    0.21571E-06        -0.62052E-11         0.00000E+00
    0.21571E-06        -0.70728E-11         0.00000E+00
    0.21571E-06        -0.75755E-11         0.00000E+00
    0.21570E-06        -0.77390E-11         0.00000E+00
    0.21570E-06        -0.75919E-11         0.00000E+00
    0.21570E-06        -0.71649E-11         0.00000E+00
    0.21570E-06        -0.64912E-11         0.00000E+00
    0.21570E-06        -0.56055E-11         0.00000E+00
    0.21570E-06        -0.45443E-11         0.00000E+00
    0.21570E-06        -0.33453E-11         0.00000E+00
    0.21570E-06        -0.20470E-11         0.00000E+00
    0.21570E-06        -0.68900E-12         0.00000E+00
    0.22263E-06        -0.15785E-11         0.00000E+00
    0.22263E-06        -0.43131E-11         0.00000E+00
    0.22262E-06        -0.64815E-11         0.00000E+00
    0.22262E-06        -0.81096E-11         0.00000E+00
    0.22261E-06        -0.92272E-11         0.00000E+00
    0.22261E-06        -0.98673E-11         0.00000E+00
    0.22261E-06        -0.10066E-10         0.00000E+00
    0.22261E-06        -0.98625E-11         0.00000E+00
    0.22260E-06        -0.92979E-11         0.00000E+00
    0.22260E-06        -0.84159E-11         0.00000E+00
    0.22260E-06        -0.72621E-11         0.00000E+00
    0.22260E-06        -0.58838E-11         0.00000E+00
    0.22260E-06        -0.43293E-11         0.00000E+00
    0.22260E-06        -0.26484E-11         0.00000E+00
    0.22260E-06        -0.89129E-12         0.00000E+00
    0.22955E-06        -0.19775E-11         0.00000E+00
    0.22955E-06        -0.53956E-11         0.00000E+00
    0.22954E-06        -0.80969E-11         0.00000E+00
    0.22954E-06        -0.10118E-10         0.00000E+00
    0.22953E-06        -0.11499E-10         0.00000E+00
    0.22953E-06        -0.12284E-10         0.00000E+00
    0.22953E-06        -0.12520E-10         0.00000E+00
    0.22953E-06        -0.12257E-10         0.00000E+00
    0.22952E-06        -0.11547E-10         0.00000E+00
    0.22952E-06        -0.10445E-10         0.00000E+00
    0.22952E-06        -0.90090E-11         0.00000E+00
    0.22952E-06        -0.72962E-11         0.00000E+00
    0.22952E-06        -0.53670E-11         0.00000E+00
    0.22952E-06        -0.32826E-11         0.00000E+00
    0.22952E-06        -0.11046E-11         0.00000E+00
    0.23649E-06        -0.23982E-11         0.00000E+00
    0.23648E-06        -0.65365E-11         0.00000E+00
    0.23648E-06        -0.97996E-11         0.00000E+00
    0.23647E-06        -0.12235E-10         0.00000E+00
    0.23647E-06        -0.13894E-10         0.00000E+00
    0.23647E-06        -0.14831E-10         0.00000E+00
    0.23646E-06        -0.15107E-10         0.00000E+00
    0.23646E-06        -0.14780E-10         0.00000E+00
    0.23646E-06        -0.13918E-10         0.00000E+00
    0.23646E-06        -0.12584E-10         0.00000E+00
    0.23646E-06        -0.10850E-10         0.00000E+00
    0.23645E-06        -0.87847E-11         0.00000E+00
    0.23645E-06        -0.64606E-11         0.00000E+00
    0.23645E-06        -0.39509E-11         0.00000E+00
    0.23645E-06        -0.13294E-11         0.00000E+00
    0.24344E-06        -0.28413E-11         0.00000E+00
    0.24343E-06        -0.77385E-11         0.00000E+00
    0.24343E-06        -0.11593E-10         0.00000E+00
    0.24342E-06        -0.14465E-10         0.00000E+00
    0.24342E-06        -0.16416E-10         0.00000E+00
    0.24341E-06        -0.17515E-10         0.00000E+00
    0.24341E-06        -0.17831E-10         0.00000E+00
    0.24341E-06        -0.17439E-10         0.00000E+00
    0.24341E-06        -0.16414E-10         0.00000E+00
    0.24341E-06        -0.14838E-10         0.00000E+00
    0.24340E-06        -0.12789E-10         0.00000E+00
    0.24340E-06        -0.10353E-10         0.00000E+00
    0.24340E-06        -0.76125E-11         0.00000E+00
    0.24340E-06        -0.46548E-11         0.00000E+00
    0.24340E-06        -0.15662E-11         0.00000E+00
    0.25040E-06        -0.33079E-11         0.00000E+00
    0.25039E-06        -0.90042E-11         0.00000E+00
    0.25039E-06        -0.13482E-10         0.00000E+00
    0.25038E-06        -0.16813E-10         0.00000E+00
    0.25038E-06        -0.19072E-10         0.00000E+00
    0.25037E-06        -0.20340E-10         0.00000E+00
    0.25037E-06        -0.20699E-10         0.00000E+00
    0.25037E-06        -0.20237E-10         0.00000E+00
    0.25037E-06        -0.19043E-10         0.00000E+00
    0.25037E-06        -0.17210E-10         0.00000E+00
    0.25036E-06        -0.14831E-10         0.00000E+00
    0.25036E-06        -0.12003E-10         0.00000E+00
    0.25036E-06        -0.88252E-11         0.00000E+00
    0.25036E-06        -0.53959E-11         0.00000E+00
    0.25036E-06        -0.18154E-11         0.00000E+00
    0.25737E-06        -0.37990E-11         0.00000E+00
    0.25736E-06        -0.10336E-10         0.00000E+00
    0.25736E-06        -0.15470E-10         0.00000E+00
    0.25735E-06        -0.19284E-10         0.00000E+00
    0.25735E-06        -0.21867E-10         0.00000E+00
    0.25735E-06        -0.23313E-10         0.00000E+00
    0.25734E-06        -0.23718E-10         0.00000E+00
    0.25734E-06        -0.23182E-10         0.00000E+00
    0.25734E-06        -0.21809E-10         0.00000E+00
    0.25734E-06        -0.19705E-10         0.00000E+00
    0.25734E-06        -0.16979E-10         0.00000E+00
    0.25734E-06        -0.13740E-10         0.00000E+00
    0.25733E-06        -0.10101E-10         0.00000E+00
    0.25733E-06        -0.61756E-11         0.00000E+00
    0.25733E-06        -0.20777E-11         0.00000E+00
    0.26435E-06        -0.43156E-11         0.00000E+00
    0.26435E-06        -0.11737E-10         0.00000E+00
    0.26434E-06        -0.17561E-10         0.00000E+00
    0.26434E-06        -0.21883E-10         0.00000E+00
    0.26433E-06        -0.24807E-10         0.00000E+00
    0.26433E-06        -0.26440E-10         0.00000E+00
    0.26432E-06        -0.26893E-10         0.00000E+00
    0.26432E-06        -0.26279E-10         0.00000E+00
    0.26432E-06        -0.24719E-10         0.00000E+00
    0.26432E-06        -0.22330E-10         0.00000E+00
    0.26432E-06        -0.19238E-10         0.00000E+00
    0.26432E-06        -0.15567E-10         0.00000E+00
    0.26432E-06        -0.11443E-10         0.00000E+00
    0.26432E-06        -0.69957E-11         0.00000E+00
    0.26432E-06        -0.23535E-11         0.00000E+00
    0.27134E-06        -0.48588E-11         0.00000E+00
    0.27134E-06        -0.13211E-10         0.00000E+00
    0.27133E-06        -0.19759E-10         0.00000E+00
    0.27132E-06        -0.24615E-10         0.00000E+00
    0.27132E-06        -0.27897E-10         0.00000E+00
    0.27132E-06        -0.29727E-10         0.00000E+00
    0.27131E-06        -0.30230E-10         0.00000E+00
    0.27131E-06        -0.29535E-10         0.00000E+00
    0.27131E-06        -0.27776E-10         0.00000E+00
    0.27131E-06        -0.25089E-10         0.00000E+00
    0.27131E-06        -0.21613E-10         0.00000E+00
    0.27131E-06        -0.17486E-10         0.00000E+00
    0.27131E-06        -0.12853E-10         0.00000E+00
    0.27131E-06        -0.78576E-11         0.00000E+00
    0.27130E-06        -0.26435E-11         0.00000E+00
    0.27834E-06        -0.54296E-11         0.00000E+00
    0.27833E-06        -0.14759E-10         0.00000E+00
    0.27833E-06        -0.22068E-10         0.00000E+00
    0.27832E-06        -0.27486E-10         0.00000E+00
    0.27832E-06        -0.31144E-10         0.00000E+00
    0.27831E-06        -0.33180E-10         0.00000E+00
    0.27831E-06        -0.33736E-10         0.00000E+00
    0.27831E-06        -0.32956E-10         0.00000E+00
    0.27830E-06        -0.30989E-10         0.00000E+00
    0.27830E-06        -0.27988E-10         0.00000E+00
    0.27830E-06        -0.24107E-10         0.00000E+00
    0.27830E-06        -0.19503E-10         0.00000E+00
    0.27830E-06        -0.14335E-10         0.00000E+00
    0.27830E-06        -0.87630E-11         0.00000E+00
    0.27830E-06        -0.29480E-11         0.00000E+00
    0.28534E-06        -0.60291E-11         0.00000E+00
    0.28533E-06        -0.16384E-10         0.00000E+00
    0.28532E-06        -0.24494E-10         0.00000E+00
    0.28532E-06        -0.30501E-10         0.00000E+00
    0.28532E-06        -0.34554E-10         0.00000E+00
    0.28531E-06        -0.36807E-10         0.00000E+00
    0.28531E-06        -0.37417E-10         0.00000E+00
    0.28531E-06        -0.36547E-10         0.00000E+00
    0.28530E-06        -0.34362E-10         0.00000E+00
    0.28530E-06        -0.31031E-10         0.00000E+00
    0.28530E-06        -0.26726E-10         0.00000E+00
    0.28530E-06        -0.21621E-10         0.00000E+00
    0.28530E-06        -0.15891E-10         0.00000E+00
    0.28530E-06        -0.97135E-11         0.00000E+00
    0.28530E-06        -0.32677E-11         0.00000E+00
    0.29234E-06        -0.66585E-11         0.00000E+00
    0.29233E-06        -0.18091E-10         0.00000E+00
    0.29233E-06        -0.27040E-10         0.00000E+00
    0.29232E-06        -0.33665E-10         0.00000E+00
    0.29232E-06        -0.38133E-10         0.00000E+00
    0.29231E-06        -0.40613E-10         0.00000E+00
    0.29231E-06        -0.41281E-10         0.00000E+00
    0.29231E-06        -0.40316E-10         0.00000E+00
    0.29231E-06        -0.37902E-10         0.00000E+00
    0.29230E-06        -0.34225E-10         0.00000E+00
    0.29230E-06        -0.29474E-10         0.00000E+00
    0.29230E-06        -0.23842E-10         0.00000E+00
    0.29230E-06        -0.17523E-10         0.00000E+00
    0.29230E-06        -0.10711E-10         0.00000E+00
    0.29230E-06        -0.36032E-11         0.00000E+00
    0.29934E-06        -0.73187E-11         0.00000E+00
    0.29933E-06        -0.19881E-10         0.00000E+00
    0.29933E-06        -0.29711E-10         0.00000E+00
    0.29932E-06        -0.36985E-10         0.00000E+00
    0.29932E-06        -0.41886E-10         0.00000E+00
    0.29931E-06        -0.44604E-10         0.00000E+00
    0.29931E-06        -0.45332E-10         0.00000E+00
    0.29931E-06        -0.44268E-10         0.00000E+00
    0.29931E-06        -0.41613E-10         0.00000E+00
    0.29930E-06        -0.37573E-10         0.00000E+00
    0.29930E-06        -0.32356E-10         0.00000E+00
    0.29930E-06        -0.26172E-10         0.00000E+00
    0.29930E-06        -0.19234E-10         0.00000E+00
    0.29930E-06        -0.11757E-10         0.00000E+00
    0.29930E-06        -0.39549E-11         0.00000E+00
    0.30634E-06        -0.80110E-11         0.00000E+00
    0.30633E-06        -0.21758E-10         0.00000E+00
    0.30632E-06        -0.32511E-10         0.00000E+00
    0.30632E-06        -0.40464E-10         0.00000E+00
    0.30631E-06        -0.45820E-10         0.00000E+00
    0.30631E-06        -0.48788E-10         0.00000E+00
    0.30631E-06        -0.49579E-10         0.00000E+00
    0.30630E-06        -0.48410E-10         0.00000E+00
    0.30630E-06        -0.45503E-10         0.00000E+00
    0.30630E-06        -0.41082E-10         0.00000E+00
    0.30630E-06        -0.35375E-10         0.00000E+00
    0.30630E-06        -0.28613E-10         0.00000E+00
    0.30630E-06        -0.21027E-10         0.00000E+00
    0.30630E-06        -0.12852E-10         0.00000E+00
    0.30630E-06        -0.43235E-11         0.00000E+00
    0.31333E-06        -0.87363E-11         0.00000E+00
    0.31332E-06        -0.23725E-10         0.00000E+00
    0.31331E-06        -0.35443E-10         0.00000E+00
    0.31331E-06        -0.44108E-10         0.00000E+00
    0.31330E-06        -0.49941E-10         0.00000E+00
    0.31330E-06        -0.53169E-10         0.00000E+00
    0.31330E-06        -0.54026E-10         0.00000E+00
    0.31329E-06        -0.52747E-10         0.00000E+00
    0.31329E-06        -0.49576E-10         0.00000E+00
    0.31329E-06        -0.44756E-10         0.00000E+00
    0.31329E-06        -0.38537E-10         0.00000E+00
    0.31329E-06        -0.31169E-10         0.00000E+00
    0.31329E-06        -0.22905E-10         0.00000E+00
    0.31329E-06        -0.14000E-10         0.00000E+00
    0.31329E-06        -0.47094E-11         0.00000E+00
    0.32031E-06        -0.94957E-11         0.00000E+00
    0.32030E-06        -0.25783E-10         0.00000E+00
    0.32029E-06        -0.38513E-10         0.00000E+00
    0.32029E-06        -0.47923E-10         0.00000E+00
    0.32028E-06        -0.54253E-10         0.00000E+00
    0.32028E-06        -0.57754E-10         0.00000E+00
    0.32028E-06        -0.58679E-10         0.00000E+00
    0.32027E-06        -0.57286E-10         0.00000E+00
    0.32027E-06        -0.53837E-10         0.00000E+00
    0.32027E-06        -0.48601E-10         0.00000E+00
    0.32027E-06        -0.41845E-10         0.00000E+00
    0.32027E-06        -0.33843E-10         0.00000E+00
    0.32027E-06        -0.24869E-10         0.00000E+00
    0.32027E-06        -0.15200E-10         0.00000E+00
    0.32027E-06        -0.51131E-11         0.00000E+00
    0.32728E-06        -0.10290E-10         0.00000E+00
    0.32727E-06        -0.27936E-10         0.00000E+00
    0.32726E-06        -0.41724E-10         0.00000E+00
    0.32726E-06        -0.51912E-10         0.00000E+00
    0.32725E-06        -0.58763E-10         0.00000E+00
    0.32725E-06        -0.62548E-10         0.00000E+00
    0.32724E-06        -0.63544E-10         0.00000E+00
    0.32724E-06        -0.62030E-10         0.00000E+00
    0.32724E-06        -0.58292E-10         0.00000E+00
    0.32724E-06        -0.52619E-10         0.00000E+00
    0.32724E-06        -0.45302E-10         0.00000E+00
    0.32724E-06        -0.36637E-10         0.00000E+00
    0.32724E-06        -0.26922E-10         0.00000E+00
    0.32724E-06        -0.16454E-10         0.00000E+00
    0.32724E-06        -0.55349E-11         0.00000E+00
    0.33423E-06        -0.11120E-10         0.00000E+00
    0.33422E-06        -0.30186E-10         0.00000E+00
    0.33421E-06        -0.45079E-10         0.00000E+00
    0.33421E-06        -0.56079E-10         0.00000E+00
    0.33420E-06        -0.63473E-10         0.00000E+00
    0.33420E-06        -0.67556E-10         0.00000E+00
    0.33420E-06        -0.68625E-10         0.00000E+00
    0.33419E-06        -0.66984E-10         0.00000E+00
    0.33419E-06        -0.62943E-10         0.00000E+00
    0.33419E-06        -0.56814E-10         0.00000E+00
    0.33419E-06        -0.48912E-10         0.00000E+00
    0.33419E-06        -0.39555E-10         0.00000E+00
    0.33419E-06        -0.29065E-10         0.00000E+00
    0.33419E-06        -0.17764E-10         0.00000E+00
    0.33419E-06        -0.59754E-11         0.00000E+00
    0.34116E-06        -0.11987E-10         0.00000E+00
    0.34115E-06        -0.32535E-10         0.00000E+00
    0.34114E-06        -0.48581E-10         0.00000E+00
    0.34114E-06        -0.60428E-10         0.00000E+00
    0.34113E-06        -0.68389E-10         0.00000E+00
    0.34113E-06        -0.72780E-10         0.00000E+00
    0.34113E-06        -0.73925E-10         0.00000E+00
    0.34112E-06        -0.72153E-10         0.00000E+00
    0.34112E-06        -0.67795E-10         0.00000E+00
    0.34112E-06        -0.61190E-10         0.00000E+00
    0.34112E-06        -0.52676E-10         0.00000E+00
    0.34112E-06        -0.42598E-10         0.00000E+00
    0.34112E-06        -0.31300E-10         0.00000E+00
    0.34112E-06        -0.19129E-10         0.00000E+00
    0.34112E-06        -0.64346E-11         0.00000E+00
    0.34807E-06        -0.12891E-10         0.00000E+00
    0.34806E-06        -0.34984E-10         0.00000E+00
    0.34805E-06        -0.52231E-10         0.00000E+00
    0.34804E-06        -0.64961E-10         0.00000E+00
    0.34804E-06        -0.73511E-10         0.00000E+00
    0.34804E-06        -0.78224E-10         0.00000E+00
    0.34803E-06        -0.79448E-10         0.00000E+00
    0.34803E-06        -0.77537E-10         0.00000E+00
    0.34803E-06        -0.72849E-10         0.00000E+00
    0.34803E-06        -0.65747E-10         0.00000E+00
    0.34803E-06        -0.56597E-10         0.00000E+00
    0.34803E-06        -0.45766E-10         0.00000E+00
    0.34802E-06        -0.33627E-10         0.00000E+00
    0.34802E-06        -0.20551E-10         0.00000E+00
    0.34802E-06        -0.69128E-11         0.00000E+00
    0.35494E-06        -0.13833E-10         0.00000E+00
    0.35493E-06        -0.37535E-10         0.00000E+00
    0.35493E-06        -0.56032E-10         0.00000E+00
    0.35492E-06        -0.69680E-10         0.00000E+00
    0.35492E-06        -0.78842E-10         0.00000E+00
    0.35491E-06        -0.83888E-10         0.00000E+00
    0.35491E-06        -0.85193E-10         0.00000E+00
    0.35491E-06        -0.83137E-10         0.00000E+00
    0.35490E-06        -0.78105E-10         0.00000E+00
    0.35490E-06        -0.70487E-10         0.00000E+00
    0.35490E-06        -0.60674E-10         0.00000E+00
    0.35490E-06        -0.49061E-10         0.00000E+00
    0.35490E-06        -0.36047E-10         0.00000E+00
    0.35490E-06        -0.22029E-10         0.00000E+00
    0.35490E-06        -0.74101E-11         0.00000E+00
    0.36179E-06        -0.14812E-10         0.00000E+00
    0.36178E-06        -0.40186E-10         0.00000E+00
    0.36177E-06        -0.59982E-10         0.00000E+00
    0.36176E-06        -0.74583E-10         0.00000E+00
    0.36176E-06        -0.84381E-10         0.00000E+00
    0.36175E-06        -0.89772E-10         0.00000E+00
    0.36175E-06        -0.91160E-10         0.00000E+00
    0.36175E-06        -0.88953E-10         0.00000E+00
    0.36175E-06        -0.83563E-10         0.00000E+00
    0.36175E-06        -0.75408E-10         0.00000E+00
    0.36175E-06        -0.64906E-10         0.00000E+00
    0.36174E-06        -0.52481E-10         0.00000E+00
    0.36174E-06        -0.38558E-10         0.00000E+00
    0.36174E-06        -0.23564E-10         0.00000E+00
    0.36174E-06        -0.79261E-11         0.00000E+00
    0.36859E-06        -0.15828E-10         0.00000E+00
    0.36858E-06        -0.42938E-10         0.00000E+00
    0.36857E-06        -0.64081E-10         0.00000E+00
    0.36857E-06        -0.79670E-10         0.00000E+00
    0.36856E-06        -0.90126E-10         0.00000E+00
    0.36856E-06        -0.95874E-10         0.00000E+00
    0.36855E-06        -0.97347E-10         0.00000E+00
    0.36855E-06        -0.94981E-10         0.00000E+00
    0.36855E-06        -0.89220E-10         0.00000E+00
    0.36855E-06        -0.80507E-10         0.00000E+00
    0.36855E-06        -0.69291E-10         0.00000E+00
    0.36855E-06        -0.56025E-10         0.00000E+00
    0.36855E-06        -0.41160E-10         0.00000E+00
    0.36855E-06        -0.25153E-10         0.00000E+00
    0.36855E-06        -0.84607E-11         0.00000E+00
    0.37535E-06        -0.16882E-10         0.00000E+00
    0.37534E-06        -0.45789E-10         0.00000E+00
    0.37533E-06        -0.68325E-10         0.00000E+00
    0.37532E-06        -0.84936E-10         0.00000E+00
    0.37532E-06        -0.96070E-10         0.00000E+00
    0.37532E-06        -0.10219E-09         0.00000E+00
    0.37531E-06        -0.10375E-09         0.00000E+00
    0.37531E-06        -0.10122E-09         0.00000E+00
    0.37531E-06        -0.95068E-10         0.00000E+00
    0.37531E-06        -0.85778E-10         0.00000E+00
    0.37531E-06        -0.73824E-10         0.00000E+00
    0.37531E-06        -0.59687E-10         0.00000E+00
    0.37531E-06        -0.43849E-10         0.00000E+00
    0.37531E-06        -0.26796E-10         0.00000E+00
    0.37531E-06        -0.90131E-11         0.00000E+00
    0.38206E-06        -0.17970E-10         0.00000E+00
    0.38205E-06        -0.48734E-10         0.00000E+00
    0.38204E-06        -0.72710E-10         0.00000E+00
    0.38203E-06        -0.90374E-10         0.00000E+00
    0.38203E-06        -0.10221E-09         0.00000E+00
    0.38202E-06        -0.10870E-09         0.00000E+00
    0.38202E-06        -0.11035E-09         0.00000E+00
    0.38202E-06        -0.10765E-09         0.00000E+00
    0.38202E-06        -0.10110E-09         0.00000E+00
    0.38202E-06        -0.91214E-10         0.00000E+00
    0.38202E-06        -0.78498E-10         0.00000E+00
    0.38202E-06        -0.63462E-10         0.00000E+00
    0.38202E-06        -0.46621E-10         0.00000E+00
    0.38202E-06        -0.28489E-10         0.00000E+00
    0.38202E-06        -0.95826E-11         0.00000E+00
    0.38871E-06        -0.19093E-10         0.00000E+00
    0.38870E-06        -0.51770E-10         0.00000E+00
    0.38869E-06        -0.77227E-10         0.00000E+00
    0.38868E-06        -0.95974E-10         0.00000E+00
    0.38868E-06        -0.10853E-09         0.00000E+00
    0.38868E-06        -0.11541E-09         0.00000E+00
    0.38867E-06        -0.11714E-09         0.00000E+00
    0.38867E-06        -0.11426E-09         0.00000E+00
    0.38867E-06        -0.10730E-09         0.00000E+00
    0.38867E-06        -0.96803E-10         0.00000E+00
    0.38867E-06        -0.83302E-10         0.00000E+00
    0.38867E-06        -0.67342E-10         0.00000E+00
    0.38867E-06        -0.49470E-10         0.00000E+00
    0.38867E-06        -0.30229E-10         0.00000E+00
    0.38867E-06        -0.10168E-10         0.00000E+00
    0.39530E-06        -0.20247E-10         0.00000E+00
    0.39529E-06        -0.54890E-10         0.00000E+00
    0.39528E-06        -0.81866E-10         0.00000E+00
    0.39527E-06        -0.10172E-09         0.00000E+00
    0.39527E-06        -0.11501E-09         0.00000E+00
    0.39527E-06        -0.12228E-09         0.00000E+00
    0.39526E-06        -0.12411E-09         0.00000E+00
    0.39526E-06        -0.12104E-09         0.00000E+00
    0.39526E-06        -0.11366E-09         0.00000E+00
    0.39526E-06        -0.10253E-09         0.00000E+00
    0.39526E-06        -0.88222E-10         0.00000E+00
    0.39526E-06        -0.71316E-10         0.00000E+00
    0.39526E-06        -0.52387E-10         0.00000E+00
    0.39526E-06        -0.32011E-10         0.00000E+00
    0.39526E-06        -0.10767E-10         0.00000E+00
    0.40182E-06        -0.21429E-10         0.00000E+00
    0.40181E-06        -0.58083E-10         0.00000E+00
    0.40180E-06        -0.86612E-10         0.00000E+00
    0.40179E-06        -0.10760E-09         0.00000E+00
    0.40179E-06        -0.12164E-09         0.00000E+00
    0.40178E-06        -0.12931E-09         0.00000E+00
    0.40178E-06        -0.13122E-09         0.00000E+00
    0.40178E-06        -0.12796E-09         0.00000E+00
    0.40178E-06        -0.12015E-09         0.00000E+00
    0.40178E-06        -0.10837E-09         0.00000E+00
    0.40178E-06        -0.93241E-10         0.00000E+00
    0.40178E-06        -0.75369E-10         0.00000E+00
    0.40178E-06        -0.55361E-10         0.00000E+00
    0.40178E-06        -0.33827E-10         0.00000E+00
    0.40178E-06        -0.11377E-10         0.00000E+00
    0.40826E-06        -0.22635E-10         0.00000E+00
    0.40825E-06        -0.61338E-10         0.00000E+00
    0.40824E-06        -0.91448E-10         0.00000E+00
    0.40823E-06        -0.11359E-09         0.00000E+00
    0.40823E-06        -0.12838E-09         0.00000E+00
    0.40823E-06        -0.13646E-09         0.00000E+00
    0.40822E-06        -0.13845E-09         0.00000E+00
    0.40822E-06        -0.13500E-09         0.00000E+00
    0.40822E-06        -0.12674E-09         0.00000E+00
    0.40822E-06        -0.11430E-09         0.00000E+00
    0.40822E-06        -0.98337E-10         0.00000E+00
    0.40822E-06        -0.79483E-10         0.00000E+00
    0.40822E-06        -0.58380E-10         0.00000E+00
    0.40822E-06        -0.35670E-10         0.00000E+00
    0.40822E-06        -0.11997E-10         0.00000E+00
    0.41462E-06        -0.23859E-10         0.00000E+00
    0.41461E-06        -0.64640E-10         0.00000E+00
    0.41460E-06        -0.96349E-10         0.00000E+00
    0.41459E-06        -0.11965E-09         0.00000E+00
    0.41459E-06        -0.13520E-09         0.00000E+00
    0.41458E-06        -0.14369E-09         0.00000E+00
    0.41458E-06        -0.14576E-09         0.00000E+00
    0.41458E-06        -0.14211E-09         0.00000E+00
    0.41458E-06        -0.13339E-09         0.00000E+00
    0.41458E-06        -0.12029E-09         0.00000E+00
    0.41458E-06        -0.10348E-09         0.00000E+00
    0.41457E-06        -0.83634E-10         0.00000E+00
    0.41457E-06        -0.61426E-10         0.00000E+00
    0.41457E-06        -0.37530E-10         0.00000E+00
    0.41457E-06        -0.12623E-10         0.00000E+00
    0.42088E-06        -0.25095E-10         0.00000E+00
    0.42087E-06        -0.67970E-10         0.00000E+00
    0.42086E-06        -0.10129E-09         0.00000E+00
    0.42086E-06        -0.12575E-09         0.00000E+00
    0.42085E-06        -0.14207E-09         0.00000E+00
    0.42085E-06        -0.15095E-09         0.00000E+00
    0.42084E-06        -0.15311E-09         0.00000E+00
    0.42084E-06        -0.14924E-09         0.00000E+00
    0.42084E-06        -0.14007E-09         0.00000E+00
    0.42084E-06        -0.12630E-09         0.00000E+00
    0.42084E-06        -0.10864E-09         0.00000E+00
    0.42084E-06        -0.87796E-10         0.00000E+00
    0.42084E-06        -0.64479E-10         0.00000E+00
    0.42084E-06        -0.39394E-10         0.00000E+00
    0.42084E-06        -0.13249E-10         0.00000E+00
    0.42704E-06        -0.26333E-10         0.00000E+00
    0.42703E-06        -0.71305E-10         0.00000E+00
    0.42703E-06        -0.10623E-09         0.00000E+00
    0.42702E-06        -0.13185E-09         0.00000E+00
    0.42701E-06        -0.14893E-09         0.00000E+00
    0.42701E-06        -0.15820E-09         0.00000E+00
    0.42701E-06        -0.16043E-09         0.00000E+00
    0.42701E-06        -0.15636E-09         0.00000E+00
    0.42700E-06        -0.14672E-09         0.00000E+00
    0.42700E-06        -0.13228E-09         0.00000E+00
    0.42700E-06        -0.11377E-09         0.00000E+00
    0.42700E-06        -0.91935E-10         0.00000E+00
    0.42700E-06        -0.67514E-10         0.00000E+00
    0.42700E-06        -0.41246E-10         0.00000E+00
    0.42700E-06        -0.13872E-10         0.00000E+00
    0.43310E-06        -0.27564E-10         0.00000E+00
    0.43309E-06        -0.74616E-10         0.00000E+00
    0.43308E-06        -0.11113E-09         0.00000E+00
    0.43307E-06        -0.13790E-09         0.00000E+00
    0.43307E-06        -0.15571E-09         0.00000E+00
    0.43306E-06        -0.16537E-09         0.00000E+00
    0.43306E-06        -0.16767E-09         0.00000E+00
    0.43306E-06        -0.16337E-09         0.00000E+00
    0.43306E-06        -0.15328E-09         0.00000E+00
    0.43306E-06        -0.13818E-09         0.00000E+00
    0.43306E-06        -0.11883E-09         0.00000E+00
    0.43306E-06        -0.96011E-10         0.00000E+00
    0.43305E-06        -0.70502E-10         0.00000E+00
    0.43305E-06        -0.43070E-10         0.00000E+00
    0.43305E-06        -0.14485E-10         0.00000E+00
    0.43903E-06        -0.28776E-10         0.00000E+00
    0.43902E-06        -0.77871E-10         0.00000E+00
    0.43901E-06        -0.11594E-09         0.00000E+00
    0.43901E-06        -0.14382E-09         0.00000E+00
    0.43900E-06        -0.16236E-09         0.00000E+00
    0.43900E-06        -0.17238E-09         0.00000E+00
    0.43900E-06        -0.17473E-09         0.00000E+00
    0.43899E-06        -0.17022E-09         0.00000E+00
    0.43899E-06        -0.15968E-09         0.00000E+00
    0.43899E-06        -0.14392E-09         0.00000E+00
    0.43899E-06        -0.12375E-09         0.00000E+00
    0.43899E-06        -0.99977E-10         0.00000E+00
    0.43899E-06        -0.73408E-10         0.00000E+00
    0.43899E-06        -0.44843E-10         0.00000E+00
    0.43899E-06        -0.15081E-10         0.00000E+00
    0.44484E-06        -0.29955E-10         0.00000E+00
    0.44483E-06        -0.81029E-10         0.00000E+00
    0.44482E-06        -0.12060E-09         0.00000E+00
    0.44481E-06        -0.14955E-09         0.00000E+00
    0.44481E-06        -0.16877E-09         0.00000E+00
    0.44480E-06        -0.17914E-09         0.00000E+00
    0.44480E-06        -0.18153E-09         0.00000E+00
    0.44480E-06        -0.17681E-09         0.00000E+00
    0.44480E-06        -0.16583E-09         0.00000E+00
    0.44479E-06        -0.14943E-09         0.00000E+00
    0.44479E-06        -0.12847E-09         0.00000E+00
    0.44479E-06        -0.10378E-09         0.00000E+00
    0.44479E-06        -0.76193E-10         0.00000E+00
    0.44479E-06        -0.46541E-10         0.00000E+00
    0.44479E-06        -0.15651E-10         0.00000E+00
    0.45050E-06        -0.31083E-10         0.00000E+00
    0.45049E-06        -0.84046E-10         0.00000E+00
    0.45049E-06        -0.12504E-09         0.00000E+00
    0.45048E-06        -0.15500E-09         0.00000E+00
    0.45047E-06        -0.17486E-09         0.00000E+00
    0.45047E-06        -0.18555E-09         0.00000E+00
    0.45047E-06        -0.18797E-09         0.00000E+00
    0.45046E-06        -0.18303E-09         0.00000E+00
    0.45046E-06        -0.17162E-09         0.00000E+00
    0.45046E-06        -0.15462E-09         0.00000E+00
    0.45046E-06        -0.13291E-09         0.00000E+00
    0.45046E-06        -0.10735E-09         0.00000E+00
    0.45046E-06        -0.78809E-10         0.00000E+00
    0.45046E-06        -0.48136E-10         0.00000E+00
    0.45046E-06        -0.16187E-10         0.00000E+00
    0.45602E-06        -0.32141E-10         0.00000E+00
    0.45601E-06        -0.86869E-10         0.00000E+00
    0.45600E-06        -0.12918E-09         0.00000E+00
    0.45600E-06        -0.16007E-09         0.00000E+00
    0.45599E-06        -0.18051E-09         0.00000E+00
    0.45599E-06        -0.19148E-09         0.00000E+00
    0.45598E-06        -0.19392E-09         0.00000E+00
    0.45598E-06        -0.18877E-09         0.00000E+00
    0.45598E-06        -0.17696E-09         0.00000E+00
    0.45598E-06        -0.15939E-09         0.00000E+00
    0.45597E-06        -0.13699E-09         0.00000E+00
    0.45597E-06        -0.11063E-09         0.00000E+00
    0.45597E-06        -0.81205E-10         0.00000E+00
    0.45597E-06        -0.49596E-10         0.00000E+00
    0.45597E-06        -0.16677E-10         0.00000E+00
    0.46138E-06        -0.33108E-10         0.00000E+00
    0.46137E-06        -0.89438E-10         0.00000E+00
    0.46136E-06        -0.13293E-09         0.00000E+00
    0.46135E-06        -0.16465E-09         0.00000E+00
    0.46135E-06        -0.18560E-09         0.00000E+00
    0.46134E-06        -0.19680E-09         0.00000E+00
    0.46134E-06        -0.19923E-09         0.00000E+00
    0.46134E-06        -0.19388E-09         0.00000E+00
    0.46133E-06        -0.18170E-09         0.00000E+00
    0.46133E-06        -0.16363E-09         0.00000E+00
    0.46133E-06        -0.14060E-09         0.00000E+00
    0.46133E-06        -0.11353E-09         0.00000E+00
    0.46133E-06        -0.83321E-10         0.00000E+00
    0.46133E-06        -0.50884E-10         0.00000E+00
    0.46133E-06        -0.17110E-10         0.00000E+00
    0.46656E-06        -0.33959E-10         0.00000E+00
    0.46655E-06        -0.91686E-10         0.00000E+00
    0.46655E-06        -0.13620E-09         0.00000E+00
    0.46654E-06        -0.16861E-09         0.00000E+00
    0.46653E-06        -0.18998E-09         0.00000E+00
    0.46653E-06        -0.20136E-09         0.00000E+00
    0.46652E-06        -0.20377E-09         0.00000E+00
    0.46652E-06        -0.19823E-09         0.00000E+00
    0.46652E-06        -0.18571E-09         0.00000E+00
    0.46652E-06        -0.16720E-09         0.00000E+00
    0.46651E-06        -0.14363E-09         0.00000E+00
    0.46651E-06        -0.11595E-09         0.00000E+00
    0.46651E-06        -0.85090E-10         0.00000E+00
    0.46651E-06        -0.51959E-10         0.00000E+00
    0.46651E-06        -0.17470E-10         0.00000E+00
    0.47157E-06        -0.34667E-10         0.00000E+00
    0.47156E-06        -0.93542E-10         0.00000E+00
    0.47155E-06        -0.13888E-09         0.00000E+00
    0.47154E-06        -0.17183E-09         0.00000E+00
    0.47154E-06        -0.19350E-09         0.00000E+00
    0.47153E-06        -0.20499E-09         0.00000E+00
    0.47153E-06        -0.20736E-09         0.00000E+00
    0.47152E-06        -0.20164E-09         0.00000E+00
    0.47152E-06        -0.18884E-09         0.00000E+00
    0.47152E-06        -0.16996E-09         0.00000E+00
    0.47151E-06        -0.14596E-09         0.00000E+00
    0.47151E-06        -0.11781E-09         0.00000E+00
    0.47151E-06        -0.86437E-10         0.00000E+00
    0.47151E-06        -0.52776E-10         0.00000E+00
    0.47151E-06        -0.17744E-10         0.00000E+00
    0.47638E-06        -0.35204E-10         0.00000E+00
    0.47637E-06        -0.94928E-10         0.00000E+00
    0.47636E-06        -0.14085E-09         0.00000E+00
    0.47635E-06        -0.17416E-09         0.00000E+00
    0.47634E-06        -0.19601E-09         0.00000E+00
    0.47634E-06        -0.20754E-09         0.00000E+00
    0.47633E-06        -0.20982E-09         0.00000E+00
    0.47633E-06        -0.20393E-09         0.00000E+00
    0.47632E-06        -0.19091E-09         0.00000E+00
    0.47632E-06        -0.17175E-09         0.00000E+00
    0.47632E-06        -0.14745E-09         0.00000E+00
    0.47632E-06        -0.11898E-09         0.00000E+00
    0.47631E-06        -0.87277E-10         0.00000E+00
    0.47631E-06        -0.53281E-10         0.00000E+00
    0.47631E-06        -0.17912E-10         0.00000E+00
    0.48098E-06        -0.35540E-10         0.00000E+00
    0.48097E-06        -0.95768E-10         0.00000E+00
    0.48096E-06        -0.14199E-09         0.00000E+00
    0.48095E-06        -0.17545E-09         0.00000E+00
    0.48095E-06        -0.19734E-09         0.00000E+00
    0.48094E-06        -0.20880E-09         0.00000E+00
    0.48093E-06        -0.21097E-09         0.00000E+00
    0.48093E-06        -0.20493E-09         0.00000E+00
    0.48092E-06        -0.19173E-09         0.00000E+00
    0.48092E-06        -0.17241E-09         0.00000E+00
    0.48092E-06        -0.14795E-09         0.00000E+00
    0.48091E-06        -0.11933E-09         0.00000E+00
    0.48091E-06        -0.87512E-10         0.00000E+00
    0.48091E-06        -0.53414E-10         0.00000E+00
    0.48091E-06        -0.17955E-10         0.00000E+00
    0.48536E-06        -0.35650E-10         0.00000E+00
    0.48535E-06        -0.95992E-10         0.00000E+00
    0.48534E-06        -0.14222E-09         0.00000E+00
    0.48534E-06        -0.17559E-09         0.00000E+00
    0.48533E-06        -0.19734E-09         0.00000E+00
    0.48532E-06        -0.20863E-09         0.00000E+00
    0.48531E-06        -0.21063E-09         0.00000E+00
    0.48531E-06        -0.20443E-09         0.00000E+00
    0.48530E-06        -0.19112E-09         0.00000E+00
    0.48530E-06        -0.17173E-09         0.00000E+00
    0.48529E-06        -0.14727E-09         0.00000E+00
    0.48529E-06        -0.11872E-09         0.00000E+00
    0.48529E-06        -0.87024E-10         0.00000E+00
    0.48529E-06        -0.53099E-10         0.00000E+00
    0.48529E-06        -0.17847E-10         0.00000E+00
    0.48951E-06        -0.35515E-10         0.00000E+00
    0.48950E-06        -0.95554E-10         0.00000E+00
    0.48950E-06        -0.14145E-09         0.00000E+00
    0.48949E-06        -0.17448E-09         0.00000E+00
    0.48948E-06        -0.19589E-09         0.00000E+00
    0.48947E-06        -0.20688E-09         0.00000E+00
    0.48946E-06        -0.20862E-09         0.00000E+00
    0.48946E-06        -0.20224E-09         0.00000E+00
    0.48945E-06        -0.18885E-09         0.00000E+00
    0.48944E-06        -0.16949E-09         0.00000E+00
    0.48944E-06        -0.14519E-09         0.00000E+00
    0.48944E-06        -0.11694E-09         0.00000E+00
    0.48943E-06        -0.85652E-10         0.00000E+00
    0.48943E-06        -0.52235E-10         0.00000E+00
    0.48943E-06        -0.17552E-10         0.00000E+00
    0.49342E-06        -0.35135E-10         0.00000E+00
    0.49341E-06        -0.94465E-10         0.00000E+00
    0.49340E-06        -0.13971E-09         0.00000E+00
    0.49339E-06        -0.17214E-09         0.00000E+00
    0.49339E-06        -0.19300E-09         0.00000E+00
    0.49338E-06        -0.20350E-09         0.00000E+00
    0.49337E-06        -0.20484E-09         0.00000E+00
    0.49336E-06        -0.19818E-09         0.00000E+00
    0.49335E-06        -0.18467E-09         0.00000E+00
    0.49335E-06        -0.16540E-09         0.00000E+00
    0.49334E-06        -0.14141E-09         0.00000E+00
    0.49334E-06        -0.11369E-09         0.00000E+00
    0.49333E-06        -0.83160E-10         0.00000E+00
    0.49333E-06        -0.50665E-10         0.00000E+00
    0.49333E-06        -0.17015E-10         0.00000E+00
    0.49707E-06        -0.34554E-10         0.00000E+00
    0.49706E-06        -0.92853E-10         0.00000E+00
    0.49705E-06        -0.13719E-09         0.00000E+00
    0.49705E-06        -0.16878E-09         0.00000E+00
    0.49704E-06        -0.18883E-09         0.00000E+00
    0.49703E-06        -0.19857E-09         0.00000E+00
    0.49702E-06        -0.19924E-09         0.00000E+00
    0.49701E-06        -0.19206E-09         0.00000E+00
    0.49700E-06        -0.17827E-09         0.00000E+00
    0.49699E-06        -0.15903E-09         0.00000E+00
    0.49699E-06        -0.13545E-09         0.00000E+00
    0.49698E-06        -0.10852E-09         0.00000E+00
    0.49698E-06        -0.79150E-10         0.00000E+00
    0.49697E-06        -0.48125E-10         0.00000E+00
    0.49697E-06        -0.16145E-10         0.00000E+00
    0.50045E-06        -0.33899E-10         0.00000E+00
    0.50044E-06        -0.91089E-10         0.00000E+00
    0.50044E-06        -0.13444E-09         0.00000E+00
    0.50043E-06        -0.16503E-09         0.00000E+00
    0.50042E-06        -0.18398E-09         0.00000E+00
    0.50041E-06        -0.19253E-09         0.00000E+00
    0.50040E-06        -0.19200E-09         0.00000E+00
    0.50039E-06        -0.18375E-09         0.00000E+00
    0.50038E-06        -0.16921E-09         0.00000E+00
    0.50037E-06        -0.14969E-09         0.00000E+00
    0.50036E-06        -0.12646E-09         0.00000E+00
    0.50035E-06        -0.10056E-09         0.00000E+00
    0.50035E-06        -0.72893E-10         0.00000E+00
    0.50034E-06        -0.44122E-10         0.00000E+00
    0.50034E-06        -0.14769E-10         0.00000E+00
    0.50355E-06        -0.33480E-10         0.00000E+00
    0.50354E-06        -0.90037E-10         0.00000E+00
    0.50353E-06        -0.13275E-09         0.00000E+00
    0.50353E-06        -0.16236E-09         0.00000E+00
    0.50352E-06        -0.17986E-09         0.00000E+00
    0.50351E-06        -0.18645E-09         0.00000E+00
    0.50350E-06        -0.18366E-09         0.00000E+00
    0.50349E-06        -0.17316E-09         0.00000E+00
    0.50348E-06        -0.15674E-09         0.00000E+00
    0.50347E-06        -0.13613E-09         0.00000E+00
    0.50346E-06        -0.11287E-09         0.00000E+00
    0.50345E-06        -0.88191E-10         0.00000E+00
    0.50344E-06        -0.62965E-10         0.00000E+00
    0.50343E-06        -0.37699E-10         0.00000E+00
    0.50343E-06        -0.12539E-10         0.00000E+00
    0.50634E-06        -0.33924E-10         0.00000E+00
    0.50634E-06        -0.91615E-10         0.00000E+00
    0.50634E-06        -0.13490E-09         0.00000E+00
    0.50633E-06        -0.16401E-09         0.00000E+00
    0.50633E-06        -0.17951E-09         0.00000E+00
    0.50633E-06        -0.18272E-09         0.00000E+00
    0.50632E-06        -0.17551E-09         0.00000E+00
    0.50631E-06        -0.16025E-09         0.00000E+00
    0.50630E-06        -0.13954E-09         0.00000E+00
    0.50628E-06        -0.11590E-09         0.00000E+00
    0.50626E-06        -0.91558E-10         0.00000E+00
    0.50625E-06        -0.68119E-10         0.00000E+00
    0.50623E-06        -0.46537E-10         0.00000E+00
    0.50622E-06        -0.26892E-10         0.00000E+00
    0.50622E-06        -0.88085E-11         0.00000E+00
    0.50882E-06        -0.36830E-10         0.00000E+00
    0.50882E-06        -0.99631E-10         0.00000E+00
    0.50883E-06        -0.14683E-09         0.00000E+00
    0.50884E-06        -0.17660E-09         0.00000E+00
    0.50884E-06        -0.18936E-09         0.00000E+00
    0.50885E-06        -0.18633E-09         0.00000E+00
    0.50885E-06        -0.17032E-09         0.00000E+00
    0.50884E-06        -0.14510E-09         0.00000E+00
    0.50882E-06        -0.11494E-09         0.00000E+00
    0.50880E-06        -0.84107E-10         0.00000E+00
    0.50877E-06        -0.56190E-10         0.00000E+00
    0.50874E-06        -0.33762E-10         0.00000E+00
    0.50872E-06        -0.17685E-10         0.00000E+00
    0.50870E-06        -0.78983E-11         0.00000E+00
    0.50869E-06        -0.19765E-11         0.00000E+00
    0.51096E-06        -0.44088E-10         0.00000E+00
    0.51097E-06        -0.12324E-09         0.00000E+00
    0.51099E-06        -0.18014E-09         0.00000E+00
    0.51102E-06        -0.21425E-09         0.00000E+00
    0.51105E-06        -0.22246E-09         0.00000E+00
    0.51107E-06        -0.20751E-09         0.00000E+00
    0.51108E-06        -0.17374E-09         0.00000E+00
    0.51107E-06        -0.12786E-09         0.00000E+00
    0.51105E-06        -0.77650E-10         0.00000E+00
    0.51102E-06        -0.30837E-10         0.00000E+00
    0.51097E-06         0.60004E-11         0.00000E+00
    0.51092E-06         0.28764E-10         0.00000E+00
    0.51088E-06         0.35027E-10         0.00000E+00
    0.51084E-06         0.28339E-10         0.00000E+00
    0.51082E-06         0.98189E-11         0.00000E+00
    0.51272E-06        -0.67650E-10         0.00000E+00
    0.51275E-06        -0.17541E-09         0.00000E+00
    0.51281E-06        -0.26294E-09         0.00000E+00
    0.51287E-06        -0.30422E-09         0.00000E+00
    0.51294E-06        -0.30570E-09         0.00000E+00
    0.51300E-06        -0.26671E-09         0.00000E+00
    0.51304E-06        -0.19688E-09         0.00000E+00
    0.51304E-06        -0.10887E-09         0.00000E+00
    0.51301E-06        -0.17181E-10         0.00000E+00
    0.51295E-06         0.63751E-10         0.00000E+00
    0.51287E-06         0.12139E-09         0.00000E+00
    0.51277E-06         0.14627E-09         0.00000E+00
    0.51268E-06         0.13937E-09         0.00000E+00
    0.51262E-06         0.94603E-10         0.00000E+00
    0.51258E-06         0.38464E-10         0.00000E+00
    0.51404E-06        -0.90145E-10         0.00000E+00
    0.51411E-06        -0.31824E-09         0.00000E+00
    0.51424E-06        -0.43571E-09         0.00000E+00
    0.51439E-06        -0.51025E-09         0.00000E+00
    0.51455E-06        -0.49133E-09         0.00000E+00
    0.51468E-06        -0.40279E-09         0.00000E+00
    0.51476E-06        -0.26078E-09         0.00000E+00
    0.51478E-06        -0.88633E-10         0.00000E+00
    0.51473E-06         0.86520E-10         0.00000E+00
    0.51462E-06         0.23760E-09         0.00000E+00
    0.51447E-06         0.34135E-09         0.00000E+00
    0.51429E-06         0.38179E-09         0.00000E+00
    0.51411E-06         0.33528E-09         0.00000E+00
    0.51397E-06         0.25261E-09         0.00000E+00
    0.51390E-06         0.66472E-10         0.00000E+00
    0.51477E-06        -0.31681E-09         0.00000E+00
    0.51495E-06        -0.51510E-09         0.00000E+00
    0.51520E-06        -0.88374E-09         0.00000E+00
    0.51557E-06        -0.93692E-09         0.00000E+00
    0.51590E-06        -0.87925E-09         0.00000E+00
    0.51616E-06        -0.68585E-09         0.00000E+00
    0.51633E-06        -0.39885E-09         0.00000E+00
    0.51638E-06        -0.67839E-10         0.00000E+00
    0.51631E-06         0.26549E-09         0.00000E+00
    0.51611E-06         0.55947E-09         0.00000E+00
    0.51582E-06         0.76460E-09         0.00000E+00
    0.51547E-06         0.83883E-09         0.00000E+00
    0.51508E-06         0.80719E-09         0.00000E+00
    0.51482E-06         0.46523E-09         0.00000E+00
    0.51463E-06         0.29887E-09         0.00000E+00
    0.51465E-06         0.12250E-09         0.00000E+00
    0.51489E-06        -0.16736E-08         0.00000E+00
    0.51578E-06        -0.16198E-08         0.00000E+00
    0.51642E-06        -0.18895E-08         0.00000E+00
    0.51713E-06        -0.16644E-08         0.00000E+00
    0.51763E-06        -0.11873E-08         0.00000E+00
    0.51790E-06        -0.62711E-09         0.00000E+00
    0.51798E-06        -0.47431E-10         0.00000E+00
    0.51788E-06         0.53388E-09         0.00000E+00
    0.51758E-06         0.10990E-08         0.00000E+00
    0.51706E-06         0.15844E-08         0.00000E+00
    0.51633E-06         0.18212E-08         0.00000E+00
    0.51567E-06         0.15667E-08         0.00000E+00
    0.51477E-06         0.16392E-08         0.00000E+00
    0.51452E-06        -0.13473E-09         0.00000E+00
    0.51225E-06        -0.46170E-08         0.00000E+00
    0.51453E-06        -0.11344E-08         0.00000E+00
    0.51512E-06        -0.46167E-08         0.00000E+00
    0.51756E-06        -0.40272E-08         0.00000E+00
    0.51883E-06        -0.28422E-08         0.00000E+00
    0.51938E-06        -0.17629E-08         0.00000E+00
    0.51959E-06        -0.84930E-09         0.00000E+00
    0.51964E-06        -0.28644E-10         0.00000E+00
    0.51957E-06         0.79301E-09         0.00000E+00
    0.51934E-06         0.17096E-08         0.00000E+00
    0.51877E-06         0.27939E-08         0.00000E+00
    0.51748E-06         0.39861E-08         0.00000E+00
    0.51503E-06         0.45850E-08         0.00000E+00
    0.51443E-06         0.11141E-08         0.00000E+00
    0.51215E-06         0.46098E-08         0.00000E+00
    0.50816E-06         0.16539E-07         0.00000E+00
    0.50457E-06        -0.20088E-07         0.00000E+00
    0.51906E-06        -0.10816E-07         0.00000E+00
    0.52148E-06        -0.59240E-08         0.00000E+00
    0.52164E-06        -0.33271E-08         0.00000E+00
    0.52141E-06        -0.18178E-08         0.00000E+00
    0.52121E-06        -0.81447E-09         0.00000E+00
    0.52114E-06        -0.13128E-10         0.00000E+00
    0.52120E-06         0.78868E-09         0.00000E+00
    0.52138E-06         0.17934E-08         0.00000E+00
    0.52160E-06         0.33050E-08         0.00000E+00
    0.52143E-06         0.59052E-08         0.00000E+00
    0.51900E-06         0.10802E-07         0.00000E+00
    0.50450E-06         0.20079E-07         0.00000E+00
    0.50809E-06        -0.16542E-07         0.00000E+00
    0.43621E-06        -0.16671E-06         0.00000E+00
    0.54981E-06        -0.20299E-07         0.00000E+00
    0.53330E-06        -0.72053E-08         0.00000E+00
    0.52707E-06        -0.31747E-08         0.00000E+00
    0.52421E-06        -0.15786E-08         0.00000E+00
    0.52279E-06        -0.80425E-09         0.00000E+00
    0.52210E-06        -0.34647E-09         0.00000E+00
    0.52189E-06        -0.32125E-11         0.00000E+00
    0.52209E-06         0.34016E-09         0.00000E+00
    0.52278E-06         0.79828E-09         0.00000E+00
    0.52420E-06         0.15732E-08         0.00000E+00
    0.52705E-06         0.31702E-08         0.00000E+00
    0.53328E-06         0.72019E-08         0.00000E+00
    0.54979E-06         0.20297E-07         0.00000E+00
    0.43619E-06         0.16671E-06         0.00000E+00
POINT_DATA       1456
VECTORS vDarcyNodal double 
    0.32390E-08         0.15258E-11         0.00000E+00
    0.32385E-08         0.52335E-11         0.00000E+00
    0.32387E-08         0.11861E-10         0.00000E+00
    0.32390E-08         0.16625E-10         0.00000E+00
    0.32391E-08         0.19663E-10         0.00000E+00
    0.32392E-08         0.21500E-10         0.00000E+00
    0.32393E-08         0.22286E-10         0.00000E+00
    0.32393E-08         0.22132E-10         0.00000E+00
    0.32393E-08         0.21144E-10         0.00000E+00
    0.32393E-08         0.19425E-10         0.00000E+00
    0.32393E-08         0.17078E-10         0.00000E+00
    0.32393E-08         0.14200E-10         0.00000E+00
    0.32393E-08         0.10869E-10         0.00000E+00
    0.32393E-08         0.70300E-11         0.00000E+00
    0.32391E-08         0.29074E-11         0.00000E+00
    0.32388E-08         0.85295E-12         0.00000E+00
    0.64793E-08         0.24629E-11         0.00000E+00
    0.64787E-08         0.55860E-11         0.00000E+00
    0.64786E-08         0.11384E-10         0.00000E+00
    0.64787E-08         0.16049E-10         0.00000E+00
    0.64788E-08         0.19326E-10         0.00000E+00
    0.64788E-08         0.21300E-10         0.00000E+00
    0.64788E-08         0.22156E-10         0.00000E+00
    0.64788E-08         0.22038E-10         0.00000E+00
    0.64788E-08         0.21071E-10         0.00000E+00
    0.64788E-08         0.19363E-10         0.00000E+00
    0.64788E-08         0.17020E-10         0.00000E+00
    0.64788E-08         0.14137E-10         0.00000E+00
    0.64788E-08         0.10804E-10         0.00000E+00
    0.64787E-08         0.71596E-11         0.00000E+00
    0.64786E-08         0.34055E-11         0.00000E+00
    0.64783E-08         0.15274E-11         0.00000E+00
    0.12960E-07         0.33870E-11         0.00000E+00
    0.12960E-07         0.62599E-11         0.00000E+00
    0.12960E-07         0.11580E-10         0.00000E+00
    0.12959E-07         0.15896E-10         0.00000E+00
    0.12959E-07         0.19040E-10         0.00000E+00
    0.12959E-07         0.21021E-10         0.00000E+00
    0.12959E-07         0.21916E-10         0.00000E+00
    0.12959E-07         0.21839E-10         0.00000E+00
    0.12959E-07         0.20904E-10         0.00000E+00
    0.12959E-07         0.19226E-10         0.00000E+00
    0.12959E-07         0.16912E-10         0.00000E+00
    0.12959E-07         0.14071E-10         0.00000E+00
    0.12959E-07         0.10823E-10         0.00000E+00
    0.12958E-07         0.72970E-11         0.00000E+00
    0.12958E-07         0.36783E-11         0.00000E+00
    0.12958E-07         0.18753E-11         0.00000E+00
    0.19443E-07         0.35072E-11         0.00000E+00
    0.19443E-07         0.65059E-11         0.00000E+00
    0.19443E-07         0.11853E-10         0.00000E+00
    0.19442E-07         0.15978E-10         0.00000E+00
    0.19442E-07         0.18967E-10         0.00000E+00
    0.19441E-07         0.20857E-10         0.00000E+00
    0.19441E-07         0.21718E-10         0.00000E+00
    0.19441E-07         0.21639E-10         0.00000E+00
    0.19441E-07         0.20721E-10         0.00000E+00
    0.19441E-07         0.19071E-10         0.00000E+00
    0.19441E-07         0.16796E-10         0.00000E+00
    0.19441E-07         0.14009E-10         0.00000E+00
    0.19440E-07         0.10823E-10         0.00000E+00
    0.19440E-07         0.73606E-11         0.00000E+00
    0.19440E-07         0.37204E-11         0.00000E+00
    0.19440E-07         0.18640E-11         0.00000E+00
    0.25930E-07         0.35522E-11         0.00000E+00
    0.25929E-07         0.65759E-11         0.00000E+00
    0.25929E-07         0.11950E-10         0.00000E+00
    0.25928E-07         0.16033E-10         0.00000E+00
    0.25927E-07         0.18936E-10         0.00000E+00
    0.25927E-07         0.20753E-10         0.00000E+00
    0.25927E-07         0.21565E-10         0.00000E+00
    0.25926E-07         0.21465E-10         0.00000E+00
    0.25926E-07         0.20548E-10         0.00000E+00
    0.25926E-07         0.18916E-10         0.00000E+00
    0.25926E-07         0.16673E-10         0.00000E+00
    0.25926E-07         0.13925E-10         0.00000E+00
    0.25926E-07         0.10781E-10         0.00000E+00
    0.25925E-07         0.73452E-11         0.00000E+00
    0.25925E-07         0.37194E-11         0.00000E+00
    0.25925E-07         0.18723E-11         0.00000E+00
    0.32420E-07         0.35539E-11         0.00000E+00
    0.32419E-07         0.65782E-11         0.00000E+00
    0.32419E-07         0.11944E-10         0.00000E+00
    0.32418E-07         0.16002E-10         0.00000E+00
    0.32417E-07         0.18865E-10         0.00000E+00
    0.32417E-07         0.20636E-10         0.00000E+00
    0.32416E-07         0.21414E-10         0.00000E+00
    0.32416E-07         0.21294E-10         0.00000E+00
    0.32416E-07         0.20374E-10         0.00000E+00
    0.32415E-07         0.18753E-10         0.00000E+00
    0.32415E-07         0.16533E-10         0.00000E+00
    0.32415E-07         0.13816E-10         0.00000E+00
    0.32415E-07         0.10704E-10         0.00000E+00
    0.32415E-07         0.72977E-11         0.00000E+00
    0.32415E-07         0.36972E-11         0.00000E+00
    0.32415E-07         0.18605E-11         0.00000E+00
    0.38915E-07         0.35336E-11         0.00000E+00
    0.38915E-07         0.65408E-11         0.00000E+00
    0.38914E-07         0.11874E-10         0.00000E+00
    0.38913E-07         0.15901E-10         0.00000E+00
    0.38912E-07         0.18732E-10         0.00000E+00
    0.38912E-07         0.20474E-10         0.00000E+00
    0.38911E-07         0.21229E-10         0.00000E+00
    0.38911E-07         0.21097E-10         0.00000E+00
    0.38910E-07         0.20177E-10         0.00000E+00
    0.38910E-07         0.18568E-10         0.00000E+00
    0.38910E-07         0.16370E-10         0.00000E+00
    0.38910E-07         0.13681E-10         0.00000E+00
    0.38909E-07         0.10601E-10         0.00000E+00
    0.38909E-07         0.72290E-11         0.00000E+00
    0.38909E-07         0.36629E-11         0.00000E+00
    0.38909E-07         0.18436E-11         0.00000E+00
    0.45417E-07         0.34985E-11         0.00000E+00
    0.45417E-07         0.64763E-11         0.00000E+00
    0.45415E-07         0.11757E-10         0.00000E+00
    0.45415E-07         0.15741E-10         0.00000E+00
    0.45414E-07         0.18539E-10         0.00000E+00
    0.45413E-07         0.20256E-10         0.00000E+00
    0.45412E-07         0.20996E-10         0.00000E+00
    0.45412E-07         0.20858E-10         0.00000E+00
    0.45411E-07         0.19943E-10         0.00000E+00
    0.45411E-07         0.18349E-10         0.00000E+00
    0.45411E-07         0.16174E-10         0.00000E+00
    0.45410E-07         0.13517E-10         0.00000E+00
    0.45410E-07         0.10474E-10         0.00000E+00
    0.45410E-07         0.71428E-11         0.00000E+00
    0.45410E-07         0.36194E-11         0.00000E+00
    0.45410E-07         0.18217E-11         0.00000E+00
    0.51926E-07         0.34515E-11         0.00000E+00
    0.51925E-07         0.63896E-11         0.00000E+00
    0.51924E-07         0.11599E-10         0.00000E+00
    0.51923E-07         0.15530E-10         0.00000E+00
    0.51922E-07         0.18289E-10         0.00000E+00
    0.51921E-07         0.19980E-10         0.00000E+00
    0.51921E-07         0.20706E-10         0.00000E+00
    0.51920E-07         0.20566E-10         0.00000E+00
    0.51920E-07         0.19661E-10         0.00000E+00
    0.51919E-07         0.18087E-10         0.00000E+00
    0.51919E-07         0.15942E-10         0.00000E+00
    0.51918E-07         0.13322E-10         0.00000E+00
    0.51918E-07         0.10323E-10         0.00000E+00
    0.51918E-07         0.70394E-11         0.00000E+00
    0.51918E-07         0.35669E-11         0.00000E+00
    0.51918E-07         0.17953E-11         0.00000E+00
    0.58443E-07         0.33939E-11         0.00000E+00
    0.58442E-07         0.62832E-11         0.00000E+00
    0.58441E-07         0.11406E-10         0.00000E+00
    0.58440E-07         0.15272E-10         0.00000E+00
    0.58439E-07         0.17984E-10         0.00000E+00
    0.58438E-07         0.19646E-10         0.00000E+00
    0.58437E-07         0.20358E-10         0.00000E+00
    0.58436E-07         0.20219E-10         0.00000E+00
    0.58436E-07         0.19327E-10         0.00000E+00
    0.58435E-07         0.17778E-10         0.00000E+00
    0.58435E-07         0.15669E-10         0.00000E+00
    0.58435E-07         0.13093E-10         0.00000E+00
    0.58434E-07         0.10145E-10         0.00000E+00
    0.58434E-07         0.69179E-11         0.00000E+00
    0.58434E-07         0.35053E-11         0.00000E+00
    0.58434E-07         0.17642E-11         0.00000E+00
    0.64969E-07         0.33262E-11         0.00000E+00
    0.64969E-07         0.61580E-11         0.00000E+00
    0.64967E-07         0.11179E-10         0.00000E+00
    0.64966E-07         0.14968E-10         0.00000E+00
    0.64965E-07         0.17626E-10         0.00000E+00
    0.64964E-07         0.19253E-10         0.00000E+00
    0.64963E-07         0.19950E-10         0.00000E+00
    0.64962E-07         0.19813E-10         0.00000E+00
    0.64961E-07         0.18938E-10         0.00000E+00
    0.64961E-07         0.17420E-10         0.00000E+00
    0.64960E-07         0.15352E-10         0.00000E+00
    0.64960E-07         0.12828E-10         0.00000E+00
    0.64960E-07         0.99391E-11         0.00000E+00
    0.64960E-07         0.67774E-11         0.00000E+00
    0.64959E-07         0.34341E-11         0.00000E+00
    0.64959E-07         0.17284E-11         0.00000E+00
    0.71506E-07         0.32488E-11         0.00000E+00
    0.71505E-07         0.60147E-11         0.00000E+00
    0.71503E-07         0.10919E-10         0.00000E+00
    0.71502E-07         0.14619E-10         0.00000E+00
    0.71500E-07         0.17214E-10         0.00000E+00
    0.71499E-07         0.18804E-10         0.00000E+00
    0.71498E-07         0.19483E-10         0.00000E+00
    0.71498E-07         0.19349E-10         0.00000E+00
    0.71497E-07         0.18493E-10         0.00000E+00
    0.71496E-07         0.17010E-10         0.00000E+00
    0.71496E-07         0.14991E-10         0.00000E+00
    0.71495E-07         0.12525E-10         0.00000E+00
    0.71495E-07         0.97045E-11         0.00000E+00
    0.71495E-07         0.66174E-11         0.00000E+00
    0.71495E-07         0.33530E-11         0.00000E+00
    0.71495E-07         0.16875E-11         0.00000E+00
    0.78053E-07         0.31617E-11         0.00000E+00
    0.78052E-07         0.58532E-11         0.00000E+00
    0.78050E-07         0.10626E-10         0.00000E+00
    0.78049E-07         0.14225E-10         0.00000E+00
    0.78047E-07         0.16750E-10         0.00000E+00
    0.78046E-07         0.18296E-10         0.00000E+00
    0.78045E-07         0.18957E-10         0.00000E+00
    0.78044E-07         0.18825E-10         0.00000E+00
    0.78043E-07         0.17992E-10         0.00000E+00
    0.78043E-07         0.16549E-10         0.00000E+00
    0.78042E-07         0.14583E-10         0.00000E+00
    0.78042E-07         0.12185E-10         0.00000E+00
    0.78042E-07         0.94404E-11         0.00000E+00
    0.78041E-07         0.64372E-11         0.00000E+00
    0.78041E-07         0.32616E-11         0.00000E+00
    0.78041E-07         0.16416E-11         0.00000E+00
    0.84612E-07         0.30649E-11         0.00000E+00
    0.84611E-07         0.56737E-11         0.00000E+00
    0.84609E-07         0.10299E-10         0.00000E+00
    0.84607E-07         0.13788E-10         0.00000E+00
    0.84606E-07         0.16234E-10         0.00000E+00
    0.84605E-07         0.17731E-10         0.00000E+00
    0.84603E-07         0.18370E-10         0.00000E+00
    0.84603E-07         0.18242E-10         0.00000E+00
    0.84602E-07         0.17434E-10         0.00000E+00
    0.84601E-07         0.16034E-10         0.00000E+00
    0.84600E-07         0.14130E-10         0.00000E+00
    0.84600E-07         0.11805E-10         0.00000E+00
    0.84600E-07         0.91463E-11         0.00000E+00
    0.84599E-07         0.62365E-11         0.00000E+00
    0.84599E-07         0.31599E-11         0.00000E+00
    0.84599E-07         0.15904E-11         0.00000E+00
    0.91184E-07         0.29583E-11         0.00000E+00
    0.91183E-07         0.54759E-11         0.00000E+00
    0.91181E-07         0.99392E-11         0.00000E+00
    0.91179E-07         0.13305E-10         0.00000E+00
    0.91177E-07         0.15664E-10         0.00000E+00
    0.91176E-07         0.17107E-10         0.00000E+00
    0.91175E-07         0.17723E-10         0.00000E+00
    0.91174E-07         0.17598E-10         0.00000E+00
    0.91173E-07         0.16817E-10         0.00000E+00
    0.91172E-07         0.15467E-10         0.00000E+00
    0.91171E-07         0.13629E-10         0.00000E+00
    0.91171E-07         0.11387E-10         0.00000E+00
    0.91171E-07         0.88216E-11         0.00000E+00
    0.91170E-07         0.60150E-11         0.00000E+00
    0.91170E-07         0.30476E-11         0.00000E+00
    0.91170E-07         0.15339E-11         0.00000E+00
    0.97769E-07         0.28416E-11         0.00000E+00
    0.97768E-07         0.52596E-11         0.00000E+00
    0.97766E-07         0.95455E-11         0.00000E+00
    0.97764E-07         0.12776E-10         0.00000E+00
    0.97762E-07         0.15040E-10         0.00000E+00
    0.97760E-07         0.16424E-10         0.00000E+00
    0.97759E-07         0.17014E-10         0.00000E+00
    0.97758E-07         0.16892E-10         0.00000E+00
    0.97757E-07         0.16142E-10         0.00000E+00
    0.97756E-07         0.14845E-10         0.00000E+00
    0.97756E-07         0.13080E-10         0.00000E+00
    0.97755E-07         0.10928E-10         0.00000E+00
    0.97755E-07         0.84657E-11         0.00000E+00
    0.97755E-07         0.57722E-11         0.00000E+00
    0.97754E-07         0.29246E-11         0.00000E+00
    0.97754E-07         0.14719E-11         0.00000E+00
    0.10437E-06         0.27149E-11         0.00000E+00
    0.10437E-06         0.50244E-11         0.00000E+00
    0.10436E-06         0.91174E-11         0.00000E+00
    0.10436E-06         0.12201E-10         0.00000E+00
    0.10436E-06         0.14362E-10         0.00000E+00
    0.10436E-06         0.15681E-10         0.00000E+00
    0.10436E-06         0.16242E-10         0.00000E+00
    0.10436E-06         0.16125E-10         0.00000E+00
    0.10436E-06         0.15407E-10         0.00000E+00
    0.10435E-06         0.14168E-10         0.00000E+00
    0.10435E-06         0.12483E-10         0.00000E+00
    0.10435E-06         0.10428E-10         0.00000E+00
    0.10435E-06         0.80782E-11         0.00000E+00
    0.10435E-06         0.55078E-11         0.00000E+00
    0.10435E-06         0.27906E-11         0.00000E+00
    0.10435E-06         0.14045E-11         0.00000E+00
    0.11098E-06         0.25777E-11         0.00000E+00
    0.11098E-06         0.47698E-11         0.00000E+00
    0.11098E-06         0.86539E-11         0.00000E+00
    0.11098E-06         0.11579E-10         0.00000E+00
    0.11097E-06         0.13627E-10         0.00000E+00
    0.11097E-06         0.14877E-10         0.00000E+00
    0.11097E-06         0.15406E-10         0.00000E+00
    0.11097E-06         0.15293E-10         0.00000E+00
    0.11097E-06         0.14611E-10         0.00000E+00
    0.11097E-06         0.13434E-10         0.00000E+00
    0.11097E-06         0.11835E-10         0.00000E+00
    0.11097E-06         0.98863E-11         0.00000E+00
    0.11097E-06         0.76582E-11         0.00000E+00
    0.11097E-06         0.52213E-11         0.00000E+00
    0.11097E-06         0.26453E-11         0.00000E+00
    0.11097E-06         0.13313E-11         0.00000E+00
    0.11761E-06         0.24298E-11         0.00000E+00
    0.11761E-06         0.44953E-11         0.00000E+00
    0.11761E-06         0.81541E-11         0.00000E+00
    0.11761E-06         0.10908E-10         0.00000E+00
    0.11760E-06         0.12834E-10         0.00000E+00
    0.11760E-06         0.14008E-10         0.00000E+00
    0.11760E-06         0.14505E-10         0.00000E+00
    0.11760E-06         0.14395E-10         0.00000E+00
    0.11760E-06         0.13751E-10         0.00000E+00
    0.11760E-06         0.12642E-10         0.00000E+00
    0.11760E-06         0.11137E-10         0.00000E+00
    0.11760E-06         0.93019E-11         0.00000E+00
    0.11760E-06         0.72050E-11         0.00000E+00
    0.11760E-06         0.49120E-11         0.00000E+00
    0.11760E-06         0.24886E-11         0.00000E+00
    0.11759E-06         0.12524E-11         0.00000E+00
    0.12426E-06         0.22709E-11         0.00000E+00
    0.12426E-06         0.42003E-11         0.00000E+00
    0.12425E-06         0.76170E-11         0.00000E+00
    0.12425E-06         0.10186E-10         0.00000E+00
    0.12425E-06         0.11982E-10         0.00000E+00
    0.12425E-06         0.13075E-10         0.00000E+00
    0.12425E-06         0.13535E-10         0.00000E+00
    0.12424E-06         0.13431E-10         0.00000E+00
    0.12424E-06         0.12827E-10         0.00000E+00
    0.12424E-06         0.11791E-10         0.00000E+00
    0.12424E-06         0.10385E-10         0.00000E+00
    0.12424E-06         0.86733E-11         0.00000E+00
    0.12424E-06         0.67175E-11         0.00000E+00
    0.12424E-06         0.45794E-11         0.00000E+00
    0.12424E-06         0.23200E-11         0.00000E+00
    0.12424E-06         0.11676E-11         0.00000E+00
    0.13092E-06         0.21006E-11         0.00000E+00
    0.13092E-06         0.38841E-11         0.00000E+00
    0.13092E-06         0.70412E-11         0.00000E+00
    0.13091E-06         0.94131E-11         0.00000E+00
    0.13091E-06         0.11069E-10         0.00000E+00
    0.13091E-06         0.12075E-10         0.00000E+00
    0.13091E-06         0.12496E-10         0.00000E+00
    0.13091E-06         0.12396E-10         0.00000E+00
    0.13091E-06         0.11836E-10         0.00000E+00
    0.13090E-06         0.10878E-10         0.00000E+00
    0.13090E-06         0.95794E-11         0.00000E+00
    0.13090E-06         0.79992E-11         0.00000E+00
    0.13090E-06         0.61948E-11         0.00000E+00
    0.13090E-06         0.42227E-11         0.00000E+00
    0.13090E-06         0.21392E-11         0.00000E+00
    0.13090E-06         0.10765E-11         0.00000E+00
    0.13760E-06         0.19184E-11         0.00000E+00
    0.13760E-06         0.35460E-11         0.00000E+00
    0.13760E-06         0.64255E-11         0.00000E+00
    0.13759E-06         0.85860E-11         0.00000E+00
    0.13759E-06         0.10092E-10         0.00000E+00
    0.13759E-06         0.11004E-10         0.00000E+00
    0.13759E-06         0.11384E-10         0.00000E+00
    0.13759E-06         0.11289E-10         0.00000E+00
    0.13758E-06         0.10777E-10         0.00000E+00
    0.13758E-06         0.99012E-11         0.00000E+00
    0.13758E-06         0.87174E-11         0.00000E+00
    0.13758E-06         0.72781E-11         0.00000E+00
    0.13758E-06         0.56355E-11         0.00000E+00
    0.13758E-06         0.38411E-11         0.00000E+00
    0.13758E-06         0.19457E-11         0.00000E+00
    0.13758E-06         0.97916E-12         0.00000E+00
    0.14430E-06         0.17241E-11         0.00000E+00
    0.14430E-06         0.31852E-11         0.00000E+00
    0.14429E-06         0.57683E-11         0.00000E+00
    0.14429E-06         0.77032E-11         0.00000E+00
    0.14429E-06         0.90489E-11         0.00000E+00
    0.14429E-06         0.98620E-11         0.00000E+00
    0.14428E-06         0.10197E-10         0.00000E+00
    0.14428E-06         0.10108E-10         0.00000E+00
    0.14428E-06         0.96451E-11         0.00000E+00
    0.14428E-06         0.88586E-11         0.00000E+00
    0.14428E-06         0.77971E-11         0.00000E+00
    0.14428E-06         0.65082E-11         0.00000E+00
    0.14428E-06         0.50385E-11         0.00000E+00
    0.14428E-06         0.34337E-11         0.00000E+00
    0.14428E-06         0.17392E-11         0.00000E+00
    0.14428E-06         0.87520E-12         0.00000E+00
    0.15101E-06         0.15169E-11         0.00000E+00
    0.15101E-06         0.28006E-11         0.00000E+00
    0.15101E-06         0.50680E-11         0.00000E+00
    0.15101E-06         0.67625E-11         0.00000E+00
    0.15100E-06         0.79377E-11         0.00000E+00
    0.15100E-06         0.86447E-11         0.00000E+00
    0.15100E-06         0.89327E-11         0.00000E+00
    0.15100E-06         0.88490E-11         0.00000E+00
    0.15100E-06         0.84392E-11         0.00000E+00
    0.15099E-06         0.77475E-11         0.00000E+00
    0.15099E-06         0.68164E-11         0.00000E+00
    0.15099E-06         0.56878E-11         0.00000E+00
    0.15099E-06         0.44022E-11         0.00000E+00
    0.15099E-06         0.29995E-11         0.00000E+00
    0.15099E-06         0.15191E-11         0.00000E+00
    0.15099E-06         0.76440E-12         0.00000E+00
    0.15775E-06         0.12966E-11         0.00000E+00
    0.15775E-06         0.23915E-11         0.00000E+00
    0.15774E-06         0.43229E-11         0.00000E+00
    0.15774E-06         0.57616E-11         0.00000E+00
    0.15774E-06         0.67554E-11         0.00000E+00
    0.15773E-06         0.73494E-11         0.00000E+00
    0.15773E-06         0.75870E-11         0.00000E+00
    0.15773E-06         0.75095E-11         0.00000E+00
    0.15773E-06         0.71562E-11         0.00000E+00
    0.15773E-06         0.65652E-11         0.00000E+00
    0.15773E-06         0.57729E-11         0.00000E+00
    0.15773E-06         0.48147E-11         0.00000E+00
    0.15773E-06         0.37251E-11         0.00000E+00
    0.15773E-06         0.25375E-11         0.00000E+00
    0.15772E-06         0.12849E-11         0.00000E+00
    0.15772E-06         0.64651E-12         0.00000E+00
    0.16450E-06         0.10624E-11         0.00000E+00
    0.16450E-06         0.19568E-11         0.00000E+00
    0.16449E-06         0.35312E-11         0.00000E+00
    0.16449E-06         0.46981E-11         0.00000E+00
    0.16449E-06         0.54990E-11         0.00000E+00
    0.16449E-06         0.59730E-11         0.00000E+00
    0.16448E-06         0.61571E-11         0.00000E+00
    0.16448E-06         0.60860E-11         0.00000E+00
    0.16448E-06         0.57928E-11         0.00000E+00
    0.16448E-06         0.53088E-11         0.00000E+00
    0.16448E-06         0.46640E-11         0.00000E+00
    0.16448E-06         0.38870E-11         0.00000E+00
    0.16448E-06         0.30056E-11         0.00000E+00
    0.16448E-06         0.20465E-11         0.00000E+00
    0.16448E-06         0.10361E-11         0.00000E+00
    0.16448E-06         0.52122E-12         0.00000E+00
    0.17127E-06         0.81387E-12         0.00000E+00
    0.17127E-06         0.14954E-11         0.00000E+00
    0.17127E-06         0.26909E-11         0.00000E+00
    0.17126E-06         0.35692E-11         0.00000E+00
    0.17126E-06         0.41655E-11         0.00000E+00
    0.17126E-06         0.45121E-11         0.00000E+00
    0.17125E-06         0.46393E-11         0.00000E+00
    0.17125E-06         0.45751E-11         0.00000E+00
    0.17125E-06         0.43456E-11         0.00000E+00
    0.17125E-06         0.39753E-11         0.00000E+00
    0.17125E-06         0.34869E-11         0.00000E+00
    0.17125E-06         0.29023E-11         0.00000E+00
    0.17125E-06         0.22419E-11         0.00000E+00
    0.17125E-06         0.15254E-11         0.00000E+00
    0.17125E-06         0.77191E-12         0.00000E+00
    0.17125E-06         0.38825E-12         0.00000E+00
    0.17806E-06         0.55035E-12         0.00000E+00
    0.17806E-06         0.10062E-11         0.00000E+00
    0.17805E-06         0.17999E-11         0.00000E+00
    0.17805E-06         0.23723E-11         0.00000E+00
    0.17805E-06         0.27516E-11         0.00000E+00
    0.17805E-06         0.29632E-11         0.00000E+00
    0.17804E-06         0.30301E-11         0.00000E+00
    0.17804E-06         0.29732E-11         0.00000E+00
    0.17804E-06         0.28113E-11         0.00000E+00
    0.17804E-06         0.25614E-11         0.00000E+00
    0.17804E-06         0.22390E-11         0.00000E+00
    0.17804E-06         0.18582E-11         0.00000E+00
    0.17804E-06         0.14322E-11         0.00000E+00
    0.17804E-06         0.97289E-12         0.00000E+00
    0.17803E-06         0.49183E-12         0.00000E+00
    0.17803E-06         0.24725E-12         0.00000E+00
    0.18487E-06         0.27119E-12         0.00000E+00
    0.18487E-06         0.48794E-12         0.00000E+00
    0.18486E-06         0.85603E-12         0.00000E+00
    0.18486E-06         0.11044E-11         0.00000E+00
    0.18486E-06         0.12538E-11         0.00000E+00
    0.18485E-06         0.13223E-11         0.00000E+00
    0.18485E-06         0.13254E-11         0.00000E+00
    0.18485E-06         0.12763E-11         0.00000E+00
    0.18485E-06         0.11859E-11         0.00000E+00
    0.18485E-06         0.10636E-11         0.00000E+00
    0.18484E-06         0.91704E-12         0.00000E+00
    0.18484E-06         0.75230E-12         0.00000E+00
    0.18484E-06         0.57446E-12         0.00000E+00
    0.18484E-06         0.38761E-12         0.00000E+00
    0.18484E-06         0.19515E-12         0.00000E+00
    0.18484E-06         0.97904E-13         0.00000E+00
    0.19170E-06        -0.24293E-13         0.00000E+00
    0.19169E-06        -0.60604E-13         0.00000E+00
    0.19169E-06        -0.14297E-12         0.00000E+00
    0.19168E-06        -0.23758E-12         0.00000E+00
    0.19168E-06        -0.33141E-12         0.00000E+00
    0.19168E-06        -0.41431E-12         0.00000E+00
    0.19168E-06        -0.47878E-12         0.00000E+00
    0.19167E-06        -0.51975E-12         0.00000E+00
    0.19167E-06        -0.53432E-12         0.00000E+00
    0.19167E-06        -0.52151E-12         0.00000E+00
    0.19167E-06        -0.48207E-12         0.00000E+00
    0.19167E-06        -0.41820E-12         0.00000E+00
    0.19167E-06        -0.33332E-12         0.00000E+00
    0.19167E-06        -0.23182E-12         0.00000E+00
    0.19167E-06        -0.11884E-12         0.00000E+00
    0.19167E-06        -0.60162E-13         0.00000E+00
    0.19854E-06        -0.33681E-12         0.00000E+00
    0.19854E-06        -0.64076E-12         0.00000E+00
    0.19853E-06        -0.11995E-11         0.00000E+00
    0.19853E-06        -0.16569E-11         0.00000E+00
    0.19853E-06        -0.20080E-11         0.00000E+00
    0.19852E-06        -0.22510E-11         0.00000E+00
    0.19852E-06        -0.23869E-11         0.00000E+00
    0.19852E-06        -0.24192E-11         0.00000E+00
    0.19852E-06        -0.23536E-11         0.00000E+00
    0.19851E-06        -0.21979E-11         0.00000E+00
    0.19851E-06        -0.19617E-11         0.00000E+00
    0.19851E-06        -0.16561E-11         0.00000E+00
    0.19851E-06        -0.12933E-11         0.00000E+00
    0.19851E-06        -0.88690E-12         0.00000E+00
    0.19851E-06        -0.45090E-12         0.00000E+00
    0.19851E-06        -0.22732E-12         0.00000E+00
    0.20540E-06        -0.66710E-12         0.00000E+00
    0.20540E-06        -0.12539E-11         0.00000E+00
    0.20540E-06        -0.23162E-11         0.00000E+00
    0.20539E-06        -0.31569E-11         0.00000E+00
    0.20539E-06        -0.37798E-11         0.00000E+00
    0.20538E-06        -0.41920E-11         0.00000E+00
    0.20538E-06        -0.44034E-11         0.00000E+00
    0.20538E-06        -0.44265E-11         0.00000E+00
    0.20538E-06        -0.42762E-11         0.00000E+00
    0.20538E-06        -0.39695E-11         0.00000E+00
    0.20538E-06        -0.35254E-11         0.00000E+00
    0.20537E-06        -0.29642E-11         0.00000E+00
    0.20537E-06        -0.23079E-11         0.00000E+00
    0.20537E-06        -0.15792E-11         0.00000E+00
    0.20537E-06        -0.80182E-12         0.00000E+00
    0.20537E-06        -0.40398E-12         0.00000E+00
    0.21228E-06        -0.10160E-11         0.00000E+00
    0.21228E-06        -0.19015E-11         0.00000E+00
    0.21228E-06        -0.34956E-11         0.00000E+00
    0.21227E-06        -0.47411E-11         0.00000E+00
    0.21227E-06        -0.56512E-11         0.00000E+00
    0.21226E-06        -0.62420E-11         0.00000E+00
    0.21226E-06        -0.65331E-11         0.00000E+00
    0.21226E-06        -0.65464E-11         0.00000E+00
    0.21226E-06        -0.63066E-11         0.00000E+00
    0.21226E-06        -0.58405E-11         0.00000E+00
    0.21225E-06        -0.51767E-11         0.00000E+00
    0.21225E-06        -0.43457E-11         0.00000E+00
    0.21225E-06        -0.33793E-11         0.00000E+00
    0.21225E-06        -0.23103E-11         0.00000E+00
    0.21225E-06        -0.11724E-11         0.00000E+00
    0.21225E-06        -0.59053E-12         0.00000E+00
    0.21918E-06        -0.13842E-11         0.00000E+00
    0.21918E-06        -0.25851E-11         0.00000E+00
    0.21917E-06        -0.47405E-11         0.00000E+00
    0.21917E-06        -0.64133E-11         0.00000E+00
    0.21916E-06        -0.76263E-11         0.00000E+00
    0.21916E-06        -0.84058E-11         0.00000E+00
    0.21916E-06        -0.87809E-11         0.00000E+00
    0.21915E-06        -0.87839E-11         0.00000E+00
    0.21915E-06        -0.84496E-11         0.00000E+00
    0.21915E-06        -0.78151E-11         0.00000E+00
    0.21915E-06        -0.69196E-11         0.00000E+00
    0.21915E-06        -0.58038E-11         0.00000E+00
    0.21915E-06        -0.45100E-11         0.00000E+00
    0.21915E-06        -0.30818E-11         0.00000E+00
    0.21915E-06        -0.15635E-11         0.00000E+00
    0.21915E-06        -0.78742E-12         0.00000E+00
    0.22609E-06        -0.17727E-11         0.00000E+00
    0.22609E-06        -0.33063E-11         0.00000E+00
    0.22608E-06        -0.60537E-11         0.00000E+00
    0.22608E-06        -0.81773E-11         0.00000E+00
    0.22608E-06        -0.97099E-11         0.00000E+00
    0.22607E-06        -0.10688E-10         0.00000E+00
    0.22607E-06        -0.11152E-10         0.00000E+00
    0.22607E-06        -0.11144E-10         0.00000E+00
    0.22606E-06        -0.10710E-10         0.00000E+00
    0.22606E-06        -0.98980E-11         0.00000E+00
    0.22606E-06        -0.87579E-11         0.00000E+00
    0.22606E-06        -0.73417E-11         0.00000E+00
    0.22606E-06        -0.57028E-11         0.00000E+00
    0.22606E-06        -0.38957E-11         0.00000E+00
    0.22606E-06        -0.19761E-11         0.00000E+00
    0.22606E-06        -0.99510E-12         0.00000E+00
    0.23302E-06        -0.21823E-11         0.00000E+00
    0.23302E-06        -0.40666E-11         0.00000E+00
    0.23301E-06        -0.74383E-11         0.00000E+00
    0.23301E-06        -0.10037E-10         0.00000E+00
    0.23300E-06        -0.11907E-10         0.00000E+00
    0.23300E-06        -0.13094E-10         0.00000E+00
    0.23300E-06        -0.13652E-10         0.00000E+00
    0.23299E-06        -0.13632E-10         0.00000E+00
    0.23299E-06        -0.13093E-10         0.00000E+00
    0.23299E-06        -0.12094E-10         0.00000E+00
    0.23299E-06        -0.10696E-10         0.00000E+00
    0.23299E-06        -0.89630E-11         0.00000E+00
    0.23299E-06        -0.69601E-11         0.00000E+00
    0.23299E-06        -0.47536E-11         0.00000E+00
    0.23299E-06        -0.24110E-11         0.00000E+00
    0.23299E-06        -0.12140E-11         0.00000E+00
    0.23996E-06        -0.26139E-11         0.00000E+00
    0.23996E-06        -0.48678E-11         0.00000E+00
    0.23995E-06        -0.88974E-11         0.00000E+00
    0.23995E-06        -0.11997E-10         0.00000E+00
    0.23994E-06        -0.14221E-10         0.00000E+00
    0.23994E-06        -0.15630E-10         0.00000E+00
    0.23994E-06        -0.16286E-10         0.00000E+00
    0.23994E-06        -0.16254E-10         0.00000E+00
    0.23993E-06        -0.15604E-10         0.00000E+00
    0.23993E-06        -0.14407E-10         0.00000E+00
    0.23993E-06        -0.12738E-10         0.00000E+00
    0.23993E-06        -0.10671E-10         0.00000E+00
    0.23993E-06        -0.82848E-11         0.00000E+00
    0.23993E-06        -0.56576E-11         0.00000E+00
    0.23993E-06        -0.28692E-11         0.00000E+00
    0.23993E-06        -0.14447E-11         0.00000E+00
    0.24692E-06        -0.30685E-11         0.00000E+00
    0.24691E-06        -0.57117E-11         0.00000E+00
    0.24691E-06        -0.10434E-10         0.00000E+00
    0.24690E-06        -0.14061E-10         0.00000E+00
    0.24690E-06        -0.16659E-10         0.00000E+00
    0.24690E-06        -0.18300E-10         0.00000E+00
    0.24689E-06        -0.19059E-10         0.00000E+00
    0.24689E-06        -0.19015E-10         0.00000E+00
    0.24689E-06        -0.18248E-10         0.00000E+00
    0.24689E-06        -0.16844E-10         0.00000E+00
    0.24688E-06        -0.14888E-10         0.00000E+00
    0.24688E-06        -0.12470E-10         0.00000E+00
    0.24688E-06        -0.96799E-11         0.00000E+00
    0.24688E-06        -0.66095E-11         0.00000E+00
    0.24688E-06        -0.33517E-11         0.00000E+00
    0.24688E-06        -0.16876E-11         0.00000E+00
    0.25388E-06        -0.35471E-11         0.00000E+00
    0.25388E-06        -0.66001E-11         0.00000E+00
    0.25388E-06        -0.12052E-10         0.00000E+00
    0.25387E-06        -0.16233E-10         0.00000E+00
    0.25387E-06        -0.19225E-10         0.00000E+00
    0.25386E-06        -0.21111E-10         0.00000E+00
    0.25386E-06        -0.21979E-10         0.00000E+00
    0.25386E-06        -0.21921E-10         0.00000E+00
    0.25385E-06        -0.21031E-10         0.00000E+00
    0.25385E-06        -0.19408E-10         0.00000E+00
    0.25385E-06        -0.17151E-10         0.00000E+00
    0.25385E-06        -0.14363E-10         0.00000E+00
    0.25385E-06        -0.11148E-10         0.00000E+00
    0.25385E-06        -0.76113E-11         0.00000E+00
    0.25385E-06        -0.38595E-11         0.00000E+00
    0.25385E-06        -0.19432E-11         0.00000E+00
    0.26086E-06        -0.40507E-11         0.00000E+00
    0.26086E-06        -0.75349E-11         0.00000E+00
    0.26085E-06        -0.13754E-10         0.00000E+00
    0.26085E-06        -0.18519E-10         0.00000E+00
    0.26084E-06        -0.21925E-10         0.00000E+00
    0.26084E-06        -0.24068E-10         0.00000E+00
    0.26084E-06        -0.25051E-10         0.00000E+00
    0.26083E-06        -0.24978E-10         0.00000E+00
    0.26083E-06        -0.23959E-10         0.00000E+00
    0.26083E-06        -0.22106E-10         0.00000E+00
    0.26083E-06        -0.19532E-10         0.00000E+00
    0.26083E-06        -0.16355E-10         0.00000E+00
    0.26083E-06        -0.12693E-10         0.00000E+00
    0.26083E-06        -0.86652E-11         0.00000E+00
    0.26083E-06        -0.43937E-11         0.00000E+00
    0.26082E-06        -0.22121E-11         0.00000E+00
    0.26785E-06        -0.45804E-11         0.00000E+00
    0.26784E-06        -0.85179E-11         0.00000E+00
    0.26784E-06        -0.15544E-10         0.00000E+00
    0.26783E-06        -0.20923E-10         0.00000E+00
    0.26783E-06        -0.24764E-10         0.00000E+00
    0.26782E-06        -0.27178E-10         0.00000E+00
    0.26782E-06        -0.28281E-10         0.00000E+00
    0.26782E-06        -0.28193E-10         0.00000E+00
    0.26782E-06        -0.27038E-10         0.00000E+00
    0.26781E-06        -0.24942E-10         0.00000E+00
    0.26781E-06        -0.22035E-10         0.00000E+00
    0.26781E-06        -0.18449E-10         0.00000E+00
    0.26781E-06        -0.14316E-10         0.00000E+00
    0.26781E-06        -0.97732E-11         0.00000E+00
    0.26781E-06        -0.49553E-11         0.00000E+00
    0.26781E-06        -0.24949E-11         0.00000E+00
    0.27484E-06        -0.51371E-11         0.00000E+00
    0.27484E-06        -0.95512E-11         0.00000E+00
    0.27483E-06        -0.17425E-10         0.00000E+00
    0.27482E-06        -0.23450E-10         0.00000E+00
    0.27482E-06        -0.27748E-10         0.00000E+00
    0.27482E-06        -0.30445E-10         0.00000E+00
    0.27481E-06        -0.31675E-10         0.00000E+00
    0.27481E-06        -0.31571E-10         0.00000E+00
    0.27481E-06        -0.30273E-10         0.00000E+00
    0.27481E-06        -0.27923E-10         0.00000E+00
    0.27481E-06        -0.24666E-10         0.00000E+00
    0.27480E-06        -0.20649E-10         0.00000E+00
    0.27480E-06        -0.16023E-10         0.00000E+00
    0.27480E-06        -0.10937E-10         0.00000E+00
    0.27480E-06        -0.55455E-11         0.00000E+00
    0.27480E-06        -0.27919E-11         0.00000E+00
    0.28184E-06        -0.57219E-11         0.00000E+00
    0.28183E-06        -0.10637E-10         0.00000E+00
    0.28183E-06        -0.19401E-10         0.00000E+00
    0.28182E-06        -0.26104E-10         0.00000E+00
    0.28182E-06        -0.30882E-10         0.00000E+00
    0.28181E-06        -0.33878E-10         0.00000E+00
    0.28181E-06        -0.35240E-10         0.00000E+00
    0.28181E-06        -0.35119E-10         0.00000E+00
    0.28181E-06        -0.33671E-10         0.00000E+00
    0.28180E-06        -0.31053E-10         0.00000E+00
    0.28180E-06        -0.27428E-10         0.00000E+00
    0.28180E-06        -0.22960E-10         0.00000E+00
    0.28180E-06        -0.17815E-10         0.00000E+00
    0.28180E-06        -0.12160E-10         0.00000E+00
    0.28180E-06        -0.61653E-11         0.00000E+00
    0.28180E-06        -0.31039E-11         0.00000E+00
    0.28884E-06        -0.63361E-11         0.00000E+00
    0.28884E-06        -0.11777E-10         0.00000E+00
    0.28883E-06        -0.21476E-10         0.00000E+00
    0.28882E-06        -0.28890E-10         0.00000E+00
    0.28882E-06        -0.34172E-10         0.00000E+00
    0.28881E-06        -0.37482E-10         0.00000E+00
    0.28881E-06        -0.38983E-10         0.00000E+00
    0.28881E-06        -0.38844E-10         0.00000E+00
    0.28881E-06        -0.37237E-10         0.00000E+00
    0.28880E-06        -0.34339E-10         0.00000E+00
    0.28880E-06        -0.30328E-10         0.00000E+00
    0.28880E-06        -0.25386E-10         0.00000E+00
    0.28880E-06        -0.19696E-10         0.00000E+00
    0.28880E-06        -0.13444E-10         0.00000E+00
    0.28880E-06        -0.68158E-11         0.00000E+00
    0.28880E-06        -0.34314E-11         0.00000E+00
    0.29584E-06        -0.69806E-11         0.00000E+00
    0.29584E-06        -0.12973E-10         0.00000E+00
    0.29583E-06        -0.23654E-10         0.00000E+00
    0.29582E-06        -0.31814E-10         0.00000E+00
    0.29582E-06        -0.37625E-10         0.00000E+00
    0.29581E-06        -0.41262E-10         0.00000E+00
    0.29581E-06        -0.42909E-10         0.00000E+00
    0.29581E-06        -0.42751E-10         0.00000E+00
    0.29581E-06        -0.40979E-10         0.00000E+00
    0.29580E-06        -0.37786E-10         0.00000E+00
    0.29580E-06        -0.33370E-10         0.00000E+00
    0.29580E-06        -0.27930E-10         0.00000E+00
    0.29580E-06        -0.21669E-10         0.00000E+00
    0.29580E-06        -0.14790E-10         0.00000E+00
    0.29580E-06        -0.74981E-11         0.00000E+00
    0.29580E-06        -0.37749E-11         0.00000E+00
    0.30284E-06        -0.76566E-11         0.00000E+00
    0.30284E-06        -0.14227E-10         0.00000E+00
    0.30283E-06        -0.25937E-10         0.00000E+00
    0.30282E-06        -0.34880E-10         0.00000E+00
    0.30282E-06        -0.41245E-10         0.00000E+00
    0.30281E-06        -0.45226E-10         0.00000E+00
    0.30281E-06        -0.47026E-10         0.00000E+00
    0.30281E-06        -0.46848E-10         0.00000E+00
    0.30280E-06        -0.44901E-10         0.00000E+00
    0.30280E-06        -0.41399E-10         0.00000E+00
    0.30280E-06        -0.36558E-10         0.00000E+00
    0.30280E-06        -0.30597E-10         0.00000E+00
    0.30280E-06        -0.23737E-10         0.00000E+00
    0.30280E-06        -0.16201E-10         0.00000E+00
    0.30280E-06        -0.82133E-11         0.00000E+00
    0.30280E-06        -0.41349E-11         0.00000E+00
    0.30983E-06        -0.83651E-11         0.00000E+00
    0.30983E-06        -0.15542E-10         0.00000E+00
    0.30982E-06        -0.28330E-10         0.00000E+00
    0.30982E-06        -0.38093E-10         0.00000E+00
    0.30981E-06        -0.45038E-10         0.00000E+00
    0.30981E-06        -0.49380E-10         0.00000E+00
    0.30980E-06        -0.51339E-10         0.00000E+00
    0.30980E-06        -0.51139E-10         0.00000E+00
    0.30980E-06        -0.49010E-10         0.00000E+00
    0.30980E-06        -0.45184E-10         0.00000E+00
    0.30980E-06        -0.39898E-10         0.00000E+00
    0.30979E-06        -0.33391E-10         0.00000E+00
    0.30979E-06        -0.25903E-10         0.00000E+00
    0.30979E-06        -0.17679E-10         0.00000E+00
    0.30979E-06        -0.89624E-11         0.00000E+00
    0.30979E-06        -0.45120E-11         0.00000E+00
    0.31682E-06        -0.91072E-11         0.00000E+00
    0.31682E-06        -0.16919E-10         0.00000E+00
    0.31681E-06        -0.30837E-10         0.00000E+00
    0.31680E-06        -0.41457E-10         0.00000E+00
    0.31680E-06        -0.49010E-10         0.00000E+00
    0.31679E-06        -0.53728E-10         0.00000E+00
    0.31679E-06        -0.55854E-10         0.00000E+00
    0.31679E-06        -0.55632E-10         0.00000E+00
    0.31678E-06        -0.53311E-10         0.00000E+00
    0.31678E-06        -0.49146E-10         0.00000E+00
    0.31678E-06        -0.43394E-10         0.00000E+00
    0.31678E-06        -0.36314E-10         0.00000E+00
    0.31678E-06        -0.28170E-10         0.00000E+00
    0.31678E-06        -0.19225E-10         0.00000E+00
    0.31678E-06        -0.97464E-11         0.00000E+00
    0.31678E-06        -0.49066E-11         0.00000E+00
    0.32379E-06        -0.98838E-11         0.00000E+00
    0.32379E-06        -0.18360E-10         0.00000E+00
    0.32378E-06        -0.33459E-10         0.00000E+00
    0.32378E-06        -0.44977E-10         0.00000E+00
    0.32377E-06        -0.53165E-10         0.00000E+00
    0.32377E-06        -0.58277E-10         0.00000E+00
    0.32376E-06        -0.60577E-10         0.00000E+00
    0.32376E-06        -0.60331E-10         0.00000E+00
    0.32376E-06        -0.57810E-10         0.00000E+00
    0.32376E-06        -0.53290E-10         0.00000E+00
    0.32375E-06        -0.47050E-10         0.00000E+00
    0.32375E-06        -0.39372E-10         0.00000E+00
    0.32375E-06        -0.30541E-10         0.00000E+00
    0.32375E-06        -0.20843E-10         0.00000E+00
    0.32375E-06        -0.10566E-10         0.00000E+00
    0.32375E-06        -0.53193E-11         0.00000E+00
    0.33075E-06        -0.10696E-10         0.00000E+00
    0.33075E-06        -0.19866E-10         0.00000E+00
    0.33074E-06        -0.36200E-10         0.00000E+00
    0.33073E-06        -0.48657E-10         0.00000E+00
    0.33073E-06        -0.57508E-10         0.00000E+00
    0.33073E-06        -0.63032E-10         0.00000E+00
    0.33072E-06        -0.65513E-10         0.00000E+00
    0.33072E-06        -0.65241E-10         0.00000E+00
    0.33072E-06        -0.62510E-10         0.00000E+00
    0.33072E-06        -0.57619E-10         0.00000E+00
    0.33071E-06        -0.50869E-10         0.00000E+00
    0.33071E-06        -0.42566E-10         0.00000E+00
    0.33071E-06        -0.33017E-10         0.00000E+00
    0.33071E-06        -0.22532E-10         0.00000E+00
    0.33071E-06        -0.11423E-10         0.00000E+00
    0.33071E-06        -0.57504E-11         0.00000E+00
    0.33769E-06        -0.11544E-10         0.00000E+00
    0.33769E-06        -0.21440E-10         0.00000E+00
    0.33768E-06        -0.39064E-10         0.00000E+00
    0.33768E-06        -0.52499E-10         0.00000E+00
    0.33767E-06        -0.62042E-10         0.00000E+00
    0.33767E-06        -0.67995E-10         0.00000E+00
    0.33766E-06        -0.70665E-10         0.00000E+00
    0.33766E-06        -0.70366E-10         0.00000E+00
    0.33766E-06        -0.67416E-10         0.00000E+00
    0.33766E-06        -0.62137E-10         0.00000E+00
    0.33766E-06        -0.54855E-10         0.00000E+00
    0.33765E-06        -0.45899E-10         0.00000E+00
    0.33765E-06        -0.35601E-10         0.00000E+00
    0.33765E-06        -0.24295E-10         0.00000E+00
    0.33765E-06        -0.12316E-10         0.00000E+00
    0.33765E-06        -0.62001E-11         0.00000E+00
    0.34461E-06        -0.12430E-10         0.00000E+00
    0.34461E-06        -0.23082E-10         0.00000E+00
    0.34460E-06        -0.42051E-10         0.00000E+00
    0.34459E-06        -0.56508E-10         0.00000E+00
    0.34459E-06        -0.66772E-10         0.00000E+00
    0.34458E-06        -0.73171E-10         0.00000E+00
    0.34458E-06        -0.76037E-10         0.00000E+00
    0.34458E-06        -0.75709E-10         0.00000E+00
    0.34458E-06        -0.72530E-10         0.00000E+00
    0.34457E-06        -0.66846E-10         0.00000E+00
    0.34457E-06        -0.59009E-10         0.00000E+00
    0.34457E-06        -0.49373E-10         0.00000E+00
    0.34457E-06        -0.38295E-10         0.00000E+00
    0.34457E-06        -0.26132E-10         0.00000E+00
    0.34457E-06        -0.13247E-10         0.00000E+00
    0.34457E-06        -0.66688E-11         0.00000E+00
    0.35150E-06        -0.13352E-10         0.00000E+00
    0.35150E-06        -0.24793E-10         0.00000E+00
    0.35149E-06        -0.45163E-10         0.00000E+00
    0.35149E-06        -0.60683E-10         0.00000E+00
    0.35148E-06        -0.71698E-10         0.00000E+00
    0.35148E-06        -0.78561E-10         0.00000E+00
    0.35147E-06        -0.81631E-10         0.00000E+00
    0.35147E-06        -0.81272E-10         0.00000E+00
    0.35147E-06        -0.77853E-10         0.00000E+00
    0.35147E-06        -0.71748E-10         0.00000E+00
    0.35146E-06        -0.63333E-10         0.00000E+00
    0.35146E-06        -0.52988E-10         0.00000E+00
    0.35146E-06        -0.41097E-10         0.00000E+00
    0.35146E-06        -0.28044E-10         0.00000E+00
    0.35146E-06        -0.14216E-10         0.00000E+00
    0.35146E-06        -0.71566E-11         0.00000E+00
    0.35836E-06        -0.14313E-10         0.00000E+00
    0.35836E-06        -0.26574E-10         0.00000E+00
    0.35835E-06        -0.48401E-10         0.00000E+00
    0.35834E-06        -0.65026E-10         0.00000E+00
    0.35834E-06        -0.76821E-10         0.00000E+00
    0.35833E-06        -0.84166E-10         0.00000E+00
    0.35833E-06        -0.87447E-10         0.00000E+00
    0.35833E-06        -0.87055E-10         0.00000E+00
    0.35833E-06        -0.83387E-10         0.00000E+00
    0.35833E-06        -0.76842E-10         0.00000E+00
    0.35832E-06        -0.67826E-10         0.00000E+00
    0.35832E-06        -0.56745E-10         0.00000E+00
    0.35832E-06        -0.44009E-10         0.00000E+00
    0.35832E-06        -0.30031E-10         0.00000E+00
    0.35832E-06        -0.15223E-10         0.00000E+00
    0.35832E-06        -0.76633E-11         0.00000E+00
    0.36519E-06        -0.15311E-10         0.00000E+00
    0.36518E-06        -0.28423E-10         0.00000E+00
    0.36517E-06        -0.51765E-10         0.00000E+00
    0.36517E-06        -0.69537E-10         0.00000E+00
    0.36516E-06        -0.82140E-10         0.00000E+00
    0.36516E-06        -0.89984E-10         0.00000E+00
    0.36515E-06        -0.93483E-10         0.00000E+00
    0.36515E-06        -0.93056E-10         0.00000E+00
    0.36515E-06        -0.89127E-10         0.00000E+00
    0.36515E-06        -0.82127E-10         0.00000E+00
    0.36515E-06        -0.72486E-10         0.00000E+00
    0.36515E-06        -0.60641E-10         0.00000E+00
    0.36515E-06        -0.47029E-10         0.00000E+00
    0.36515E-06        -0.32090E-10         0.00000E+00
    0.36515E-06        -0.16267E-10         0.00000E+00
    0.36515E-06        -0.81887E-11         0.00000E+00
    0.37197E-06        -0.16346E-10         0.00000E+00
    0.37196E-06        -0.30342E-10         0.00000E+00
    0.37196E-06        -0.55252E-10         0.00000E+00
    0.37195E-06        -0.74212E-10         0.00000E+00
    0.37194E-06        -0.87652E-10         0.00000E+00
    0.37194E-06        -0.96012E-10         0.00000E+00
    0.37194E-06        -0.99734E-10         0.00000E+00
    0.37193E-06        -0.99269E-10         0.00000E+00
    0.37193E-06        -0.95071E-10         0.00000E+00
    0.37193E-06        -0.87597E-10         0.00000E+00
    0.37193E-06        -0.77310E-10         0.00000E+00
    0.37193E-06        -0.64673E-10         0.00000E+00
    0.37193E-06        -0.50154E-10         0.00000E+00
    0.37193E-06        -0.34222E-10         0.00000E+00
    0.37193E-06        -0.17347E-10         0.00000E+00
    0.37193E-06        -0.87324E-11         0.00000E+00
    0.37870E-06        -0.17417E-10         0.00000E+00
    0.37870E-06        -0.32327E-10         0.00000E+00
    0.37869E-06        -0.58860E-10         0.00000E+00
    0.37868E-06        -0.79047E-10         0.00000E+00
    0.37868E-06        -0.93351E-10         0.00000E+00
    0.37867E-06        -0.10224E-09         0.00000E+00
    0.37867E-06        -0.10619E-09         0.00000E+00
    0.37867E-06        -0.10569E-09         0.00000E+00
    0.37866E-06        -0.10121E-09         0.00000E+00
    0.37866E-06        -0.93247E-10         0.00000E+00
    0.37866E-06        -0.82290E-10         0.00000E+00
    0.37866E-06        -0.68836E-10         0.00000E+00
    0.37866E-06        -0.53380E-10         0.00000E+00
    0.37866E-06        -0.36422E-10         0.00000E+00
    0.37866E-06        -0.18462E-10         0.00000E+00
    0.37866E-06        -0.92936E-11         0.00000E+00
    0.38538E-06        -0.18523E-10         0.00000E+00
    0.38538E-06        -0.34376E-10         0.00000E+00
    0.38537E-06        -0.62582E-10         0.00000E+00
    0.38536E-06        -0.84034E-10         0.00000E+00
    0.38536E-06        -0.99227E-10         0.00000E+00
    0.38535E-06        -0.10866E-09         0.00000E+00
    0.38535E-06        -0.11285E-09         0.00000E+00
    0.38535E-06        -0.11230E-09         0.00000E+00
    0.38534E-06        -0.10753E-09         0.00000E+00
    0.38534E-06        -0.99065E-10         0.00000E+00
    0.38534E-06        -0.87419E-10         0.00000E+00
    0.38534E-06        -0.73122E-10         0.00000E+00
    0.38534E-06        -0.56701E-10         0.00000E+00
    0.38534E-06        -0.38687E-10         0.00000E+00
    0.38534E-06        -0.19609E-10         0.00000E+00
    0.38534E-06        -0.98712E-11         0.00000E+00
    0.39200E-06        -0.19662E-10         0.00000E+00
    0.39200E-06        -0.36486E-10         0.00000E+00
    0.39199E-06        -0.66413E-10         0.00000E+00
    0.39198E-06        -0.89164E-10         0.00000E+00
    0.39198E-06        -0.10527E-09         0.00000E+00
    0.39197E-06        -0.11526E-09         0.00000E+00
    0.39197E-06        -0.11969E-09         0.00000E+00
    0.39197E-06        -0.11910E-09         0.00000E+00
    0.39197E-06        -0.11403E-09         0.00000E+00
    0.39196E-06        -0.10504E-09         0.00000E+00
    0.39196E-06        -0.92682E-10         0.00000E+00
    0.39196E-06        -0.77520E-10         0.00000E+00
    0.39196E-06        -0.60109E-10         0.00000E+00
    0.39196E-06        -0.41011E-10         0.00000E+00
    0.39196E-06        -0.20787E-10         0.00000E+00
    0.39196E-06        -0.10464E-10         0.00000E+00
    0.39856E-06        -0.20831E-10         0.00000E+00
    0.39855E-06        -0.38650E-10         0.00000E+00
    0.39854E-06        -0.70341E-10         0.00000E+00
    0.39854E-06        -0.94421E-10         0.00000E+00
    0.39853E-06        -0.11146E-09         0.00000E+00
    0.39853E-06        -0.12202E-09         0.00000E+00
    0.39852E-06        -0.12669E-09         0.00000E+00
    0.39852E-06        -0.12605E-09         0.00000E+00
    0.39852E-06        -0.12067E-09         0.00000E+00
    0.39852E-06        -0.11115E-09         0.00000E+00
    0.39852E-06        -0.98064E-10         0.00000E+00
    0.39852E-06        -0.82016E-10         0.00000E+00
    0.39852E-06        -0.63592E-10         0.00000E+00
    0.39852E-06        -0.43385E-10         0.00000E+00
    0.39852E-06        -0.21990E-10         0.00000E+00
    0.39852E-06        -0.11069E-10         0.00000E+00
    0.40504E-06        -0.22026E-10         0.00000E+00
    0.40503E-06        -0.40861E-10         0.00000E+00
    0.40502E-06        -0.74352E-10         0.00000E+00
    0.40502E-06        -0.99789E-10         0.00000E+00
    0.40501E-06        -0.11777E-09         0.00000E+00
    0.40501E-06        -0.12892E-09         0.00000E+00
    0.40500E-06        -0.13383E-09         0.00000E+00
    0.40500E-06        -0.13313E-09         0.00000E+00
    0.40500E-06        -0.12744E-09         0.00000E+00
    0.40500E-06        -0.11737E-09         0.00000E+00
    0.40500E-06        -0.10354E-09         0.00000E+00
    0.40500E-06        -0.86592E-10         0.00000E+00
    0.40500E-06        -0.67136E-10         0.00000E+00
    0.40500E-06        -0.45802E-10         0.00000E+00
    0.40500E-06        -0.23214E-10         0.00000E+00
    0.40500E-06        -0.11685E-10         0.00000E+00
    0.41144E-06        -0.23243E-10         0.00000E+00
    0.41143E-06        -0.43111E-10         0.00000E+00
    0.41142E-06        -0.78431E-10         0.00000E+00
    0.41142E-06        -0.10524E-09         0.00000E+00
    0.41141E-06        -0.12419E-09         0.00000E+00
    0.41141E-06        -0.13591E-09         0.00000E+00
    0.41140E-06        -0.14107E-09         0.00000E+00
    0.41140E-06        -0.14031E-09         0.00000E+00
    0.41140E-06        -0.13429E-09         0.00000E+00
    0.41140E-06        -0.12367E-09         0.00000E+00
    0.41140E-06        -0.10909E-09         0.00000E+00
    0.41140E-06        -0.91225E-10         0.00000E+00
    0.41140E-06        -0.70724E-10         0.00000E+00
    0.41140E-06        -0.48247E-10         0.00000E+00
    0.41140E-06        -0.24453E-10         0.00000E+00
    0.41140E-06        -0.12309E-10         0.00000E+00
    0.41775E-06        -0.24475E-10         0.00000E+00
    0.41774E-06        -0.45387E-10         0.00000E+00
    0.41773E-06        -0.82556E-10         0.00000E+00
    0.41773E-06        -0.11075E-09         0.00000E+00
    0.41772E-06        -0.13066E-09         0.00000E+00
    0.41772E-06        -0.14297E-09         0.00000E+00
    0.41771E-06        -0.14837E-09         0.00000E+00
    0.41771E-06        -0.14755E-09         0.00000E+00
    0.41771E-06        -0.14120E-09         0.00000E+00
    0.41771E-06        -0.13001E-09         0.00000E+00
    0.41771E-06        -0.11468E-09         0.00000E+00
    0.41771E-06        -0.95888E-10         0.00000E+00
    0.41771E-06        -0.74334E-10         0.00000E+00
    0.41771E-06        -0.50707E-10         0.00000E+00
    0.41771E-06        -0.25699E-10         0.00000E+00
    0.41771E-06        -0.12936E-10         0.00000E+00
    0.42396E-06        -0.25714E-10         0.00000E+00
    0.42396E-06        -0.47676E-10         0.00000E+00
    0.42395E-06        -0.86700E-10         0.00000E+00
    0.42394E-06        -0.11628E-09         0.00000E+00
    0.42394E-06        -0.13716E-09         0.00000E+00
    0.42393E-06        -0.15005E-09         0.00000E+00
    0.42393E-06        -0.15568E-09         0.00000E+00
    0.42393E-06        -0.15480E-09         0.00000E+00
    0.42392E-06        -0.14811E-09         0.00000E+00
    0.42392E-06        -0.13636E-09         0.00000E+00
    0.42392E-06        -0.12026E-09         0.00000E+00
    0.42392E-06        -0.10055E-09         0.00000E+00
    0.42392E-06        -0.77939E-10         0.00000E+00
    0.42392E-06        -0.53164E-10         0.00000E+00
    0.42392E-06        -0.26943E-10         0.00000E+00
    0.42392E-06        -0.13562E-10         0.00000E+00
    0.43007E-06        -0.26952E-10         0.00000E+00
    0.43007E-06        -0.49960E-10         0.00000E+00
    0.43006E-06        -0.90831E-10         0.00000E+00
    0.43005E-06        -0.12179E-09         0.00000E+00
    0.43004E-06        -0.14362E-09         0.00000E+00
    0.43004E-06        -0.15708E-09         0.00000E+00
    0.43004E-06        -0.16295E-09         0.00000E+00
    0.43003E-06        -0.16199E-09         0.00000E+00
    0.43003E-06        -0.15496E-09         0.00000E+00
    0.43003E-06        -0.14264E-09         0.00000E+00
    0.43003E-06        -0.12579E-09         0.00000E+00
    0.43003E-06        -0.10516E-09         0.00000E+00
    0.43003E-06        -0.81508E-10         0.00000E+00
    0.43003E-06        -0.55595E-10         0.00000E+00
    0.43003E-06        -0.28174E-10         0.00000E+00
    0.43003E-06        -0.14181E-10         0.00000E+00
    0.43606E-06        -0.28177E-10         0.00000E+00
    0.43606E-06        -0.52219E-10         0.00000E+00
    0.43605E-06        -0.94911E-10         0.00000E+00
    0.43604E-06        -0.12723E-09         0.00000E+00
    0.43604E-06        -0.14999E-09         0.00000E+00
    0.43603E-06        -0.16400E-09         0.00000E+00
    0.43603E-06        -0.17009E-09         0.00000E+00
    0.43603E-06        -0.16905E-09         0.00000E+00
    0.43603E-06        -0.16169E-09         0.00000E+00
    0.43602E-06        -0.14881E-09         0.00000E+00
    0.43602E-06        -0.13121E-09         0.00000E+00
    0.43602E-06        -0.10968E-09         0.00000E+00
    0.43602E-06        -0.85003E-10         0.00000E+00
    0.43602E-06        -0.57975E-10         0.00000E+00
    0.43602E-06        -0.29379E-10         0.00000E+00
    0.43602E-06        -0.14788E-10         0.00000E+00
    0.44193E-06        -0.29376E-10         0.00000E+00
    0.44193E-06        -0.54427E-10         0.00000E+00
    0.44192E-06        -0.98894E-10         0.00000E+00
    0.44191E-06        -0.13252E-09         0.00000E+00
    0.44191E-06        -0.15618E-09         0.00000E+00
    0.44190E-06        -0.17073E-09         0.00000E+00
    0.44190E-06        -0.17702E-09         0.00000E+00
    0.44190E-06        -0.17590E-09         0.00000E+00
    0.44189E-06        -0.16821E-09         0.00000E+00
    0.44189E-06        -0.15478E-09         0.00000E+00
    0.44189E-06        -0.13645E-09         0.00000E+00
    0.44189E-06        -0.11405E-09         0.00000E+00
    0.44189E-06        -0.88380E-10         0.00000E+00
    0.44189E-06        -0.60274E-10         0.00000E+00
    0.44189E-06        -0.30543E-10         0.00000E+00
    0.44189E-06        -0.15373E-10         0.00000E+00
    0.44767E-06        -0.30533E-10         0.00000E+00
    0.44767E-06        -0.56556E-10         0.00000E+00
    0.44766E-06        -0.10273E-09         0.00000E+00
    0.44765E-06        -0.13761E-09         0.00000E+00
    0.44764E-06        -0.16213E-09         0.00000E+00
    0.44764E-06        -0.17718E-09         0.00000E+00
    0.44763E-06        -0.18365E-09         0.00000E+00
    0.44763E-06        -0.18244E-09         0.00000E+00
    0.44763E-06        -0.17442E-09         0.00000E+00
    0.44763E-06        -0.16047E-09         0.00000E+00
    0.44763E-06        -0.14144E-09         0.00000E+00
    0.44763E-06        -0.11820E-09         0.00000E+00
    0.44763E-06        -0.91589E-10         0.00000E+00
    0.44763E-06        -0.62458E-10         0.00000E+00
    0.44763E-06        -0.31648E-10         0.00000E+00
    0.44763E-06        -0.15929E-10         0.00000E+00
    0.45326E-06        -0.31632E-10         0.00000E+00
    0.45326E-06        -0.58572E-10         0.00000E+00
    0.45325E-06        -0.10635E-09         0.00000E+00
    0.45324E-06        -0.14241E-09         0.00000E+00
    0.45323E-06        -0.16772E-09         0.00000E+00
    0.45323E-06        -0.18323E-09         0.00000E+00
    0.45323E-06        -0.18986E-09         0.00000E+00
    0.45322E-06        -0.18856E-09         0.00000E+00
    0.45322E-06        -0.18023E-09         0.00000E+00
    0.45322E-06        -0.16577E-09         0.00000E+00
    0.45322E-06        -0.14609E-09         0.00000E+00
    0.45322E-06        -0.12206E-09         0.00000E+00
    0.45322E-06        -0.94571E-10         0.00000E+00
    0.45322E-06        -0.64486E-10         0.00000E+00
    0.45322E-06        -0.32674E-10         0.00000E+00
    0.45322E-06        -0.16445E-10         0.00000E+00
    0.45870E-06        -0.32650E-10         0.00000E+00
    0.45869E-06        -0.60437E-10         0.00000E+00
    0.45869E-06        -0.10969E-09         0.00000E+00
    0.45868E-06        -0.14683E-09         0.00000E+00
    0.45867E-06        -0.17285E-09         0.00000E+00
    0.45867E-06        -0.18876E-09         0.00000E+00
    0.45866E-06        -0.19553E-09         0.00000E+00
    0.45866E-06        -0.19412E-09         0.00000E+00
    0.45866E-06        -0.18549E-09         0.00000E+00
    0.45865E-06        -0.17057E-09         0.00000E+00
    0.45865E-06        -0.15029E-09         0.00000E+00
    0.45865E-06        -0.12555E-09         0.00000E+00
    0.45865E-06        -0.97261E-10         0.00000E+00
    0.45865E-06        -0.66314E-10         0.00000E+00
    0.45865E-06        -0.33598E-10         0.00000E+00
    0.45865E-06        -0.16909E-10         0.00000E+00
    0.46397E-06        -0.33566E-10         0.00000E+00
    0.46397E-06        -0.62108E-10         0.00000E+00
    0.46396E-06        -0.11268E-09         0.00000E+00
    0.46395E-06        -0.15075E-09         0.00000E+00
    0.46394E-06        -0.17739E-09         0.00000E+00
    0.46394E-06        -0.19363E-09         0.00000E+00
    0.46393E-06        -0.20050E-09         0.00000E+00
    0.46393E-06        -0.19899E-09         0.00000E+00
    0.46393E-06        -0.19009E-09         0.00000E+00
    0.46392E-06        -0.17475E-09         0.00000E+00
    0.46392E-06        -0.15393E-09         0.00000E+00
    0.46392E-06        -0.12857E-09         0.00000E+00
    0.46392E-06        -0.99584E-10         0.00000E+00
    0.46392E-06        -0.67890E-10         0.00000E+00
    0.46392E-06        -0.34395E-10         0.00000E+00
    0.46392E-06        -0.17310E-10         0.00000E+00
    0.46907E-06        -0.34352E-10         0.00000E+00
    0.46906E-06        -0.63537E-10         0.00000E+00
    0.46905E-06        -0.11521E-09         0.00000E+00
    0.46904E-06        -0.15406E-09         0.00000E+00
    0.46904E-06        -0.18120E-09         0.00000E+00
    0.46903E-06        -0.19770E-09         0.00000E+00
    0.46903E-06        -0.20462E-09         0.00000E+00
    0.46902E-06        -0.20300E-09         0.00000E+00
    0.46902E-06        -0.19385E-09         0.00000E+00
    0.46902E-06        -0.17816E-09         0.00000E+00
    0.46901E-06        -0.15689E-09         0.00000E+00
    0.46901E-06        -0.13101E-09         0.00000E+00
    0.46901E-06        -0.10146E-09         0.00000E+00
    0.46901E-06        -0.69158E-10         0.00000E+00
    0.46901E-06        -0.35034E-10         0.00000E+00
    0.46901E-06        -0.17631E-10         0.00000E+00
    0.47397E-06        -0.34982E-10         0.00000E+00
    0.47397E-06        -0.64672E-10         0.00000E+00
    0.47396E-06        -0.11721E-09         0.00000E+00
    0.47395E-06        -0.15664E-09         0.00000E+00
    0.47394E-06        -0.18413E-09         0.00000E+00
    0.47394E-06        -0.20080E-09         0.00000E+00
    0.47393E-06        -0.20773E-09         0.00000E+00
    0.47393E-06        -0.20599E-09         0.00000E+00
    0.47392E-06        -0.19662E-09         0.00000E+00
    0.47392E-06        -0.18064E-09         0.00000E+00
    0.47392E-06        -0.15902E-09         0.00000E+00
    0.47391E-06        -0.13276E-09         0.00000E+00
    0.47391E-06        -0.10279E-09         0.00000E+00
    0.47391E-06        -0.70053E-10         0.00000E+00
    0.47391E-06        -0.35485E-10         0.00000E+00
    0.47391E-06        -0.17857E-10         0.00000E+00
    0.47868E-06        -0.35425E-10         0.00000E+00
    0.47867E-06        -0.65460E-10         0.00000E+00
    0.47866E-06        -0.11857E-09         0.00000E+00
    0.47866E-06        -0.15836E-09         0.00000E+00
    0.47865E-06        -0.18603E-09         0.00000E+00
    0.47864E-06        -0.20275E-09         0.00000E+00
    0.47864E-06        -0.20963E-09         0.00000E+00
    0.47863E-06        -0.20776E-09         0.00000E+00
    0.47863E-06        -0.19822E-09         0.00000E+00
    0.47862E-06        -0.18202E-09         0.00000E+00
    0.47862E-06        -0.16018E-09         0.00000E+00
    0.47862E-06        -0.13367E-09         0.00000E+00
    0.47861E-06        -0.10347E-09         0.00000E+00
    0.47861E-06        -0.70504E-10         0.00000E+00
    0.47861E-06        -0.35708E-10         0.00000E+00
    0.47861E-06        -0.17968E-10         0.00000E+00
    0.48317E-06        -0.35655E-10         0.00000E+00
    0.48317E-06        -0.65848E-10         0.00000E+00
    0.48316E-06        -0.11919E-09         0.00000E+00
    0.48315E-06        -0.15909E-09         0.00000E+00
    0.48314E-06        -0.18676E-09         0.00000E+00
    0.48313E-06        -0.20339E-09         0.00000E+00
    0.48313E-06        -0.21015E-09         0.00000E+00
    0.48312E-06        -0.20814E-09         0.00000E+00
    0.48312E-06        -0.19844E-09         0.00000E+00
    0.48311E-06        -0.18212E-09         0.00000E+00
    0.48311E-06        -0.16018E-09         0.00000E+00
    0.48310E-06        -0.13361E-09         0.00000E+00
    0.48310E-06        -0.10338E-09         0.00000E+00
    0.48310E-06        -0.70422E-10         0.00000E+00
    0.48310E-06        -0.35661E-10         0.00000E+00
    0.48310E-06        -0.17943E-10         0.00000E+00
    0.48744E-06        -0.35645E-10         0.00000E+00
    0.48743E-06        -0.65793E-10         0.00000E+00
    0.48742E-06        -0.11901E-09         0.00000E+00
    0.48742E-06        -0.15872E-09         0.00000E+00
    0.48741E-06        -0.18617E-09         0.00000E+00
    0.48740E-06        -0.20258E-09         0.00000E+00
    0.48739E-06        -0.20911E-09         0.00000E+00
    0.48739E-06        -0.20692E-09         0.00000E+00
    0.48738E-06        -0.19711E-09         0.00000E+00
    0.48737E-06        -0.18073E-09         0.00000E+00
    0.48737E-06        -0.15882E-09         0.00000E+00
    0.48737E-06        -0.13238E-09         0.00000E+00
    0.48736E-06        -0.10237E-09         0.00000E+00
    0.48736E-06        -0.69701E-10         0.00000E+00
    0.48736E-06        -0.35285E-10         0.00000E+00
    0.48736E-06        -0.17751E-10         0.00000E+00
    0.49147E-06        -0.35384E-10         0.00000E+00
    0.49146E-06        -0.65275E-10         0.00000E+00
    0.49145E-06        -0.11799E-09         0.00000E+00
    0.49145E-06        -0.15721E-09         0.00000E+00
    0.49144E-06        -0.18421E-09         0.00000E+00
    0.49143E-06        -0.20020E-09         0.00000E+00
    0.49142E-06        -0.20639E-09         0.00000E+00
    0.49141E-06        -0.20395E-09         0.00000E+00
    0.49141E-06        -0.19399E-09         0.00000E+00
    0.49140E-06        -0.17761E-09         0.00000E+00
    0.49139E-06        -0.15586E-09         0.00000E+00
    0.49139E-06        -0.12975E-09         0.00000E+00
    0.49138E-06        -0.10022E-09         0.00000E+00
    0.49138E-06        -0.68187E-10         0.00000E+00
    0.49138E-06        -0.34501E-10         0.00000E+00
    0.49138E-06        -0.17352E-10         0.00000E+00
    0.49525E-06        -0.34886E-10         0.00000E+00
    0.49524E-06        -0.64325E-10         0.00000E+00
    0.49523E-06        -0.11618E-09         0.00000E+00
    0.49522E-06        -0.15464E-09         0.00000E+00
    0.49522E-06        -0.18093E-09         0.00000E+00
    0.49521E-06        -0.19629E-09         0.00000E+00
    0.49520E-06        -0.20194E-09         0.00000E+00
    0.49519E-06        -0.19907E-09         0.00000E+00
    0.49518E-06        -0.18886E-09         0.00000E+00
    0.49517E-06        -0.17246E-09         0.00000E+00
    0.49517E-06        -0.15095E-09         0.00000E+00
    0.49516E-06        -0.12536E-09         0.00000E+00
    0.49516E-06        -0.96632E-10         0.00000E+00
    0.49515E-06        -0.65640E-10         0.00000E+00
    0.49515E-06        -0.33180E-10         0.00000E+00
    0.49515E-06        -0.16679E-10         0.00000E+00
    0.49876E-06        -0.34223E-10         0.00000E+00
    0.49876E-06        -0.63082E-10         0.00000E+00
    0.49875E-06        -0.11386E-09         0.00000E+00
    0.49874E-06        -0.15133E-09         0.00000E+00
    0.49873E-06        -0.17668E-09         0.00000E+00
    0.49872E-06        -0.19111E-09         0.00000E+00
    0.49871E-06        -0.19587E-09         0.00000E+00
    0.49871E-06        -0.19223E-09         0.00000E+00
    0.49870E-06        -0.18147E-09         0.00000E+00
    0.49869E-06        -0.16484E-09         0.00000E+00
    0.49868E-06        -0.14353E-09         0.00000E+00
    0.49867E-06        -0.11861E-09         0.00000E+00
    0.49866E-06        -0.91041E-10         0.00000E+00
    0.49866E-06        -0.61637E-10         0.00000E+00
    0.49866E-06        -0.31091E-10         0.00000E+00
    0.49866E-06        -0.15612E-10         0.00000E+00
    0.50200E-06        -0.33576E-10         0.00000E+00
    0.50200E-06        -0.61906E-10         0.00000E+00
    0.50199E-06        -0.11167E-09         0.00000E+00
    0.50198E-06        -0.14814E-09         0.00000E+00
    0.50197E-06        -0.17233E-09         0.00000E+00
    0.50197E-06        -0.18540E-09         0.00000E+00
    0.50196E-06        -0.18866E-09         0.00000E+00
    0.50195E-06        -0.18352E-09         0.00000E+00
    0.50194E-06        -0.17149E-09         0.00000E+00
    0.50193E-06        -0.15406E-09         0.00000E+00
    0.50192E-06        -0.13263E-09         0.00000E+00
    0.50191E-06        -0.10842E-09         0.00000E+00
    0.50190E-06        -0.82421E-10         0.00000E+00
    0.50189E-06        -0.55380E-10         0.00000E+00
    0.50189E-06        -0.27801E-10         0.00000E+00
    0.50188E-06        -0.13926E-10         0.00000E+00
    0.50495E-06        -0.33384E-10         0.00000E+00
    0.50494E-06        -0.61611E-10         0.00000E+00
    0.50494E-06        -0.11112E-09         0.00000E+00
    0.50493E-06        -0.14698E-09         0.00000E+00
    0.50493E-06        -0.16989E-09         0.00000E+00
    0.50492E-06        -0.18090E-09         0.00000E+00
    0.50492E-06        -0.18145E-09         0.00000E+00
    0.50491E-06        -0.17330E-09         0.00000E+00
    0.50490E-06        -0.15842E-09         0.00000E+00
    0.50488E-06        -0.13883E-09         0.00000E+00
    0.50487E-06        -0.11638E-09         0.00000E+00
    0.50485E-06        -0.92651E-10         0.00000E+00
    0.50484E-06        -0.68742E-10         0.00000E+00
    0.50483E-06        -0.45289E-10         0.00000E+00
    0.50482E-06        -0.22441E-10         0.00000E+00
    0.50482E-06        -0.11154E-10         0.00000E+00
    0.50758E-06        -0.34463E-10         0.00000E+00
    0.50758E-06        -0.63926E-10         0.00000E+00
    0.50758E-06        -0.11539E-09         0.00000E+00
    0.50758E-06        -0.15192E-09         0.00000E+00
    0.50759E-06        -0.17362E-09         0.00000E+00
    0.50759E-06        -0.18132E-09         0.00000E+00
    0.50759E-06        -0.17678E-09         0.00000E+00
    0.50758E-06        -0.16247E-09         0.00000E+00
    0.50757E-06        -0.14138E-09         0.00000E+00
    0.50755E-06        -0.11663E-09         0.00000E+00
    0.50753E-06        -0.91092E-10         0.00000E+00
    0.50751E-06        -0.67040E-10         0.00000E+00
    0.50748E-06        -0.45926E-10         0.00000E+00
    0.50747E-06        -0.28149E-10         0.00000E+00
    0.50745E-06        -0.13264E-10         0.00000E+00
    0.50745E-06        -0.64657E-11         0.00000E+00
    0.50989E-06        -0.39194E-10         0.00000E+00
    0.50989E-06        -0.72530E-10         0.00000E+00
    0.50990E-06        -0.13106E-09         0.00000E+00
    0.50992E-06        -0.17150E-09         0.00000E+00
    0.50994E-06        -0.19233E-09         0.00000E+00
    0.50995E-06        -0.19436E-09         0.00000E+00
    0.50996E-06        -0.17987E-09         0.00000E+00
    0.50996E-06        -0.15295E-09         0.00000E+00
    0.50995E-06        -0.11867E-09         0.00000E+00
    0.50992E-06        -0.82440E-10         0.00000E+00
    0.50989E-06        -0.49228E-10         0.00000E+00
    0.50985E-06        -0.22937E-10         0.00000E+00
    0.50981E-06        -0.55435E-11         0.00000E+00
    0.50978E-06         0.25486E-11         0.00000E+00
    0.50976E-06         0.33800E-11         0.00000E+00
    0.50975E-06         0.25078E-11         0.00000E+00
    0.51184E-06        -0.48975E-10         0.00000E+00
    0.51185E-06        -0.94782E-10         0.00000E+00
    0.51188E-06        -0.17230E-09         0.00000E+00
    0.51192E-06        -0.22287E-09         0.00000E+00
    0.51197E-06        -0.24435E-09         0.00000E+00
    0.51202E-06        -0.23558E-09         0.00000E+00
    0.51205E-06        -0.20137E-09         0.00000E+00
    0.51206E-06        -0.14865E-09         0.00000E+00
    0.51205E-06        -0.86860E-10         0.00000E+00
    0.51201E-06        -0.26079E-10         0.00000E+00
    0.51195E-06         0.24349E-10         0.00000E+00
    0.51188E-06         0.57655E-10         0.00000E+00
    0.51181E-06         0.69292E-10         0.00000E+00
    0.51175E-06         0.60785E-10         0.00000E+00
    0.51171E-06         0.34760E-10         0.00000E+00
    0.51169E-06         0.17122E-10         0.00000E+00
    0.51338E-06        -0.86303E-10         0.00000E+00
    0.51339E-06        -0.14825E-09         0.00000E+00
    0.51347E-06        -0.26601E-09         0.00000E+00
    0.51357E-06        -0.34423E-09         0.00000E+00
    0.51369E-06        -0.36550E-09         0.00000E+00
    0.51380E-06        -0.33677E-09         0.00000E+00
    0.51388E-06        -0.26218E-09         0.00000E+00
    0.51392E-06        -0.15710E-09         0.00000E+00
    0.51390E-06        -0.39222E-10         0.00000E+00
    0.51384E-06         0.72593E-10         0.00000E+00
    0.51373E-06         0.16071E-09         0.00000E+00
    0.51360E-06         0.20992E-09         0.00000E+00
    0.51346E-06         0.21627E-09         0.00000E+00
    0.51334E-06         0.17312E-09         0.00000E+00
    0.51325E-06         0.98271E-10         0.00000E+00
    0.51323E-06         0.59783E-10         0.00000E+00
    0.51434E-06        -0.93983E-10         0.00000E+00
    0.51447E-06        -0.26007E-09         0.00000E+00
    0.51459E-06        -0.48781E-09         0.00000E+00
    0.51485E-06        -0.60159E-09         0.00000E+00
    0.51511E-06        -0.63592E-09         0.00000E+00
    0.51534E-06        -0.55722E-09         0.00000E+00
    0.51550E-06        -0.40130E-09         0.00000E+00
    0.51559E-06        -0.19229E-09         0.00000E+00
    0.51557E-06         0.37066E-10         0.00000E+00
    0.51546E-06         0.25143E-09         0.00000E+00
    0.51527E-06         0.41810E-09         0.00000E+00
    0.51502E-06         0.51305E-09         0.00000E+00
    0.51474E-06         0.50063E-09         0.00000E+00
    0.51446E-06         0.41463E-09         0.00000E+00
    0.51433E-06         0.22074E-09         0.00000E+00
    0.51419E-06         0.73153E-10         0.00000E+00
    0.51484E-06        -0.53938E-09         0.00000E+00
    0.51458E-06        -0.57167E-09         0.00000E+00
    0.51527E-06        -0.91079E-09         0.00000E+00
    0.51571E-06        -0.12187E-08         0.00000E+00
    0.51628E-06        -0.11799E-08         0.00000E+00
    0.51675E-06        -0.10076E-08         0.00000E+00
    0.51705E-06        -0.68323E-09         0.00000E+00
    0.51718E-06        -0.27435E-09         0.00000E+00
    0.51717E-06         0.16052E-09         0.00000E+00
    0.51701E-06         0.57335E-09         0.00000E+00
    0.51669E-06         0.90569E-09         0.00000E+00
    0.51619E-06         0.10900E-08         0.00000E+00
    0.51560E-06         0.11450E-08         0.00000E+00
    0.51515E-06         0.85754E-09         0.00000E+00
    0.51444E-06         0.54317E-09         0.00000E+00
    0.51470E-06         0.52433E-09         0.00000E+00
    0.51203E-06         0.78361E-09         0.00000E+00
    0.51487E-06        -0.97923E-09         0.00000E+00
    0.51455E-06        -0.23818E-08         0.00000E+00
    0.51635E-06        -0.22899E-08         0.00000E+00
    0.51763E-06        -0.23733E-08         0.00000E+00
    0.51833E-06        -0.18437E-08         0.00000E+00
    0.51868E-06        -0.11310E-08         0.00000E+00
    0.51881E-06        -0.40011E-09         0.00000E+00
    0.51880E-06         0.32584E-09         0.00000E+00
    0.51865E-06         0.10593E-08         0.00000E+00
    0.51828E-06         0.17773E-08         0.00000E+00
    0.51755E-06         0.23149E-08         0.00000E+00
    0.51625E-06         0.22422E-08         0.00000E+00
    0.51444E-06         0.23475E-08         0.00000E+00
    0.51476E-06         0.96108E-09         0.00000E+00
    0.51191E-06        -0.79304E-09         0.00000E+00
    0.51655E-06        -0.10011E-07         0.00000E+00
    0.50386E-06        -0.47700E-08         0.00000E+00
    0.51523E-06        -0.33688E-08         0.00000E+00
    0.51895E-06        -0.63516E-08         0.00000E+00
    0.52009E-06        -0.44948E-08         0.00000E+00
    0.52038E-06        -0.27608E-08         0.00000E+00
    0.52041E-06        -0.14810E-08         0.00000E+00
    0.52039E-06        -0.47778E-09         0.00000E+00
    0.52038E-06         0.43846E-09         0.00000E+00
    0.52039E-06         0.14431E-08         0.00000E+00
    0.52034E-06         0.27257E-08         0.00000E+00
    0.52003E-06         0.44639E-08         0.00000E+00
    0.51888E-06         0.63265E-08         0.00000E+00
    0.51515E-06         0.33510E-08         0.00000E+00
    0.50378E-06         0.47607E-08         0.00000E+00
    0.51646E-06         0.10007E-07         0.00000E+00
    0.41723E-06         0.43060E-07         0.00000E+00
    0.52713E-06         0.12186E-08         0.00000E+00
    0.52726E-06        -0.27521E-07         0.00000E+00
    0.52510E-06        -0.10386E-07         0.00000E+00
    0.52345E-06        -0.47561E-08         0.00000E+00
    0.52240E-06        -0.23843E-08         0.00000E+00
    0.52180E-06        -0.11514E-08         0.00000E+00
    0.52152E-06        -0.34989E-09         0.00000E+00
    0.52151E-06         0.33715E-09         0.00000E+00
    0.52178E-06         0.11391E-08         0.00000E+00
    0.52238E-06         0.23729E-08         0.00000E+00
    0.52342E-06         0.47461E-08         0.00000E+00
    0.52506E-06         0.10378E-07         0.00000E+00
    0.52722E-06         0.27515E-07         0.00000E+00
    0.52708E-06        -0.12217E-08         0.00000E+00
    0.41718E-06        -0.43062E-07         0.00000E+00
    0.31037E-06        -0.37645E-06         0.00000E+00
    0.56202E-06        -0.18822E-06         0.00000E+00
    0.53763E-06        -0.57303E-20         0.00000E+00
    0.52897E-06         0.56379E-20         0.00000E+00
    0.52516E-06         0.55972E-20         0.00000E+00
    0.52327E-06        -0.55771E-20         0.00000E+00
    0.52230E-06        -0.55668E-20         0.00000E+00
    0.52189E-06        -0.17443E-25         0.00000E+00
    0.52189E-06        -0.55623E-20         0.00000E+00
    0.52230E-06         0.55667E-20         0.00000E+00
    0.52326E-06         0.55769E-20         0.00000E+00
    0.52515E-06        -0.55971E-20         0.00000E+00
    0.52896E-06         0.47448E-25         0.00000E+00
    0.53761E-06         0.57298E-20         0.00000E+00
    0.56200E-06         0.18823E-06         0.00000E+00
    0.31034E-06         0.37645E-06         0.00000E+00
CELL_DATA       1350
TENSORS stressef double 
    0.31296E+06         0.31435E+03         0.00000E+00
    0.31435E+03        -0.68793E+06         0.00000E+00
    0.00000E+00         0.00000E+00        -0.74996E+05
 
    0.31332E+06        -0.11473E+03         0.00000E+00
   -0.11473E+03        -0.68784E+06         0.00000E+00
    0.00000E+00         0.00000E+00        -0.74905E+05
 
    0.31288E+06        -0.76663E+02         0.00000E+00
   -0.76663E+02        -0.68789E+06         0.00000E+00
    0.00000E+00         0.00000E+00        -0.75002E+05
 
    0.31259E+06        -0.39519E+02         0.00000E+00
   -0.39519E+02        -0.68792E+06         0.00000E+00
    0.00000E+00         0.00000E+00        -0.75066E+05
 
    0.31236E+06        -0.21742E+02         0.00000E+00
   -0.21742E+02        -0.68794E+06         0.00000E+00
    0.00000E+00         0.00000E+00        -0.75118E+05
 
    0.31215E+06        -0.12949E+02         0.00000E+00
   -0.12949E+02        -0.68796E+06         0.00000E+00
    0.00000E+00         0.00000E+00        -0.75162E+05
 
    0.31196E+06        -0.83282E+01         0.00000E+00
   -0.83282E+01        -0.68797E+06         0.00000E+00
    0.00000E+00         0.00000E+00        -0.75201E+05
 
    0.31180E+06        -0.57821E+01         0.00000E+00
   -0.57821E+01        -0.68798E+06         0.00000E+00
    0.00000E+00         0.00000E+00        -0.75235E+05
 
    0.31166E+06        -0.44079E+01         0.00000E+00
   -0.44079E+01        -0.68798E+06         0.00000E+00
    0.00000E+00         0.00000E+00        -0.75265E+05
 
    0.31153E+06        -0.38615E+01         0.00000E+00
   -0.38615E+01        -0.68799E+06         0.00000E+00
    0.00000E+00         0.00000E+00        -0.75291E+05
 
    0.31143E+06        -0.41680E+01         0.00000E+00
   -0.41680E+01        -0.68799E+06         0.00000E+00
    0.00000E+00         0.00000E+00        -0.75312E+05
 
    0.31134E+06        -0.57374E+01         0.00000E+00
   -0.57374E+01        -0.68799E+06         0.00000E+00
    0.00000E+00         0.00000E+00        -0.75330E+05
 
    0.31126E+06        -0.92259E+01         0.00000E+00
   -0.92259E+01        -0.68799E+06         0.00000E+00
    0.00000E+00         0.00000E+00        -0.75346E+05
 
    0.31116E+06         0.31424E+00         0.00000E+00
    0.31424E+00        -0.68799E+06         0.00000E+00
    0.00000E+00         0.00000E+00        -0.75366E+05
 
    0.31142E+06         0.20129E+03         0.00000E+00
    0.20129E+03        -0.68793E+06         0.00000E+00
    0.00000E+00         0.00000E+00        -0.75300E+05
 
    0.31308E+06         0.90453E+02         0.00000E+00
    0.90453E+02        -0.68815E+06         0.00000E+00
    0.00000E+00         0.00000E+00        -0.75015E+05
 
    0.31297E+06         0.89901E+02         0.00000E+00
    0.89901E+02        -0.68821E+06         0.00000E+00
    0.00000E+00         0.00000E+00        -0.75046E+05
 
    0.31280E+06        -0.10300E+02         0.00000E+00
   -0.10300E+02        -0.68812E+06         0.00000E+00
    0.00000E+00         0.00000E+00        -0.75064E+05
 
    0.31254E+06        -0.28935E+02         0.00000E+00
   -0.28935E+02        -0.68808E+06         0.00000E+00
    0.00000E+00         0.00000E+00        -0.75109E+05
 
    0.31230E+06        -0.26307E+02         0.00000E+00
   -0.26307E+02        -0.68807E+06         0.00000E+00
    0.00000E+00         0.00000E+00        -0.75154E+05
 
    0.31208E+06        -0.20467E+02         0.00000E+00
   -0.20467E+02        -0.68806E+06         0.00000E+00
    0.00000E+00         0.00000E+00        -0.75196E+05
 
    0.31190E+06        -0.15364E+02         0.00000E+00
   -0.15364E+02        -0.68806E+06         0.00000E+00
    0.00000E+00         0.00000E+00        -0.75233E+05
 
    0.31173E+06        -0.11561E+02         0.00000E+00
   -0.11561E+02        -0.68806E+06         0.00000E+00
    0.00000E+00         0.00000E+00        -0.75266E+05
 
    0.31158E+06        -0.88406E+01         0.00000E+00
   -0.88406E+01        -0.68806E+06         0.00000E+00
    0.00000E+00         0.00000E+00        -0.75295E+05
 
    0.31146E+06        -0.67971E+01         0.00000E+00
   -0.67971E+01        -0.68806E+06         0.00000E+00
    0.00000E+00         0.00000E+00        -0.75320E+05
 
    0.31136E+06        -0.47454E+01         0.00000E+00
   -0.47454E+01        -0.68806E+06         0.00000E+00
    0.00000E+00         0.00000E+00        -0.75341E+05
 
    0.31127E+06        -0.94302E+00         0.00000E+00
   -0.94302E+00        -0.68806E+06         0.00000E+00
    0.00000E+00         0.00000E+00        -0.75357E+05
 
    0.31120E+06         0.10513E+02         0.00000E+00
    0.10513E+02        -0.68805E+06         0.00000E+00
    0.00000E+00         0.00000E+00        -0.75369E+05
 
    0.31121E+06         0.45999E+02         0.00000E+00
    0.45999E+02        -0.68803E+06         0.00000E+00
    0.00000E+00         0.00000E+00        -0.75365E+05
 
    0.31122E+06         0.15651E+02         0.00000E+00
    0.15651E+02        -0.68810E+06         0.00000E+00
    0.00000E+00         0.00000E+00        -0.75376E+05
 
    0.31304E+06         0.16401E+02         0.00000E+00
    0.16401E+02        -0.68822E+06         0.00000E+00
    0.00000E+00         0.00000E+00        -0.75037E+05
 
    0.31279E+06         0.47381E+02         0.00000E+00
    0.47381E+02        -0.68825E+06         0.00000E+00
    0.00000E+00         0.00000E+00        -0.75091E+05
 
    0.31258E+06         0.38895E+02         0.00000E+00
    0.38895E+02        -0.68827E+06         0.00000E+00
    0.00000E+00         0.00000E+00        -0.75138E+05
 
    0.31237E+06         0.11054E+02         0.00000E+00
    0.11054E+02        -0.68826E+06         0.00000E+00
    0.00000E+00         0.00000E+00        -0.75179E+05
 
    0.31214E+06        -0.30756E+01         0.00000E+00
   -0.30756E+01        -0.68824E+06         0.00000E+00
    0.00000E+00         0.00000E+00        -0.75220E+05
 
    0.31194E+06        -0.81382E+01         0.00000E+00
   -0.81382E+01        -0.68823E+06         0.00000E+00
    0.00000E+00         0.00000E+00        -0.75259E+05
 
    0.31175E+06        -0.89547E+01         0.00000E+00
   -0.89547E+01        -0.68823E+06         0.00000E+00
    0.00000E+00         0.00000E+00        -0.75295E+05
 
    0.31158E+06        -0.79794E+01         0.00000E+00
   -0.79794E+01        -0.68822E+06         0.00000E+00
    0.00000E+00         0.00000E+00        -0.75327E+05
 
    0.31144E+06        -0.61959E+01         0.00000E+00
   -0.61959E+01        -0.68822E+06         0.00000E+00
    0.00000E+00         0.00000E+00        -0.75356E+05
 
    0.31132E+06        -0.37496E+01         0.00000E+00
   -0.37496E+01        -0.68821E+06         0.00000E+00
    0.00000E+00         0.00000E+00        -0.75380E+05
 
    0.31121E+06        -0.17252E+00         0.00000E+00
   -0.17252E+00        -0.68821E+06         0.00000E+00
    0.00000E+00         0.00000E+00        -0.75400E+05
 
    0.31113E+06         0.55487E+01         0.00000E+00
    0.55487E+01        -0.68821E+06         0.00000E+00
    0.00000E+00         0.00000E+00        -0.75415E+05
 
    0.31108E+06         0.13644E+02         0.00000E+00
    0.13644E+02        -0.68821E+06         0.00000E+00
    0.00000E+00         0.00000E+00        -0.75425E+05
 
    0.31105E+06         0.10661E+02         0.00000E+00
    0.10661E+02        -0.68822E+06         0.00000E+00
    0.00000E+00         0.00000E+00        -0.75434E+05
 
    0.31104E+06         0.37635E+01         0.00000E+00
    0.37635E+01        -0.68822E+06         0.00000E+00
    0.00000E+00         0.00000E+00        -0.75437E+05
 
    0.31286E+06         0.83530E+01         0.00000E+00
    0.83530E+01        -0.68845E+06         0.00000E+00
    0.00000E+00         0.00000E+00        -0.75119E+05
 
    0.31259E+06         0.19883E+02         0.00000E+00
    0.19883E+02        -0.68846E+06         0.00000E+00
    0.00000E+00         0.00000E+00        -0.75174E+05
 
    0.31234E+06         0.24663E+02         0.00000E+00
    0.24663E+02        -0.68846E+06         0.00000E+00
    0.00000E+00         0.00000E+00        -0.75224E+05
 
    0.31212E+06         0.20384E+02         0.00000E+00
    0.20384E+02        -0.68847E+06         0.00000E+00
    0.00000E+00         0.00000E+00        -0.75270E+05
 
    0.31191E+06         0.11435E+02         0.00000E+00
    0.11435E+02        -0.68847E+06         0.00000E+00
    0.00000E+00         0.00000E+00        -0.75312E+05
 
    0.31171E+06         0.47090E+01         0.00000E+00
    0.47090E+01        -0.68846E+06         0.00000E+00
    0.00000E+00         0.00000E+00        -0.75351E+05
 
    0.31152E+06         0.95415E+00         0.00000E+00
    0.95415E+00        -0.68846E+06         0.00000E+00
    0.00000E+00         0.00000E+00        -0.75386E+05
 
    0.31136E+06        -0.53423E+00         0.00000E+00
   -0.53423E+00        -0.68845E+06         0.00000E+00
    0.00000E+00         0.00000E+00        -0.75418E+05
 
    0.31122E+06        -0.44300E+00         0.00000E+00
   -0.44300E+00        -0.68845E+06         0.00000E+00
    0.00000E+00         0.00000E+00        -0.75446E+05
 
    0.31110E+06         0.82140E+00         0.00000E+00
    0.82140E+00        -0.68844E+06         0.00000E+00
    0.00000E+00         0.00000E+00        -0.75470E+05
 
    0.31099E+06         0.29969E+01         0.00000E+00
    0.29969E+01        -0.68844E+06         0.00000E+00
    0.00000E+00         0.00000E+00        -0.75489E+05
 
    0.31092E+06         0.54470E+01         0.00000E+00
    0.54470E+01        -0.68844E+06         0.00000E+00
    0.00000E+00         0.00000E+00        -0.75505E+05
 
    0.31086E+06         0.58544E+01         0.00000E+00
    0.58544E+01        -0.68844E+06         0.00000E+00
    0.00000E+00         0.00000E+00        -0.75517E+05
 
    0.31082E+06         0.49288E+01         0.00000E+00
    0.49288E+01        -0.68844E+06         0.00000E+00
    0.00000E+00         0.00000E+00        -0.75524E+05
 
    0.31081E+06         0.21486E+01         0.00000E+00
    0.21486E+01        -0.68845E+06         0.00000E+00
    0.00000E+00         0.00000E+00        -0.75528E+05
 
    0.31258E+06         0.43432E+01         0.00000E+00
    0.43432E+01        -0.68875E+06         0.00000E+00
    0.00000E+00         0.00000E+00        -0.75234E+05
 
    0.31230E+06         0.11788E+02         0.00000E+00
    0.11788E+02        -0.68875E+06         0.00000E+00
    0.00000E+00         0.00000E+00        -0.75290E+05
 
    0.31205E+06         0.15758E+02         0.00000E+00
    0.15758E+02        -0.68875E+06         0.00000E+00
    0.00000E+00         0.00000E+00        -0.75342E+05
 
    0.31181E+06         0.16262E+02         0.00000E+00
    0.16262E+02        -0.68876E+06         0.00000E+00
    0.00000E+00         0.00000E+00        -0.75389E+05
 
    0.31160E+06         0.14049E+02         0.00000E+00
    0.14049E+02        -0.68876E+06         0.00000E+00
    0.00000E+00         0.00000E+00        -0.75432E+05
 
    0.31140E+06         0.10553E+02         0.00000E+00
    0.10553E+02        -0.68876E+06         0.00000E+00
    0.00000E+00         0.00000E+00        -0.75471E+05
 
    0.31122E+06         0.74980E+01         0.00000E+00
    0.74980E+01        -0.68875E+06         0.00000E+00
    0.00000E+00         0.00000E+00        -0.75506E+05
 
    0.31106E+06         0.54803E+01         0.00000E+00
    0.54803E+01        -0.68875E+06         0.00000E+00
    0.00000E+00         0.00000E+00        -0.75538E+05
 
    0.31092E+06         0.45067E+01         0.00000E+00
    0.45067E+01        -0.68875E+06         0.00000E+00
    0.00000E+00         0.00000E+00        -0.75566E+05
 
    0.31080E+06         0.43419E+01         0.00000E+00
    0.43419E+01        -0.68875E+06         0.00000E+00
    0.00000E+00         0.00000E+00        -0.75589E+05
 
    0.31070E+06         0.45801E+01         0.00000E+00
    0.45801E+01        -0.68875E+06         0.00000E+00
    0.00000E+00         0.00000E+00        -0.75609E+05
 
    0.31062E+06         0.46002E+01         0.00000E+00
    0.46002E+01        -0.68875E+06         0.00000E+00
    0.00000E+00         0.00000E+00        -0.75625E+05
 
    0.31056E+06         0.42058E+01         0.00000E+00
    0.42058E+01        -0.68875E+06         0.00000E+00
    0.00000E+00         0.00000E+00        -0.75637E+05
 
    0.31052E+06         0.29690E+01         0.00000E+00
    0.29690E+01        -0.68875E+06         0.00000E+00
    0.00000E+00         0.00000E+00        -0.75645E+05
 
    0.31050E+06         0.10195E+01         0.00000E+00
    0.10195E+01        -0.68875E+06         0.00000E+00
    0.00000E+00         0.00000E+00        -0.75649E+05
 
    0.31222E+06         0.28478E+01         0.00000E+00
    0.28478E+01        -0.68912E+06         0.00000E+00
    0.00000E+00         0.00000E+00        -0.75381E+05
 
    0.31194E+06         0.78140E+01         0.00000E+00
    0.78140E+01        -0.68912E+06         0.00000E+00
    0.00000E+00         0.00000E+00        -0.75437E+05
 
    0.31168E+06         0.11301E+02         0.00000E+00
    0.11301E+02        -0.68912E+06         0.00000E+00
    0.00000E+00         0.00000E+00        -0.75489E+05
 
    0.31144E+06         0.12921E+02         0.00000E+00
    0.12921E+02        -0.68912E+06         0.00000E+00
    0.00000E+00         0.00000E+00        -0.75537E+05
 
    0.31122E+06         0.12901E+02         0.00000E+00
    0.12901E+02        -0.68913E+06         0.00000E+00
    0.00000E+00         0.00000E+00        -0.75580E+05
 
    0.31103E+06         0.11795E+02         0.00000E+00
    0.11795E+02        -0.68913E+06         0.00000E+00
    0.00000E+00         0.00000E+00        -0.75620E+05
 
    0.31085E+06         0.10201E+02         0.00000E+00
    0.10201E+02        -0.68913E+06         0.00000E+00
    0.00000E+00         0.00000E+00        -0.75656E+05
 
    0.31069E+06         0.86643E+01         0.00000E+00
    0.86643E+01        -0.68912E+06         0.00000E+00
    0.00000E+00         0.00000E+00        -0.75688E+05
 
    0.31055E+06         0.74304E+01         0.00000E+00
    0.74304E+01        -0.68912E+06         0.00000E+00
    0.00000E+00         0.00000E+00        -0.75715E+05
 
    0.31043E+06         0.64933E+01         0.00000E+00
    0.64933E+01        -0.68912E+06         0.00000E+00
    0.00000E+00         0.00000E+00        -0.75739E+05
 
    0.31033E+06         0.56916E+01         0.00000E+00
    0.56916E+01        -0.68912E+06         0.00000E+00
    0.00000E+00         0.00000E+00        -0.75759E+05
 
    0.31025E+06         0.48594E+01         0.00000E+00
    0.48594E+01        -0.68912E+06         0.00000E+00
    0.00000E+00         0.00000E+00        -0.75775E+05
 
    0.31019E+06         0.37872E+01         0.00000E+00
    0.37872E+01        -0.68912E+06         0.00000E+00
    0.00000E+00         0.00000E+00        -0.75787E+05
 
    0.31015E+06         0.24325E+01         0.00000E+00
    0.24325E+01        -0.68912E+06         0.00000E+00
    0.00000E+00         0.00000E+00        -0.75795E+05
 
    0.31013E+06         0.85321E+00         0.00000E+00
    0.85321E+00        -0.68912E+06         0.00000E+00
    0.00000E+00         0.00000E+00        -0.75799E+05
 
    0.31178E+06         0.21314E+01         0.00000E+00
    0.21314E+01        -0.68957E+06         0.00000E+00
    0.00000E+00         0.00000E+00        -0.75558E+05
 
    0.31149E+06         0.59161E+01         0.00000E+00
    0.59161E+01        -0.68957E+06         0.00000E+00
    0.00000E+00         0.00000E+00        -0.75615E+05
 
    0.31123E+06         0.88208E+01         0.00000E+00
    0.88208E+01        -0.68957E+06         0.00000E+00
    0.00000E+00         0.00000E+00        -0.75667E+05
 
    0.31100E+06         0.10669E+02         0.00000E+00
    0.10669E+02        -0.68957E+06         0.00000E+00
    0.00000E+00         0.00000E+00        -0.75715E+05
 
    0.31078E+06         0.11468E+02         0.00000E+00
    0.11468E+02        -0.68957E+06         0.00000E+00
    0.00000E+00         0.00000E+00        -0.75759E+05
 
    0.31058E+06         0.11405E+02         0.00000E+00
    0.11405E+02        -0.68957E+06         0.00000E+00
    0.00000E+00         0.00000E+00        -0.75799E+05
 
    0.31040E+06         0.10761E+02         0.00000E+00
    0.10761E+02        -0.68957E+06         0.00000E+00
    0.00000E+00         0.00000E+00        -0.75835E+05
 
    0.31024E+06         0.97962E+01         0.00000E+00
    0.97962E+01        -0.68957E+06         0.00000E+00
    0.00000E+00         0.00000E+00        -0.75867E+05
 
    0.31010E+06         0.87070E+01         0.00000E+00
    0.87070E+01        -0.68957E+06         0.00000E+00
    0.00000E+00         0.00000E+00        -0.75895E+05
 
    0.30998E+06         0.75814E+01         0.00000E+00
    0.75814E+01        -0.68957E+06         0.00000E+00
    0.00000E+00         0.00000E+00        -0.75919E+05
 
    0.30988E+06         0.64264E+01         0.00000E+00
    0.64264E+01        -0.68957E+06         0.00000E+00
    0.00000E+00         0.00000E+00        -0.75938E+05
 
    0.30980E+06         0.51943E+01         0.00000E+00
    0.51943E+01        -0.68957E+06         0.00000E+00
    0.00000E+00         0.00000E+00        -0.75954E+05
 
    0.30974E+06         0.38509E+01         0.00000E+00
    0.38509E+01        -0.68957E+06         0.00000E+00
    0.00000E+00         0.00000E+00        -0.75966E+05
 
    0.30970E+06         0.23791E+01         0.00000E+00
    0.23791E+01        -0.68957E+06         0.00000E+00
    0.00000E+00         0.00000E+00        -0.75974E+05
 
    0.30968E+06         0.80338E+00         0.00000E+00
    0.80338E+00        -0.68957E+06         0.00000E+00
    0.00000E+00         0.00000E+00        -0.75978E+05
 
    0.31126E+06         0.17648E+01         0.00000E+00
    0.17648E+01        -0.69009E+06         0.00000E+00
    0.00000E+00         0.00000E+00        -0.75766E+05
 
    0.31098E+06         0.48911E+01         0.00000E+00
    0.48911E+01        -0.69009E+06         0.00000E+00
    0.00000E+00         0.00000E+00        -0.75822E+05
 
    0.31072E+06         0.74010E+01         0.00000E+00
    0.74010E+01        -0.69009E+06         0.00000E+00
    0.00000E+00         0.00000E+00        -0.75875E+05
 
    0.31048E+06         0.91907E+01         0.00000E+00
    0.91907E+01        -0.69009E+06         0.00000E+00
    0.00000E+00         0.00000E+00        -0.75923E+05
 
    0.31025E+06         0.10246E+02         0.00000E+00
    0.10246E+02        -0.69009E+06         0.00000E+00
    0.00000E+00         0.00000E+00        -0.75967E+05
 
    0.31005E+06         0.10630E+02         0.00000E+00
    0.10630E+02        -0.69009E+06         0.00000E+00
    0.00000E+00         0.00000E+00        -0.76007E+05
 
    0.30987E+06         0.10464E+02         0.00000E+00
    0.10464E+02        -0.69009E+06         0.00000E+00
    0.00000E+00         0.00000E+00        -0.76044E+05
 
    0.30971E+06         0.98868E+01         0.00000E+00
    0.98868E+01        -0.69009E+06         0.00000E+00
    0.00000E+00         0.00000E+00        -0.76076E+05
 
    0.30957E+06         0.90190E+01         0.00000E+00
    0.90190E+01        -0.69009E+06         0.00000E+00
    0.00000E+00         0.00000E+00        -0.76104E+05
 
    0.30945E+06         0.79506E+01         0.00000E+00
    0.79506E+01        -0.69009E+06         0.00000E+00
    0.00000E+00         0.00000E+00        -0.76128E+05
 
    0.30935E+06         0.67329E+01         0.00000E+00
    0.67329E+01        -0.69009E+06         0.00000E+00
    0.00000E+00         0.00000E+00        -0.76148E+05
 
    0.30927E+06         0.53930E+01         0.00000E+00
    0.53930E+01        -0.69009E+06         0.00000E+00
    0.00000E+00         0.00000E+00        -0.76164E+05
 
    0.30921E+06         0.39448E+01         0.00000E+00
    0.39448E+01        -0.69009E+06         0.00000E+00
    0.00000E+00         0.00000E+00        -0.76176E+05
 
    0.30917E+06         0.24072E+01         0.00000E+00
    0.24072E+01        -0.69009E+06         0.00000E+00
    0.00000E+00         0.00000E+00        -0.76184E+05
 
    0.30915E+06         0.81000E+00         0.00000E+00
    0.81000E+00        -0.69009E+06         0.00000E+00
    0.00000E+00         0.00000E+00        -0.76188E+05
 
    0.31067E+06         0.15578E+01         0.00000E+00
    0.15578E+01        -0.69069E+06         0.00000E+00
    0.00000E+00         0.00000E+00        -0.76004E+05
 
    0.31039E+06         0.42991E+01         0.00000E+00
    0.42991E+01        -0.69069E+06         0.00000E+00
    0.00000E+00         0.00000E+00        -0.76060E+05
 
    0.31012E+06         0.65332E+01         0.00000E+00
    0.65332E+01        -0.69069E+06         0.00000E+00
    0.00000E+00         0.00000E+00        -0.76113E+05
 
    0.30988E+06         0.82074E+01         0.00000E+00
    0.82074E+01        -0.69069E+06         0.00000E+00
    0.00000E+00         0.00000E+00        -0.76161E+05
 
    0.30966E+06         0.93069E+01         0.00000E+00
    0.93069E+01        -0.69069E+06         0.00000E+00
    0.00000E+00         0.00000E+00        -0.76206E+05
 
    0.30946E+06         0.98578E+01         0.00000E+00
    0.98578E+01        -0.69069E+06         0.00000E+00
    0.00000E+00         0.00000E+00        -0.76246E+05
 
    0.30928E+06         0.99179E+01         0.00000E+00
    0.99179E+01        -0.69069E+06         0.00000E+00
    0.00000E+00         0.00000E+00        -0.76282E+05
 
    0.30912E+06         0.95622E+01         0.00000E+00
    0.95622E+01        -0.69069E+06         0.00000E+00
    0.00000E+00         0.00000E+00        -0.76314E+05
 
    0.30898E+06         0.88696E+01         0.00000E+00
    0.88696E+01        -0.69069E+06         0.00000E+00
    0.00000E+00         0.00000E+00        -0.76343E+05
 
    0.30885E+06         0.79105E+01         0.00000E+00
    0.79105E+01        -0.69069E+06         0.00000E+00
    0.00000E+00         0.00000E+00        -0.76367E+05
 
    0.30875E+06         0.67430E+01         0.00000E+00
    0.67430E+01        -0.69069E+06         0.00000E+00
    0.00000E+00         0.00000E+00        -0.76387E+05
 
    0.30867E+06         0.54126E+01         0.00000E+00
    0.54126E+01        -0.69069E+06         0.00000E+00
    0.00000E+00         0.00000E+00        -0.76403E+05
 
    0.30861E+06         0.39572E+01         0.00000E+00
    0.39572E+01        -0.69069E+06         0.00000E+00
    0.00000E+00         0.00000E+00        -0.76415E+05
 
    0.30857E+06         0.24114E+01         0.00000E+00
    0.24114E+01        -0.69069E+06         0.00000E+00
    0.00000E+00         0.00000E+00        -0.76423E+05
 
    0.30855E+06         0.80995E+00         0.00000E+00
    0.80995E+00        -0.69069E+06         0.00000E+00
    0.00000E+00         0.00000E+00        -0.76427E+05
 
    0.31000E+06         0.14341E+01         0.00000E+00
    0.14341E+01        -0.69136E+06         0.00000E+00
    0.00000E+00         0.00000E+00        -0.76271E+05
 
    0.30972E+06         0.39370E+01         0.00000E+00
    0.39370E+01        -0.69136E+06         0.00000E+00
    0.00000E+00         0.00000E+00        -0.76328E+05
 
    0.30945E+06         0.59817E+01         0.00000E+00
    0.59817E+01        -0.69136E+06         0.00000E+00
    0.00000E+00         0.00000E+00        -0.76381E+05
 
    0.30921E+06         0.75428E+01         0.00000E+00
    0.75428E+01        -0.69136E+06         0.00000E+00
    0.00000E+00         0.00000E+00        -0.76429E+05
 
    0.30899E+06         0.86144E+01         0.00000E+00
    0.86144E+01        -0.69136E+06         0.00000E+00
    0.00000E+00         0.00000E+00        -0.76474E+05
 
    0.30879E+06         0.92112E+01         0.00000E+00
    0.92112E+01        -0.69136E+06         0.00000E+00
    0.00000E+00         0.00000E+00        -0.76514E+05
 
    0.30860E+06         0.93671E+01         0.00000E+00
    0.93671E+01        -0.69136E+06         0.00000E+00
    0.00000E+00         0.00000E+00        -0.76551E+05
 
    0.30844E+06         0.91291E+01         0.00000E+00
    0.91291E+01        -0.69136E+06         0.00000E+00
    0.00000E+00         0.00000E+00        -0.76583E+05
 
    0.30830E+06         0.85512E+01         0.00000E+00
    0.85512E+01        -0.69136E+06         0.00000E+00
    0.00000E+00         0.00000E+00        -0.76611E+05
 
    0.30818E+06         0.76886E+01         0.00000E+00
    0.76886E+01        -0.69136E+06         0.00000E+00
    0.00000E+00         0.00000E+00        -0.76636E+05
 
    0.30808E+06         0.65934E+01         0.00000E+00
    0.65934E+01        -0.69136E+06         0.00000E+00
    0.00000E+00         0.00000E+00        -0.76656E+05
 
    0.30800E+06         0.53140E+01         0.00000E+00
    0.53140E+01        -0.69136E+06         0.00000E+00
    0.00000E+00         0.00000E+00        -0.76672E+05
 
    0.30794E+06         0.38944E+01         0.00000E+00
    0.38944E+01        -0.69136E+06         0.00000E+00
    0.00000E+00         0.00000E+00        -0.76684E+05
 
    0.30790E+06         0.23759E+01         0.00000E+00
    0.23759E+01        -0.69136E+06         0.00000E+00
    0.00000E+00         0.00000E+00        -0.76692E+05
 
    0.30788E+06         0.79853E+00         0.00000E+00
    0.79853E+00        -0.69136E+06         0.00000E+00
    0.00000E+00         0.00000E+00        -0.76696E+05
 
    0.30926E+06         0.13592E+01         0.00000E+00
    0.13592E+01        -0.69210E+06         0.00000E+00
    0.00000E+00         0.00000E+00        -0.76569E+05
 
    0.30897E+06         0.37124E+01         0.00000E+00
    0.37124E+01        -0.69210E+06         0.00000E+00
    0.00000E+00         0.00000E+00        -0.76626E+05
 
    0.30871E+06         0.56278E+01         0.00000E+00
    0.56278E+01        -0.69210E+06         0.00000E+00
    0.00000E+00         0.00000E+00        -0.76679E+05
 
    0.30847E+06         0.70969E+01         0.00000E+00
    0.70969E+01        -0.69211E+06         0.00000E+00
    0.00000E+00         0.00000E+00        -0.76728E+05
 
    0.30824E+06         0.81216E+01         0.00000E+00
    0.81216E+01        -0.69211E+06         0.00000E+00
    0.00000E+00         0.00000E+00        -0.76772E+05
 
    0.30804E+06         0.87158E+01         0.00000E+00
    0.87158E+01        -0.69211E+06         0.00000E+00
    0.00000E+00         0.00000E+00        -0.76813E+05
 
    0.30786E+06         0.89050E+01         0.00000E+00
    0.89050E+01        -0.69211E+06         0.00000E+00
    0.00000E+00         0.00000E+00        -0.76850E+05
 
    0.30770E+06         0.87240E+01         0.00000E+00
    0.87240E+01        -0.69211E+06         0.00000E+00
    0.00000E+00         0.00000E+00        -0.76882E+05
 
    0.30755E+06         0.82141E+01         0.00000E+00
    0.82141E+01        -0.69211E+06         0.00000E+00
    0.00000E+00         0.00000E+00        -0.76910E+05
 
    0.30743E+06         0.74203E+01         0.00000E+00
    0.74203E+01        -0.69211E+06         0.00000E+00
    0.00000E+00         0.00000E+00        -0.76935E+05
 
    0.30733E+06         0.63888E+01         0.00000E+00
    0.63888E+01        -0.69211E+06         0.00000E+00
    0.00000E+00         0.00000E+00        -0.76955E+05
 
    0.30725E+06         0.51651E+01         0.00000E+00
    0.51651E+01        -0.69211E+06         0.00000E+00
    0.00000E+00         0.00000E+00        -0.76971E+05
 
    0.30719E+06         0.37937E+01         0.00000E+00
    0.37937E+01        -0.69211E+06         0.00000E+00
    0.00000E+00         0.00000E+00        -0.76983E+05
 
    0.30715E+06         0.23177E+01         0.00000E+00
    0.23177E+01        -0.69211E+06         0.00000E+00
    0.00000E+00         0.00000E+00        -0.76991E+05
 
    0.30713E+06         0.77948E+00         0.00000E+00
    0.77948E+00        -0.69211E+06         0.00000E+00
    0.00000E+00         0.00000E+00        -0.76995E+05
 
    0.30844E+06         0.13167E+01         0.00000E+00
    0.13167E+01        -0.69293E+06         0.00000E+00
    0.00000E+00         0.00000E+00        -0.76897E+05
 
    0.30816E+06         0.35791E+01         0.00000E+00
    0.35791E+01        -0.69293E+06         0.00000E+00
    0.00000E+00         0.00000E+00        -0.76954E+05
 
    0.30789E+06         0.54096E+01         0.00000E+00
    0.54096E+01        -0.69293E+06         0.00000E+00
    0.00000E+00         0.00000E+00        -0.77007E+05
 
    0.30765E+06         0.68104E+01         0.00000E+00
    0.68104E+01        -0.69293E+06         0.00000E+00
    0.00000E+00         0.00000E+00        -0.77056E+05
 
    0.30742E+06         0.77901E+01         0.00000E+00
    0.77901E+01        -0.69293E+06         0.00000E+00
    0.00000E+00         0.00000E+00        -0.77101E+05
 
    0.30722E+06         0.83651E+01         0.00000E+00
    0.83651E+01        -0.69293E+06         0.00000E+00
    0.00000E+00         0.00000E+00        -0.77142E+05
 
    0.30704E+06         0.85587E+01         0.00000E+00
    0.85587E+01        -0.69293E+06         0.00000E+00
    0.00000E+00         0.00000E+00        -0.77178E+05
 
    0.30687E+06         0.84011E+01         0.00000E+00
    0.84011E+01        -0.69293E+06         0.00000E+00
    0.00000E+00         0.00000E+00        -0.77211E+05
 
    0.30673E+06         0.79277E+01         0.00000E+00
    0.79277E+01        -0.69293E+06         0.00000E+00
    0.00000E+00         0.00000E+00        -0.77239E+05
 
    0.30661E+06         0.71778E+01         0.00000E+00
    0.71778E+01        -0.69293E+06         0.00000E+00
    0.00000E+00         0.00000E+00        -0.77264E+05
 
    0.30651E+06         0.61929E+01         0.00000E+00
    0.61929E+01        -0.69293E+06         0.00000E+00
    0.00000E+00         0.00000E+00        -0.77284E+05
 
    0.30643E+06         0.50156E+01         0.00000E+00
    0.50156E+01        -0.69293E+06         0.00000E+00
    0.00000E+00         0.00000E+00        -0.77300E+05
 
    0.30636E+06         0.36889E+01         0.00000E+00
    0.36889E+01        -0.69293E+06         0.00000E+00
    0.00000E+00         0.00000E+00        -0.77313E+05
 
    0.30632E+06         0.22558E+01         0.00000E+00
    0.22558E+01        -0.69293E+06         0.00000E+00
    0.00000E+00         0.00000E+00        -0.77321E+05
 
    0.30630E+06         0.75902E+00         0.00000E+00
    0.75902E+00        -0.69293E+06         0.00000E+00
    0.00000E+00         0.00000E+00        -0.77325E+05
 
    0.30755E+06         0.12976E+01         0.00000E+00
    0.12976E+01        -0.69382E+06         0.00000E+00
    0.00000E+00         0.00000E+00        -0.77256E+05
 
    0.30726E+06         0.35119E+01         0.00000E+00
    0.35119E+01        -0.69382E+06         0.00000E+00
    0.00000E+00         0.00000E+00        -0.77313E+05
 
    0.30700E+06         0.52912E+01         0.00000E+00
    0.52912E+01        -0.69382E+06         0.00000E+00
    0.00000E+00         0.00000E+00        -0.77366E+05
 
    0.30675E+06         0.66456E+01         0.00000E+00
    0.66456E+01        -0.69382E+06         0.00000E+00
    0.00000E+00         0.00000E+00        -0.77415E+05
 
    0.30653E+06         0.75894E+01         0.00000E+00
    0.75894E+01        -0.69382E+06         0.00000E+00
    0.00000E+00         0.00000E+00        -0.77460E+05
 
    0.30632E+06         0.81421E+01         0.00000E+00
    0.81421E+01        -0.69382E+06         0.00000E+00
    0.00000E+00         0.00000E+00        -0.77501E+05
 
    0.30614E+06         0.83280E+01         0.00000E+00
    0.83280E+01        -0.69382E+06         0.00000E+00
    0.00000E+00         0.00000E+00        -0.77537E+05
 
    0.30597E+06         0.81759E+01         0.00000E+00
    0.81759E+01        -0.69382E+06         0.00000E+00
    0.00000E+00         0.00000E+00        -0.77570E+05
 
    0.30583E+06         0.77190E+01         0.00000E+00
    0.77190E+01        -0.69382E+06         0.00000E+00
    0.00000E+00         0.00000E+00        -0.77599E+05
 
    0.30571E+06         0.69937E+01         0.00000E+00
    0.69937E+01        -0.69382E+06         0.00000E+00
    0.00000E+00         0.00000E+00        -0.77623E+05
 
    0.30561E+06         0.60385E+01         0.00000E+00
    0.60385E+01        -0.69382E+06         0.00000E+00
    0.00000E+00         0.00000E+00        -0.77643E+05
 
    0.30553E+06         0.48940E+01         0.00000E+00
    0.48940E+01        -0.69382E+06         0.00000E+00
    0.00000E+00         0.00000E+00        -0.77660E+05
 
    0.30546E+06         0.36017E+01         0.00000E+00
    0.36017E+01        -0.69382E+06         0.00000E+00
    0.00000E+00         0.00000E+00        -0.77672E+05
 
    0.30542E+06         0.22034E+01         0.00000E+00
    0.22034E+01        -0.69382E+06         0.00000E+00
    0.00000E+00         0.00000E+00        -0.77680E+05
 
    0.30540E+06         0.74154E+00         0.00000E+00
    0.74154E+00        -0.69382E+06         0.00000E+00
    0.00000E+00         0.00000E+00        -0.77684E+05
 
    0.30658E+06         0.12964E+01         0.00000E+00
    0.12964E+01        -0.69480E+06         0.00000E+00
    0.00000E+00         0.00000E+00        -0.77644E+05
 
    0.30629E+06         0.34948E+01         0.00000E+00
    0.34948E+01        -0.69480E+06         0.00000E+00
    0.00000E+00         0.00000E+00        -0.77701E+05
 
    0.30602E+06         0.52493E+01         0.00000E+00
    0.52493E+01        -0.69480E+06         0.00000E+00
    0.00000E+00         0.00000E+00        -0.77755E+05
 
    0.30578E+06         0.65761E+01         0.00000E+00
    0.65761E+01        -0.69480E+06         0.00000E+00
    0.00000E+00         0.00000E+00        -0.77804E+05
 
    0.30555E+06         0.74948E+01         0.00000E+00
    0.74948E+01        -0.69480E+06         0.00000E+00
    0.00000E+00         0.00000E+00        -0.77849E+05
 
    0.30535E+06         0.80280E+01         0.00000E+00
    0.80280E+01        -0.69480E+06         0.00000E+00
    0.00000E+00         0.00000E+00        -0.77890E+05
 
    0.30516E+06         0.82019E+01         0.00000E+00
    0.82019E+01        -0.69480E+06         0.00000E+00
    0.00000E+00         0.00000E+00        -0.77927E+05
 
    0.30500E+06         0.80460E+01         0.00000E+00
    0.80460E+01        -0.69480E+06         0.00000E+00
    0.00000E+00         0.00000E+00        -0.77959E+05
 
    0.30486E+06         0.75929E+01         0.00000E+00
    0.75929E+01        -0.69480E+06         0.00000E+00
    0.00000E+00         0.00000E+00        -0.77988E+05
 
    0.30473E+06         0.68778E+01         0.00000E+00
    0.68778E+01        -0.69480E+06         0.00000E+00
    0.00000E+00         0.00000E+00        -0.78013E+05
 
    0.30463E+06         0.59381E+01         0.00000E+00
    0.59381E+01        -0.69480E+06         0.00000E+00
    0.00000E+00         0.00000E+00        -0.78033E+05
 
    0.30455E+06         0.48128E+01         0.00000E+00
    0.48128E+01        -0.69480E+06         0.00000E+00
    0.00000E+00         0.00000E+00        -0.78049E+05
 
    0.30449E+06         0.35421E+01         0.00000E+00
    0.35421E+01        -0.69480E+06         0.00000E+00
    0.00000E+00         0.00000E+00        -0.78062E+05
 
    0.30445E+06         0.21671E+01         0.00000E+00
    0.21671E+01        -0.69480E+06         0.00000E+00
    0.00000E+00         0.00000E+00        -0.78070E+05
 
    0.30443E+06         0.72937E+00         0.00000E+00
    0.72937E+00        -0.69480E+06         0.00000E+00
    0.00000E+00         0.00000E+00        -0.78074E+05
 
    0.30553E+06         0.13089E+01         0.00000E+00
    0.13089E+01        -0.69585E+06         0.00000E+00
    0.00000E+00         0.00000E+00        -0.78063E+05
 
    0.30525E+06         0.35162E+01         0.00000E+00
    0.35162E+01        -0.69585E+06         0.00000E+00
    0.00000E+00         0.00000E+00        -0.78120E+05
 
    0.30498E+06         0.52666E+01         0.00000E+00
    0.52666E+01        -0.69585E+06         0.00000E+00
    0.00000E+00         0.00000E+00        -0.78174E+05
 
    0.30473E+06         0.65817E+01         0.00000E+00
    0.65817E+01        -0.69585E+06         0.00000E+00
    0.00000E+00         0.00000E+00        -0.78223E+05
 
    0.30451E+06         0.74854E+01         0.00000E+00
    0.74854E+01        -0.69585E+06         0.00000E+00
    0.00000E+00         0.00000E+00        -0.78268E+05
 
    0.30430E+06         0.80038E+01         0.00000E+00
    0.80038E+01        -0.69585E+06         0.00000E+00
    0.00000E+00         0.00000E+00        -0.78309E+05
 
    0.30412E+06         0.81653E+01         0.00000E+00
    0.81653E+01        -0.69585E+06         0.00000E+00
    0.00000E+00         0.00000E+00        -0.78346E+05
 
    0.30395E+06         0.80008E+01         0.00000E+00
    0.80008E+01        -0.69585E+06         0.00000E+00
    0.00000E+00         0.00000E+00        -0.78379E+05
 
    0.30381E+06         0.75434E+01         0.00000E+00
    0.75434E+01        -0.69585E+06         0.00000E+00
    0.00000E+00         0.00000E+00        -0.78408E+05
 
    0.30368E+06         0.68284E+01         0.00000E+00
    0.68284E+01        -0.69585E+06         0.00000E+00
    0.00000E+00         0.00000E+00        -0.78432E+05
 
    0.30358E+06         0.58925E+01         0.00000E+00
    0.58925E+01        -0.69585E+06         0.00000E+00
    0.00000E+00         0.00000E+00        -0.78453E+05
 
    0.30350E+06         0.47742E+01         0.00000E+00
    0.47742E+01        -0.69585E+06         0.00000E+00
    0.00000E+00         0.00000E+00        -0.78469E+05
 
    0.30344E+06         0.35129E+01         0.00000E+00
    0.35129E+01        -0.69585E+06         0.00000E+00
    0.00000E+00         0.00000E+00        -0.78482E+05
 
    0.30340E+06         0.21490E+01         0.00000E+00
    0.21490E+01        -0.69585E+06         0.00000E+00
    0.00000E+00         0.00000E+00        -0.78490E+05
 
    0.30338E+06         0.72320E+00         0.00000E+00
    0.72320E+00        -0.69585E+06         0.00000E+00
    0.00000E+00         0.00000E+00        -0.78494E+05
 
    0.30441E+06         0.13318E+01         0.00000E+00
    0.13318E+01        -0.69697E+06         0.00000E+00
    0.00000E+00         0.00000E+00        -0.78512E+05
 
    0.30412E+06         0.35670E+01         0.00000E+00
    0.35670E+01        -0.69697E+06         0.00000E+00
    0.00000E+00         0.00000E+00        -0.78570E+05
 
    0.30386E+06         0.53294E+01         0.00000E+00
    0.53294E+01        -0.69697E+06         0.00000E+00
    0.00000E+00         0.00000E+00        -0.78623E+05
 
    0.30361E+06         0.66455E+01         0.00000E+00
    0.66455E+01        -0.69697E+06         0.00000E+00
    0.00000E+00         0.00000E+00        -0.78673E+05
 
    0.30338E+06         0.75431E+01         0.00000E+00
    0.75431E+01        -0.69697E+06         0.00000E+00
    0.00000E+00         0.00000E+00        -0.78718E+05
 
    0.30318E+06         0.80516E+01         0.00000E+00
    0.80516E+01        -0.69697E+06         0.00000E+00
    0.00000E+00         0.00000E+00        -0.78759E+05
 
    0.30299E+06         0.82019E+01         0.00000E+00
    0.82019E+01        -0.69697E+06         0.00000E+00
    0.00000E+00         0.00000E+00        -0.78796E+05
 
    0.30283E+06         0.80266E+01         0.00000E+00
    0.80266E+01        -0.69697E+06         0.00000E+00
    0.00000E+00         0.00000E+00        -0.78829E+05
 
    0.30268E+06         0.75598E+01         0.00000E+00
    0.75598E+01        -0.69697E+06         0.00000E+00
    0.00000E+00         0.00000E+00        -0.78858E+05
 
    0.30256E+06         0.68374E+01         0.00000E+00
    0.68374E+01        -0.69697E+06         0.00000E+00
    0.00000E+00         0.00000E+00        -0.78883E+05
 
    0.30245E+06         0.58963E+01         0.00000E+00
    0.58963E+01        -0.69697E+06         0.00000E+00
    0.00000E+00         0.00000E+00        -0.78903E+05
 
    0.30237E+06         0.47749E+01         0.00000E+00
    0.47749E+01        -0.69697E+06         0.00000E+00
    0.00000E+00         0.00000E+00        -0.78920E+05
 
    0.30231E+06         0.35121E+01         0.00000E+00
    0.35121E+01        -0.69697E+06         0.00000E+00
    0.00000E+00         0.00000E+00        -0.78932E+05
 
    0.30227E+06         0.21480E+01         0.00000E+00
    0.21480E+01        -0.69697E+06         0.00000E+00
    0.00000E+00         0.00000E+00        -0.78940E+05
 
    0.30225E+06         0.72278E+00         0.00000E+00
    0.72278E+00        -0.69697E+06         0.00000E+00
    0.00000E+00         0.00000E+00        -0.78944E+05
 
    0.30321E+06         0.13623E+01         0.00000E+00
    0.13623E+01        -0.69817E+06         0.00000E+00
    0.00000E+00         0.00000E+00        -0.78992E+05
 
    0.30293E+06         0.36395E+01         0.00000E+00
    0.36395E+01        -0.69817E+06         0.00000E+00
    0.00000E+00         0.00000E+00        -0.79050E+05
 
    0.30266E+06         0.54262E+01         0.00000E+00
    0.54262E+01        -0.69817E+06         0.00000E+00
    0.00000E+00         0.00000E+00        -0.79103E+05
 
    0.30241E+06         0.67532E+01         0.00000E+00
    0.67532E+01        -0.69817E+06         0.00000E+00
    0.00000E+00         0.00000E+00        -0.79153E+05
 
    0.30218E+06         0.76520E+01         0.00000E+00
    0.76520E+01        -0.69817E+06         0.00000E+00
    0.00000E+00         0.00000E+00        -0.79198E+05
 
    0.30197E+06         0.81551E+01         0.00000E+00
    0.81551E+01        -0.69817E+06         0.00000E+00
    0.00000E+00         0.00000E+00        -0.79240E+05
 
    0.30179E+06         0.82959E+01         0.00000E+00
    0.82959E+01        -0.69817E+06         0.00000E+00
    0.00000E+00         0.00000E+00        -0.79277E+05
 
    0.30162E+06         0.81088E+01         0.00000E+00
    0.81088E+01        -0.69817E+06         0.00000E+00
    0.00000E+00         0.00000E+00        -0.79310E+05
 
    0.30148E+06         0.76295E+01         0.00000E+00
    0.76295E+01        -0.69817E+06         0.00000E+00
    0.00000E+00         0.00000E+00        -0.79339E+05
 
    0.30135E+06         0.68945E+01         0.00000E+00
    0.68945E+01        -0.69817E+06         0.00000E+00
    0.00000E+00         0.00000E+00        -0.79363E+05
 
    0.30125E+06         0.59414E+01         0.00000E+00
    0.59414E+01        -0.69817E+06         0.00000E+00
    0.00000E+00         0.00000E+00        -0.79384E+05
 
    0.30117E+06         0.48087E+01         0.00000E+00
    0.48087E+01        -0.69817E+06         0.00000E+00
    0.00000E+00         0.00000E+00        -0.79401E+05
 
    0.30111E+06         0.35356E+01         0.00000E+00
    0.35356E+01        -0.69817E+06         0.00000E+00
    0.00000E+00         0.00000E+00        -0.79413E+05
 
    0.30107E+06         0.21618E+01         0.00000E+00
    0.21618E+01        -0.69817E+06         0.00000E+00
    0.00000E+00         0.00000E+00        -0.79421E+05
 
    0.30104E+06         0.72733E+00         0.00000E+00
    0.72733E+00        -0.69817E+06         0.00000E+00
    0.00000E+00         0.00000E+00        -0.79425E+05
 
    0.30194E+06         0.13980E+01         0.00000E+00
    0.13980E+01        -0.69945E+06         0.00000E+00
    0.00000E+00         0.00000E+00        -0.79502E+05
 
    0.30165E+06         0.37271E+01         0.00000E+00
    0.37271E+01        -0.69945E+06         0.00000E+00
    0.00000E+00         0.00000E+00        -0.79560E+05
 
    0.30138E+06         0.55469E+01         0.00000E+00
    0.55469E+01        -0.69945E+06         0.00000E+00
    0.00000E+00         0.00000E+00        -0.79614E+05
 
    0.30113E+06         0.68923E+01         0.00000E+00
    0.68923E+01        -0.69945E+06         0.00000E+00
    0.00000E+00         0.00000E+00        -0.79664E+05
 
    0.30091E+06         0.77980E+01         0.00000E+00
    0.77980E+01        -0.69945E+06         0.00000E+00
    0.00000E+00         0.00000E+00        -0.79709E+05
 
    0.30070E+06         0.82996E+01         0.00000E+00
    0.82996E+01        -0.69945E+06         0.00000E+00
    0.00000E+00         0.00000E+00        -0.79751E+05
 
    0.30051E+06         0.84326E+01         0.00000E+00
    0.84326E+01        -0.69945E+06         0.00000E+00
    0.00000E+00         0.00000E+00        -0.79788E+05
 
    0.30035E+06         0.82337E+01         0.00000E+00
    0.82337E+01        -0.69945E+06         0.00000E+00
    0.00000E+00         0.00000E+00        -0.79821E+05
 
    0.30020E+06         0.77398E+01         0.00000E+00
    0.77398E+01        -0.69945E+06         0.00000E+00
    0.00000E+00         0.00000E+00        -0.79850E+05
 
    0.30008E+06         0.69886E+01         0.00000E+00
    0.69886E+01        -0.69945E+06         0.00000E+00
    0.00000E+00         0.00000E+00        -0.79875E+05
 
    0.29997E+06         0.60186E+01         0.00000E+00
    0.60186E+01        -0.69945E+06         0.00000E+00
    0.00000E+00         0.00000E+00        -0.79896E+05
 
    0.29989E+06         0.48687E+01         0.00000E+00
    0.48687E+01        -0.69945E+06         0.00000E+00
    0.00000E+00         0.00000E+00        -0.79912E+05
 
    0.29983E+06         0.35783E+01         0.00000E+00
    0.35783E+01        -0.69945E+06         0.00000E+00
    0.00000E+00         0.00000E+00        -0.79925E+05
 
    0.29979E+06         0.21873E+01         0.00000E+00
    0.21873E+01        -0.69945E+06         0.00000E+00
    0.00000E+00         0.00000E+00        -0.79933E+05
 
    0.29976E+06         0.73584E+00         0.00000E+00
    0.73584E+00        -0.69945E+06         0.00000E+00
    0.00000E+00         0.00000E+00        -0.79937E+05
 
    0.30059E+06         0.14369E+01         0.00000E+00
    0.14369E+01        -0.70081E+06         0.00000E+00
    0.00000E+00         0.00000E+00        -0.80043E+05
 
    0.30030E+06         0.38241E+01         0.00000E+00
    0.38241E+01        -0.70081E+06         0.00000E+00
    0.00000E+00         0.00000E+00        -0.80101E+05
 
    0.30003E+06         0.56830E+01         0.00000E+00
    0.56830E+01        -0.70081E+06         0.00000E+00
    0.00000E+00         0.00000E+00        -0.80155E+05
 
    0.29978E+06         0.70519E+01         0.00000E+00
    0.70519E+01        -0.70081E+06         0.00000E+00
    0.00000E+00         0.00000E+00        -0.80205E+05
 
    0.29955E+06         0.79689E+01         0.00000E+00
    0.79689E+01        -0.70081E+06         0.00000E+00
    0.00000E+00         0.00000E+00        -0.80251E+05
 
    0.29934E+06         0.84718E+01         0.00000E+00
    0.84718E+01        -0.70080E+06         0.00000E+00
    0.00000E+00         0.00000E+00        -0.80292E+05
 
    0.29916E+06         0.85988E+01         0.00000E+00
    0.85988E+01        -0.70080E+06         0.00000E+00
    0.00000E+00         0.00000E+00        -0.80330E+05
 
    0.29899E+06         0.83883E+01         0.00000E+00
    0.83883E+01        -0.70080E+06         0.00000E+00
    0.00000E+00         0.00000E+00        -0.80363E+05
 
    0.29884E+06         0.78788E+01         0.00000E+00
    0.78788E+01        -0.70080E+06         0.00000E+00
    0.00000E+00         0.00000E+00        -0.80392E+05
 
    0.29872E+06         0.71093E+01         0.00000E+00
    0.71093E+01        -0.70080E+06         0.00000E+00
    0.00000E+00         0.00000E+00        -0.80417E+05
 
    0.29862E+06         0.61190E+01         0.00000E+00
    0.61190E+01        -0.70080E+06         0.00000E+00
    0.00000E+00         0.00000E+00        -0.80438E+05
 
    0.29853E+06         0.49477E+01         0.00000E+00
    0.49477E+01        -0.70080E+06         0.00000E+00
    0.00000E+00         0.00000E+00        -0.80454E+05
 
    0.29847E+06         0.36351E+01         0.00000E+00
    0.36351E+01        -0.70080E+06         0.00000E+00
    0.00000E+00         0.00000E+00        -0.80467E+05
 
    0.29843E+06         0.22215E+01         0.00000E+00
    0.22215E+01        -0.70080E+06         0.00000E+00
    0.00000E+00         0.00000E+00        -0.80475E+05
 
    0.29841E+06         0.74726E+00         0.00000E+00
    0.74726E+00        -0.70080E+06         0.00000E+00
    0.00000E+00         0.00000E+00        -0.80479E+05
 
    0.29916E+06         0.14771E+01         0.00000E+00
    0.14771E+01        -0.70224E+06         0.00000E+00
    0.00000E+00         0.00000E+00        -0.80614E+05
 
    0.29887E+06         0.39257E+01         0.00000E+00
    0.39257E+01        -0.70224E+06         0.00000E+00
    0.00000E+00         0.00000E+00        -0.80673E+05
 
    0.29860E+06         0.58271E+01         0.00000E+00
    0.58271E+01        -0.70224E+06         0.00000E+00
    0.00000E+00         0.00000E+00        -0.80727E+05
 
    0.29835E+06         0.72228E+01         0.00000E+00
    0.72228E+01        -0.70224E+06         0.00000E+00
    0.00000E+00         0.00000E+00        -0.80777E+05
 
    0.29812E+06         0.81537E+01         0.00000E+00
    0.81537E+01        -0.70224E+06         0.00000E+00
    0.00000E+00         0.00000E+00        -0.80823E+05
 
    0.29791E+06         0.86603E+01         0.00000E+00
    0.86603E+01        -0.70224E+06         0.00000E+00
    0.00000E+00         0.00000E+00        -0.80865E+05
 
    0.29773E+06         0.87827E+01         0.00000E+00
    0.87827E+01        -0.70224E+06         0.00000E+00
    0.00000E+00         0.00000E+00        -0.80902E+05
 
    0.29756E+06         0.85611E+01         0.00000E+00
    0.85611E+01        -0.70224E+06         0.00000E+00
    0.00000E+00         0.00000E+00        -0.80935E+05
 
    0.29741E+06         0.80357E+01         0.00000E+00
    0.80357E+01        -0.70224E+06         0.00000E+00
    0.00000E+00         0.00000E+00        -0.80965E+05
 
    0.29729E+06         0.72467E+01         0.00000E+00
    0.72467E+01        -0.70224E+06         0.00000E+00
    0.00000E+00         0.00000E+00        -0.80990E+05
 
    0.29718E+06         0.62343E+01         0.00000E+00
    0.62343E+01        -0.70224E+06         0.00000E+00
    0.00000E+00         0.00000E+00        -0.81010E+05
 
    0.29710E+06         0.50389E+01         0.00000E+00
    0.50389E+01        -0.70223E+06         0.00000E+00
    0.00000E+00         0.00000E+00        -0.81027E+05
 
    0.29704E+06         0.37011E+01         0.00000E+00
    0.37011E+01        -0.70223E+06         0.00000E+00
    0.00000E+00         0.00000E+00        -0.81040E+05
 
    0.29699E+06         0.22614E+01         0.00000E+00
    0.22614E+01        -0.70223E+06         0.00000E+00
    0.00000E+00         0.00000E+00        -0.81048E+05
 
    0.29697E+06         0.76060E+00         0.00000E+00
    0.76060E+00        -0.70223E+06         0.00000E+00
    0.00000E+00         0.00000E+00        -0.81052E+05
 
    0.29766E+06         0.15171E+01         0.00000E+00
    0.15171E+01        -0.70375E+06         0.00000E+00
    0.00000E+00         0.00000E+00        -0.81217E+05
 
    0.29737E+06         0.40276E+01         0.00000E+00
    0.40276E+01        -0.70375E+06         0.00000E+00
    0.00000E+00         0.00000E+00        -0.81275E+05
 
    0.29710E+06         0.59728E+01         0.00000E+00
    0.59728E+01        -0.70374E+06         0.00000E+00
    0.00000E+00         0.00000E+00        -0.81330E+05
 
    0.29684E+06         0.73969E+01         0.00000E+00
    0.73969E+01        -0.70374E+06         0.00000E+00
    0.00000E+00         0.00000E+00        -0.81380E+05
 
    0.29661E+06         0.83434E+01         0.00000E+00
    0.83434E+01        -0.70374E+06         0.00000E+00
    0.00000E+00         0.00000E+00        -0.81426E+05
 
    0.29641E+06         0.88549E+01         0.00000E+00
    0.88549E+01        -0.70374E+06         0.00000E+00
    0.00000E+00         0.00000E+00        -0.81468E+05
 
    0.29622E+06         0.89739E+01         0.00000E+00
    0.89739E+01        -0.70374E+06         0.00000E+00
    0.00000E+00         0.00000E+00        -0.81505E+05
 
    0.29605E+06         0.87420E+01         0.00000E+00
    0.87420E+01        -0.70374E+06         0.00000E+00
    0.00000E+00         0.00000E+00        -0.81539E+05
 
    0.29590E+06         0.82010E+01         0.00000E+00
    0.82010E+01        -0.70374E+06         0.00000E+00
    0.00000E+00         0.00000E+00        -0.81568E+05
 
    0.29578E+06         0.73922E+01         0.00000E+00
    0.73922E+01        -0.70374E+06         0.00000E+00
    0.00000E+00         0.00000E+00        -0.81593E+05
 
    0.29567E+06         0.63569E+01         0.00000E+00
    0.63569E+01        -0.70374E+06         0.00000E+00
    0.00000E+00         0.00000E+00        -0.81614E+05
 
    0.29559E+06         0.51363E+01         0.00000E+00
    0.51363E+01        -0.70374E+06         0.00000E+00
    0.00000E+00         0.00000E+00        -0.81631E+05
 
    0.29553E+06         0.37717E+01         0.00000E+00
    0.37717E+01        -0.70374E+06         0.00000E+00
    0.00000E+00         0.00000E+00        -0.81643E+05
 
    0.29548E+06         0.23042E+01         0.00000E+00
    0.23042E+01        -0.70374E+06         0.00000E+00
    0.00000E+00         0.00000E+00        -0.81652E+05
 
    0.29546E+06         0.77493E+00         0.00000E+00
    0.77493E+00        -0.70374E+06         0.00000E+00
    0.00000E+00         0.00000E+00        -0.81656E+05
 
    0.29608E+06         0.15557E+01         0.00000E+00
    0.15557E+01        -0.70533E+06         0.00000E+00
    0.00000E+00         0.00000E+00        -0.81850E+05
 
    0.29579E+06         0.41264E+01         0.00000E+00
    0.41264E+01        -0.70533E+06         0.00000E+00
    0.00000E+00         0.00000E+00        -0.81909E+05
 
    0.29551E+06         0.61146E+01         0.00000E+00
    0.61146E+01        -0.70533E+06         0.00000E+00
    0.00000E+00         0.00000E+00        -0.81964E+05
 
    0.29526E+06         0.75672E+01         0.00000E+00
    0.75672E+01        -0.70533E+06         0.00000E+00
    0.00000E+00         0.00000E+00        -0.82014E+05
 
    0.29503E+06         0.85298E+01         0.00000E+00
    0.85298E+01        -0.70533E+06         0.00000E+00
    0.00000E+00         0.00000E+00        -0.82060E+05
 
    0.29482E+06         0.90472E+01         0.00000E+00
    0.90472E+01        -0.70533E+06         0.00000E+00
    0.00000E+00         0.00000E+00        -0.82102E+05
 
    0.29463E+06         0.91635E+01         0.00000E+00
    0.91635E+01        -0.70533E+06         0.00000E+00
    0.00000E+00         0.00000E+00        -0.82140E+05
 
    0.29446E+06         0.89222E+01         0.00000E+00
    0.89222E+01        -0.70533E+06         0.00000E+00
    0.00000E+00         0.00000E+00        -0.82173E+05
 
    0.29432E+06         0.83662E+01         0.00000E+00
    0.83662E+01        -0.70533E+06         0.00000E+00
    0.00000E+00         0.00000E+00        -0.82203E+05
 
    0.29419E+06         0.75382E+01         0.00000E+00
    0.75382E+01        -0.70533E+06         0.00000E+00
    0.00000E+00         0.00000E+00        -0.82228E+05
 
    0.29408E+06         0.64803E+01         0.00000E+00
    0.64803E+01        -0.70533E+06         0.00000E+00
    0.00000E+00         0.00000E+00        -0.82249E+05
 
    0.29400E+06         0.52346E+01         0.00000E+00
    0.52346E+01        -0.70533E+06         0.00000E+00
    0.00000E+00         0.00000E+00        -0.82266E+05
 
    0.29394E+06         0.38431E+01         0.00000E+00
    0.38431E+01        -0.70533E+06         0.00000E+00
    0.00000E+00         0.00000E+00        -0.82278E+05
 
    0.29390E+06         0.23475E+01         0.00000E+00
    0.23475E+01        -0.70533E+06         0.00000E+00
    0.00000E+00         0.00000E+00        -0.82287E+05
 
    0.29387E+06         0.78944E+00         0.00000E+00
    0.78944E+00        -0.70533E+06         0.00000E+00
    0.00000E+00         0.00000E+00        -0.82291E+05
 
    0.29442E+06         0.15918E+01         0.00000E+00
    0.15918E+01        -0.70699E+06         0.00000E+00
    0.00000E+00         0.00000E+00        -0.82515E+05
 
    0.29413E+06         0.42191E+01         0.00000E+00
    0.42191E+01        -0.70699E+06         0.00000E+00
    0.00000E+00         0.00000E+00        -0.82574E+05
 
    0.29385E+06         0.62481E+01         0.00000E+00
    0.62481E+01        -0.70699E+06         0.00000E+00
    0.00000E+00         0.00000E+00        -0.82628E+05
 
    0.29360E+06         0.77279E+01         0.00000E+00
    0.77279E+01        -0.70699E+06         0.00000E+00
    0.00000E+00         0.00000E+00        -0.82679E+05
 
    0.29337E+06         0.87062E+01         0.00000E+00
    0.87062E+01        -0.70699E+06         0.00000E+00
    0.00000E+00         0.00000E+00        -0.82725E+05
 
    0.29316E+06         0.92296E+01         0.00000E+00
    0.92296E+01        -0.70699E+06         0.00000E+00
    0.00000E+00         0.00000E+00        -0.82767E+05
 
    0.29297E+06         0.93440E+01         0.00000E+00
    0.93440E+01        -0.70699E+06         0.00000E+00
    0.00000E+00         0.00000E+00        -0.82805E+05
 
    0.29280E+06         0.90941E+01         0.00000E+00
    0.90941E+01        -0.70699E+06         0.00000E+00
    0.00000E+00         0.00000E+00        -0.82839E+05
 
    0.29265E+06         0.85242E+01         0.00000E+00
    0.85242E+01        -0.70699E+06         0.00000E+00
    0.00000E+00         0.00000E+00        -0.82868E+05
 
    0.29252E+06         0.76780E+01         0.00000E+00
    0.76780E+01        -0.70699E+06         0.00000E+00
    0.00000E+00         0.00000E+00        -0.82894E+05
 
    0.29242E+06         0.65987E+01         0.00000E+00
    0.65987E+01        -0.70699E+06         0.00000E+00
    0.00000E+00         0.00000E+00        -0.82915E+05
 
    0.29233E+06         0.53291E+01         0.00000E+00
    0.53291E+01        -0.70699E+06         0.00000E+00
    0.00000E+00         0.00000E+00        -0.82932E+05
 
    0.29227E+06         0.39118E+01         0.00000E+00
    0.39118E+01        -0.70699E+06         0.00000E+00
    0.00000E+00         0.00000E+00        -0.82944E+05
 
    0.29223E+06         0.23892E+01         0.00000E+00
    0.23892E+01        -0.70699E+06         0.00000E+00
    0.00000E+00         0.00000E+00        -0.82953E+05
 
    0.29221E+06         0.80342E+00         0.00000E+00
    0.80342E+00        -0.70699E+06         0.00000E+00
    0.00000E+00         0.00000E+00        -0.82957E+05
 
    0.29268E+06         0.16244E+01         0.00000E+00
    0.16244E+01        -0.70874E+06         0.00000E+00
    0.00000E+00         0.00000E+00        -0.83210E+05
 
    0.29239E+06         0.43030E+01         0.00000E+00
    0.43030E+01        -0.70874E+06         0.00000E+00
    0.00000E+00         0.00000E+00        -0.83269E+05
 
    0.29211E+06         0.63691E+01         0.00000E+00
    0.63691E+01        -0.70874E+06         0.00000E+00
    0.00000E+00         0.00000E+00        -0.83324E+05
 
    0.29186E+06         0.78738E+01         0.00000E+00
    0.78738E+01        -0.70874E+06         0.00000E+00
    0.00000E+00         0.00000E+00        -0.83375E+05
 
    0.29163E+06         0.88666E+01         0.00000E+00
    0.88666E+01        -0.70874E+06         0.00000E+00
    0.00000E+00         0.00000E+00        -0.83422E+05
 
    0.29142E+06         0.93958E+01         0.00000E+00
    0.93958E+01        -0.70874E+06         0.00000E+00
    0.00000E+00         0.00000E+00        -0.83464E+05
 
    0.29123E+06         0.95086E+01         0.00000E+00
    0.95086E+01        -0.70874E+06         0.00000E+00
    0.00000E+00         0.00000E+00        -0.83502E+05
 
    0.29106E+06         0.92511E+01         0.00000E+00
    0.92511E+01        -0.70873E+06         0.00000E+00
    0.00000E+00         0.00000E+00        -0.83536E+05
 
    0.29091E+06         0.86687E+01         0.00000E+00
    0.86687E+01        -0.70873E+06         0.00000E+00
    0.00000E+00         0.00000E+00        -0.83565E+05
 
    0.29078E+06         0.78060E+01         0.00000E+00
    0.78060E+01        -0.70873E+06         0.00000E+00
    0.00000E+00         0.00000E+00        -0.83591E+05
 
    0.29068E+06         0.67072E+01         0.00000E+00
    0.67072E+01        -0.70873E+06         0.00000E+00
    0.00000E+00         0.00000E+00        -0.83612E+05
 
    0.29059E+06         0.54158E+01         0.00000E+00
    0.54158E+01        -0.70873E+06         0.00000E+00
    0.00000E+00         0.00000E+00        -0.83629E+05
 
    0.29053E+06         0.39749E+01         0.00000E+00
    0.39749E+01        -0.70873E+06         0.00000E+00
    0.00000E+00         0.00000E+00        -0.83641E+05
 
    0.29049E+06         0.24275E+01         0.00000E+00
    0.24275E+01        -0.70873E+06         0.00000E+00
    0.00000E+00         0.00000E+00        -0.83650E+05
 
    0.29046E+06         0.81625E+00         0.00000E+00
    0.81625E+00        -0.70873E+06         0.00000E+00
    0.00000E+00         0.00000E+00        -0.83654E+05
 
    0.29087E+06         0.16527E+01         0.00000E+00
    0.16527E+01        -0.71056E+06         0.00000E+00
    0.00000E+00         0.00000E+00        -0.83937E+05
 
    0.29057E+06         0.43759E+01         0.00000E+00
    0.43759E+01        -0.71056E+06         0.00000E+00
    0.00000E+00         0.00000E+00        -0.83996E+05
 
    0.29030E+06         0.64743E+01         0.00000E+00
    0.64743E+01        -0.71056E+06         0.00000E+00
    0.00000E+00         0.00000E+00        -0.84052E+05
 
    0.29004E+06         0.80007E+01         0.00000E+00
    0.80007E+01        -0.71056E+06         0.00000E+00
    0.00000E+00         0.00000E+00        -0.84102E+05
 
    0.28981E+06         0.90061E+01         0.00000E+00
    0.90061E+01        -0.71055E+06         0.00000E+00
    0.00000E+00         0.00000E+00        -0.84149E+05
 
    0.28960E+06         0.95403E+01         0.00000E+00
    0.95403E+01        -0.71055E+06         0.00000E+00
    0.00000E+00         0.00000E+00        -0.84192E+05
 
    0.28941E+06         0.96516E+01         0.00000E+00
    0.96516E+01        -0.71055E+06         0.00000E+00
    0.00000E+00         0.00000E+00        -0.84230E+05
 
    0.28924E+06         0.93875E+01         0.00000E+00
    0.93875E+01        -0.71055E+06         0.00000E+00
    0.00000E+00         0.00000E+00        -0.84264E+05
 
    0.28909E+06         0.87942E+01         0.00000E+00
    0.87942E+01        -0.71055E+06         0.00000E+00
    0.00000E+00         0.00000E+00        -0.84293E+05
 
    0.28896E+06         0.79173E+01         0.00000E+00
    0.79173E+01        -0.71055E+06         0.00000E+00
    0.00000E+00         0.00000E+00        -0.84319E+05
 
    0.28885E+06         0.68015E+01         0.00000E+00
    0.68015E+01        -0.71055E+06         0.00000E+00
    0.00000E+00         0.00000E+00        -0.84340E+05
 
    0.28877E+06         0.54910E+01         0.00000E+00
    0.54910E+01        -0.71055E+06         0.00000E+00
    0.00000E+00         0.00000E+00        -0.84357E+05
 
    0.28871E+06         0.40296E+01         0.00000E+00
    0.40296E+01        -0.71055E+06         0.00000E+00
    0.00000E+00         0.00000E+00        -0.84370E+05
 
    0.28866E+06         0.24607E+01         0.00000E+00
    0.24607E+01        -0.71055E+06         0.00000E+00
    0.00000E+00         0.00000E+00        -0.84378E+05
 
    0.28864E+06         0.82740E+00         0.00000E+00
    0.82740E+00        -0.71055E+06         0.00000E+00
    0.00000E+00         0.00000E+00        -0.84382E+05
 
    0.28898E+06         0.16762E+01         0.00000E+00
    0.16762E+01        -0.71245E+06         0.00000E+00
    0.00000E+00         0.00000E+00        -0.84695E+05
 
    0.28868E+06         0.44360E+01         0.00000E+00
    0.44360E+01        -0.71245E+06         0.00000E+00
    0.00000E+00         0.00000E+00        -0.84755E+05
 
    0.28840E+06         0.65608E+01         0.00000E+00
    0.65608E+01        -0.71245E+06         0.00000E+00
    0.00000E+00         0.00000E+00        -0.84810E+05
 
    0.28815E+06         0.81047E+01         0.00000E+00
    0.81047E+01        -0.71245E+06         0.00000E+00
    0.00000E+00         0.00000E+00        -0.84861E+05
 
    0.28791E+06         0.91202E+01         0.00000E+00
    0.91202E+01        -0.71245E+06         0.00000E+00
    0.00000E+00         0.00000E+00        -0.84908E+05
 
    0.28770E+06         0.96582E+01         0.00000E+00
    0.96582E+01        -0.71245E+06         0.00000E+00
    0.00000E+00         0.00000E+00        -0.84951E+05
 
    0.28751E+06         0.97682E+01         0.00000E+00
    0.97682E+01        -0.71245E+06         0.00000E+00
    0.00000E+00         0.00000E+00        -0.84989E+05
 
    0.28734E+06         0.94984E+01         0.00000E+00
    0.94984E+01        -0.71245E+06         0.00000E+00
    0.00000E+00         0.00000E+00        -0.85023E+05
 
    0.28719E+06         0.88961E+01         0.00000E+00
    0.88961E+01        -0.71245E+06         0.00000E+00
    0.00000E+00         0.00000E+00        -0.85053E+05
 
    0.28706E+06         0.80074E+01         0.00000E+00
    0.80074E+01        -0.71245E+06         0.00000E+00
    0.00000E+00         0.00000E+00        -0.85078E+05
 
    0.28695E+06         0.68777E+01         0.00000E+00
    0.68777E+01        -0.71245E+06         0.00000E+00
    0.00000E+00         0.00000E+00        -0.85100E+05
 
    0.28687E+06         0.55518E+01         0.00000E+00
    0.55518E+01        -0.71245E+06         0.00000E+00
    0.00000E+00         0.00000E+00        -0.85117E+05
 
    0.28680E+06         0.40739E+01         0.00000E+00
    0.40739E+01        -0.71245E+06         0.00000E+00
    0.00000E+00         0.00000E+00        -0.85130E+05
 
    0.28676E+06         0.24876E+01         0.00000E+00
    0.24876E+01        -0.71245E+06         0.00000E+00
    0.00000E+00         0.00000E+00        -0.85138E+05
 
    0.28674E+06         0.83639E+00         0.00000E+00
    0.83639E+00        -0.71245E+06         0.00000E+00
    0.00000E+00         0.00000E+00        -0.85142E+05
 
    0.28701E+06         0.16941E+01         0.00000E+00
    0.16941E+01        -0.71443E+06         0.00000E+00
    0.00000E+00         0.00000E+00        -0.85485E+05
 
    0.28671E+06         0.44816E+01         0.00000E+00
    0.44816E+01        -0.71443E+06         0.00000E+00
    0.00000E+00         0.00000E+00        -0.85545E+05
 
    0.28643E+06         0.66259E+01         0.00000E+00
    0.66259E+01        -0.71443E+06         0.00000E+00
    0.00000E+00         0.00000E+00        -0.85600E+05
 
    0.28617E+06         0.81825E+01         0.00000E+00
    0.81825E+01        -0.71443E+06         0.00000E+00
    0.00000E+00         0.00000E+00        -0.85652E+05
 
    0.28594E+06         0.92050E+01         0.00000E+00
    0.92050E+01        -0.71443E+06         0.00000E+00
    0.00000E+00         0.00000E+00        -0.85699E+05
 
    0.28572E+06         0.97453E+01         0.00000E+00
    0.97453E+01        -0.71443E+06         0.00000E+00
    0.00000E+00         0.00000E+00        -0.85741E+05
 
    0.28553E+06         0.98538E+01         0.00000E+00
    0.98538E+01        -0.71443E+06         0.00000E+00
    0.00000E+00         0.00000E+00        -0.85780E+05
 
    0.28536E+06         0.95795E+01         0.00000E+00
    0.95795E+01        -0.71443E+06         0.00000E+00
    0.00000E+00         0.00000E+00        -0.85814E+05
 
    0.28521E+06         0.89702E+01         0.00000E+00
    0.89702E+01        -0.71443E+06         0.00000E+00
    0.00000E+00         0.00000E+00        -0.85844E+05
 
    0.28508E+06         0.80726E+01         0.00000E+00
    0.80726E+01        -0.71443E+06         0.00000E+00
    0.00000E+00         0.00000E+00        -0.85870E+05
 
    0.28497E+06         0.69327E+01         0.00000E+00
    0.69327E+01        -0.71443E+06         0.00000E+00
    0.00000E+00         0.00000E+00        -0.85891E+05
 
    0.28489E+06         0.55956E+01         0.00000E+00
    0.55956E+01        -0.71443E+06         0.00000E+00
    0.00000E+00         0.00000E+00        -0.85908E+05
 
    0.28483E+06         0.41056E+01         0.00000E+00
    0.41056E+01        -0.71443E+06         0.00000E+00
    0.00000E+00         0.00000E+00        -0.85921E+05
 
    0.28478E+06         0.25068E+01         0.00000E+00
    0.25068E+01        -0.71443E+06         0.00000E+00
    0.00000E+00         0.00000E+00        -0.85929E+05
 
    0.28476E+06         0.84282E+00         0.00000E+00
    0.84282E+00        -0.71443E+06         0.00000E+00
    0.00000E+00         0.00000E+00        -0.85934E+05
 
    0.28495E+06         0.17058E+01         0.00000E+00
    0.17058E+01        -0.71649E+06         0.00000E+00
    0.00000E+00         0.00000E+00        -0.86306E+05
 
    0.28465E+06         0.45110E+01         0.00000E+00
    0.45110E+01        -0.71649E+06         0.00000E+00
    0.00000E+00         0.00000E+00        -0.86366E+05
 
    0.28438E+06         0.66673E+01         0.00000E+00
    0.66673E+01        -0.71649E+06         0.00000E+00
    0.00000E+00         0.00000E+00        -0.86422E+05
 
    0.28412E+06         0.82312E+01         0.00000E+00
    0.82312E+01        -0.71649E+06         0.00000E+00
    0.00000E+00         0.00000E+00        -0.86474E+05
 
    0.28388E+06         0.92571E+01         0.00000E+00
    0.92571E+01        -0.71649E+06         0.00000E+00
    0.00000E+00         0.00000E+00        -0.86521E+05
 
    0.28367E+06         0.97979E+01         0.00000E+00
    0.97979E+01        -0.71649E+06         0.00000E+00
    0.00000E+00         0.00000E+00        -0.86564E+05
 
    0.28347E+06         0.99046E+01         0.00000E+00
    0.99046E+01        -0.71649E+06         0.00000E+00
    0.00000E+00         0.00000E+00        -0.86602E+05
 
    0.28330E+06         0.96268E+01         0.00000E+00
    0.96268E+01        -0.71649E+06         0.00000E+00
    0.00000E+00         0.00000E+00        -0.86637E+05
 
    0.28315E+06         0.90128E+01         0.00000E+00
    0.90128E+01        -0.71649E+06         0.00000E+00
    0.00000E+00         0.00000E+00        -0.86667E+05
 
    0.28302E+06         0.81096E+01         0.00000E+00
    0.81096E+01        -0.71649E+06         0.00000E+00
    0.00000E+00         0.00000E+00        -0.86692E+05
 
    0.28292E+06         0.69635E+01         0.00000E+00
    0.69635E+01        -0.71649E+06         0.00000E+00
    0.00000E+00         0.00000E+00        -0.86714E+05
 
    0.28283E+06         0.56198E+01         0.00000E+00
    0.56198E+01        -0.71649E+06         0.00000E+00
    0.00000E+00         0.00000E+00        -0.86731E+05
 
    0.28277E+06         0.41230E+01         0.00000E+00
    0.41230E+01        -0.71649E+06         0.00000E+00
    0.00000E+00         0.00000E+00        -0.86744E+05
 
    0.28272E+06         0.25172E+01         0.00000E+00
    0.25172E+01        -0.71649E+06         0.00000E+00
    0.00000E+00         0.00000E+00        -0.86753E+05
 
    0.28270E+06         0.84632E+00         0.00000E+00
    0.84632E+00        -0.71649E+06         0.00000E+00
    0.00000E+00         0.00000E+00        -0.86757E+05
 
    0.28282E+06         0.17110E+01         0.00000E+00
    0.17110E+01        -0.71862E+06         0.00000E+00
    0.00000E+00         0.00000E+00        -0.87160E+05
 
    0.28252E+06         0.45230E+01         0.00000E+00
    0.45230E+01        -0.71862E+06         0.00000E+00
    0.00000E+00         0.00000E+00        -0.87220E+05
 
    0.28224E+06         0.66828E+01         0.00000E+00
    0.66828E+01        -0.71862E+06         0.00000E+00
    0.00000E+00         0.00000E+00        -0.87276E+05
 
    0.28198E+06         0.82479E+01         0.00000E+00
    0.82479E+01        -0.71862E+06         0.00000E+00
    0.00000E+00         0.00000E+00        -0.87327E+05
 
    0.28175E+06         0.92734E+01         0.00000E+00
    0.92734E+01        -0.71862E+06         0.00000E+00
    0.00000E+00         0.00000E+00        -0.87375E+05
 
    0.28153E+06         0.98126E+01         0.00000E+00
    0.98126E+01        -0.71862E+06         0.00000E+00
    0.00000E+00         0.00000E+00        -0.87418E+05
 
    0.28134E+06         0.99171E+01         0.00000E+00
    0.99171E+01        -0.71862E+06         0.00000E+00
    0.00000E+00         0.00000E+00        -0.87457E+05
 
    0.28117E+06         0.96369E+01         0.00000E+00
    0.96369E+01        -0.71862E+06         0.00000E+00
    0.00000E+00         0.00000E+00        -0.87491E+05
 
    0.28102E+06         0.90205E+01         0.00000E+00
    0.90205E+01        -0.71862E+06         0.00000E+00
    0.00000E+00         0.00000E+00        -0.87521E+05
 
    0.28089E+06         0.81152E+01         0.00000E+00
    0.81152E+01        -0.71862E+06         0.00000E+00
    0.00000E+00         0.00000E+00        -0.87547E+05
 
    0.28078E+06         0.69674E+01         0.00000E+00
    0.69674E+01        -0.71862E+06         0.00000E+00
    0.00000E+00         0.00000E+00        -0.87569E+05
 
    0.28069E+06         0.56223E+01         0.00000E+00
    0.56223E+01        -0.71862E+06         0.00000E+00
    0.00000E+00         0.00000E+00        -0.87586E+05
 
    0.28063E+06         0.41245E+01         0.00000E+00
    0.41245E+01        -0.71862E+06         0.00000E+00
    0.00000E+00         0.00000E+00        -0.87599E+05
 
    0.28059E+06         0.25180E+01         0.00000E+00
    0.25180E+01        -0.71862E+06         0.00000E+00
    0.00000E+00         0.00000E+00        -0.87607E+05
 
    0.28056E+06         0.84655E+00         0.00000E+00
    0.84655E+00        -0.71862E+06         0.00000E+00
    0.00000E+00         0.00000E+00        -0.87612E+05
 
    0.28061E+06         0.17090E+01         0.00000E+00
    0.17090E+01        -0.72084E+06         0.00000E+00
    0.00000E+00         0.00000E+00        -0.88045E+05
 
    0.28031E+06         0.45161E+01         0.00000E+00
    0.45161E+01        -0.72084E+06         0.00000E+00
    0.00000E+00         0.00000E+00        -0.88105E+05
 
    0.28003E+06         0.66705E+01         0.00000E+00
    0.66705E+01        -0.72084E+06         0.00000E+00
    0.00000E+00         0.00000E+00        -0.88161E+05
 
    0.27977E+06         0.82301E+01         0.00000E+00
    0.82301E+01        -0.72084E+06         0.00000E+00
    0.00000E+00         0.00000E+00        -0.88213E+05
 
    0.27953E+06         0.92507E+01         0.00000E+00
    0.92507E+01        -0.72084E+06         0.00000E+00
    0.00000E+00         0.00000E+00        -0.88261E+05
 
    0.27932E+06         0.97860E+01         0.00000E+00
    0.97860E+01        -0.72084E+06         0.00000E+00
    0.00000E+00         0.00000E+00        -0.88304E+05
 
    0.27912E+06         0.98879E+01         0.00000E+00
    0.98879E+01        -0.72084E+06         0.00000E+00
    0.00000E+00         0.00000E+00        -0.88343E+05
 
    0.27895E+06         0.96064E+01         0.00000E+00
    0.96064E+01        -0.72084E+06         0.00000E+00
    0.00000E+00         0.00000E+00        -0.88377E+05
 
    0.27880E+06         0.89902E+01         0.00000E+00
    0.89902E+01        -0.72084E+06         0.00000E+00
    0.00000E+00         0.00000E+00        -0.88408E+05
 
    0.27867E+06         0.80867E+01         0.00000E+00
    0.80867E+01        -0.72084E+06         0.00000E+00
    0.00000E+00         0.00000E+00        -0.88434E+05
 
    0.27856E+06         0.69419E+01         0.00000E+00
    0.69419E+01        -0.72084E+06         0.00000E+00
    0.00000E+00         0.00000E+00        -0.88455E+05
 
    0.27848E+06         0.56010E+01         0.00000E+00
    0.56010E+01        -0.72084E+06         0.00000E+00
    0.00000E+00         0.00000E+00        -0.88473E+05
 
    0.27841E+06         0.41085E+01         0.00000E+00
    0.41085E+01        -0.72084E+06         0.00000E+00
    0.00000E+00         0.00000E+00        -0.88485E+05
 
    0.27837E+06         0.25082E+01         0.00000E+00
    0.25082E+01        -0.72084E+06         0.00000E+00
    0.00000E+00         0.00000E+00        -0.88494E+05
 
    0.27835E+06         0.84322E+00         0.00000E+00
    0.84322E+00        -0.72084E+06         0.00000E+00
    0.00000E+00         0.00000E+00        -0.88498E+05
 
    0.27832E+06         0.16995E+01         0.00000E+00
    0.16995E+01        -0.72313E+06         0.00000E+00
    0.00000E+00         0.00000E+00        -0.88962E+05
 
    0.27802E+06         0.44891E+01         0.00000E+00
    0.44891E+01        -0.72313E+06         0.00000E+00
    0.00000E+00         0.00000E+00        -0.89022E+05
 
    0.27774E+06         0.66282E+01         0.00000E+00
    0.66282E+01        -0.72313E+06         0.00000E+00
    0.00000E+00         0.00000E+00        -0.89079E+05
 
    0.27748E+06         0.81753E+01         0.00000E+00
    0.81753E+01        -0.72313E+06         0.00000E+00
    0.00000E+00         0.00000E+00        -0.89131E+05
 
    0.27724E+06         0.91863E+01         0.00000E+00
    0.91863E+01        -0.72313E+06         0.00000E+00
    0.00000E+00         0.00000E+00        -0.89179E+05
 
    0.27702E+06         0.97152E+01         0.00000E+00
    0.97152E+01        -0.72313E+06         0.00000E+00
    0.00000E+00         0.00000E+00        -0.89222E+05
 
    0.27683E+06         0.98138E+01         0.00000E+00
    0.98138E+01        -0.72313E+06         0.00000E+00
    0.00000E+00         0.00000E+00        -0.89261E+05
 
    0.27665E+06         0.95323E+01         0.00000E+00
    0.95323E+01        -0.72313E+06         0.00000E+00
    0.00000E+00         0.00000E+00        -0.89296E+05
 
    0.27650E+06         0.89191E+01         0.00000E+00
    0.89191E+01        -0.72313E+06         0.00000E+00
    0.00000E+00         0.00000E+00        -0.89326E+05
 
    0.27637E+06         0.80212E+01         0.00000E+00
    0.80212E+01        -0.72313E+06         0.00000E+00
    0.00000E+00         0.00000E+00        -0.89352E+05
 
    0.27626E+06         0.68847E+01         0.00000E+00
    0.68847E+01        -0.72313E+06         0.00000E+00
    0.00000E+00         0.00000E+00        -0.89374E+05
 
    0.27618E+06         0.55542E+01         0.00000E+00
    0.55542E+01        -0.72313E+06         0.00000E+00
    0.00000E+00         0.00000E+00        -0.89391E+05
 
    0.27611E+06         0.40738E+01         0.00000E+00
    0.40738E+01        -0.72313E+06         0.00000E+00
    0.00000E+00         0.00000E+00        -0.89404E+05
 
    0.27607E+06         0.24868E+01         0.00000E+00
    0.24868E+01        -0.72313E+06         0.00000E+00
    0.00000E+00         0.00000E+00        -0.89413E+05
 
    0.27605E+06         0.83602E+00         0.00000E+00
    0.83602E+00        -0.72313E+06         0.00000E+00
    0.00000E+00         0.00000E+00        -0.89417E+05
 
    0.27595E+06         0.16820E+01         0.00000E+00
    0.16820E+01        -0.72551E+06         0.00000E+00
    0.00000E+00         0.00000E+00        -0.89911E+05
 
    0.27565E+06         0.44407E+01         0.00000E+00
    0.44407E+01        -0.72551E+06         0.00000E+00
    0.00000E+00         0.00000E+00        -0.89972E+05
 
    0.27537E+06         0.65542E+01         0.00000E+00
    0.65542E+01        -0.72551E+06         0.00000E+00
    0.00000E+00         0.00000E+00        -0.90028E+05
 
    0.27510E+06         0.80811E+01         0.00000E+00
    0.80811E+01        -0.72551E+06         0.00000E+00
    0.00000E+00         0.00000E+00        -0.90081E+05
 
    0.27487E+06         0.90775E+01         0.00000E+00
    0.90775E+01        -0.72551E+06         0.00000E+00
    0.00000E+00         0.00000E+00        -0.90129E+05
 
    0.27465E+06         0.95972E+01         0.00000E+00
    0.95972E+01        -0.72551E+06         0.00000E+00
    0.00000E+00         0.00000E+00        -0.90172E+05
 
    0.27445E+06         0.96919E+01         0.00000E+00
    0.96919E+01        -0.72551E+06         0.00000E+00
    0.00000E+00         0.00000E+00        -0.90211E+05
 
    0.27428E+06         0.94115E+01         0.00000E+00
    0.94115E+01        -0.72551E+06         0.00000E+00
    0.00000E+00         0.00000E+00        -0.90246E+05
 
    0.27413E+06         0.88041E+01         0.00000E+00
    0.88041E+01        -0.72551E+06         0.00000E+00
    0.00000E+00         0.00000E+00        -0.90277E+05
 
    0.27399E+06         0.79163E+01         0.00000E+00
    0.79163E+01        -0.72551E+06         0.00000E+00
    0.00000E+00         0.00000E+00        -0.90303E+05
 
    0.27389E+06         0.67935E+01         0.00000E+00
    0.67935E+01        -0.72551E+06         0.00000E+00
    0.00000E+00         0.00000E+00        -0.90325E+05
 
    0.27380E+06         0.54800E+01         0.00000E+00
    0.54800E+01        -0.72551E+06         0.00000E+00
    0.00000E+00         0.00000E+00        -0.90342E+05
 
    0.27373E+06         0.40190E+01         0.00000E+00
    0.40190E+01        -0.72551E+06         0.00000E+00
    0.00000E+00         0.00000E+00        -0.90355E+05
 
    0.27369E+06         0.24532E+01         0.00000E+00
    0.24532E+01        -0.72551E+06         0.00000E+00
    0.00000E+00         0.00000E+00        -0.90364E+05
 
    0.27367E+06         0.82468E+00         0.00000E+00
    0.82468E+00        -0.72551E+06         0.00000E+00
    0.00000E+00         0.00000E+00        -0.90368E+05
 
    0.27350E+06         0.16559E+01         0.00000E+00
    0.16559E+01        -0.72796E+06         0.00000E+00
    0.00000E+00         0.00000E+00        -0.90892E+05
 
    0.27320E+06         0.43696E+01         0.00000E+00
    0.43696E+01        -0.72796E+06         0.00000E+00
    0.00000E+00         0.00000E+00        -0.90954E+05
 
    0.27291E+06         0.64465E+01         0.00000E+00
    0.64465E+01        -0.72796E+06         0.00000E+00
    0.00000E+00         0.00000E+00        -0.91010E+05
 
    0.27265E+06         0.79451E+01         0.00000E+00
    0.79451E+01        -0.72796E+06         0.00000E+00
    0.00000E+00         0.00000E+00        -0.91063E+05
 
    0.27241E+06         0.89214E+01         0.00000E+00
    0.89214E+01        -0.72796E+06         0.00000E+00
    0.00000E+00         0.00000E+00        -0.91111E+05
 
    0.27219E+06         0.94290E+01         0.00000E+00
    0.94290E+01        -0.72796E+06         0.00000E+00
    0.00000E+00         0.00000E+00        -0.91155E+05
 
    0.27200E+06         0.95190E+01         0.00000E+00
    0.95190E+01        -0.72797E+06         0.00000E+00
    0.00000E+00         0.00000E+00        -0.91194E+05
 
    0.27182E+06         0.92410E+01         0.00000E+00
    0.92410E+01        -0.72797E+06         0.00000E+00
    0.00000E+00         0.00000E+00        -0.91229E+05
 
    0.27167E+06         0.86425E+01         0.00000E+00
    0.86425E+01        -0.72797E+06         0.00000E+00
    0.00000E+00         0.00000E+00        -0.91260E+05
 
    0.27154E+06         0.77694E+01         0.00000E+00
    0.77694E+01        -0.72797E+06         0.00000E+00
    0.00000E+00         0.00000E+00        -0.91286E+05
 
    0.27143E+06         0.66663E+01         0.00000E+00
    0.66663E+01        -0.72797E+06         0.00000E+00
    0.00000E+00         0.00000E+00        -0.91308E+05
 
    0.27134E+06         0.53765E+01         0.00000E+00
    0.53765E+01        -0.72797E+06         0.00000E+00
    0.00000E+00         0.00000E+00        -0.91325E+05
 
    0.27128E+06         0.39427E+01         0.00000E+00
    0.39427E+01        -0.72797E+06         0.00000E+00
    0.00000E+00         0.00000E+00        -0.91338E+05
 
    0.27123E+06         0.24064E+01         0.00000E+00
    0.24064E+01        -0.72797E+06         0.00000E+00
    0.00000E+00         0.00000E+00        -0.91347E+05
 
    0.27121E+06         0.80894E+00         0.00000E+00
    0.80894E+00        -0.72797E+06         0.00000E+00
    0.00000E+00         0.00000E+00        -0.91351E+05
 
    0.27097E+06         0.16209E+01         0.00000E+00
    0.16209E+01        -0.73050E+06         0.00000E+00
    0.00000E+00         0.00000E+00        -0.91906E+05
 
    0.27066E+06         0.42746E+01         0.00000E+00
    0.42746E+01        -0.73050E+06         0.00000E+00
    0.00000E+00         0.00000E+00        -0.91968E+05
 
    0.27038E+06         0.63032E+01         0.00000E+00
    0.63032E+01        -0.73050E+06         0.00000E+00
    0.00000E+00         0.00000E+00        -0.92025E+05
 
    0.27012E+06         0.77649E+01         0.00000E+00
    0.77649E+01        -0.73050E+06         0.00000E+00
    0.00000E+00         0.00000E+00        -0.92077E+05
 
    0.26987E+06         0.87154E+01         0.00000E+00
    0.87154E+01        -0.73050E+06         0.00000E+00
    0.00000E+00         0.00000E+00        -0.92126E+05
 
    0.26966E+06         0.92076E+01         0.00000E+00
    0.92076E+01        -0.73050E+06         0.00000E+00
    0.00000E+00         0.00000E+00        -0.92169E+05
 
    0.26946E+06         0.92923E+01         0.00000E+00
    0.92923E+01        -0.73050E+06         0.00000E+00
    0.00000E+00         0.00000E+00        -0.92209E+05
 
    0.26928E+06         0.90180E+01         0.00000E+00
    0.90180E+01        -0.73050E+06         0.00000E+00
    0.00000E+00         0.00000E+00        -0.92244E+05
 
    0.26913E+06         0.84315E+01         0.00000E+00
    0.84315E+01        -0.73050E+06         0.00000E+00
    0.00000E+00         0.00000E+00        -0.92275E+05
 
    0.26900E+06         0.75779E+01         0.00000E+00
    0.75779E+01        -0.73050E+06         0.00000E+00
    0.00000E+00         0.00000E+00        -0.92301E+05
 
    0.26889E+06         0.65006E+01         0.00000E+00
    0.65006E+01        -0.73050E+06         0.00000E+00
    0.00000E+00         0.00000E+00        -0.92323E+05
 
    0.26880E+06         0.52421E+01         0.00000E+00
    0.52421E+01        -0.73050E+06         0.00000E+00
    0.00000E+00         0.00000E+00        -0.92341E+05
 
    0.26874E+06         0.38436E+01         0.00000E+00
    0.38436E+01        -0.73050E+06         0.00000E+00
    0.00000E+00         0.00000E+00        -0.92354E+05
 
    0.26869E+06         0.23458E+01         0.00000E+00
    0.23458E+01        -0.73050E+06         0.00000E+00
    0.00000E+00         0.00000E+00        -0.92362E+05
 
    0.26867E+06         0.78851E+00         0.00000E+00
    0.78851E+00        -0.73050E+06         0.00000E+00
    0.00000E+00         0.00000E+00        -0.92367E+05
 
    0.26836E+06         0.15763E+01         0.00000E+00
    0.15763E+01        -0.73312E+06         0.00000E+00
    0.00000E+00         0.00000E+00        -0.92953E+05
 
    0.26805E+06         0.41543E+01         0.00000E+00
    0.41543E+01        -0.73312E+06         0.00000E+00
    0.00000E+00         0.00000E+00        -0.93014E+05
 
    0.26776E+06         0.61223E+01         0.00000E+00
    0.61223E+01        -0.73312E+06         0.00000E+00
    0.00000E+00         0.00000E+00        -0.93071E+05
 
    0.26750E+06         0.75380E+01         0.00000E+00
    0.75380E+01        -0.73312E+06         0.00000E+00
    0.00000E+00         0.00000E+00        -0.93124E+05
 
    0.26726E+06         0.84565E+01         0.00000E+00
    0.84565E+01        -0.73312E+06         0.00000E+00
    0.00000E+00         0.00000E+00        -0.93173E+05
 
    0.26704E+06         0.89301E+01         0.00000E+00
    0.89301E+01        -0.73312E+06         0.00000E+00
    0.00000E+00         0.00000E+00        -0.93217E+05
 
    0.26684E+06         0.90085E+01         0.00000E+00
    0.90085E+01        -0.73312E+06         0.00000E+00
    0.00000E+00         0.00000E+00        -0.93256E+05
 
    0.26666E+06         0.87393E+01         0.00000E+00
    0.87393E+01        -0.73312E+06         0.00000E+00
    0.00000E+00         0.00000E+00        -0.93292E+05
 
    0.26651E+06         0.81683E+01         0.00000E+00
    0.81683E+01        -0.73312E+06         0.00000E+00
    0.00000E+00         0.00000E+00        -0.93322E+05
 
    0.26638E+06         0.73392E+01         0.00000E+00
    0.73392E+01        -0.73312E+06         0.00000E+00
    0.00000E+00         0.00000E+00        -0.93349E+05
 
    0.26627E+06         0.62944E+01         0.00000E+00
    0.62944E+01        -0.73312E+06         0.00000E+00
    0.00000E+00         0.00000E+00        -0.93371E+05
 
    0.26618E+06         0.50748E+01         0.00000E+00
    0.50748E+01        -0.73312E+06         0.00000E+00
    0.00000E+00         0.00000E+00        -0.93388E+05
 
    0.26611E+06         0.37204E+01         0.00000E+00
    0.37204E+01        -0.73312E+06         0.00000E+00
    0.00000E+00         0.00000E+00        -0.93402E+05
 
    0.26607E+06         0.22704E+01         0.00000E+00
    0.22704E+01        -0.73312E+06         0.00000E+00
    0.00000E+00         0.00000E+00        -0.93410E+05
 
    0.26605E+06         0.76313E+00         0.00000E+00
    0.76313E+00        -0.73312E+06         0.00000E+00
    0.00000E+00         0.00000E+00        -0.93415E+05
 
    0.26566E+06         0.15218E+01         0.00000E+00
    0.15218E+01        -0.73582E+06         0.00000E+00
    0.00000E+00         0.00000E+00        -0.94032E+05
 
    0.26535E+06         0.40074E+01         0.00000E+00
    0.40074E+01        -0.73582E+06         0.00000E+00
    0.00000E+00         0.00000E+00        -0.94093E+05
 
    0.26507E+06         0.59017E+01         0.00000E+00
    0.59017E+01        -0.73582E+06         0.00000E+00
    0.00000E+00         0.00000E+00        -0.94151E+05
 
    0.26480E+06         0.72619E+01         0.00000E+00
    0.72619E+01        -0.73582E+06         0.00000E+00
    0.00000E+00         0.00000E+00        -0.94204E+05
 
    0.26456E+06         0.81420E+01         0.00000E+00
    0.81420E+01        -0.73582E+06         0.00000E+00
    0.00000E+00         0.00000E+00        -0.94253E+05
 
    0.26434E+06         0.85933E+01         0.00000E+00
    0.85933E+01        -0.73582E+06         0.00000E+00
    0.00000E+00         0.00000E+00        -0.94297E+05
 
    0.26414E+06         0.86645E+01         0.00000E+00
    0.86645E+01        -0.73582E+06         0.00000E+00
    0.00000E+00         0.00000E+00        -0.94336E+05
 
    0.26396E+06         0.84020E+01         0.00000E+00
    0.84020E+01        -0.73582E+06         0.00000E+00
    0.00000E+00         0.00000E+00        -0.94372E+05
 
    0.26381E+06         0.78500E+01         0.00000E+00
    0.78500E+01        -0.73582E+06         0.00000E+00
    0.00000E+00         0.00000E+00        -0.94403E+05
 
    0.26368E+06         0.70508E+01         0.00000E+00
    0.70508E+01        -0.73582E+06         0.00000E+00
    0.00000E+00         0.00000E+00        -0.94429E+05
 
    0.26357E+06         0.60454E+01         0.00000E+00
    0.60454E+01        -0.73582E+06         0.00000E+00
    0.00000E+00         0.00000E+00        -0.94451E+05
 
    0.26348E+06         0.48729E+01         0.00000E+00
    0.48729E+01        -0.73582E+06         0.00000E+00
    0.00000E+00         0.00000E+00        -0.94469E+05
 
    0.26341E+06         0.35718E+01         0.00000E+00
    0.35718E+01        -0.73582E+06         0.00000E+00
    0.00000E+00         0.00000E+00        -0.94482E+05
 
    0.26337E+06         0.21794E+01         0.00000E+00
    0.21794E+01        -0.73582E+06         0.00000E+00
    0.00000E+00         0.00000E+00        -0.94491E+05
 
    0.26335E+06         0.73252E+00         0.00000E+00
    0.73252E+00        -0.73582E+06         0.00000E+00
    0.00000E+00         0.00000E+00        -0.94495E+05
 
    0.26288E+06         0.14567E+01         0.00000E+00
    0.14567E+01        -0.73860E+06         0.00000E+00
    0.00000E+00         0.00000E+00        -0.95143E+05
 
    0.26257E+06         0.38324E+01         0.00000E+00
    0.38324E+01        -0.73860E+06         0.00000E+00
    0.00000E+00         0.00000E+00        -0.95205E+05
 
    0.26229E+06         0.56393E+01         0.00000E+00
    0.56393E+01        -0.73860E+06         0.00000E+00
    0.00000E+00         0.00000E+00        -0.95263E+05
 
    0.26202E+06         0.69338E+01         0.00000E+00
    0.69338E+01        -0.73860E+06         0.00000E+00
    0.00000E+00         0.00000E+00        -0.95316E+05
 
    0.26178E+06         0.77687E+01         0.00000E+00
    0.77687E+01        -0.73860E+06         0.00000E+00
    0.00000E+00         0.00000E+00        -0.95365E+05
 
    0.26156E+06         0.81941E+01         0.00000E+00
    0.81941E+01        -0.73860E+06         0.00000E+00
    0.00000E+00         0.00000E+00        -0.95409E+05
 
    0.26136E+06         0.82572E+01         0.00000E+00
    0.82572E+01        -0.73860E+06         0.00000E+00
    0.00000E+00         0.00000E+00        -0.95449E+05
 
    0.26118E+06         0.80028E+01         0.00000E+00
    0.80028E+01        -0.73860E+06         0.00000E+00
    0.00000E+00         0.00000E+00        -0.95485E+05
 
    0.26103E+06         0.74735E+01         0.00000E+00
    0.74735E+01        -0.73860E+06         0.00000E+00
    0.00000E+00         0.00000E+00        -0.95516E+05
 
    0.26089E+06         0.67100E+01         0.00000E+00
    0.67100E+01        -0.73860E+06         0.00000E+00
    0.00000E+00         0.00000E+00        -0.95542E+05
 
    0.26078E+06         0.57512E+01         0.00000E+00
    0.57512E+01        -0.73860E+06         0.00000E+00
    0.00000E+00         0.00000E+00        -0.95564E+05
 
    0.26069E+06         0.46345E+01         0.00000E+00
    0.46345E+01        -0.73861E+06         0.00000E+00
    0.00000E+00         0.00000E+00        -0.95582E+05
 
    0.26063E+06         0.33964E+01         0.00000E+00
    0.33964E+01        -0.73861E+06         0.00000E+00
    0.00000E+00         0.00000E+00        -0.95596E+05
 
    0.26058E+06         0.20721E+01         0.00000E+00
    0.20721E+01        -0.73861E+06         0.00000E+00
    0.00000E+00         0.00000E+00        -0.95604E+05
 
    0.26056E+06         0.69640E+00         0.00000E+00
    0.69640E+00        -0.73861E+06         0.00000E+00
    0.00000E+00         0.00000E+00        -0.95609E+05
 
    0.26003E+06         0.13806E+01         0.00000E+00
    0.13806E+01        -0.74147E+06         0.00000E+00
    0.00000E+00         0.00000E+00        -0.96288E+05
 
    0.25971E+06         0.36278E+01         0.00000E+00
    0.36278E+01        -0.74147E+06         0.00000E+00
    0.00000E+00         0.00000E+00        -0.96350E+05
 
    0.25943E+06         0.53330E+01         0.00000E+00
    0.53330E+01        -0.74147E+06         0.00000E+00
    0.00000E+00         0.00000E+00        -0.96408E+05
 
    0.25916E+06         0.65511E+01         0.00000E+00
    0.65511E+01        -0.74147E+06         0.00000E+00
    0.00000E+00         0.00000E+00        -0.96462E+05
 
    0.25891E+06         0.73337E+01         0.00000E+00
    0.73337E+01        -0.74147E+06         0.00000E+00
    0.00000E+00         0.00000E+00        -0.96510E+05
 
    0.25869E+06         0.77291E+01         0.00000E+00
    0.77291E+01        -0.74147E+06         0.00000E+00
    0.00000E+00         0.00000E+00        -0.96555E+05
 
    0.25849E+06         0.77831E+01         0.00000E+00
    0.77831E+01        -0.74147E+06         0.00000E+00
    0.00000E+00         0.00000E+00        -0.96595E+05
 
    0.25832E+06         0.75384E+01         0.00000E+00
    0.75384E+01        -0.74147E+06         0.00000E+00
    0.00000E+00         0.00000E+00        -0.96630E+05
 
    0.25816E+06         0.70358E+01         0.00000E+00
    0.70358E+01        -0.74147E+06         0.00000E+00
    0.00000E+00         0.00000E+00        -0.96662E+05
 
    0.25803E+06         0.63139E+01         0.00000E+00
    0.63139E+01        -0.74147E+06         0.00000E+00
    0.00000E+00         0.00000E+00        -0.96688E+05
 
    0.25792E+06         0.54094E+01         0.00000E+00
    0.54094E+01        -0.74147E+06         0.00000E+00
    0.00000E+00         0.00000E+00        -0.96711E+05
 
    0.25783E+06         0.43577E+01         0.00000E+00
    0.43577E+01        -0.74147E+06         0.00000E+00
    0.00000E+00         0.00000E+00        -0.96728E+05
 
    0.25776E+06         0.31927E+01         0.00000E+00
    0.31927E+01        -0.74147E+06         0.00000E+00
    0.00000E+00         0.00000E+00        -0.96742E+05
 
    0.25772E+06         0.19475E+01         0.00000E+00
    0.19475E+01        -0.74147E+06         0.00000E+00
    0.00000E+00         0.00000E+00        -0.96751E+05
 
    0.25770E+06         0.65447E+00         0.00000E+00
    0.65447E+00        -0.74147E+06         0.00000E+00
    0.00000E+00         0.00000E+00        -0.96755E+05
 
    0.25708E+06         0.12928E+01         0.00000E+00
    0.12928E+01        -0.74441E+06         0.00000E+00
    0.00000E+00         0.00000E+00        -0.97466E+05
 
    0.25677E+06         0.33921E+01         0.00000E+00
    0.33921E+01        -0.74441E+06         0.00000E+00
    0.00000E+00         0.00000E+00        -0.97528E+05
 
    0.25648E+06         0.49804E+01         0.00000E+00
    0.49804E+01        -0.74441E+06         0.00000E+00
    0.00000E+00         0.00000E+00        -0.97586E+05
 
    0.25621E+06         0.61110E+01         0.00000E+00
    0.61110E+01        -0.74441E+06         0.00000E+00
    0.00000E+00         0.00000E+00        -0.97640E+05
 
    0.25597E+06         0.68337E+01         0.00000E+00
    0.68337E+01        -0.74441E+06         0.00000E+00
    0.00000E+00         0.00000E+00        -0.97689E+05
 
    0.25575E+06         0.71951E+01         0.00000E+00
    0.71951E+01        -0.74441E+06         0.00000E+00
    0.00000E+00         0.00000E+00        -0.97733E+05
 
    0.25555E+06         0.72387E+01         0.00000E+00
    0.72387E+01        -0.74441E+06         0.00000E+00
    0.00000E+00         0.00000E+00        -0.97774E+05
 
    0.25537E+06         0.70055E+01         0.00000E+00
    0.70055E+01        -0.74441E+06         0.00000E+00
    0.00000E+00         0.00000E+00        -0.97809E+05
 
    0.25521E+06         0.65338E+01         0.00000E+00
    0.65338E+01        -0.74442E+06         0.00000E+00
    0.00000E+00         0.00000E+00        -0.97840E+05
 
    0.25508E+06         0.58597E+01         0.00000E+00
    0.58597E+01        -0.74442E+06         0.00000E+00
    0.00000E+00         0.00000E+00        -0.97867E+05
 
    0.25497E+06         0.50177E+01         0.00000E+00
    0.50177E+01        -0.74442E+06         0.00000E+00
    0.00000E+00         0.00000E+00        -0.97889E+05
 
    0.25488E+06         0.40404E+01         0.00000E+00
    0.40404E+01        -0.74442E+06         0.00000E+00
    0.00000E+00         0.00000E+00        -0.97907E+05
 
    0.25481E+06         0.29593E+01         0.00000E+00
    0.29593E+01        -0.74442E+06         0.00000E+00
    0.00000E+00         0.00000E+00        -0.97921E+05
 
    0.25477E+06         0.18047E+01         0.00000E+00
    0.18047E+01        -0.74442E+06         0.00000E+00
    0.00000E+00         0.00000E+00        -0.97930E+05
 
    0.25475E+06         0.60643E+00         0.00000E+00
    0.60643E+00        -0.74442E+06         0.00000E+00
    0.00000E+00         0.00000E+00        -0.97934E+05
 
    0.25406E+06         0.11927E+01         0.00000E+00
    0.11927E+01        -0.74744E+06         0.00000E+00
    0.00000E+00         0.00000E+00        -0.98677E+05
 
    0.25375E+06         0.31238E+01         0.00000E+00
    0.31238E+01        -0.74744E+06         0.00000E+00
    0.00000E+00         0.00000E+00        -0.98739E+05
 
    0.25345E+06         0.45792E+01         0.00000E+00
    0.45792E+01        -0.74744E+06         0.00000E+00
    0.00000E+00         0.00000E+00        -0.98797E+05
 
    0.25319E+06         0.56104E+01         0.00000E+00
    0.56104E+01        -0.74744E+06         0.00000E+00
    0.00000E+00         0.00000E+00        -0.98851E+05
 
    0.25294E+06         0.62653E+01         0.00000E+00
    0.62653E+01        -0.74744E+06         0.00000E+00
    0.00000E+00         0.00000E+00        -0.98900E+05
 
    0.25272E+06         0.65883E+01         0.00000E+00
    0.65883E+01        -0.74744E+06         0.00000E+00
    0.00000E+00         0.00000E+00        -0.98945E+05
 
    0.25252E+06         0.66206E+01         0.00000E+00
    0.66206E+01        -0.74744E+06         0.00000E+00
    0.00000E+00         0.00000E+00        -0.98985E+05
 
    0.25234E+06         0.64006E+01         0.00000E+00
    0.64006E+01        -0.74744E+06         0.00000E+00
    0.00000E+00         0.00000E+00        -0.99021E+05
 
    0.25218E+06         0.59640E+01         0.00000E+00
    0.59640E+01        -0.74744E+06         0.00000E+00
    0.00000E+00         0.00000E+00        -0.99052E+05
 
    0.25205E+06         0.53444E+01         0.00000E+00
    0.53444E+01        -0.74744E+06         0.00000E+00
    0.00000E+00         0.00000E+00        -0.99079E+05
 
    0.25194E+06         0.45733E+01         0.00000E+00
    0.45733E+01        -0.74745E+06         0.00000E+00
    0.00000E+00         0.00000E+00        -0.99101E+05
 
    0.25185E+06         0.36806E+01         0.00000E+00
    0.36806E+01        -0.74745E+06         0.00000E+00
    0.00000E+00         0.00000E+00        -0.99119E+05
 
    0.25178E+06         0.26946E+01         0.00000E+00
    0.26946E+01        -0.74745E+06         0.00000E+00
    0.00000E+00         0.00000E+00        -0.99133E+05
 
    0.25174E+06         0.16429E+01         0.00000E+00
    0.16429E+01        -0.74745E+06         0.00000E+00
    0.00000E+00         0.00000E+00        -0.99142E+05
 
    0.25172E+06         0.55196E+00         0.00000E+00
    0.55196E+00        -0.74745E+06         0.00000E+00
    0.00000E+00         0.00000E+00        -0.99146E+05
 
    0.25095E+06         0.10798E+01         0.00000E+00
    0.10798E+01        -0.75055E+06         0.00000E+00
    0.00000E+00         0.00000E+00        -0.99920E+05
 
    0.25064E+06         0.28211E+01         0.00000E+00
    0.28211E+01        -0.75055E+06         0.00000E+00
    0.00000E+00         0.00000E+00        -0.99983E+05
 
    0.25034E+06         0.41268E+01         0.00000E+00
    0.41268E+01        -0.75055E+06         0.00000E+00
    0.00000E+00         0.00000E+00        -0.10004E+06
 
    0.25008E+06         0.50463E+01         0.00000E+00
    0.50463E+01        -0.75055E+06         0.00000E+00
    0.00000E+00         0.00000E+00        -0.10010E+06
 
    0.24983E+06         0.56251E+01         0.00000E+00
    0.56251E+01        -0.75055E+06         0.00000E+00
    0.00000E+00         0.00000E+00        -0.10014E+06
 
    0.24961E+06         0.59051E+01         0.00000E+00
    0.59051E+01        -0.75055E+06         0.00000E+00
    0.00000E+00         0.00000E+00        -0.10019E+06
 
    0.24941E+06         0.59249E+01         0.00000E+00
    0.59249E+01        -0.75056E+06         0.00000E+00
    0.00000E+00         0.00000E+00        -0.10023E+06
 
    0.24923E+06         0.57199E+01         0.00000E+00
    0.57199E+01        -0.75056E+06         0.00000E+00
    0.00000E+00         0.00000E+00        -0.10027E+06
 
    0.24907E+06         0.53231E+01         0.00000E+00
    0.53231E+01        -0.75056E+06         0.00000E+00
    0.00000E+00         0.00000E+00        -0.10030E+06
 
    0.24894E+06         0.47649E+01         0.00000E+00
    0.47649E+01        -0.75056E+06         0.00000E+00
    0.00000E+00         0.00000E+00        -0.10032E+06
 
    0.24883E+06         0.40737E+01         0.00000E+00
    0.40737E+01        -0.75056E+06         0.00000E+00
    0.00000E+00         0.00000E+00        -0.10035E+06
 
    0.24874E+06         0.32760E+01         0.00000E+00
    0.32760E+01        -0.75056E+06         0.00000E+00
    0.00000E+00         0.00000E+00        -0.10036E+06
 
    0.24867E+06         0.23971E+01         0.00000E+00
    0.23971E+01        -0.75056E+06         0.00000E+00
    0.00000E+00         0.00000E+00        -0.10038E+06
 
    0.24862E+06         0.14609E+01         0.00000E+00
    0.14609E+01        -0.75056E+06         0.00000E+00
    0.00000E+00         0.00000E+00        -0.10039E+06
 
    0.24860E+06         0.49074E+00         0.00000E+00
    0.49074E+00        -0.75056E+06         0.00000E+00
    0.00000E+00         0.00000E+00        -0.10039E+06
 
    0.24776E+06         0.95331E+00         0.00000E+00
    0.95331E+00        -0.75375E+06         0.00000E+00
    0.00000E+00         0.00000E+00        -0.10120E+06
 
    0.24744E+06         0.24823E+01         0.00000E+00
    0.24823E+01        -0.75375E+06         0.00000E+00
    0.00000E+00         0.00000E+00        -0.10126E+06
 
    0.24715E+06         0.36208E+01         0.00000E+00
    0.36208E+01        -0.75375E+06         0.00000E+00
    0.00000E+00         0.00000E+00        -0.10132E+06
 
    0.24688E+06         0.44155E+01         0.00000E+00
    0.44155E+01        -0.75375E+06         0.00000E+00
    0.00000E+00         0.00000E+00        -0.10137E+06
 
    0.24664E+06         0.49095E+01         0.00000E+00
    0.49095E+01        -0.75375E+06         0.00000E+00
    0.00000E+00         0.00000E+00        -0.10142E+06
 
    0.24641E+06         0.51417E+01         0.00000E+00
    0.51417E+01        -0.75375E+06         0.00000E+00
    0.00000E+00         0.00000E+00        -0.10147E+06
 
    0.24621E+06         0.51476E+01         0.00000E+00
    0.51476E+01        -0.75375E+06         0.00000E+00
    0.00000E+00         0.00000E+00        -0.10151E+06
 
    0.24603E+06         0.49597E+01         0.00000E+00
    0.49597E+01        -0.75375E+06         0.00000E+00
    0.00000E+00         0.00000E+00        -0.10154E+06
 
    0.24587E+06         0.46075E+01         0.00000E+00
    0.46075E+01        -0.75375E+06         0.00000E+00
    0.00000E+00         0.00000E+00        -0.10158E+06
 
    0.24574E+06         0.41180E+01         0.00000E+00
    0.41180E+01        -0.75375E+06         0.00000E+00
    0.00000E+00         0.00000E+00        -0.10160E+06
 
    0.24563E+06         0.35160E+01         0.00000E+00
    0.35160E+01        -0.75375E+06         0.00000E+00
    0.00000E+00         0.00000E+00        -0.10162E+06
 
    0.24554E+06         0.28246E+01         0.00000E+00
    0.28246E+01        -0.75375E+06         0.00000E+00
    0.00000E+00         0.00000E+00        -0.10164E+06
 
    0.24547E+06         0.20651E+01         0.00000E+00
    0.20651E+01        -0.75375E+06         0.00000E+00
    0.00000E+00         0.00000E+00        -0.10166E+06
 
    0.24543E+06         0.12579E+01         0.00000E+00
    0.12579E+01        -0.75375E+06         0.00000E+00
    0.00000E+00         0.00000E+00        -0.10167E+06
 
    0.24541E+06         0.42244E+00         0.00000E+00
    0.42244E+00        -0.75375E+06         0.00000E+00
    0.00000E+00         0.00000E+00        -0.10167E+06
 
    0.24448E+06         0.81261E+00         0.00000E+00
    0.81261E+00        -0.75703E+06         0.00000E+00
    0.00000E+00         0.00000E+00        -0.10251E+06
 
    0.24417E+06         0.21057E+01         0.00000E+00
    0.21057E+01        -0.75703E+06         0.00000E+00
    0.00000E+00         0.00000E+00        -0.10257E+06
 
    0.24388E+06         0.30583E+01         0.00000E+00
    0.30583E+01        -0.75703E+06         0.00000E+00
    0.00000E+00         0.00000E+00        -0.10263E+06
 
    0.24361E+06         0.37147E+01         0.00000E+00
    0.37147E+01        -0.75703E+06         0.00000E+00
    0.00000E+00         0.00000E+00        -0.10268E+06
 
    0.24336E+06         0.41147E+01         0.00000E+00
    0.41147E+01        -0.75703E+06         0.00000E+00
    0.00000E+00         0.00000E+00        -0.10273E+06
 
    0.24313E+06         0.42940E+01         0.00000E+00
    0.42940E+01        -0.75703E+06         0.00000E+00
    0.00000E+00         0.00000E+00        -0.10278E+06
 
    0.24293E+06         0.42849E+01         0.00000E+00
    0.42849E+01        -0.75703E+06         0.00000E+00
    0.00000E+00         0.00000E+00        -0.10282E+06
 
    0.24275E+06         0.41161E+01         0.00000E+00
    0.41161E+01        -0.75703E+06         0.00000E+00
    0.00000E+00         0.00000E+00        -0.10286E+06
 
    0.24260E+06         0.38135E+01         0.00000E+00
    0.38135E+01        -0.75703E+06         0.00000E+00
    0.00000E+00         0.00000E+00        -0.10289E+06
 
    0.24246E+06         0.34004E+01         0.00000E+00
    0.34004E+01        -0.75703E+06         0.00000E+00
    0.00000E+00         0.00000E+00        -0.10291E+06
 
    0.24235E+06         0.28975E+01         0.00000E+00
    0.28975E+01        -0.75703E+06         0.00000E+00
    0.00000E+00         0.00000E+00        -0.10294E+06
 
    0.24226E+06         0.23239E+01         0.00000E+00
    0.23239E+01        -0.75703E+06         0.00000E+00
    0.00000E+00         0.00000E+00        -0.10295E+06
 
    0.24219E+06         0.16970E+01         0.00000E+00
    0.16970E+01        -0.75703E+06         0.00000E+00
    0.00000E+00         0.00000E+00        -0.10297E+06
 
    0.24215E+06         0.10328E+01         0.00000E+00
    0.10328E+01        -0.75703E+06         0.00000E+00
    0.00000E+00         0.00000E+00        -0.10298E+06
 
    0.24213E+06         0.34670E+00         0.00000E+00
    0.34670E+00        -0.75703E+06         0.00000E+00
    0.00000E+00         0.00000E+00        -0.10298E+06
 
    0.24112E+06         0.65699E+00         0.00000E+00
    0.65699E+00        -0.76039E+06         0.00000E+00
    0.00000E+00         0.00000E+00        -0.10385E+06
 
    0.24081E+06         0.16892E+01         0.00000E+00
    0.16892E+01        -0.76039E+06         0.00000E+00
    0.00000E+00         0.00000E+00        -0.10392E+06
 
    0.24051E+06         0.24367E+01         0.00000E+00
    0.24367E+01        -0.76039E+06         0.00000E+00
    0.00000E+00         0.00000E+00        -0.10397E+06
 
    0.24024E+06         0.29404E+01         0.00000E+00
    0.29404E+01        -0.76039E+06         0.00000E+00
    0.00000E+00         0.00000E+00        -0.10403E+06
 
    0.24000E+06         0.32368E+01         0.00000E+00
    0.32368E+01        -0.76039E+06         0.00000E+00
    0.00000E+00         0.00000E+00        -0.10408E+06
 
    0.23977E+06         0.33580E+01         0.00000E+00
    0.33580E+01        -0.76039E+06         0.00000E+00
    0.00000E+00         0.00000E+00        -0.10412E+06
 
    0.23957E+06         0.33324E+01         0.00000E+00
    0.33324E+01        -0.76039E+06         0.00000E+00
    0.00000E+00         0.00000E+00        -0.10416E+06
 
    0.23939E+06         0.31849E+01         0.00000E+00
    0.31849E+01        -0.76039E+06         0.00000E+00
    0.00000E+00         0.00000E+00        -0.10420E+06
 
    0.23923E+06         0.29373E+01         0.00000E+00
    0.29373E+01        -0.76039E+06         0.00000E+00
    0.00000E+00         0.00000E+00        -0.10423E+06
 
    0.23910E+06         0.26085E+01         0.00000E+00
    0.26085E+01        -0.76039E+06         0.00000E+00
    0.00000E+00         0.00000E+00        -0.10426E+06
 
    0.23899E+06         0.22151E+01         0.00000E+00
    0.22151E+01        -0.76039E+06         0.00000E+00
    0.00000E+00         0.00000E+00        -0.10428E+06
 
    0.23890E+06         0.17716E+01         0.00000E+00
    0.17716E+01        -0.76039E+06         0.00000E+00
    0.00000E+00         0.00000E+00        -0.10430E+06
 
    0.23883E+06         0.12909E+01         0.00000E+00
    0.12909E+01        -0.76039E+06         0.00000E+00
    0.00000E+00         0.00000E+00        -0.10431E+06
 
    0.23879E+06         0.78453E+00         0.00000E+00
    0.78453E+00        -0.76040E+06         0.00000E+00
    0.00000E+00         0.00000E+00        -0.10432E+06
 
    0.23876E+06         0.26316E+00         0.00000E+00
    0.26316E+00        -0.76040E+06         0.00000E+00
    0.00000E+00         0.00000E+00        -0.10433E+06
 
    0.23768E+06         0.48570E+00         0.00000E+00
    0.48570E+00        -0.76383E+06         0.00000E+00
    0.00000E+00         0.00000E+00        -0.10523E+06
 
    0.23736E+06         0.12310E+01         0.00000E+00
    0.12310E+01        -0.76383E+06         0.00000E+00
    0.00000E+00         0.00000E+00        -0.10529E+06
 
    0.23707E+06         0.17530E+01         0.00000E+00
    0.17530E+01        -0.76383E+06         0.00000E+00
    0.00000E+00         0.00000E+00        -0.10535E+06
 
    0.23680E+06         0.20890E+01         0.00000E+00
    0.20890E+01        -0.76383E+06         0.00000E+00
    0.00000E+00         0.00000E+00        -0.10541E+06
 
    0.23655E+06         0.22717E+01         0.00000E+00
    0.22717E+01        -0.76383E+06         0.00000E+00
    0.00000E+00         0.00000E+00        -0.10546E+06
 
    0.23633E+06         0.23293E+01         0.00000E+00
    0.23293E+01        -0.76383E+06         0.00000E+00
    0.00000E+00         0.00000E+00        -0.10550E+06
 
    0.23613E+06         0.22859E+01         0.00000E+00
    0.22859E+01        -0.76384E+06         0.00000E+00
    0.00000E+00         0.00000E+00        -0.10554E+06
 
    0.23595E+06         0.21620E+01         0.00000E+00
    0.21620E+01        -0.76384E+06         0.00000E+00
    0.00000E+00         0.00000E+00        -0.10558E+06
 
    0.23579E+06         0.19749E+01         0.00000E+00
    0.19749E+01        -0.76384E+06         0.00000E+00
    0.00000E+00         0.00000E+00        -0.10561E+06
 
    0.23565E+06         0.17389E+01         0.00000E+00
    0.17389E+01        -0.76384E+06         0.00000E+00
    0.00000E+00         0.00000E+00        -0.10564E+06
 
    0.23554E+06         0.14657E+01         0.00000E+00
    0.14657E+01        -0.76384E+06         0.00000E+00
    0.00000E+00         0.00000E+00        -0.10566E+06
 
    0.23545E+06         0.11651E+01         0.00000E+00
    0.11651E+01        -0.76384E+06         0.00000E+00
    0.00000E+00         0.00000E+00        -0.10568E+06
 
    0.23538E+06         0.84502E+00         0.00000E+00
    0.84502E+00        -0.76384E+06         0.00000E+00
    0.00000E+00         0.00000E+00        -0.10569E+06
 
    0.23534E+06         0.51193E+00         0.00000E+00
    0.51193E+00        -0.76384E+06         0.00000E+00
    0.00000E+00         0.00000E+00        -0.10570E+06
 
    0.23532E+06         0.17144E+00         0.00000E+00
    0.17144E+00        -0.76384E+06         0.00000E+00
    0.00000E+00         0.00000E+00        -0.10570E+06
 
    0.23415E+06         0.29799E+00         0.00000E+00
    0.29799E+00        -0.76736E+06         0.00000E+00
    0.00000E+00         0.00000E+00        -0.10664E+06
 
    0.23384E+06         0.72905E+00         0.00000E+00
    0.72905E+00        -0.76736E+06         0.00000E+00
    0.00000E+00         0.00000E+00        -0.10670E+06
 
    0.23354E+06         0.10042E+01         0.00000E+00
    0.10042E+01        -0.76736E+06         0.00000E+00
    0.00000E+00         0.00000E+00        -0.10676E+06
 
    0.23327E+06         0.11569E+01         0.00000E+00
    0.11569E+01        -0.76736E+06         0.00000E+00
    0.00000E+00         0.00000E+00        -0.10682E+06
 
    0.23302E+06         0.12154E+01         0.00000E+00
    0.12154E+01        -0.76736E+06         0.00000E+00
    0.00000E+00         0.00000E+00        -0.10687E+06
 
    0.23280E+06         0.12035E+01         0.00000E+00
    0.12035E+01        -0.76736E+06         0.00000E+00
    0.00000E+00         0.00000E+00        -0.10691E+06
 
    0.23260E+06         0.11408E+01         0.00000E+00
    0.11408E+01        -0.76737E+06         0.00000E+00
    0.00000E+00         0.00000E+00        -0.10695E+06
 
    0.23242E+06         0.10430E+01         0.00000E+00
    0.10430E+01        -0.76737E+06         0.00000E+00
    0.00000E+00         0.00000E+00        -0.10699E+06
 
    0.23226E+06         0.92220E+00         0.00000E+00
    0.92220E+00        -0.76737E+06         0.00000E+00
    0.00000E+00         0.00000E+00        -0.10702E+06
 
    0.23212E+06         0.78778E+00         0.00000E+00
    0.78778E+00        -0.76737E+06         0.00000E+00
    0.00000E+00         0.00000E+00        -0.10705E+06
 
    0.23201E+06         0.64626E+00         0.00000E+00
    0.64626E+00        -0.76737E+06         0.00000E+00
    0.00000E+00         0.00000E+00        -0.10707E+06
 
    0.23192E+06         0.50200E+00         0.00000E+00
    0.50200E+00        -0.76737E+06         0.00000E+00
    0.00000E+00         0.00000E+00        -0.10709E+06
 
    0.23185E+06         0.35751E+00         0.00000E+00
    0.35751E+00        -0.76737E+06         0.00000E+00
    0.00000E+00         0.00000E+00        -0.10710E+06
 
    0.23181E+06         0.21388E+00         0.00000E+00
    0.21388E+00        -0.76737E+06         0.00000E+00
    0.00000E+00         0.00000E+00        -0.10711E+06
 
    0.23179E+06         0.71168E-01         0.00000E+00
    0.71168E-01        -0.76737E+06         0.00000E+00
    0.00000E+00         0.00000E+00        -0.10712E+06
 
    0.23054E+06         0.93090E-01         0.00000E+00
    0.93090E-01        -0.77097E+06         0.00000E+00
    0.00000E+00         0.00000E+00        -0.10809E+06
 
    0.23022E+06         0.18129E+00         0.00000E+00
    0.18129E+00        -0.77097E+06         0.00000E+00
    0.00000E+00         0.00000E+00        -0.10815E+06
 
    0.22993E+06         0.18734E+00         0.00000E+00
    0.18734E+00        -0.77097E+06         0.00000E+00
    0.00000E+00         0.00000E+00        -0.10821E+06
 
    0.22966E+06         0.14017E+00         0.00000E+00
    0.14017E+00        -0.77097E+06         0.00000E+00
    0.00000E+00         0.00000E+00        -0.10826E+06
 
    0.22941E+06         0.63491E-01         0.00000E+00
    0.63491E-01        -0.77098E+06         0.00000E+00
    0.00000E+00         0.00000E+00        -0.10831E+06
 
    0.22919E+06        -0.23842E-01         0.00000E+00
   -0.23842E-01        -0.77098E+06         0.00000E+00
    0.00000E+00         0.00000E+00        -0.10836E+06
 
    0.22898E+06        -0.10738E+00         0.00000E+00
   -0.10738E+00        -0.77098E+06         0.00000E+00
    0.00000E+00         0.00000E+00        -0.10840E+06
 
    0.22880E+06        -0.17671E+00         0.00000E+00
   -0.17671E+00        -0.77098E+06         0.00000E+00
    0.00000E+00         0.00000E+00        -0.10844E+06
 
    0.22865E+06        -0.22499E+00         0.00000E+00
   -0.22499E+00        -0.77098E+06         0.00000E+00
    0.00000E+00         0.00000E+00        -0.10847E+06
 
    0.22851E+06        -0.24857E+00         0.00000E+00
   -0.24857E+00        -0.77098E+06         0.00000E+00
    0.00000E+00         0.00000E+00        -0.10849E+06
 
    0.22840E+06        -0.24657E+00         0.00000E+00
   -0.24657E+00        -0.77098E+06         0.00000E+00
    0.00000E+00         0.00000E+00        -0.10852E+06
 
    0.22831E+06        -0.22045E+00         0.00000E+00
   -0.22045E+00        -0.77098E+06         0.00000E+00
    0.00000E+00         0.00000E+00        -0.10853E+06
 
    0.22824E+06        -0.17357E+00         0.00000E+00
   -0.17357E+00        -0.77098E+06         0.00000E+00
    0.00000E+00         0.00000E+00        -0.10855E+06
 
    0.22820E+06        -0.11079E+00         0.00000E+00
   -0.11079E+00        -0.77098E+06         0.00000E+00
    0.00000E+00         0.00000E+00        -0.10856E+06
 
    0.22817E+06        -0.38062E-01         0.00000E+00
   -0.38062E-01        -0.77098E+06         0.00000E+00
    0.00000E+00         0.00000E+00        -0.10856E+06
 
    0.22684E+06        -0.12982E+00         0.00000E+00
   -0.12982E+00        -0.77467E+06         0.00000E+00
    0.00000E+00         0.00000E+00        -0.10957E+06
 
    0.22653E+06        -0.41442E+00         0.00000E+00
   -0.41442E+00        -0.77467E+06         0.00000E+00
    0.00000E+00         0.00000E+00        -0.10963E+06
 
    0.22623E+06        -0.70084E+00         0.00000E+00
   -0.70084E+00        -0.77467E+06         0.00000E+00
    0.00000E+00         0.00000E+00        -0.10969E+06
 
    0.22596E+06        -0.96502E+00         0.00000E+00
   -0.96502E+00        -0.77467E+06         0.00000E+00
    0.00000E+00         0.00000E+00        -0.10974E+06
 
    0.22571E+06        -0.11884E+01         0.00000E+00
   -0.11884E+01        -0.77467E+06         0.00000E+00
    0.00000E+00         0.00000E+00        -0.10979E+06
 
    0.22549E+06        -0.13575E+01         0.00000E+00
   -0.13575E+01        -0.77467E+06         0.00000E+00
    0.00000E+00         0.00000E+00        -0.10984E+06
 
    0.22529E+06        -0.14635E+01         0.00000E+00
   -0.14635E+01        -0.77468E+06         0.00000E+00
    0.00000E+00         0.00000E+00        -0.10988E+06
 
    0.22511E+06        -0.15016E+01         0.00000E+00
   -0.15016E+01        -0.77468E+06         0.00000E+00
    0.00000E+00         0.00000E+00        -0.10991E+06
 
    0.22495E+06        -0.14710E+01         0.00000E+00
   -0.14710E+01        -0.77468E+06         0.00000E+00
    0.00000E+00         0.00000E+00        -0.10995E+06
 
    0.22481E+06        -0.13741E+01         0.00000E+00
   -0.13741E+01        -0.77468E+06         0.00000E+00
    0.00000E+00         0.00000E+00        -0.10997E+06
 
    0.22470E+06        -0.12161E+01         0.00000E+00
   -0.12161E+01        -0.77468E+06         0.00000E+00
    0.00000E+00         0.00000E+00        -0.11000E+06
 
    0.22461E+06        -0.10049E+01         0.00000E+00
   -0.10049E+01        -0.77468E+06         0.00000E+00
    0.00000E+00         0.00000E+00        -0.11001E+06
 
    0.22455E+06        -0.75021E+00         0.00000E+00
   -0.75021E+00        -0.77468E+06         0.00000E+00
    0.00000E+00         0.00000E+00        -0.11003E+06
 
    0.22450E+06        -0.46331E+00         0.00000E+00
   -0.46331E+00        -0.77468E+06         0.00000E+00
    0.00000E+00         0.00000E+00        -0.11004E+06
 
    0.22448E+06        -0.15666E+00         0.00000E+00
   -0.15666E+00        -0.77468E+06         0.00000E+00
    0.00000E+00         0.00000E+00        -0.11004E+06
 
    0.22306E+06        -0.37156E+00         0.00000E+00
   -0.37156E+00        -0.77845E+06         0.00000E+00
    0.00000E+00         0.00000E+00        -0.11108E+06
 
    0.22275E+06        -0.10603E+01         0.00000E+00
   -0.10603E+01        -0.77845E+06         0.00000E+00
    0.00000E+00         0.00000E+00        -0.11114E+06
 
    0.22245E+06        -0.16636E+01         0.00000E+00
   -0.16636E+01        -0.77845E+06         0.00000E+00
    0.00000E+00         0.00000E+00        -0.11120E+06
 
    0.22218E+06        -0.21627E+01         0.00000E+00
   -0.21627E+01        -0.77845E+06         0.00000E+00
    0.00000E+00         0.00000E+00        -0.11125E+06
 
    0.22193E+06        -0.25449E+01         0.00000E+00
   -0.25449E+01        -0.77845E+06         0.00000E+00
    0.00000E+00         0.00000E+00        -0.11130E+06
 
    0.22171E+06        -0.28023E+01         0.00000E+00
   -0.28023E+01        -0.77845E+06         0.00000E+00
    0.00000E+00         0.00000E+00        -0.11135E+06
 
    0.22151E+06        -0.29323E+01         0.00000E+00
   -0.29323E+01        -0.77846E+06         0.00000E+00
    0.00000E+00         0.00000E+00        -0.11139E+06
 
    0.22133E+06        -0.29365E+01         0.00000E+00
   -0.29365E+01        -0.77846E+06         0.00000E+00
    0.00000E+00         0.00000E+00        -0.11143E+06
 
    0.22117E+06        -0.28203E+01         0.00000E+00
   -0.28203E+01        -0.77846E+06         0.00000E+00
    0.00000E+00         0.00000E+00        -0.11146E+06
 
    0.22103E+06        -0.25927E+01         0.00000E+00
   -0.25927E+01        -0.77846E+06         0.00000E+00
    0.00000E+00         0.00000E+00        -0.11149E+06
 
    0.22092E+06        -0.22658E+01         0.00000E+00
   -0.22658E+01        -0.77846E+06         0.00000E+00
    0.00000E+00         0.00000E+00        -0.11151E+06
 
    0.22083E+06        -0.18542E+01         0.00000E+00
   -0.18542E+01        -0.77846E+06         0.00000E+00
    0.00000E+00         0.00000E+00        -0.11153E+06
 
    0.22077E+06        -0.13744E+01         0.00000E+00
   -0.13744E+01        -0.77846E+06         0.00000E+00
    0.00000E+00         0.00000E+00        -0.11154E+06
 
    0.22072E+06        -0.84491E+00         0.00000E+00
   -0.84491E+00        -0.77846E+06         0.00000E+00
    0.00000E+00         0.00000E+00        -0.11155E+06
 
    0.22070E+06        -0.28503E+00         0.00000E+00
   -0.28503E+00        -0.77846E+06         0.00000E+00
    0.00000E+00         0.00000E+00        -0.11155E+06
 
    0.21920E+06        -0.63299E+00         0.00000E+00
   -0.63299E+00        -0.78231E+06         0.00000E+00
    0.00000E+00         0.00000E+00        -0.11262E+06
 
    0.21888E+06        -0.17585E+01         0.00000E+00
   -0.17585E+01        -0.78232E+06         0.00000E+00
    0.00000E+00         0.00000E+00        -0.11269E+06
 
    0.21859E+06        -0.27042E+01         0.00000E+00
   -0.27042E+01        -0.78232E+06         0.00000E+00
    0.00000E+00         0.00000E+00        -0.11275E+06
 
    0.21832E+06        -0.34571E+01         0.00000E+00
   -0.34571E+01        -0.78232E+06         0.00000E+00
    0.00000E+00         0.00000E+00        -0.11280E+06
 
    0.21807E+06        -0.40105E+01         0.00000E+00
   -0.40105E+01        -0.78232E+06         0.00000E+00
    0.00000E+00         0.00000E+00        -0.11285E+06
 
    0.21784E+06        -0.43632E+01         0.00000E+00
   -0.43632E+01        -0.78232E+06         0.00000E+00
    0.00000E+00         0.00000E+00        -0.11290E+06
 
    0.21764E+06        -0.45189E+01         0.00000E+00
   -0.45189E+01        -0.78232E+06         0.00000E+00
    0.00000E+00         0.00000E+00        -0.11294E+06
 
    0.21746E+06        -0.44861E+01         0.00000E+00
   -0.44861E+01        -0.78232E+06         0.00000E+00
    0.00000E+00         0.00000E+00        -0.11297E+06
 
    0.21730E+06        -0.42773E+01         0.00000E+00
   -0.42773E+01        -0.78232E+06         0.00000E+00
    0.00000E+00         0.00000E+00        -0.11300E+06
 
    0.21717E+06        -0.39086E+01         0.00000E+00
   -0.39086E+01        -0.78233E+06         0.00000E+00
    0.00000E+00         0.00000E+00        -0.11303E+06
 
    0.21706E+06        -0.33992E+01         0.00000E+00
   -0.33992E+01        -0.78233E+06         0.00000E+00
    0.00000E+00         0.00000E+00        -0.11305E+06
 
    0.21697E+06        -0.27711E+01         0.00000E+00
   -0.27711E+01        -0.78233E+06         0.00000E+00
    0.00000E+00         0.00000E+00        -0.11307E+06
 
    0.21690E+06        -0.20483E+01         0.00000E+00
   -0.20483E+01        -0.78233E+06         0.00000E+00
    0.00000E+00         0.00000E+00        -0.11309E+06
 
    0.21686E+06        -0.12569E+01         0.00000E+00
   -0.12569E+01        -0.78233E+06         0.00000E+00
    0.00000E+00         0.00000E+00        -0.11309E+06
 
    0.21683E+06        -0.42362E+00         0.00000E+00
   -0.42362E+00        -0.78233E+06         0.00000E+00
    0.00000E+00         0.00000E+00        -0.11310E+06
 
    0.21525E+06        -0.91497E+00         0.00000E+00
   -0.91497E+00        -0.78626E+06         0.00000E+00
    0.00000E+00         0.00000E+00        -0.11420E+06
 
    0.21493E+06        -0.25115E+01         0.00000E+00
   -0.25115E+01        -0.78626E+06         0.00000E+00
    0.00000E+00         0.00000E+00        -0.11427E+06
 
    0.21464E+06        -0.38260E+01         0.00000E+00
   -0.38260E+01        -0.78626E+06         0.00000E+00
    0.00000E+00         0.00000E+00        -0.11433E+06
 
    0.21437E+06        -0.48522E+01         0.00000E+00
   -0.48522E+01        -0.78627E+06         0.00000E+00
    0.00000E+00         0.00000E+00        -0.11438E+06
 
    0.21412E+06        -0.55900E+01         0.00000E+00
   -0.55900E+01        -0.78627E+06         0.00000E+00
    0.00000E+00         0.00000E+00        -0.11443E+06
 
    0.21389E+06        -0.60450E+01         0.00000E+00
   -0.60450E+01        -0.78627E+06         0.00000E+00
    0.00000E+00         0.00000E+00        -0.11447E+06
 
    0.21369E+06        -0.62283E+01         0.00000E+00
   -0.62283E+01        -0.78627E+06         0.00000E+00
    0.00000E+00         0.00000E+00        -0.11452E+06
 
    0.21351E+06        -0.61555E+01         0.00000E+00
   -0.61555E+01        -0.78627E+06         0.00000E+00
    0.00000E+00         0.00000E+00        -0.11455E+06
 
    0.21336E+06        -0.58467E+01         0.00000E+00
   -0.58467E+01        -0.78627E+06         0.00000E+00
    0.00000E+00         0.00000E+00        -0.11458E+06
 
    0.21322E+06        -0.53258E+01         0.00000E+00
   -0.53258E+01        -0.78627E+06         0.00000E+00
    0.00000E+00         0.00000E+00        -0.11461E+06
 
    0.21311E+06        -0.46197E+01         0.00000E+00
   -0.46197E+01        -0.78628E+06         0.00000E+00
    0.00000E+00         0.00000E+00        -0.11463E+06
 
    0.21302E+06        -0.37584E+01         0.00000E+00
   -0.37584E+01        -0.78628E+06         0.00000E+00
    0.00000E+00         0.00000E+00        -0.11465E+06
 
    0.21295E+06        -0.27740E+01         0.00000E+00
   -0.27740E+01        -0.78628E+06         0.00000E+00
    0.00000E+00         0.00000E+00        -0.11466E+06
 
    0.21291E+06        -0.17005E+01         0.00000E+00
   -0.17005E+01        -0.78628E+06         0.00000E+00
    0.00000E+00         0.00000E+00        -0.11467E+06
 
    0.21289E+06        -0.57285E+00         0.00000E+00
   -0.57285E+00        -0.78628E+06         0.00000E+00
    0.00000E+00         0.00000E+00        -0.11468E+06
 
    0.21121E+06        -0.12184E+01         0.00000E+00
   -0.12184E+01        -0.79030E+06         0.00000E+00
    0.00000E+00         0.00000E+00        -0.11582E+06
 
    0.21089E+06        -0.33215E+01         0.00000E+00
   -0.33215E+01        -0.79030E+06         0.00000E+00
    0.00000E+00         0.00000E+00        -0.11588E+06
 
    0.21060E+06        -0.50326E+01         0.00000E+00
   -0.50326E+01        -0.79030E+06         0.00000E+00
    0.00000E+00         0.00000E+00        -0.11594E+06
 
    0.21033E+06        -0.63525E+01         0.00000E+00
   -0.63525E+01        -0.79030E+06         0.00000E+00
    0.00000E+00         0.00000E+00        -0.11599E+06
 
    0.21009E+06        -0.72882E+01         0.00000E+00
   -0.72882E+01        -0.79030E+06         0.00000E+00
    0.00000E+00         0.00000E+00        -0.11604E+06
 
    0.20986E+06        -0.78530E+01         0.00000E+00
   -0.78530E+01        -0.79030E+06         0.00000E+00
    0.00000E+00         0.00000E+00        -0.11609E+06
 
    0.20966E+06        -0.80656E+01         0.00000E+00
   -0.80656E+01        -0.79030E+06         0.00000E+00
    0.00000E+00         0.00000E+00        -0.11613E+06
 
    0.20948E+06        -0.79496E+01         0.00000E+00
   -0.79496E+01        -0.79030E+06         0.00000E+00
    0.00000E+00         0.00000E+00        -0.11616E+06
 
    0.20932E+06        -0.75333E+01         0.00000E+00
   -0.75333E+01        -0.79031E+06         0.00000E+00
    0.00000E+00         0.00000E+00        -0.11620E+06
 
    0.20919E+06        -0.68487E+01         0.00000E+00
   -0.68487E+01        -0.79031E+06         0.00000E+00
    0.00000E+00         0.00000E+00        -0.11622E+06
 
    0.20908E+06        -0.59312E+01         0.00000E+00
   -0.59312E+01        -0.79031E+06         0.00000E+00
    0.00000E+00         0.00000E+00        -0.11625E+06
 
    0.20899E+06        -0.48193E+01         0.00000E+00
   -0.48193E+01        -0.79031E+06         0.00000E+00
    0.00000E+00         0.00000E+00        -0.11626E+06
 
    0.20892E+06        -0.35537E+01         0.00000E+00
   -0.35537E+01        -0.79031E+06         0.00000E+00
    0.00000E+00         0.00000E+00        -0.11628E+06
 
    0.20888E+06        -0.21770E+01         0.00000E+00
   -0.21770E+01        -0.79031E+06         0.00000E+00
    0.00000E+00         0.00000E+00        -0.11629E+06
 
    0.20886E+06        -0.73317E+00         0.00000E+00
   -0.73317E+00        -0.79031E+06         0.00000E+00
    0.00000E+00         0.00000E+00        -0.11629E+06
 
    0.20709E+06        -0.15441E+01         0.00000E+00
   -0.15441E+01        -0.79441E+06         0.00000E+00
    0.00000E+00         0.00000E+00        -0.11746E+06
 
    0.20678E+06        -0.41909E+01         0.00000E+00
   -0.41909E+01        -0.79441E+06         0.00000E+00
    0.00000E+00         0.00000E+00        -0.11753E+06
 
    0.20648E+06        -0.63275E+01         0.00000E+00
   -0.63275E+01        -0.79441E+06         0.00000E+00
    0.00000E+00         0.00000E+00        -0.11759E+06
 
    0.20621E+06        -0.79622E+01         0.00000E+00
   -0.79622E+01        -0.79441E+06         0.00000E+00
    0.00000E+00         0.00000E+00        -0.11764E+06
 
    0.20597E+06        -0.91100E+01         0.00000E+00
   -0.91100E+01        -0.79442E+06         0.00000E+00
    0.00000E+00         0.00000E+00        -0.11769E+06
 
    0.20574E+06        -0.97923E+01         0.00000E+00
   -0.97923E+01        -0.79442E+06         0.00000E+00
    0.00000E+00         0.00000E+00        -0.11773E+06
 
    0.20554E+06        -0.10036E+02         0.00000E+00
   -0.10036E+02        -0.79442E+06         0.00000E+00
    0.00000E+00         0.00000E+00        -0.11778E+06
 
    0.20537E+06        -0.98736E+01         0.00000E+00
   -0.98736E+01        -0.79442E+06         0.00000E+00
    0.00000E+00         0.00000E+00        -0.11781E+06
 
    0.20521E+06        -0.93418E+01         0.00000E+00
   -0.93418E+01        -0.79442E+06         0.00000E+00
    0.00000E+00         0.00000E+00        -0.11784E+06
 
    0.20508E+06        -0.84814E+01         0.00000E+00
   -0.84814E+01        -0.79442E+06         0.00000E+00
    0.00000E+00         0.00000E+00        -0.11787E+06
 
    0.20497E+06        -0.73372E+01         0.00000E+00
   -0.73372E+01        -0.79443E+06         0.00000E+00
    0.00000E+00         0.00000E+00        -0.11789E+06
 
    0.20488E+06        -0.59566E+01         0.00000E+00
   -0.59566E+01        -0.79443E+06         0.00000E+00
    0.00000E+00         0.00000E+00        -0.11791E+06
 
    0.20481E+06        -0.43895E+01         0.00000E+00
   -0.43895E+01        -0.79443E+06         0.00000E+00
    0.00000E+00         0.00000E+00        -0.11792E+06
 
    0.20477E+06        -0.26879E+01         0.00000E+00
   -0.26879E+01        -0.79443E+06         0.00000E+00
    0.00000E+00         0.00000E+00        -0.11793E+06
 
    0.20474E+06        -0.90502E+00         0.00000E+00
   -0.90502E+00        -0.79443E+06         0.00000E+00
    0.00000E+00         0.00000E+00        -0.11794E+06
 
    0.20289E+06        -0.18931E+01         0.00000E+00
   -0.18931E+01        -0.79861E+06         0.00000E+00
    0.00000E+00         0.00000E+00        -0.11914E+06
 
    0.20257E+06        -0.51221E+01         0.00000E+00
   -0.51221E+01        -0.79861E+06         0.00000E+00
    0.00000E+00         0.00000E+00        -0.11921E+06
 
    0.20228E+06        -0.77141E+01         0.00000E+00
   -0.77141E+01        -0.79861E+06         0.00000E+00
    0.00000E+00         0.00000E+00        -0.11927E+06
 
    0.20201E+06        -0.96857E+01         0.00000E+00
   -0.96857E+01        -0.79861E+06         0.00000E+00
    0.00000E+00         0.00000E+00        -0.11932E+06
 
    0.20177E+06        -0.11060E+02         0.00000E+00
   -0.11060E+02        -0.79862E+06         0.00000E+00
    0.00000E+00         0.00000E+00        -0.11937E+06
 
    0.20154E+06        -0.11868E+02         0.00000E+00
   -0.11868E+02        -0.79862E+06         0.00000E+00
    0.00000E+00         0.00000E+00        -0.11941E+06
 
    0.20134E+06        -0.12145E+02         0.00000E+00
   -0.12145E+02        -0.79862E+06         0.00000E+00
    0.00000E+00         0.00000E+00        -0.11945E+06
 
    0.20117E+06        -0.11933E+02         0.00000E+00
   -0.11933E+02        -0.79862E+06         0.00000E+00
    0.00000E+00         0.00000E+00        -0.11949E+06
 
    0.20101E+06        -0.11277E+02         0.00000E+00
   -0.11277E+02        -0.79862E+06         0.00000E+00
    0.00000E+00         0.00000E+00        -0.11952E+06
 
    0.20088E+06        -0.10229E+02         0.00000E+00
   -0.10229E+02        -0.79862E+06         0.00000E+00
    0.00000E+00         0.00000E+00        -0.11955E+06
 
    0.20077E+06        -0.88415E+01         0.00000E+00
   -0.88415E+01        -0.79863E+06         0.00000E+00
    0.00000E+00         0.00000E+00        -0.11957E+06
 
    0.20068E+06        -0.71733E+01         0.00000E+00
   -0.71733E+01        -0.79863E+06         0.00000E+00
    0.00000E+00         0.00000E+00        -0.11959E+06
 
    0.20061E+06        -0.52836E+01         0.00000E+00
   -0.52836E+01        -0.79863E+06         0.00000E+00
    0.00000E+00         0.00000E+00        -0.11960E+06
 
    0.20057E+06        -0.32344E+01         0.00000E+00
   -0.32344E+01        -0.79863E+06         0.00000E+00
    0.00000E+00         0.00000E+00        -0.11961E+06
 
    0.20055E+06        -0.10889E+01         0.00000E+00
   -0.10889E+01        -0.79863E+06         0.00000E+00
    0.00000E+00         0.00000E+00        -0.11962E+06
 
    0.19860E+06        -0.22662E+01         0.00000E+00
   -0.22662E+01        -0.80289E+06         0.00000E+00
    0.00000E+00         0.00000E+00        -0.12086E+06
 
    0.19828E+06        -0.61175E+01         0.00000E+00
   -0.61175E+01        -0.80289E+06         0.00000E+00
    0.00000E+00         0.00000E+00        -0.12092E+06
 
    0.19799E+06        -0.91961E+01         0.00000E+00
   -0.91961E+01        -0.80289E+06         0.00000E+00
    0.00000E+00         0.00000E+00        -0.12098E+06
 
    0.19773E+06        -0.11527E+02         0.00000E+00
   -0.11527E+02        -0.80290E+06         0.00000E+00
    0.00000E+00         0.00000E+00        -0.12103E+06
 
    0.19748E+06        -0.13144E+02         0.00000E+00
   -0.13144E+02        -0.80290E+06         0.00000E+00
    0.00000E+00         0.00000E+00        -0.12108E+06
 
    0.19726E+06        -0.14086E+02         0.00000E+00
   -0.14086E+02        -0.80290E+06         0.00000E+00
    0.00000E+00         0.00000E+00        -0.12113E+06
 
    0.19706E+06        -0.14398E+02         0.00000E+00
   -0.14398E+02        -0.80290E+06         0.00000E+00
    0.00000E+00         0.00000E+00        -0.12117E+06
 
    0.19688E+06        -0.14132E+02         0.00000E+00
   -0.14132E+02        -0.80290E+06         0.00000E+00
    0.00000E+00         0.00000E+00        -0.12120E+06
 
    0.19673E+06        -0.13344E+02         0.00000E+00
   -0.13344E+02        -0.80291E+06         0.00000E+00
    0.00000E+00         0.00000E+00        -0.12124E+06
 
    0.19660E+06        -0.12094E+02         0.00000E+00
   -0.12094E+02        -0.80291E+06         0.00000E+00
    0.00000E+00         0.00000E+00        -0.12126E+06
 
    0.19649E+06        -0.10448E+02         0.00000E+00
   -0.10448E+02        -0.80291E+06         0.00000E+00
    0.00000E+00         0.00000E+00        -0.12128E+06
 
    0.19640E+06        -0.84725E+01         0.00000E+00
   -0.84725E+01        -0.80291E+06         0.00000E+00
    0.00000E+00         0.00000E+00        -0.12130E+06
 
    0.19633E+06        -0.62384E+01         0.00000E+00
   -0.62384E+01        -0.80291E+06         0.00000E+00
    0.00000E+00         0.00000E+00        -0.12132E+06
 
    0.19629E+06        -0.38179E+01         0.00000E+00
   -0.38179E+01        -0.80291E+06         0.00000E+00
    0.00000E+00         0.00000E+00        -0.12132E+06
 
    0.19627E+06        -0.12852E+01         0.00000E+00
   -0.12852E+01        -0.80291E+06         0.00000E+00
    0.00000E+00         0.00000E+00        -0.12133E+06
 
    0.19422E+06        -0.26644E+01         0.00000E+00
   -0.26644E+01        -0.80726E+06         0.00000E+00
    0.00000E+00         0.00000E+00        -0.12261E+06
 
    0.19391E+06        -0.71796E+01         0.00000E+00
   -0.71796E+01        -0.80726E+06         0.00000E+00
    0.00000E+00         0.00000E+00        -0.12267E+06
 
    0.19362E+06        -0.10777E+02         0.00000E+00
   -0.10777E+02        -0.80726E+06         0.00000E+00
    0.00000E+00         0.00000E+00        -0.12273E+06
 
    0.19336E+06        -0.13492E+02         0.00000E+00
   -0.13492E+02        -0.80726E+06         0.00000E+00
    0.00000E+00         0.00000E+00        -0.12278E+06
 
    0.19311E+06        -0.15367E+02         0.00000E+00
   -0.15367E+02        -0.80726E+06         0.00000E+00
    0.00000E+00         0.00000E+00        -0.12283E+06
 
    0.19289E+06        -0.16451E+02         0.00000E+00
   -0.16451E+02        -0.80727E+06         0.00000E+00
    0.00000E+00         0.00000E+00        -0.12287E+06
 
    0.19270E+06        -0.16800E+02         0.00000E+00
   -0.16800E+02        -0.80727E+06         0.00000E+00
    0.00000E+00         0.00000E+00        -0.12291E+06
 
    0.19252E+06        -0.16477E+02         0.00000E+00
   -0.16477E+02        -0.80727E+06         0.00000E+00
    0.00000E+00         0.00000E+00        -0.12295E+06
 
    0.19237E+06        -0.15547E+02         0.00000E+00
   -0.15547E+02        -0.80727E+06         0.00000E+00
    0.00000E+00         0.00000E+00        -0.12298E+06
 
    0.19223E+06        -0.14083E+02         0.00000E+00
   -0.14083E+02        -0.80727E+06         0.00000E+00
    0.00000E+00         0.00000E+00        -0.12301E+06
 
    0.19213E+06        -0.12160E+02         0.00000E+00
   -0.12160E+02        -0.80728E+06         0.00000E+00
    0.00000E+00         0.00000E+00        -0.12303E+06
 
    0.19204E+06        -0.98574E+01         0.00000E+00
   -0.98574E+01        -0.80728E+06         0.00000E+00
    0.00000E+00         0.00000E+00        -0.12305E+06
 
    0.19197E+06        -0.72560E+01         0.00000E+00
   -0.72560E+01        -0.80728E+06         0.00000E+00
    0.00000E+00         0.00000E+00        -0.12306E+06
 
    0.19193E+06        -0.44399E+01         0.00000E+00
   -0.44399E+01        -0.80728E+06         0.00000E+00
    0.00000E+00         0.00000E+00        -0.12307E+06
 
    0.19191E+06        -0.14944E+01         0.00000E+00
   -0.14944E+01        -0.80728E+06         0.00000E+00
    0.00000E+00         0.00000E+00        -0.12307E+06
 
    0.18977E+06        -0.30886E+01         0.00000E+00
   -0.30886E+01        -0.81171E+06         0.00000E+00
    0.00000E+00         0.00000E+00        -0.12439E+06
 
    0.18946E+06        -0.83109E+01         0.00000E+00
   -0.83109E+01        -0.81171E+06         0.00000E+00
    0.00000E+00         0.00000E+00        -0.12445E+06
 
    0.18917E+06        -0.12461E+02         0.00000E+00
   -0.12461E+02        -0.81171E+06         0.00000E+00
    0.00000E+00         0.00000E+00        -0.12451E+06
 
    0.18890E+06        -0.15584E+02         0.00000E+00
   -0.15584E+02        -0.81171E+06         0.00000E+00
    0.00000E+00         0.00000E+00        -0.12456E+06
 
    0.18866E+06        -0.17733E+02         0.00000E+00
   -0.17733E+02        -0.81171E+06         0.00000E+00
    0.00000E+00         0.00000E+00        -0.12461E+06
 
    0.18844E+06        -0.18968E+02         0.00000E+00
   -0.18968E+02        -0.81171E+06         0.00000E+00
    0.00000E+00         0.00000E+00        -0.12465E+06
 
    0.18825E+06        -0.19357E+02         0.00000E+00
   -0.19357E+02        -0.81172E+06         0.00000E+00
    0.00000E+00         0.00000E+00        -0.12469E+06
 
    0.18807E+06        -0.18972E+02         0.00000E+00
   -0.18972E+02        -0.81172E+06         0.00000E+00
    0.00000E+00         0.00000E+00        -0.12473E+06
 
    0.18792E+06        -0.17892E+02         0.00000E+00
   -0.17892E+02        -0.81172E+06         0.00000E+00
    0.00000E+00         0.00000E+00        -0.12476E+06
 
    0.18779E+06        -0.16200E+02         0.00000E+00
   -0.16200E+02        -0.81172E+06         0.00000E+00
    0.00000E+00         0.00000E+00        -0.12479E+06
 
    0.18768E+06        -0.13983E+02         0.00000E+00
   -0.13983E+02        -0.81173E+06         0.00000E+00
    0.00000E+00         0.00000E+00        -0.12481E+06
 
    0.18759E+06        -0.11331E+02         0.00000E+00
   -0.11331E+02        -0.81173E+06         0.00000E+00
    0.00000E+00         0.00000E+00        -0.12483E+06
 
    0.18753E+06        -0.83388E+01         0.00000E+00
   -0.83388E+01        -0.81173E+06         0.00000E+00
    0.00000E+00         0.00000E+00        -0.12484E+06
 
    0.18748E+06        -0.51017E+01         0.00000E+00
   -0.51017E+01        -0.81173E+06         0.00000E+00
    0.00000E+00         0.00000E+00        -0.12485E+06
 
    0.18746E+06        -0.17170E+01         0.00000E+00
   -0.17170E+01        -0.81173E+06         0.00000E+00
    0.00000E+00         0.00000E+00        -0.12485E+06
 
    0.18523E+06        -0.35397E+01         0.00000E+00
   -0.35397E+01        -0.81624E+06         0.00000E+00
    0.00000E+00         0.00000E+00        -0.12620E+06
 
    0.18492E+06        -0.95138E+01         0.00000E+00
   -0.95138E+01        -0.81624E+06         0.00000E+00
    0.00000E+00         0.00000E+00        -0.12626E+06
 
    0.18463E+06        -0.14251E+02         0.00000E+00
   -0.14251E+02        -0.81624E+06         0.00000E+00
    0.00000E+00         0.00000E+00        -0.12632E+06
 
    0.18437E+06        -0.17808E+02         0.00000E+00
   -0.17808E+02        -0.81624E+06         0.00000E+00
    0.00000E+00         0.00000E+00        -0.12637E+06
 
    0.18413E+06        -0.20248E+02         0.00000E+00
   -0.20248E+02        -0.81624E+06         0.00000E+00
    0.00000E+00         0.00000E+00        -0.12642E+06
 
    0.18391E+06        -0.21644E+02         0.00000E+00
   -0.21644E+02        -0.81625E+06         0.00000E+00
    0.00000E+00         0.00000E+00        -0.12647E+06
 
    0.18372E+06        -0.22074E+02         0.00000E+00
   -0.22074E+02        -0.81625E+06         0.00000E+00
    0.00000E+00         0.00000E+00        -0.12651E+06
 
    0.18354E+06        -0.21624E+02         0.00000E+00
   -0.21624E+02        -0.81625E+06         0.00000E+00
    0.00000E+00         0.00000E+00        -0.12654E+06
 
    0.18339E+06        -0.20384E+02         0.00000E+00
   -0.20384E+02        -0.81625E+06         0.00000E+00
    0.00000E+00         0.00000E+00        -0.12657E+06
 
    0.18326E+06        -0.18449E+02         0.00000E+00
   -0.18449E+02        -0.81626E+06         0.00000E+00
    0.00000E+00         0.00000E+00        -0.12660E+06
 
    0.18315E+06        -0.15919E+02         0.00000E+00
   -0.15919E+02        -0.81626E+06         0.00000E+00
    0.00000E+00         0.00000E+00        -0.12662E+06
 
    0.18307E+06        -0.12897E+02         0.00000E+00
   -0.12897E+02        -0.81626E+06         0.00000E+00
    0.00000E+00         0.00000E+00        -0.12664E+06
 
    0.18300E+06        -0.94892E+01         0.00000E+00
   -0.94892E+01        -0.81626E+06         0.00000E+00
    0.00000E+00         0.00000E+00        -0.12665E+06
 
    0.18296E+06        -0.58048E+01         0.00000E+00
   -0.58048E+01        -0.81626E+06         0.00000E+00
    0.00000E+00         0.00000E+00        -0.12666E+06
 
    0.18294E+06        -0.19535E+01         0.00000E+00
   -0.19535E+01        -0.81626E+06         0.00000E+00
    0.00000E+00         0.00000E+00        -0.12666E+06
 
    0.18060E+06        -0.40188E+01         0.00000E+00
   -0.40188E+01        -0.82085E+06         0.00000E+00
    0.00000E+00         0.00000E+00        -0.12805E+06
 
    0.18030E+06        -0.10791E+02         0.00000E+00
   -0.10791E+02        -0.82085E+06         0.00000E+00
    0.00000E+00         0.00000E+00        -0.12811E+06
 
    0.18001E+06        -0.16151E+02         0.00000E+00
   -0.16151E+02        -0.82085E+06         0.00000E+00
    0.00000E+00         0.00000E+00        -0.12817E+06
 
    0.17975E+06        -0.20168E+02         0.00000E+00
   -0.20168E+02        -0.82085E+06         0.00000E+00
    0.00000E+00         0.00000E+00        -0.12822E+06
 
    0.17951E+06        -0.22917E+02         0.00000E+00
   -0.22917E+02        -0.82086E+06         0.00000E+00
    0.00000E+00         0.00000E+00        -0.12827E+06
 
    0.17930E+06        -0.24483E+02         0.00000E+00
   -0.24483E+02        -0.82086E+06         0.00000E+00
    0.00000E+00         0.00000E+00        -0.12831E+06
 
    0.17910E+06        -0.24958E+02         0.00000E+00
   -0.24958E+02        -0.82086E+06         0.00000E+00
    0.00000E+00         0.00000E+00        -0.12835E+06
 
    0.17893E+06        -0.24438E+02         0.00000E+00
   -0.24438E+02        -0.82086E+06         0.00000E+00
    0.00000E+00         0.00000E+00        -0.12839E+06
 
    0.17878E+06        -0.23027E+02         0.00000E+00
   -0.23027E+02        -0.82087E+06         0.00000E+00
    0.00000E+00         0.00000E+00        -0.12842E+06
 
    0.17865E+06        -0.20835E+02         0.00000E+00
   -0.20835E+02        -0.82087E+06         0.00000E+00
    0.00000E+00         0.00000E+00        -0.12844E+06
 
    0.17855E+06        -0.17972E+02         0.00000E+00
   -0.17972E+02        -0.82087E+06         0.00000E+00
    0.00000E+00         0.00000E+00        -0.12846E+06
 
    0.17846E+06        -0.14558E+02         0.00000E+00
   -0.14558E+02        -0.82087E+06         0.00000E+00
    0.00000E+00         0.00000E+00        -0.12848E+06
 
    0.17840E+06        -0.10710E+02         0.00000E+00
   -0.10710E+02        -0.82087E+06         0.00000E+00
    0.00000E+00         0.00000E+00        -0.12850E+06
 
    0.17835E+06        -0.65506E+01         0.00000E+00
   -0.65506E+01        -0.82087E+06         0.00000E+00
    0.00000E+00         0.00000E+00        -0.12850E+06
 
    0.17833E+06        -0.22044E+01         0.00000E+00
   -0.22044E+01        -0.82087E+06         0.00000E+00
    0.00000E+00         0.00000E+00        -0.12851E+06
 
    0.17590E+06        -0.45267E+01         0.00000E+00
   -0.45267E+01        -0.82554E+06         0.00000E+00
    0.00000E+00         0.00000E+00        -0.12993E+06
 
    0.17559E+06        -0.12145E+02         0.00000E+00
   -0.12145E+02        -0.82554E+06         0.00000E+00
    0.00000E+00         0.00000E+00        -0.12999E+06
 
    0.17531E+06        -0.18165E+02         0.00000E+00
   -0.18165E+02        -0.82554E+06         0.00000E+00
    0.00000E+00         0.00000E+00        -0.13005E+06
 
    0.17505E+06        -0.22669E+02         0.00000E+00
   -0.22669E+02        -0.82555E+06         0.00000E+00
    0.00000E+00         0.00000E+00        -0.13010E+06
 
    0.17482E+06        -0.25746E+02         0.00000E+00
   -0.25746E+02        -0.82555E+06         0.00000E+00
    0.00000E+00         0.00000E+00        -0.13015E+06
 
    0.17460E+06        -0.27492E+02         0.00000E+00
   -0.27492E+02        -0.82555E+06         0.00000E+00
    0.00000E+00         0.00000E+00        -0.13019E+06
 
    0.17441E+06        -0.28013E+02         0.00000E+00
   -0.28013E+02        -0.82555E+06         0.00000E+00
    0.00000E+00         0.00000E+00        -0.13023E+06
 
    0.17424E+06        -0.27419E+02         0.00000E+00
   -0.27419E+02        -0.82556E+06         0.00000E+00
    0.00000E+00         0.00000E+00        -0.13026E+06
 
    0.17409E+06        -0.25828E+02         0.00000E+00
   -0.25828E+02        -0.82556E+06         0.00000E+00
    0.00000E+00         0.00000E+00        -0.13029E+06
 
    0.17396E+06        -0.23362E+02         0.00000E+00
   -0.23362E+02        -0.82556E+06         0.00000E+00
    0.00000E+00         0.00000E+00        -0.13032E+06
 
    0.17386E+06        -0.20148E+02         0.00000E+00
   -0.20148E+02        -0.82556E+06         0.00000E+00
    0.00000E+00         0.00000E+00        -0.13034E+06
 
    0.17377E+06        -0.16317E+02         0.00000E+00
   -0.16317E+02        -0.82557E+06         0.00000E+00
    0.00000E+00         0.00000E+00        -0.13036E+06
 
    0.17371E+06        -0.12002E+02         0.00000E+00
   -0.12002E+02        -0.82557E+06         0.00000E+00
    0.00000E+00         0.00000E+00        -0.13037E+06
 
    0.17367E+06        -0.73407E+01         0.00000E+00
   -0.73407E+01        -0.82557E+06         0.00000E+00
    0.00000E+00         0.00000E+00        -0.13038E+06
 
    0.17365E+06        -0.24702E+01         0.00000E+00
   -0.24702E+01        -0.82557E+06         0.00000E+00
    0.00000E+00         0.00000E+00        -0.13038E+06
 
    0.17111E+06        -0.50643E+01         0.00000E+00
   -0.50643E+01        -0.83032E+06         0.00000E+00
    0.00000E+00         0.00000E+00        -0.13184E+06
 
    0.17081E+06        -0.13578E+02         0.00000E+00
   -0.13578E+02        -0.83032E+06         0.00000E+00
    0.00000E+00         0.00000E+00        -0.13190E+06
 
    0.17053E+06        -0.20297E+02         0.00000E+00
   -0.20297E+02        -0.83032E+06         0.00000E+00
    0.00000E+00         0.00000E+00        -0.13196E+06
 
    0.17027E+06        -0.25317E+02         0.00000E+00
   -0.25317E+02        -0.83032E+06         0.00000E+00
    0.00000E+00         0.00000E+00        -0.13201E+06
 
    0.17004E+06        -0.28740E+02         0.00000E+00
   -0.28740E+02        -0.83032E+06         0.00000E+00
    0.00000E+00         0.00000E+00        -0.13206E+06
 
    0.16983E+06        -0.30676E+02         0.00000E+00
   -0.30676E+02        -0.83033E+06         0.00000E+00
    0.00000E+00         0.00000E+00        -0.13210E+06
 
    0.16964E+06        -0.31246E+02         0.00000E+00
   -0.31246E+02        -0.83033E+06         0.00000E+00
    0.00000E+00         0.00000E+00        -0.13214E+06
 
    0.16947E+06        -0.30574E+02         0.00000E+00
   -0.30574E+02        -0.83033E+06         0.00000E+00
    0.00000E+00         0.00000E+00        -0.13217E+06
 
    0.16932E+06        -0.28792E+02         0.00000E+00
   -0.28792E+02        -0.83033E+06         0.00000E+00
    0.00000E+00         0.00000E+00        -0.13220E+06
 
    0.16920E+06        -0.26037E+02         0.00000E+00
   -0.26037E+02        -0.83034E+06         0.00000E+00
    0.00000E+00         0.00000E+00        -0.13223E+06
 
    0.16909E+06        -0.22450E+02         0.00000E+00
   -0.22450E+02        -0.83034E+06         0.00000E+00
    0.00000E+00         0.00000E+00        -0.13225E+06
 
    0.16901E+06        -0.18179E+02         0.00000E+00
   -0.18179E+02        -0.83034E+06         0.00000E+00
    0.00000E+00         0.00000E+00        -0.13227E+06
 
    0.16894E+06        -0.13370E+02         0.00000E+00
   -0.13370E+02        -0.83034E+06         0.00000E+00
    0.00000E+00         0.00000E+00        -0.13228E+06
 
    0.16890E+06        -0.81766E+01         0.00000E+00
   -0.81766E+01        -0.83034E+06         0.00000E+00
    0.00000E+00         0.00000E+00        -0.13229E+06
 
    0.16888E+06        -0.27513E+01         0.00000E+00
   -0.27513E+01        -0.83034E+06         0.00000E+00
    0.00000E+00         0.00000E+00        -0.13229E+06
 
    0.16624E+06        -0.56328E+01         0.00000E+00
   -0.56328E+01        -0.83517E+06         0.00000E+00
    0.00000E+00         0.00000E+00        -0.13379E+06
 
    0.16594E+06        -0.15093E+02         0.00000E+00
   -0.15093E+02        -0.83517E+06         0.00000E+00
    0.00000E+00         0.00000E+00        -0.13385E+06
 
    0.16566E+06        -0.22551E+02         0.00000E+00
   -0.22551E+02        -0.83517E+06         0.00000E+00
    0.00000E+00         0.00000E+00        -0.13390E+06
 
    0.16541E+06        -0.28116E+02         0.00000E+00
   -0.28116E+02        -0.83517E+06         0.00000E+00
    0.00000E+00         0.00000E+00        -0.13395E+06
 
    0.16518E+06        -0.31904E+02         0.00000E+00
   -0.31904E+02        -0.83518E+06         0.00000E+00
    0.00000E+00         0.00000E+00        -0.13400E+06
 
    0.16497E+06        -0.34042E+02         0.00000E+00
   -0.34042E+02        -0.83518E+06         0.00000E+00
    0.00000E+00         0.00000E+00        -0.13404E+06
 
    0.16478E+06        -0.34663E+02         0.00000E+00
   -0.34663E+02        -0.83518E+06         0.00000E+00
    0.00000E+00         0.00000E+00        -0.13408E+06
 
    0.16462E+06        -0.33908E+02         0.00000E+00
   -0.33908E+02        -0.83519E+06         0.00000E+00
    0.00000E+00         0.00000E+00        -0.13411E+06
 
    0.16447E+06        -0.31924E+02         0.00000E+00
   -0.31924E+02        -0.83519E+06         0.00000E+00
    0.00000E+00         0.00000E+00        -0.13414E+06
 
    0.16435E+06        -0.28863E+02         0.00000E+00
   -0.28863E+02        -0.83519E+06         0.00000E+00
    0.00000E+00         0.00000E+00        -0.13417E+06
 
    0.16424E+06        -0.24883E+02         0.00000E+00
   -0.24883E+02        -0.83519E+06         0.00000E+00
    0.00000E+00         0.00000E+00        -0.13419E+06
 
    0.16416E+06        -0.20146E+02         0.00000E+00
   -0.20146E+02        -0.83520E+06         0.00000E+00
    0.00000E+00         0.00000E+00        -0.13421E+06
 
    0.16410E+06        -0.14816E+02         0.00000E+00
   -0.14816E+02        -0.83520E+06         0.00000E+00
    0.00000E+00         0.00000E+00        -0.13422E+06
 
    0.16406E+06        -0.90599E+01         0.00000E+00
   -0.90599E+01        -0.83520E+06         0.00000E+00
    0.00000E+00         0.00000E+00        -0.13423E+06
 
    0.16404E+06        -0.30485E+01         0.00000E+00
   -0.30485E+01        -0.83520E+06         0.00000E+00
    0.00000E+00         0.00000E+00        -0.13423E+06
 
    0.16129E+06        -0.62332E+01         0.00000E+00
   -0.62332E+01        -0.84010E+06         0.00000E+00
    0.00000E+00         0.00000E+00        -0.13576E+06
 
    0.16099E+06        -0.16692E+02         0.00000E+00
   -0.16692E+02        -0.84010E+06         0.00000E+00
    0.00000E+00         0.00000E+00        -0.13582E+06
 
    0.16072E+06        -0.24931E+02         0.00000E+00
   -0.24931E+02        -0.84010E+06         0.00000E+00
    0.00000E+00         0.00000E+00        -0.13588E+06
 
    0.16047E+06        -0.31071E+02         0.00000E+00
   -0.31071E+02        -0.84011E+06         0.00000E+00
    0.00000E+00         0.00000E+00        -0.13593E+06
 
    0.16024E+06        -0.35245E+02         0.00000E+00
   -0.35245E+02        -0.84011E+06         0.00000E+00
    0.00000E+00         0.00000E+00        -0.13597E+06
 
    0.16004E+06        -0.37595E+02         0.00000E+00
   -0.37595E+02        -0.84011E+06         0.00000E+00
    0.00000E+00         0.00000E+00        -0.13602E+06
 
    0.15985E+06        -0.38271E+02         0.00000E+00
   -0.38271E+02        -0.84012E+06         0.00000E+00
    0.00000E+00         0.00000E+00        -0.13605E+06
 
    0.15969E+06        -0.37428E+02         0.00000E+00
   -0.37428E+02        -0.84012E+06         0.00000E+00
    0.00000E+00         0.00000E+00        -0.13609E+06
 
    0.15954E+06        -0.35231E+02         0.00000E+00
   -0.35231E+02        -0.84012E+06         0.00000E+00
    0.00000E+00         0.00000E+00        -0.13612E+06
 
    0.15942E+06        -0.31847E+02         0.00000E+00
   -0.31847E+02        -0.84013E+06         0.00000E+00
    0.00000E+00         0.00000E+00        -0.13614E+06
 
    0.15932E+06        -0.27452E+02         0.00000E+00
   -0.27452E+02        -0.84013E+06         0.00000E+00
    0.00000E+00         0.00000E+00        -0.13616E+06
 
    0.15924E+06        -0.22223E+02         0.00000E+00
   -0.22223E+02        -0.84013E+06         0.00000E+00
    0.00000E+00         0.00000E+00        -0.13618E+06
 
    0.15918E+06        -0.16341E+02         0.00000E+00
   -0.16341E+02        -0.84013E+06         0.00000E+00
    0.00000E+00         0.00000E+00        -0.13619E+06
 
    0.15914E+06        -0.99924E+01         0.00000E+00
   -0.99924E+01        -0.84013E+06         0.00000E+00
    0.00000E+00         0.00000E+00        -0.13620E+06
 
    0.15912E+06        -0.33621E+01         0.00000E+00
   -0.33621E+01        -0.84013E+06         0.00000E+00
    0.00000E+00         0.00000E+00        -0.13620E+06
 
    0.15626E+06        -0.68665E+01         0.00000E+00
   -0.68665E+01        -0.84511E+06         0.00000E+00
    0.00000E+00         0.00000E+00        -0.13777E+06
 
    0.15597E+06        -0.18380E+02         0.00000E+00
   -0.18380E+02        -0.84511E+06         0.00000E+00
    0.00000E+00         0.00000E+00        -0.13783E+06
 
    0.15570E+06        -0.27441E+02         0.00000E+00
   -0.27441E+02        -0.84511E+06         0.00000E+00
    0.00000E+00         0.00000E+00        -0.13788E+06
 
    0.15545E+06        -0.34188E+02         0.00000E+00
   -0.34188E+02        -0.84512E+06         0.00000E+00
    0.00000E+00         0.00000E+00        -0.13793E+06
 
    0.15523E+06        -0.38769E+02         0.00000E+00
   -0.38769E+02        -0.84512E+06         0.00000E+00
    0.00000E+00         0.00000E+00        -0.13798E+06
 
    0.15502E+06        -0.41343E+02         0.00000E+00
   -0.41343E+02        -0.84512E+06         0.00000E+00
    0.00000E+00         0.00000E+00        -0.13802E+06
 
    0.15484E+06        -0.42076E+02         0.00000E+00
   -0.42076E+02        -0.84513E+06         0.00000E+00
    0.00000E+00         0.00000E+00        -0.13806E+06
 
    0.15468E+06        -0.41141E+02         0.00000E+00
   -0.41141E+02        -0.84513E+06         0.00000E+00
    0.00000E+00         0.00000E+00        -0.13809E+06
 
    0.15454E+06        -0.38718E+02         0.00000E+00
   -0.38718E+02        -0.84513E+06         0.00000E+00
    0.00000E+00         0.00000E+00        -0.13812E+06
 
    0.15442E+06        -0.34994E+02         0.00000E+00
   -0.34994E+02        -0.84514E+06         0.00000E+00
    0.00000E+00         0.00000E+00        -0.13814E+06
 
    0.15432E+06        -0.30161E+02         0.00000E+00
   -0.30161E+02        -0.84514E+06         0.00000E+00
    0.00000E+00         0.00000E+00        -0.13816E+06
 
    0.15424E+06        -0.24413E+02         0.00000E+00
   -0.24413E+02        -0.84514E+06         0.00000E+00
    0.00000E+00         0.00000E+00        -0.13818E+06
 
    0.15418E+06        -0.17951E+02         0.00000E+00
   -0.17951E+02        -0.84514E+06         0.00000E+00
    0.00000E+00         0.00000E+00        -0.13819E+06
 
    0.15414E+06        -0.10976E+02         0.00000E+00
   -0.10976E+02        -0.84514E+06         0.00000E+00
    0.00000E+00         0.00000E+00        -0.13820E+06
 
    0.15412E+06        -0.36929E+01         0.00000E+00
   -0.36929E+01        -0.84514E+06         0.00000E+00
    0.00000E+00         0.00000E+00        -0.13821E+06
 
    0.15115E+06        -0.75338E+01         0.00000E+00
   -0.75338E+01        -0.85020E+06         0.00000E+00
    0.00000E+00         0.00000E+00        -0.13981E+06
 
    0.15086E+06        -0.20158E+02         0.00000E+00
   -0.20158E+02        -0.85020E+06         0.00000E+00
    0.00000E+00         0.00000E+00        -0.13987E+06
 
    0.15060E+06        -0.30086E+02         0.00000E+00
   -0.30086E+02        -0.85020E+06         0.00000E+00
    0.00000E+00         0.00000E+00        -0.13992E+06
 
    0.15036E+06        -0.37472E+02         0.00000E+00
   -0.37472E+02        -0.85020E+06         0.00000E+00
    0.00000E+00         0.00000E+00        -0.13997E+06
 
    0.15013E+06        -0.42483E+02         0.00000E+00
   -0.42483E+02        -0.85021E+06         0.00000E+00
    0.00000E+00         0.00000E+00        -0.14001E+06
 
    0.14993E+06        -0.45293E+02         0.00000E+00
   -0.45293E+02        -0.85021E+06         0.00000E+00
    0.00000E+00         0.00000E+00        -0.14006E+06
 
    0.14975E+06        -0.46086E+02         0.00000E+00
   -0.46086E+02        -0.85021E+06         0.00000E+00
    0.00000E+00         0.00000E+00        -0.14009E+06
 
    0.14960E+06        -0.45053E+02         0.00000E+00
   -0.45053E+02        -0.85022E+06         0.00000E+00
    0.00000E+00         0.00000E+00        -0.14012E+06
 
    0.14946E+06        -0.42393E+02         0.00000E+00
   -0.42393E+02        -0.85022E+06         0.00000E+00
    0.00000E+00         0.00000E+00        -0.14015E+06
 
    0.14934E+06        -0.38311E+02         0.00000E+00
   -0.38311E+02        -0.85022E+06         0.00000E+00
    0.00000E+00         0.00000E+00        -0.14018E+06
 
    0.14924E+06        -0.33015E+02         0.00000E+00
   -0.33015E+02        -0.85023E+06         0.00000E+00
    0.00000E+00         0.00000E+00        -0.14020E+06
 
    0.14916E+06        -0.26721E+02         0.00000E+00
   -0.26721E+02        -0.85023E+06         0.00000E+00
    0.00000E+00         0.00000E+00        -0.14021E+06
 
    0.14910E+06        -0.19646E+02         0.00000E+00
   -0.19646E+02        -0.85023E+06         0.00000E+00
    0.00000E+00         0.00000E+00        -0.14023E+06
 
    0.14906E+06        -0.12012E+02         0.00000E+00
   -0.12012E+02        -0.85023E+06         0.00000E+00
    0.00000E+00         0.00000E+00        -0.14023E+06
 
    0.14904E+06        -0.40415E+01         0.00000E+00
   -0.40415E+01        -0.85023E+06         0.00000E+00
    0.00000E+00         0.00000E+00        -0.14024E+06
 
    0.14596E+06        -0.82365E+01         0.00000E+00
   -0.82365E+01        -0.85536E+06         0.00000E+00
    0.00000E+00         0.00000E+00        -0.14188E+06
 
    0.14568E+06        -0.22031E+02         0.00000E+00
   -0.22031E+02        -0.85536E+06         0.00000E+00
    0.00000E+00         0.00000E+00        -0.14194E+06
 
    0.14542E+06        -0.32872E+02         0.00000E+00
   -0.32872E+02        -0.85536E+06         0.00000E+00
    0.00000E+00         0.00000E+00        -0.14199E+06
 
    0.14518E+06        -0.40931E+02         0.00000E+00
   -0.40931E+02        -0.85537E+06         0.00000E+00
    0.00000E+00         0.00000E+00        -0.14204E+06
 
    0.14497E+06        -0.46394E+02         0.00000E+00
   -0.46394E+02        -0.85537E+06         0.00000E+00
    0.00000E+00         0.00000E+00        -0.14208E+06
 
    0.14477E+06        -0.49452E+02         0.00000E+00
   -0.49452E+02        -0.85537E+06         0.00000E+00
    0.00000E+00         0.00000E+00        -0.14212E+06
 
    0.14459E+06        -0.50308E+02         0.00000E+00
   -0.50308E+02        -0.85538E+06         0.00000E+00
    0.00000E+00         0.00000E+00        -0.14216E+06
 
    0.14444E+06        -0.49173E+02         0.00000E+00
   -0.49173E+02        -0.85538E+06         0.00000E+00
    0.00000E+00         0.00000E+00        -0.14219E+06
 
    0.14430E+06        -0.46263E+02         0.00000E+00
   -0.46263E+02        -0.85539E+06         0.00000E+00
    0.00000E+00         0.00000E+00        -0.14222E+06
 
    0.14418E+06        -0.41803E+02         0.00000E+00
   -0.41803E+02        -0.85539E+06         0.00000E+00
    0.00000E+00         0.00000E+00        -0.14224E+06
 
    0.14409E+06        -0.36021E+02         0.00000E+00
   -0.36021E+02        -0.85539E+06         0.00000E+00
    0.00000E+00         0.00000E+00        -0.14226E+06
 
    0.14401E+06        -0.29151E+02         0.00000E+00
   -0.29151E+02        -0.85539E+06         0.00000E+00
    0.00000E+00         0.00000E+00        -0.14228E+06
 
    0.14395E+06        -0.21432E+02         0.00000E+00
   -0.21432E+02        -0.85540E+06         0.00000E+00
    0.00000E+00         0.00000E+00        -0.14229E+06
 
    0.14391E+06        -0.13104E+02         0.00000E+00
   -0.13104E+02        -0.85540E+06         0.00000E+00
    0.00000E+00         0.00000E+00        -0.14230E+06
 
    0.14389E+06        -0.44086E+01         0.00000E+00
   -0.44086E+01        -0.85540E+06         0.00000E+00
    0.00000E+00         0.00000E+00        -0.14230E+06
 
    0.14070E+06        -0.89760E+01         0.00000E+00
   -0.89760E+01        -0.86060E+06         0.00000E+00
    0.00000E+00         0.00000E+00        -0.14398E+06
 
    0.14042E+06        -0.24002E+02         0.00000E+00
   -0.24002E+02        -0.86060E+06         0.00000E+00
    0.00000E+00         0.00000E+00        -0.14404E+06
 
    0.14017E+06        -0.35803E+02         0.00000E+00
   -0.35803E+02        -0.86060E+06         0.00000E+00
    0.00000E+00         0.00000E+00        -0.14409E+06
 
    0.13993E+06        -0.44571E+02         0.00000E+00
   -0.44571E+02        -0.86060E+06         0.00000E+00
    0.00000E+00         0.00000E+00        -0.14413E+06
 
    0.13972E+06        -0.50509E+02         0.00000E+00
   -0.50509E+02        -0.86061E+06         0.00000E+00
    0.00000E+00         0.00000E+00        -0.14418E+06
 
    0.13953E+06        -0.53829E+02         0.00000E+00
   -0.53829E+02        -0.86061E+06         0.00000E+00
    0.00000E+00         0.00000E+00        -0.14422E+06
 
    0.13936E+06        -0.54752E+02         0.00000E+00
   -0.54752E+02        -0.86062E+06         0.00000E+00
    0.00000E+00         0.00000E+00        -0.14425E+06
 
    0.13920E+06        -0.53508E+02         0.00000E+00
   -0.53508E+02        -0.86062E+06         0.00000E+00
    0.00000E+00         0.00000E+00        -0.14428E+06
 
    0.13907E+06        -0.50336E+02         0.00000E+00
   -0.50336E+02        -0.86062E+06         0.00000E+00
    0.00000E+00         0.00000E+00        -0.14431E+06
 
    0.13895E+06        -0.45478E+02         0.00000E+00
   -0.45478E+02        -0.86063E+06         0.00000E+00
    0.00000E+00         0.00000E+00        -0.14433E+06
 
    0.13886E+06        -0.39184E+02         0.00000E+00
   -0.39184E+02        -0.86063E+06         0.00000E+00
    0.00000E+00         0.00000E+00        -0.14435E+06
 
    0.13878E+06        -0.31709E+02         0.00000E+00
   -0.31709E+02        -0.86063E+06         0.00000E+00
    0.00000E+00         0.00000E+00        -0.14437E+06
 
    0.13873E+06        -0.23311E+02         0.00000E+00
   -0.23311E+02        -0.86063E+06         0.00000E+00
    0.00000E+00         0.00000E+00        -0.14438E+06
 
    0.13869E+06        -0.14252E+02         0.00000E+00
   -0.14252E+02        -0.86064E+06         0.00000E+00
    0.00000E+00         0.00000E+00        -0.14439E+06
 
    0.13867E+06        -0.47948E+01         0.00000E+00
   -0.47948E+01        -0.86064E+06         0.00000E+00
    0.00000E+00         0.00000E+00        -0.14439E+06
 
    0.13536E+06        -0.97537E+01         0.00000E+00
   -0.97537E+01        -0.86591E+06         0.00000E+00
    0.00000E+00         0.00000E+00        -0.14611E+06
 
    0.13509E+06        -0.26074E+02         0.00000E+00
   -0.26074E+02        -0.86591E+06         0.00000E+00
    0.00000E+00         0.00000E+00        -0.14616E+06
 
    0.13484E+06        -0.38886E+02         0.00000E+00
   -0.38886E+02        -0.86591E+06         0.00000E+00
    0.00000E+00         0.00000E+00        -0.14621E+06
 
    0.13461E+06        -0.48400E+02         0.00000E+00
   -0.48400E+02        -0.86591E+06         0.00000E+00
    0.00000E+00         0.00000E+00        -0.14626E+06
 
    0.13440E+06        -0.54838E+02         0.00000E+00
   -0.54838E+02        -0.86592E+06         0.00000E+00
    0.00000E+00         0.00000E+00        -0.14630E+06
 
    0.13421E+06        -0.58432E+02         0.00000E+00
   -0.58432E+02        -0.86592E+06         0.00000E+00
    0.00000E+00         0.00000E+00        -0.14634E+06
 
    0.13404E+06        -0.59425E+02         0.00000E+00
   -0.59425E+02        -0.86593E+06         0.00000E+00
    0.00000E+00         0.00000E+00        -0.14638E+06
 
    0.13390E+06        -0.58068E+02         0.00000E+00
   -0.58068E+02        -0.86593E+06         0.00000E+00
    0.00000E+00         0.00000E+00        -0.14641E+06
 
    0.13377E+06        -0.54619E+02         0.00000E+00
   -0.54619E+02        -0.86594E+06         0.00000E+00
    0.00000E+00         0.00000E+00        -0.14643E+06
 
    0.13365E+06        -0.49342E+02         0.00000E+00
   -0.49342E+02        -0.86594E+06         0.00000E+00
    0.00000E+00         0.00000E+00        -0.14646E+06
 
    0.13356E+06        -0.42510E+02         0.00000E+00
   -0.42510E+02        -0.86594E+06         0.00000E+00
    0.00000E+00         0.00000E+00        -0.14648E+06
 
    0.13349E+06        -0.34398E+02         0.00000E+00
   -0.34398E+02        -0.86594E+06         0.00000E+00
    0.00000E+00         0.00000E+00        -0.14649E+06
 
    0.13343E+06        -0.25287E+02         0.00000E+00
   -0.25287E+02        -0.86595E+06         0.00000E+00
    0.00000E+00         0.00000E+00        -0.14650E+06
 
    0.13339E+06        -0.15459E+02         0.00000E+00
   -0.15459E+02        -0.86595E+06         0.00000E+00
    0.00000E+00         0.00000E+00        -0.14651E+06
 
    0.13338E+06        -0.52009E+01         0.00000E+00
   -0.52009E+01        -0.86595E+06         0.00000E+00
    0.00000E+00         0.00000E+00        -0.14651E+06
 
    0.12994E+06        -0.10571E+02         0.00000E+00
   -0.10571E+02        -0.87129E+06         0.00000E+00
    0.00000E+00         0.00000E+00        -0.14827E+06
 
    0.12968E+06        -0.28253E+02         0.00000E+00
   -0.28253E+02        -0.87129E+06         0.00000E+00
    0.00000E+00         0.00000E+00        -0.14832E+06
 
    0.12944E+06        -0.42128E+02         0.00000E+00
   -0.42128E+02        -0.87129E+06         0.00000E+00
    0.00000E+00         0.00000E+00        -0.14837E+06
 
    0.12921E+06        -0.52425E+02         0.00000E+00
   -0.52425E+02        -0.87130E+06         0.00000E+00
    0.00000E+00         0.00000E+00        -0.14842E+06
 
    0.12901E+06        -0.59388E+02         0.00000E+00
   -0.59388E+02        -0.87130E+06         0.00000E+00
    0.00000E+00         0.00000E+00        -0.14846E+06
 
    0.12883E+06        -0.63271E+02         0.00000E+00
   -0.63271E+02        -0.87131E+06         0.00000E+00
    0.00000E+00         0.00000E+00        -0.14850E+06
 
    0.12866E+06        -0.64338E+02         0.00000E+00
   -0.64338E+02        -0.87131E+06         0.00000E+00
    0.00000E+00         0.00000E+00        -0.14853E+06
 
    0.12852E+06        -0.62860E+02         0.00000E+00
   -0.62860E+02        -0.87131E+06         0.00000E+00
    0.00000E+00         0.00000E+00        -0.14856E+06
 
    0.12839E+06        -0.59120E+02         0.00000E+00
   -0.59120E+02        -0.87132E+06         0.00000E+00
    0.00000E+00         0.00000E+00        -0.14859E+06
 
    0.12828E+06        -0.53403E+02         0.00000E+00
   -0.53403E+02        -0.87132E+06         0.00000E+00
    0.00000E+00         0.00000E+00        -0.14861E+06
 
    0.12819E+06        -0.46005E+02         0.00000E+00
   -0.46005E+02        -0.87133E+06         0.00000E+00
    0.00000E+00         0.00000E+00        -0.14863E+06
 
    0.12812E+06        -0.37224E+02         0.00000E+00
   -0.37224E+02        -0.87133E+06         0.00000E+00
    0.00000E+00         0.00000E+00        -0.14864E+06
 
    0.12807E+06        -0.27363E+02         0.00000E+00
   -0.27363E+02        -0.87133E+06         0.00000E+00
    0.00000E+00         0.00000E+00        -0.14865E+06
 
    0.12803E+06        -0.16728E+02         0.00000E+00
   -0.16728E+02        -0.87133E+06         0.00000E+00
    0.00000E+00         0.00000E+00        -0.14866E+06
 
    0.12801E+06        -0.56276E+01         0.00000E+00
   -0.56276E+01        -0.87133E+06         0.00000E+00
    0.00000E+00         0.00000E+00        -0.14866E+06
 
    0.12446E+06        -0.11431E+02         0.00000E+00
   -0.11431E+02        -0.87674E+06         0.00000E+00
    0.00000E+00         0.00000E+00        -0.15046E+06
 
    0.12420E+06        -0.30544E+02         0.00000E+00
   -0.30544E+02        -0.87674E+06         0.00000E+00
    0.00000E+00         0.00000E+00        -0.15051E+06
 
    0.12396E+06        -0.45534E+02         0.00000E+00
   -0.45534E+02        -0.87675E+06         0.00000E+00
    0.00000E+00         0.00000E+00        -0.15056E+06
 
    0.12375E+06        -0.56655E+02         0.00000E+00
   -0.56655E+02        -0.87675E+06         0.00000E+00
    0.00000E+00         0.00000E+00        -0.15060E+06
 
    0.12355E+06        -0.64170E+02         0.00000E+00
   -0.64170E+02        -0.87675E+06         0.00000E+00
    0.00000E+00         0.00000E+00        -0.15064E+06
 
    0.12337E+06        -0.68355E+02         0.00000E+00
   -0.68355E+02        -0.87676E+06         0.00000E+00
    0.00000E+00         0.00000E+00        -0.15068E+06
 
    0.12321E+06        -0.69498E+02         0.00000E+00
   -0.69498E+02        -0.87676E+06         0.00000E+00
    0.00000E+00         0.00000E+00        -0.15071E+06
 
    0.12307E+06        -0.67894E+02         0.00000E+00
   -0.67894E+02        -0.87677E+06         0.00000E+00
    0.00000E+00         0.00000E+00        -0.15074E+06
 
    0.12295E+06        -0.63847E+02         0.00000E+00
   -0.63847E+02        -0.87677E+06         0.00000E+00
    0.00000E+00         0.00000E+00        -0.15076E+06
 
    0.12284E+06        -0.57668E+02         0.00000E+00
   -0.57668E+02        -0.87678E+06         0.00000E+00
    0.00000E+00         0.00000E+00        -0.15079E+06
 
    0.12275E+06        -0.49675E+02         0.00000E+00
   -0.49675E+02        -0.87678E+06         0.00000E+00
    0.00000E+00         0.00000E+00        -0.15080E+06
 
    0.12268E+06        -0.40190E+02         0.00000E+00
   -0.40190E+02        -0.87678E+06         0.00000E+00
    0.00000E+00         0.00000E+00        -0.15082E+06
 
    0.12263E+06        -0.29542E+02         0.00000E+00
   -0.29542E+02        -0.87678E+06         0.00000E+00
    0.00000E+00         0.00000E+00        -0.15083E+06
 
    0.12260E+06        -0.18059E+02         0.00000E+00
   -0.18059E+02        -0.87679E+06         0.00000E+00
    0.00000E+00         0.00000E+00        -0.15084E+06
 
    0.12258E+06        -0.60755E+01         0.00000E+00
   -0.60755E+01        -0.87679E+06         0.00000E+00
    0.00000E+00         0.00000E+00        -0.15084E+06
 
    0.11890E+06        -0.12334E+02         0.00000E+00
   -0.12334E+02        -0.88226E+06         0.00000E+00
    0.00000E+00         0.00000E+00        -0.15267E+06
 
    0.11865E+06        -0.32951E+02         0.00000E+00
   -0.32951E+02        -0.88226E+06         0.00000E+00
    0.00000E+00         0.00000E+00        -0.15272E+06
 
    0.11842E+06        -0.49114E+02         0.00000E+00
   -0.49114E+02        -0.88227E+06         0.00000E+00
    0.00000E+00         0.00000E+00        -0.15277E+06
 
    0.11821E+06        -0.61098E+02         0.00000E+00
   -0.61098E+02        -0.88227E+06         0.00000E+00
    0.00000E+00         0.00000E+00        -0.15281E+06
 
    0.11802E+06        -0.69191E+02         0.00000E+00
   -0.69191E+02        -0.88227E+06         0.00000E+00
    0.00000E+00         0.00000E+00        -0.15285E+06
 
    0.11785E+06        -0.73693E+02         0.00000E+00
   -0.73693E+02        -0.88228E+06         0.00000E+00
    0.00000E+00         0.00000E+00        -0.15289E+06
 
    0.11769E+06        -0.74914E+02         0.00000E+00
   -0.74914E+02        -0.88228E+06         0.00000E+00
    0.00000E+00         0.00000E+00        -0.15292E+06
 
    0.11755E+06        -0.73175E+02         0.00000E+00
   -0.73175E+02        -0.88229E+06         0.00000E+00
    0.00000E+00         0.00000E+00        -0.15295E+06
 
    0.11744E+06        -0.68805E+02         0.00000E+00
   -0.68805E+02        -0.88229E+06         0.00000E+00
    0.00000E+00         0.00000E+00        -0.15297E+06
 
    0.11733E+06        -0.62140E+02         0.00000E+00
   -0.62140E+02        -0.88230E+06         0.00000E+00
    0.00000E+00         0.00000E+00        -0.15299E+06
 
    0.11725E+06        -0.53523E+02         0.00000E+00
   -0.53523E+02        -0.88230E+06         0.00000E+00
    0.00000E+00         0.00000E+00        -0.15301E+06
 
    0.11718E+06        -0.43301E+02         0.00000E+00
   -0.43301E+02        -0.88230E+06         0.00000E+00
    0.00000E+00         0.00000E+00        -0.15302E+06
 
    0.11713E+06        -0.31826E+02         0.00000E+00
   -0.31826E+02        -0.88231E+06         0.00000E+00
    0.00000E+00         0.00000E+00        -0.15304E+06
 
    0.11710E+06        -0.19455E+02         0.00000E+00
   -0.19455E+02        -0.88231E+06         0.00000E+00
    0.00000E+00         0.00000E+00        -0.15304E+06
 
    0.11708E+06        -0.65450E+01         0.00000E+00
   -0.65450E+01        -0.88231E+06         0.00000E+00
    0.00000E+00         0.00000E+00        -0.15305E+06
 
    0.11327E+06        -0.13283E+02         0.00000E+00
   -0.13283E+02        -0.88785E+06         0.00000E+00
    0.00000E+00         0.00000E+00        -0.15491E+06
 
    0.11303E+06        -0.35479E+02         0.00000E+00
   -0.35479E+02        -0.88785E+06         0.00000E+00
    0.00000E+00         0.00000E+00        -0.15496E+06
 
    0.11281E+06        -0.52872E+02         0.00000E+00
   -0.52872E+02        -0.88785E+06         0.00000E+00
    0.00000E+00         0.00000E+00        -0.15501E+06
 
    0.11261E+06        -0.65761E+02         0.00000E+00
   -0.65761E+02        -0.88786E+06         0.00000E+00
    0.00000E+00         0.00000E+00        -0.15505E+06
 
    0.11242E+06        -0.74459E+02         0.00000E+00
   -0.74459E+02        -0.88786E+06         0.00000E+00
    0.00000E+00         0.00000E+00        -0.15509E+06
 
    0.11226E+06        -0.79290E+02         0.00000E+00
   -0.79290E+02        -0.88787E+06         0.00000E+00
    0.00000E+00         0.00000E+00        -0.15512E+06
 
    0.11211E+06        -0.80592E+02         0.00000E+00
   -0.80592E+02        -0.88787E+06         0.00000E+00
    0.00000E+00         0.00000E+00        -0.15515E+06
 
    0.11197E+06        -0.78710E+02         0.00000E+00
   -0.78710E+02        -0.88788E+06         0.00000E+00
    0.00000E+00         0.00000E+00        -0.15518E+06
 
    0.11186E+06        -0.74000E+02         0.00000E+00
   -0.74000E+02        -0.88788E+06         0.00000E+00
    0.00000E+00         0.00000E+00        -0.15520E+06
 
    0.11176E+06        -0.66824E+02         0.00000E+00
   -0.66824E+02        -0.88788E+06         0.00000E+00
    0.00000E+00         0.00000E+00        -0.15522E+06
 
    0.11168E+06        -0.57551E+02         0.00000E+00
   -0.57551E+02        -0.88789E+06         0.00000E+00
    0.00000E+00         0.00000E+00        -0.15524E+06
 
    0.11161E+06        -0.46556E+02         0.00000E+00
   -0.46556E+02        -0.88789E+06         0.00000E+00
    0.00000E+00         0.00000E+00        -0.15526E+06
 
    0.11156E+06        -0.34217E+02         0.00000E+00
   -0.34217E+02        -0.88789E+06         0.00000E+00
    0.00000E+00         0.00000E+00        -0.15527E+06
 
    0.11153E+06        -0.20916E+02         0.00000E+00
   -0.20916E+02        -0.88790E+06         0.00000E+00
    0.00000E+00         0.00000E+00        -0.15527E+06
 
    0.11152E+06        -0.70362E+01         0.00000E+00
   -0.70362E+01        -0.88790E+06         0.00000E+00
    0.00000E+00         0.00000E+00        -0.15528E+06
 
    0.10758E+06        -0.14280E+02         0.00000E+00
   -0.14280E+02        -0.89350E+06         0.00000E+00
    0.00000E+00         0.00000E+00        -0.15718E+06
 
    0.10735E+06        -0.38133E+02         0.00000E+00
   -0.38133E+02        -0.89350E+06         0.00000E+00
    0.00000E+00         0.00000E+00        -0.15723E+06
 
    0.10713E+06        -0.56815E+02         0.00000E+00
   -0.56815E+02        -0.89350E+06         0.00000E+00
    0.00000E+00         0.00000E+00        -0.15727E+06
 
    0.10694E+06        -0.70650E+02         0.00000E+00
   -0.70650E+02        -0.89351E+06         0.00000E+00
    0.00000E+00         0.00000E+00        -0.15731E+06
 
    0.10676E+06        -0.79979E+02         0.00000E+00
   -0.79979E+02        -0.89351E+06         0.00000E+00
    0.00000E+00         0.00000E+00        -0.15735E+06
 
    0.10660E+06        -0.85152E+02         0.00000E+00
   -0.85152E+02        -0.89352E+06         0.00000E+00
    0.00000E+00         0.00000E+00        -0.15738E+06
 
    0.10646E+06        -0.86534E+02         0.00000E+00
   -0.86534E+02        -0.89352E+06         0.00000E+00
    0.00000E+00         0.00000E+00        -0.15741E+06
 
    0.10633E+06        -0.84499E+02         0.00000E+00
   -0.84499E+02        -0.89353E+06         0.00000E+00
    0.00000E+00         0.00000E+00        -0.15744E+06
 
    0.10622E+06        -0.79430E+02         0.00000E+00
   -0.79430E+02        -0.89353E+06         0.00000E+00
    0.00000E+00         0.00000E+00        -0.15746E+06
 
    0.10612E+06        -0.71717E+02         0.00000E+00
   -0.71717E+02        -0.89354E+06         0.00000E+00
    0.00000E+00         0.00000E+00        -0.15748E+06
 
    0.10605E+06        -0.61758E+02         0.00000E+00
   -0.61758E+02        -0.89354E+06         0.00000E+00
    0.00000E+00         0.00000E+00        -0.15750E+06
 
    0.10598E+06        -0.49954E+02         0.00000E+00
   -0.49954E+02        -0.89354E+06         0.00000E+00
    0.00000E+00         0.00000E+00        -0.15751E+06
 
    0.10594E+06        -0.36712E+02         0.00000E+00
   -0.36712E+02        -0.89355E+06         0.00000E+00
    0.00000E+00         0.00000E+00        -0.15752E+06
 
    0.10590E+06        -0.22440E+02         0.00000E+00
   -0.22440E+02        -0.89355E+06         0.00000E+00
    0.00000E+00         0.00000E+00        -0.15753E+06
 
    0.10589E+06        -0.75487E+01         0.00000E+00
   -0.75487E+01        -0.89355E+06         0.00000E+00
    0.00000E+00         0.00000E+00        -0.15753E+06
 
    0.10182E+06        -0.15327E+02         0.00000E+00
   -0.15327E+02        -0.89921E+06         0.00000E+00
    0.00000E+00         0.00000E+00        -0.15948E+06
 
    0.10160E+06        -0.40916E+02         0.00000E+00
   -0.40916E+02        -0.89921E+06         0.00000E+00
    0.00000E+00         0.00000E+00        -0.15952E+06
 
    0.10139E+06        -0.60945E+02         0.00000E+00
   -0.60945E+02        -0.89922E+06         0.00000E+00
    0.00000E+00         0.00000E+00        -0.15956E+06
 
    0.10121E+06        -0.75767E+02         0.00000E+00
   -0.75767E+02        -0.89922E+06         0.00000E+00
    0.00000E+00         0.00000E+00        -0.15960E+06
 
    0.10103E+06        -0.85750E+02         0.00000E+00
   -0.85750E+02        -0.89923E+06         0.00000E+00
    0.00000E+00         0.00000E+00        -0.15964E+06
 
    0.10088E+06        -0.91274E+02         0.00000E+00
   -0.91274E+02        -0.89923E+06         0.00000E+00
    0.00000E+00         0.00000E+00        -0.15967E+06
 
    0.10074E+06        -0.92734E+02         0.00000E+00
   -0.92734E+02        -0.89924E+06         0.00000E+00
    0.00000E+00         0.00000E+00        -0.15970E+06
 
    0.10062E+06        -0.90534E+02         0.00000E+00
   -0.90534E+02        -0.89924E+06         0.00000E+00
    0.00000E+00         0.00000E+00        -0.15972E+06
 
    0.10052E+06        -0.85086E+02         0.00000E+00
   -0.85086E+02        -0.89925E+06         0.00000E+00
    0.00000E+00         0.00000E+00        -0.15975E+06
 
    0.10043E+06        -0.76812E+02         0.00000E+00
   -0.76812E+02        -0.89925E+06         0.00000E+00
    0.00000E+00         0.00000E+00        -0.15976E+06
 
    0.10035E+06        -0.66136E+02         0.00000E+00
   -0.66136E+02        -0.89925E+06         0.00000E+00
    0.00000E+00         0.00000E+00        -0.15978E+06
 
    0.10029E+06        -0.53489E+02         0.00000E+00
   -0.53489E+02        -0.89926E+06         0.00000E+00
    0.00000E+00         0.00000E+00        -0.15979E+06
 
    0.10025E+06        -0.39306E+02         0.00000E+00
   -0.39306E+02        -0.89926E+06         0.00000E+00
    0.00000E+00         0.00000E+00        -0.15980E+06
 
    0.10022E+06        -0.24024E+02         0.00000E+00
   -0.24024E+02        -0.89926E+06         0.00000E+00
    0.00000E+00         0.00000E+00        -0.15981E+06
 
    0.10020E+06        -0.80813E+01         0.00000E+00
   -0.80813E+01        -0.89926E+06         0.00000E+00
    0.00000E+00         0.00000E+00        -0.15981E+06
 
    0.96000E+05        -0.16424E+02         0.00000E+00
   -0.16424E+02        -0.90498E+06         0.00000E+00
    0.00000E+00         0.00000E+00        -0.16180E+06
 
    0.95787E+05        -0.43829E+02         0.00000E+00
   -0.43829E+02        -0.90499E+06         0.00000E+00
    0.00000E+00         0.00000E+00        -0.16184E+06
 
    0.95591E+05        -0.65263E+02         0.00000E+00
   -0.65263E+02        -0.90499E+06         0.00000E+00
    0.00000E+00         0.00000E+00        -0.16188E+06
 
    0.95412E+05        -0.81108E+02         0.00000E+00
   -0.81108E+02        -0.90499E+06         0.00000E+00
    0.00000E+00         0.00000E+00        -0.16192E+06
 
    0.95249E+05        -0.91764E+02         0.00000E+00
   -0.91764E+02        -0.90500E+06         0.00000E+00
    0.00000E+00         0.00000E+00        -0.16195E+06
 
    0.95103E+05        -0.97645E+02         0.00000E+00
   -0.97645E+02        -0.90500E+06         0.00000E+00
    0.00000E+00         0.00000E+00        -0.16198E+06
 
    0.94972E+05        -0.99178E+02         0.00000E+00
   -0.99178E+02        -0.90501E+06         0.00000E+00
    0.00000E+00         0.00000E+00        -0.16201E+06
 
    0.94856E+05        -0.96799E+02         0.00000E+00
   -0.96799E+02        -0.90501E+06         0.00000E+00
    0.00000E+00         0.00000E+00        -0.16203E+06
 
    0.94756E+05        -0.90952E+02         0.00000E+00
   -0.90952E+02        -0.90502E+06         0.00000E+00
    0.00000E+00         0.00000E+00        -0.16205E+06
 
    0.94670E+05        -0.82089E+02         0.00000E+00
   -0.82089E+02        -0.90502E+06         0.00000E+00
    0.00000E+00         0.00000E+00        -0.16207E+06
 
    0.94599E+05        -0.70666E+02         0.00000E+00
   -0.70666E+02        -0.90503E+06         0.00000E+00
    0.00000E+00         0.00000E+00        -0.16209E+06
 
    0.94542E+05        -0.57145E+02         0.00000E+00
   -0.57145E+02        -0.90503E+06         0.00000E+00
    0.00000E+00         0.00000E+00        -0.16210E+06
 
    0.94500E+05        -0.41988E+02         0.00000E+00
   -0.41988E+02        -0.90503E+06         0.00000E+00
    0.00000E+00         0.00000E+00        -0.16211E+06
 
    0.94471E+05        -0.25661E+02         0.00000E+00
   -0.25661E+02        -0.90504E+06         0.00000E+00
    0.00000E+00         0.00000E+00        -0.16211E+06
 
    0.94457E+05        -0.86317E+01         0.00000E+00
   -0.86317E+01        -0.90504E+06         0.00000E+00
    0.00000E+00         0.00000E+00        -0.16212E+06
 
    0.90118E+05        -0.17572E+02         0.00000E+00
   -0.17572E+02        -0.91081E+06         0.00000E+00
    0.00000E+00         0.00000E+00        -0.16414E+06
 
    0.89915E+05        -0.46869E+02         0.00000E+00
   -0.46869E+02        -0.91082E+06         0.00000E+00
    0.00000E+00         0.00000E+00        -0.16418E+06
 
    0.89729E+05        -0.69757E+02         0.00000E+00
   -0.69757E+02        -0.91082E+06         0.00000E+00
    0.00000E+00         0.00000E+00        -0.16422E+06
 
    0.89559E+05        -0.86656E+02         0.00000E+00
   -0.86656E+02        -0.91082E+06         0.00000E+00
    0.00000E+00         0.00000E+00        -0.16425E+06
 
    0.89405E+05        -0.97999E+02         0.00000E+00
   -0.97999E+02        -0.91083E+06         0.00000E+00
    0.00000E+00         0.00000E+00        -0.16428E+06
 
    0.89267E+05        -0.10424E+03         0.00000E+00
   -0.10424E+03        -0.91083E+06         0.00000E+00
    0.00000E+00         0.00000E+00        -0.16431E+06
 
    0.89143E+05        -0.10583E+03         0.00000E+00
   -0.10583E+03        -0.91084E+06         0.00000E+00
    0.00000E+00         0.00000E+00        -0.16434E+06
 
    0.89034E+05        -0.10326E+03         0.00000E+00
   -0.10326E+03        -0.91084E+06         0.00000E+00
    0.00000E+00         0.00000E+00        -0.16436E+06
 
    0.88939E+05        -0.96991E+02         0.00000E+00
   -0.96991E+02        -0.91085E+06         0.00000E+00
    0.00000E+00         0.00000E+00        -0.16438E+06
 
    0.88858E+05        -0.87516E+02         0.00000E+00
   -0.87516E+02        -0.91085E+06         0.00000E+00
    0.00000E+00         0.00000E+00        -0.16440E+06
 
    0.88791E+05        -0.75321E+02         0.00000E+00
   -0.75321E+02        -0.91086E+06         0.00000E+00
    0.00000E+00         0.00000E+00        -0.16441E+06
 
    0.88737E+05        -0.60897E+02         0.00000E+00
   -0.60897E+02        -0.91086E+06         0.00000E+00
    0.00000E+00         0.00000E+00        -0.16443E+06
 
    0.88697E+05        -0.44738E+02         0.00000E+00
   -0.44738E+02        -0.91086E+06         0.00000E+00
    0.00000E+00         0.00000E+00        -0.16443E+06
 
    0.88671E+05        -0.27339E+02         0.00000E+00
   -0.27339E+02        -0.91087E+06         0.00000E+00
    0.00000E+00         0.00000E+00        -0.16444E+06
 
    0.88657E+05        -0.91958E+01         0.00000E+00
   -0.91958E+01        -0.91087E+06         0.00000E+00
    0.00000E+00         0.00000E+00        -0.16444E+06
 
    0.84177E+05        -0.18768E+02         0.00000E+00
   -0.18768E+02        -0.91670E+06         0.00000E+00
    0.00000E+00         0.00000E+00        -0.16650E+06
 
    0.83986E+05        -0.50025E+02         0.00000E+00
   -0.50025E+02        -0.91670E+06         0.00000E+00
    0.00000E+00         0.00000E+00        -0.16654E+06
 
    0.83811E+05        -0.74409E+02         0.00000E+00
   -0.74409E+02        -0.91670E+06         0.00000E+00
    0.00000E+00         0.00000E+00        -0.16658E+06
 
    0.83651E+05        -0.92379E+02         0.00000E+00
   -0.92379E+02        -0.91671E+06         0.00000E+00
    0.00000E+00         0.00000E+00        -0.16661E+06
 
    0.83506E+05        -0.10441E+03         0.00000E+00
   -0.10441E+03        -0.91671E+06         0.00000E+00
    0.00000E+00         0.00000E+00        -0.16664E+06
 
    0.83376E+05        -0.11100E+03         0.00000E+00
   -0.11100E+03        -0.91672E+06         0.00000E+00
    0.00000E+00         0.00000E+00        -0.16667E+06
 
    0.83260E+05        -0.11265E+03         0.00000E+00
   -0.11265E+03        -0.91672E+06         0.00000E+00
    0.00000E+00         0.00000E+00        -0.16669E+06
 
    0.83157E+05        -0.10986E+03         0.00000E+00
   -0.10986E+03        -0.91673E+06         0.00000E+00
    0.00000E+00         0.00000E+00        -0.16671E+06
 
    0.83068E+05        -0.10315E+03         0.00000E+00
   -0.10315E+03        -0.91673E+06         0.00000E+00
    0.00000E+00         0.00000E+00        -0.16673E+06
 
    0.82992E+05        -0.93038E+02         0.00000E+00
   -0.93038E+02        -0.91674E+06         0.00000E+00
    0.00000E+00         0.00000E+00        -0.16675E+06
 
    0.82930E+05        -0.80050E+02         0.00000E+00
   -0.80050E+02        -0.91674E+06         0.00000E+00
    0.00000E+00         0.00000E+00        -0.16676E+06
 
    0.82880E+05        -0.64706E+02         0.00000E+00
   -0.64706E+02        -0.91675E+06         0.00000E+00
    0.00000E+00         0.00000E+00        -0.16677E+06
 
    0.82842E+05        -0.47528E+02         0.00000E+00
   -0.47528E+02        -0.91675E+06         0.00000E+00
    0.00000E+00         0.00000E+00        -0.16678E+06
 
    0.82817E+05        -0.29041E+02         0.00000E+00
   -0.29041E+02        -0.91675E+06         0.00000E+00
    0.00000E+00         0.00000E+00        -0.16679E+06
 
    0.82805E+05        -0.97676E+01         0.00000E+00
   -0.97676E+01        -0.91675E+06         0.00000E+00
    0.00000E+00         0.00000E+00        -0.16679E+06
 
    0.78181E+05        -0.20006E+02         0.00000E+00
   -0.20006E+02        -0.92263E+06         0.00000E+00
    0.00000E+00         0.00000E+00        -0.16889E+06
 
    0.78002E+05        -0.53274E+02         0.00000E+00
   -0.53274E+02        -0.92264E+06         0.00000E+00
    0.00000E+00         0.00000E+00        -0.16893E+06
 
    0.77838E+05        -0.79177E+02         0.00000E+00
   -0.79177E+02        -0.92264E+06         0.00000E+00
    0.00000E+00         0.00000E+00        -0.16896E+06
 
    0.77689E+05        -0.98222E+02         0.00000E+00
   -0.98222E+02        -0.92264E+06         0.00000E+00
    0.00000E+00         0.00000E+00        -0.16899E+06
 
    0.77554E+05        -0.11093E+03         0.00000E+00
   -0.11093E+03        -0.92265E+06         0.00000E+00
    0.00000E+00         0.00000E+00        -0.16902E+06
 
    0.77433E+05        -0.11785E+03         0.00000E+00
   -0.11785E+03        -0.92265E+06         0.00000E+00
    0.00000E+00         0.00000E+00        -0.16904E+06
 
    0.77325E+05        -0.11952E+03         0.00000E+00
   -0.11952E+03        -0.92266E+06         0.00000E+00
    0.00000E+00         0.00000E+00        -0.16907E+06
 
    0.77230E+05        -0.11650E+03         0.00000E+00
   -0.11650E+03        -0.92267E+06         0.00000E+00
    0.00000E+00         0.00000E+00        -0.16909E+06
 
    0.77147E+05        -0.10933E+03         0.00000E+00
   -0.10933E+03        -0.92267E+06         0.00000E+00
    0.00000E+00         0.00000E+00        -0.16910E+06
 
    0.77077E+05        -0.98573E+02         0.00000E+00
   -0.98573E+02        -0.92268E+06         0.00000E+00
    0.00000E+00         0.00000E+00        -0.16912E+06
 
    0.77018E+05        -0.84783E+02         0.00000E+00
   -0.84783E+02        -0.92268E+06         0.00000E+00
    0.00000E+00         0.00000E+00        -0.16913E+06
 
    0.76972E+05        -0.68512E+02         0.00000E+00
   -0.68512E+02        -0.92268E+06         0.00000E+00
    0.00000E+00         0.00000E+00        -0.16914E+06
 
    0.76937E+05        -0.50313E+02         0.00000E+00
   -0.50313E+02        -0.92269E+06         0.00000E+00
    0.00000E+00         0.00000E+00        -0.16915E+06
 
    0.76914E+05        -0.30738E+02         0.00000E+00
   -0.30738E+02        -0.92269E+06         0.00000E+00
    0.00000E+00         0.00000E+00        -0.16915E+06
 
    0.76903E+05        -0.10338E+02         0.00000E+00
   -0.10338E+02        -0.92269E+06         0.00000E+00
    0.00000E+00         0.00000E+00        -0.16916E+06
 
    0.72133E+05        -0.21273E+02         0.00000E+00
   -0.21273E+02        -0.92862E+06         0.00000E+00
    0.00000E+00         0.00000E+00        -0.17130E+06
 
    0.71967E+05        -0.56577E+02         0.00000E+00
   -0.56577E+02        -0.92862E+06         0.00000E+00
    0.00000E+00         0.00000E+00        -0.17133E+06
 
    0.71815E+05        -0.83992E+02         0.00000E+00
   -0.83992E+02        -0.92862E+06         0.00000E+00
    0.00000E+00         0.00000E+00        -0.17136E+06
 
    0.71678E+05        -0.10409E+03         0.00000E+00
   -0.10409E+03        -0.92863E+06         0.00000E+00
    0.00000E+00         0.00000E+00        -0.17139E+06
 
    0.71553E+05        -0.11745E+03         0.00000E+00
   -0.11745E+03        -0.92863E+06         0.00000E+00
    0.00000E+00         0.00000E+00        -0.17142E+06
 
    0.71441E+05        -0.12466E+03         0.00000E+00
   -0.12466E+03        -0.92864E+06         0.00000E+00
    0.00000E+00         0.00000E+00        -0.17144E+06
 
    0.71342E+05        -0.12633E+03         0.00000E+00
   -0.12633E+03        -0.92864E+06         0.00000E+00
    0.00000E+00         0.00000E+00        -0.17146E+06
 
    0.71254E+05        -0.12305E+03         0.00000E+00
   -0.12305E+03        -0.92865E+06         0.00000E+00
    0.00000E+00         0.00000E+00        -0.17148E+06
 
    0.71178E+05        -0.11541E+03         0.00000E+00
   -0.11541E+03        -0.92865E+06         0.00000E+00
    0.00000E+00         0.00000E+00        -0.17150E+06
 
    0.71113E+05        -0.10400E+03         0.00000E+00
   -0.10400E+03        -0.92866E+06         0.00000E+00
    0.00000E+00         0.00000E+00        -0.17151E+06
 
    0.71060E+05        -0.89415E+02         0.00000E+00
   -0.89415E+02        -0.92866E+06         0.00000E+00
    0.00000E+00         0.00000E+00        -0.17152E+06
 
    0.71017E+05        -0.72232E+02         0.00000E+00
   -0.72232E+02        -0.92867E+06         0.00000E+00
    0.00000E+00         0.00000E+00        -0.17153E+06
 
    0.70985E+05        -0.53033E+02         0.00000E+00
   -0.53033E+02        -0.92867E+06         0.00000E+00
    0.00000E+00         0.00000E+00        -0.17154E+06
 
    0.70964E+05        -0.32394E+02         0.00000E+00
   -0.32394E+02        -0.92867E+06         0.00000E+00
    0.00000E+00         0.00000E+00        -0.17154E+06
 
    0.70954E+05        -0.10894E+02         0.00000E+00
   -0.10894E+02        -0.92867E+06         0.00000E+00
    0.00000E+00         0.00000E+00        -0.17154E+06
 
    0.66035E+05        -0.22548E+02         0.00000E+00
   -0.22548E+02        -0.93465E+06         0.00000E+00
    0.00000E+00         0.00000E+00        -0.17372E+06
 
    0.65883E+05        -0.59865E+02         0.00000E+00
   -0.59865E+02        -0.93465E+06         0.00000E+00
    0.00000E+00         0.00000E+00        -0.17375E+06
 
    0.65745E+05        -0.88742E+02         0.00000E+00
   -0.88742E+02        -0.93465E+06         0.00000E+00
    0.00000E+00         0.00000E+00        -0.17378E+06
 
    0.65619E+05        -0.10983E+03         0.00000E+00
   -0.10983E+03        -0.93466E+06         0.00000E+00
    0.00000E+00         0.00000E+00        -0.17381E+06
 
    0.65505E+05        -0.12377E+03         0.00000E+00
   -0.12377E+03        -0.93466E+06         0.00000E+00
    0.00000E+00         0.00000E+00        -0.17383E+06
 
    0.65404E+05        -0.13123E+03         0.00000E+00
   -0.13123E+03        -0.93467E+06         0.00000E+00
    0.00000E+00         0.00000E+00        -0.17385E+06
 
    0.65313E+05        -0.13287E+03         0.00000E+00
   -0.13287E+03        -0.93467E+06         0.00000E+00
    0.00000E+00         0.00000E+00        -0.17387E+06
 
    0.65233E+05        -0.12931E+03         0.00000E+00
   -0.12931E+03        -0.93468E+06         0.00000E+00
    0.00000E+00         0.00000E+00        -0.17389E+06
 
    0.65164E+05        -0.12120E+03         0.00000E+00
   -0.12120E+03        -0.93468E+06         0.00000E+00
    0.00000E+00         0.00000E+00        -0.17390E+06
 
    0.65106E+05        -0.10916E+03         0.00000E+00
   -0.10916E+03        -0.93469E+06         0.00000E+00
    0.00000E+00         0.00000E+00        -0.17392E+06
 
    0.65057E+05        -0.93806E+02         0.00000E+00
   -0.93806E+02        -0.93469E+06         0.00000E+00
    0.00000E+00         0.00000E+00        -0.17393E+06
 
    0.65019E+05        -0.75752E+02         0.00000E+00
   -0.75752E+02        -0.93469E+06         0.00000E+00
    0.00000E+00         0.00000E+00        -0.17394E+06
 
    0.64990E+05        -0.55602E+02         0.00000E+00
   -0.55602E+02        -0.93470E+06         0.00000E+00
    0.00000E+00         0.00000E+00        -0.17394E+06
 
    0.64971E+05        -0.33958E+02         0.00000E+00
   -0.33958E+02        -0.93470E+06         0.00000E+00
    0.00000E+00         0.00000E+00        -0.17395E+06
 
    0.64961E+05        -0.11419E+02         0.00000E+00
   -0.11419E+02        -0.93470E+06         0.00000E+00
    0.00000E+00         0.00000E+00        -0.17395E+06
 
    0.59891E+05        -0.23794E+02         0.00000E+00
   -0.23794E+02        -0.94072E+06         0.00000E+00
    0.00000E+00         0.00000E+00        -0.17617E+06
 
    0.59754E+05        -0.63025E+02         0.00000E+00
   -0.63025E+02        -0.94072E+06         0.00000E+00
    0.00000E+00         0.00000E+00        -0.17619E+06
 
    0.59630E+05        -0.93248E+02         0.00000E+00
   -0.93248E+02        -0.94073E+06         0.00000E+00
    0.00000E+00         0.00000E+00        -0.17622E+06
 
    0.59517E+05        -0.11521E+03         0.00000E+00
   -0.11521E+03        -0.94073E+06         0.00000E+00
    0.00000E+00         0.00000E+00        -0.17624E+06
 
    0.59415E+05        -0.12965E+03         0.00000E+00
   -0.12965E+03        -0.94074E+06         0.00000E+00
    0.00000E+00         0.00000E+00        -0.17626E+06
 
    0.59323E+05        -0.13729E+03         0.00000E+00
   -0.13729E+03        -0.94074E+06         0.00000E+00
    0.00000E+00         0.00000E+00        -0.17628E+06
 
    0.59242E+05        -0.13885E+03         0.00000E+00
   -0.13885E+03        -0.94074E+06         0.00000E+00
    0.00000E+00         0.00000E+00        -0.17630E+06
 
    0.59171E+05        -0.13501E+03         0.00000E+00
   -0.13501E+03        -0.94075E+06         0.00000E+00
    0.00000E+00         0.00000E+00        -0.17632E+06
 
    0.59109E+05        -0.12645E+03         0.00000E+00
   -0.12645E+03        -0.94075E+06         0.00000E+00
    0.00000E+00         0.00000E+00        -0.17633E+06
 
    0.59057E+05        -0.11382E+03         0.00000E+00
   -0.11382E+03        -0.94076E+06         0.00000E+00
    0.00000E+00         0.00000E+00        -0.17634E+06
 
    0.59014E+05        -0.97767E+02         0.00000E+00
   -0.97767E+02        -0.94076E+06         0.00000E+00
    0.00000E+00         0.00000E+00        -0.17635E+06
 
    0.58979E+05        -0.78923E+02         0.00000E+00
   -0.78923E+02        -0.94076E+06         0.00000E+00
    0.00000E+00         0.00000E+00        -0.17636E+06
 
    0.58954E+05        -0.57914E+02         0.00000E+00
   -0.57914E+02        -0.94076E+06         0.00000E+00
    0.00000E+00         0.00000E+00        -0.17636E+06
 
    0.58937E+05        -0.35364E+02         0.00000E+00
   -0.35364E+02        -0.94077E+06         0.00000E+00
    0.00000E+00         0.00000E+00        -0.17637E+06
 
    0.58928E+05        -0.11891E+02         0.00000E+00
   -0.11891E+02        -0.94077E+06         0.00000E+00
    0.00000E+00         0.00000E+00        -0.17637E+06
 
    0.53704E+05        -0.24950E+02         0.00000E+00
   -0.24950E+02        -0.94683E+06         0.00000E+00
    0.00000E+00         0.00000E+00        -0.17863E+06
 
    0.53584E+05        -0.65883E+02         0.00000E+00
   -0.65883E+02        -0.94683E+06         0.00000E+00
    0.00000E+00         0.00000E+00        -0.17865E+06
 
    0.53474E+05        -0.97239E+02         0.00000E+00
   -0.97239E+02        -0.94684E+06         0.00000E+00
    0.00000E+00         0.00000E+00        -0.17867E+06
 
    0.53375E+05        -0.11989E+03         0.00000E+00
   -0.11989E+03        -0.94684E+06         0.00000E+00
    0.00000E+00         0.00000E+00        -0.17869E+06
 
    0.53285E+05        -0.13468E+03         0.00000E+00
   -0.13468E+03        -0.94684E+06         0.00000E+00
    0.00000E+00         0.00000E+00        -0.17871E+06
 
    0.53204E+05        -0.14242E+03         0.00000E+00
   -0.14242E+03        -0.94685E+06         0.00000E+00
    0.00000E+00         0.00000E+00        -0.17873E+06
 
    0.53133E+05        -0.14388E+03         0.00000E+00
   -0.14388E+03        -0.94685E+06         0.00000E+00
    0.00000E+00         0.00000E+00        -0.17874E+06
 
    0.53070E+05        -0.13978E+03         0.00000E+00
   -0.13978E+03        -0.94686E+06         0.00000E+00
    0.00000E+00         0.00000E+00        -0.17876E+06
 
    0.53016E+05        -0.13083E+03         0.00000E+00
   -0.13083E+03        -0.94686E+06         0.00000E+00
    0.00000E+00         0.00000E+00        -0.17877E+06
 
    0.52970E+05        -0.11770E+03         0.00000E+00
   -0.11770E+03        -0.94686E+06         0.00000E+00
    0.00000E+00         0.00000E+00        -0.17878E+06
 
    0.52933E+05        -0.10106E+03         0.00000E+00
   -0.10106E+03        -0.94687E+06         0.00000E+00
    0.00000E+00         0.00000E+00        -0.17879E+06
 
    0.52903E+05        -0.81552E+02         0.00000E+00
   -0.81552E+02        -0.94687E+06         0.00000E+00
    0.00000E+00         0.00000E+00        -0.17879E+06
 
    0.52881E+05        -0.59829E+02         0.00000E+00
   -0.59829E+02        -0.94687E+06         0.00000E+00
    0.00000E+00         0.00000E+00        -0.17880E+06
 
    0.52866E+05        -0.36527E+02         0.00000E+00
   -0.36527E+02        -0.94687E+06         0.00000E+00
    0.00000E+00         0.00000E+00        -0.17880E+06
 
    0.52858E+05        -0.12281E+02         0.00000E+00
   -0.12281E+02        -0.94687E+06         0.00000E+00
    0.00000E+00         0.00000E+00        -0.17880E+06
 
    0.47480E+05        -0.25917E+02         0.00000E+00
   -0.25917E+02        -0.95298E+06         0.00000E+00
    0.00000E+00         0.00000E+00        -0.18110E+06
 
    0.47377E+05        -0.68165E+02         0.00000E+00
   -0.68165E+02        -0.95298E+06         0.00000E+00
    0.00000E+00         0.00000E+00        -0.18112E+06
 
    0.47283E+05        -0.10030E+03         0.00000E+00
   -0.10030E+03        -0.95298E+06         0.00000E+00
    0.00000E+00         0.00000E+00        -0.18114E+06
 
    0.47197E+05        -0.12338E+03         0.00000E+00
   -0.12338E+03        -0.95299E+06         0.00000E+00
    0.00000E+00         0.00000E+00        -0.18116E+06
 
    0.47119E+05        -0.13835E+03         0.00000E+00
   -0.13835E+03        -0.95299E+06         0.00000E+00
    0.00000E+00         0.00000E+00        -0.18117E+06
 
    0.47050E+05        -0.14610E+03         0.00000E+00
   -0.14610E+03        -0.95299E+06         0.00000E+00
    0.00000E+00         0.00000E+00        -0.18119E+06
 
    0.46989E+05        -0.14745E+03         0.00000E+00
   -0.14745E+03        -0.95300E+06         0.00000E+00
    0.00000E+00         0.00000E+00        -0.18120E+06
 
    0.46935E+05        -0.14315E+03         0.00000E+00
   -0.14315E+03        -0.95300E+06         0.00000E+00
    0.00000E+00         0.00000E+00        -0.18121E+06
 
    0.46888E+05        -0.13392E+03         0.00000E+00
   -0.13392E+03        -0.95300E+06         0.00000E+00
    0.00000E+00         0.00000E+00        -0.18122E+06
 
    0.46849E+05        -0.12043E+03         0.00000E+00
   -0.12043E+03        -0.95300E+06         0.00000E+00
    0.00000E+00         0.00000E+00        -0.18123E+06
 
    0.46817E+05        -0.10337E+03         0.00000E+00
   -0.10337E+03        -0.95300E+06         0.00000E+00
    0.00000E+00         0.00000E+00        -0.18124E+06
 
    0.46792E+05        -0.83398E+02         0.00000E+00
   -0.83398E+02        -0.95300E+06         0.00000E+00
    0.00000E+00         0.00000E+00        -0.18124E+06
 
    0.46773E+05        -0.61168E+02         0.00000E+00
   -0.61168E+02        -0.95300E+06         0.00000E+00
    0.00000E+00         0.00000E+00        -0.18125E+06
 
    0.46761E+05        -0.37340E+02         0.00000E+00
   -0.37340E+02        -0.95300E+06         0.00000E+00
    0.00000E+00         0.00000E+00        -0.18125E+06
 
    0.46755E+05        -0.12552E+02         0.00000E+00
   -0.12552E+02        -0.95300E+06         0.00000E+00
    0.00000E+00         0.00000E+00        -0.18125E+06
 
    0.41223E+05        -0.26542E+02         0.00000E+00
   -0.26542E+02        -0.95916E+06         0.00000E+00
    0.00000E+00         0.00000E+00        -0.18359E+06
 
    0.41138E+05        -0.69454E+02         0.00000E+00
   -0.69454E+02        -0.95916E+06         0.00000E+00
    0.00000E+00         0.00000E+00        -0.18360E+06
 
    0.41059E+05        -0.10184E+03         0.00000E+00
   -0.10184E+03        -0.95916E+06         0.00000E+00
    0.00000E+00         0.00000E+00        -0.18362E+06
 
    0.40987E+05        -0.12496E+03         0.00000E+00
   -0.12496E+03        -0.95916E+06         0.00000E+00
    0.00000E+00         0.00000E+00        -0.18363E+06
 
    0.40922E+05        -0.13989E+03         0.00000E+00
   -0.13989E+03        -0.95916E+06         0.00000E+00
    0.00000E+00         0.00000E+00        -0.18365E+06
 
    0.40864E+05        -0.14759E+03         0.00000E+00
   -0.14759E+03        -0.95917E+06         0.00000E+00
    0.00000E+00         0.00000E+00        -0.18366E+06
 
    0.40812E+05        -0.14888E+03         0.00000E+00
   -0.14888E+03        -0.95917E+06         0.00000E+00
    0.00000E+00         0.00000E+00        -0.18367E+06
 
    0.40767E+05        -0.14451E+03         0.00000E+00
   -0.14451E+03        -0.95917E+06         0.00000E+00
    0.00000E+00         0.00000E+00        -0.18368E+06
 
    0.40728E+05        -0.13519E+03         0.00000E+00
   -0.13519E+03        -0.95917E+06         0.00000E+00
    0.00000E+00         0.00000E+00        -0.18369E+06
 
    0.40697E+05        -0.12157E+03         0.00000E+00
   -0.12157E+03        -0.95917E+06         0.00000E+00
    0.00000E+00         0.00000E+00        -0.18369E+06
 
    0.40671E+05        -0.10433E+03         0.00000E+00
   -0.10433E+03        -0.95917E+06         0.00000E+00
    0.00000E+00         0.00000E+00        -0.18370E+06
 
    0.40651E+05        -0.84143E+02         0.00000E+00
   -0.84143E+02        -0.95917E+06         0.00000E+00
    0.00000E+00         0.00000E+00        -0.18370E+06
 
    0.40636E+05        -0.61705E+02         0.00000E+00
   -0.61705E+02        -0.95917E+06         0.00000E+00
    0.00000E+00         0.00000E+00        -0.18371E+06
 
    0.40626E+05        -0.37648E+02         0.00000E+00
   -0.37648E+02        -0.95917E+06         0.00000E+00
    0.00000E+00         0.00000E+00        -0.18371E+06
 
    0.40622E+05        -0.12658E+02         0.00000E+00
   -0.12658E+02        -0.95916E+06         0.00000E+00
    0.00000E+00         0.00000E+00        -0.18371E+06
 
    0.34940E+05        -0.26575E+02         0.00000E+00
   -0.26575E+02        -0.96536E+06         0.00000E+00
    0.00000E+00         0.00000E+00        -0.18608E+06
 
    0.34873E+05        -0.69131E+02         0.00000E+00
   -0.69131E+02        -0.96536E+06         0.00000E+00
    0.00000E+00         0.00000E+00        -0.18610E+06
 
    0.34810E+05        -0.10103E+03         0.00000E+00
   -0.10103E+03        -0.96536E+06         0.00000E+00
    0.00000E+00         0.00000E+00        -0.18611E+06
 
    0.34751E+05        -0.12367E+03         0.00000E+00
   -0.12367E+03        -0.96536E+06         0.00000E+00
    0.00000E+00         0.00000E+00        -0.18612E+06
 
    0.34697E+05        -0.13837E+03         0.00000E+00
   -0.13837E+03        -0.96536E+06         0.00000E+00
    0.00000E+00         0.00000E+00        -0.18613E+06
 
    0.34648E+05        -0.14597E+03         0.00000E+00
   -0.14597E+03        -0.96536E+06         0.00000E+00
    0.00000E+00         0.00000E+00        -0.18614E+06
 
    0.34606E+05        -0.14733E+03         0.00000E+00
   -0.14733E+03        -0.96536E+06         0.00000E+00
    0.00000E+00         0.00000E+00        -0.18615E+06
 
    0.34569E+05        -0.14313E+03         0.00000E+00
   -0.14313E+03        -0.96536E+06         0.00000E+00
    0.00000E+00         0.00000E+00        -0.18616E+06
 
    0.34539E+05        -0.13399E+03         0.00000E+00
   -0.13399E+03        -0.96536E+06         0.00000E+00
    0.00000E+00         0.00000E+00        -0.18616E+06
 
    0.34515E+05        -0.12054E+03         0.00000E+00
   -0.12054E+03        -0.96536E+06         0.00000E+00
    0.00000E+00         0.00000E+00        -0.18617E+06
 
    0.34496E+05        -0.10343E+03         0.00000E+00
   -0.10343E+03        -0.96536E+06         0.00000E+00
    0.00000E+00         0.00000E+00        -0.18617E+06
 
    0.34482E+05        -0.83409E+02         0.00000E+00
   -0.83409E+02        -0.96535E+06         0.00000E+00
    0.00000E+00         0.00000E+00        -0.18617E+06
 
    0.34472E+05        -0.61062E+02         0.00000E+00
   -0.61062E+02        -0.96535E+06         0.00000E+00
    0.00000E+00         0.00000E+00        -0.18618E+06
 
    0.34466E+05        -0.37275E+02         0.00000E+00
   -0.37275E+02        -0.96535E+06         0.00000E+00
    0.00000E+00         0.00000E+00        -0.18618E+06
 
    0.34463E+05        -0.12497E+02         0.00000E+00
   -0.12497E+02        -0.96534E+06         0.00000E+00
    0.00000E+00         0.00000E+00        -0.18618E+06
 
    0.28639E+05        -0.25649E+02         0.00000E+00
   -0.25649E+02        -0.97158E+06         0.00000E+00
    0.00000E+00         0.00000E+00        -0.18859E+06
 
    0.28589E+05        -0.66337E+02         0.00000E+00
   -0.66337E+02        -0.97158E+06         0.00000E+00
    0.00000E+00         0.00000E+00        -0.18860E+06
 
    0.28540E+05        -0.96564E+02         0.00000E+00
   -0.96564E+02        -0.97158E+06         0.00000E+00
    0.00000E+00         0.00000E+00        -0.18861E+06
 
    0.28492E+05        -0.11844E+03         0.00000E+00
   -0.11844E+03        -0.97158E+06         0.00000E+00
    0.00000E+00         0.00000E+00        -0.18862E+06
 
    0.28447E+05        -0.13255E+03         0.00000E+00
   -0.13255E+03        -0.97159E+06         0.00000E+00
    0.00000E+00         0.00000E+00        -0.18863E+06
 
    0.28407E+05        -0.14015E+03         0.00000E+00
   -0.14015E+03        -0.97159E+06         0.00000E+00
    0.00000E+00         0.00000E+00        -0.18864E+06
 
    0.28372E+05        -0.14182E+03         0.00000E+00
   -0.14182E+03        -0.97159E+06         0.00000E+00
    0.00000E+00         0.00000E+00        -0.18864E+06
 
    0.28344E+05        -0.13806E+03         0.00000E+00
   -0.13806E+03        -0.97158E+06         0.00000E+00
    0.00000E+00         0.00000E+00        -0.18865E+06
 
    0.28322E+05        -0.12946E+03         0.00000E+00
   -0.12946E+03        -0.97158E+06         0.00000E+00
    0.00000E+00         0.00000E+00        -0.18865E+06
 
    0.28307E+05        -0.11660E+03         0.00000E+00
   -0.11660E+03        -0.97157E+06         0.00000E+00
    0.00000E+00         0.00000E+00        -0.18865E+06
 
    0.28296E+05        -0.10004E+03         0.00000E+00
   -0.10004E+03        -0.97156E+06         0.00000E+00
    0.00000E+00         0.00000E+00        -0.18865E+06
 
    0.28289E+05        -0.80427E+02         0.00000E+00
   -0.80427E+02        -0.97155E+06         0.00000E+00
    0.00000E+00         0.00000E+00        -0.18865E+06
 
    0.28286E+05        -0.58990E+02         0.00000E+00
   -0.58990E+02        -0.97155E+06         0.00000E+00
    0.00000E+00         0.00000E+00        -0.18865E+06
 
    0.28284E+05        -0.35634E+02         0.00000E+00
   -0.35634E+02        -0.97154E+06         0.00000E+00
    0.00000E+00         0.00000E+00        -0.18865E+06
 
    0.28283E+05        -0.12120E+02         0.00000E+00
   -0.12120E+02        -0.97154E+06         0.00000E+00
    0.00000E+00         0.00000E+00        -0.18865E+06
 
    0.22332E+05        -0.23198E+02         0.00000E+00
   -0.23198E+02        -0.97781E+06         0.00000E+00
    0.00000E+00         0.00000E+00        -0.19110E+06
 
    0.22297E+05        -0.59431E+02         0.00000E+00
   -0.59431E+02        -0.97781E+06         0.00000E+00
    0.00000E+00         0.00000E+00        -0.19110E+06
 
    0.22256E+05        -0.88015E+02         0.00000E+00
   -0.88015E+02        -0.97782E+06         0.00000E+00
    0.00000E+00         0.00000E+00        -0.19111E+06
 
    0.22215E+05        -0.10731E+03         0.00000E+00
   -0.10731E+03        -0.97782E+06         0.00000E+00
    0.00000E+00         0.00000E+00        -0.19112E+06
 
    0.22175E+05        -0.12117E+03         0.00000E+00
   -0.12117E+03        -0.97783E+06         0.00000E+00
    0.00000E+00         0.00000E+00        -0.19113E+06
 
    0.22140E+05        -0.12914E+03         0.00000E+00
   -0.12914E+03        -0.97783E+06         0.00000E+00
    0.00000E+00         0.00000E+00        -0.19114E+06
 
    0.22112E+05        -0.13120E+03         0.00000E+00
   -0.13120E+03        -0.97783E+06         0.00000E+00
    0.00000E+00         0.00000E+00        -0.19114E+06
 
    0.22092E+05        -0.12793E+03         0.00000E+00
   -0.12793E+03        -0.97782E+06         0.00000E+00
    0.00000E+00         0.00000E+00        -0.19115E+06
 
    0.22078E+05        -0.12007E+03         0.00000E+00
   -0.12007E+03        -0.97781E+06         0.00000E+00
    0.00000E+00         0.00000E+00        -0.19115E+06
 
    0.22072E+05        -0.10832E+03         0.00000E+00
   -0.10832E+03        -0.97780E+06         0.00000E+00
    0.00000E+00         0.00000E+00        -0.19115E+06
 
    0.22071E+05        -0.93262E+02         0.00000E+00
   -0.93262E+02        -0.97778E+06         0.00000E+00
    0.00000E+00         0.00000E+00        -0.19114E+06
 
    0.22076E+05        -0.74960E+02         0.00000E+00
   -0.74960E+02        -0.97777E+06         0.00000E+00
    0.00000E+00         0.00000E+00        -0.19114E+06
 
    0.22081E+05        -0.53494E+02         0.00000E+00
   -0.53494E+02        -0.97775E+06         0.00000E+00
    0.00000E+00         0.00000E+00        -0.19113E+06
 
    0.22088E+05        -0.33464E+02         0.00000E+00
   -0.33464E+02        -0.97773E+06         0.00000E+00
    0.00000E+00         0.00000E+00        -0.19113E+06
 
    0.22090E+05        -0.10094E+02         0.00000E+00
   -0.10094E+02        -0.97773E+06         0.00000E+00
    0.00000E+00         0.00000E+00        -0.19113E+06
 
    0.16042E+05        -0.17456E+02         0.00000E+00
   -0.17456E+02        -0.98404E+06         0.00000E+00
    0.00000E+00         0.00000E+00        -0.19360E+06
 
    0.16009E+05        -0.51479E+02         0.00000E+00
   -0.51479E+02        -0.98405E+06         0.00000E+00
    0.00000E+00         0.00000E+00        -0.19361E+06
 
    0.15972E+05        -0.69466E+02         0.00000E+00
   -0.69466E+02        -0.98406E+06         0.00000E+00
    0.00000E+00         0.00000E+00        -0.19362E+06
 
    0.15919E+05        -0.89786E+02         0.00000E+00
   -0.89786E+02        -0.98408E+06         0.00000E+00
    0.00000E+00         0.00000E+00        -0.19363E+06
 
    0.15877E+05        -0.10437E+03         0.00000E+00
   -0.10437E+03        -0.98409E+06         0.00000E+00
    0.00000E+00         0.00000E+00        -0.19364E+06
 
    0.15846E+05        -0.11191E+03         0.00000E+00
   -0.11191E+03        -0.98410E+06         0.00000E+00
    0.00000E+00         0.00000E+00        -0.19365E+06
 
    0.15825E+05        -0.11356E+03         0.00000E+00
   -0.11356E+03        -0.98409E+06         0.00000E+00
    0.00000E+00         0.00000E+00        -0.19365E+06
 
    0.15811E+05        -0.11038E+03         0.00000E+00
   -0.11038E+03        -0.98408E+06         0.00000E+00
    0.00000E+00         0.00000E+00        -0.19365E+06
 
    0.15805E+05        -0.10325E+03         0.00000E+00
   -0.10325E+03        -0.98407E+06         0.00000E+00
    0.00000E+00         0.00000E+00        -0.19365E+06
 
    0.15807E+05        -0.92929E+02         0.00000E+00
   -0.92929E+02        -0.98404E+06         0.00000E+00
    0.00000E+00         0.00000E+00        -0.19365E+06
 
    0.15818E+05        -0.80246E+02         0.00000E+00
   -0.80246E+02        -0.98402E+06         0.00000E+00
    0.00000E+00         0.00000E+00        -0.19364E+06
 
    0.15840E+05        -0.65943E+02         0.00000E+00
   -0.65943E+02        -0.98398E+06         0.00000E+00
    0.00000E+00         0.00000E+00        -0.19363E+06
 
    0.15869E+05        -0.48550E+02         0.00000E+00
   -0.48550E+02        -0.98395E+06         0.00000E+00
    0.00000E+00         0.00000E+00        -0.19362E+06
 
    0.15881E+05        -0.22079E+02         0.00000E+00
   -0.22079E+02        -0.98393E+06         0.00000E+00
    0.00000E+00         0.00000E+00        -0.19361E+06
 
    0.15899E+05        -0.13073E+02         0.00000E+00
   -0.13073E+02        -0.98389E+06         0.00000E+00
    0.00000E+00         0.00000E+00        -0.19360E+06
 
    0.98043E+04        -0.21490E+02         0.00000E+00
   -0.21490E+02        -0.99022E+06         0.00000E+00
    0.00000E+00         0.00000E+00        -0.19608E+06
 
    0.97868E+04        -0.18428E+02         0.00000E+00
   -0.18428E+02        -0.99022E+06         0.00000E+00
    0.00000E+00         0.00000E+00        -0.19609E+06
 
    0.96604E+04        -0.50880E+02         0.00000E+00
   -0.50880E+02        -0.99033E+06         0.00000E+00
    0.00000E+00         0.00000E+00        -0.19613E+06
 
    0.95876E+04        -0.70655E+02         0.00000E+00
   -0.70655E+02        -0.99038E+06         0.00000E+00
    0.00000E+00         0.00000E+00        -0.19616E+06
 
    0.95482E+04        -0.80132E+02         0.00000E+00
   -0.80132E+02        -0.99040E+06         0.00000E+00
    0.00000E+00         0.00000E+00        -0.19617E+06
 
    0.95244E+04        -0.84121E+02         0.00000E+00
   -0.84121E+02        -0.99040E+06         0.00000E+00
    0.00000E+00         0.00000E+00        -0.19617E+06
 
    0.95102E+04        -0.84208E+02         0.00000E+00
   -0.84208E+02        -0.99038E+06         0.00000E+00
    0.00000E+00         0.00000E+00        -0.19617E+06
 
    0.95031E+04        -0.81099E+02         0.00000E+00
   -0.81099E+02        -0.99036E+06         0.00000E+00
    0.00000E+00         0.00000E+00        -0.19617E+06
 
    0.95023E+04        -0.75264E+02         0.00000E+00
   -0.75264E+02        -0.99034E+06         0.00000E+00
    0.00000E+00         0.00000E+00        -0.19617E+06
 
    0.95087E+04        -0.67121E+02         0.00000E+00
   -0.67121E+02        -0.99031E+06         0.00000E+00
    0.00000E+00         0.00000E+00        -0.19616E+06
 
    0.95248E+04        -0.57162E+02         0.00000E+00
   -0.57162E+02        -0.99027E+06         0.00000E+00
    0.00000E+00         0.00000E+00        -0.19615E+06
 
    0.95568E+04        -0.46381E+02         0.00000E+00
   -0.46381E+02        -0.99022E+06         0.00000E+00
    0.00000E+00         0.00000E+00        -0.19613E+06
 
    0.96221E+04        -0.37990E+02         0.00000E+00
   -0.37990E+02        -0.99015E+06         0.00000E+00
    0.00000E+00         0.00000E+00        -0.19611E+06
 
    0.97368E+04        -0.30699E+02         0.00000E+00
   -0.30699E+02        -0.99003E+06         0.00000E+00
    0.00000E+00         0.00000E+00        -0.19606E+06
 
    0.97240E+04         0.22942E+02         0.00000E+00
    0.22942E+02        -0.99002E+06         0.00000E+00
    0.00000E+00         0.00000E+00        -0.19606E+06
 
    0.39959E+04         0.13787E+01         0.00000E+00
    0.13787E+01        -0.99602E+06         0.00000E+00
    0.00000E+00         0.00000E+00        -0.19840E+06
 
    0.33971E+04        -0.33751E+02         0.00000E+00
   -0.33751E+02        -0.99669E+06         0.00000E+00
    0.00000E+00         0.00000E+00        -0.19866E+06
 
    0.32412E+04        -0.35043E+02         0.00000E+00
   -0.35043E+02        -0.99677E+06         0.00000E+00
    0.00000E+00         0.00000E+00        -0.19871E+06
 
    0.32052E+04        -0.34193E+02         0.00000E+00
   -0.34193E+02        -0.99678E+06         0.00000E+00
    0.00000E+00         0.00000E+00        -0.19871E+06
 
    0.31877E+04        -0.34792E+02         0.00000E+00
   -0.34792E+02        -0.99676E+06         0.00000E+00
    0.00000E+00         0.00000E+00        -0.19871E+06
 
    0.31784E+04        -0.35159E+02         0.00000E+00
   -0.35159E+02        -0.99673E+06         0.00000E+00
    0.00000E+00         0.00000E+00        -0.19871E+06
 
    0.31733E+04        -0.34640E+02         0.00000E+00
   -0.34640E+02        -0.99669E+06         0.00000E+00
    0.00000E+00         0.00000E+00        -0.19870E+06
 
    0.31712E+04        -0.33092E+02         0.00000E+00
   -0.33092E+02        -0.99666E+06         0.00000E+00
    0.00000E+00         0.00000E+00        -0.19870E+06
 
    0.31718E+04        -0.30564E+02         0.00000E+00
   -0.30564E+02        -0.99662E+06         0.00000E+00
    0.00000E+00         0.00000E+00        -0.19869E+06
 
    0.31753E+04        -0.27143E+02         0.00000E+00
   -0.27143E+02        -0.99659E+06         0.00000E+00
    0.00000E+00         0.00000E+00        -0.19868E+06
 
    0.31834E+04        -0.22847E+02         0.00000E+00
   -0.22847E+02        -0.99655E+06         0.00000E+00
    0.00000E+00         0.00000E+00        -0.19867E+06
 
    0.32002E+04        -0.17448E+02         0.00000E+00
   -0.17448E+02        -0.99651E+06         0.00000E+00
    0.00000E+00         0.00000E+00        -0.19866E+06
 
    0.32365E+04        -0.10189E+02         0.00000E+00
   -0.10189E+02        -0.99645E+06         0.00000E+00
    0.00000E+00         0.00000E+00        -0.19864E+06
 
    0.33927E+04        -0.58250E+01         0.00000E+00
   -0.58250E+01        -0.99634E+06         0.00000E+00
    0.00000E+00         0.00000E+00        -0.19859E+06
 
    0.39662E+04        -0.30614E+02         0.00000E+00
   -0.30614E+02        -0.99564E+06         0.00000E+00
    0.00000E+00         0.00000E+00        -0.19834E+06
 
TENSORS stresstot double 
    0.96957E+03         0.31435E+03         0.00000E+00
    0.31435E+03        -0.99992E+06         0.00000E+00
    0.00000E+00         0.00000E+00        -0.38698E+06
 
    0.13297E+04        -0.11473E+03         0.00000E+00
   -0.11473E+03        -0.99983E+06         0.00000E+00
    0.00000E+00         0.00000E+00        -0.38689E+06
 
    0.89002E+03        -0.76663E+02         0.00000E+00
   -0.76663E+02        -0.99987E+06         0.00000E+00
    0.00000E+00         0.00000E+00        -0.38699E+06
 
    0.60555E+03        -0.39519E+02         0.00000E+00
   -0.39519E+02        -0.99991E+06         0.00000E+00
    0.00000E+00         0.00000E+00        -0.38705E+06
 
    0.36861E+03        -0.21742E+02         0.00000E+00
   -0.21742E+02        -0.99993E+06         0.00000E+00
    0.00000E+00         0.00000E+00        -0.38710E+06
 
    0.16037E+03        -0.12949E+02         0.00000E+00
   -0.12949E+02        -0.99995E+06         0.00000E+00
    0.00000E+00         0.00000E+00        -0.38715E+06
 
   -0.24657E+02        -0.83282E+01         0.00000E+00
   -0.83282E+01        -0.99996E+06         0.00000E+00
    0.00000E+00         0.00000E+00        -0.38719E+06
 
   -0.18840E+03        -0.57821E+01         0.00000E+00
   -0.57821E+01        -0.99996E+06         0.00000E+00
    0.00000E+00         0.00000E+00        -0.38722E+06
 
   -0.33173E+03        -0.44079E+01         0.00000E+00
   -0.44079E+01        -0.99997E+06         0.00000E+00
    0.00000E+00         0.00000E+00        -0.38725E+06
 
   -0.45527E+03        -0.38615E+01         0.00000E+00
   -0.38615E+01        -0.99997E+06         0.00000E+00
    0.00000E+00         0.00000E+00        -0.38728E+06
 
   -0.55989E+03        -0.41680E+01         0.00000E+00
   -0.41680E+01        -0.99998E+06         0.00000E+00
    0.00000E+00         0.00000E+00        -0.38730E+06
 
   -0.64763E+03        -0.57374E+01         0.00000E+00
   -0.57374E+01        -0.99998E+06         0.00000E+00
    0.00000E+00         0.00000E+00        -0.38732E+06
 
   -0.72482E+03        -0.92259E+01         0.00000E+00
   -0.92259E+01        -0.99998E+06         0.00000E+00
    0.00000E+00         0.00000E+00        -0.38733E+06
 
   -0.82768E+03         0.31424E+00         0.00000E+00
    0.31424E+00        -0.99998E+06         0.00000E+00
    0.00000E+00         0.00000E+00        -0.38735E+06
 
   -0.56371E+03         0.20129E+03         0.00000E+00
    0.20129E+03        -0.99992E+06         0.00000E+00
    0.00000E+00         0.00000E+00        -0.38729E+06
 
    0.11663E+04         0.90453E+02         0.00000E+00
    0.90453E+02        -0.10001E+07         0.00000E+00
    0.00000E+00         0.00000E+00        -0.38693E+06
 
    0.10622E+04         0.89901E+02         0.00000E+00
    0.89901E+02        -0.10001E+07         0.00000E+00
    0.00000E+00         0.00000E+00        -0.38696E+06
 
    0.89149E+03        -0.10300E+02         0.00000E+00
   -0.10300E+02        -0.10000E+07         0.00000E+00
    0.00000E+00         0.00000E+00        -0.38698E+06
 
    0.62482E+03        -0.28935E+02         0.00000E+00
   -0.28935E+02        -0.10000E+07         0.00000E+00
    0.00000E+00         0.00000E+00        -0.38702E+06
 
    0.38412E+03        -0.26307E+02         0.00000E+00
   -0.26307E+02        -0.99998E+06         0.00000E+00
    0.00000E+00         0.00000E+00        -0.38707E+06
 
    0.17084E+03        -0.20467E+02         0.00000E+00
   -0.20467E+02        -0.99997E+06         0.00000E+00
    0.00000E+00         0.00000E+00        -0.38711E+06
 
   -0.17836E+02        -0.15364E+02         0.00000E+00
   -0.15364E+02        -0.99997E+06         0.00000E+00
    0.00000E+00         0.00000E+00        -0.38715E+06
 
   -0.18400E+03        -0.11561E+02         0.00000E+00
   -0.11561E+02        -0.99997E+06         0.00000E+00
    0.00000E+00         0.00000E+00        -0.38718E+06
 
   -0.32895E+03        -0.88406E+01         0.00000E+00
   -0.88406E+01        -0.99997E+06         0.00000E+00
    0.00000E+00         0.00000E+00        -0.38721E+06
 
   -0.45353E+03        -0.67971E+01         0.00000E+00
   -0.67971E+01        -0.99997E+06         0.00000E+00
    0.00000E+00         0.00000E+00        -0.38723E+06
 
   -0.55848E+03        -0.47454E+01         0.00000E+00
   -0.47454E+01        -0.99997E+06         0.00000E+00
    0.00000E+00         0.00000E+00        -0.38725E+06
 
   -0.64426E+03        -0.94302E+00         0.00000E+00
   -0.94302E+00        -0.99997E+06         0.00000E+00
    0.00000E+00         0.00000E+00        -0.38727E+06
 
   -0.70915E+03         0.10513E+02         0.00000E+00
    0.10513E+02        -0.99996E+06         0.00000E+00
    0.00000E+00         0.00000E+00        -0.38728E+06
 
   -0.70696E+03         0.45999E+02         0.00000E+00
    0.45999E+02        -0.99995E+06         0.00000E+00
    0.00000E+00         0.00000E+00        -0.38728E+06
 
   -0.69654E+03         0.15651E+02         0.00000E+00
    0.15651E+02        -0.10000E+07         0.00000E+00
    0.00000E+00         0.00000E+00        -0.38729E+06
 
    0.12764E+04         0.16401E+02         0.00000E+00
    0.16401E+02        -0.99999E+06         0.00000E+00
    0.00000E+00         0.00000E+00        -0.38680E+06
 
    0.10289E+04         0.47381E+02         0.00000E+00
    0.47381E+02        -0.10000E+07         0.00000E+00
    0.00000E+00         0.00000E+00        -0.38685E+06
 
    0.81665E+03         0.38895E+02         0.00000E+00
    0.38895E+02        -0.10000E+07         0.00000E+00
    0.00000E+00         0.00000E+00        -0.38690E+06
 
    0.60176E+03         0.11054E+02         0.00000E+00
    0.11054E+02        -0.10000E+07         0.00000E+00
    0.00000E+00         0.00000E+00        -0.38694E+06
 
    0.38026E+03        -0.30756E+01         0.00000E+00
   -0.30756E+01        -0.10000E+07         0.00000E+00
    0.00000E+00         0.00000E+00        -0.38698E+06
 
    0.17326E+03        -0.81382E+01         0.00000E+00
   -0.81382E+01        -0.10000E+07         0.00000E+00
    0.00000E+00         0.00000E+00        -0.38702E+06
 
   -0.13910E+02        -0.89547E+01         0.00000E+00
   -0.89547E+01        -0.99999E+06         0.00000E+00
    0.00000E+00         0.00000E+00        -0.38706E+06
 
   -0.18007E+03        -0.79794E+01         0.00000E+00
   -0.79794E+01        -0.99998E+06         0.00000E+00
    0.00000E+00         0.00000E+00        -0.38709E+06
 
   -0.32520E+03        -0.61959E+01         0.00000E+00
   -0.61959E+01        -0.99998E+06         0.00000E+00
    0.00000E+00         0.00000E+00        -0.38712E+06
 
   -0.44937E+03        -0.37496E+01         0.00000E+00
   -0.37496E+01        -0.99998E+06         0.00000E+00
    0.00000E+00         0.00000E+00        -0.38714E+06
 
   -0.55230E+03        -0.17252E+00         0.00000E+00
   -0.17252E+00        -0.99998E+06         0.00000E+00
    0.00000E+00         0.00000E+00        -0.38716E+06
 
   -0.63239E+03         0.55487E+01         0.00000E+00
    0.55487E+01        -0.99997E+06         0.00000E+00
    0.00000E+00         0.00000E+00        -0.38718E+06
 
   -0.68336E+03         0.13644E+02         0.00000E+00
    0.13644E+02        -0.99997E+06         0.00000E+00
    0.00000E+00         0.00000E+00        -0.38719E+06
 
   -0.71371E+03         0.10661E+02         0.00000E+00
    0.10661E+02        -0.99999E+06         0.00000E+00
    0.00000E+00         0.00000E+00        -0.38720E+06
 
   -0.72696E+03         0.37635E+01         0.00000E+00
    0.37635E+01        -0.99999E+06         0.00000E+00
    0.00000E+00         0.00000E+00        -0.38720E+06
 
    0.13154E+04         0.83530E+01         0.00000E+00
    0.83530E+01        -0.99999E+06         0.00000E+00
    0.00000E+00         0.00000E+00        -0.38666E+06
 
    0.10458E+04         0.19883E+02         0.00000E+00
    0.19883E+02        -0.10000E+07         0.00000E+00
    0.00000E+00         0.00000E+00        -0.38671E+06
 
    0.80187E+03         0.24663E+02         0.00000E+00
    0.24663E+02        -0.10000E+07         0.00000E+00
    0.00000E+00         0.00000E+00        -0.38676E+06
 
    0.57710E+03         0.20384E+02         0.00000E+00
    0.20384E+02        -0.10000E+07         0.00000E+00
    0.00000E+00         0.00000E+00        -0.38681E+06
 
    0.36555E+03         0.11435E+02         0.00000E+00
    0.11435E+02        -0.10000E+07         0.00000E+00
    0.00000E+00         0.00000E+00        -0.38685E+06
 
    0.16648E+03         0.47090E+01         0.00000E+00
    0.47090E+01        -0.10000E+07         0.00000E+00
    0.00000E+00         0.00000E+00        -0.38689E+06
 
   -0.15969E+02         0.95415E+00         0.00000E+00
    0.95415E+00        -0.10000E+07         0.00000E+00
    0.00000E+00         0.00000E+00        -0.38693E+06
 
   -0.17947E+03        -0.53423E+00         0.00000E+00
   -0.53423E+00        -0.99999E+06         0.00000E+00
    0.00000E+00         0.00000E+00        -0.38696E+06
 
   -0.32285E+03        -0.44300E+00         0.00000E+00
   -0.44300E+00        -0.99999E+06         0.00000E+00
    0.00000E+00         0.00000E+00        -0.38699E+06
 
   -0.44541E+03         0.82140E+00         0.00000E+00
    0.82140E+00        -0.99999E+06         0.00000E+00
    0.00000E+00         0.00000E+00        -0.38701E+06
 
   -0.54642E+03         0.29969E+01         0.00000E+00
    0.29969E+01        -0.99998E+06         0.00000E+00
    0.00000E+00         0.00000E+00        -0.38703E+06
 
   -0.62489E+03         0.54470E+01         0.00000E+00
    0.54470E+01        -0.99998E+06         0.00000E+00
    0.00000E+00         0.00000E+00        -0.38705E+06
 
   -0.68214E+03         0.58544E+01         0.00000E+00
    0.58544E+01        -0.99999E+06         0.00000E+00
    0.00000E+00         0.00000E+00        -0.38706E+06
 
   -0.71873E+03         0.49288E+01         0.00000E+00
    0.49288E+01        -0.99999E+06         0.00000E+00
    0.00000E+00         0.00000E+00        -0.38707E+06
 
   -0.73641E+03         0.21486E+01         0.00000E+00
    0.21486E+01        -0.99999E+06         0.00000E+00
    0.00000E+00         0.00000E+00        -0.38707E+06
 
    0.13343E+04         0.43432E+01         0.00000E+00
    0.43432E+01        -0.99999E+06         0.00000E+00
    0.00000E+00         0.00000E+00        -0.38648E+06
 
    0.10575E+04         0.11788E+02         0.00000E+00
    0.11788E+02        -0.99999E+06         0.00000E+00
    0.00000E+00         0.00000E+00        -0.38653E+06
 
    0.80388E+03         0.15758E+02         0.00000E+00
    0.15758E+02        -0.10000E+07         0.00000E+00
    0.00000E+00         0.00000E+00        -0.38658E+06
 
    0.57083E+03         0.16262E+02         0.00000E+00
    0.16262E+02        -0.10000E+07         0.00000E+00
    0.00000E+00         0.00000E+00        -0.38663E+06
 
    0.35632E+03         0.14049E+02         0.00000E+00
    0.14049E+02        -0.10000E+07         0.00000E+00
    0.00000E+00         0.00000E+00        -0.38667E+06
 
    0.15927E+03         0.10553E+02         0.00000E+00
    0.10553E+02        -0.10000E+07         0.00000E+00
    0.00000E+00         0.00000E+00        -0.38671E+06
 
   -0.20296E+02         0.74980E+01         0.00000E+00
    0.74980E+01        -0.10000E+07         0.00000E+00
    0.00000E+00         0.00000E+00        -0.38675E+06
 
   -0.18129E+03         0.54803E+01         0.00000E+00
    0.54803E+01        -0.99999E+06         0.00000E+00
    0.00000E+00         0.00000E+00        -0.38678E+06
 
   -0.32274E+03         0.45067E+01         0.00000E+00
    0.45067E+01        -0.99999E+06         0.00000E+00
    0.00000E+00         0.00000E+00        -0.38681E+06
 
   -0.44390E+03         0.43419E+01         0.00000E+00
    0.43419E+01        -0.99999E+06         0.00000E+00
    0.00000E+00         0.00000E+00        -0.38683E+06
 
   -0.54429E+03         0.45801E+01         0.00000E+00
    0.45801E+01        -0.99999E+06         0.00000E+00
    0.00000E+00         0.00000E+00        -0.38685E+06
 
   -0.62393E+03         0.46002E+01         0.00000E+00
    0.46002E+01        -0.99999E+06         0.00000E+00
    0.00000E+00         0.00000E+00        -0.38687E+06
 
   -0.68289E+03         0.42058E+01         0.00000E+00
    0.42058E+01        -0.99999E+06         0.00000E+00
    0.00000E+00         0.00000E+00        -0.38688E+06
 
   -0.72176E+03         0.29690E+01         0.00000E+00
    0.29690E+01        -0.99999E+06         0.00000E+00
    0.00000E+00         0.00000E+00        -0.38689E+06
 
   -0.74102E+03         0.10195E+01         0.00000E+00
    0.10195E+01        -0.99999E+06         0.00000E+00
    0.00000E+00         0.00000E+00        -0.38689E+06
 
    0.13456E+04         0.28478E+01         0.00000E+00
    0.28478E+01        -0.99999E+06         0.00000E+00
    0.00000E+00         0.00000E+00        -0.38625E+06
 
    0.10659E+04         0.78140E+01         0.00000E+00
    0.78140E+01        -0.99999E+06         0.00000E+00
    0.00000E+00         0.00000E+00        -0.38631E+06
 
    0.80789E+03         0.11301E+02         0.00000E+00
    0.11301E+02        -0.99999E+06         0.00000E+00
    0.00000E+00         0.00000E+00        -0.38636E+06
 
    0.57073E+03         0.12921E+02         0.00000E+00
    0.12921E+02        -0.99999E+06         0.00000E+00
    0.00000E+00         0.00000E+00        -0.38641E+06
 
    0.35343E+03         0.12901E+02         0.00000E+00
    0.12901E+02        -0.10000E+07         0.00000E+00
    0.00000E+00         0.00000E+00        -0.38645E+06
 
    0.15533E+03         0.11795E+02         0.00000E+00
    0.11795E+02        -0.10000E+07         0.00000E+00
    0.00000E+00         0.00000E+00        -0.38649E+06
 
   -0.23758E+02         0.10201E+02         0.00000E+00
    0.10201E+02        -0.10000E+07         0.00000E+00
    0.00000E+00         0.00000E+00        -0.38653E+06
 
   -0.18371E+03         0.86643E+01         0.00000E+00
    0.86643E+01        -0.99999E+06         0.00000E+00
    0.00000E+00         0.00000E+00        -0.38656E+06
 
   -0.32411E+03         0.74304E+01         0.00000E+00
    0.74304E+01        -0.99999E+06         0.00000E+00
    0.00000E+00         0.00000E+00        -0.38659E+06
 
   -0.44458E+03         0.64933E+01         0.00000E+00
    0.64933E+01        -0.99999E+06         0.00000E+00
    0.00000E+00         0.00000E+00        -0.38661E+06
 
   -0.54486E+03         0.56916E+01         0.00000E+00
    0.56916E+01        -0.99999E+06         0.00000E+00
    0.00000E+00         0.00000E+00        -0.38663E+06
 
   -0.62484E+03         0.48594E+01         0.00000E+00
    0.48594E+01        -0.99999E+06         0.00000E+00
    0.00000E+00         0.00000E+00        -0.38665E+06
 
   -0.68461E+03         0.37872E+01         0.00000E+00
    0.37872E+01        -0.99999E+06         0.00000E+00
    0.00000E+00         0.00000E+00        -0.38666E+06
 
   -0.72430E+03         0.24325E+01         0.00000E+00
    0.24325E+01        -0.99999E+06         0.00000E+00
    0.00000E+00         0.00000E+00        -0.38667E+06
 
   -0.74408E+03         0.85321E+00         0.00000E+00
    0.85321E+00        -0.99999E+06         0.00000E+00
    0.00000E+00         0.00000E+00        -0.38667E+06
 
    0.13535E+04         0.21314E+01         0.00000E+00
    0.21314E+01        -0.99999E+06         0.00000E+00
    0.00000E+00         0.00000E+00        -0.38598E+06
 
    0.10722E+04         0.59161E+01         0.00000E+00
    0.59161E+01        -0.99999E+06         0.00000E+00
    0.00000E+00         0.00000E+00        -0.38604E+06
 
    0.81201E+03         0.88208E+01         0.00000E+00
    0.88208E+01        -0.99999E+06         0.00000E+00
    0.00000E+00         0.00000E+00        -0.38609E+06
 
    0.57250E+03         0.10669E+02         0.00000E+00
    0.10669E+02        -0.99999E+06         0.00000E+00
    0.00000E+00         0.00000E+00        -0.38614E+06
 
    0.35324E+03         0.11468E+02         0.00000E+00
    0.11468E+02        -0.99999E+06         0.00000E+00
    0.00000E+00         0.00000E+00        -0.38618E+06
 
    0.15389E+03         0.11405E+02         0.00000E+00
    0.11405E+02        -0.99999E+06         0.00000E+00
    0.00000E+00         0.00000E+00        -0.38622E+06
 
   -0.25760E+02         0.10761E+02         0.00000E+00
    0.10761E+02        -0.99999E+06         0.00000E+00
    0.00000E+00         0.00000E+00        -0.38626E+06
 
   -0.18573E+03         0.97962E+01         0.00000E+00
    0.97962E+01        -0.99999E+06         0.00000E+00
    0.00000E+00         0.00000E+00        -0.38629E+06
 
   -0.32594E+03         0.87070E+01         0.00000E+00
    0.87070E+01        -0.99999E+06         0.00000E+00
    0.00000E+00         0.00000E+00        -0.38632E+06
 
   -0.44625E+03         0.75814E+01         0.00000E+00
    0.75814E+01        -0.99999E+06         0.00000E+00
    0.00000E+00         0.00000E+00        -0.38634E+06
 
   -0.54653E+03         0.64264E+01         0.00000E+00
    0.64264E+01        -0.99999E+06         0.00000E+00
    0.00000E+00         0.00000E+00        -0.38636E+06
 
   -0.62672E+03         0.51943E+01         0.00000E+00
    0.51943E+01        -0.99999E+06         0.00000E+00
    0.00000E+00         0.00000E+00        -0.38638E+06
 
   -0.68679E+03         0.38509E+01         0.00000E+00
    0.38509E+01        -0.99999E+06         0.00000E+00
    0.00000E+00         0.00000E+00        -0.38639E+06
 
   -0.72680E+03         0.23791E+01         0.00000E+00
    0.23791E+01        -0.99999E+06         0.00000E+00
    0.00000E+00         0.00000E+00        -0.38640E+06
 
   -0.74679E+03         0.80338E+00         0.00000E+00
    0.80338E+00        -0.99999E+06         0.00000E+00
    0.00000E+00         0.00000E+00        -0.38640E+06
 
    0.13597E+04         0.17648E+01         0.00000E+00
    0.17648E+01        -0.99999E+06         0.00000E+00
    0.00000E+00         0.00000E+00        -0.38567E+06
 
    0.10774E+04         0.48911E+01         0.00000E+00
    0.48911E+01        -0.99999E+06         0.00000E+00
    0.00000E+00         0.00000E+00        -0.38572E+06
 
    0.81579E+03         0.74010E+01         0.00000E+00
    0.74010E+01        -0.99999E+06         0.00000E+00
    0.00000E+00         0.00000E+00        -0.38578E+06
 
    0.57478E+03         0.91907E+01         0.00000E+00
    0.91907E+01        -0.99999E+06         0.00000E+00
    0.00000E+00         0.00000E+00        -0.38582E+06
 
    0.35414E+03         0.10246E+02         0.00000E+00
    0.10246E+02        -0.99999E+06         0.00000E+00
    0.00000E+00         0.00000E+00        -0.38587E+06
 
    0.15367E+03         0.10630E+02         0.00000E+00
    0.10630E+02        -0.99999E+06         0.00000E+00
    0.00000E+00         0.00000E+00        -0.38591E+06
 
   -0.26753E+02         0.10464E+02         0.00000E+00
    0.10464E+02        -0.99999E+06         0.00000E+00
    0.00000E+00         0.00000E+00        -0.38594E+06
 
   -0.18720E+03         0.98868E+01         0.00000E+00
    0.98868E+01        -0.99999E+06         0.00000E+00
    0.00000E+00         0.00000E+00        -0.38598E+06
 
   -0.32768E+03         0.90190E+01         0.00000E+00
    0.90190E+01        -0.99999E+06         0.00000E+00
    0.00000E+00         0.00000E+00        -0.38600E+06
 
   -0.44816E+03         0.79506E+01         0.00000E+00
    0.79506E+01        -0.99999E+06         0.00000E+00
    0.00000E+00         0.00000E+00        -0.38603E+06
 
   -0.54860E+03         0.67329E+01         0.00000E+00
    0.67329E+01        -0.99999E+06         0.00000E+00
    0.00000E+00         0.00000E+00        -0.38605E+06
 
   -0.62895E+03         0.53930E+01         0.00000E+00
    0.53930E+01        -0.99999E+06         0.00000E+00
    0.00000E+00         0.00000E+00        -0.38607E+06
 
   -0.68921E+03         0.39448E+01         0.00000E+00
    0.39448E+01        -0.99999E+06         0.00000E+00
    0.00000E+00         0.00000E+00        -0.38608E+06
 
   -0.72938E+03         0.24072E+01         0.00000E+00
    0.24072E+01        -0.99999E+06         0.00000E+00
    0.00000E+00         0.00000E+00        -0.38609E+06
 
   -0.74946E+03         0.81000E+00         0.00000E+00
    0.81000E+00        -0.99999E+06         0.00000E+00
    0.00000E+00         0.00000E+00        -0.38609E+06
 
    0.13649E+04         0.15578E+01         0.00000E+00
    0.15578E+01        -0.99999E+06         0.00000E+00
    0.00000E+00         0.00000E+00        -0.38531E+06
 
    0.10818E+04         0.42991E+01         0.00000E+00
    0.42991E+01        -0.99999E+06         0.00000E+00
    0.00000E+00         0.00000E+00        -0.38536E+06
 
    0.81922E+03         0.65332E+01         0.00000E+00
    0.65332E+01        -0.99999E+06         0.00000E+00
    0.00000E+00         0.00000E+00        -0.38542E+06
 
    0.57712E+03         0.82074E+01         0.00000E+00
    0.82074E+01        -0.99999E+06         0.00000E+00
    0.00000E+00         0.00000E+00        -0.38546E+06
 
    0.35542E+03         0.93069E+01         0.00000E+00
    0.93069E+01        -0.99999E+06         0.00000E+00
    0.00000E+00         0.00000E+00        -0.38551E+06
 
    0.15401E+03         0.98578E+01         0.00000E+00
    0.98578E+01        -0.99999E+06         0.00000E+00
    0.00000E+00         0.00000E+00        -0.38555E+06
 
   -0.27193E+02         0.99179E+01         0.00000E+00
    0.99179E+01        -0.99999E+06         0.00000E+00
    0.00000E+00         0.00000E+00        -0.38559E+06
 
   -0.18825E+03         0.95622E+01         0.00000E+00
    0.95622E+01        -0.99999E+06         0.00000E+00
    0.00000E+00         0.00000E+00        -0.38562E+06
 
   -0.32918E+03         0.88696E+01         0.00000E+00
    0.88696E+01        -0.99999E+06         0.00000E+00
    0.00000E+00         0.00000E+00        -0.38565E+06
 
   -0.45001E+03         0.79105E+01         0.00000E+00
    0.79105E+01        -0.99999E+06         0.00000E+00
    0.00000E+00         0.00000E+00        -0.38567E+06
 
   -0.55071E+03         0.67430E+01         0.00000E+00
    0.67430E+01        -0.99999E+06         0.00000E+00
    0.00000E+00         0.00000E+00        -0.38569E+06
 
   -0.63128E+03         0.54126E+01         0.00000E+00
    0.54126E+01        -0.99999E+06         0.00000E+00
    0.00000E+00         0.00000E+00        -0.38571E+06
 
   -0.69171E+03         0.39572E+01         0.00000E+00
    0.39572E+01        -0.99999E+06         0.00000E+00
    0.00000E+00         0.00000E+00        -0.38572E+06
 
   -0.73200E+03         0.24114E+01         0.00000E+00
    0.24114E+01        -0.99999E+06         0.00000E+00
    0.00000E+00         0.00000E+00        -0.38573E+06
 
   -0.75215E+03         0.80995E+00         0.00000E+00
    0.80995E+00        -0.99999E+06         0.00000E+00
    0.00000E+00         0.00000E+00        -0.38573E+06
 
    0.13696E+04         0.14341E+01         0.00000E+00
    0.14341E+01        -0.99999E+06         0.00000E+00
    0.00000E+00         0.00000E+00        -0.38490E+06
 
    0.10858E+04         0.39370E+01         0.00000E+00
    0.39370E+01        -0.99999E+06         0.00000E+00
    0.00000E+00         0.00000E+00        -0.38496E+06
 
    0.82235E+03         0.59817E+01         0.00000E+00
    0.59817E+01        -0.99999E+06         0.00000E+00
    0.00000E+00         0.00000E+00        -0.38501E+06
 
    0.57938E+03         0.75428E+01         0.00000E+00
    0.75428E+01        -0.99999E+06         0.00000E+00
    0.00000E+00         0.00000E+00        -0.38506E+06
 
    0.35680E+03         0.86144E+01         0.00000E+00
    0.86144E+01        -0.99999E+06         0.00000E+00
    0.00000E+00         0.00000E+00        -0.38511E+06
 
    0.15458E+03         0.92112E+01         0.00000E+00
    0.92112E+01        -0.99999E+06         0.00000E+00
    0.00000E+00         0.00000E+00        -0.38515E+06
 
   -0.27356E+02         0.93671E+01         0.00000E+00
    0.93671E+01        -0.99999E+06         0.00000E+00
    0.00000E+00         0.00000E+00        -0.38518E+06
 
   -0.18903E+03         0.91291E+01         0.00000E+00
    0.91291E+01        -0.99999E+06         0.00000E+00
    0.00000E+00         0.00000E+00        -0.38522E+06
 
   -0.33048E+03         0.85512E+01         0.00000E+00
    0.85512E+01        -0.99999E+06         0.00000E+00
    0.00000E+00         0.00000E+00        -0.38524E+06
 
   -0.45171E+03         0.76886E+01         0.00000E+00
    0.76886E+01        -0.99999E+06         0.00000E+00
    0.00000E+00         0.00000E+00        -0.38527E+06
 
   -0.55274E+03         0.65934E+01         0.00000E+00
    0.65934E+01        -0.99999E+06         0.00000E+00
    0.00000E+00         0.00000E+00        -0.38529E+06
 
   -0.63357E+03         0.53140E+01         0.00000E+00
    0.53140E+01        -0.99999E+06         0.00000E+00
    0.00000E+00         0.00000E+00        -0.38530E+06
 
   -0.69419E+03         0.38944E+01         0.00000E+00
    0.38944E+01        -0.99999E+06         0.00000E+00
    0.00000E+00         0.00000E+00        -0.38532E+06
 
   -0.73461E+03         0.23759E+01         0.00000E+00
    0.23759E+01        -0.99999E+06         0.00000E+00
    0.00000E+00         0.00000E+00        -0.38533E+06
 
   -0.75482E+03         0.79853E+00         0.00000E+00
    0.79853E+00        -0.99999E+06         0.00000E+00
    0.00000E+00         0.00000E+00        -0.38533E+06
 
    0.13740E+04         0.13592E+01         0.00000E+00
    0.13592E+01        -0.99999E+06         0.00000E+00
    0.00000E+00         0.00000E+00        -0.38445E+06
 
    0.10894E+04         0.37124E+01         0.00000E+00
    0.37124E+01        -0.99999E+06         0.00000E+00
    0.00000E+00         0.00000E+00        -0.38451E+06
 
    0.82526E+03         0.56278E+01         0.00000E+00
    0.56278E+01        -0.99999E+06         0.00000E+00
    0.00000E+00         0.00000E+00        -0.38456E+06
 
    0.58151E+03         0.70969E+01         0.00000E+00
    0.70969E+01        -0.99999E+06         0.00000E+00
    0.00000E+00         0.00000E+00        -0.38461E+06
 
    0.35817E+03         0.81216E+01         0.00000E+00
    0.81216E+01        -0.99999E+06         0.00000E+00
    0.00000E+00         0.00000E+00        -0.38466E+06
 
    0.15521E+03         0.87158E+01         0.00000E+00
    0.87158E+01        -0.99999E+06         0.00000E+00
    0.00000E+00         0.00000E+00        -0.38470E+06
 
   -0.27390E+02         0.89050E+01         0.00000E+00
    0.89050E+01        -0.99999E+06         0.00000E+00
    0.00000E+00         0.00000E+00        -0.38473E+06
 
   -0.18966E+03         0.87240E+01         0.00000E+00
    0.87240E+01        -0.99999E+06         0.00000E+00
    0.00000E+00         0.00000E+00        -0.38477E+06
 
   -0.33163E+03         0.82141E+01         0.00000E+00
    0.82141E+01        -0.99999E+06         0.00000E+00
    0.00000E+00         0.00000E+00        -0.38480E+06
 
   -0.45329E+03         0.74203E+01         0.00000E+00
    0.74203E+01        -0.99999E+06         0.00000E+00
    0.00000E+00         0.00000E+00        -0.38482E+06
 
   -0.55468E+03         0.63888E+01         0.00000E+00
    0.63888E+01        -0.99999E+06         0.00000E+00
    0.00000E+00         0.00000E+00        -0.38484E+06
 
   -0.63578E+03         0.51651E+01         0.00000E+00
    0.51651E+01        -0.99999E+06         0.00000E+00
    0.00000E+00         0.00000E+00        -0.38486E+06
 
   -0.69661E+03         0.37937E+01         0.00000E+00
    0.37937E+01        -0.99999E+06         0.00000E+00
    0.00000E+00         0.00000E+00        -0.38487E+06
 
   -0.73716E+03         0.23177E+01         0.00000E+00
    0.23177E+01        -0.99999E+06         0.00000E+00
    0.00000E+00         0.00000E+00        -0.38488E+06
 
   -0.75743E+03         0.77948E+00         0.00000E+00
    0.77948E+00        -0.99999E+06         0.00000E+00
    0.00000E+00         0.00000E+00        -0.38488E+06
 
    0.13782E+04         0.13167E+01         0.00000E+00
    0.13167E+01        -0.99999E+06         0.00000E+00
    0.00000E+00         0.00000E+00        -0.38396E+06
 
    0.10929E+04         0.35791E+01         0.00000E+00
    0.35791E+01        -0.99999E+06         0.00000E+00
    0.00000E+00         0.00000E+00        -0.38402E+06
 
    0.82802E+03         0.54096E+01         0.00000E+00
    0.54096E+01        -0.99999E+06         0.00000E+00
    0.00000E+00         0.00000E+00        -0.38407E+06
 
    0.58354E+03         0.68104E+01         0.00000E+00
    0.68104E+01        -0.99999E+06         0.00000E+00
    0.00000E+00         0.00000E+00        -0.38412E+06
 
    0.35949E+03         0.77901E+01         0.00000E+00
    0.77901E+01        -0.99999E+06         0.00000E+00
    0.00000E+00         0.00000E+00        -0.38416E+06
 
    0.15586E+03         0.83651E+01         0.00000E+00
    0.83651E+01        -0.99999E+06         0.00000E+00
    0.00000E+00         0.00000E+00        -0.38420E+06
 
   -0.27375E+02         0.85587E+01         0.00000E+00
    0.85587E+01        -0.99999E+06         0.00000E+00
    0.00000E+00         0.00000E+00        -0.38424E+06
 
   -0.19022E+03         0.84011E+01         0.00000E+00
    0.84011E+01        -0.99999E+06         0.00000E+00
    0.00000E+00         0.00000E+00        -0.38427E+06
 
   -0.33268E+03         0.79277E+01         0.00000E+00
    0.79277E+01        -0.99999E+06         0.00000E+00
    0.00000E+00         0.00000E+00        -0.38430E+06
 
   -0.45478E+03         0.71778E+01         0.00000E+00
    0.71778E+01        -0.99999E+06         0.00000E+00
    0.00000E+00         0.00000E+00        -0.38433E+06
 
   -0.55652E+03         0.61929E+01         0.00000E+00
    0.61929E+01        -0.99999E+06         0.00000E+00
    0.00000E+00         0.00000E+00        -0.38435E+06
 
   -0.63791E+03         0.50156E+01         0.00000E+00
    0.50156E+01        -0.99999E+06         0.00000E+00
    0.00000E+00         0.00000E+00        -0.38436E+06
 
   -0.69895E+03         0.36889E+01         0.00000E+00
    0.36889E+01        -0.99999E+06         0.00000E+00
    0.00000E+00         0.00000E+00        -0.38438E+06
 
   -0.73964E+03         0.22558E+01         0.00000E+00
    0.22558E+01        -0.99999E+06         0.00000E+00
    0.00000E+00         0.00000E+00        -0.38438E+06
 
   -0.75999E+03         0.75902E+00         0.00000E+00
    0.75902E+00        -0.99999E+06         0.00000E+00
    0.00000E+00         0.00000E+00        -0.38439E+06
 
    0.13823E+04         0.12976E+01         0.00000E+00
    0.12976E+01        -0.99999E+06         0.00000E+00
    0.00000E+00         0.00000E+00        -0.38342E+06
 
    0.10963E+04         0.35119E+01         0.00000E+00
    0.35119E+01        -0.99999E+06         0.00000E+00
    0.00000E+00         0.00000E+00        -0.38348E+06
 
    0.83067E+03         0.52912E+01         0.00000E+00
    0.52912E+01        -0.99999E+06         0.00000E+00
    0.00000E+00         0.00000E+00        -0.38353E+06
 
    0.58549E+03         0.66456E+01         0.00000E+00
    0.66456E+01        -0.99999E+06         0.00000E+00
    0.00000E+00         0.00000E+00        -0.38358E+06
 
    0.36076E+03         0.75894E+01         0.00000E+00
    0.75894E+01        -0.99999E+06         0.00000E+00
    0.00000E+00         0.00000E+00        -0.38362E+06
 
    0.15648E+03         0.81421E+01         0.00000E+00
    0.81421E+01        -0.99999E+06         0.00000E+00
    0.00000E+00         0.00000E+00        -0.38367E+06
 
   -0.27350E+02         0.83280E+01         0.00000E+00
    0.83280E+01        -0.99999E+06         0.00000E+00
    0.00000E+00         0.00000E+00        -0.38370E+06
 
   -0.19074E+03         0.81759E+01         0.00000E+00
    0.81759E+01        -0.99999E+06         0.00000E+00
    0.00000E+00         0.00000E+00        -0.38374E+06
 
   -0.33369E+03         0.77190E+01         0.00000E+00
    0.77190E+01        -0.99999E+06         0.00000E+00
    0.00000E+00         0.00000E+00        -0.38376E+06
 
   -0.45621E+03         0.69937E+01         0.00000E+00
    0.69937E+01        -0.99999E+06         0.00000E+00
    0.00000E+00         0.00000E+00        -0.38379E+06
 
   -0.55830E+03         0.60385E+01         0.00000E+00
    0.60385E+01        -0.99999E+06         0.00000E+00
    0.00000E+00         0.00000E+00        -0.38381E+06
 
   -0.63997E+03         0.48940E+01         0.00000E+00
    0.48940E+01        -0.99999E+06         0.00000E+00
    0.00000E+00         0.00000E+00        -0.38383E+06
 
   -0.70122E+03         0.36017E+01         0.00000E+00
    0.36017E+01        -0.99999E+06         0.00000E+00
    0.00000E+00         0.00000E+00        -0.38384E+06
 
   -0.74206E+03         0.22034E+01         0.00000E+00
    0.22034E+01        -0.99999E+06         0.00000E+00
    0.00000E+00         0.00000E+00        -0.38385E+06
 
   -0.76247E+03         0.74154E+00         0.00000E+00
    0.74154E+00        -0.99999E+06         0.00000E+00
    0.00000E+00         0.00000E+00        -0.38385E+06
 
    0.13864E+04         0.12964E+01         0.00000E+00
    0.12964E+01        -0.99999E+06         0.00000E+00
    0.00000E+00         0.00000E+00        -0.38284E+06
 
    0.10996E+04         0.34948E+01         0.00000E+00
    0.34948E+01        -0.99999E+06         0.00000E+00
    0.00000E+00         0.00000E+00        -0.38289E+06
 
    0.83325E+03         0.52493E+01         0.00000E+00
    0.52493E+01        -0.99999E+06         0.00000E+00
    0.00000E+00         0.00000E+00        -0.38295E+06
 
    0.58738E+03         0.65761E+01         0.00000E+00
    0.65761E+01        -0.99999E+06         0.00000E+00
    0.00000E+00         0.00000E+00        -0.38300E+06
 
    0.36199E+03         0.74948E+01         0.00000E+00
    0.74948E+01        -0.99999E+06         0.00000E+00
    0.00000E+00         0.00000E+00        -0.38304E+06
 
    0.15708E+03         0.80280E+01         0.00000E+00
    0.80280E+01        -0.99999E+06         0.00000E+00
    0.00000E+00         0.00000E+00        -0.38308E+06
 
   -0.27332E+02         0.82019E+01         0.00000E+00
    0.82019E+01        -0.99999E+06         0.00000E+00
    0.00000E+00         0.00000E+00        -0.38312E+06
 
   -0.19125E+03         0.80460E+01         0.00000E+00
    0.80460E+01        -0.99999E+06         0.00000E+00
    0.00000E+00         0.00000E+00        -0.38315E+06
 
   -0.33467E+03         0.75929E+01         0.00000E+00
    0.75929E+01        -0.99999E+06         0.00000E+00
    0.00000E+00         0.00000E+00        -0.38318E+06
 
   -0.45760E+03         0.68778E+01         0.00000E+00
    0.68778E+01        -0.99999E+06         0.00000E+00
    0.00000E+00         0.00000E+00        -0.38320E+06
 
   -0.56004E+03         0.59381E+01         0.00000E+00
    0.59381E+01        -0.99999E+06         0.00000E+00
    0.00000E+00         0.00000E+00        -0.38323E+06
 
   -0.64199E+03         0.48128E+01         0.00000E+00
    0.48128E+01        -0.99999E+06         0.00000E+00
    0.00000E+00         0.00000E+00        -0.38324E+06
 
   -0.70345E+03         0.35421E+01         0.00000E+00
    0.35421E+01        -0.99999E+06         0.00000E+00
    0.00000E+00         0.00000E+00        -0.38325E+06
 
   -0.74443E+03         0.21671E+01         0.00000E+00
    0.21671E+01        -0.99999E+06         0.00000E+00
    0.00000E+00         0.00000E+00        -0.38326E+06
 
   -0.76491E+03         0.72937E+00         0.00000E+00
    0.72937E+00        -0.99999E+06         0.00000E+00
    0.00000E+00         0.00000E+00        -0.38327E+06
 
    0.13904E+04         0.13089E+01         0.00000E+00
    0.13089E+01        -0.99999E+06         0.00000E+00
    0.00000E+00         0.00000E+00        -0.38221E+06
 
    0.11029E+04         0.35162E+01         0.00000E+00
    0.35162E+01        -0.99999E+06         0.00000E+00
    0.00000E+00         0.00000E+00        -0.38226E+06
 
    0.83581E+03         0.52666E+01         0.00000E+00
    0.52666E+01        -0.99999E+06         0.00000E+00
    0.00000E+00         0.00000E+00        -0.38232E+06
 
    0.58924E+03         0.65817E+01         0.00000E+00
    0.65817E+01        -0.99999E+06         0.00000E+00
    0.00000E+00         0.00000E+00        -0.38237E+06
 
    0.36318E+03         0.74854E+01         0.00000E+00
    0.74854E+01        -0.99999E+06         0.00000E+00
    0.00000E+00         0.00000E+00        -0.38241E+06
 
    0.15766E+03         0.80038E+01         0.00000E+00
    0.80038E+01        -0.99999E+06         0.00000E+00
    0.00000E+00         0.00000E+00        -0.38245E+06
 
   -0.27329E+02         0.81653E+01         0.00000E+00
    0.81653E+01        -0.99999E+06         0.00000E+00
    0.00000E+00         0.00000E+00        -0.38249E+06
 
   -0.19177E+03         0.80008E+01         0.00000E+00
    0.80008E+01        -0.99999E+06         0.00000E+00
    0.00000E+00         0.00000E+00        -0.38252E+06
 
   -0.33565E+03         0.75434E+01         0.00000E+00
    0.75434E+01        -0.99999E+06         0.00000E+00
    0.00000E+00         0.00000E+00        -0.38255E+06
 
   -0.45898E+03         0.68284E+01         0.00000E+00
    0.68284E+01        -0.99999E+06         0.00000E+00
    0.00000E+00         0.00000E+00        -0.38258E+06
 
   -0.56176E+03         0.58925E+01         0.00000E+00
    0.58925E+01        -0.99999E+06         0.00000E+00
    0.00000E+00         0.00000E+00        -0.38260E+06
 
   -0.64399E+03         0.47742E+01         0.00000E+00
    0.47742E+01        -0.99999E+06         0.00000E+00
    0.00000E+00         0.00000E+00        -0.38261E+06
 
   -0.70565E+03         0.35129E+01         0.00000E+00
    0.35129E+01        -0.99999E+06         0.00000E+00
    0.00000E+00         0.00000E+00        -0.38262E+06
 
   -0.74676E+03         0.21490E+01         0.00000E+00
    0.21490E+01        -0.99999E+06         0.00000E+00
    0.00000E+00         0.00000E+00        -0.38263E+06
 
   -0.76732E+03         0.72320E+00         0.00000E+00
    0.72320E+00        -0.99999E+06         0.00000E+00
    0.00000E+00         0.00000E+00        -0.38264E+06
 
    0.13946E+04         0.13318E+01         0.00000E+00
    0.13318E+01        -0.99999E+06         0.00000E+00
    0.00000E+00         0.00000E+00        -0.38153E+06
 
    0.11062E+04         0.35670E+01         0.00000E+00
    0.35670E+01        -0.99999E+06         0.00000E+00
    0.00000E+00         0.00000E+00        -0.38159E+06
 
    0.83837E+03         0.53294E+01         0.00000E+00
    0.53294E+01        -0.99999E+06         0.00000E+00
    0.00000E+00         0.00000E+00        -0.38164E+06
 
    0.59108E+03         0.66455E+01         0.00000E+00
    0.66455E+01        -0.99999E+06         0.00000E+00
    0.00000E+00         0.00000E+00        -0.38169E+06
 
    0.36436E+03         0.75431E+01         0.00000E+00
    0.75431E+01        -0.99999E+06         0.00000E+00
    0.00000E+00         0.00000E+00        -0.38174E+06
 
    0.15821E+03         0.80516E+01         0.00000E+00
    0.80516E+01        -0.99999E+06         0.00000E+00
    0.00000E+00         0.00000E+00        -0.38178E+06
 
   -0.27344E+02         0.82019E+01         0.00000E+00
    0.82019E+01        -0.99999E+06         0.00000E+00
    0.00000E+00         0.00000E+00        -0.38181E+06
 
   -0.19230E+03         0.80266E+01         0.00000E+00
    0.80266E+01        -0.99999E+06         0.00000E+00
    0.00000E+00         0.00000E+00        -0.38185E+06
 
   -0.33664E+03         0.75598E+01         0.00000E+00
    0.75598E+01        -0.99999E+06         0.00000E+00
    0.00000E+00         0.00000E+00        -0.38188E+06
 
   -0.46037E+03         0.68374E+01         0.00000E+00
    0.68374E+01        -0.99999E+06         0.00000E+00
    0.00000E+00         0.00000E+00        -0.38190E+06
 
   -0.56348E+03         0.58963E+01         0.00000E+00
    0.58963E+01        -0.99999E+06         0.00000E+00
    0.00000E+00         0.00000E+00        -0.38192E+06
 
   -0.64598E+03         0.47749E+01         0.00000E+00
    0.47749E+01        -0.99999E+06         0.00000E+00
    0.00000E+00         0.00000E+00        -0.38194E+06
 
   -0.70785E+03         0.35121E+01         0.00000E+00
    0.35121E+01        -0.99999E+06         0.00000E+00
    0.00000E+00         0.00000E+00        -0.38195E+06
 
   -0.74909E+03         0.21480E+01         0.00000E+00
    0.21480E+01        -0.99999E+06         0.00000E+00
    0.00000E+00         0.00000E+00        -0.38196E+06
 
   -0.76972E+03         0.72278E+00         0.00000E+00
    0.72278E+00        -0.99999E+06         0.00000E+00
    0.00000E+00         0.00000E+00        -0.38196E+06
 
    0.13987E+04         0.13623E+01         0.00000E+00
    0.13623E+01        -0.99999E+06         0.00000E+00
    0.00000E+00         0.00000E+00        -0.38081E+06
 
    0.11096E+04         0.36395E+01         0.00000E+00
    0.36395E+01        -0.99999E+06         0.00000E+00
    0.00000E+00         0.00000E+00        -0.38087E+06
 
    0.84095E+03         0.54262E+01         0.00000E+00
    0.54262E+01        -0.99999E+06         0.00000E+00
    0.00000E+00         0.00000E+00        -0.38092E+06
 
    0.59293E+03         0.67532E+01         0.00000E+00
    0.67532E+01        -0.99999E+06         0.00000E+00
    0.00000E+00         0.00000E+00        -0.38097E+06
 
    0.36552E+03         0.76520E+01         0.00000E+00
    0.76520E+01        -0.99999E+06         0.00000E+00
    0.00000E+00         0.00000E+00        -0.38101E+06
 
    0.15875E+03         0.81551E+01         0.00000E+00
    0.81551E+01        -0.99999E+06         0.00000E+00
    0.00000E+00         0.00000E+00        -0.38106E+06
 
   -0.27378E+02         0.82959E+01         0.00000E+00
    0.82959E+01        -0.99999E+06         0.00000E+00
    0.00000E+00         0.00000E+00        -0.38109E+06
 
   -0.19285E+03         0.81088E+01         0.00000E+00
    0.81088E+01        -0.99999E+06         0.00000E+00
    0.00000E+00         0.00000E+00        -0.38113E+06
 
   -0.33765E+03         0.76295E+01         0.00000E+00
    0.76295E+01        -0.99999E+06         0.00000E+00
    0.00000E+00         0.00000E+00        -0.38116E+06
 
   -0.46177E+03         0.68945E+01         0.00000E+00
    0.68945E+01        -0.99999E+06         0.00000E+00
    0.00000E+00         0.00000E+00        -0.38118E+06
 
   -0.56522E+03         0.59414E+01         0.00000E+00
    0.59414E+01        -0.99999E+06         0.00000E+00
    0.00000E+00         0.00000E+00        -0.38120E+06
 
   -0.64798E+03         0.48087E+01         0.00000E+00
    0.48087E+01        -0.99999E+06         0.00000E+00
    0.00000E+00         0.00000E+00        -0.38122E+06
 
   -0.71005E+03         0.35356E+01         0.00000E+00
    0.35356E+01        -0.99999E+06         0.00000E+00
    0.00000E+00         0.00000E+00        -0.38123E+06
 
   -0.75143E+03         0.21618E+01         0.00000E+00
    0.21618E+01        -0.99999E+06         0.00000E+00
    0.00000E+00         0.00000E+00        -0.38124E+06
 
   -0.77212E+03         0.72733E+00         0.00000E+00
    0.72733E+00        -0.99999E+06         0.00000E+00
    0.00000E+00         0.00000E+00        -0.38124E+06
 
    0.14030E+04         0.13980E+01         0.00000E+00
    0.13980E+01        -0.99999E+06         0.00000E+00
    0.00000E+00         0.00000E+00        -0.38004E+06
 
    0.11130E+04         0.37271E+01         0.00000E+00
    0.37271E+01        -0.99999E+06         0.00000E+00
    0.00000E+00         0.00000E+00        -0.38010E+06
 
    0.84356E+03         0.55469E+01         0.00000E+00
    0.55469E+01        -0.99999E+06         0.00000E+00
    0.00000E+00         0.00000E+00        -0.38015E+06
 
    0.59479E+03         0.68923E+01         0.00000E+00
    0.68923E+01        -0.99999E+06         0.00000E+00
    0.00000E+00         0.00000E+00        -0.38020E+06
 
    0.36669E+03         0.77980E+01         0.00000E+00
    0.77980E+01        -0.99999E+06         0.00000E+00
    0.00000E+00         0.00000E+00        -0.38025E+06
 
    0.15928E+03         0.82996E+01         0.00000E+00
    0.82996E+01        -0.99999E+06         0.00000E+00
    0.00000E+00         0.00000E+00        -0.38029E+06
 
   -0.27429E+02         0.84326E+01         0.00000E+00
    0.84326E+01        -0.99999E+06         0.00000E+00
    0.00000E+00         0.00000E+00        -0.38033E+06
 
   -0.19342E+03         0.82337E+01         0.00000E+00
    0.82337E+01        -0.99999E+06         0.00000E+00
    0.00000E+00         0.00000E+00        -0.38036E+06
 
   -0.33867E+03         0.77398E+01         0.00000E+00
    0.77398E+01        -0.99999E+06         0.00000E+00
    0.00000E+00         0.00000E+00        -0.38039E+06
 
   -0.46320E+03         0.69886E+01         0.00000E+00
    0.69886E+01        -0.99999E+06         0.00000E+00
    0.00000E+00         0.00000E+00        -0.38041E+06
 
   -0.56697E+03         0.60186E+01         0.00000E+00
    0.60186E+01        -0.99999E+06         0.00000E+00
    0.00000E+00         0.00000E+00        -0.38043E+06
 
   -0.65000E+03         0.48687E+01         0.00000E+00
    0.48687E+01        -0.99999E+06         0.00000E+00
    0.00000E+00         0.00000E+00        -0.38045E+06
 
   -0.71227E+03         0.35783E+01         0.00000E+00
    0.35783E+01        -0.99999E+06         0.00000E+00
    0.00000E+00         0.00000E+00        -0.38046E+06
 
   -0.75379E+03         0.21873E+01         0.00000E+00
    0.21873E+01        -0.99999E+06         0.00000E+00
    0.00000E+00         0.00000E+00        -0.38047E+06
 
   -0.77455E+03         0.73584E+00         0.00000E+00
    0.73584E+00        -0.99999E+06         0.00000E+00
    0.00000E+00         0.00000E+00        -0.38048E+06
 
    0.14074E+04         0.14369E+01         0.00000E+00
    0.14369E+01        -0.99999E+06         0.00000E+00
    0.00000E+00         0.00000E+00        -0.37923E+06
 
    0.11165E+04         0.38241E+01         0.00000E+00
    0.38241E+01        -0.99999E+06         0.00000E+00
    0.00000E+00         0.00000E+00        -0.37928E+06
 
    0.84622E+03         0.56830E+01         0.00000E+00
    0.56830E+01        -0.99999E+06         0.00000E+00
    0.00000E+00         0.00000E+00        -0.37934E+06
 
    0.59667E+03         0.70519E+01         0.00000E+00
    0.70519E+01        -0.99999E+06         0.00000E+00
    0.00000E+00         0.00000E+00        -0.37939E+06
 
    0.36786E+03         0.79689E+01         0.00000E+00
    0.79689E+01        -0.99999E+06         0.00000E+00
    0.00000E+00         0.00000E+00        -0.37943E+06
 
    0.15980E+03         0.84718E+01         0.00000E+00
    0.84718E+01        -0.99999E+06         0.00000E+00
    0.00000E+00         0.00000E+00        -0.37948E+06
 
   -0.27495E+02         0.85988E+01         0.00000E+00
    0.85988E+01        -0.99999E+06         0.00000E+00
    0.00000E+00         0.00000E+00        -0.37951E+06
 
   -0.19401E+03         0.83883E+01         0.00000E+00
    0.83883E+01        -0.99999E+06         0.00000E+00
    0.00000E+00         0.00000E+00        -0.37955E+06
 
   -0.33973E+03         0.78788E+01         0.00000E+00
    0.78788E+01        -0.99999E+06         0.00000E+00
    0.00000E+00         0.00000E+00        -0.37958E+06
 
   -0.46465E+03         0.71093E+01         0.00000E+00
    0.71093E+01        -0.99999E+06         0.00000E+00
    0.00000E+00         0.00000E+00        -0.37960E+06
 
   -0.56876E+03         0.61190E+01         0.00000E+00
    0.61190E+01        -0.99999E+06         0.00000E+00
    0.00000E+00         0.00000E+00        -0.37962E+06
 
   -0.65205E+03         0.49477E+01         0.00000E+00
    0.49477E+01        -0.99999E+06         0.00000E+00
    0.00000E+00         0.00000E+00        -0.37964E+06
 
   -0.71453E+03         0.36351E+01         0.00000E+00
    0.36351E+01        -0.99999E+06         0.00000E+00
    0.00000E+00         0.00000E+00        -0.37965E+06
 
   -0.75618E+03         0.22215E+01         0.00000E+00
    0.22215E+01        -0.99999E+06         0.00000E+00
    0.00000E+00         0.00000E+00        -0.37966E+06
 
   -0.77701E+03         0.74726E+00         0.00000E+00
    0.74726E+00        -0.99999E+06         0.00000E+00
    0.00000E+00         0.00000E+00        -0.37966E+06
 
    0.14119E+04         0.14771E+01         0.00000E+00
    0.14771E+01        -0.99999E+06         0.00000E+00
    0.00000E+00         0.00000E+00        -0.37837E+06
 
    0.11200E+04         0.39257E+01         0.00000E+00
    0.39257E+01        -0.99999E+06         0.00000E+00
    0.00000E+00         0.00000E+00        -0.37843E+06
 
    0.84893E+03         0.58271E+01         0.00000E+00
    0.58271E+01        -0.99999E+06         0.00000E+00
    0.00000E+00         0.00000E+00        -0.37848E+06
 
    0.59859E+03         0.72228E+01         0.00000E+00
    0.72228E+01        -0.99999E+06         0.00000E+00
    0.00000E+00         0.00000E+00        -0.37853E+06
 
    0.36905E+03         0.81537E+01         0.00000E+00
    0.81537E+01        -0.99999E+06         0.00000E+00
    0.00000E+00         0.00000E+00        -0.37858E+06
 
    0.16032E+03         0.86603E+01         0.00000E+00
    0.86603E+01        -0.99999E+06         0.00000E+00
    0.00000E+00         0.00000E+00        -0.37862E+06
 
   -0.27576E+02         0.87827E+01         0.00000E+00
    0.87827E+01        -0.99999E+06         0.00000E+00
    0.00000E+00         0.00000E+00        -0.37866E+06
 
   -0.19463E+03         0.85611E+01         0.00000E+00
    0.85611E+01        -0.99999E+06         0.00000E+00
    0.00000E+00         0.00000E+00        -0.37869E+06
 
   -0.34082E+03         0.80357E+01         0.00000E+00
    0.80357E+01        -0.99999E+06         0.00000E+00
    0.00000E+00         0.00000E+00        -0.37872E+06
 
   -0.46614E+03         0.72467E+01         0.00000E+00
    0.72467E+01        -0.99999E+06         0.00000E+00
    0.00000E+00         0.00000E+00        -0.37874E+06
 
   -0.57059E+03         0.62343E+01         0.00000E+00
    0.62343E+01        -0.99999E+06         0.00000E+00
    0.00000E+00         0.00000E+00        -0.37876E+06
 
   -0.65415E+03         0.50389E+01         0.00000E+00
    0.50389E+01        -0.99999E+06         0.00000E+00
    0.00000E+00         0.00000E+00        -0.37878E+06
 
   -0.71683E+03         0.37011E+01         0.00000E+00
    0.37011E+01        -0.99999E+06         0.00000E+00
    0.00000E+00         0.00000E+00        -0.37879E+06
 
   -0.75861E+03         0.22614E+01         0.00000E+00
    0.22614E+01        -0.99999E+06         0.00000E+00
    0.00000E+00         0.00000E+00        -0.37880E+06
 
   -0.77951E+03         0.76060E+00         0.00000E+00
    0.76060E+00        -0.99999E+06         0.00000E+00
    0.00000E+00         0.00000E+00        -0.37881E+06
 
    0.14165E+04         0.15171E+01         0.00000E+00
    0.15171E+01        -0.99999E+06         0.00000E+00
    0.00000E+00         0.00000E+00        -0.37746E+06
 
    0.11237E+04         0.40276E+01         0.00000E+00
    0.40276E+01        -0.99999E+06         0.00000E+00
    0.00000E+00         0.00000E+00        -0.37752E+06
 
    0.85170E+03         0.59728E+01         0.00000E+00
    0.59728E+01        -0.99999E+06         0.00000E+00
    0.00000E+00         0.00000E+00        -0.37757E+06
 
    0.60054E+03         0.73969E+01         0.00000E+00
    0.73969E+01        -0.99999E+06         0.00000E+00
    0.00000E+00         0.00000E+00        -0.37762E+06
 
    0.37025E+03         0.83434E+01         0.00000E+00
    0.83434E+01        -0.99999E+06         0.00000E+00
    0.00000E+00         0.00000E+00        -0.37767E+06
 
    0.16084E+03         0.88549E+01         0.00000E+00
    0.88549E+01        -0.99999E+06         0.00000E+00
    0.00000E+00         0.00000E+00        -0.37771E+06
 
   -0.27669E+02         0.89739E+01         0.00000E+00
    0.89739E+01        -0.99999E+06         0.00000E+00
    0.00000E+00         0.00000E+00        -0.37775E+06
 
   -0.19526E+03         0.87420E+01         0.00000E+00
    0.87420E+01        -0.99999E+06         0.00000E+00
    0.00000E+00         0.00000E+00        -0.37778E+06
 
   -0.34193E+03         0.82010E+01         0.00000E+00
    0.82010E+01        -0.99999E+06         0.00000E+00
    0.00000E+00         0.00000E+00        -0.37781E+06
 
   -0.46766E+03         0.73922E+01         0.00000E+00
    0.73922E+01        -0.99999E+06         0.00000E+00
    0.00000E+00         0.00000E+00        -0.37784E+06
 
   -0.57245E+03         0.63569E+01         0.00000E+00
    0.63569E+01        -0.99999E+06         0.00000E+00
    0.00000E+00         0.00000E+00        -0.37786E+06
 
   -0.65629E+03         0.51363E+01         0.00000E+00
    0.51363E+01        -0.99999E+06         0.00000E+00
    0.00000E+00         0.00000E+00        -0.37788E+06
 
   -0.71917E+03         0.37717E+01         0.00000E+00
    0.37717E+01        -0.99999E+06         0.00000E+00
    0.00000E+00         0.00000E+00        -0.37789E+06
 
   -0.76109E+03         0.23042E+01         0.00000E+00
    0.23042E+01        -0.99999E+06         0.00000E+00
    0.00000E+00         0.00000E+00        -0.37790E+06
 
   -0.78205E+03         0.77493E+00         0.00000E+00
    0.77493E+00        -0.99999E+06         0.00000E+00
    0.00000E+00         0.00000E+00        -0.37790E+06
 
    0.14213E+04         0.15557E+01         0.00000E+00
    0.15557E+01        -0.99999E+06         0.00000E+00
    0.00000E+00         0.00000E+00        -0.37651E+06
 
    0.11275E+04         0.41264E+01         0.00000E+00
    0.41264E+01        -0.99999E+06         0.00000E+00
    0.00000E+00         0.00000E+00        -0.37657E+06
 
    0.85454E+03         0.61146E+01         0.00000E+00
    0.61146E+01        -0.99999E+06         0.00000E+00
    0.00000E+00         0.00000E+00        -0.37662E+06
 
    0.60253E+03         0.75672E+01         0.00000E+00
    0.75672E+01        -0.99999E+06         0.00000E+00
    0.00000E+00         0.00000E+00        -0.37667E+06
 
    0.37147E+03         0.85298E+01         0.00000E+00
    0.85298E+01        -0.99999E+06         0.00000E+00
    0.00000E+00         0.00000E+00        -0.37672E+06
 
    0.16136E+03         0.90472E+01         0.00000E+00
    0.90472E+01        -0.99999E+06         0.00000E+00
    0.00000E+00         0.00000E+00        -0.37676E+06
 
   -0.27773E+02         0.91635E+01         0.00000E+00
    0.91635E+01        -0.99999E+06         0.00000E+00
    0.00000E+00         0.00000E+00        -0.37680E+06
 
   -0.19592E+03         0.89222E+01         0.00000E+00
    0.89222E+01        -0.99999E+06         0.00000E+00
    0.00000E+00         0.00000E+00        -0.37683E+06
 
   -0.34307E+03         0.83662E+01         0.00000E+00
    0.83662E+01        -0.99999E+06         0.00000E+00
    0.00000E+00         0.00000E+00        -0.37686E+06
 
   -0.46922E+03         0.75382E+01         0.00000E+00
    0.75382E+01        -0.99999E+06         0.00000E+00
    0.00000E+00         0.00000E+00        -0.37689E+06
 
   -0.57435E+03         0.64803E+01         0.00000E+00
    0.64803E+01        -0.99999E+06         0.00000E+00
    0.00000E+00         0.00000E+00        -0.37691E+06
 
   -0.65847E+03         0.52346E+01         0.00000E+00
    0.52346E+01        -0.99999E+06         0.00000E+00
    0.00000E+00         0.00000E+00        -0.37692E+06
 
   -0.72156E+03         0.38431E+01         0.00000E+00
    0.38431E+01        -0.99999E+06         0.00000E+00
    0.00000E+00         0.00000E+00        -0.37694E+06
 
   -0.76362E+03         0.23475E+01         0.00000E+00
    0.23475E+01        -0.99999E+06         0.00000E+00
    0.00000E+00         0.00000E+00        -0.37695E+06
 
   -0.78465E+03         0.78944E+00         0.00000E+00
    0.78944E+00        -0.99999E+06         0.00000E+00
    0.00000E+00         0.00000E+00        -0.37695E+06
 
    0.14261E+04         0.15918E+01         0.00000E+00
    0.15918E+01        -0.99999E+06         0.00000E+00
    0.00000E+00         0.00000E+00        -0.37551E+06
 
    0.11313E+04         0.42191E+01         0.00000E+00
    0.42191E+01        -0.99999E+06         0.00000E+00
    0.00000E+00         0.00000E+00        -0.37557E+06
 
    0.85743E+03         0.62481E+01         0.00000E+00
    0.62481E+01        -0.99999E+06         0.00000E+00
    0.00000E+00         0.00000E+00        -0.37562E+06
 
    0.60456E+03         0.77279E+01         0.00000E+00
    0.77279E+01        -0.99999E+06         0.00000E+00
    0.00000E+00         0.00000E+00        -0.37567E+06
 
    0.37271E+03         0.87062E+01         0.00000E+00
    0.87062E+01        -0.99999E+06         0.00000E+00
    0.00000E+00         0.00000E+00        -0.37572E+06
 
    0.16189E+03         0.92296E+01         0.00000E+00
    0.92296E+01        -0.99999E+06         0.00000E+00
    0.00000E+00         0.00000E+00        -0.37576E+06
 
   -0.27887E+02         0.93440E+01         0.00000E+00
    0.93440E+01        -0.99999E+06         0.00000E+00
    0.00000E+00         0.00000E+00        -0.37580E+06
 
   -0.19660E+03         0.90941E+01         0.00000E+00
    0.90941E+01        -0.99999E+06         0.00000E+00
    0.00000E+00         0.00000E+00        -0.37583E+06
 
   -0.34425E+03         0.85242E+01         0.00000E+00
    0.85242E+01        -0.99999E+06         0.00000E+00
    0.00000E+00         0.00000E+00        -0.37586E+06
 
   -0.47081E+03         0.76780E+01         0.00000E+00
    0.76780E+01        -0.99999E+06         0.00000E+00
    0.00000E+00         0.00000E+00        -0.37589E+06
 
   -0.57630E+03         0.65987E+01         0.00000E+00
    0.65987E+01        -0.99999E+06         0.00000E+00
    0.00000E+00         0.00000E+00        -0.37591E+06
 
   -0.66069E+03         0.53291E+01         0.00000E+00
    0.53291E+01        -0.99999E+06         0.00000E+00
    0.00000E+00         0.00000E+00        -0.37593E+06
 
   -0.72399E+03         0.39118E+01         0.00000E+00
    0.39118E+01        -0.99999E+06         0.00000E+00
    0.00000E+00         0.00000E+00        -0.37594E+06
 
   -0.76619E+03         0.23892E+01         0.00000E+00
    0.23892E+01        -0.99999E+06         0.00000E+00
    0.00000E+00         0.00000E+00        -0.37595E+06
 
   -0.78729E+03         0.80342E+00         0.00000E+00
    0.80342E+00        -0.99999E+06         0.00000E+00
    0.00000E+00         0.00000E+00        -0.37595E+06
 
    0.14311E+04         0.16244E+01         0.00000E+00
    0.16244E+01        -0.99999E+06         0.00000E+00
    0.00000E+00         0.00000E+00        -0.37446E+06
 
    0.11352E+04         0.43030E+01         0.00000E+00
    0.43030E+01        -0.99999E+06         0.00000E+00
    0.00000E+00         0.00000E+00        -0.37452E+06
 
    0.86037E+03         0.63691E+01         0.00000E+00
    0.63691E+01        -0.99999E+06         0.00000E+00
    0.00000E+00         0.00000E+00        -0.37458E+06
 
    0.60662E+03         0.78738E+01         0.00000E+00
    0.78738E+01        -0.99999E+06         0.00000E+00
    0.00000E+00         0.00000E+00        -0.37463E+06
 
    0.37396E+03         0.88666E+01         0.00000E+00
    0.88666E+01        -0.99999E+06         0.00000E+00
    0.00000E+00         0.00000E+00        -0.37468E+06
 
    0.16241E+03         0.93958E+01         0.00000E+00
    0.93958E+01        -0.99999E+06         0.00000E+00
    0.00000E+00         0.00000E+00        -0.37472E+06
 
   -0.28009E+02         0.95086E+01         0.00000E+00
    0.95086E+01        -0.99999E+06         0.00000E+00
    0.00000E+00         0.00000E+00        -0.37476E+06
 
   -0.19730E+03         0.92511E+01         0.00000E+00
    0.92511E+01        -0.99999E+06         0.00000E+00
    0.00000E+00         0.00000E+00        -0.37479E+06
 
   -0.34544E+03         0.86687E+01         0.00000E+00
    0.86687E+01        -0.99999E+06         0.00000E+00
    0.00000E+00         0.00000E+00        -0.37482E+06
 
   -0.47244E+03         0.78060E+01         0.00000E+00
    0.78060E+01        -0.99999E+06         0.00000E+00
    0.00000E+00         0.00000E+00        -0.37484E+06
 
   -0.57828E+03         0.67072E+01         0.00000E+00
    0.67072E+01        -0.99999E+06         0.00000E+00
    0.00000E+00         0.00000E+00        -0.37487E+06
 
   -0.66295E+03         0.54158E+01         0.00000E+00
    0.54158E+01        -0.99999E+06         0.00000E+00
    0.00000E+00         0.00000E+00        -0.37488E+06
 
   -0.72646E+03         0.39749E+01         0.00000E+00
    0.39749E+01        -0.99999E+06         0.00000E+00
    0.00000E+00         0.00000E+00        -0.37490E+06
 
   -0.76881E+03         0.24275E+01         0.00000E+00
    0.24275E+01        -0.99999E+06         0.00000E+00
    0.00000E+00         0.00000E+00        -0.37490E+06
 
   -0.78998E+03         0.81625E+00         0.00000E+00
    0.81625E+00        -0.99999E+06         0.00000E+00
    0.00000E+00         0.00000E+00        -0.37491E+06
 
    0.14362E+04         0.16527E+01         0.00000E+00
    0.16527E+01        -0.99999E+06         0.00000E+00
    0.00000E+00         0.00000E+00        -0.37337E+06
 
    0.11392E+04         0.43759E+01         0.00000E+00
    0.43759E+01        -0.99999E+06         0.00000E+00
    0.00000E+00         0.00000E+00        -0.37343E+06
 
    0.86336E+03         0.64743E+01         0.00000E+00
    0.64743E+01        -0.99999E+06         0.00000E+00
    0.00000E+00         0.00000E+00        -0.37349E+06
 
    0.60871E+03         0.80007E+01         0.00000E+00
    0.80007E+01        -0.99999E+06         0.00000E+00
    0.00000E+00         0.00000E+00        -0.37354E+06
 
    0.37523E+03         0.90061E+01         0.00000E+00
    0.90061E+01        -0.99999E+06         0.00000E+00
    0.00000E+00         0.00000E+00        -0.37358E+06
 
    0.16295E+03         0.95403E+01         0.00000E+00
    0.95403E+01        -0.99999E+06         0.00000E+00
    0.00000E+00         0.00000E+00        -0.37363E+06
 
   -0.28138E+02         0.96516E+01         0.00000E+00
    0.96516E+01        -0.99999E+06         0.00000E+00
    0.00000E+00         0.00000E+00        -0.37366E+06
 
   -0.19801E+03         0.93875E+01         0.00000E+00
    0.93875E+01        -0.99999E+06         0.00000E+00
    0.00000E+00         0.00000E+00        -0.37370E+06
 
   -0.34666E+03         0.87942E+01         0.00000E+00
    0.87942E+01        -0.99999E+06         0.00000E+00
    0.00000E+00         0.00000E+00        -0.37373E+06
 
   -0.47409E+03         0.79173E+01         0.00000E+00
    0.79173E+01        -0.99999E+06         0.00000E+00
    0.00000E+00         0.00000E+00        -0.37375E+06
 
   -0.58029E+03         0.68015E+01         0.00000E+00
    0.68015E+01        -0.99999E+06         0.00000E+00
    0.00000E+00         0.00000E+00        -0.37377E+06
 
   -0.66525E+03         0.54910E+01         0.00000E+00
    0.54910E+01        -0.99999E+06         0.00000E+00
    0.00000E+00         0.00000E+00        -0.37379E+06
 
   -0.72898E+03         0.40296E+01         0.00000E+00
    0.40296E+01        -0.99999E+06         0.00000E+00
    0.00000E+00         0.00000E+00        -0.37380E+06
 
   -0.77146E+03         0.24607E+01         0.00000E+00
    0.24607E+01        -0.99999E+06         0.00000E+00
    0.00000E+00         0.00000E+00        -0.37381E+06
 
   -0.79270E+03         0.82740E+00         0.00000E+00
    0.82740E+00        -0.99999E+06         0.00000E+00
    0.00000E+00         0.00000E+00        -0.37382E+06
 
    0.14413E+04         0.16762E+01         0.00000E+00
    0.16762E+01        -0.99999E+06         0.00000E+00
    0.00000E+00         0.00000E+00        -0.37223E+06
 
    0.11432E+04         0.44360E+01         0.00000E+00
    0.44360E+01        -0.99999E+06         0.00000E+00
    0.00000E+00         0.00000E+00        -0.37229E+06
 
    0.86640E+03         0.65608E+01         0.00000E+00
    0.65608E+01        -0.99999E+06         0.00000E+00
    0.00000E+00         0.00000E+00        -0.37235E+06
 
    0.61082E+03         0.81047E+01         0.00000E+00
    0.81047E+01        -0.99999E+06         0.00000E+00
    0.00000E+00         0.00000E+00        -0.37240E+06
 
    0.37651E+03         0.91202E+01         0.00000E+00
    0.91202E+01        -0.99999E+06         0.00000E+00
    0.00000E+00         0.00000E+00        -0.37244E+06
 
    0.16348E+03         0.96582E+01         0.00000E+00
    0.96582E+01        -0.99999E+06         0.00000E+00
    0.00000E+00         0.00000E+00        -0.37249E+06
 
   -0.28273E+02         0.97682E+01         0.00000E+00
    0.97682E+01        -0.99999E+06         0.00000E+00
    0.00000E+00         0.00000E+00        -0.37253E+06
 
   -0.19874E+03         0.94984E+01         0.00000E+00
    0.94984E+01        -0.99999E+06         0.00000E+00
    0.00000E+00         0.00000E+00        -0.37256E+06
 
   -0.34790E+03         0.88961E+01         0.00000E+00
    0.88961E+01        -0.99999E+06         0.00000E+00
    0.00000E+00         0.00000E+00        -0.37259E+06
 
   -0.47577E+03         0.80074E+01         0.00000E+00
    0.80074E+01        -0.99999E+06         0.00000E+00
    0.00000E+00         0.00000E+00        -0.37261E+06
 
   -0.58233E+03         0.68777E+01         0.00000E+00
    0.68777E+01        -0.99999E+06         0.00000E+00
    0.00000E+00         0.00000E+00        -0.37264E+06
 
   -0.66758E+03         0.55518E+01         0.00000E+00
    0.55518E+01        -0.99999E+06         0.00000E+00
    0.00000E+00         0.00000E+00        -0.37265E+06
 
   -0.73152E+03         0.40739E+01         0.00000E+00
    0.40739E+01        -0.99999E+06         0.00000E+00
    0.00000E+00         0.00000E+00        -0.37267E+06
 
   -0.77415E+03         0.24876E+01         0.00000E+00
    0.24876E+01        -0.99999E+06         0.00000E+00
    0.00000E+00         0.00000E+00        -0.37267E+06
 
   -0.79546E+03         0.83639E+00         0.00000E+00
    0.83639E+00        -0.99999E+06         0.00000E+00
    0.00000E+00         0.00000E+00        -0.37268E+06
 
    0.14465E+04         0.16941E+01         0.00000E+00
    0.16941E+01        -0.99999E+06         0.00000E+00
    0.00000E+00         0.00000E+00        -0.37104E+06
 
    0.11473E+04         0.44816E+01         0.00000E+00
    0.44816E+01        -0.99999E+06         0.00000E+00
    0.00000E+00         0.00000E+00        -0.37110E+06
 
    0.86946E+03         0.66259E+01         0.00000E+00
    0.66259E+01        -0.99999E+06         0.00000E+00
    0.00000E+00         0.00000E+00        -0.37116E+06
 
    0.61296E+03         0.81825E+01         0.00000E+00
    0.81825E+01        -0.99999E+06         0.00000E+00
    0.00000E+00         0.00000E+00        -0.37121E+06
 
    0.37781E+03         0.92050E+01         0.00000E+00
    0.92050E+01        -0.99999E+06         0.00000E+00
    0.00000E+00         0.00000E+00        -0.37126E+06
 
    0.16401E+03         0.97453E+01         0.00000E+00
    0.97453E+01        -0.99999E+06         0.00000E+00
    0.00000E+00         0.00000E+00        -0.37130E+06
 
   -0.28415E+02         0.98538E+01         0.00000E+00
    0.98538E+01        -0.99999E+06         0.00000E+00
    0.00000E+00         0.00000E+00        -0.37134E+06
 
   -0.19947E+03         0.95795E+01         0.00000E+00
    0.95795E+01        -0.99999E+06         0.00000E+00
    0.00000E+00         0.00000E+00        -0.37137E+06
 
   -0.34916E+03         0.89702E+01         0.00000E+00
    0.89702E+01        -0.99999E+06         0.00000E+00
    0.00000E+00         0.00000E+00        -0.37140E+06
 
   -0.47746E+03         0.80726E+01         0.00000E+00
    0.80726E+01        -0.99999E+06         0.00000E+00
    0.00000E+00         0.00000E+00        -0.37143E+06
 
   -0.58439E+03         0.69327E+01         0.00000E+00
    0.69327E+01        -0.99999E+06         0.00000E+00
    0.00000E+00         0.00000E+00        -0.37145E+06
 
   -0.66993E+03         0.55956E+01         0.00000E+00
    0.55956E+01        -0.99999E+06         0.00000E+00
    0.00000E+00         0.00000E+00        -0.37147E+06
 
   -0.73409E+03         0.41056E+01         0.00000E+00
    0.41056E+01        -0.99999E+06         0.00000E+00
    0.00000E+00         0.00000E+00        -0.37148E+06
 
   -0.77686E+03         0.25068E+01         0.00000E+00
    0.25068E+01        -0.99999E+06         0.00000E+00
    0.00000E+00         0.00000E+00        -0.37149E+06
 
   -0.79825E+03         0.84282E+00         0.00000E+00
    0.84282E+00        -0.99999E+06         0.00000E+00
    0.00000E+00         0.00000E+00        -0.37149E+06
 
    0.14517E+04         0.17058E+01         0.00000E+00
    0.17058E+01        -0.99999E+06         0.00000E+00
    0.00000E+00         0.00000E+00        -0.36981E+06
 
    0.11514E+04         0.45110E+01         0.00000E+00
    0.45110E+01        -0.99999E+06         0.00000E+00
    0.00000E+00         0.00000E+00        -0.36987E+06
 
    0.87255E+03         0.66673E+01         0.00000E+00
    0.66673E+01        -0.99999E+06         0.00000E+00
    0.00000E+00         0.00000E+00        -0.36993E+06
 
    0.61511E+03         0.82312E+01         0.00000E+00
    0.82312E+01        -0.99999E+06         0.00000E+00
    0.00000E+00         0.00000E+00        -0.36998E+06
 
    0.37910E+03         0.92571E+01         0.00000E+00
    0.92571E+01        -0.99999E+06         0.00000E+00
    0.00000E+00         0.00000E+00        -0.37002E+06
 
    0.16455E+03         0.97979E+01         0.00000E+00
    0.97979E+01        -0.99999E+06         0.00000E+00
    0.00000E+00         0.00000E+00        -0.37007E+06
 
   -0.28561E+02         0.99046E+01         0.00000E+00
    0.99046E+01        -0.99999E+06         0.00000E+00
    0.00000E+00         0.00000E+00        -0.37011E+06
 
   -0.20022E+03         0.96268E+01         0.00000E+00
    0.96268E+01        -0.99999E+06         0.00000E+00
    0.00000E+00         0.00000E+00        -0.37014E+06
 
   -0.35042E+03         0.90128E+01         0.00000E+00
    0.90128E+01        -0.99999E+06         0.00000E+00
    0.00000E+00         0.00000E+00        -0.37017E+06
 
   -0.47917E+03         0.81096E+01         0.00000E+00
    0.81096E+01        -0.99999E+06         0.00000E+00
    0.00000E+00         0.00000E+00        -0.37020E+06
 
   -0.58646E+03         0.69635E+01         0.00000E+00
    0.69635E+01        -0.99999E+06         0.00000E+00
    0.00000E+00         0.00000E+00        -0.37022E+06
 
   -0.67230E+03         0.56198E+01         0.00000E+00
    0.56198E+01        -0.99999E+06         0.00000E+00
    0.00000E+00         0.00000E+00        -0.37023E+06
 
   -0.73668E+03         0.41230E+01         0.00000E+00
    0.41230E+01        -0.99999E+06         0.00000E+00
    0.00000E+00         0.00000E+00        -0.37025E+06
 
   -0.77959E+03         0.25172E+01         0.00000E+00
    0.25172E+01        -0.99999E+06         0.00000E+00
    0.00000E+00         0.00000E+00        -0.37026E+06
 
   -0.80105E+03         0.84632E+00         0.00000E+00
    0.84632E+00        -0.99999E+06         0.00000E+00
    0.00000E+00         0.00000E+00        -0.37026E+06
 
    0.14570E+04         0.17110E+01         0.00000E+00
    0.17110E+01        -0.99999E+06         0.00000E+00
    0.00000E+00         0.00000E+00        -0.36853E+06
 
    0.11556E+04         0.45230E+01         0.00000E+00
    0.45230E+01        -0.99999E+06         0.00000E+00
    0.00000E+00         0.00000E+00        -0.36859E+06
 
    0.87564E+03         0.66828E+01         0.00000E+00
    0.66828E+01        -0.99999E+06         0.00000E+00
    0.00000E+00         0.00000E+00        -0.36864E+06
 
    0.61726E+03         0.82479E+01         0.00000E+00
    0.82479E+01        -0.99999E+06         0.00000E+00
    0.00000E+00         0.00000E+00        -0.36869E+06
 
    0.38040E+03         0.92734E+01         0.00000E+00
    0.92734E+01        -0.99999E+06         0.00000E+00
    0.00000E+00         0.00000E+00        -0.36874E+06
 
    0.16508E+03         0.98126E+01         0.00000E+00
    0.98126E+01        -0.99999E+06         0.00000E+00
    0.00000E+00         0.00000E+00        -0.36879E+06
 
   -0.28711E+02         0.99171E+01         0.00000E+00
    0.99171E+01        -0.99999E+06         0.00000E+00
    0.00000E+00         0.00000E+00        -0.36882E+06
 
   -0.20097E+03         0.96369E+01         0.00000E+00
    0.96369E+01        -0.99999E+06         0.00000E+00
    0.00000E+00         0.00000E+00        -0.36886E+06
 
   -0.35169E+03         0.90205E+01         0.00000E+00
    0.90205E+01        -0.99999E+06         0.00000E+00
    0.00000E+00         0.00000E+00        -0.36889E+06
 
   -0.48089E+03         0.81152E+01         0.00000E+00
    0.81152E+01        -0.99999E+06         0.00000E+00
    0.00000E+00         0.00000E+00        -0.36891E+06
 
   -0.58854E+03         0.69674E+01         0.00000E+00
    0.69674E+01        -0.99999E+06         0.00000E+00
    0.00000E+00         0.00000E+00        -0.36894E+06
 
   -0.67467E+03         0.56223E+01         0.00000E+00
    0.56223E+01        -0.99999E+06         0.00000E+00
    0.00000E+00         0.00000E+00        -0.36895E+06
 
   -0.73927E+03         0.41245E+01         0.00000E+00
    0.41245E+01        -0.99999E+06         0.00000E+00
    0.00000E+00         0.00000E+00        -0.36897E+06
 
   -0.78233E+03         0.25180E+01         0.00000E+00
    0.25180E+01        -0.99999E+06         0.00000E+00
    0.00000E+00         0.00000E+00        -0.36897E+06
 
   -0.80386E+03         0.84655E+00         0.00000E+00
    0.84655E+00        -0.99999E+06         0.00000E+00
    0.00000E+00         0.00000E+00        -0.36898E+06
 
    0.14623E+04         0.17090E+01         0.00000E+00
    0.17090E+01        -0.99999E+06         0.00000E+00
    0.00000E+00         0.00000E+00        -0.36720E+06
 
    0.11597E+04         0.45161E+01         0.00000E+00
    0.45161E+01        -0.99999E+06         0.00000E+00
    0.00000E+00         0.00000E+00        -0.36726E+06
 
    0.87874E+03         0.66705E+01         0.00000E+00
    0.66705E+01        -0.99999E+06         0.00000E+00
    0.00000E+00         0.00000E+00        -0.36731E+06
 
    0.61941E+03         0.82301E+01         0.00000E+00
    0.82301E+01        -0.99999E+06         0.00000E+00
    0.00000E+00         0.00000E+00        -0.36737E+06
 
    0.38170E+03         0.92507E+01         0.00000E+00
    0.92507E+01        -0.99999E+06         0.00000E+00
    0.00000E+00         0.00000E+00        -0.36741E+06
 
    0.16561E+03         0.97860E+01         0.00000E+00
    0.97860E+01        -0.99999E+06         0.00000E+00
    0.00000E+00         0.00000E+00        -0.36746E+06
 
   -0.28864E+02         0.98879E+01         0.00000E+00
    0.98879E+01        -0.99999E+06         0.00000E+00
    0.00000E+00         0.00000E+00        -0.36749E+06
 
   -0.20172E+03         0.96064E+01         0.00000E+00
    0.96064E+01        -0.99999E+06         0.00000E+00
    0.00000E+00         0.00000E+00        -0.36753E+06
 
   -0.35297E+03         0.89902E+01         0.00000E+00
    0.89902E+01        -0.99999E+06         0.00000E+00
    0.00000E+00         0.00000E+00        -0.36756E+06
 
   -0.48260E+03         0.80867E+01         0.00000E+00
    0.80867E+01        -0.99999E+06         0.00000E+00
    0.00000E+00         0.00000E+00        -0.36759E+06
 
   -0.59062E+03         0.69419E+01         0.00000E+00
    0.69419E+01        -0.99999E+06         0.00000E+00
    0.00000E+00         0.00000E+00        -0.36761E+06
 
   -0.67704E+03         0.56010E+01         0.00000E+00
    0.56010E+01        -0.99999E+06         0.00000E+00
    0.00000E+00         0.00000E+00        -0.36762E+06
 
   -0.74185E+03         0.41085E+01         0.00000E+00
    0.41085E+01        -0.99999E+06         0.00000E+00
    0.00000E+00         0.00000E+00        -0.36764E+06
 
   -0.78506E+03         0.25082E+01         0.00000E+00
    0.25082E+01        -0.99999E+06         0.00000E+00
    0.00000E+00         0.00000E+00        -0.36765E+06
 
   -0.80666E+03         0.84322E+00         0.00000E+00
    0.84322E+00        -0.99999E+06         0.00000E+00
    0.00000E+00         0.00000E+00        -0.36765E+06
 
    0.14675E+04         0.16995E+01         0.00000E+00
    0.16995E+01        -0.99999E+06         0.00000E+00
    0.00000E+00         0.00000E+00        -0.36582E+06
 
    0.11638E+04         0.44891E+01         0.00000E+00
    0.44891E+01        -0.99999E+06         0.00000E+00
    0.00000E+00         0.00000E+00        -0.36588E+06
 
    0.88181E+03         0.66282E+01         0.00000E+00
    0.66282E+01        -0.99999E+06         0.00000E+00
    0.00000E+00         0.00000E+00        -0.36594E+06
 
    0.62154E+03         0.81753E+01         0.00000E+00
    0.81753E+01        -0.99999E+06         0.00000E+00
    0.00000E+00         0.00000E+00        -0.36599E+06
 
    0.38298E+03         0.91863E+01         0.00000E+00
    0.91863E+01        -0.99999E+06         0.00000E+00
    0.00000E+00         0.00000E+00        -0.36604E+06
 
    0.16613E+03         0.97152E+01         0.00000E+00
    0.97152E+01        -0.99999E+06         0.00000E+00
    0.00000E+00         0.00000E+00        -0.36608E+06
 
   -0.29021E+02         0.98138E+01         0.00000E+00
    0.98138E+01        -0.99999E+06         0.00000E+00
    0.00000E+00         0.00000E+00        -0.36612E+06
 
   -0.20247E+03         0.95323E+01         0.00000E+00
    0.95323E+01        -0.99999E+06         0.00000E+00
    0.00000E+00         0.00000E+00        -0.36615E+06
 
   -0.35423E+03         0.89191E+01         0.00000E+00
    0.89191E+01        -0.99999E+06         0.00000E+00
    0.00000E+00         0.00000E+00        -0.36618E+06
 
   -0.48431E+03         0.80212E+01         0.00000E+00
    0.80212E+01        -0.99999E+06         0.00000E+00
    0.00000E+00         0.00000E+00        -0.36621E+06
 
   -0.59269E+03         0.68847E+01         0.00000E+00
    0.68847E+01        -0.99999E+06         0.00000E+00
    0.00000E+00         0.00000E+00        -0.36623E+06
 
   -0.67940E+03         0.55542E+01         0.00000E+00
    0.55542E+01        -0.99999E+06         0.00000E+00
    0.00000E+00         0.00000E+00        -0.36625E+06
 
   -0.74443E+03         0.40738E+01         0.00000E+00
    0.40738E+01        -0.99999E+06         0.00000E+00
    0.00000E+00         0.00000E+00        -0.36626E+06
 
   -0.78778E+03         0.24868E+01         0.00000E+00
    0.24868E+01        -0.99999E+06         0.00000E+00
    0.00000E+00         0.00000E+00        -0.36627E+06
 
   -0.80945E+03         0.83602E+00         0.00000E+00
    0.83602E+00        -0.99999E+06         0.00000E+00
    0.00000E+00         0.00000E+00        -0.36627E+06
 
    0.14727E+04         0.16820E+01         0.00000E+00
    0.16820E+01        -0.99999E+06         0.00000E+00
    0.00000E+00         0.00000E+00        -0.36439E+06
 
    0.11679E+04         0.44407E+01         0.00000E+00
    0.44407E+01        -0.99999E+06         0.00000E+00
    0.00000E+00         0.00000E+00        -0.36445E+06
 
    0.88486E+03         0.65542E+01         0.00000E+00
    0.65542E+01        -0.99999E+06         0.00000E+00
    0.00000E+00         0.00000E+00        -0.36451E+06
 
    0.62365E+03         0.80811E+01         0.00000E+00
    0.80811E+01        -0.99999E+06         0.00000E+00
    0.00000E+00         0.00000E+00        -0.36456E+06
 
    0.38425E+03         0.90775E+01         0.00000E+00
    0.90775E+01        -0.99999E+06         0.00000E+00
    0.00000E+00         0.00000E+00        -0.36461E+06
 
    0.16664E+03         0.95972E+01         0.00000E+00
    0.95972E+01        -0.99999E+06         0.00000E+00
    0.00000E+00         0.00000E+00        -0.36465E+06
 
   -0.29180E+02         0.96919E+01         0.00000E+00
    0.96919E+01        -0.99999E+06         0.00000E+00
    0.00000E+00         0.00000E+00        -0.36469E+06
 
   -0.20322E+03         0.94115E+01         0.00000E+00
    0.94115E+01        -0.99999E+06         0.00000E+00
    0.00000E+00         0.00000E+00        -0.36473E+06
 
   -0.35549E+03         0.88041E+01         0.00000E+00
    0.88041E+01        -0.99999E+06         0.00000E+00
    0.00000E+00         0.00000E+00        -0.36476E+06
 
   -0.48600E+03         0.79163E+01         0.00000E+00
    0.79163E+01        -0.99999E+06         0.00000E+00
    0.00000E+00         0.00000E+00        -0.36478E+06
 
   -0.59474E+03         0.67935E+01         0.00000E+00
    0.67935E+01        -0.99999E+06         0.00000E+00
    0.00000E+00         0.00000E+00        -0.36481E+06
 
   -0.68173E+03         0.54800E+01         0.00000E+00
    0.54800E+01        -0.99999E+06         0.00000E+00
    0.00000E+00         0.00000E+00        -0.36482E+06
 
   -0.74697E+03         0.40190E+01         0.00000E+00
    0.40190E+01        -0.99999E+06         0.00000E+00
    0.00000E+00         0.00000E+00        -0.36484E+06
 
   -0.79046E+03         0.24532E+01         0.00000E+00
    0.24532E+01        -0.99999E+06         0.00000E+00
    0.00000E+00         0.00000E+00        -0.36484E+06
 
   -0.81221E+03         0.82468E+00         0.00000E+00
    0.82468E+00        -0.99999E+06         0.00000E+00
    0.00000E+00         0.00000E+00        -0.36485E+06
 
    0.14779E+04         0.16559E+01         0.00000E+00
    0.16559E+01        -0.99999E+06         0.00000E+00
    0.00000E+00         0.00000E+00        -0.36292E+06
 
    0.11719E+04         0.43696E+01         0.00000E+00
    0.43696E+01        -0.99999E+06         0.00000E+00
    0.00000E+00         0.00000E+00        -0.36298E+06
 
    0.88786E+03         0.64465E+01         0.00000E+00
    0.64465E+01        -0.99999E+06         0.00000E+00
    0.00000E+00         0.00000E+00        -0.36304E+06
 
    0.62573E+03         0.79451E+01         0.00000E+00
    0.79451E+01        -0.99999E+06         0.00000E+00
    0.00000E+00         0.00000E+00        -0.36309E+06
 
    0.38549E+03         0.89214E+01         0.00000E+00
    0.89214E+01        -0.99999E+06         0.00000E+00
    0.00000E+00         0.00000E+00        -0.36314E+06
 
    0.16714E+03         0.94290E+01         0.00000E+00
    0.94290E+01        -0.99999E+06         0.00000E+00
    0.00000E+00         0.00000E+00        -0.36318E+06
 
   -0.29342E+02         0.95190E+01         0.00000E+00
    0.95190E+01        -0.99999E+06         0.00000E+00
    0.00000E+00         0.00000E+00        -0.36322E+06
 
   -0.20396E+03         0.92410E+01         0.00000E+00
    0.92410E+01        -0.99999E+06         0.00000E+00
    0.00000E+00         0.00000E+00        -0.36325E+06
 
   -0.35673E+03         0.86425E+01         0.00000E+00
    0.86425E+01        -0.99999E+06         0.00000E+00
    0.00000E+00         0.00000E+00        -0.36328E+06
 
   -0.48766E+03         0.77694E+01         0.00000E+00
    0.77694E+01        -0.99999E+06         0.00000E+00
    0.00000E+00         0.00000E+00        -0.36331E+06
 
   -0.59676E+03         0.66663E+01         0.00000E+00
    0.66663E+01        -0.99999E+06         0.00000E+00
    0.00000E+00         0.00000E+00        -0.36333E+06
 
   -0.68403E+03         0.53765E+01         0.00000E+00
    0.53765E+01        -0.99999E+06         0.00000E+00
    0.00000E+00         0.00000E+00        -0.36335E+06
 
   -0.74947E+03         0.39427E+01         0.00000E+00
    0.39427E+01        -0.99999E+06         0.00000E+00
    0.00000E+00         0.00000E+00        -0.36336E+06
 
   -0.79310E+03         0.24064E+01         0.00000E+00
    0.24064E+01        -0.99999E+06         0.00000E+00
    0.00000E+00         0.00000E+00        -0.36337E+06
 
   -0.81492E+03         0.80894E+00         0.00000E+00
    0.80894E+00        -0.99999E+06         0.00000E+00
    0.00000E+00         0.00000E+00        -0.36338E+06
 
    0.14829E+04         0.16209E+01         0.00000E+00
    0.16209E+01        -0.99999E+06         0.00000E+00
    0.00000E+00         0.00000E+00        -0.36139E+06
 
    0.11758E+04         0.42746E+01         0.00000E+00
    0.42746E+01        -0.99999E+06         0.00000E+00
    0.00000E+00         0.00000E+00        -0.36146E+06
 
    0.89080E+03         0.63032E+01         0.00000E+00
    0.63032E+01        -0.99999E+06         0.00000E+00
    0.00000E+00         0.00000E+00        -0.36151E+06
 
    0.62776E+03         0.77649E+01         0.00000E+00
    0.77649E+01        -0.99999E+06         0.00000E+00
    0.00000E+00         0.00000E+00        -0.36157E+06
 
    0.38671E+03         0.87154E+01         0.00000E+00
    0.87154E+01        -0.99999E+06         0.00000E+00
    0.00000E+00         0.00000E+00        -0.36161E+06
 
    0.16762E+03         0.92076E+01         0.00000E+00
    0.92076E+01        -0.99999E+06         0.00000E+00
    0.00000E+00         0.00000E+00        -0.36166E+06
 
   -0.29504E+02         0.92923E+01         0.00000E+00
    0.92923E+01        -0.99999E+06         0.00000E+00
    0.00000E+00         0.00000E+00        -0.36170E+06
 
   -0.20469E+03         0.90180E+01         0.00000E+00
    0.90180E+01        -0.99999E+06         0.00000E+00
    0.00000E+00         0.00000E+00        -0.36173E+06
 
   -0.35795E+03         0.84315E+01         0.00000E+00
    0.84315E+01        -0.99999E+06         0.00000E+00
    0.00000E+00         0.00000E+00        -0.36176E+06
 
   -0.48930E+03         0.75779E+01         0.00000E+00
    0.75779E+01        -0.99999E+06         0.00000E+00
    0.00000E+00         0.00000E+00        -0.36179E+06
 
   -0.59873E+03         0.65006E+01         0.00000E+00
    0.65006E+01        -0.99999E+06         0.00000E+00
    0.00000E+00         0.00000E+00        -0.36181E+06
 
   -0.68627E+03         0.52421E+01         0.00000E+00
    0.52421E+01        -0.99999E+06         0.00000E+00
    0.00000E+00         0.00000E+00        -0.36183E+06
 
   -0.75192E+03         0.38436E+01         0.00000E+00
    0.38436E+01        -0.99999E+06         0.00000E+00
    0.00000E+00         0.00000E+00        -0.36184E+06
 
   -0.79569E+03         0.23458E+01         0.00000E+00
    0.23458E+01        -0.99999E+06         0.00000E+00
    0.00000E+00         0.00000E+00        -0.36185E+06
 
   -0.81757E+03         0.78851E+00         0.00000E+00
    0.78851E+00        -0.99999E+06         0.00000E+00
    0.00000E+00         0.00000E+00        -0.36185E+06
 
    0.14878E+04         0.15763E+01         0.00000E+00
    0.15763E+01        -0.99999E+06         0.00000E+00
    0.00000E+00         0.00000E+00        -0.35982E+06
 
    0.11797E+04         0.41543E+01         0.00000E+00
    0.41543E+01        -0.99999E+06         0.00000E+00
    0.00000E+00         0.00000E+00        -0.35988E+06
 
    0.89365E+03         0.61223E+01         0.00000E+00
    0.61223E+01        -0.99999E+06         0.00000E+00
    0.00000E+00         0.00000E+00        -0.35994E+06
 
    0.62973E+03         0.75380E+01         0.00000E+00
    0.75380E+01        -0.99999E+06         0.00000E+00
    0.00000E+00         0.00000E+00        -0.35999E+06
 
    0.38788E+03         0.84565E+01         0.00000E+00
    0.84565E+01        -0.99999E+06         0.00000E+00
    0.00000E+00         0.00000E+00        -0.36004E+06
 
    0.16809E+03         0.89301E+01         0.00000E+00
    0.89301E+01        -0.99999E+06         0.00000E+00
    0.00000E+00         0.00000E+00        -0.36009E+06
 
   -0.29668E+02         0.90085E+01         0.00000E+00
    0.90085E+01        -0.99999E+06         0.00000E+00
    0.00000E+00         0.00000E+00        -0.36013E+06
 
   -0.20541E+03         0.87393E+01         0.00000E+00
    0.87393E+01        -0.99999E+06         0.00000E+00
    0.00000E+00         0.00000E+00        -0.36016E+06
 
   -0.35914E+03         0.81683E+01         0.00000E+00
    0.81683E+01        -0.99999E+06         0.00000E+00
    0.00000E+00         0.00000E+00        -0.36019E+06
 
   -0.49089E+03         0.73392E+01         0.00000E+00
    0.73392E+01        -0.99999E+06         0.00000E+00
    0.00000E+00         0.00000E+00        -0.36022E+06
 
   -0.60066E+03         0.62944E+01         0.00000E+00
    0.62944E+01        -0.99999E+06         0.00000E+00
    0.00000E+00         0.00000E+00        -0.36024E+06
 
   -0.68846E+03         0.50748E+01         0.00000E+00
    0.50748E+01        -0.99999E+06         0.00000E+00
    0.00000E+00         0.00000E+00        -0.36026E+06
 
   -0.75430E+03         0.37204E+01         0.00000E+00
    0.37204E+01        -0.99999E+06         0.00000E+00
    0.00000E+00         0.00000E+00        -0.36027E+06
 
   -0.79820E+03         0.22704E+01         0.00000E+00
    0.22704E+01        -0.99999E+06         0.00000E+00
    0.00000E+00         0.00000E+00        -0.36028E+06
 
   -0.82014E+03         0.76313E+00         0.00000E+00
    0.76313E+00        -0.99999E+06         0.00000E+00
    0.00000E+00         0.00000E+00        -0.36028E+06
 
    0.14926E+04         0.15218E+01         0.00000E+00
    0.15218E+01        -0.99999E+06         0.00000E+00
    0.00000E+00         0.00000E+00        -0.35820E+06
 
    0.11834E+04         0.40074E+01         0.00000E+00
    0.40074E+01        -0.99999E+06         0.00000E+00
    0.00000E+00         0.00000E+00        -0.35826E+06
 
    0.89641E+03         0.59017E+01         0.00000E+00
    0.59017E+01        -0.99999E+06         0.00000E+00
    0.00000E+00         0.00000E+00        -0.35832E+06
 
    0.63163E+03         0.72619E+01         0.00000E+00
    0.72619E+01        -0.99999E+06         0.00000E+00
    0.00000E+00         0.00000E+00        -0.35837E+06
 
    0.38901E+03         0.81420E+01         0.00000E+00
    0.81420E+01        -0.99999E+06         0.00000E+00
    0.00000E+00         0.00000E+00        -0.35842E+06
 
    0.16853E+03         0.85933E+01         0.00000E+00
    0.85933E+01        -0.99999E+06         0.00000E+00
    0.00000E+00         0.00000E+00        -0.35847E+06
 
   -0.29833E+02         0.86645E+01         0.00000E+00
    0.86645E+01        -0.99999E+06         0.00000E+00
    0.00000E+00         0.00000E+00        -0.35851E+06
 
   -0.20610E+03         0.84020E+01         0.00000E+00
    0.84020E+01        -0.99999E+06         0.00000E+00
    0.00000E+00         0.00000E+00        -0.35854E+06
 
   -0.36029E+03         0.78500E+01         0.00000E+00
    0.78500E+01        -0.99999E+06         0.00000E+00
    0.00000E+00         0.00000E+00        -0.35857E+06
 
   -0.49242E+03         0.70508E+01         0.00000E+00
    0.70508E+01        -0.99999E+06         0.00000E+00
    0.00000E+00         0.00000E+00        -0.35860E+06
 
   -0.60251E+03         0.60454E+01         0.00000E+00
    0.60454E+01        -0.99999E+06         0.00000E+00
    0.00000E+00         0.00000E+00        -0.35862E+06
 
   -0.69057E+03         0.48729E+01         0.00000E+00
    0.48729E+01        -0.99999E+06         0.00000E+00
    0.00000E+00         0.00000E+00        -0.35864E+06
 
   -0.75660E+03         0.35718E+01         0.00000E+00
    0.35718E+01        -0.99999E+06         0.00000E+00
    0.00000E+00         0.00000E+00        -0.35865E+06
 
   -0.80061E+03         0.21794E+01         0.00000E+00
    0.21794E+01        -0.99999E+06         0.00000E+00
    0.00000E+00         0.00000E+00        -0.35866E+06
 
   -0.82262E+03         0.73252E+00         0.00000E+00
    0.73252E+00        -0.99999E+06         0.00000E+00
    0.00000E+00         0.00000E+00        -0.35866E+06
 
    0.14972E+04         0.14567E+01         0.00000E+00
    0.14567E+01        -0.99999E+06         0.00000E+00
    0.00000E+00         0.00000E+00        -0.35653E+06
 
    0.11870E+04         0.38324E+01         0.00000E+00
    0.38324E+01        -0.99999E+06         0.00000E+00
    0.00000E+00         0.00000E+00        -0.35659E+06
 
    0.89906E+03         0.56393E+01         0.00000E+00
    0.56393E+01        -0.99999E+06         0.00000E+00
    0.00000E+00         0.00000E+00        -0.35665E+06
 
    0.63344E+03         0.69338E+01         0.00000E+00
    0.69338E+01        -0.99999E+06         0.00000E+00
    0.00000E+00         0.00000E+00        -0.35670E+06
 
    0.39008E+03         0.77687E+01         0.00000E+00
    0.77687E+01        -0.99999E+06         0.00000E+00
    0.00000E+00         0.00000E+00        -0.35675E+06
 
    0.16895E+03         0.81941E+01         0.00000E+00
    0.81941E+01        -0.99999E+06         0.00000E+00
    0.00000E+00         0.00000E+00        -0.35680E+06
 
   -0.29997E+02         0.82572E+01         0.00000E+00
    0.82572E+01        -0.99999E+06         0.00000E+00
    0.00000E+00         0.00000E+00        -0.35684E+06
 
   -0.20677E+03         0.80028E+01         0.00000E+00
    0.80028E+01        -0.99999E+06         0.00000E+00
    0.00000E+00         0.00000E+00        -0.35687E+06
 
   -0.36140E+03         0.74735E+01         0.00000E+00
    0.74735E+01        -0.99999E+06         0.00000E+00
    0.00000E+00         0.00000E+00        -0.35690E+06
 
   -0.49390E+03         0.67100E+01         0.00000E+00
    0.67100E+01        -0.99999E+06         0.00000E+00
    0.00000E+00         0.00000E+00        -0.35693E+06
 
   -0.60429E+03         0.57512E+01         0.00000E+00
    0.57512E+01        -0.99999E+06         0.00000E+00
    0.00000E+00         0.00000E+00        -0.35695E+06
 
   -0.69258E+03         0.46345E+01         0.00000E+00
    0.46345E+01        -0.99999E+06         0.00000E+00
    0.00000E+00         0.00000E+00        -0.35697E+06
 
   -0.75879E+03         0.33964E+01         0.00000E+00
    0.33964E+01        -0.99999E+06         0.00000E+00
    0.00000E+00         0.00000E+00        -0.35698E+06
 
   -0.80293E+03         0.20721E+01         0.00000E+00
    0.20721E+01        -0.99999E+06         0.00000E+00
    0.00000E+00         0.00000E+00        -0.35699E+06
 
   -0.82499E+03         0.69640E+00         0.00000E+00
    0.69640E+00        -0.99999E+06         0.00000E+00
    0.00000E+00         0.00000E+00        -0.35700E+06
 
    0.15015E+04         0.13806E+01         0.00000E+00
    0.13806E+01        -0.99999E+06         0.00000E+00
    0.00000E+00         0.00000E+00        -0.35481E+06
 
    0.11903E+04         0.36278E+01         0.00000E+00
    0.36278E+01        -0.99999E+06         0.00000E+00
    0.00000E+00         0.00000E+00        -0.35487E+06
 
    0.90156E+03         0.53330E+01         0.00000E+00
    0.53330E+01        -0.99999E+06         0.00000E+00
    0.00000E+00         0.00000E+00        -0.35493E+06
 
    0.63516E+03         0.65511E+01         0.00000E+00
    0.65511E+01        -0.99999E+06         0.00000E+00
    0.00000E+00         0.00000E+00        -0.35499E+06
 
    0.39110E+03         0.73337E+01         0.00000E+00
    0.73337E+01        -0.99999E+06         0.00000E+00
    0.00000E+00         0.00000E+00        -0.35503E+06
 
    0.16933E+03         0.77291E+01         0.00000E+00
    0.77291E+01        -0.99999E+06         0.00000E+00
    0.00000E+00         0.00000E+00        -0.35508E+06
 
   -0.30161E+02         0.77831E+01         0.00000E+00
    0.77831E+01        -0.99999E+06         0.00000E+00
    0.00000E+00         0.00000E+00        -0.35512E+06
 
   -0.20741E+03         0.75384E+01         0.00000E+00
    0.75384E+01        -0.99999E+06         0.00000E+00
    0.00000E+00         0.00000E+00        -0.35515E+06
 
   -0.36245E+03         0.70358E+01         0.00000E+00
    0.70358E+01        -0.99999E+06         0.00000E+00
    0.00000E+00         0.00000E+00        -0.35518E+06
 
   -0.49530E+03         0.63139E+01         0.00000E+00
    0.63139E+01        -0.99999E+06         0.00000E+00
    0.00000E+00         0.00000E+00        -0.35521E+06
 
   -0.60597E+03         0.54094E+01         0.00000E+00
    0.54094E+01        -0.99999E+06         0.00000E+00
    0.00000E+00         0.00000E+00        -0.35523E+06
 
   -0.69449E+03         0.43577E+01         0.00000E+00
    0.43577E+01        -0.99999E+06         0.00000E+00
    0.00000E+00         0.00000E+00        -0.35525E+06
 
   -0.76087E+03         0.31927E+01         0.00000E+00
    0.31927E+01        -0.99999E+06         0.00000E+00
    0.00000E+00         0.00000E+00        -0.35526E+06
 
   -0.80511E+03         0.19475E+01         0.00000E+00
    0.19475E+01        -0.99999E+06         0.00000E+00
    0.00000E+00         0.00000E+00        -0.35527E+06
 
   -0.82723E+03         0.65447E+00         0.00000E+00
    0.65447E+00        -0.99999E+06         0.00000E+00
    0.00000E+00         0.00000E+00        -0.35528E+06
 
    0.15056E+04         0.12928E+01         0.00000E+00
    0.12928E+01        -0.99999E+06         0.00000E+00
    0.00000E+00         0.00000E+00        -0.35304E+06
 
    0.11935E+04         0.33921E+01         0.00000E+00
    0.33921E+01        -0.99999E+06         0.00000E+00
    0.00000E+00         0.00000E+00        -0.35311E+06
 
    0.90391E+03         0.49804E+01         0.00000E+00
    0.49804E+01        -0.99999E+06         0.00000E+00
    0.00000E+00         0.00000E+00        -0.35316E+06
 
    0.63676E+03         0.61110E+01         0.00000E+00
    0.61110E+01        -0.99999E+06         0.00000E+00
    0.00000E+00         0.00000E+00        -0.35322E+06
 
    0.39203E+03         0.68337E+01         0.00000E+00
    0.68337E+01        -0.99999E+06         0.00000E+00
    0.00000E+00         0.00000E+00        -0.35327E+06
 
    0.16968E+03         0.71951E+01         0.00000E+00
    0.71951E+01        -0.99999E+06         0.00000E+00
    0.00000E+00         0.00000E+00        -0.35331E+06
 
   -0.30324E+02         0.72387E+01         0.00000E+00
    0.72387E+01        -0.99999E+06         0.00000E+00
    0.00000E+00         0.00000E+00        -0.35335E+06
 
   -0.20802E+03         0.70055E+01         0.00000E+00
    0.70055E+01        -0.99999E+06         0.00000E+00
    0.00000E+00         0.00000E+00        -0.35339E+06
 
   -0.36344E+03         0.65338E+01         0.00000E+00
    0.65338E+01        -0.99999E+06         0.00000E+00
    0.00000E+00         0.00000E+00        -0.35342E+06
 
   -0.49661E+03         0.58597E+01         0.00000E+00
    0.58597E+01        -0.99999E+06         0.00000E+00
    0.00000E+00         0.00000E+00        -0.35344E+06
 
   -0.60755E+03         0.50177E+01         0.00000E+00
    0.50177E+01        -0.99999E+06         0.00000E+00
    0.00000E+00         0.00000E+00        -0.35347E+06
 
   -0.69628E+03         0.40404E+01         0.00000E+00
    0.40404E+01        -0.99999E+06         0.00000E+00
    0.00000E+00         0.00000E+00        -0.35348E+06
 
   -0.76281E+03         0.29593E+01         0.00000E+00
    0.29593E+01        -0.99999E+06         0.00000E+00
    0.00000E+00         0.00000E+00        -0.35350E+06
 
   -0.80716E+03         0.18047E+01         0.00000E+00
    0.18047E+01        -0.99999E+06         0.00000E+00
    0.00000E+00         0.00000E+00        -0.35351E+06
 
   -0.82933E+03         0.60643E+00         0.00000E+00
    0.60643E+00        -0.99999E+06         0.00000E+00
    0.00000E+00         0.00000E+00        -0.35351E+06
 
    0.15094E+04         0.11927E+01         0.00000E+00
    0.11927E+01        -0.99999E+06         0.00000E+00
    0.00000E+00         0.00000E+00        -0.35123E+06
 
    0.11965E+04         0.31238E+01         0.00000E+00
    0.31238E+01        -0.99999E+06         0.00000E+00
    0.00000E+00         0.00000E+00        -0.35129E+06
 
    0.90607E+03         0.45792E+01         0.00000E+00
    0.45792E+01        -0.99999E+06         0.00000E+00
    0.00000E+00         0.00000E+00        -0.35135E+06
 
    0.63823E+03         0.56104E+01         0.00000E+00
    0.56104E+01        -0.99999E+06         0.00000E+00
    0.00000E+00         0.00000E+00        -0.35140E+06
 
    0.39289E+03         0.62653E+01         0.00000E+00
    0.62653E+01        -0.99999E+06         0.00000E+00
    0.00000E+00         0.00000E+00        -0.35145E+06
 
    0.17000E+03         0.65883E+01         0.00000E+00
    0.65883E+01        -0.99999E+06         0.00000E+00
    0.00000E+00         0.00000E+00        -0.35149E+06
 
   -0.30486E+02         0.66206E+01         0.00000E+00
    0.66206E+01        -0.99999E+06         0.00000E+00
    0.00000E+00         0.00000E+00        -0.35153E+06
 
   -0.20859E+03         0.64006E+01         0.00000E+00
    0.64006E+01        -0.99999E+06         0.00000E+00
    0.00000E+00         0.00000E+00        -0.35157E+06
 
   -0.36436E+03         0.59640E+01         0.00000E+00
    0.59640E+01        -0.99999E+06         0.00000E+00
    0.00000E+00         0.00000E+00        -0.35160E+06
 
   -0.49783E+03         0.53444E+01         0.00000E+00
    0.53444E+01        -0.99999E+06         0.00000E+00
    0.00000E+00         0.00000E+00        -0.35163E+06
 
   -0.60900E+03         0.45733E+01         0.00000E+00
    0.45733E+01        -0.99999E+06         0.00000E+00
    0.00000E+00         0.00000E+00        -0.35165E+06
 
   -0.69792E+03         0.36806E+01         0.00000E+00
    0.36806E+01        -0.99999E+06         0.00000E+00
    0.00000E+00         0.00000E+00        -0.35167E+06
 
   -0.76459E+03         0.26946E+01         0.00000E+00
    0.26946E+01        -0.99999E+06         0.00000E+00
    0.00000E+00         0.00000E+00        -0.35168E+06
 
   -0.80903E+03         0.16429E+01         0.00000E+00
    0.16429E+01        -0.99999E+06         0.00000E+00
    0.00000E+00         0.00000E+00        -0.35169E+06
 
   -0.83125E+03         0.55196E+00         0.00000E+00
    0.55196E+00        -0.99999E+06         0.00000E+00
    0.00000E+00         0.00000E+00        -0.35169E+06
 
    0.15129E+04         0.10798E+01         0.00000E+00
    0.10798E+01        -0.99999E+06         0.00000E+00
    0.00000E+00         0.00000E+00        -0.34936E+06
 
    0.11991E+04         0.28211E+01         0.00000E+00
    0.28211E+01        -0.99999E+06         0.00000E+00
    0.00000E+00         0.00000E+00        -0.34942E+06
 
    0.90803E+03         0.41268E+01         0.00000E+00
    0.41268E+01        -0.99999E+06         0.00000E+00
    0.00000E+00         0.00000E+00        -0.34948E+06
 
    0.63955E+03         0.50463E+01         0.00000E+00
    0.50463E+01        -0.99999E+06         0.00000E+00
    0.00000E+00         0.00000E+00        -0.34953E+06
 
    0.39365E+03         0.56251E+01         0.00000E+00
    0.56251E+01        -0.99999E+06         0.00000E+00
    0.00000E+00         0.00000E+00        -0.34958E+06
 
    0.17026E+03         0.59051E+01         0.00000E+00
    0.59051E+01        -0.99999E+06         0.00000E+00
    0.00000E+00         0.00000E+00        -0.34963E+06
 
   -0.30645E+02         0.59249E+01         0.00000E+00
    0.59249E+01        -0.99999E+06         0.00000E+00
    0.00000E+00         0.00000E+00        -0.34967E+06
 
   -0.20912E+03         0.57199E+01         0.00000E+00
    0.57199E+01        -0.99999E+06         0.00000E+00
    0.00000E+00         0.00000E+00        -0.34970E+06
 
   -0.36521E+03         0.53231E+01         0.00000E+00
    0.53231E+01        -0.99999E+06         0.00000E+00
    0.00000E+00         0.00000E+00        -0.34973E+06
 
   -0.49893E+03         0.47649E+01         0.00000E+00
    0.47649E+01        -0.99999E+06         0.00000E+00
    0.00000E+00         0.00000E+00        -0.34976E+06
 
   -0.61032E+03         0.40737E+01         0.00000E+00
    0.40737E+01        -0.99999E+06         0.00000E+00
    0.00000E+00         0.00000E+00        -0.34978E+06
 
   -0.69940E+03         0.32760E+01         0.00000E+00
    0.32760E+01        -0.99999E+06         0.00000E+00
    0.00000E+00         0.00000E+00        -0.34980E+06
 
   -0.76620E+03         0.23971E+01         0.00000E+00
    0.23971E+01        -0.99999E+06         0.00000E+00
    0.00000E+00         0.00000E+00        -0.34981E+06
 
   -0.81072E+03         0.14609E+01         0.00000E+00
    0.14609E+01        -0.99999E+06         0.00000E+00
    0.00000E+00         0.00000E+00        -0.34982E+06
 
   -0.83298E+03         0.49074E+00         0.00000E+00
    0.49074E+00        -0.99999E+06         0.00000E+00
    0.00000E+00         0.00000E+00        -0.34983E+06
 
    0.15160E+04         0.95331E+00         0.00000E+00
    0.95331E+00        -0.99999E+06         0.00000E+00
    0.00000E+00         0.00000E+00        -0.34744E+06
 
    0.12015E+04         0.24823E+01         0.00000E+00
    0.24823E+01        -0.99999E+06         0.00000E+00
    0.00000E+00         0.00000E+00        -0.34750E+06
 
    0.90975E+03         0.36208E+01         0.00000E+00
    0.36208E+01        -0.99999E+06         0.00000E+00
    0.00000E+00         0.00000E+00        -0.34756E+06
 
    0.64071E+03         0.44155E+01         0.00000E+00
    0.44155E+01        -0.99999E+06         0.00000E+00
    0.00000E+00         0.00000E+00        -0.34762E+06
 
    0.39430E+03         0.49095E+01         0.00000E+00
    0.49095E+01        -0.99999E+06         0.00000E+00
    0.00000E+00         0.00000E+00        -0.34766E+06
 
    0.17048E+03         0.51417E+01         0.00000E+00
    0.51417E+01        -0.99999E+06         0.00000E+00
    0.00000E+00         0.00000E+00        -0.34771E+06
 
   -0.30802E+02         0.51476E+01         0.00000E+00
    0.51476E+01        -0.99999E+06         0.00000E+00
    0.00000E+00         0.00000E+00        -0.34775E+06
 
   -0.20960E+03         0.49597E+01         0.00000E+00
    0.49597E+01        -0.99999E+06         0.00000E+00
    0.00000E+00         0.00000E+00        -0.34778E+06
 
   -0.36596E+03         0.46075E+01         0.00000E+00
    0.46075E+01        -0.99999E+06         0.00000E+00
    0.00000E+00         0.00000E+00        -0.34782E+06
 
   -0.49991E+03         0.41180E+01         0.00000E+00
    0.41180E+01        -0.99999E+06         0.00000E+00
    0.00000E+00         0.00000E+00        -0.34784E+06
 
   -0.61148E+03         0.35160E+01         0.00000E+00
    0.35160E+01        -0.99999E+06         0.00000E+00
    0.00000E+00         0.00000E+00        -0.34787E+06
 
   -0.70071E+03         0.28246E+01         0.00000E+00
    0.28246E+01        -0.99999E+06         0.00000E+00
    0.00000E+00         0.00000E+00        -0.34788E+06
 
   -0.76761E+03         0.20651E+01         0.00000E+00
    0.20651E+01        -0.99999E+06         0.00000E+00
    0.00000E+00         0.00000E+00        -0.34790E+06
 
   -0.81220E+03         0.12579E+01         0.00000E+00
    0.12579E+01        -0.99999E+06         0.00000E+00
    0.00000E+00         0.00000E+00        -0.34791E+06
 
   -0.83450E+03         0.42244E+00         0.00000E+00
    0.42244E+00        -0.99999E+06         0.00000E+00
    0.00000E+00         0.00000E+00        -0.34791E+06
 
    0.15187E+04         0.81261E+00         0.00000E+00
    0.81261E+00        -0.99999E+06         0.00000E+00
    0.00000E+00         0.00000E+00        -0.34547E+06
 
    0.12035E+04         0.21057E+01         0.00000E+00
    0.21057E+01        -0.99999E+06         0.00000E+00
    0.00000E+00         0.00000E+00        -0.34554E+06
 
    0.91123E+03         0.30583E+01         0.00000E+00
    0.30583E+01        -0.99999E+06         0.00000E+00
    0.00000E+00         0.00000E+00        -0.34559E+06
 
    0.64168E+03         0.37147E+01         0.00000E+00
    0.37147E+01        -0.99999E+06         0.00000E+00
    0.00000E+00         0.00000E+00        -0.34565E+06
 
    0.39484E+03         0.41147E+01         0.00000E+00
    0.41147E+01        -0.99999E+06         0.00000E+00
    0.00000E+00         0.00000E+00        -0.34570E+06
 
    0.17065E+03         0.42940E+01         0.00000E+00
    0.42940E+01        -0.99999E+06         0.00000E+00
    0.00000E+00         0.00000E+00        -0.34574E+06
 
   -0.30955E+02         0.42849E+01         0.00000E+00
    0.42849E+01        -0.99999E+06         0.00000E+00
    0.00000E+00         0.00000E+00        -0.34578E+06
 
   -0.21003E+03         0.41161E+01         0.00000E+00
    0.41161E+01        -0.99999E+06         0.00000E+00
    0.00000E+00         0.00000E+00        -0.34582E+06
 
   -0.36661E+03         0.38135E+01         0.00000E+00
    0.38135E+01        -0.99999E+06         0.00000E+00
    0.00000E+00         0.00000E+00        -0.34585E+06
 
   -0.50075E+03         0.34004E+01         0.00000E+00
    0.34004E+01        -0.99999E+06         0.00000E+00
    0.00000E+00         0.00000E+00        -0.34588E+06
 
   -0.61247E+03         0.28975E+01         0.00000E+00
    0.28975E+01        -0.99999E+06         0.00000E+00
    0.00000E+00         0.00000E+00        -0.34590E+06
 
   -0.70182E+03         0.23239E+01         0.00000E+00
    0.23239E+01        -0.99999E+06         0.00000E+00
    0.00000E+00         0.00000E+00        -0.34592E+06
 
   -0.76880E+03         0.16970E+01         0.00000E+00
    0.16970E+01        -0.99999E+06         0.00000E+00
    0.00000E+00         0.00000E+00        -0.34593E+06
 
   -0.81345E+03         0.10328E+01         0.00000E+00
    0.10328E+01        -0.99999E+06         0.00000E+00
    0.00000E+00         0.00000E+00        -0.34594E+06
 
   -0.83577E+03         0.34670E+00         0.00000E+00
    0.34670E+00        -0.99999E+06         0.00000E+00
    0.00000E+00         0.00000E+00        -0.34594E+06
 
    0.15209E+04         0.65699E+00         0.00000E+00
    0.65699E+00        -0.99999E+06         0.00000E+00
    0.00000E+00         0.00000E+00        -0.34346E+06
 
    0.12052E+04         0.16892E+01         0.00000E+00
    0.16892E+01        -0.99999E+06         0.00000E+00
    0.00000E+00         0.00000E+00        -0.34352E+06
 
    0.91241E+03         0.24367E+01         0.00000E+00
    0.24367E+01        -0.99999E+06         0.00000E+00
    0.00000E+00         0.00000E+00        -0.34358E+06
 
    0.64245E+03         0.29404E+01         0.00000E+00
    0.29404E+01        -0.99999E+06         0.00000E+00
    0.00000E+00         0.00000E+00        -0.34363E+06
 
    0.39526E+03         0.32368E+01         0.00000E+00
    0.32368E+01        -0.99999E+06         0.00000E+00
    0.00000E+00         0.00000E+00        -0.34368E+06
 
    0.17076E+03         0.33580E+01         0.00000E+00
    0.33580E+01        -0.99999E+06         0.00000E+00
    0.00000E+00         0.00000E+00        -0.34373E+06
 
   -0.31105E+02         0.33324E+01         0.00000E+00
    0.33324E+01        -0.99999E+06         0.00000E+00
    0.00000E+00         0.00000E+00        -0.34377E+06
 
   -0.21039E+03         0.31849E+01         0.00000E+00
    0.31849E+01        -0.99999E+06         0.00000E+00
    0.00000E+00         0.00000E+00        -0.34380E+06
 
   -0.36715E+03         0.29373E+01         0.00000E+00
    0.29373E+01        -0.99999E+06         0.00000E+00
    0.00000E+00         0.00000E+00        -0.34383E+06
 
   -0.50143E+03         0.26085E+01         0.00000E+00
    0.26085E+01        -0.99999E+06         0.00000E+00
    0.00000E+00         0.00000E+00        -0.34386E+06
 
   -0.61327E+03         0.22151E+01         0.00000E+00
    0.22151E+01        -0.99999E+06         0.00000E+00
    0.00000E+00         0.00000E+00        -0.34388E+06
 
   -0.70270E+03         0.17716E+01         0.00000E+00
    0.17716E+01        -0.99999E+06         0.00000E+00
    0.00000E+00         0.00000E+00        -0.34390E+06
 
   -0.76976E+03         0.12909E+01         0.00000E+00
    0.12909E+01        -0.99999E+06         0.00000E+00
    0.00000E+00         0.00000E+00        -0.34391E+06
 
   -0.81444E+03         0.78453E+00         0.00000E+00
    0.78453E+00        -0.10000E+07         0.00000E+00
    0.00000E+00         0.00000E+00        -0.34392E+06
 
   -0.83679E+03         0.26316E+00         0.00000E+00
    0.26316E+00        -0.10000E+07         0.00000E+00
    0.00000E+00         0.00000E+00        -0.34393E+06
 
    0.15227E+04         0.48570E+00         0.00000E+00
    0.48570E+00        -0.99999E+06         0.00000E+00
    0.00000E+00         0.00000E+00        -0.34139E+06
 
    0.12065E+04         0.12310E+01         0.00000E+00
    0.12310E+01        -0.99999E+06         0.00000E+00
    0.00000E+00         0.00000E+00        -0.34145E+06
 
    0.91329E+03         0.17530E+01         0.00000E+00
    0.17530E+01        -0.99999E+06         0.00000E+00
    0.00000E+00         0.00000E+00        -0.34151E+06
 
    0.64300E+03         0.20890E+01         0.00000E+00
    0.20890E+01        -0.99999E+06         0.00000E+00
    0.00000E+00         0.00000E+00        -0.34156E+06
 
    0.39553E+03         0.22717E+01         0.00000E+00
    0.22717E+01        -0.99999E+06         0.00000E+00
    0.00000E+00         0.00000E+00        -0.34161E+06
 
    0.17080E+03         0.23293E+01         0.00000E+00
    0.23293E+01        -0.99999E+06         0.00000E+00
    0.00000E+00         0.00000E+00        -0.34166E+06
 
   -0.31249E+02         0.22859E+01         0.00000E+00
    0.22859E+01        -0.99999E+06         0.00000E+00
    0.00000E+00         0.00000E+00        -0.34170E+06
 
   -0.21069E+03         0.21620E+01         0.00000E+00
    0.21620E+01        -0.99999E+06         0.00000E+00
    0.00000E+00         0.00000E+00        -0.34173E+06
 
   -0.36757E+03         0.19749E+01         0.00000E+00
    0.19749E+01        -0.99999E+06         0.00000E+00
    0.00000E+00         0.00000E+00        -0.34177E+06
 
   -0.50195E+03         0.17389E+01         0.00000E+00
    0.17389E+01        -0.99999E+06         0.00000E+00
    0.00000E+00         0.00000E+00        -0.34179E+06
 
   -0.61386E+03         0.14657E+01         0.00000E+00
    0.14657E+01        -0.99999E+06         0.00000E+00
    0.00000E+00         0.00000E+00        -0.34181E+06
 
   -0.70335E+03         0.11651E+01         0.00000E+00
    0.11651E+01        -0.10000E+07         0.00000E+00
    0.00000E+00         0.00000E+00        -0.34183E+06
 
   -0.77044E+03         0.84502E+00         0.00000E+00
    0.84502E+00        -0.10000E+07         0.00000E+00
    0.00000E+00         0.00000E+00        -0.34185E+06
 
   -0.81515E+03         0.51193E+00         0.00000E+00
    0.51193E+00        -0.10000E+07         0.00000E+00
    0.00000E+00         0.00000E+00        -0.34186E+06
 
   -0.83751E+03         0.17144E+00         0.00000E+00
    0.17144E+00        -0.10000E+07         0.00000E+00
    0.00000E+00         0.00000E+00        -0.34186E+06
 
    0.15238E+04         0.29799E+00         0.00000E+00
    0.29799E+00        -0.99999E+06         0.00000E+00
    0.00000E+00         0.00000E+00        -0.33927E+06
 
    0.12073E+04         0.72905E+00         0.00000E+00
    0.72905E+00        -0.99999E+06         0.00000E+00
    0.00000E+00         0.00000E+00        -0.33933E+06
 
    0.91382E+03         0.10042E+01         0.00000E+00
    0.10042E+01        -0.99999E+06         0.00000E+00
    0.00000E+00         0.00000E+00        -0.33939E+06
 
    0.64330E+03         0.11569E+01         0.00000E+00
    0.11569E+01        -0.99999E+06         0.00000E+00
    0.00000E+00         0.00000E+00        -0.33945E+06
 
    0.39564E+03         0.12154E+01         0.00000E+00
    0.12154E+01        -0.99999E+06         0.00000E+00
    0.00000E+00         0.00000E+00        -0.33950E+06
 
    0.17077E+03         0.12035E+01         0.00000E+00
    0.12035E+01        -0.99999E+06         0.00000E+00
    0.00000E+00         0.00000E+00        -0.33954E+06
 
   -0.31387E+02         0.11408E+01         0.00000E+00
    0.11408E+01        -0.99999E+06         0.00000E+00
    0.00000E+00         0.00000E+00        -0.33958E+06
 
   -0.21091E+03         0.10430E+01         0.00000E+00
    0.10430E+01        -0.99999E+06         0.00000E+00
    0.00000E+00         0.00000E+00        -0.33962E+06
 
   -0.36785E+03         0.92220E+00         0.00000E+00
    0.92220E+00        -0.99999E+06         0.00000E+00
    0.00000E+00         0.00000E+00        -0.33965E+06
 
   -0.50227E+03         0.78778E+00         0.00000E+00
    0.78778E+00        -0.99999E+06         0.00000E+00
    0.00000E+00         0.00000E+00        -0.33968E+06
 
   -0.61422E+03         0.64626E+00         0.00000E+00
    0.64626E+00        -0.10000E+07         0.00000E+00
    0.00000E+00         0.00000E+00        -0.33970E+06
 
   -0.70373E+03         0.50200E+00         0.00000E+00
    0.50200E+00        -0.10000E+07         0.00000E+00
    0.00000E+00         0.00000E+00        -0.33972E+06
 
   -0.77083E+03         0.35751E+00         0.00000E+00
    0.35751E+00        -0.10000E+07         0.00000E+00
    0.00000E+00         0.00000E+00        -0.33973E+06
 
   -0.81556E+03         0.21388E+00         0.00000E+00
    0.21388E+00        -0.10000E+07         0.00000E+00
    0.00000E+00         0.00000E+00        -0.33974E+06
 
   -0.83791E+03         0.71168E-01         0.00000E+00
    0.71168E-01        -0.10000E+07         0.00000E+00
    0.00000E+00         0.00000E+00        -0.33974E+06
 
    0.15244E+04         0.93090E-01         0.00000E+00
    0.93090E-01        -0.99999E+06         0.00000E+00
    0.00000E+00         0.00000E+00        -0.33710E+06
 
    0.12076E+04         0.18129E+00         0.00000E+00
    0.18129E+00        -0.99999E+06         0.00000E+00
    0.00000E+00         0.00000E+00        -0.33717E+06
 
    0.91398E+03         0.18734E+00         0.00000E+00
    0.18734E+00        -0.99999E+06         0.00000E+00
    0.00000E+00         0.00000E+00        -0.33722E+06
 
    0.64333E+03         0.14017E+00         0.00000E+00
    0.14017E+00        -0.99999E+06         0.00000E+00
    0.00000E+00         0.00000E+00        -0.33728E+06
 
    0.39559E+03         0.63491E-01         0.00000E+00
    0.63491E-01        -0.99999E+06         0.00000E+00
    0.00000E+00         0.00000E+00        -0.33733E+06
 
    0.17067E+03        -0.23842E-01         0.00000E+00
   -0.23842E-01        -0.99999E+06         0.00000E+00
    0.00000E+00         0.00000E+00        -0.33737E+06
 
   -0.31519E+02        -0.10738E+00         0.00000E+00
   -0.10738E+00        -0.99999E+06         0.00000E+00
    0.00000E+00         0.00000E+00        -0.33741E+06
 
   -0.21105E+03        -0.17671E+00         0.00000E+00
   -0.17671E+00        -0.99999E+06         0.00000E+00
    0.00000E+00         0.00000E+00        -0.33745E+06
 
   -0.36799E+03        -0.22499E+00         0.00000E+00
   -0.22499E+00        -0.99999E+06         0.00000E+00
    0.00000E+00         0.00000E+00        -0.33748E+06
 
   -0.50240E+03        -0.24857E+00         0.00000E+00
   -0.24857E+00        -0.10000E+07         0.00000E+00
    0.00000E+00         0.00000E+00        -0.33751E+06
 
   -0.61433E+03        -0.24657E+00         0.00000E+00
   -0.24657E+00        -0.10000E+07         0.00000E+00
    0.00000E+00         0.00000E+00        -0.33753E+06
 
   -0.70382E+03        -0.22045E+00         0.00000E+00
   -0.22045E+00        -0.10000E+07         0.00000E+00
    0.00000E+00         0.00000E+00        -0.33755E+06
 
   -0.77091E+03        -0.17357E+00         0.00000E+00
   -0.17357E+00        -0.10000E+07         0.00000E+00
    0.00000E+00         0.00000E+00        -0.33756E+06
 
   -0.81562E+03        -0.11079E+00         0.00000E+00
   -0.11079E+00        -0.10000E+07         0.00000E+00
    0.00000E+00         0.00000E+00        -0.33757E+06
 
   -0.83797E+03        -0.38062E-01         0.00000E+00
   -0.38062E-01        -0.10000E+07         0.00000E+00
    0.00000E+00         0.00000E+00        -0.33757E+06
 
    0.15243E+04        -0.12982E+00         0.00000E+00
   -0.12982E+00        -0.99999E+06         0.00000E+00
    0.00000E+00         0.00000E+00        -0.33488E+06
 
    0.12074E+04        -0.41442E+00         0.00000E+00
   -0.41442E+00        -0.99999E+06         0.00000E+00
    0.00000E+00         0.00000E+00        -0.33495E+06
 
    0.91373E+03        -0.70084E+00         0.00000E+00
   -0.70084E+00        -0.99999E+06         0.00000E+00
    0.00000E+00         0.00000E+00        -0.33501E+06
 
    0.64307E+03        -0.96502E+00         0.00000E+00
   -0.96502E+00        -0.99999E+06         0.00000E+00
    0.00000E+00         0.00000E+00        -0.33506E+06
 
    0.39536E+03        -0.11884E+01         0.00000E+00
   -0.11884E+01        -0.99999E+06         0.00000E+00
    0.00000E+00         0.00000E+00        -0.33511E+06
 
    0.17048E+03        -0.13575E+01         0.00000E+00
   -0.13575E+01        -0.99999E+06         0.00000E+00
    0.00000E+00         0.00000E+00        -0.33516E+06
 
   -0.31644E+02        -0.14635E+01         0.00000E+00
   -0.14635E+01        -0.99999E+06         0.00000E+00
    0.00000E+00         0.00000E+00        -0.33520E+06
 
   -0.21110E+03        -0.15016E+01         0.00000E+00
   -0.15016E+01        -0.99999E+06         0.00000E+00
    0.00000E+00         0.00000E+00        -0.33523E+06
 
   -0.36797E+03        -0.14710E+01         0.00000E+00
   -0.14710E+01        -0.99999E+06         0.00000E+00
    0.00000E+00         0.00000E+00        -0.33526E+06
 
   -0.50230E+03        -0.13741E+01         0.00000E+00
   -0.13741E+01        -0.10000E+07         0.00000E+00
    0.00000E+00         0.00000E+00        -0.33529E+06
 
   -0.61416E+03        -0.12161E+01         0.00000E+00
   -0.12161E+01        -0.10000E+07         0.00000E+00
    0.00000E+00         0.00000E+00        -0.33531E+06
 
   -0.70359E+03        -0.10049E+01         0.00000E+00
   -0.10049E+01        -0.10000E+07         0.00000E+00
    0.00000E+00         0.00000E+00        -0.33533E+06
 
   -0.77063E+03        -0.75021E+00         0.00000E+00
   -0.75021E+00        -0.10000E+07         0.00000E+00
    0.00000E+00         0.00000E+00        -0.33534E+06
 
   -0.81531E+03        -0.46331E+00         0.00000E+00
   -0.46331E+00        -0.10000E+07         0.00000E+00
    0.00000E+00         0.00000E+00        -0.33535E+06
 
   -0.83765E+03        -0.15666E+00         0.00000E+00
   -0.15666E+00        -0.10000E+07         0.00000E+00
    0.00000E+00         0.00000E+00        -0.33536E+06
 
    0.15235E+04        -0.37156E+00         0.00000E+00
   -0.37156E+00        -0.99999E+06         0.00000E+00
    0.00000E+00         0.00000E+00        -0.33262E+06
 
    0.12067E+04        -0.10603E+01         0.00000E+00
   -0.10603E+01        -0.99999E+06         0.00000E+00
    0.00000E+00         0.00000E+00        -0.33268E+06
 
    0.91304E+03        -0.16636E+01         0.00000E+00
   -0.16636E+01        -0.99999E+06         0.00000E+00
    0.00000E+00         0.00000E+00        -0.33274E+06
 
    0.64250E+03        -0.21627E+01         0.00000E+00
   -0.21627E+01        -0.99999E+06         0.00000E+00
    0.00000E+00         0.00000E+00        -0.33279E+06
 
    0.39493E+03        -0.25449E+01         0.00000E+00
   -0.25449E+01        -0.99999E+06         0.00000E+00
    0.00000E+00         0.00000E+00        -0.33284E+06
 
    0.17021E+03        -0.28023E+01         0.00000E+00
   -0.28023E+01        -0.99999E+06         0.00000E+00
    0.00000E+00         0.00000E+00        -0.33289E+06
 
   -0.31759E+02        -0.29323E+01         0.00000E+00
   -0.29323E+01        -0.99999E+06         0.00000E+00
    0.00000E+00         0.00000E+00        -0.33293E+06
 
   -0.21106E+03        -0.29365E+01         0.00000E+00
   -0.29365E+01        -0.99999E+06         0.00000E+00
    0.00000E+00         0.00000E+00        -0.33296E+06
 
   -0.36777E+03        -0.28203E+01         0.00000E+00
   -0.28203E+01        -0.10000E+07         0.00000E+00
    0.00000E+00         0.00000E+00        -0.33299E+06
 
   -0.50196E+03        -0.25927E+01         0.00000E+00
   -0.25927E+01        -0.10000E+07         0.00000E+00
    0.00000E+00         0.00000E+00        -0.33302E+06
 
   -0.61370E+03        -0.22658E+01         0.00000E+00
   -0.22658E+01        -0.10000E+07         0.00000E+00
    0.00000E+00         0.00000E+00        -0.33304E+06
 
   -0.70303E+03        -0.18542E+01         0.00000E+00
   -0.18542E+01        -0.10000E+07         0.00000E+00
    0.00000E+00         0.00000E+00        -0.33306E+06
 
   -0.76999E+03        -0.13744E+01         0.00000E+00
   -0.13744E+01        -0.10000E+07         0.00000E+00
    0.00000E+00         0.00000E+00        -0.33307E+06
 
   -0.81461E+03        -0.84491E+00         0.00000E+00
   -0.84491E+00        -0.10000E+07         0.00000E+00
    0.00000E+00         0.00000E+00        -0.33308E+06
 
   -0.83692E+03        -0.28503E+00         0.00000E+00
   -0.28503E+00        -0.10000E+07         0.00000E+00
    0.00000E+00         0.00000E+00        -0.33309E+06
 
    0.15219E+04        -0.63299E+00         0.00000E+00
   -0.63299E+00        -0.99999E+06         0.00000E+00
    0.00000E+00         0.00000E+00        -0.33030E+06
 
    0.12052E+04        -0.17585E+01         0.00000E+00
   -0.17585E+01        -0.99999E+06         0.00000E+00
    0.00000E+00         0.00000E+00        -0.33036E+06
 
    0.91187E+03        -0.27042E+01         0.00000E+00
   -0.27042E+01        -0.99999E+06         0.00000E+00
    0.00000E+00         0.00000E+00        -0.33042E+06
 
    0.64159E+03        -0.34571E+01         0.00000E+00
   -0.34571E+01        -0.99999E+06         0.00000E+00
    0.00000E+00         0.00000E+00        -0.33047E+06
 
    0.39428E+03        -0.40105E+01         0.00000E+00
   -0.40105E+01        -0.99999E+06         0.00000E+00
    0.00000E+00         0.00000E+00        -0.33052E+06
 
    0.16983E+03        -0.43632E+01         0.00000E+00
   -0.43632E+01        -0.99999E+06         0.00000E+00
    0.00000E+00         0.00000E+00        -0.33057E+06
 
   -0.31866E+02        -0.45189E+01         0.00000E+00
   -0.45189E+01        -0.99999E+06         0.00000E+00
    0.00000E+00         0.00000E+00        -0.33061E+06
 
   -0.21091E+03        -0.44861E+01         0.00000E+00
   -0.44861E+01        -0.99999E+06         0.00000E+00
    0.00000E+00         0.00000E+00        -0.33064E+06
 
   -0.36738E+03        -0.42773E+01         0.00000E+00
   -0.42773E+01        -0.10000E+07         0.00000E+00
    0.00000E+00         0.00000E+00        -0.33068E+06
 
   -0.50136E+03        -0.39086E+01         0.00000E+00
   -0.39086E+01        -0.10000E+07         0.00000E+00
    0.00000E+00         0.00000E+00        -0.33070E+06
 
   -0.61291E+03        -0.33992E+01         0.00000E+00
   -0.33992E+01        -0.10000E+07         0.00000E+00
    0.00000E+00         0.00000E+00        -0.33072E+06
 
   -0.70209E+03        -0.27711E+01         0.00000E+00
   -0.27711E+01        -0.10000E+07         0.00000E+00
    0.00000E+00         0.00000E+00        -0.33074E+06
 
   -0.76893E+03        -0.20483E+01         0.00000E+00
   -0.20483E+01        -0.10000E+07         0.00000E+00
    0.00000E+00         0.00000E+00        -0.33076E+06
 
   -0.81348E+03        -0.12569E+01         0.00000E+00
   -0.12569E+01        -0.10000E+07         0.00000E+00
    0.00000E+00         0.00000E+00        -0.33076E+06
 
   -0.83574E+03        -0.42362E+00         0.00000E+00
   -0.42362E+00        -0.10000E+07         0.00000E+00
    0.00000E+00         0.00000E+00        -0.33077E+06
 
    0.15194E+04        -0.91497E+00         0.00000E+00
   -0.91497E+00        -0.99999E+06         0.00000E+00
    0.00000E+00         0.00000E+00        -0.32793E+06
 
    0.12032E+04        -0.25115E+01         0.00000E+00
   -0.25115E+01        -0.99999E+06         0.00000E+00
    0.00000E+00         0.00000E+00        -0.32799E+06
 
    0.91019E+03        -0.38260E+01         0.00000E+00
   -0.38260E+01        -0.99999E+06         0.00000E+00
    0.00000E+00         0.00000E+00        -0.32805E+06
 
    0.64031E+03        -0.48522E+01         0.00000E+00
   -0.48522E+01        -0.99999E+06         0.00000E+00
    0.00000E+00         0.00000E+00        -0.32811E+06
 
    0.39341E+03        -0.55900E+01         0.00000E+00
   -0.55900E+01        -0.99999E+06         0.00000E+00
    0.00000E+00         0.00000E+00        -0.32815E+06
 
    0.16936E+03        -0.60450E+01         0.00000E+00
   -0.60450E+01        -0.99999E+06         0.00000E+00
    0.00000E+00         0.00000E+00        -0.32820E+06
 
   -0.31961E+02        -0.62283E+01         0.00000E+00
   -0.62283E+01        -0.99999E+06         0.00000E+00
    0.00000E+00         0.00000E+00        -0.32824E+06
 
   -0.21065E+03        -0.61555E+01         0.00000E+00
   -0.61555E+01        -0.10000E+07         0.00000E+00
    0.00000E+00         0.00000E+00        -0.32828E+06
 
   -0.36680E+03        -0.58467E+01         0.00000E+00
   -0.58467E+01        -0.10000E+07         0.00000E+00
    0.00000E+00         0.00000E+00        -0.32831E+06
 
   -0.50048E+03        -0.53258E+01         0.00000E+00
   -0.53258E+01        -0.10000E+07         0.00000E+00
    0.00000E+00         0.00000E+00        -0.32833E+06
 
   -0.61178E+03        -0.46197E+01         0.00000E+00
   -0.46197E+01        -0.10000E+07         0.00000E+00
    0.00000E+00         0.00000E+00        -0.32836E+06
 
   -0.70075E+03        -0.37584E+01         0.00000E+00
   -0.37584E+01        -0.10000E+07         0.00000E+00
    0.00000E+00         0.00000E+00        -0.32837E+06
 
   -0.76744E+03        -0.27740E+01         0.00000E+00
   -0.27740E+01        -0.10000E+07         0.00000E+00
    0.00000E+00         0.00000E+00        -0.32839E+06
 
   -0.81188E+03        -0.17005E+01         0.00000E+00
   -0.17005E+01        -0.10000E+07         0.00000E+00
    0.00000E+00         0.00000E+00        -0.32840E+06
 
   -0.83409E+03        -0.57285E+00         0.00000E+00
   -0.57285E+00        -0.10000E+07         0.00000E+00
    0.00000E+00         0.00000E+00        -0.32840E+06
 
    0.15161E+04        -0.12184E+01         0.00000E+00
   -0.12184E+01        -0.99999E+06         0.00000E+00
    0.00000E+00         0.00000E+00        -0.32551E+06
 
    0.12004E+04        -0.33215E+01         0.00000E+00
   -0.33215E+01        -0.99999E+06         0.00000E+00
    0.00000E+00         0.00000E+00        -0.32557E+06
 
    0.90795E+03        -0.50326E+01         0.00000E+00
   -0.50326E+01        -0.99999E+06         0.00000E+00
    0.00000E+00         0.00000E+00        -0.32563E+06
 
    0.63864E+03        -0.63525E+01         0.00000E+00
   -0.63525E+01        -0.99999E+06         0.00000E+00
    0.00000E+00         0.00000E+00        -0.32569E+06
 
    0.39229E+03        -0.72882E+01         0.00000E+00
   -0.72882E+01        -0.99999E+06         0.00000E+00
    0.00000E+00         0.00000E+00        -0.32574E+06
 
    0.16877E+03        -0.78530E+01         0.00000E+00
   -0.78530E+01        -0.99999E+06         0.00000E+00
    0.00000E+00         0.00000E+00        -0.32578E+06
 
   -0.32045E+02        -0.80656E+01         0.00000E+00
   -0.80656E+01        -0.99999E+06         0.00000E+00
    0.00000E+00         0.00000E+00        -0.32582E+06
 
   -0.21026E+03        -0.79496E+01         0.00000E+00
   -0.79496E+01        -0.10000E+07         0.00000E+00
    0.00000E+00         0.00000E+00        -0.32586E+06
 
   -0.36599E+03        -0.75333E+01         0.00000E+00
   -0.75333E+01        -0.10000E+07         0.00000E+00
    0.00000E+00         0.00000E+00        -0.32589E+06
 
   -0.49930E+03        -0.68487E+01         0.00000E+00
   -0.68487E+01        -0.10000E+07         0.00000E+00
    0.00000E+00         0.00000E+00        -0.32591E+06
 
   -0.61028E+03        -0.59312E+01         0.00000E+00
   -0.59312E+01        -0.10000E+07         0.00000E+00
    0.00000E+00         0.00000E+00        -0.32594E+06
 
   -0.69899E+03        -0.48193E+01         0.00000E+00
   -0.48193E+01        -0.10000E+07         0.00000E+00
    0.00000E+00         0.00000E+00        -0.32595E+06
 
   -0.76548E+03        -0.35537E+01         0.00000E+00
   -0.35537E+01        -0.10000E+07         0.00000E+00
    0.00000E+00         0.00000E+00        -0.32597E+06
 
   -0.80978E+03        -0.21770E+01         0.00000E+00
   -0.21770E+01        -0.10000E+07         0.00000E+00
    0.00000E+00         0.00000E+00        -0.32598E+06
 
   -0.83193E+03        -0.73317E+00         0.00000E+00
   -0.73317E+00        -0.10000E+07         0.00000E+00
    0.00000E+00         0.00000E+00        -0.32598E+06
 
    0.15117E+04        -0.15441E+01         0.00000E+00
   -0.15441E+01        -0.99999E+06         0.00000E+00
    0.00000E+00         0.00000E+00        -0.32304E+06
 
    0.11968E+04        -0.41909E+01         0.00000E+00
   -0.41909E+01        -0.99999E+06         0.00000E+00
    0.00000E+00         0.00000E+00        -0.32311E+06
 
    0.90512E+03        -0.63275E+01         0.00000E+00
   -0.63275E+01        -0.99999E+06         0.00000E+00
    0.00000E+00         0.00000E+00        -0.32316E+06
 
    0.63654E+03        -0.79622E+01         0.00000E+00
   -0.79622E+01        -0.99999E+06         0.00000E+00
    0.00000E+00         0.00000E+00        -0.32322E+06
 
    0.39090E+03        -0.91100E+01         0.00000E+00
   -0.91100E+01        -0.99999E+06         0.00000E+00
    0.00000E+00         0.00000E+00        -0.32327E+06
 
    0.16806E+03        -0.97923E+01         0.00000E+00
   -0.97923E+01        -0.99999E+06         0.00000E+00
    0.00000E+00         0.00000E+00        -0.32331E+06
 
   -0.32116E+02        -0.10036E+02         0.00000E+00
   -0.10036E+02        -0.99999E+06         0.00000E+00
    0.00000E+00         0.00000E+00        -0.32335E+06
 
   -0.20975E+03        -0.98736E+01         0.00000E+00
   -0.98736E+01        -0.10000E+07         0.00000E+00
    0.00000E+00         0.00000E+00        -0.32339E+06
 
   -0.36494E+03        -0.93418E+01         0.00000E+00
   -0.93418E+01        -0.10000E+07         0.00000E+00
    0.00000E+00         0.00000E+00        -0.32342E+06
 
   -0.49779E+03        -0.84814E+01         0.00000E+00
   -0.84814E+01        -0.10000E+07         0.00000E+00
    0.00000E+00         0.00000E+00        -0.32344E+06
 
   -0.60838E+03        -0.73372E+01         0.00000E+00
   -0.73372E+01        -0.10000E+07         0.00000E+00
    0.00000E+00         0.00000E+00        -0.32347E+06
 
   -0.69677E+03        -0.59566E+01         0.00000E+00
   -0.59566E+01        -0.10000E+07         0.00000E+00
    0.00000E+00         0.00000E+00        -0.32348E+06
 
   -0.76301E+03        -0.43895E+01         0.00000E+00
   -0.43895E+01        -0.10000E+07         0.00000E+00
    0.00000E+00         0.00000E+00        -0.32350E+06
 
   -0.80715E+03        -0.26879E+01         0.00000E+00
   -0.26879E+01        -0.10000E+07         0.00000E+00
    0.00000E+00         0.00000E+00        -0.32351E+06
 
   -0.82921E+03        -0.90502E+00         0.00000E+00
   -0.90502E+00        -0.10000E+07         0.00000E+00
    0.00000E+00         0.00000E+00        -0.32351E+06
 
    0.15063E+04        -0.18931E+01         0.00000E+00
   -0.18931E+01        -0.99999E+06         0.00000E+00
    0.00000E+00         0.00000E+00        -0.32052E+06
 
    0.11924E+04        -0.51221E+01         0.00000E+00
   -0.51221E+01        -0.99999E+06         0.00000E+00
    0.00000E+00         0.00000E+00        -0.32059E+06
 
    0.90164E+03        -0.77141E+01         0.00000E+00
   -0.77141E+01        -0.99999E+06         0.00000E+00
    0.00000E+00         0.00000E+00        -0.32064E+06
 
    0.63399E+03        -0.96857E+01         0.00000E+00
   -0.96857E+01        -0.99999E+06         0.00000E+00
    0.00000E+00         0.00000E+00        -0.32070E+06
 
    0.38924E+03        -0.11060E+02         0.00000E+00
   -0.11060E+02        -0.99999E+06         0.00000E+00
    0.00000E+00         0.00000E+00        -0.32075E+06
 
    0.16723E+03        -0.11868E+02         0.00000E+00
   -0.11868E+02        -0.99999E+06         0.00000E+00
    0.00000E+00         0.00000E+00        -0.32079E+06
 
   -0.32172E+02        -0.12145E+02         0.00000E+00
   -0.12145E+02        -0.10000E+07         0.00000E+00
    0.00000E+00         0.00000E+00        -0.32083E+06
 
   -0.20909E+03        -0.11933E+02         0.00000E+00
   -0.11933E+02        -0.10000E+07         0.00000E+00
    0.00000E+00         0.00000E+00        -0.32087E+06
 
   -0.36365E+03        -0.11277E+02         0.00000E+00
   -0.11277E+02        -0.10000E+07         0.00000E+00
    0.00000E+00         0.00000E+00        -0.32090E+06
 
   -0.49594E+03        -0.10229E+02         0.00000E+00
   -0.10229E+02        -0.10000E+07         0.00000E+00
    0.00000E+00         0.00000E+00        -0.32092E+06
 
   -0.60605E+03        -0.88415E+01         0.00000E+00
   -0.88415E+01        -0.10000E+07         0.00000E+00
    0.00000E+00         0.00000E+00        -0.32095E+06
 
   -0.69405E+03        -0.71733E+01         0.00000E+00
   -0.71733E+01        -0.10000E+07         0.00000E+00
    0.00000E+00         0.00000E+00        -0.32096E+06
 
   -0.76000E+03        -0.52836E+01         0.00000E+00
   -0.52836E+01        -0.10000E+07         0.00000E+00
    0.00000E+00         0.00000E+00        -0.32098E+06
 
   -0.80394E+03        -0.32344E+01         0.00000E+00
   -0.32344E+01        -0.10000E+07         0.00000E+00
    0.00000E+00         0.00000E+00        -0.32099E+06
 
   -0.82591E+03        -0.10889E+01         0.00000E+00
   -0.10889E+01        -0.10000E+07         0.00000E+00
    0.00000E+00         0.00000E+00        -0.32099E+06
 
    0.14998E+04        -0.22662E+01         0.00000E+00
   -0.22662E+01        -0.99999E+06         0.00000E+00
    0.00000E+00         0.00000E+00        -0.31796E+06
 
    0.11871E+04        -0.61175E+01         0.00000E+00
   -0.61175E+01        -0.99999E+06         0.00000E+00
    0.00000E+00         0.00000E+00        -0.31802E+06
 
    0.89749E+03        -0.91961E+01         0.00000E+00
   -0.91961E+01        -0.99999E+06         0.00000E+00
    0.00000E+00         0.00000E+00        -0.31808E+06
 
    0.63095E+03        -0.11527E+02         0.00000E+00
   -0.11527E+02        -0.99999E+06         0.00000E+00
    0.00000E+00         0.00000E+00        -0.31813E+06
 
    0.38726E+03        -0.13144E+02         0.00000E+00
   -0.13144E+02        -0.99999E+06         0.00000E+00
    0.00000E+00         0.00000E+00        -0.31818E+06
 
    0.16626E+03        -0.14086E+02         0.00000E+00
   -0.14086E+02        -0.99999E+06         0.00000E+00
    0.00000E+00         0.00000E+00        -0.31822E+06
 
   -0.32213E+02        -0.14398E+02         0.00000E+00
   -0.14398E+02        -0.10000E+07         0.00000E+00
    0.00000E+00         0.00000E+00        -0.31826E+06
 
   -0.20829E+03        -0.14132E+02         0.00000E+00
   -0.14132E+02        -0.10000E+07         0.00000E+00
    0.00000E+00         0.00000E+00        -0.31830E+06
 
   -0.36208E+03        -0.13344E+02         0.00000E+00
   -0.13344E+02        -0.10000E+07         0.00000E+00
    0.00000E+00         0.00000E+00        -0.31833E+06
 
   -0.49371E+03        -0.12094E+02         0.00000E+00
   -0.12094E+02        -0.10000E+07         0.00000E+00
    0.00000E+00         0.00000E+00        -0.31835E+06
 
   -0.60326E+03        -0.10448E+02         0.00000E+00
   -0.10448E+02        -0.10000E+07         0.00000E+00
    0.00000E+00         0.00000E+00        -0.31838E+06
 
   -0.69081E+03        -0.84725E+01         0.00000E+00
   -0.84725E+01        -0.10000E+07         0.00000E+00
    0.00000E+00         0.00000E+00        -0.31839E+06
 
   -0.75641E+03        -0.62384E+01         0.00000E+00
   -0.62384E+01        -0.10000E+07         0.00000E+00
    0.00000E+00         0.00000E+00        -0.31841E+06
 
   -0.80013E+03        -0.38179E+01         0.00000E+00
   -0.38179E+01        -0.10000E+07         0.00000E+00
    0.00000E+00         0.00000E+00        -0.31841E+06
 
   -0.82197E+03        -0.12852E+01         0.00000E+00
   -0.12852E+01        -0.10000E+07         0.00000E+00
    0.00000E+00         0.00000E+00        -0.31842E+06
 
    0.14922E+04        -0.26644E+01         0.00000E+00
   -0.26644E+01        -0.99999E+06         0.00000E+00
    0.00000E+00         0.00000E+00        -0.31534E+06
 
    0.11808E+04        -0.71796E+01         0.00000E+00
   -0.71796E+01        -0.99999E+06         0.00000E+00
    0.00000E+00         0.00000E+00        -0.31540E+06
 
    0.89261E+03        -0.10777E+02         0.00000E+00
   -0.10777E+02        -0.99999E+06         0.00000E+00
    0.00000E+00         0.00000E+00        -0.31546E+06
 
    0.62740E+03        -0.13492E+02         0.00000E+00
   -0.13492E+02        -0.99999E+06         0.00000E+00
    0.00000E+00         0.00000E+00        -0.31551E+06
 
    0.38497E+03        -0.15367E+02         0.00000E+00
   -0.15367E+02        -0.99999E+06         0.00000E+00
    0.00000E+00         0.00000E+00        -0.31556E+06
 
    0.16515E+03        -0.16451E+02         0.00000E+00
   -0.16451E+02        -0.99999E+06         0.00000E+00
    0.00000E+00         0.00000E+00        -0.31560E+06
 
   -0.32236E+02        -0.16800E+02         0.00000E+00
   -0.16800E+02        -0.10000E+07         0.00000E+00
    0.00000E+00         0.00000E+00        -0.31564E+06
 
   -0.20732E+03        -0.16477E+02         0.00000E+00
   -0.16477E+02        -0.10000E+07         0.00000E+00
    0.00000E+00         0.00000E+00        -0.31568E+06
 
   -0.36023E+03        -0.15547E+02         0.00000E+00
   -0.15547E+02        -0.10000E+07         0.00000E+00
    0.00000E+00         0.00000E+00        -0.31571E+06
 
   -0.49109E+03        -0.14083E+02         0.00000E+00
   -0.14083E+02        -0.10000E+07         0.00000E+00
    0.00000E+00         0.00000E+00        -0.31573E+06
 
   -0.59998E+03        -0.12160E+02         0.00000E+00
   -0.12160E+02        -0.10000E+07         0.00000E+00
    0.00000E+00         0.00000E+00        -0.31576E+06
 
   -0.68700E+03        -0.98574E+01         0.00000E+00
   -0.98574E+01        -0.10000E+07         0.00000E+00
    0.00000E+00         0.00000E+00        -0.31577E+06
 
   -0.75221E+03        -0.72560E+01         0.00000E+00
   -0.72560E+01        -0.10000E+07         0.00000E+00
    0.00000E+00         0.00000E+00        -0.31579E+06
 
   -0.79565E+03        -0.44399E+01         0.00000E+00
   -0.44399E+01        -0.10000E+07         0.00000E+00
    0.00000E+00         0.00000E+00        -0.31579E+06
 
   -0.81737E+03        -0.14944E+01         0.00000E+00
   -0.14944E+01        -0.10000E+07         0.00000E+00
    0.00000E+00         0.00000E+00        -0.31580E+06
 
    0.14832E+04        -0.30886E+01         0.00000E+00
   -0.30886E+01        -0.99999E+06         0.00000E+00
    0.00000E+00         0.00000E+00        -0.31267E+06
 
    0.11735E+04        -0.83109E+01         0.00000E+00
   -0.83109E+01        -0.99999E+06         0.00000E+00
    0.00000E+00         0.00000E+00        -0.31273E+06
 
    0.88696E+03        -0.12461E+02         0.00000E+00
   -0.12461E+02        -0.99999E+06         0.00000E+00
    0.00000E+00         0.00000E+00        -0.31279E+06
 
    0.62330E+03        -0.15584E+02         0.00000E+00
   -0.15584E+02        -0.99999E+06         0.00000E+00
    0.00000E+00         0.00000E+00        -0.31284E+06
 
    0.38233E+03        -0.17733E+02         0.00000E+00
   -0.17733E+02        -0.99999E+06         0.00000E+00
    0.00000E+00         0.00000E+00        -0.31289E+06
 
    0.16388E+03        -0.18968E+02         0.00000E+00
   -0.18968E+02        -0.99999E+06         0.00000E+00
    0.00000E+00         0.00000E+00        -0.31293E+06
 
   -0.32240E+02        -0.19357E+02         0.00000E+00
   -0.19357E+02        -0.10000E+07         0.00000E+00
    0.00000E+00         0.00000E+00        -0.31297E+06
 
   -0.20618E+03        -0.18972E+02         0.00000E+00
   -0.18972E+02        -0.10000E+07         0.00000E+00
    0.00000E+00         0.00000E+00        -0.31301E+06
 
   -0.35807E+03        -0.17892E+02         0.00000E+00
   -0.17892E+02        -0.10000E+07         0.00000E+00
    0.00000E+00         0.00000E+00        -0.31304E+06
 
   -0.48804E+03        -0.16200E+02         0.00000E+00
   -0.16200E+02        -0.10000E+07         0.00000E+00
    0.00000E+00         0.00000E+00        -0.31306E+06
 
   -0.59618E+03        -0.13983E+02         0.00000E+00
   -0.13983E+02        -0.10000E+07         0.00000E+00
    0.00000E+00         0.00000E+00        -0.31309E+06
 
   -0.68260E+03        -0.11331E+02         0.00000E+00
   -0.11331E+02        -0.10000E+07         0.00000E+00
    0.00000E+00         0.00000E+00        -0.31310E+06
 
   -0.74734E+03        -0.83388E+01         0.00000E+00
   -0.83388E+01        -0.10000E+07         0.00000E+00
    0.00000E+00         0.00000E+00        -0.31312E+06
 
   -0.79048E+03        -0.51017E+01         0.00000E+00
   -0.51017E+01        -0.10000E+07         0.00000E+00
    0.00000E+00         0.00000E+00        -0.31312E+06
 
   -0.81204E+03        -0.17170E+01         0.00000E+00
   -0.17170E+01        -0.10000E+07         0.00000E+00
    0.00000E+00         0.00000E+00        -0.31313E+06
 
    0.14729E+04        -0.35397E+01         0.00000E+00
   -0.35397E+01        -0.99999E+06         0.00000E+00
    0.00000E+00         0.00000E+00        -0.30995E+06
 
    0.11652E+04        -0.95138E+01         0.00000E+00
   -0.95138E+01        -0.99999E+06         0.00000E+00
    0.00000E+00         0.00000E+00        -0.31002E+06
 
    0.88048E+03        -0.14251E+02         0.00000E+00
   -0.14251E+02        -0.99999E+06         0.00000E+00
    0.00000E+00         0.00000E+00        -0.31007E+06
 
    0.61861E+03        -0.17808E+02         0.00000E+00
   -0.17808E+02        -0.99999E+06         0.00000E+00
    0.00000E+00         0.00000E+00        -0.31013E+06
 
    0.37933E+03        -0.20248E+02         0.00000E+00
   -0.20248E+02        -0.99999E+06         0.00000E+00
    0.00000E+00         0.00000E+00        -0.31017E+06
 
    0.16245E+03        -0.21644E+02         0.00000E+00
   -0.21644E+02        -0.10000E+07         0.00000E+00
    0.00000E+00         0.00000E+00        -0.31022E+06
 
   -0.32224E+02        -0.22074E+02         0.00000E+00
   -0.22074E+02        -0.10000E+07         0.00000E+00
    0.00000E+00         0.00000E+00        -0.31026E+06
 
   -0.20485E+03        -0.21624E+02         0.00000E+00
   -0.21624E+02        -0.10000E+07         0.00000E+00
    0.00000E+00         0.00000E+00        -0.31029E+06
 
   -0.35558E+03        -0.20384E+02         0.00000E+00
   -0.20384E+02        -0.10000E+07         0.00000E+00
    0.00000E+00         0.00000E+00        -0.31032E+06
 
   -0.48454E+03        -0.18449E+02         0.00000E+00
   -0.18449E+02        -0.10000E+07         0.00000E+00
    0.00000E+00         0.00000E+00        -0.31035E+06
 
   -0.59183E+03        -0.15919E+02         0.00000E+00
   -0.15919E+02        -0.10000E+07         0.00000E+00
    0.00000E+00         0.00000E+00        -0.31037E+06
 
   -0.67755E+03        -0.12897E+02         0.00000E+00
   -0.12897E+02        -0.10000E+07         0.00000E+00
    0.00000E+00         0.00000E+00        -0.31038E+06
 
   -0.74178E+03        -0.94892E+01         0.00000E+00
   -0.94892E+01        -0.10000E+07         0.00000E+00
    0.00000E+00         0.00000E+00        -0.31040E+06
 
   -0.78457E+03        -0.58048E+01         0.00000E+00
   -0.58048E+01        -0.10000E+07         0.00000E+00
    0.00000E+00         0.00000E+00        -0.31040E+06
 
   -0.80596E+03        -0.19535E+01         0.00000E+00
   -0.19535E+01        -0.10000E+07         0.00000E+00
    0.00000E+00         0.00000E+00        -0.31041E+06
 
    0.14611E+04        -0.40188E+01         0.00000E+00
   -0.40188E+01        -0.99999E+06         0.00000E+00
    0.00000E+00         0.00000E+00        -0.30719E+06
 
    0.11556E+04        -0.10791E+02         0.00000E+00
   -0.10791E+02        -0.99999E+06         0.00000E+00
    0.00000E+00         0.00000E+00        -0.30725E+06
 
    0.87312E+03        -0.16151E+02         0.00000E+00
   -0.16151E+02        -0.99999E+06         0.00000E+00
    0.00000E+00         0.00000E+00        -0.30731E+06
 
    0.61330E+03        -0.20168E+02         0.00000E+00
   -0.20168E+02        -0.99999E+06         0.00000E+00
    0.00000E+00         0.00000E+00        -0.30736E+06
 
    0.37595E+03        -0.22917E+02         0.00000E+00
   -0.22917E+02        -0.99999E+06         0.00000E+00
    0.00000E+00         0.00000E+00        -0.30741E+06
 
    0.16085E+03        -0.24483E+02         0.00000E+00
   -0.24483E+02        -0.10000E+07         0.00000E+00
    0.00000E+00         0.00000E+00        -0.30745E+06
 
   -0.32186E+02        -0.24958E+02         0.00000E+00
   -0.24958E+02        -0.10000E+07         0.00000E+00
    0.00000E+00         0.00000E+00        -0.30749E+06
 
   -0.20333E+03        -0.24438E+02         0.00000E+00
   -0.24438E+02        -0.10000E+07         0.00000E+00
    0.00000E+00         0.00000E+00        -0.30752E+06
 
   -0.35274E+03        -0.23027E+02         0.00000E+00
   -0.23027E+02        -0.10000E+07         0.00000E+00
    0.00000E+00         0.00000E+00        -0.30755E+06
 
   -0.48056E+03        -0.20835E+02         0.00000E+00
   -0.20835E+02        -0.10000E+07         0.00000E+00
    0.00000E+00         0.00000E+00        -0.30758E+06
 
   -0.58689E+03        -0.17972E+02         0.00000E+00
   -0.17972E+02        -0.10000E+07         0.00000E+00
    0.00000E+00         0.00000E+00        -0.30760E+06
 
   -0.67184E+03        -0.14558E+02         0.00000E+00
   -0.14558E+02        -0.10000E+07         0.00000E+00
    0.00000E+00         0.00000E+00        -0.30762E+06
 
   -0.73548E+03        -0.10710E+02         0.00000E+00
   -0.10710E+02        -0.10000E+07         0.00000E+00
    0.00000E+00         0.00000E+00        -0.30763E+06
 
   -0.77787E+03        -0.65506E+01         0.00000E+00
   -0.65506E+01        -0.10000E+07         0.00000E+00
    0.00000E+00         0.00000E+00        -0.30764E+06
 
   -0.79906E+03        -0.22044E+01         0.00000E+00
   -0.22044E+01        -0.10000E+07         0.00000E+00
    0.00000E+00         0.00000E+00        -0.30764E+06
 
    0.14478E+04        -0.45267E+01         0.00000E+00
   -0.45267E+01        -0.99999E+06         0.00000E+00
    0.00000E+00         0.00000E+00        -0.30438E+06
 
    0.11449E+04        -0.12145E+02         0.00000E+00
   -0.12145E+02        -0.99999E+06         0.00000E+00
    0.00000E+00         0.00000E+00        -0.30444E+06
 
    0.86484E+03        -0.18165E+02         0.00000E+00
   -0.18165E+02        -0.99999E+06         0.00000E+00
    0.00000E+00         0.00000E+00        -0.30449E+06
 
    0.60733E+03        -0.22669E+02         0.00000E+00
   -0.22669E+02        -0.99999E+06         0.00000E+00
    0.00000E+00         0.00000E+00        -0.30454E+06
 
    0.37215E+03        -0.25746E+02         0.00000E+00
   -0.25746E+02        -0.99999E+06         0.00000E+00
    0.00000E+00         0.00000E+00        -0.30459E+06
 
    0.15907E+03        -0.27492E+02         0.00000E+00
   -0.27492E+02        -0.10000E+07         0.00000E+00
    0.00000E+00         0.00000E+00        -0.30463E+06
 
   -0.32125E+02        -0.28013E+02         0.00000E+00
   -0.28013E+02        -0.10000E+07         0.00000E+00
    0.00000E+00         0.00000E+00        -0.30467E+06
 
   -0.20160E+03        -0.27419E+02         0.00000E+00
   -0.27419E+02        -0.10000E+07         0.00000E+00
    0.00000E+00         0.00000E+00        -0.30471E+06
 
   -0.34954E+03        -0.25828E+02         0.00000E+00
   -0.25828E+02        -0.10000E+07         0.00000E+00
    0.00000E+00         0.00000E+00        -0.30474E+06
 
   -0.47607E+03        -0.23362E+02         0.00000E+00
   -0.23362E+02        -0.10000E+07         0.00000E+00
    0.00000E+00         0.00000E+00        -0.30476E+06
 
   -0.58132E+03        -0.20148E+02         0.00000E+00
   -0.20148E+02        -0.10000E+07         0.00000E+00
    0.00000E+00         0.00000E+00        -0.30478E+06
 
   -0.66540E+03        -0.16317E+02         0.00000E+00
   -0.16317E+02        -0.10000E+07         0.00000E+00
    0.00000E+00         0.00000E+00        -0.30480E+06
 
   -0.72839E+03        -0.12002E+02         0.00000E+00
   -0.12002E+02        -0.10000E+07         0.00000E+00
    0.00000E+00         0.00000E+00        -0.30481E+06
 
   -0.77034E+03        -0.73407E+01         0.00000E+00
   -0.73407E+01        -0.10000E+07         0.00000E+00
    0.00000E+00         0.00000E+00        -0.30482E+06
 
   -0.79131E+03        -0.24702E+01         0.00000E+00
   -0.24702E+01        -0.10000E+07         0.00000E+00
    0.00000E+00         0.00000E+00        -0.30482E+06
 
    0.14329E+04        -0.50643E+01         0.00000E+00
   -0.50643E+01        -0.99999E+06         0.00000E+00
    0.00000E+00         0.00000E+00        -0.30152E+06
 
    0.11329E+04        -0.13578E+02         0.00000E+00
   -0.13578E+02        -0.99999E+06         0.00000E+00
    0.00000E+00         0.00000E+00        -0.30158E+06
 
    0.85557E+03        -0.20297E+02         0.00000E+00
   -0.20297E+02        -0.99999E+06         0.00000E+00
    0.00000E+00         0.00000E+00        -0.30163E+06
 
    0.60067E+03        -0.25317E+02         0.00000E+00
   -0.25317E+02        -0.99999E+06         0.00000E+00
    0.00000E+00         0.00000E+00        -0.30168E+06
 
    0.36792E+03        -0.28740E+02         0.00000E+00
   -0.28740E+02        -0.99999E+06         0.00000E+00
    0.00000E+00         0.00000E+00        -0.30173E+06
 
    0.15709E+03        -0.30676E+02         0.00000E+00
   -0.30676E+02        -0.10000E+07         0.00000E+00
    0.00000E+00         0.00000E+00        -0.30177E+06
 
   -0.32038E+02        -0.31246E+02         0.00000E+00
   -0.31246E+02        -0.10000E+07         0.00000E+00
    0.00000E+00         0.00000E+00        -0.30181E+06
 
   -0.19966E+03        -0.30574E+02         0.00000E+00
   -0.30574E+02        -0.10000E+07         0.00000E+00
    0.00000E+00         0.00000E+00        -0.30184E+06
 
   -0.34594E+03        -0.28792E+02         0.00000E+00
   -0.28792E+02        -0.10000E+07         0.00000E+00
    0.00000E+00         0.00000E+00        -0.30187E+06
 
   -0.47105E+03        -0.26037E+02         0.00000E+00
   -0.26037E+02        -0.10000E+07         0.00000E+00
    0.00000E+00         0.00000E+00        -0.30190E+06
 
   -0.57510E+03        -0.22450E+02         0.00000E+00
   -0.22450E+02        -0.10000E+07         0.00000E+00
    0.00000E+00         0.00000E+00        -0.30192E+06
 
   -0.65821E+03        -0.18179E+02         0.00000E+00
   -0.18179E+02        -0.10000E+07         0.00000E+00
    0.00000E+00         0.00000E+00        -0.30193E+06
 
   -0.72046E+03        -0.13370E+02         0.00000E+00
   -0.13370E+02        -0.10000E+07         0.00000E+00
    0.00000E+00         0.00000E+00        -0.30194E+06
 
   -0.76193E+03        -0.81766E+01         0.00000E+00
   -0.81766E+01        -0.10000E+07         0.00000E+00
    0.00000E+00         0.00000E+00        -0.30195E+06
 
   -0.78265E+03        -0.27513E+01         0.00000E+00
   -0.27513E+01        -0.10000E+07         0.00000E+00
    0.00000E+00         0.00000E+00        -0.30196E+06
 
    0.14163E+04        -0.56328E+01         0.00000E+00
   -0.56328E+01        -0.99999E+06         0.00000E+00
    0.00000E+00         0.00000E+00        -0.29861E+06
 
    0.11195E+04        -0.15093E+02         0.00000E+00
   -0.15093E+02        -0.99999E+06         0.00000E+00
    0.00000E+00         0.00000E+00        -0.29867E+06
 
    0.84527E+03        -0.22551E+02         0.00000E+00
   -0.22551E+02        -0.99999E+06         0.00000E+00
    0.00000E+00         0.00000E+00        -0.29872E+06
 
    0.59327E+03        -0.28116E+02         0.00000E+00
   -0.28116E+02        -0.99999E+06         0.00000E+00
    0.00000E+00         0.00000E+00        -0.29877E+06
 
    0.36323E+03        -0.31904E+02         0.00000E+00
   -0.31904E+02        -0.99999E+06         0.00000E+00
    0.00000E+00         0.00000E+00        -0.29882E+06
 
    0.15491E+03        -0.34042E+02         0.00000E+00
   -0.34042E+02        -0.10000E+07         0.00000E+00
    0.00000E+00         0.00000E+00        -0.29886E+06
 
   -0.31924E+02        -0.34663E+02         0.00000E+00
   -0.34663E+02        -0.10000E+07         0.00000E+00
    0.00000E+00         0.00000E+00        -0.29890E+06
 
   -0.19748E+03        -0.33908E+02         0.00000E+00
   -0.33908E+02        -0.10000E+07         0.00000E+00
    0.00000E+00         0.00000E+00        -0.29893E+06
 
   -0.34193E+03        -0.31924E+02         0.00000E+00
   -0.31924E+02        -0.10000E+07         0.00000E+00
    0.00000E+00         0.00000E+00        -0.29896E+06
 
   -0.46545E+03        -0.28863E+02         0.00000E+00
   -0.28863E+02        -0.10000E+07         0.00000E+00
    0.00000E+00         0.00000E+00        -0.29898E+06
 
   -0.56817E+03        -0.24883E+02         0.00000E+00
   -0.24883E+02        -0.10000E+07         0.00000E+00
    0.00000E+00         0.00000E+00        -0.29900E+06
 
   -0.65021E+03        -0.20146E+02         0.00000E+00
   -0.20146E+02        -0.10000E+07         0.00000E+00
    0.00000E+00         0.00000E+00        -0.29902E+06
 
   -0.71166E+03        -0.14816E+02         0.00000E+00
   -0.14816E+02        -0.10000E+07         0.00000E+00
    0.00000E+00         0.00000E+00        -0.29903E+06
 
   -0.75259E+03        -0.90599E+01         0.00000E+00
   -0.90599E+01        -0.10000E+07         0.00000E+00
    0.00000E+00         0.00000E+00        -0.29904E+06
 
   -0.77304E+03        -0.30485E+01         0.00000E+00
   -0.30485E+01        -0.10000E+07         0.00000E+00
    0.00000E+00         0.00000E+00        -0.29904E+06
 
    0.13978E+04        -0.62332E+01         0.00000E+00
   -0.62332E+01        -0.99999E+06         0.00000E+00
    0.00000E+00         0.00000E+00        -0.29565E+06
 
    0.11047E+04        -0.16692E+02         0.00000E+00
   -0.16692E+02        -0.99999E+06         0.00000E+00
    0.00000E+00         0.00000E+00        -0.29571E+06
 
    0.83387E+03        -0.24931E+02         0.00000E+00
   -0.24931E+02        -0.99999E+06         0.00000E+00
    0.00000E+00         0.00000E+00        -0.29576E+06
 
    0.58509E+03        -0.31071E+02         0.00000E+00
   -0.31071E+02        -0.99999E+06         0.00000E+00
    0.00000E+00         0.00000E+00        -0.29581E+06
 
    0.35806E+03        -0.35245E+02         0.00000E+00
   -0.35245E+02        -0.10000E+07         0.00000E+00
    0.00000E+00         0.00000E+00        -0.29586E+06
 
    0.15252E+03        -0.37595E+02         0.00000E+00
   -0.37595E+02        -0.10000E+07         0.00000E+00
    0.00000E+00         0.00000E+00        -0.29590E+06
 
   -0.31781E+02        -0.38271E+02         0.00000E+00
   -0.38271E+02        -0.10000E+07         0.00000E+00
    0.00000E+00         0.00000E+00        -0.29594E+06
 
   -0.19505E+03        -0.37428E+02         0.00000E+00
   -0.37428E+02        -0.10000E+07         0.00000E+00
    0.00000E+00         0.00000E+00        -0.29597E+06
 
   -0.33749E+03        -0.35231E+02         0.00000E+00
   -0.35231E+02        -0.10000E+07         0.00000E+00
    0.00000E+00         0.00000E+00        -0.29600E+06
 
   -0.45926E+03        -0.31847E+02         0.00000E+00
   -0.31847E+02        -0.10000E+07         0.00000E+00
    0.00000E+00         0.00000E+00        -0.29602E+06
 
   -0.56051E+03        -0.27452E+02         0.00000E+00
   -0.27452E+02        -0.10000E+07         0.00000E+00
    0.00000E+00         0.00000E+00        -0.29604E+06
 
   -0.64137E+03        -0.22223E+02         0.00000E+00
   -0.22223E+02        -0.10000E+07         0.00000E+00
    0.00000E+00         0.00000E+00        -0.29606E+06
 
   -0.70192E+03        -0.16341E+02         0.00000E+00
   -0.16341E+02        -0.10000E+07         0.00000E+00
    0.00000E+00         0.00000E+00        -0.29607E+06
 
   -0.74226E+03        -0.99924E+01         0.00000E+00
   -0.99924E+01        -0.10000E+07         0.00000E+00
    0.00000E+00         0.00000E+00        -0.29608E+06
 
   -0.76241E+03        -0.33621E+01         0.00000E+00
   -0.33621E+01        -0.10000E+07         0.00000E+00
    0.00000E+00         0.00000E+00        -0.29608E+06
 
    0.13775E+04        -0.68665E+01         0.00000E+00
   -0.68665E+01        -0.99999E+06         0.00000E+00
    0.00000E+00         0.00000E+00        -0.29265E+06
 
    0.10883E+04        -0.18380E+02         0.00000E+00
   -0.18380E+02        -0.99999E+06         0.00000E+00
    0.00000E+00         0.00000E+00        -0.29271E+06
 
    0.82130E+03        -0.27441E+02         0.00000E+00
   -0.27441E+02        -0.99999E+06         0.00000E+00
    0.00000E+00         0.00000E+00        -0.29276E+06
 
    0.57609E+03        -0.34188E+02         0.00000E+00
   -0.34188E+02        -0.99999E+06         0.00000E+00
    0.00000E+00         0.00000E+00        -0.29281E+06
 
    0.35238E+03        -0.38769E+02         0.00000E+00
   -0.38769E+02        -0.10000E+07         0.00000E+00
    0.00000E+00         0.00000E+00        -0.29285E+06
 
    0.14990E+03        -0.41343E+02         0.00000E+00
   -0.41343E+02        -0.10000E+07         0.00000E+00
    0.00000E+00         0.00000E+00        -0.29289E+06
 
   -0.31608E+02        -0.42076E+02         0.00000E+00
   -0.42076E+02        -0.10000E+07         0.00000E+00
    0.00000E+00         0.00000E+00        -0.29293E+06
 
   -0.19237E+03        -0.41141E+02         0.00000E+00
   -0.41141E+02        -0.10000E+07         0.00000E+00
    0.00000E+00         0.00000E+00        -0.29296E+06
 
   -0.33258E+03        -0.38718E+02         0.00000E+00
   -0.38718E+02        -0.10000E+07         0.00000E+00
    0.00000E+00         0.00000E+00        -0.29299E+06
 
   -0.45243E+03        -0.34994E+02         0.00000E+00
   -0.34994E+02        -0.10000E+07         0.00000E+00
    0.00000E+00         0.00000E+00        -0.29301E+06
 
   -0.55207E+03        -0.30161E+02         0.00000E+00
   -0.30161E+02        -0.10000E+07         0.00000E+00
    0.00000E+00         0.00000E+00        -0.29303E+06
 
   -0.63163E+03        -0.24413E+02         0.00000E+00
   -0.24413E+02        -0.10000E+07         0.00000E+00
    0.00000E+00         0.00000E+00        -0.29305E+06
 
   -0.69121E+03        -0.17951E+02         0.00000E+00
   -0.17951E+02        -0.10000E+07         0.00000E+00
    0.00000E+00         0.00000E+00        -0.29306E+06
 
   -0.73088E+03        -0.10976E+02         0.00000E+00
   -0.10976E+02        -0.10000E+07         0.00000E+00
    0.00000E+00         0.00000E+00        -0.29307E+06
 
   -0.75071E+03        -0.36929E+01         0.00000E+00
   -0.36929E+01        -0.10000E+07         0.00000E+00
    0.00000E+00         0.00000E+00        -0.29307E+06
 
    0.13551E+04        -0.75338E+01         0.00000E+00
   -0.75338E+01        -0.99999E+06         0.00000E+00
    0.00000E+00         0.00000E+00        -0.28960E+06
 
    0.10704E+04        -0.20158E+02         0.00000E+00
   -0.20158E+02        -0.99999E+06         0.00000E+00
    0.00000E+00         0.00000E+00        -0.28966E+06
 
    0.80752E+03        -0.30086E+02         0.00000E+00
   -0.30086E+02        -0.99999E+06         0.00000E+00
    0.00000E+00         0.00000E+00        -0.28971E+06
 
    0.56622E+03        -0.37472E+02         0.00000E+00
   -0.37472E+02        -0.99999E+06         0.00000E+00
    0.00000E+00         0.00000E+00        -0.28976E+06
 
    0.34616E+03        -0.42483E+02         0.00000E+00
   -0.42483E+02        -0.10000E+07         0.00000E+00
    0.00000E+00         0.00000E+00        -0.28980E+06
 
    0.14704E+03        -0.45293E+02         0.00000E+00
   -0.45293E+02        -0.10000E+07         0.00000E+00
    0.00000E+00         0.00000E+00        -0.28984E+06
 
   -0.31402E+02        -0.46086E+02         0.00000E+00
   -0.46086E+02        -0.10000E+07         0.00000E+00
    0.00000E+00         0.00000E+00        -0.28988E+06
 
   -0.18941E+03        -0.45053E+02         0.00000E+00
   -0.45053E+02        -0.10000E+07         0.00000E+00
    0.00000E+00         0.00000E+00        -0.28991E+06
 
   -0.32719E+03        -0.42393E+02         0.00000E+00
   -0.42393E+02        -0.10000E+07         0.00000E+00
    0.00000E+00         0.00000E+00        -0.28994E+06
 
   -0.44494E+03        -0.38311E+02         0.00000E+00
   -0.38311E+02        -0.10000E+07         0.00000E+00
    0.00000E+00         0.00000E+00        -0.28996E+06
 
   -0.54281E+03        -0.33015E+02         0.00000E+00
   -0.33015E+02        -0.10000E+07         0.00000E+00
    0.00000E+00         0.00000E+00        -0.28998E+06
 
   -0.62095E+03        -0.26721E+02         0.00000E+00
   -0.26721E+02        -0.10000E+07         0.00000E+00
    0.00000E+00         0.00000E+00        -0.29000E+06
 
   -0.67946E+03        -0.19646E+02         0.00000E+00
   -0.19646E+02        -0.10000E+07         0.00000E+00
    0.00000E+00         0.00000E+00        -0.29001E+06
 
   -0.71842E+03        -0.12012E+02         0.00000E+00
   -0.12012E+02        -0.10000E+07         0.00000E+00
    0.00000E+00         0.00000E+00        -0.29001E+06
 
   -0.73788E+03        -0.40415E+01         0.00000E+00
   -0.40415E+01        -0.10000E+07         0.00000E+00
    0.00000E+00         0.00000E+00        -0.29002E+06
 
    0.13307E+04        -0.82365E+01         0.00000E+00
   -0.82365E+01        -0.99999E+06         0.00000E+00
    0.00000E+00         0.00000E+00        -0.28651E+06
 
    0.10507E+04        -0.22031E+02         0.00000E+00
   -0.22031E+02        -0.99999E+06         0.00000E+00
    0.00000E+00         0.00000E+00        -0.28657E+06
 
    0.79245E+03        -0.32872E+02         0.00000E+00
   -0.32872E+02        -0.99999E+06         0.00000E+00
    0.00000E+00         0.00000E+00        -0.28662E+06
 
    0.55544E+03        -0.40931E+02         0.00000E+00
   -0.40931E+02        -0.99999E+06         0.00000E+00
    0.00000E+00         0.00000E+00        -0.28666E+06
 
    0.33937E+03        -0.46394E+02         0.00000E+00
   -0.46394E+02        -0.10000E+07         0.00000E+00
    0.00000E+00         0.00000E+00        -0.28671E+06
 
    0.14393E+03        -0.49452E+02         0.00000E+00
   -0.49452E+02        -0.10000E+07         0.00000E+00
    0.00000E+00         0.00000E+00        -0.28675E+06
 
   -0.31163E+02        -0.50308E+02         0.00000E+00
   -0.50308E+02        -0.10000E+07         0.00000E+00
    0.00000E+00         0.00000E+00        -0.28678E+06
 
   -0.18616E+03        -0.49173E+02         0.00000E+00
   -0.49173E+02        -0.10000E+07         0.00000E+00
    0.00000E+00         0.00000E+00        -0.28681E+06
 
   -0.32128E+03        -0.46263E+02         0.00000E+00
   -0.46263E+02        -0.10000E+07         0.00000E+00
    0.00000E+00         0.00000E+00        -0.28684E+06
 
   -0.43673E+03        -0.41803E+02         0.00000E+00
   -0.41803E+02        -0.10000E+07         0.00000E+00
    0.00000E+00         0.00000E+00        -0.28686E+06
 
   -0.53268E+03        -0.36021E+02         0.00000E+00
   -0.36021E+02        -0.10000E+07         0.00000E+00
    0.00000E+00         0.00000E+00        -0.28688E+06
 
   -0.60927E+03        -0.29151E+02         0.00000E+00
   -0.29151E+02        -0.10000E+07         0.00000E+00
    0.00000E+00         0.00000E+00        -0.28690E+06
 
   -0.66662E+03        -0.21432E+02         0.00000E+00
   -0.21432E+02        -0.10000E+07         0.00000E+00
    0.00000E+00         0.00000E+00        -0.28691E+06
 
   -0.70480E+03        -0.13104E+02         0.00000E+00
   -0.13104E+02        -0.10000E+07         0.00000E+00
    0.00000E+00         0.00000E+00        -0.28691E+06
 
   -0.72387E+03        -0.44086E+01         0.00000E+00
   -0.44086E+01        -0.10000E+07         0.00000E+00
    0.00000E+00         0.00000E+00        -0.28692E+06
 
    0.13039E+04        -0.89760E+01         0.00000E+00
   -0.89760E+01        -0.99999E+06         0.00000E+00
    0.00000E+00         0.00000E+00        -0.28337E+06
 
    0.10293E+04        -0.24002E+02         0.00000E+00
   -0.24002E+02        -0.99999E+06         0.00000E+00
    0.00000E+00         0.00000E+00        -0.28343E+06
 
    0.77603E+03        -0.35803E+02         0.00000E+00
   -0.35803E+02        -0.99999E+06         0.00000E+00
    0.00000E+00         0.00000E+00        -0.28348E+06
 
    0.54370E+03        -0.44571E+02         0.00000E+00
   -0.44571E+02        -0.99999E+06         0.00000E+00
    0.00000E+00         0.00000E+00        -0.28352E+06
 
    0.33199E+03        -0.50509E+02         0.00000E+00
   -0.50509E+02        -0.10000E+07         0.00000E+00
    0.00000E+00         0.00000E+00        -0.28357E+06
 
    0.14055E+03        -0.53829E+02         0.00000E+00
   -0.53829E+02        -0.10000E+07         0.00000E+00
    0.00000E+00         0.00000E+00        -0.28360E+06
 
   -0.30888E+02        -0.54752E+02         0.00000E+00
   -0.54752E+02        -0.10000E+07         0.00000E+00
    0.00000E+00         0.00000E+00        -0.28364E+06
 
   -0.18261E+03        -0.53508E+02         0.00000E+00
   -0.53508E+02        -0.10000E+07         0.00000E+00
    0.00000E+00         0.00000E+00        -0.28367E+06
 
   -0.31484E+03        -0.50336E+02         0.00000E+00
   -0.50336E+02        -0.10000E+07         0.00000E+00
    0.00000E+00         0.00000E+00        -0.28369E+06
 
   -0.42779E+03        -0.45478E+02         0.00000E+00
   -0.45478E+02        -0.10000E+07         0.00000E+00
    0.00000E+00         0.00000E+00        -0.28372E+06
 
   -0.52165E+03        -0.39184E+02         0.00000E+00
   -0.39184E+02        -0.10000E+07         0.00000E+00
    0.00000E+00         0.00000E+00        -0.28374E+06
 
   -0.59655E+03        -0.31709E+02         0.00000E+00
   -0.31709E+02        -0.10000E+07         0.00000E+00
    0.00000E+00         0.00000E+00        -0.28375E+06
 
   -0.65263E+03        -0.23311E+02         0.00000E+00
   -0.23311E+02        -0.10000E+07         0.00000E+00
    0.00000E+00         0.00000E+00        -0.28376E+06
 
   -0.68996E+03        -0.14252E+02         0.00000E+00
   -0.14252E+02        -0.10000E+07         0.00000E+00
    0.00000E+00         0.00000E+00        -0.28377E+06
 
   -0.70861E+03        -0.47948E+01         0.00000E+00
   -0.47948E+01        -0.10000E+07         0.00000E+00
    0.00000E+00         0.00000E+00        -0.28377E+06
 
    0.12749E+04        -0.97537E+01         0.00000E+00
   -0.97537E+01        -0.99999E+06         0.00000E+00
    0.00000E+00         0.00000E+00        -0.28019E+06
 
    0.10060E+04        -0.26074E+02         0.00000E+00
   -0.26074E+02        -0.99999E+06         0.00000E+00
    0.00000E+00         0.00000E+00        -0.28025E+06
 
    0.75818E+03        -0.38886E+02         0.00000E+00
   -0.38886E+02        -0.99999E+06         0.00000E+00
    0.00000E+00         0.00000E+00        -0.28029E+06
 
    0.53095E+03        -0.48400E+02         0.00000E+00
   -0.48400E+02        -0.99999E+06         0.00000E+00
    0.00000E+00         0.00000E+00        -0.28034E+06
 
    0.32398E+03        -0.54838E+02         0.00000E+00
   -0.54838E+02        -0.10000E+07         0.00000E+00
    0.00000E+00         0.00000E+00        -0.28038E+06
 
    0.13690E+03        -0.58432E+02         0.00000E+00
   -0.58432E+02        -0.10000E+07         0.00000E+00
    0.00000E+00         0.00000E+00        -0.28042E+06
 
   -0.30575E+02        -0.59425E+02         0.00000E+00
   -0.59425E+02        -0.10000E+07         0.00000E+00
    0.00000E+00         0.00000E+00        -0.28045E+06
 
   -0.17874E+03        -0.58068E+02         0.00000E+00
   -0.58068E+02        -0.10000E+07         0.00000E+00
    0.00000E+00         0.00000E+00        -0.28048E+06
 
   -0.30783E+03        -0.54619E+02         0.00000E+00
   -0.54619E+02        -0.10000E+07         0.00000E+00
    0.00000E+00         0.00000E+00        -0.28051E+06
 
   -0.41807E+03        -0.49342E+02         0.00000E+00
   -0.49342E+02        -0.10000E+07         0.00000E+00
    0.00000E+00         0.00000E+00        -0.28053E+06
 
   -0.50965E+03        -0.42510E+02         0.00000E+00
   -0.42510E+02        -0.10000E+07         0.00000E+00
    0.00000E+00         0.00000E+00        -0.28055E+06
 
   -0.58273E+03        -0.34398E+02         0.00000E+00
   -0.34398E+02        -0.10000E+07         0.00000E+00
    0.00000E+00         0.00000E+00        -0.28056E+06
 
   -0.63743E+03        -0.25287E+02         0.00000E+00
   -0.25287E+02        -0.10000E+07         0.00000E+00
    0.00000E+00         0.00000E+00        -0.28057E+06
 
   -0.67384E+03        -0.15459E+02         0.00000E+00
   -0.15459E+02        -0.10000E+07         0.00000E+00
    0.00000E+00         0.00000E+00        -0.28058E+06
 
   -0.69204E+03        -0.52009E+01         0.00000E+00
   -0.52009E+01        -0.10000E+07         0.00000E+00
    0.00000E+00         0.00000E+00        -0.28058E+06
 
    0.12433E+04        -0.10571E+02         0.00000E+00
   -0.10571E+02        -0.99999E+06         0.00000E+00
    0.00000E+00         0.00000E+00        -0.27697E+06
 
    0.98076E+03        -0.28253E+02         0.00000E+00
   -0.28253E+02        -0.99999E+06         0.00000E+00
    0.00000E+00         0.00000E+00        -0.27702E+06
 
    0.73883E+03        -0.42128E+02         0.00000E+00
   -0.42128E+02        -0.99999E+06         0.00000E+00
    0.00000E+00         0.00000E+00        -0.27707E+06
 
    0.51714E+03        -0.52425E+02         0.00000E+00
   -0.52425E+02        -0.99999E+06         0.00000E+00
    0.00000E+00         0.00000E+00        -0.27711E+06
 
    0.31530E+03        -0.59388E+02         0.00000E+00
   -0.59388E+02        -0.10000E+07         0.00000E+00
    0.00000E+00         0.00000E+00        -0.27715E+06
 
    0.13296E+03        -0.63271E+02         0.00000E+00
   -0.63271E+02        -0.10000E+07         0.00000E+00
    0.00000E+00         0.00000E+00        -0.27719E+06
 
   -0.30222E+02        -0.64338E+02         0.00000E+00
   -0.64338E+02        -0.10000E+07         0.00000E+00
    0.00000E+00         0.00000E+00        -0.27722E+06
 
   -0.17453E+03        -0.62860E+02         0.00000E+00
   -0.62860E+02        -0.10000E+07         0.00000E+00
    0.00000E+00         0.00000E+00        -0.27725E+06
 
   -0.30022E+03        -0.59120E+02         0.00000E+00
   -0.59120E+02        -0.10000E+07         0.00000E+00
    0.00000E+00         0.00000E+00        -0.27728E+06
 
   -0.40753E+03        -0.53403E+02         0.00000E+00
   -0.53403E+02        -0.10000E+07         0.00000E+00
    0.00000E+00         0.00000E+00        -0.27730E+06
 
   -0.49665E+03        -0.46005E+02         0.00000E+00
   -0.46005E+02        -0.10000E+07         0.00000E+00
    0.00000E+00         0.00000E+00        -0.27732E+06
 
   -0.56776E+03        -0.37224E+02         0.00000E+00
   -0.37224E+02        -0.10000E+07         0.00000E+00
    0.00000E+00         0.00000E+00        -0.27733E+06
 
   -0.62097E+03        -0.27363E+02         0.00000E+00
   -0.27363E+02        -0.10000E+07         0.00000E+00
    0.00000E+00         0.00000E+00        -0.27734E+06
 
   -0.65639E+03        -0.16728E+02         0.00000E+00
   -0.16728E+02        -0.10000E+07         0.00000E+00
    0.00000E+00         0.00000E+00        -0.27735E+06
 
   -0.67408E+03        -0.56276E+01         0.00000E+00
   -0.56276E+01        -0.10000E+07         0.00000E+00
    0.00000E+00         0.00000E+00        -0.27735E+06
 
    0.12092E+04        -0.11431E+02         0.00000E+00
   -0.11431E+02        -0.99999E+06         0.00000E+00
    0.00000E+00         0.00000E+00        -0.27370E+06
 
    0.95343E+03        -0.30544E+02         0.00000E+00
   -0.30544E+02        -0.99999E+06         0.00000E+00
    0.00000E+00         0.00000E+00        -0.27376E+06
 
    0.71791E+03        -0.45534E+02         0.00000E+00
   -0.45534E+02        -0.99999E+06         0.00000E+00
    0.00000E+00         0.00000E+00        -0.27380E+06
 
    0.50222E+03        -0.56655E+02         0.00000E+00
   -0.56655E+02        -0.99999E+06         0.00000E+00
    0.00000E+00         0.00000E+00        -0.27385E+06
 
    0.30594E+03        -0.64170E+02         0.00000E+00
   -0.64170E+02        -0.10000E+07         0.00000E+00
    0.00000E+00         0.00000E+00        -0.27388E+06
 
    0.12871E+03        -0.68355E+02         0.00000E+00
   -0.68355E+02        -0.10000E+07         0.00000E+00
    0.00000E+00         0.00000E+00        -0.27392E+06
 
   -0.29825E+02        -0.69498E+02         0.00000E+00
   -0.69498E+02        -0.10000E+07         0.00000E+00
    0.00000E+00         0.00000E+00        -0.27395E+06
 
   -0.16996E+03        -0.67894E+02         0.00000E+00
   -0.67894E+02        -0.10000E+07         0.00000E+00
    0.00000E+00         0.00000E+00        -0.27398E+06
 
   -0.29198E+03        -0.63847E+02         0.00000E+00
   -0.63847E+02        -0.10000E+07         0.00000E+00
    0.00000E+00         0.00000E+00        -0.27400E+06
 
   -0.39613E+03        -0.57668E+02         0.00000E+00
   -0.57668E+02        -0.10000E+07         0.00000E+00
    0.00000E+00         0.00000E+00        -0.27402E+06
 
   -0.48260E+03        -0.49675E+02         0.00000E+00
   -0.49675E+02        -0.10000E+07         0.00000E+00
    0.00000E+00         0.00000E+00        -0.27404E+06
 
   -0.55156E+03        -0.40190E+02         0.00000E+00
   -0.40190E+02        -0.10000E+07         0.00000E+00
    0.00000E+00         0.00000E+00        -0.27406E+06
 
   -0.60317E+03        -0.29542E+02         0.00000E+00
   -0.29542E+02        -0.10000E+07         0.00000E+00
    0.00000E+00         0.00000E+00        -0.27407E+06
 
   -0.63752E+03        -0.18059E+02         0.00000E+00
   -0.18059E+02        -0.10000E+07         0.00000E+00
    0.00000E+00         0.00000E+00        -0.27407E+06
 
   -0.65467E+03        -0.60755E+01         0.00000E+00
   -0.60755E+01        -0.10000E+07         0.00000E+00
    0.00000E+00         0.00000E+00        -0.27408E+06
 
    0.11724E+04        -0.12334E+02         0.00000E+00
   -0.12334E+02        -0.99999E+06         0.00000E+00
    0.00000E+00         0.00000E+00        -0.27040E+06
 
    0.92393E+03        -0.32951E+02         0.00000E+00
   -0.32951E+02        -0.99999E+06         0.00000E+00
    0.00000E+00         0.00000E+00        -0.27045E+06
 
    0.69534E+03        -0.49114E+02         0.00000E+00
   -0.49114E+02        -0.99999E+06         0.00000E+00
    0.00000E+00         0.00000E+00        -0.27050E+06
 
    0.48612E+03        -0.61098E+02         0.00000E+00
   -0.61098E+02        -0.10000E+07         0.00000E+00
    0.00000E+00         0.00000E+00        -0.27054E+06
 
    0.29585E+03        -0.69191E+02         0.00000E+00
   -0.69191E+02        -0.10000E+07         0.00000E+00
    0.00000E+00         0.00000E+00        -0.27057E+06
 
    0.12414E+03        -0.73693E+02         0.00000E+00
   -0.73693E+02        -0.10000E+07         0.00000E+00
    0.00000E+00         0.00000E+00        -0.27061E+06
 
   -0.29382E+02        -0.74914E+02         0.00000E+00
   -0.74914E+02        -0.10000E+07         0.00000E+00
    0.00000E+00         0.00000E+00        -0.27064E+06
 
   -0.16503E+03        -0.73175E+02         0.00000E+00
   -0.73175E+02        -0.10000E+07         0.00000E+00
    0.00000E+00         0.00000E+00        -0.27067E+06
 
   -0.28309E+03        -0.68805E+02         0.00000E+00
   -0.68805E+02        -0.10000E+07         0.00000E+00
    0.00000E+00         0.00000E+00        -0.27069E+06
 
   -0.38382E+03        -0.62140E+02         0.00000E+00
   -0.62140E+02        -0.10000E+07         0.00000E+00
    0.00000E+00         0.00000E+00        -0.27071E+06
 
   -0.46743E+03        -0.53523E+02         0.00000E+00
   -0.53523E+02        -0.10000E+07         0.00000E+00
    0.00000E+00         0.00000E+00        -0.27073E+06
 
   -0.53410E+03        -0.43301E+02         0.00000E+00
   -0.43301E+02        -0.10000E+07         0.00000E+00
    0.00000E+00         0.00000E+00        -0.27074E+06
 
   -0.58397E+03        -0.31826E+02         0.00000E+00
   -0.31826E+02        -0.10000E+07         0.00000E+00
    0.00000E+00         0.00000E+00        -0.27075E+06
 
   -0.61717E+03        -0.19455E+02         0.00000E+00
   -0.19455E+02        -0.10000E+07         0.00000E+00
    0.00000E+00         0.00000E+00        -0.27076E+06
 
   -0.63374E+03        -0.65450E+01         0.00000E+00
   -0.65450E+01        -0.10000E+07         0.00000E+00
    0.00000E+00         0.00000E+00        -0.27076E+06
 
    0.11326E+04        -0.13283E+02         0.00000E+00
   -0.13283E+02        -0.99999E+06         0.00000E+00
    0.00000E+00         0.00000E+00        -0.26706E+06
 
    0.89214E+03        -0.35479E+02         0.00000E+00
   -0.35479E+02        -0.99999E+06         0.00000E+00
    0.00000E+00         0.00000E+00        -0.26710E+06
 
    0.67102E+03        -0.52872E+02         0.00000E+00
   -0.52872E+02        -0.99999E+06         0.00000E+00
    0.00000E+00         0.00000E+00        -0.26715E+06
 
    0.46880E+03        -0.65761E+02         0.00000E+00
   -0.65761E+02        -0.10000E+07         0.00000E+00
    0.00000E+00         0.00000E+00        -0.26719E+06
 
    0.28500E+03        -0.74459E+02         0.00000E+00
   -0.74459E+02        -0.10000E+07         0.00000E+00
    0.00000E+00         0.00000E+00        -0.26723E+06
 
    0.11923E+03        -0.79290E+02         0.00000E+00
   -0.79290E+02        -0.10000E+07         0.00000E+00
    0.00000E+00         0.00000E+00        -0.26726E+06
 
   -0.28886E+02        -0.80592E+02         0.00000E+00
   -0.80592E+02        -0.10000E+07         0.00000E+00
    0.00000E+00         0.00000E+00        -0.26729E+06
 
   -0.15970E+03        -0.78710E+02         0.00000E+00
   -0.78710E+02        -0.10000E+07         0.00000E+00
    0.00000E+00         0.00000E+00        -0.26731E+06
 
   -0.27350E+03        -0.74000E+02         0.00000E+00
   -0.74000E+02        -0.10000E+07         0.00000E+00
    0.00000E+00         0.00000E+00        -0.26734E+06
 
   -0.37055E+03        -0.66824E+02         0.00000E+00
   -0.66824E+02        -0.10000E+07         0.00000E+00
    0.00000E+00         0.00000E+00        -0.26736E+06
 
   -0.45109E+03        -0.57551E+02         0.00000E+00
   -0.57551E+02        -0.10000E+07         0.00000E+00
    0.00000E+00         0.00000E+00        -0.26737E+06
 
   -0.51529E+03        -0.46556E+02         0.00000E+00
   -0.46556E+02        -0.10000E+07         0.00000E+00
    0.00000E+00         0.00000E+00        -0.26738E+06
 
   -0.56331E+03        -0.34217E+02         0.00000E+00
   -0.34217E+02        -0.10000E+07         0.00000E+00
    0.00000E+00         0.00000E+00        -0.26739E+06
 
   -0.59527E+03        -0.20916E+02         0.00000E+00
   -0.20916E+02        -0.10000E+07         0.00000E+00
    0.00000E+00         0.00000E+00        -0.26740E+06
 
   -0.61122E+03        -0.70362E+01         0.00000E+00
   -0.70362E+01        -0.10000E+07         0.00000E+00
    0.00000E+00         0.00000E+00        -0.26740E+06
 
    0.10899E+04        -0.14280E+02         0.00000E+00
   -0.14280E+02        -0.99999E+06         0.00000E+00
    0.00000E+00         0.00000E+00        -0.26367E+06
 
    0.85796E+03        -0.38133E+02         0.00000E+00
   -0.38133E+02        -0.99999E+06         0.00000E+00
    0.00000E+00         0.00000E+00        -0.26372E+06
 
    0.64490E+03        -0.56815E+02         0.00000E+00
   -0.56815E+02        -0.99999E+06         0.00000E+00
    0.00000E+00         0.00000E+00        -0.26376E+06
 
    0.45019E+03        -0.70650E+02         0.00000E+00
   -0.70650E+02        -0.10000E+07         0.00000E+00
    0.00000E+00         0.00000E+00        -0.26380E+06
 
    0.27336E+03        -0.79979E+02         0.00000E+00
   -0.79979E+02        -0.10000E+07         0.00000E+00
    0.00000E+00         0.00000E+00        -0.26384E+06
 
    0.11399E+03        -0.85152E+02         0.00000E+00
   -0.85152E+02        -0.10000E+07         0.00000E+00
    0.00000E+00         0.00000E+00        -0.26387E+06
 
   -0.28330E+02        -0.86534E+02         0.00000E+00
   -0.86534E+02        -0.10000E+07         0.00000E+00
    0.00000E+00         0.00000E+00        -0.26390E+06
 
   -0.15395E+03        -0.84499E+02         0.00000E+00
   -0.84499E+02        -0.10000E+07         0.00000E+00
    0.00000E+00         0.00000E+00        -0.26392E+06
 
   -0.26318E+03        -0.79430E+02         0.00000E+00
   -0.79430E+02        -0.10000E+07         0.00000E+00
    0.00000E+00         0.00000E+00        -0.26394E+06
 
   -0.35629E+03        -0.71717E+02         0.00000E+00
   -0.71717E+02        -0.10000E+07         0.00000E+00
    0.00000E+00         0.00000E+00        -0.26396E+06
 
   -0.43353E+03        -0.61758E+02         0.00000E+00
   -0.61758E+02        -0.10000E+07         0.00000E+00
    0.00000E+00         0.00000E+00        -0.26398E+06
 
   -0.49509E+03        -0.49954E+02         0.00000E+00
   -0.49954E+02        -0.10000E+07         0.00000E+00
    0.00000E+00         0.00000E+00        -0.26399E+06
 
   -0.54112E+03        -0.36712E+02         0.00000E+00
   -0.36712E+02        -0.10000E+07         0.00000E+00
    0.00000E+00         0.00000E+00        -0.26400E+06
 
   -0.57174E+03        -0.22440E+02         0.00000E+00
   -0.22440E+02        -0.10000E+07         0.00000E+00
    0.00000E+00         0.00000E+00        -0.26401E+06
 
   -0.58704E+03        -0.75487E+01         0.00000E+00
   -0.75487E+01        -0.10000E+07         0.00000E+00
    0.00000E+00         0.00000E+00        -0.26401E+06
 
    0.10440E+04        -0.15327E+02         0.00000E+00
   -0.15327E+02        -0.99999E+06         0.00000E+00
    0.00000E+00         0.00000E+00        -0.26026E+06
 
    0.82127E+03        -0.40916E+02         0.00000E+00
   -0.40916E+02        -0.99999E+06         0.00000E+00
    0.00000E+00         0.00000E+00        -0.26030E+06
 
    0.61687E+03        -0.60945E+02         0.00000E+00
   -0.60945E+02        -0.99999E+06         0.00000E+00
    0.00000E+00         0.00000E+00        -0.26034E+06
 
    0.43024E+03        -0.75767E+02         0.00000E+00
   -0.75767E+02        -0.10000E+07         0.00000E+00
    0.00000E+00         0.00000E+00        -0.26038E+06
 
    0.26090E+03        -0.85750E+02         0.00000E+00
   -0.85750E+02        -0.10000E+07         0.00000E+00
    0.00000E+00         0.00000E+00        -0.26041E+06
 
    0.10839E+03        -0.91274E+02         0.00000E+00
   -0.91274E+02        -0.10000E+07         0.00000E+00
    0.00000E+00         0.00000E+00        -0.26044E+06
 
   -0.27705E+02        -0.92734E+02         0.00000E+00
   -0.92734E+02        -0.10000E+07         0.00000E+00
    0.00000E+00         0.00000E+00        -0.26047E+06
 
   -0.14776E+03        -0.90534E+02         0.00000E+00
   -0.90534E+02        -0.10000E+07         0.00000E+00
    0.00000E+00         0.00000E+00        -0.26049E+06
 
   -0.25209E+03        -0.85086E+02         0.00000E+00
   -0.85086E+02        -0.10000E+07         0.00000E+00
    0.00000E+00         0.00000E+00        -0.26051E+06
 
   -0.34099E+03        -0.76812E+02         0.00000E+00
   -0.76812E+02        -0.10000E+07         0.00000E+00
    0.00000E+00         0.00000E+00        -0.26053E+06
 
   -0.41470E+03        -0.66136E+02         0.00000E+00
   -0.66136E+02        -0.10000E+07         0.00000E+00
    0.00000E+00         0.00000E+00        -0.26055E+06
 
   -0.47343E+03        -0.53489E+02         0.00000E+00
   -0.53489E+02        -0.10000E+07         0.00000E+00
    0.00000E+00         0.00000E+00        -0.26056E+06
 
   -0.51733E+03        -0.39306E+02         0.00000E+00
   -0.39306E+02        -0.10000E+07         0.00000E+00
    0.00000E+00         0.00000E+00        -0.26057E+06
 
   -0.54654E+03        -0.24024E+02         0.00000E+00
   -0.24024E+02        -0.10000E+07         0.00000E+00
    0.00000E+00         0.00000E+00        -0.26057E+06
 
   -0.56112E+03        -0.80813E+01         0.00000E+00
   -0.80813E+01        -0.10000E+07         0.00000E+00
    0.00000E+00         0.00000E+00        -0.26058E+06
 
    0.99477E+03        -0.16424E+02         0.00000E+00
   -0.16424E+02        -0.99999E+06         0.00000E+00
    0.00000E+00         0.00000E+00        -0.25680E+06
 
    0.78195E+03        -0.43829E+02         0.00000E+00
   -0.43829E+02        -0.99999E+06         0.00000E+00
    0.00000E+00         0.00000E+00        -0.25684E+06
 
    0.58686E+03        -0.65263E+02         0.00000E+00
   -0.65263E+02        -0.99999E+06         0.00000E+00
    0.00000E+00         0.00000E+00        -0.25688E+06
 
    0.40891E+03        -0.81108E+02         0.00000E+00
   -0.81108E+02        -0.10000E+07         0.00000E+00
    0.00000E+00         0.00000E+00        -0.25692E+06
 
    0.24760E+03        -0.91764E+02         0.00000E+00
   -0.91764E+02        -0.10000E+07         0.00000E+00
    0.00000E+00         0.00000E+00        -0.25695E+06
 
    0.10244E+03        -0.97645E+02         0.00000E+00
   -0.97645E+02        -0.10000E+07         0.00000E+00
    0.00000E+00         0.00000E+00        -0.25698E+06
 
   -0.26996E+02        -0.99178E+02         0.00000E+00
   -0.99178E+02        -0.10000E+07         0.00000E+00
    0.00000E+00         0.00000E+00        -0.25701E+06
 
   -0.14109E+03        -0.96799E+02         0.00000E+00
   -0.96799E+02        -0.10000E+07         0.00000E+00
    0.00000E+00         0.00000E+00        -0.25703E+06
 
   -0.24019E+03        -0.90952E+02         0.00000E+00
   -0.90952E+02        -0.10000E+07         0.00000E+00
    0.00000E+00         0.00000E+00        -0.25705E+06
 
   -0.32459E+03        -0.82089E+02         0.00000E+00
   -0.82089E+02        -0.10000E+07         0.00000E+00
    0.00000E+00         0.00000E+00        -0.25707E+06
 
   -0.39454E+03        -0.70666E+02         0.00000E+00
   -0.70666E+02        -0.10000E+07         0.00000E+00
    0.00000E+00         0.00000E+00        -0.25708E+06
 
   -0.45025E+03        -0.57145E+02         0.00000E+00
   -0.57145E+02        -0.10000E+07         0.00000E+00
    0.00000E+00         0.00000E+00        -0.25709E+06
 
   -0.49189E+03        -0.41988E+02         0.00000E+00
   -0.41988E+02        -0.10000E+07         0.00000E+00
    0.00000E+00         0.00000E+00        -0.25710E+06
 
   -0.51958E+03        -0.25661E+02         0.00000E+00
   -0.25661E+02        -0.10000E+07         0.00000E+00
    0.00000E+00         0.00000E+00        -0.25710E+06
 
   -0.53340E+03        -0.86317E+01         0.00000E+00
   -0.86317E+01        -0.10000E+07         0.00000E+00
    0.00000E+00         0.00000E+00        -0.25711E+06
 
    0.94208E+03        -0.17572E+02         0.00000E+00
   -0.17572E+02        -0.99999E+06         0.00000E+00
    0.00000E+00         0.00000E+00        -0.25331E+06
 
    0.73990E+03        -0.46869E+02         0.00000E+00
   -0.46869E+02        -0.99999E+06         0.00000E+00
    0.00000E+00         0.00000E+00        -0.25336E+06
 
    0.55479E+03        -0.69757E+02         0.00000E+00
   -0.69757E+02        -0.99999E+06         0.00000E+00
    0.00000E+00         0.00000E+00        -0.25339E+06
 
    0.38615E+03        -0.86656E+02         0.00000E+00
   -0.86656E+02        -0.10000E+07         0.00000E+00
    0.00000E+00         0.00000E+00        -0.25343E+06
 
    0.23343E+03        -0.97999E+02         0.00000E+00
   -0.97999E+02        -0.10000E+07         0.00000E+00
    0.00000E+00         0.00000E+00        -0.25346E+06
 
    0.96137E+02        -0.10424E+03         0.00000E+00
   -0.10424E+03        -0.10000E+07         0.00000E+00
    0.00000E+00         0.00000E+00        -0.25348E+06
 
   -0.26183E+02        -0.10583E+03         0.00000E+00
   -0.10583E+03        -0.10000E+07         0.00000E+00
    0.00000E+00         0.00000E+00        -0.25351E+06
 
   -0.13393E+03        -0.10326E+03         0.00000E+00
   -0.10326E+03        -0.10000E+07         0.00000E+00
    0.00000E+00         0.00000E+00        -0.25353E+06
 
   -0.22745E+03        -0.96991E+02         0.00000E+00
   -0.96991E+02        -0.10000E+07         0.00000E+00
    0.00000E+00         0.00000E+00        -0.25355E+06
 
   -0.30705E+03        -0.87516E+02         0.00000E+00
   -0.87516E+02        -0.10000E+07         0.00000E+00
    0.00000E+00         0.00000E+00        -0.25356E+06
 
   -0.37300E+03        -0.75321E+02         0.00000E+00
   -0.75321E+02        -0.10000E+07         0.00000E+00
    0.00000E+00         0.00000E+00        -0.25358E+06
 
   -0.42550E+03        -0.60897E+02         0.00000E+00
   -0.60897E+02        -0.10000E+07         0.00000E+00
    0.00000E+00         0.00000E+00        -0.25359E+06
 
   -0.46473E+03        -0.44738E+02         0.00000E+00
   -0.44738E+02        -0.10000E+07         0.00000E+00
    0.00000E+00         0.00000E+00        -0.25360E+06
 
   -0.49081E+03        -0.27339E+02         0.00000E+00
   -0.27339E+02        -0.10000E+07         0.00000E+00
    0.00000E+00         0.00000E+00        -0.25360E+06
 
   -0.50383E+03        -0.91958E+01         0.00000E+00
   -0.91958E+01        -0.10000E+07         0.00000E+00
    0.00000E+00         0.00000E+00        -0.25360E+06
 
    0.88579E+03        -0.18768E+02         0.00000E+00
   -0.18768E+02        -0.99999E+06         0.00000E+00
    0.00000E+00         0.00000E+00        -0.24980E+06
 
    0.69503E+03        -0.50025E+02         0.00000E+00
   -0.50025E+02        -0.99999E+06         0.00000E+00
    0.00000E+00         0.00000E+00        -0.24983E+06
 
    0.52062E+03        -0.74409E+02         0.00000E+00
   -0.74409E+02        -0.99999E+06         0.00000E+00
    0.00000E+00         0.00000E+00        -0.24987E+06
 
    0.36194E+03        -0.92379E+02         0.00000E+00
   -0.92379E+02        -0.10000E+07         0.00000E+00
    0.00000E+00         0.00000E+00        -0.24990E+06
 
    0.21840E+03        -0.10441E+03         0.00000E+00
   -0.10441E+03        -0.10000E+07         0.00000E+00
    0.00000E+00         0.00000E+00        -0.24993E+06
 
    0.89498E+02        -0.11100E+03         0.00000E+00
   -0.11100E+03        -0.10000E+07         0.00000E+00
    0.00000E+00         0.00000E+00        -0.24995E+06
 
   -0.25242E+02        -0.11265E+03         0.00000E+00
   -0.11265E+03        -0.10000E+07         0.00000E+00
    0.00000E+00         0.00000E+00        -0.24998E+06
 
   -0.12623E+03        -0.10986E+03         0.00000E+00
   -0.10986E+03        -0.10000E+07         0.00000E+00
    0.00000E+00         0.00000E+00        -0.25000E+06
 
   -0.21383E+03        -0.10315E+03         0.00000E+00
   -0.10315E+03        -0.10000E+07         0.00000E+00
    0.00000E+00         0.00000E+00        -0.25002E+06
 
   -0.28834E+03        -0.93038E+02         0.00000E+00
   -0.93038E+02        -0.10000E+07         0.00000E+00
    0.00000E+00         0.00000E+00        -0.25003E+06
 
   -0.35005E+03        -0.80050E+02         0.00000E+00
   -0.80050E+02        -0.10000E+07         0.00000E+00
    0.00000E+00         0.00000E+00        -0.25004E+06
 
   -0.39915E+03        -0.64706E+02         0.00000E+00
   -0.64706E+02        -0.10000E+07         0.00000E+00
    0.00000E+00         0.00000E+00        -0.25005E+06
 
   -0.43583E+03        -0.47528E+02         0.00000E+00
   -0.47528E+02        -0.10000E+07         0.00000E+00
    0.00000E+00         0.00000E+00        -0.25006E+06
 
   -0.46021E+03        -0.29041E+02         0.00000E+00
   -0.29041E+02        -0.10000E+07         0.00000E+00
    0.00000E+00         0.00000E+00        -0.25006E+06
 
   -0.47238E+03        -0.97676E+01         0.00000E+00
   -0.97676E+01        -0.10000E+07         0.00000E+00
    0.00000E+00         0.00000E+00        -0.25007E+06
 
    0.82576E+03        -0.20006E+02         0.00000E+00
   -0.20006E+02        -0.99999E+06         0.00000E+00
    0.00000E+00         0.00000E+00        -0.24625E+06
 
    0.64724E+03        -0.53274E+02         0.00000E+00
   -0.53274E+02        -0.99999E+06         0.00000E+00
    0.00000E+00         0.00000E+00        -0.24628E+06
 
    0.48430E+03        -0.79177E+02         0.00000E+00
   -0.79177E+02        -0.99999E+06         0.00000E+00
    0.00000E+00         0.00000E+00        -0.24631E+06
 
    0.33626E+03        -0.98222E+02         0.00000E+00
   -0.98222E+02        -0.10000E+07         0.00000E+00
    0.00000E+00         0.00000E+00        -0.24634E+06
 
    0.20252E+03        -0.11093E+03         0.00000E+00
   -0.11093E+03        -0.10000E+07         0.00000E+00
    0.00000E+00         0.00000E+00        -0.24637E+06
 
    0.82549E+02        -0.11785E+03         0.00000E+00
   -0.11785E+03        -0.10000E+07         0.00000E+00
    0.00000E+00         0.00000E+00        -0.24639E+06
 
   -0.24140E+02        -0.11952E+03         0.00000E+00
   -0.11952E+03        -0.10000E+07         0.00000E+00
    0.00000E+00         0.00000E+00        -0.24642E+06
 
   -0.11796E+03        -0.11650E+03         0.00000E+00
   -0.11650E+03        -0.10000E+07         0.00000E+00
    0.00000E+00         0.00000E+00        -0.24643E+06
 
   -0.19929E+03        -0.10933E+03         0.00000E+00
   -0.10933E+03        -0.10000E+07         0.00000E+00
    0.00000E+00         0.00000E+00        -0.24645E+06
 
   -0.26843E+03        -0.98573E+02         0.00000E+00
   -0.98573E+02        -0.10000E+07         0.00000E+00
    0.00000E+00         0.00000E+00        -0.24646E+06
 
   -0.32566E+03        -0.84783E+02         0.00000E+00
   -0.84783E+02        -0.10000E+07         0.00000E+00
    0.00000E+00         0.00000E+00        -0.24648E+06
 
   -0.37118E+03        -0.68512E+02         0.00000E+00
   -0.68512E+02        -0.10000E+07         0.00000E+00
    0.00000E+00         0.00000E+00        -0.24649E+06
 
   -0.40517E+03        -0.50313E+02         0.00000E+00
   -0.50313E+02        -0.10000E+07         0.00000E+00
    0.00000E+00         0.00000E+00        -0.24649E+06
 
   -0.42776E+03        -0.30738E+02         0.00000E+00
   -0.30738E+02        -0.10000E+07         0.00000E+00
    0.00000E+00         0.00000E+00        -0.24650E+06
 
   -0.43904E+03        -0.10338E+02         0.00000E+00
   -0.10338E+02        -0.10000E+07         0.00000E+00
    0.00000E+00         0.00000E+00        -0.24650E+06
 
    0.76189E+03        -0.21273E+02         0.00000E+00
   -0.21273E+02        -0.99999E+06         0.00000E+00
    0.00000E+00         0.00000E+00        -0.24267E+06
 
    0.59652E+03        -0.56577E+02         0.00000E+00
   -0.56577E+02        -0.99999E+06         0.00000E+00
    0.00000E+00         0.00000E+00        -0.24270E+06
 
    0.44584E+03        -0.83992E+02         0.00000E+00
   -0.83992E+02        -0.99999E+06         0.00000E+00
    0.00000E+00         0.00000E+00        -0.24273E+06
 
    0.30915E+03        -0.10409E+03         0.00000E+00
   -0.10409E+03        -0.10000E+07         0.00000E+00
    0.00000E+00         0.00000E+00        -0.24276E+06
 
    0.18583E+03        -0.11745E+03         0.00000E+00
   -0.11745E+03        -0.10000E+07         0.00000E+00
    0.00000E+00         0.00000E+00        -0.24278E+06
 
    0.75333E+02        -0.12466E+03         0.00000E+00
   -0.12466E+03        -0.10000E+07         0.00000E+00
    0.00000E+00         0.00000E+00        -0.24281E+06
 
   -0.22837E+02        -0.12633E+03         0.00000E+00
   -0.12633E+03        -0.10000E+07         0.00000E+00
    0.00000E+00         0.00000E+00        -0.24282E+06
 
   -0.10910E+03        -0.12305E+03         0.00000E+00
   -0.12305E+03        -0.10000E+07         0.00000E+00
    0.00000E+00         0.00000E+00        -0.24284E+06
 
   -0.18382E+03        -0.11541E+03         0.00000E+00
   -0.11541E+03        -0.10000E+07         0.00000E+00
    0.00000E+00         0.00000E+00        -0.24286E+06
 
   -0.24731E+03        -0.10400E+03         0.00000E+00
   -0.10400E+03        -0.10000E+07         0.00000E+00
    0.00000E+00         0.00000E+00        -0.24287E+06
 
   -0.29983E+03        -0.89415E+02         0.00000E+00
   -0.89415E+02        -0.10000E+07         0.00000E+00
    0.00000E+00         0.00000E+00        -0.24288E+06
 
   -0.34159E+03        -0.72232E+02         0.00000E+00
   -0.72232E+02        -0.10000E+07         0.00000E+00
    0.00000E+00         0.00000E+00        -0.24289E+06
 
   -0.37277E+03        -0.53033E+02         0.00000E+00
   -0.53033E+02        -0.10000E+07         0.00000E+00
    0.00000E+00         0.00000E+00        -0.24289E+06
 
   -0.39348E+03        -0.32394E+02         0.00000E+00
   -0.32394E+02        -0.10000E+07         0.00000E+00
    0.00000E+00         0.00000E+00        -0.24290E+06
 
   -0.40382E+03        -0.10894E+02         0.00000E+00
   -0.10894E+02        -0.10000E+07         0.00000E+00
    0.00000E+00         0.00000E+00        -0.24290E+06
 
    0.69414E+03        -0.22548E+02         0.00000E+00
   -0.22548E+02        -0.99999E+06         0.00000E+00
    0.00000E+00         0.00000E+00        -0.23906E+06
 
    0.54287E+03        -0.59865E+02         0.00000E+00
   -0.59865E+02        -0.99999E+06         0.00000E+00
    0.00000E+00         0.00000E+00        -0.23909E+06
 
    0.40529E+03        -0.88742E+02         0.00000E+00
   -0.88742E+02        -0.99999E+06         0.00000E+00
    0.00000E+00         0.00000E+00        -0.23912E+06
 
    0.28069E+03        -0.10983E+03         0.00000E+00
   -0.10983E+03        -0.10000E+07         0.00000E+00
    0.00000E+00         0.00000E+00        -0.23915E+06
 
    0.16841E+03        -0.12377E+03         0.00000E+00
   -0.12377E+03        -0.10000E+07         0.00000E+00
    0.00000E+00         0.00000E+00        -0.23917E+06
 
    0.67912E+02        -0.13123E+03         0.00000E+00
   -0.13123E+03        -0.10000E+07         0.00000E+00
    0.00000E+00         0.00000E+00        -0.23919E+06
 
   -0.21292E+02        -0.13287E+03         0.00000E+00
   -0.13287E+03        -0.10000E+07         0.00000E+00
    0.00000E+00         0.00000E+00        -0.23921E+06
 
   -0.99617E+02        -0.12931E+03         0.00000E+00
   -0.12931E+03        -0.10000E+07         0.00000E+00
    0.00000E+00         0.00000E+00        -0.23922E+06
 
   -0.16742E+03        -0.12120E+03         0.00000E+00
   -0.12120E+03        -0.10000E+07         0.00000E+00
    0.00000E+00         0.00000E+00        -0.23924E+06
 
   -0.22499E+03        -0.10916E+03         0.00000E+00
   -0.10916E+03        -0.10000E+07         0.00000E+00
    0.00000E+00         0.00000E+00        -0.23925E+06
 
   -0.27260E+03        -0.93806E+02         0.00000E+00
   -0.93806E+02        -0.10000E+07         0.00000E+00
    0.00000E+00         0.00000E+00        -0.23926E+06
 
   -0.31045E+03        -0.75752E+02         0.00000E+00
   -0.75752E+02        -0.10000E+07         0.00000E+00
    0.00000E+00         0.00000E+00        -0.23926E+06
 
   -0.33869E+03        -0.55602E+02         0.00000E+00
   -0.55602E+02        -0.10000E+07         0.00000E+00
    0.00000E+00         0.00000E+00        -0.23927E+06
 
   -0.35745E+03        -0.33958E+02         0.00000E+00
   -0.33958E+02        -0.10000E+07         0.00000E+00
    0.00000E+00         0.00000E+00        -0.23927E+06
 
   -0.36681E+03        -0.11419E+02         0.00000E+00
   -0.11419E+02        -0.10000E+07         0.00000E+00
    0.00000E+00         0.00000E+00        -0.23928E+06
 
    0.62259E+03        -0.23794E+02         0.00000E+00
   -0.23794E+02        -0.99999E+06         0.00000E+00
    0.00000E+00         0.00000E+00        -0.23543E+06
 
    0.48642E+03        -0.63025E+02         0.00000E+00
   -0.63025E+02        -0.99999E+06         0.00000E+00
    0.00000E+00         0.00000E+00        -0.23546E+06
 
    0.36281E+03        -0.93248E+02         0.00000E+00
   -0.93248E+02        -0.99999E+06         0.00000E+00
    0.00000E+00         0.00000E+00        -0.23549E+06
 
    0.25100E+03        -0.11521E+03         0.00000E+00
   -0.11521E+03        -0.10000E+07         0.00000E+00
    0.00000E+00         0.00000E+00        -0.23551E+06
 
    0.15037E+03        -0.12965E+03         0.00000E+00
   -0.12965E+03        -0.10000E+07         0.00000E+00
    0.00000E+00         0.00000E+00        -0.23553E+06
 
    0.60365E+02        -0.13729E+03         0.00000E+00
   -0.13729E+03        -0.10000E+07         0.00000E+00
    0.00000E+00         0.00000E+00        -0.23555E+06
 
   -0.19465E+02        -0.13885E+03         0.00000E+00
   -0.13885E+03        -0.10000E+07         0.00000E+00
    0.00000E+00         0.00000E+00        -0.23556E+06
 
   -0.89514E+02        -0.13501E+03         0.00000E+00
   -0.13501E+03        -0.10000E+07         0.00000E+00
    0.00000E+00         0.00000E+00        -0.23558E+06
 
   -0.15012E+03        -0.12645E+03         0.00000E+00
   -0.12645E+03        -0.10000E+07         0.00000E+00
    0.00000E+00         0.00000E+00        -0.23559E+06
 
   -0.20156E+03        -0.11382E+03         0.00000E+00
   -0.11382E+03        -0.10000E+07         0.00000E+00
    0.00000E+00         0.00000E+00        -0.23560E+06
 
   -0.24407E+03        -0.97767E+02         0.00000E+00
   -0.97767E+02        -0.10000E+07         0.00000E+00
    0.00000E+00         0.00000E+00        -0.23561E+06
 
   -0.27785E+03        -0.78923E+02         0.00000E+00
   -0.78923E+02        -0.10000E+07         0.00000E+00
    0.00000E+00         0.00000E+00        -0.23561E+06
 
   -0.30305E+03        -0.57914E+02         0.00000E+00
   -0.57914E+02        -0.10000E+07         0.00000E+00
    0.00000E+00         0.00000E+00        -0.23562E+06
 
   -0.31979E+03        -0.35364E+02         0.00000E+00
   -0.35364E+02        -0.10000E+07         0.00000E+00
    0.00000E+00         0.00000E+00        -0.23562E+06
 
   -0.32814E+03        -0.11891E+02         0.00000E+00
   -0.11891E+02        -0.10000E+07         0.00000E+00
    0.00000E+00         0.00000E+00        -0.23562E+06
 
    0.54745E+03        -0.24950E+02         0.00000E+00
   -0.24950E+02        -0.99999E+06         0.00000E+00
    0.00000E+00         0.00000E+00        -0.23178E+06
 
    0.42745E+03        -0.65883E+02         0.00000E+00
   -0.65883E+02        -0.99999E+06         0.00000E+00
    0.00000E+00         0.00000E+00        -0.23181E+06
 
    0.31865E+03        -0.97239E+02         0.00000E+00
   -0.97239E+02        -0.99999E+06         0.00000E+00
    0.00000E+00         0.00000E+00        -0.23183E+06
 
    0.22032E+03        -0.11989E+03         0.00000E+00
   -0.11989E+03        -0.10000E+07         0.00000E+00
    0.00000E+00         0.00000E+00        -0.23185E+06
 
    0.13186E+03        -0.13468E+03         0.00000E+00
   -0.13468E+03        -0.10000E+07         0.00000E+00
    0.00000E+00         0.00000E+00        -0.23187E+06
 
    0.52782E+02        -0.14242E+03         0.00000E+00
   -0.14242E+03        -0.10000E+07         0.00000E+00
    0.00000E+00         0.00000E+00        -0.23188E+06
 
   -0.17331E+02        -0.14388E+03         0.00000E+00
   -0.14388E+03        -0.10000E+07         0.00000E+00
    0.00000E+00         0.00000E+00        -0.23189E+06
 
   -0.78828E+02        -0.13978E+03         0.00000E+00
   -0.13978E+03        -0.10000E+07         0.00000E+00
    0.00000E+00         0.00000E+00        -0.23191E+06
 
   -0.13201E+03        -0.13083E+03         0.00000E+00
   -0.13083E+03        -0.10000E+07         0.00000E+00
    0.00000E+00         0.00000E+00        -0.23192E+06
 
   -0.17712E+03        -0.11770E+03         0.00000E+00
   -0.11770E+03        -0.10000E+07         0.00000E+00
    0.00000E+00         0.00000E+00        -0.23193E+06
 
   -0.21439E+03        -0.10106E+03         0.00000E+00
   -0.10106E+03        -0.10000E+07         0.00000E+00
    0.00000E+00         0.00000E+00        -0.23193E+06
 
   -0.24399E+03        -0.81552E+02         0.00000E+00
   -0.81552E+02        -0.10000E+07         0.00000E+00
    0.00000E+00         0.00000E+00        -0.23194E+06
 
   -0.26607E+03        -0.59829E+02         0.00000E+00
   -0.59829E+02        -0.10000E+07         0.00000E+00
    0.00000E+00         0.00000E+00        -0.23194E+06
 
   -0.28073E+03        -0.36527E+02         0.00000E+00
   -0.36527E+02        -0.10000E+07         0.00000E+00
    0.00000E+00         0.00000E+00        -0.23195E+06
 
   -0.28804E+03        -0.12281E+02         0.00000E+00
   -0.12281E+02        -0.10000E+07         0.00000E+00
    0.00000E+00         0.00000E+00        -0.23195E+06
 
    0.46920E+03        -0.25917E+02         0.00000E+00
   -0.25917E+02        -0.99999E+06         0.00000E+00
    0.00000E+00         0.00000E+00        -0.22811E+06
 
    0.36642E+03        -0.68165E+02         0.00000E+00
   -0.68165E+02        -0.99999E+06         0.00000E+00
    0.00000E+00         0.00000E+00        -0.22813E+06
 
    0.27323E+03        -0.10030E+03         0.00000E+00
   -0.10030E+03        -0.99999E+06         0.00000E+00
    0.00000E+00         0.00000E+00        -0.22815E+06
 
    0.18896E+03        -0.12338E+03         0.00000E+00
   -0.12338E+03        -0.99999E+06         0.00000E+00
    0.00000E+00         0.00000E+00        -0.22817E+06
 
    0.11310E+03        -0.13835E+03         0.00000E+00
   -0.13835E+03        -0.10000E+07         0.00000E+00
    0.00000E+00         0.00000E+00        -0.22818E+06
 
    0.45249E+02        -0.14610E+03         0.00000E+00
   -0.14610E+03        -0.10000E+07         0.00000E+00
    0.00000E+00         0.00000E+00        -0.22819E+06
 
   -0.14911E+02        -0.14745E+03         0.00000E+00
   -0.14745E+03        -0.10000E+07         0.00000E+00
    0.00000E+00         0.00000E+00        -0.22820E+06
 
   -0.67661E+02        -0.14315E+03         0.00000E+00
   -0.14315E+03        -0.10000E+07         0.00000E+00
    0.00000E+00         0.00000E+00        -0.22821E+06
 
   -0.11325E+03        -0.13392E+03         0.00000E+00
   -0.13392E+03        -0.10000E+07         0.00000E+00
    0.00000E+00         0.00000E+00        -0.22822E+06
 
   -0.15190E+03        -0.12043E+03         0.00000E+00
   -0.12043E+03        -0.10000E+07         0.00000E+00
    0.00000E+00         0.00000E+00        -0.22823E+06
 
   -0.18381E+03        -0.10337E+03         0.00000E+00
   -0.10337E+03        -0.10000E+07         0.00000E+00
    0.00000E+00         0.00000E+00        -0.22824E+06
 
   -0.20915E+03        -0.83398E+02         0.00000E+00
   -0.83398E+02        -0.10000E+07         0.00000E+00
    0.00000E+00         0.00000E+00        -0.22824E+06
 
   -0.22804E+03        -0.61168E+02         0.00000E+00
   -0.61168E+02        -0.10000E+07         0.00000E+00
    0.00000E+00         0.00000E+00        -0.22825E+06
 
   -0.24059E+03        -0.37340E+02         0.00000E+00
   -0.37340E+02        -0.10000E+07         0.00000E+00
    0.00000E+00         0.00000E+00        -0.22825E+06
 
   -0.24685E+03        -0.12552E+02         0.00000E+00
   -0.12552E+02        -0.10000E+07         0.00000E+00
    0.00000E+00         0.00000E+00        -0.22825E+06
 
    0.38872E+03        -0.26542E+02         0.00000E+00
   -0.26542E+02        -0.99999E+06         0.00000E+00
    0.00000E+00         0.00000E+00        -0.22442E+06
 
    0.30416E+03        -0.69454E+02         0.00000E+00
   -0.69454E+02        -0.99999E+06         0.00000E+00
    0.00000E+00         0.00000E+00        -0.22444E+06
 
    0.22720E+03        -0.10184E+03         0.00000E+00
   -0.10184E+03        -0.99999E+06         0.00000E+00
    0.00000E+00         0.00000E+00        -0.22445E+06
 
    0.15736E+03        -0.12496E+03         0.00000E+00
   -0.12496E+03        -0.99999E+06         0.00000E+00
    0.00000E+00         0.00000E+00        -0.22446E+06
 
    0.94306E+02        -0.13989E+03         0.00000E+00
   -0.13989E+03        -0.99999E+06         0.00000E+00
    0.00000E+00         0.00000E+00        -0.22448E+06
 
    0.37812E+02        -0.14759E+03         0.00000E+00
   -0.14759E+03        -0.99999E+06         0.00000E+00
    0.00000E+00         0.00000E+00        -0.22449E+06
 
   -0.12301E+02        -0.14888E+03         0.00000E+00
   -0.14888E+03        -0.99999E+06         0.00000E+00
    0.00000E+00         0.00000E+00        -0.22450E+06
 
   -0.56217E+02        -0.14451E+03         0.00000E+00
   -0.14451E+03        -0.99999E+06         0.00000E+00
    0.00000E+00         0.00000E+00        -0.22450E+06
 
   -0.94125E+02        -0.13519E+03         0.00000E+00
   -0.13519E+03        -0.99999E+06         0.00000E+00
    0.00000E+00         0.00000E+00        -0.22451E+06
 
   -0.12622E+03        -0.12157E+03         0.00000E+00
   -0.12157E+03        -0.99999E+06         0.00000E+00
    0.00000E+00         0.00000E+00        -0.22452E+06
 
   -0.15270E+03        -0.10433E+03         0.00000E+00
   -0.10433E+03        -0.99999E+06         0.00000E+00
    0.00000E+00         0.00000E+00        -0.22452E+06
 
   -0.17372E+03        -0.84143E+02         0.00000E+00
   -0.84143E+02        -0.99999E+06         0.00000E+00
    0.00000E+00         0.00000E+00        -0.22453E+06
 
   -0.18940E+03        -0.61705E+02         0.00000E+00
   -0.61705E+02        -0.99999E+06         0.00000E+00
    0.00000E+00         0.00000E+00        -0.22453E+06
 
   -0.19983E+03        -0.37648E+02         0.00000E+00
   -0.37648E+02        -0.99999E+06         0.00000E+00
    0.00000E+00         0.00000E+00        -0.22453E+06
 
   -0.20503E+03        -0.12658E+02         0.00000E+00
   -0.12658E+02        -0.99999E+06         0.00000E+00
    0.00000E+00         0.00000E+00        -0.22454E+06
 
    0.30747E+03        -0.26575E+02         0.00000E+00
   -0.26575E+02        -0.99999E+06         0.00000E+00
    0.00000E+00         0.00000E+00        -0.22072E+06
 
    0.24187E+03        -0.69131E+02         0.00000E+00
   -0.69131E+02        -0.99999E+06         0.00000E+00
    0.00000E+00         0.00000E+00        -0.22073E+06
 
    0.18145E+03        -0.10103E+03         0.00000E+00
   -0.10103E+03        -0.99999E+06         0.00000E+00
    0.00000E+00         0.00000E+00        -0.22074E+06
 
    0.12606E+03        -0.12367E+03         0.00000E+00
   -0.12367E+03        -0.99999E+06         0.00000E+00
    0.00000E+00         0.00000E+00        -0.22075E+06
 
    0.75696E+02        -0.13837E+03         0.00000E+00
   -0.13837E+03        -0.99998E+06         0.00000E+00
    0.00000E+00         0.00000E+00        -0.22075E+06
 
    0.30445E+02        -0.14597E+03         0.00000E+00
   -0.14597E+03        -0.99998E+06         0.00000E+00
    0.00000E+00         0.00000E+00        -0.22076E+06
 
   -0.97209E+01        -0.14733E+03         0.00000E+00
   -0.14733E+03        -0.99998E+06         0.00000E+00
    0.00000E+00         0.00000E+00        -0.22077E+06
 
   -0.44839E+02        -0.14313E+03         0.00000E+00
   -0.14313E+03        -0.99998E+06         0.00000E+00
    0.00000E+00         0.00000E+00        -0.22077E+06
 
   -0.75036E+02        -0.13399E+03         0.00000E+00
   -0.13399E+03        -0.99998E+06         0.00000E+00
    0.00000E+00         0.00000E+00        -0.22078E+06
 
   -0.10052E+03        -0.12054E+03         0.00000E+00
   -0.12054E+03        -0.99998E+06         0.00000E+00
    0.00000E+00         0.00000E+00        -0.22078E+06
 
   -0.12154E+03        -0.10343E+03         0.00000E+00
   -0.10343E+03        -0.99997E+06         0.00000E+00
    0.00000E+00         0.00000E+00        -0.22079E+06
 
   -0.13821E+03        -0.83409E+02         0.00000E+00
   -0.83409E+02        -0.99997E+06         0.00000E+00
    0.00000E+00         0.00000E+00        -0.22079E+06
 
   -0.15075E+03        -0.61062E+02         0.00000E+00
   -0.61062E+02        -0.99997E+06         0.00000E+00
    0.00000E+00         0.00000E+00        -0.22080E+06
 
   -0.15909E+03        -0.37275E+02         0.00000E+00
   -0.37275E+02        -0.99997E+06         0.00000E+00
    0.00000E+00         0.00000E+00        -0.22080E+06
 
   -0.16329E+03        -0.12497E+02         0.00000E+00
   -0.12497E+02        -0.99997E+06         0.00000E+00
    0.00000E+00         0.00000E+00        -0.22080E+06
 
    0.22780E+03        -0.25649E+02         0.00000E+00
   -0.25649E+02        -0.99999E+06         0.00000E+00
    0.00000E+00         0.00000E+00        -0.21700E+06
 
    0.18142E+03        -0.66337E+02         0.00000E+00
   -0.66337E+02        -0.99999E+06         0.00000E+00
    0.00000E+00         0.00000E+00        -0.21701E+06
 
    0.13714E+03        -0.96564E+02         0.00000E+00
   -0.96564E+02        -0.99998E+06         0.00000E+00
    0.00000E+00         0.00000E+00        -0.21701E+06
 
    0.95600E+02        -0.11844E+03         0.00000E+00
   -0.11844E+03        -0.99998E+06         0.00000E+00
    0.00000E+00         0.00000E+00        -0.21701E+06
 
    0.57496E+02        -0.13255E+03         0.00000E+00
   -0.13255E+03        -0.99998E+06         0.00000E+00
    0.00000E+00         0.00000E+00        -0.21702E+06
 
    0.22981E+02        -0.14015E+03         0.00000E+00
   -0.14015E+03        -0.99997E+06         0.00000E+00
    0.00000E+00         0.00000E+00        -0.21702E+06
 
   -0.75353E+01        -0.14182E+03         0.00000E+00
   -0.14182E+03        -0.99997E+06         0.00000E+00
    0.00000E+00         0.00000E+00        -0.21702E+06
 
   -0.33997E+02        -0.13806E+03         0.00000E+00
   -0.13806E+03        -0.99996E+06         0.00000E+00
    0.00000E+00         0.00000E+00        -0.21703E+06
 
   -0.56545E+02        -0.12946E+03         0.00000E+00
   -0.12946E+03        -0.99996E+06         0.00000E+00
    0.00000E+00         0.00000E+00        -0.21703E+06
 
   -0.75390E+02        -0.11660E+03         0.00000E+00
   -0.11660E+03        -0.99995E+06         0.00000E+00
    0.00000E+00         0.00000E+00        -0.21703E+06
 
   -0.90854E+02        -0.10004E+03         0.00000E+00
   -0.10004E+03        -0.99995E+06         0.00000E+00
    0.00000E+00         0.00000E+00        -0.21704E+06
 
   -0.10339E+03        -0.80427E+02         0.00000E+00
   -0.80427E+02        -0.99995E+06         0.00000E+00
    0.00000E+00         0.00000E+00        -0.21705E+06
 
   -0.11275E+03        -0.58990E+02         0.00000E+00
   -0.58990E+02        -0.99994E+06         0.00000E+00
    0.00000E+00         0.00000E+00        -0.21705E+06
 
   -0.11935E+03        -0.35634E+02         0.00000E+00
   -0.35634E+02        -0.99994E+06         0.00000E+00
    0.00000E+00         0.00000E+00        -0.21705E+06
 
   -0.12263E+03        -0.12120E+02         0.00000E+00
   -0.12120E+02        -0.99994E+06         0.00000E+00
    0.00000E+00         0.00000E+00        -0.21706E+06
 
    0.15365E+03        -0.23198E+02         0.00000E+00
   -0.23198E+02        -0.99999E+06         0.00000E+00
    0.00000E+00         0.00000E+00        -0.21327E+06
 
    0.12482E+03        -0.59431E+02         0.00000E+00
   -0.59431E+02        -0.99998E+06         0.00000E+00
    0.00000E+00         0.00000E+00        -0.21328E+06
 
    0.95483E+02        -0.88015E+02         0.00000E+00
   -0.88015E+02        -0.99998E+06         0.00000E+00
    0.00000E+00         0.00000E+00        -0.21327E+06
 
    0.66989E+02        -0.10731E+03         0.00000E+00
   -0.10731E+03        -0.99997E+06         0.00000E+00
    0.00000E+00         0.00000E+00        -0.21327E+06
 
    0.39504E+02        -0.12117E+03         0.00000E+00
   -0.12117E+03        -0.99996E+06         0.00000E+00
    0.00000E+00         0.00000E+00        -0.21327E+06
 
    0.15088E+02        -0.12914E+03         0.00000E+00
   -0.12914E+03        -0.99995E+06         0.00000E+00
    0.00000E+00         0.00000E+00        -0.21326E+06
 
   -0.60016E+01        -0.13120E+03         0.00000E+00
   -0.13120E+03        -0.99995E+06         0.00000E+00
    0.00000E+00         0.00000E+00        -0.21326E+06
 
   -0.24042E+02        -0.12793E+03         0.00000E+00
   -0.12793E+03        -0.99994E+06         0.00000E+00
    0.00000E+00         0.00000E+00        -0.21326E+06
 
   -0.39260E+02        -0.12007E+03         0.00000E+00
   -0.12007E+03        -0.99993E+06         0.00000E+00
    0.00000E+00         0.00000E+00        -0.21326E+06
 
   -0.51784E+02        -0.10832E+03         0.00000E+00
   -0.10832E+03        -0.99992E+06         0.00000E+00
    0.00000E+00         0.00000E+00        -0.21327E+06
 
   -0.61688E+02        -0.93262E+02         0.00000E+00
   -0.93262E+02        -0.99992E+06         0.00000E+00
    0.00000E+00         0.00000E+00        -0.21328E+06
 
   -0.69478E+02        -0.74960E+02         0.00000E+00
   -0.74960E+02        -0.99991E+06         0.00000E+00
    0.00000E+00         0.00000E+00        -0.21328E+06
 
   -0.76902E+02        -0.53494E+02         0.00000E+00
   -0.53494E+02        -0.99991E+06         0.00000E+00
    0.00000E+00         0.00000E+00        -0.21329E+06
 
   -0.81594E+02        -0.33464E+02         0.00000E+00
   -0.33464E+02        -0.99990E+06         0.00000E+00
    0.00000E+00         0.00000E+00        -0.21330E+06
 
   -0.84783E+02        -0.10094E+02         0.00000E+00
   -0.10094E+02        -0.99990E+06         0.00000E+00
    0.00000E+00         0.00000E+00        -0.21330E+06
 
    0.88386E+02        -0.17456E+02         0.00000E+00
   -0.17456E+02        -0.99999E+06         0.00000E+00
    0.00000E+00         0.00000E+00        -0.20955E+06
 
    0.76392E+02        -0.51479E+02         0.00000E+00
   -0.51479E+02        -0.99999E+06         0.00000E+00
    0.00000E+00         0.00000E+00        -0.20954E+06
 
    0.59781E+02        -0.69466E+02         0.00000E+00
   -0.69466E+02        -0.99997E+06         0.00000E+00
    0.00000E+00         0.00000E+00        -0.20953E+06
 
    0.38857E+02        -0.89786E+02         0.00000E+00
   -0.89786E+02        -0.99996E+06         0.00000E+00
    0.00000E+00         0.00000E+00        -0.20951E+06
 
    0.21399E+02        -0.10437E+03         0.00000E+00
   -0.10437E+03        -0.99995E+06         0.00000E+00
    0.00000E+00         0.00000E+00        -0.20950E+06
 
    0.72912E+01        -0.11191E+03         0.00000E+00
   -0.11191E+03        -0.99994E+06         0.00000E+00
    0.00000E+00         0.00000E+00        -0.20949E+06
 
   -0.46794E+01        -0.11356E+03         0.00000E+00
   -0.11356E+03        -0.99992E+06         0.00000E+00
    0.00000E+00         0.00000E+00        -0.20948E+06
 
   -0.14928E+02        -0.11038E+03         0.00000E+00
   -0.11038E+03        -0.99991E+06         0.00000E+00
    0.00000E+00         0.00000E+00        -0.20948E+06
 
   -0.23616E+02        -0.10325E+03         0.00000E+00
   -0.10325E+03        -0.99990E+06         0.00000E+00
    0.00000E+00         0.00000E+00        -0.20948E+06
 
   -0.30777E+02        -0.92929E+02         0.00000E+00
   -0.92929E+02        -0.99988E+06         0.00000E+00
    0.00000E+00         0.00000E+00        -0.20949E+06
 
   -0.36250E+02        -0.80246E+02         0.00000E+00
   -0.80246E+02        -0.99987E+06         0.00000E+00
    0.00000E+00         0.00000E+00        -0.20949E+06
 
   -0.39306E+02        -0.65943E+02         0.00000E+00
   -0.65943E+02        -0.99986E+06         0.00000E+00
    0.00000E+00         0.00000E+00        -0.20951E+06
 
   -0.40834E+02        -0.48550E+02         0.00000E+00
   -0.48550E+02        -0.99986E+06         0.00000E+00
    0.00000E+00         0.00000E+00        -0.20953E+06
 
   -0.49444E+02        -0.22079E+02         0.00000E+00
   -0.22079E+02        -0.99986E+06         0.00000E+00
    0.00000E+00         0.00000E+00        -0.20954E+06
 
   -0.52270E+02        -0.13073E+02         0.00000E+00
   -0.13073E+02        -0.99985E+06         0.00000E+00
    0.00000E+00         0.00000E+00        -0.20955E+06
 
    0.42820E+02        -0.21490E+02         0.00000E+00
   -0.21490E+02        -0.99998E+06         0.00000E+00
    0.00000E+00         0.00000E+00        -0.20584E+06
 
    0.38237E+02        -0.18428E+02         0.00000E+00
   -0.18428E+02        -0.99997E+06         0.00000E+00
    0.00000E+00         0.00000E+00        -0.20584E+06
 
    0.24462E+02        -0.50880E+02         0.00000E+00
   -0.50880E+02        -0.99997E+06         0.00000E+00
    0.00000E+00         0.00000E+00        -0.20577E+06
 
    0.12650E+02        -0.70655E+02         0.00000E+00
   -0.70655E+02        -0.99996E+06         0.00000E+00
    0.00000E+00         0.00000E+00        -0.20573E+06
 
    0.69804E+01        -0.80132E+02         0.00000E+00
   -0.80132E+02        -0.99994E+06         0.00000E+00
    0.00000E+00         0.00000E+00        -0.20571E+06
 
    0.19468E+01        -0.84121E+02         0.00000E+00
   -0.84121E+02        -0.99992E+06         0.00000E+00
    0.00000E+00         0.00000E+00        -0.20570E+06
 
   -0.26802E+01        -0.84208E+02         0.00000E+00
   -0.84208E+02        -0.99990E+06         0.00000E+00
    0.00000E+00         0.00000E+00        -0.20569E+06
 
   -0.68159E+01        -0.81099E+02         0.00000E+00
   -0.81099E+02        -0.99987E+06         0.00000E+00
    0.00000E+00         0.00000E+00        -0.20568E+06
 
   -0.10400E+02        -0.75264E+02         0.00000E+00
   -0.75264E+02        -0.99985E+06         0.00000E+00
    0.00000E+00         0.00000E+00        -0.20568E+06
 
   -0.13436E+02        -0.67121E+02         0.00000E+00
   -0.67121E+02        -0.99983E+06         0.00000E+00
    0.00000E+00         0.00000E+00        -0.20568E+06
 
   -0.15898E+02        -0.57162E+02         0.00000E+00
   -0.57162E+02        -0.99981E+06         0.00000E+00
    0.00000E+00         0.00000E+00        -0.20569E+06
 
   -0.17446E+02        -0.46381E+02         0.00000E+00
   -0.46381E+02        -0.99980E+06         0.00000E+00
    0.00000E+00         0.00000E+00        -0.20571E+06
 
   -0.13038E+02        -0.37990E+02         0.00000E+00
   -0.37990E+02        -0.99978E+06         0.00000E+00
    0.00000E+00         0.00000E+00        -0.20574E+06
 
   -0.10864E+02        -0.30699E+02         0.00000E+00
   -0.30699E+02        -0.99977E+06         0.00000E+00
    0.00000E+00         0.00000E+00        -0.20581E+06
 
   -0.36520E+02         0.22942E+02         0.00000E+00
    0.22942E+02        -0.99979E+06         0.00000E+00
    0.00000E+00         0.00000E+00        -0.20582E+06
 
   -0.28563E+02         0.13787E+01         0.00000E+00
    0.13787E+01        -0.10000E+07         0.00000E+00
    0.00000E+00         0.00000E+00        -0.20243E+06
 
    0.54718E+02        -0.33751E+02         0.00000E+00
   -0.33751E+02        -0.10000E+07         0.00000E+00
    0.00000E+00         0.00000E+00        -0.20200E+06
 
   -0.91540E+00        -0.35043E+02         0.00000E+00
   -0.35043E+02        -0.10000E+07         0.00000E+00
    0.00000E+00         0.00000E+00        -0.20195E+06
 
    0.95984E+00        -0.34193E+02         0.00000E+00
   -0.34193E+02        -0.99998E+06         0.00000E+00
    0.00000E+00         0.00000E+00        -0.20192E+06
 
    0.81313E+00        -0.34792E+02         0.00000E+00
   -0.34792E+02        -0.99994E+06         0.00000E+00
    0.00000E+00         0.00000E+00        -0.20190E+06
 
    0.17233E+00        -0.35159E+02         0.00000E+00
   -0.35159E+02        -0.99991E+06         0.00000E+00
    0.00000E+00         0.00000E+00        -0.20189E+06
 
   -0.66405E+00        -0.34640E+02         0.00000E+00
   -0.34640E+02        -0.99987E+06         0.00000E+00
    0.00000E+00         0.00000E+00        -0.20188E+06
 
   -0.14732E+01        -0.33092E+02         0.00000E+00
   -0.33092E+02        -0.99983E+06         0.00000E+00
    0.00000E+00         0.00000E+00        -0.20187E+06
 
   -0.21825E+01        -0.30564E+02         0.00000E+00
   -0.30564E+02        -0.99979E+06         0.00000E+00
    0.00000E+00         0.00000E+00        -0.20186E+06
 
   -0.27879E+01        -0.27143E+02         0.00000E+00
   -0.27143E+02        -0.99976E+06         0.00000E+00
    0.00000E+00         0.00000E+00        -0.20186E+06
 
   -0.33569E+01        -0.22847E+02         0.00000E+00
   -0.22847E+02        -0.99974E+06         0.00000E+00
    0.00000E+00         0.00000E+00        -0.20186E+06
 
   -0.38629E+01        -0.17448E+02         0.00000E+00
   -0.17448E+02        -0.99971E+06         0.00000E+00
    0.00000E+00         0.00000E+00        -0.20187E+06
 
   -0.54066E+01        -0.10189E+02         0.00000E+00
   -0.10189E+02        -0.99970E+06         0.00000E+00
    0.00000E+00         0.00000E+00        -0.20189E+06
 
    0.50567E+02        -0.58250E+01         0.00000E+00
   -0.58250E+01        -0.99968E+06         0.00000E+00
    0.00000E+00         0.00000E+00        -0.20193E+06
 
   -0.58018E+02        -0.30614E+02         0.00000E+00
   -0.30614E+02        -0.99967E+06         0.00000E+00
    0.00000E+00         0.00000E+00        -0.20236E+06
 
SCALARS stressS double 
LOOKUP_TABLE default
  -461978.061875858     
  -461797.906290418     
  -461990.786250111     
  -462118.490199361     
  -462222.565142721     
  -462311.958289248     
  -462390.076417247     
  -462458.455166822     
  -462517.918210366     
  -462569.025640530     
  -462612.343805257     
  -462648.817357711     
  -462680.785792336     
  -462720.834301879     
  -462589.307191086     
  -461941.902395352     
  -462005.391504658     
  -462039.803731835     
  -462130.952862674     
  -462220.982096079     
  -462304.134653682     
  -462379.104330575     
  -462445.677778333     
  -462503.884976005     
  -462553.790977885     
  -462595.395172950     
  -462628.385080441     
  -462651.224101542     
  -462644.620573447     
  -462665.397828820     
  -461837.315569377     
  -461946.019548292     
  -462040.646324053     
  -462121.318607345     
  -462203.902528904     
  -462282.292599989     
  -462354.272215250     
  -462418.860521317     
  -462475.593356146     
  -462524.183271536     
  -462564.314941517     
  -462595.418554254     
  -462615.849486354     
  -462633.442479634     
  -462638.173974129     
  -461778.456755097     
  -461888.303606589     
  -461988.874673559     
  -462081.243006259     
  -462164.948689842     
  -462242.477927107     
  -462313.271628564     
  -462376.779981197     
  -462432.604346411     
  -462480.454226414     
  -462520.094671079     
  -462551.363022587     
  -462575.214932599     
  -462590.150590237     
  -462598.261610192     
  -461710.648566633     
  -461822.416339399     
  -461925.350231462     
  -462019.751843452     
  -462106.190330155     
  -462184.681914984     
  -462255.617481669     
  -462318.943458692     
  -462374.512296996     
  -462422.183180650     
  -462461.870052379     
  -462493.640040263     
  -462517.282913748     
  -462533.185792434     
  -462541.007464411     
  -461631.547063339     
  -461743.886492700     
  -461847.824629472     
  -461943.465260698     
  -462030.910908510     
  -462110.346527179     
  -462181.824772645     
  -462245.416961662     
  -462301.117962997     
  -462348.896693372     
  -462388.732234416     
  -462420.579340123     
  -462444.488594723     
  -462460.389804453     
  -462468.361015388     
  -461538.893670540     
  -461651.635419125     
  -461756.123283948     
  -461852.395901667     
  -461940.513809078     
  -462020.526708861     
  -462092.496078838     
  -462156.452423841     
  -462212.417835971     
  -462260.398170894     
  -462300.386708433     
  -462332.386056239     
  -462356.380189322     
  -462372.383038538     
  -462380.380038467     
  -461431.996937312     
  -461545.048198363     
  -461649.918675321     
  -461746.622428396     
  -461835.181266863     
  -461915.624348849     
  -461987.976885346     
  -462052.263505613     
  -462108.500411997     
  -462156.697918734     
  -462196.862200200     
  -462228.992991017     
  -462253.093104858     
  -462269.158834715     
  -462277.192669125     
  -461310.502795500     
  -461423.837457424     
  -461529.021876632     
  -461626.059991799     
  -461714.961147026     
  -461795.737452591     
  -461868.403087100     
  -461932.970930229     
  -461989.452407726     
  -462037.856131327     
  -462078.187688015     
  -462110.451071344     
  -462134.647510613     
  -462150.778522904     
  -462158.843813673     
  -461174.230468505     
  -461287.838536775     
  -461393.307056920     
  -461490.635365005     
  -461579.825913852     
  -461660.883667148     
  -461733.814869852     
  -461798.626400119     
  -461855.324690261     
  -461903.915289275     
  -461944.402617974     
  -461976.789703531     
  -462001.078750248     
  -462017.270851464     
  -462025.366797059     
  -461023.066751347     
  -461136.946317463     
  -461242.686213675     
  -461340.283171958     
  -461429.736090835     
  -461511.045614274     
  -461584.213707243     
  -461649.243073987     
  -461706.136730756     
  -461754.897587847     
  -461795.528170792     
  -461828.030537923     
  -461852.406159996     
  -461868.656085126     
  -461876.780898589     
  -460856.929375925     
  -460971.083018858     
  -461077.090454103     
  -461174.946724294     
  -461264.648498826     
  -461346.193862629     
  -461419.582029056     
  -461484.813052854     
  -461541.887523708     
  -461590.806310379     
  -461631.570357365     
  -461664.180529338     
  -461688.637550060     
  -461704.941943549     
  -461713.094058536     
  -460675.750166161     
  -460790.183942377     
  -460896.460613677     
  -460994.574021051     
  -461084.519361854     
  -461166.293037742     
  -461239.892480004     
  -461305.315954185     
  -461362.562369345     
  -461411.631097771     
  -461452.521820107     
  -461485.234406473     
  -461509.768823912     
  -461526.125084831     
  -461534.303208305     
  -460479.467943023     
  -460594.190763008     
  -460700.742226747     
  -460799.115322627     
  -460889.304239596     
  -460971.304252001     
  -461045.111590997     
  -461110.723309968     
  -461168.137148510     
  -461217.351403880     
  -461258.364815617     
  -461291.176466952     
  -461315.785707782     
  -461332.192095246     
  -461340.395354846     
  -460268.025333352     
  -460383.048390160     
  -460489.883015650     
  -460588.521629461     
  -460678.957751593     
  -460761.185907680     
  -460835.201529567     
  -460901.000853159     
  -460958.580817318     
  -461007.938967198     
  -461049.073365598     
  -461081.982515443     
  -461106.665294675     
  -461123.120905295     
  -461131.348835517     
  -460041.367267156     
  -460156.703451114     
  -460263.831625004     
  -460362.743884229     
  -460453.433347395     
  -460535.894077115     
  -460610.120999373     
  -460676.109822872     
  -460733.856960049     
  -460783.359451884     
  -460824.614898521     
  -460857.621397476     
  -460882.377490975     
  -460898.882123189     
  -460907.134608125     
  -459799.440178422     
  -459915.103509478     
  -460022.536977850     
  -460121.732565667     
  -460212.683210221     
  -460295.382737332     
  -460369.825794851     
  -460436.007787154     
  -460493.924811746     
  -460543.573599231     
  -460584.951457928     
  -460618.056224344     
  -460642.886220534     
  -460659.440219208     
  -460667.717417106     
  -459542.191505942     
  -459658.196615692     
  -459765.947927397     
  -459865.437490150     
  -459956.658243115     
  -460039.603959546     
  -460114.269191472     
  -460180.649215749     
  -460238.739982259     
  -460288.538065138     
  -460330.040617898     
  -460363.245333299     
  -460388.150408736     
  -460404.754517789     
  -460413.056788463     
  -459269.569331371     
  -459385.931012146     
  -459494.013050426     
  -459593.807714486     
  -459685.308098218     
  -459768.508074121     
  -459843.402247062     
  -459909.985909434     
  -459968.254998327     
  -460018.206055382     
  -460059.836189968     
  -460093.143046310     
  -460118.124775172     
  -460134.780010557     
  -460143.107851875     
  -458981.522093609     
  -459098.254918863     
  -459206.680512142     
  -459306.791488509     
  -459398.581224138     
  -459482.043816672     
  -459557.174046337     
  -459623.967338342     
  -459682.419727106     
  -459732.527822821     
  -459774.288780881     
  -459807.700274658     
  -459832.760472070     
  -459849.468016343     
  -459857.822011273     
  -458677.998359596     
  -458795.116371385     
  -458903.897973581     
  -459004.336234959     
  -459096.424920672     
  -459180.158458529     
  -459255.531905960     
  -459322.540918148     
  -459381.181717782     
  -459431.451066881     
  -459473.346241070     
  -459506.865006747     
  -459532.005601450     
  -459548.766717773     
  -459557.147491052     
  -458358.946646607     
  -458476.463101429     
  -458585.612531348     
  -458686.388548997     
  -458778.785398447     
  -458862.797926043     
  -458938.421551922     
  -459005.652242602     
  -459064.486485035     
  -459114.921262484     
  -459156.954032571     
  -459190.582707820     
  -459215.805638967     
  -459232.621601301     
  -459241.029784228     
  -458024.315295341     
  -458142.242458051     
  -458251.770687137     
  -458352.894216236     
  -458445.607845155     
  -458529.906914128     
  -458605.787278754     
  -458673.245285959     
  -458732.277751315     
  -458782.881938013     
  -458825.055537784     
  -458858.796654008     
  -458884.103787286     
  -458900.975823623     
  -458909.412025425     
  -457674.052393358     
  -457792.401368832     
  -457902.318347221     
  -458003.798250613     
  -458096.836501500     
  -458181.428999462     
  -458257.572098577     
  -458325.262585843     
  -458384.497660899     
  -458435.274917312     
  -458477.592325617     
  -458511.448218367     
  -458536.841277375     
  -458553.770523297     
  -458562.235307695     
  -457308.105747387     
  -457426.886340539     
  -457537.200852311     
  -457639.044953832     
  -457732.414750107     
  -457817.306758281     
  -457893.717886711     
  -457961.645415113     
  -458021.086975976     
  -458072.040537481     
  -458114.504388086     
  -458148.477122964     
  -458173.957632481     
  -458190.945092777     
  -458199.438958625     
  -456926.422901928     
  -457045.643498058     
  -457156.363037873     
  -457258.577997694     
  -457352.285220040     
  -457437.481892785     
  -457514.165529273     
  -457582.333949547     
  -457641.985262881     
  -457693.117851786     
  -457735.730357653     
  -457769.821668161     
  -457795.390906582     
  -457812.437423089     
  -457820.960788164     
  -456528.951200987     
  -456648.618659714     
  -456759.749324363     
  -456862.340530054     
  -456956.389908853     
  -457041.895369318     
  -457118.855077098     
  -457187.267436757     
  -457247.131074946     
  -457298.444825073     
  -457341.207713588     
  -457375.418948001     
  -457401.077906734     
  -457418.184130903     
  -457426.737318069     
  -456115.637889259     
  -456235.757446767     
  -456347.303836349     
  -456450.275304506     
  -456544.670323449     
  -456630.487570589     
  -456707.725909223     
  -456776.384370538     
  -456836.462137042     
  -456887.958527548     
  -456930.872983782     
  -456965.205058723     
  -456990.954406760     
  -457008.120775729     
  -457016.704000891     
  -455686.430249259     
  -455807.005424650     
  -455918.970549198     
  -456022.324833543     
  -456117.067640375     
  -456203.198463524     
  -456280.716908410     
  -456349.622673905     
  -456409.915535733     
  -456461.595331467     
  -456504.661947207     
  -456539.115306020     
  -456564.955358204     
  -456582.182073418     
  -456590.795434753     
  -455241.275770985     
  -455362.308273567     
  -455474.693461895     
  -455578.431564613     
  -455673.522885877     
  -455759.967783813     
  -455837.766650453     
  -455906.919893233     
  -455967.427918101     
  -456019.291114310     
  -456062.509840962     
  -456097.084415361     
  -456123.015103225     
  -456140.302110790     
  -456148.945578872     
  -454780.122351158     
  -454901.611986263     
  -455014.416794580     
  -455118.538078398     
  -455213.977135699     
  -455300.735237795     
  -455378.813608552     
  -455448.213405313     
  -455508.935701537     
  -455560.981471211     
  -455604.351575100     
  -455639.046748863     
  -455665.067593084     
  -455682.414565258     
  -455691.087973750     
  -454302.918519535     
  -454424.863091124     
  -454538.085209519     
  -454642.587308611     
  -454738.371734498     
  -454825.440722124     
  -454903.796373667     
  -454973.440638714     
  -455034.375296297     
  -455086.601938778     
  -455130.121957673     
  -455164.936531424     
  -455191.046615154     
  -455208.452932433     
  -455217.155969097     
  -453809.613690158     
  -453932.008898929     
  -454045.644054398     
  -454150.522782723     
  -454246.648534734     
  -454334.024561455     
  -454412.653891517     
  -454482.539310500     
  -454543.683342212     
  -454596.088231977     
  -454639.755931900     
  -454674.688088221     
  -454700.886030710     
  -454718.350764162     
  -454727.082961998     
  -453300.158435992     
  -453422.997772096     
  -453537.039627080     
  -453642.288883065     
  -453738.750154870     
  -453826.427764354     
  -453905.325716759     
  -453975.447679101     
  -454036.796960641     
  -454089.376495443     
  -454133.188827051     
  -454168.236095320     
  -454194.520025394     
  -454212.041918881     
  -454220.802647212     
  -452774.504785756     
  -452897.779415447     
  -453012.219461186     
  -453117.831127975     
  -453214.620256794     
  -453302.592297643     
  -453381.752284773     
  -453452.104814055     
  -453513.654022546     
  -453566.403570282     
  -453610.356624271     
  -453645.515844767     
  -453671.883373777     
  -453689.460825877     
  -453698.249281295     
  -452232.606542089     
  -452356.305187891     
  -452471.132632044     
  -452577.096472783     
  -452674.203842472     
  -452762.461379338     
  -452841.875201485     
  -452912.450883187     
  -452974.193433525     
  -453027.107277318     
  -453071.196238416     
  -453106.463525351     
  -453132.911719357     
  -453150.542764768     
  -453159.357961813     
  -451674.419620594     
  -451798.528434664     
  -451913.730082850     
  -452020.033630536     
  -452117.447569949     
  -452205.979790518     
  -452285.637551629     
  -452356.427457831     
  -452418.355436433     
  -452471.426717595     
  -452515.645816835     
  -452551.016520057     
  -452577.541871016     
  -452595.224161306     
  -452604.064922848     
  -451099.902409540     
  -451224.404839966     
  -451339.964970958     
  -451446.593412636     
  -451544.300088902     
  -451633.094206392     
  -451712.984225943     
  -451783.977836627     
  -451846.081932330     
  -451899.302590913     
  -451943.645055959     
  -451979.113721095     
  -452005.712116920     
  -452023.442900554     
  -452032.307847770     
  -450509.016150185     
  -450633.892800128     
  -450749.793034501     
  -450856.729089525     
  -450954.712396049     
  -451043.753547043     
  -451123.862267750     
  -451195.047388532     
  -451257.316820385     
  -451310.677533159     
  -451355.135536487     
  -451390.695863428     
  -451417.362556811     
  -451435.138658325     
  -451444.026200311     
  -449901.725337954     
  -450026.953817455     
  -450143.172979570     
  -450250.396771847     
  -450348.638210860     
  -450437.909348249     
  -450518.221239509     
  -450589.583915615     
  -450652.006357465     
  -450705.496473141     
  -450750.061078003     
  -450785.705877618     
  -450812.435453523     
  -450830.253251851     
  -450839.161574761     
  -449277.998144760     
  -449403.552915170     
  -449520.066888405     
  -449627.555812467     
  -449726.034372055     
  -449815.516153052     
  -449896.013609972     
  -449967.538036360     
  -450030.099538114     
  -450083.707009790     
  -450128.368113843     
  -450164.089262846     
  -450190.875604652     
  -450208.731010532     
  -450217.658066284     
  -448637.806862918     
  -448763.659073880     
  -448880.440649033     
  -448988.169229962     
  -449086.861255476     
  -449176.531924599     
  -449257.195162607     
  -449328.863590202     
  -449391.548495719     
  -449445.259810453     
  -449490.006087058     
  -449525.794481023     
  -449552.630735254     
  -449570.519167733     
  -449579.462662254     
  -447981.128371171     
  -448107.245690136     
  -448224.264407013     
  -448332.204154104     
  -448431.083213997     
  -448520.918481049     
  -448601.725426036     
  -448673.518064060     
  -448736.308925678     
  -448790.109031223     
  -448834.927868364     
  -448870.773372867     
  -448897.651912569     
  -448915.568274556     
  -448924.525655568     
  -447307.944623391     
  -447434.291057654     
  -447551.513039841     
  -447659.632294110     
  -447758.669040179     
  -447848.641953249     
  -447929.568127300     
  -448001.463041753     
  -448064.340531480     
  -448118.212760181     
  -448163.090197085     
  -448198.981597001     
  -448225.893983704     
  -448243.832636645     
  -448252.801080994     
  -446618.243160554     
  -446744.778871878     
  -446862.166654744     
  -446970.430430341     
  -447069.592452487     
  -447159.673266043     
  -447240.691668855     
  -447312.664677179     
  -447375.607494630     
  -447429.533484574     
  -447474.454146035     
  -447510.379093037     
  -447537.316037407     
  -447555.270775039     
  -447564.247175586     
  -445912.017646611     
  -446038.698758515     
  -446156.211110596     
  -446264.580930207     
  -446363.832605838     
  -446453.988644062     
  -446535.069630139     
  -446607.094192262     
  -446670.078969426     
  -446724.038582931     
  -446768.985611466     
  -446804.930569794     
  -446831.881890996     
  -446849.845912283     
  -446858.826864362     
  -445189.268428887     
  -445316.046826774     
  -445433.638564692     
  -445542.072289158     
  -445641.374627425     
  -445731.570142968     
  -445812.681294821     
  -445884.728400663     
  -445947.729603705     
  -446001.700843287     
  -446046.655829227     
  -446082.606019841     
  -446109.560603679     
  -446127.526484912     
  -446136.508272405     
  -444450.003123606     
  -444576.826247974     
  -444694.448045136     
  -444802.899697549     
  -444902.210178670     
  -444992.406207088     
  -445073.512204626     
  -445145.550258383     
  -445208.540086640     
  -445262.499008660     
  -445307.441918312     
  -445343.381261512     
  -445370.327017469     
  -445388.286683680     
  -445397.265264709     
  -443694.237227235     
  -443821.047860270     
  -443938.646049709     
  -444047.065634293     
  -444146.338044301     
  -444236.492254476     
  -444317.554740961     
  -444389.549442364     
  -444452.497724809     
  -444506.418350977     
  -444551.327453087     
  -444587.238509819     
  -444614.162327096     
  -444632.107022756     
  -444641.078015063     
  -442921.994754170     
  -443048.730800171     
  -443166.247171969     
  -443274.580488192     
  -443373.764749538     
  -443463.831290504     
  -443544.808735360     
  -443616.722958310     
  -443679.597047779     
  -443733.451274818     
  -443778.303065523     
  -443814.166977472     
  -443841.054680159     
  -443858.974939353     
  -443867.933605394     
  -442133.308901399     
  -442259.903161634     
  -442377.274755427     
  -442485.463207921     
  -442584.505206399     
  -442674.434551035     
  -442755.282110009     
  -442827.075778919     
  -442889.840444453     
  -442943.597952223     
  -442988.367078742     
  -443024.163507492     
  -443050.999809039     
  -443068.885425155     
  -443077.826656949     
  -441328.222740819     
  -441454.602683442     
  -441571.761576751     
  -441679.741981576     
  -441778.583390203     
  -441868.322176322     
  -441948.991549459     
  -442020.621513830     
  -442083.238831513     
  -442136.866989890     
  -442181.526173272     
  -442217.233238702     
  -442244.001695832     
  -442261.841690909     
  -442270.759994746     
  -440506.789939787     
  -440632.877465656     
  -440749.750558758     
  -440857.454946844     
  -440956.033047355     
  -441045.523916813     
  -441125.963204803     
  -441197.383112428     
  -441259.812355180     
  -441313.276130120     
  -441357.796087326     
  -441393.390305508     
  -441420.073271807     
  -441437.855865637     
  -441446.745346642     
  -439669.075510622     
  -439794.786716032     
  -439911.295514287     
  -440018.650932766     
  -440116.898435433     
  -440206.079871960     
  -440286.233431472     
  -440357.393600870     
  -440419.591127585     
  -440472.852986691     
  -440517.202352300     
  -440552.658573161     
  -440579.237152444     
  -440596.949731595     
  -440605.804078254     
  -438815.156589921     
  -438940.401527197     
  -439056.461921802     
  -439163.390234199     
  -439261.235096812     
  -439350.041263170     
  -439429.849561724     
  -439500.696854265     
  -439562.615998802     
  -439615.635816791     
  -439659.781064677     
  -439695.072409612     
  -439721.526409333     
  -439739.155496120     
  -439747.967964810     
  -437945.123248421     
  -438069.805685662     
  -438185.327733835     
  -438291.745419944     
  -438389.110666670     
  -438477.471241897     
  -438556.870712891     
  -438627.348405119     
  -438688.939365477     
  -438741.674329872     
  -438785.579695086     
  -438820.677494757     
  -438846.985379512     
  -438864.516601132     
  -438873.280000688     
  -437059.079332623     
  -437183.096513687     
  -437297.984219317     
  -437403.802175648     
  -437500.605716536     
  -437588.445733795     
  -437667.368632148     
  -437737.416288678     
  -437798.626016719     
  -437851.030533997     
  -437894.657935002     
  -437929.531667447     
  -437955.670512749     
  -437973.088570505     
  -437981.795246881     
  -436157.143339294     
  -436280.385745151     
  -436394.536840793     
  -436499.660182322     
  -436595.814633976     
  -436683.054319515     
  -436761.428578250     
  -436830.981925490     
  -436891.754017330     
  -436943.779619616     
  -436987.088581023     
  -437021.705810122     
  -437047.651256406     
  -437064.939895156     
  -437073.581716149     
  -435239.449324336     
  -435361.800436731     
  -435475.106167665     
  -435579.434031349     
  -435674.846539129     
  -435761.401152439     
  -435839.150240276     
  -435908.141040928     
  -435968.415627962     
  -436020.010880216     
  -436062.958455811     
  -436097.284769991     
  -436123.010976787     
  -436140.152954441     
  -436148.721294481     
  -434306.147847617     
  -434427.483915646     
  -434539.828826271     
  -434643.254176403     
  -434737.826238004     
  -434823.605913029     
  -434900.648692654     
  -434969.004620656     
  -435028.718260783     
  -435079.828668063     
  -435122.369363870     
  -435156.368314730     
  -435181.847914779     
  -435198.824971773     
  -435207.310696666     
  -433357.406955653     
  -433477.596765183     
  -433588.858487464     
  -433691.267922353     
  -433784.895212091     
  -433869.804798595     
  -433946.055384783     
  -434013.699899802     
  -434072.785468091     
  -434123.353382121     
  -434165.439078752     
  -434199.072119110     
  -434224.276171938     
  -434241.069000323     
  -434249.462451808     
  -432393.413203996     
  -432512.317849094     
  -432622.366891841     
  -432723.640450380     
  -432816.212642649     
  -432900.151546279     
  -432975.519162255     
  -433042.371382269     
  -433100.757959585     
  -433150.722483418     
  -433192.302356693     
  -433225.528777101     
  -433250.426721445     
  -433267.014933174     
  -433275.305913070     
  -431414.372721146     
  -431531.845375356     
  -431640.544911933     
  -431740.555877544     
  -431831.956466831     
  -431914.818485163     
  -431989.207314796     
  -432055.181884420     
  -432112.794642017     
  -432162.091530949     
  -432203.111969189     
  -432235.888831685     
  -432260.448435764     
  -432276.810529516     
  -432284.988283128     
  -430420.512315389     
  -430536.397998965     
  -430643.603649398     
  -430742.218347168     
  -430832.324460603     
  -430913.997611456     
  -430987.306643622     
  -431052.313594946     
  -431109.073672054     
  -431157.635228204     
  -431198.039744079     
  -431230.321811487     
  -431254.509119858     
  -431270.622445566     
  -431278.675643929     
  -429412.080624995     
  -429526.215961999     
  -429631.775563246     
  -429728.853144313     
  -429817.535340963     
  -429897.901677471     
  -429970.024537726     
  -430033.969139196     
  -430089.793509708     
  -430137.548467036     
  -430177.277601261     
  -430209.017259818     
  -430232.796535193     
  -430248.637255165     
  -430256.553975594     
  -428389.349310586     
  -428501.562266679     
  -428605.315622261     
  -428700.707826902     
  -428787.829875978     
  -428866.765281297     
  -428937.590044315     
  -429000.372631998     
  -429055.173955416     
  -429102.047351000     
  -429141.038564440     
  -429172.185737147     
  -429195.519395193     
  -429211.062440593     
  -429218.830144880     
  -427352.614285455     
  -427462.723873708     
  -427564.502470510     
  -427658.053358709     
  -427743.471986298     
  -427820.845938666     
  -427890.254913366     
  -427951.770697576     
  -428005.457148238     
  -428051.370174906     
  -428089.557725225     
  -428120.059772867     
  -428142.908307853     
  -428158.127329046     
  -428165.732838650     
  -426302.196975349     
  -426410.012912686     
  -426509.639588884     
  -426601.185223704     
  -426684.749815022     
  -426760.425111710     
  -426828.294589254     
  -426888.433428290     
  -426940.908496100     
  -426985.778331013     
  -427023.093129561     
  -427052.894736167     
  -427075.216635107     
  -427090.083944474     
  -427097.513411915     
  -425238.445592228     
  -425343.767883835     
  -425441.056427327     
  -425530.424492773     
  -425611.976733978     
  -425685.809160653     
  -425752.009113984     
  -425810.655245771     
  -425861.817501129     
  -425905.557104602     
  -425941.926549359     
  -425970.969589127     
  -425992.721232353     
  -426007.207738248     
  -426014.446614180     
  -424161.736396601     
  -424264.354819257     
  -424359.109470905     
  -424446.118802104     
  -424525.492242952     
  -424597.330172961     
  -424661.723895622     
  -424718.755617775     
  -424768.498433650     
  -424811.016313222     
  -424846.364094291     
  -424874.587477642     
  -424895.723024504     
  -424909.798155625     
  -424916.831151198     
  -423072.474908538     
  -423172.168356783     
  -423264.183187436     
  -423348.643187106     
  -423425.662703366     
  -423495.346610570     
  -423557.790282535     
  -423613.079572195     
  -423661.290797658     
  -423702.490734056     
  -423736.736610164     
  -423764.076108589     
  -423784.547368397     
  -423798.178988938     
  -423804.990033758     
  -421971.097007292     
  -422067.632658527     
  -422156.690783301     
  -422238.400695370     
  -422312.881828768     
  -422380.243697874     
  -422440.585867868     
  -422493.997935382     
  -422540.559518354     
  -422580.340253807     
  -422613.399801912     
  -422639.787854416     
  -422659.544145547     
  -422672.698463432     
  -422679.270660328     
  -420858.069830509     
  -420951.202077346     
  -421037.074666210     
  -421115.822675721     
  -421187.570829893     
  -421252.433451221     
  -421310.514429522     
  -421361.907205750     
  -421406.694769029     
  -421444.949664753     
  -421476.734011056     
  -421502.099520705     
  -421521.087525319     
  -421533.728998973     
  -421540.044578542     
  -419733.892344648     
  -419823.361435600     
  -419905.806476379     
  -419981.368605921     
  -420050.178081263     
  -420112.354223659     
  -420168.005388209     
  -420217.228955209     
  -420260.111340447     
  -420296.728020912     
  -420327.143571661     
  -420351.411709477     
  -420369.575338363     
  -420381.666592599     
  -420387.706872949     
  -418599.095402598     
  -418684.625727422     
  -418763.386498623     
  -418835.525277585     
  -418901.178137828     
  -418960.469606462     
  -419013.512640029     
  -419060.408631196     
  -419101.247442350     
  -419136.107460245     
  -419165.055665982     
  -419188.147712885     
  -419205.428005931     
  -419216.929774923     
  -419222.675136135     
  -417454.241028048     
  -417535.538985011     
  -417610.342204411     
  -417678.805101817     
  -417741.069883746     
  -417797.266491170     
  -417847.512590955     
  -417891.913611451     
  -417930.562813924     
  -417963.541394298     
  -417990.918603840     
  -418012.751881662     
  -418029.086985251     
  -418039.958112470     
  -418045.388000929     
  -416299.920559230     
  -416376.671955271     
  -416447.225592418     
  -416511.743232176     
  -416570.373542222     
  -416623.252054364     
  -416670.501190589     
  -416712.230343632     
  -416748.536011488     
  -416779.501967277     
  -416805.199461504     
  -416825.687432112     
  -416841.012720673     
  -416851.210261669     
  -416856.303249344     
  -415136.751141315     
  -415208.618111362     
  -415274.608900192     
  -415334.893129102     
  -415389.626218111     
  -415438.949387672     
  -415482.989732339     
  -415521.860385790     
  -415555.660733484     
  -415584.476695862     
  -415608.381033295     
  -415627.433694740     
  -415641.682134153     
  -415651.161641032     
  -415655.895575950     
  -413965.369847241     
  -414031.987383244     
  -414093.078159781     
  -414148.820117112     
  -414199.375608801     
  -414244.891459160     
  -414285.499170883     
  -414321.315143365     
  -414352.441045287     
  -414378.964199775     
  -414400.958093828     
  -414418.482842197     
  -414431.585782387     
  -414440.301869444     
  -414444.654193068     
  -412786.424518246     
  -412847.396819540     
  -412903.223991269     
  -412954.092495315     
  -413000.171486531     
  -413041.613122247     
  -413078.552679786     
  -413111.109097942     
  -413139.385320309     
  -413163.468971511     
  -413183.432929527     
  -413199.336283087     
  -413211.224843317     
  -413219.132333149     
  -413223.080620673     
  -411600.559856715     
  -411655.457419890     
  -411705.629139745     
  -411751.269735384     
  -411792.554827645     
  -411829.640851275     
  -411862.666252920     
  -411891.751223062     
  -411916.998719442     
  -411938.494891348     
  -411956.310348637     
  -411970.500625589     
  -411981.108630867     
  -411988.164235411     
  -411991.687427460     
  -410408.398518000     
  -410456.756143542     
  -410500.852333086     
  -410540.888451439     
  -410577.044163524     
  -410609.480560329     
  -410638.336976748     
  -410663.734256984     
  -410685.773502692     
  -410704.537523477     
  -410720.091075165     
  -410732.484651072     
  -410741.751964016     
  -410747.919255811     
  -410750.998845877     
  -409210.510774521     
  -409251.834811510     
  -409289.411116730     
  -409323.444660343     
  -409354.122576085     
  -409381.602677497     
  -409406.029215637     
  -409427.520967702     
  -409446.176351683     
  -409462.072186496     
  -409475.266099184     
  -409485.791945295     
  -409493.679469478     
  -409498.930064751     
  -409501.557879186     
  -408007.399178944     
  -408041.164017096     
  -408071.759109929     
  -408099.388968443     
  -408124.218473568     
  -408146.430368116     
  -408166.157963579     
  -408183.525070821     
  -408198.629044274     
  -408211.539042149     
  -408222.295811384     
  -408230.929833417     
  -408237.411635847     
  -408241.767694539     
  -408243.937302825     
  -406799.385370664     
  -406825.140556143     
  -406848.316103381     
  -406869.085669265     
  -406887.720740564     
  -406904.322216589     
  -406919.069162161     
  -406932.087559252     
  -406943.474563338     
  -406953.303866667     
  -406961.606504888     
  -406968.341421227     
  -406973.551601783     
  -406977.002371934     
  -406978.811961498     
  -405586.993751885     
  -405604.111048396     
  -405619.336888810     
  -405632.991412239     
  -405644.922647187     
  -405655.557890076     
  -405665.030348853     
  -405673.448573798     
  -405680.929392842     
  -405687.573024240     
  -405693.455502053     
  -405698.557817838     
  -405702.477102252     
  -405705.594890224     
  -405706.940372266     
  -404369.362434233     
  -404378.461476133     
  -404385.865657952     
  -404391.183815383     
  -404396.066571920     
  -404400.401866949     
  -404404.217418088     
  -404407.692727487     
  -404411.005182617     
  -404414.313042760     
  -404417.740128580     
  -404421.467169904     
  -404425.558743903     
  -404427.704496382     
  -404430.103810497     
  -403152.864190673     
  -403150.857641770     
  -403146.829927507     
  -403144.088947452     
  -403141.636689328     
  -403139.042456813     
  -403136.656229894     
  -403134.692894648     
  -403133.388905171     
  -403133.029390366     
  -403133.925033095     
  -403136.258197067     
  -403140.933545815     
  -403148.667172231     
  -403149.554432185     
  -401926.409156754     
  -401921.937926528     
  -401903.583776175     
  -401892.511134453     
  -401881.369196469     
  -401871.366430736     
  -401862.330462272     
  -401854.308643899     
  -401847.556182516     
  -401842.534516322     
  -401839.941348473     
  -401840.818819893     
  -401845.288233748     
  -401863.657449265     
  -401880.763238620     
  -400833.249203840     
  -400660.454610421     
  -400653.592699966     
  -400632.203155521     
  -400614.341228542     
  -400597.704871084     
  -400581.915830125     
  -400567.096060558     
  -400553.616308042     
  -400541.992202140     
  -400532.952425429     
  -400527.649475536     
  -400529.129906294     
  -400520.805661664     
  -400695.348404290     
SCALARS 2waySource double 
LOOKUP_TABLE default
 -2.801642520383362E-005
 -2.813686625345735E-005
 -2.806780374164163E-005
 -2.802358076869560E-005
 -2.798585678650180E-005
 -2.795273443538434E-005
 -2.792351793790067E-005
 -2.789784551286921E-005
 -2.787548555162404E-005
 -2.785626969584773E-005
 -2.784005508882135E-005
 -2.782668697386256E-005
 -2.781590939399381E-005
 -2.780460174372631E-005
 -2.781878551939207E-005
 -2.809534228869547E-005
 -2.807470704163287E-005
 -2.806028419394269E-005
 -2.802391478526073E-005
 -2.798967426281005E-005
 -2.795843603520006E-005
 -2.793035421912241E-005
 -2.790542296754097E-005
 -2.788361186596987E-005
 -2.786488963032280E-005
 -2.784923632578856E-005
 -2.783665886778276E-005
 -2.782717378828005E-005
 -2.782381544993068E-005
 -2.782292460346626E-005
 -2.813795873374182E-005
 -2.809624933287451E-005
 -2.806225272487957E-005
 -2.803168739328684E-005
 -2.799995823416964E-005
 -2.797012764695217E-005
 -2.794294249976846E-005
 -2.791864873629599E-005
 -2.789732965358402E-005
 -2.787901885304892E-005
 -2.786374495496006E-005
 -2.785157504906855E-005
 -2.784287825349697E-005
 -2.783710386294362E-005
 -2.783463490083686E-005
 -2.816248023091968E-005
 -2.812064910164525E-005
 -2.808274677796555E-005
 -2.804844240988082E-005
 -2.801714091850272E-005
 -2.798802116169584E-005
 -2.796145183627675E-005
 -2.793765002669655E-005
 -2.791672636937512E-005
 -2.789873843254492E-005
 -2.788372812817374E-005
 -2.787175216895844E-005
 -2.786273802853863E-005
 -2.785673877109864E-005
 -2.785344498017011E-005
 -2.818919227683745E-005
 -2.814700857175506E-005
 -2.810848874673835E-005
 -2.807334626861144E-005
 -2.804132030165078E-005
 -2.801225096997781E-005
 -2.798596469104050E-005
 -2.796248768588764E-005
 -2.794186459610662E-005
 -2.792412939895467E-005
 -2.790930361397296E-005
 -2.789738143715573E-005
 -2.788836297150970E-005
 -2.788218250392174E-005
 -2.787884712890267E-005
 -2.821949923149272E-005
 -2.817756790483878E-005
 -2.813902040713458E-005
 -2.810375367822753E-005
 -2.807163739123882E-005
 -2.804254580860857E-005
 -2.801640077200107E-005
 -2.799314156262892E-005
 -2.797275001709407E-005
 -2.795522204957892E-005
 -2.794055291370228E-005
 -2.792873617059337E-005
 -2.791975257779770E-005
 -2.791359152894785E-005
 -2.791022302180164E-005
 -2.825421696900388E-005
 -2.821269424292499E-005
 -2.817443872114686E-005
 -2.813937493496489E-005
 -2.810742210008509E-005
 -2.807850228300987E-005
 -2.805254519409136E-005
 -2.802949937094211E-005
 -2.800932583485161E-005
 -2.799199862142565E-005
 -2.797749907796430E-005
 -2.796581033901846E-005
 -2.795691836463356E-005
 -2.795080694422411E-005
 -2.794746625827110E-005
 -2.829355288473769E-005
 -2.825256602575793E-005
 -2.821476553177108E-005
 -2.818008999991201E-005
 -2.814847602478477E-005
 -2.811986177951819E-005
 -2.809419104853256E-005
 -2.807141448681461E-005
 -2.805149183680078E-005
 -2.803439048701490E-005
 -2.802008438105632E-005
 -2.800855271522653E-005
 -2.799977799015983E-005
 -2.799374678823360E-005
 -2.799044820898336E-005
 -2.833754835514920E-005
 -2.829720366091961E-005
 -2.825998106139774E-005
 -2.822582301480799E-005
 -2.819467295297756E-005
 -2.816647662322142E-005
 -2.814118344948524E-005
 -2.811874798330924E-005
 -2.809913036987251E-005
 -2.808229670493385E-005
 -2.806821866368353E-005
 -2.805687293843609E-005
 -2.804824093082622E-005
 -2.804230812146297E-005
 -2.803906433129758E-005
 -2.838616158972686E-005
 -2.834656199552285E-005
 -2.831002383207046E-005
 -2.827649067715831E-005
 -2.824590840116538E-005
 -2.821822574925081E-005
 -2.819339504727046E-005
 -2.817137278764517E-005
 -2.815212014434416E-005
 -2.813560317465104E-005
 -2.812179287483689E-005
 -2.811066508716874E-005
 -2.810220029219277E-005
 -2.809638352480689E-005
 -2.809320418642526E-005
 -2.843930888288638E-005
 -2.840055680884439E-005
 -2.836480413898410E-005
 -2.833199432288481E-005
 -2.830207383439141E-005
 -2.827499245605249E-005
 -2.825070361951170E-005
 -2.822916475966696E-005
 -2.821033759519390E-005
 -2.819418834100304E-005
 -2.818068781390722E-005
 -2.816981145912084E-005
 -2.816153933694222E-005
 -2.815585606113619E-005
 -2.815275077229673E-005
 -2.849687961817756E-005
 -2.845907827636301E-005
 -2.842421049148705E-005
 -2.839221902951613E-005
 -2.836305008973826E-005
 -2.833665347402126E-005
 -2.831298278992523E-005
 -2.829199565760095E-005
 -2.827365390279115E-005
 -2.825792370996928E-005
 -2.824477573328917E-005
 -2.823418516389331E-005
 -2.822613175869172E-005
 -2.822059985082269E-005
 -2.821757833966001E-005
 -2.855874265694531E-005
 -2.852199654615876E-005
 -2.848811313188819E-005
 -2.845703414451802E-005
 -2.842870501140809E-005
 -2.840307498145009E-005
 -2.838009726393672E-005
 -2.835972917206202E-005
 -2.834193225823374E-005
 -2.832667243336380E-005
 -2.831392006290101E-005
 -2.830365003812977E-005
 -2.829584182519324E-005
 -2.829047949395362E-005
 -2.828755173476780E-005
 -2.862474879202014E-005
 -2.858916412584556E-005
 -2.855636561585195E-005
 -2.852629367678690E-005
 -2.849889262044045E-005
 -2.847411076130284E-005
 -2.845190052698827E-005
 -2.843221856877225E-005
 -2.841502586734542E-005
 -2.840028782862949E-005
 -2.838797436631399E-005
 -2.837805996914498E-005
 -2.837052375266360E-005
 -2.836534949701477E-005
 -2.836252567226188E-005
 -2.869473158850561E-005
 -2.866041674257218E-005
 -2.862880539220580E-005
 -2.859983638119679E-005
 -2.857345262754427E-005
 -2.854960122008973E-005
 -2.852823351461893E-005
 -2.850930522761195E-005
 -2.849277652511705E-005
 -2.847861210435027E-005
 -2.846678126594685E-005
 -2.845725797549791E-005
 -2.845002091386781E-005
 -2.844505351638923E-005
 -2.844234400175614E-005
 -2.876850752027153E-005
 -2.873557350681882E-005
 -2.870525385438302E-005
 -2.867748559260941E-005
 -2.865220999887616E-005
 -2.862937268958101E-005
 -2.860892370836429E-005
 -2.859081761035056E-005
 -2.857501354126449E-005
 -2.856147531008827E-005
 -2.855017145410454E-005
 -2.854107529543922E-005
 -2.853416498857063E-005
 -2.852942355865899E-005
 -2.852683893082293E-005
 -2.884587579524465E-005
 -2.881443674392002E-005
 -2.878551611746695E-005
 -2.875904889704167E-005
 -2.873497449031999E-005
 -2.871323681905029E-005
 -2.869378440230460E-005
 -2.867657043496825E-005
 -2.866155286079048E-005
 -2.864869443928829E-005
 -2.863796280580379E-005
 -2.862933052413444E-005
 -2.862277513130871E-005
 -2.861827917430459E-005
 -2.861583023860066E-005
 -2.892661802889549E-005
 -2.889679165797415E-005
 -2.886938064618297E-005
 -2.884431769966870E-005
 -2.882154013913293E-005
 -2.880098998455180E-005
 -2.878261403505564E-005
 -2.876636394363798E-005
 -2.875219628626957E-005
 -2.874007262496232E-005
 -2.872995956436726E-005
 -2.872182880147332E-005
 -2.871565716811717E-005
 -2.871142666607697E-005
 -2.870912449460359E-005
 -2.901049782906855E-005
 -2.898240589893744E-005
 -2.895661879331218E-005
 -2.893306672369240E-005
 -2.891168471511924E-005
 -2.889241268880587E-005
 -2.887519553965660E-005
 -2.885998320843910E-005
 -2.884673074823409E-005
 -2.883539838492548E-005
 -2.882595157136935E-005
 -2.881836103497788E-005
 -2.881260281847087E-005
 -2.880865831359812E-005
 -2.880651428770630E-005
 -2.909726031494168E-005
 -2.907102906171575E-005
 -2.904698427463354E-005
 -2.902505345643572E-005
 -2.900516913414384E-005
 -2.898726894026001E-005
 -2.897129568872342E-005
 -2.895719744536221E-005
 -2.894492759262159E-005
 -2.893444488830805E-005
 -2.892571351810335E-005
 -2.891870314166709E-005
 -2.891338893209906E-005
 -2.890975160861546E-005
 -2.890777746231923E-005
 -2.918663157670152E-005
 -2.916239212768934E-005
 -2.914021259051291E-005
 -2.912001754904067E-005
 -2.910173683432994E-005
 -2.908530560503245E-005
 -2.907066442243612E-005
 -2.905775931990316E-005
 -2.904654186651535E-005
 -2.903696922471256E-005
 -2.902900420177324E-005
 -2.902261529489938E-005
 -2.901777672980461E-005
 -2.901446849266790E-005
 -2.901267635529618E-005
 -2.927831807683475E-005
 -2.925620685132857E-005
 -2.923602039704546E-005
 -2.921768017118864E-005
 -2.920111311359333E-005
 -2.918625172692567E-005
 -2.917303415136309E-005
 -2.916140423358789E-005
 -2.915131158988291E-005
 -2.914271166319758E-005
 -2.913556577400566E-005
 -2.912984116482035E-005
 -2.912551103825175E-005
 -2.912255458845685E-005
 -2.912095702596110E-005
 -2.937200599225857E-005
 -2.935216509194275E-005
 -2.933410482666673E-005
 -2.931774331992603E-005
 -2.930300442622119E-005
 -2.928981781154857E-005
 -2.927811902824699E-005
 -2.926784958398555E-005
 -2.925895700477157E-005
 -2.925139489184609E-005
 -2.924512297230959E-005
 -2.924010714337945E-005
 -2.923631951018315E-005
 -2.923373841700001E-005
 -2.923234847182148E-005
 -2.946736049657896E-005
 -2.944993808978456E-005
 -2.943414275726478E-005
 -2.941988908108466E-005
 -2.940709763605508E-005
 -2.939569507100789E-005
 -2.938561418417567E-005
 -2.937679399260164E-005
 -2.936917979542035E-005
 -2.936272323089954E-005
 -2.935738232715377E-005
 -2.935312154641384E-005
 -2.934991182278582E-005
 -2.934773059343109E-005
 -2.934656182308571E-005
 -2.956402498229277E-005
 -2.954917568598036E-005
 -2.953579002877287E-005
 -2.952377884166355E-005
 -2.951305922406137E-005
 -2.950355462618261E-005
 -2.949519492535748E-005
 -2.948791649615988E-005
 -2.948166227424914E-005
 -2.947638181384551E-005
 -2.947203133874758E-005
 -2.946857378684589E-005
 -2.946597884801953E-005
 -2.946422299541376E-005
 -2.946328951001813E-005
 -2.966162022330070E-005
 -2.964950548608382E-005
 -2.963868060653075E-005
 -2.962905245198456E-005
 -2.962053444839870E-005
 -2.961304666414342E-005
 -2.960651588748150E-005
 -2.960087569768036E-005
 -2.959606652964324E-005
 -2.959203573202390E-005
 -2.958873761873941E-005
 -2.958613351386516E-005
 -2.958419178983298E-005
 -2.958288789889962E-005
 -2.958220439788246E-005
 -2.975974347851703E-005
 -2.975053196746701E-005
 -2.974242569102337E-005
 -2.973532733660330E-005
 -2.972914645559081E-005
 -2.972379954877190E-005
 -2.971921014519346E-005
 -2.971530887442222E-005
 -2.971203353212431E-005
 -2.970932913896930E-005
 -2.970714799277563E-005
 -2.970544971389130E-005
 -2.970420128377657E-005
 -2.970337707676179E-005
 -2.970295888497435E-005
 -2.985796753776318E-005
 -2.985183553111678E-005
 -2.984661277407989E-005
 -2.984219755357869E-005
 -2.983849534173205E-005
 -2.983541888303801E-005
 -2.983288827473482E-005
 -2.983083104031592E-005
 -2.982918219618882E-005
 -2.982788431142037E-005
 -2.982688756058877E-005
 -2.982614976972461E-005
 -2.982563645532868E-005
 -2.982532085644322E-005
 -2.982518395981793E-005
 -2.995583971135814E-005
 -2.995297149871978E-005
 -2.995080464181561E-005
 -2.994923280189642E-005
 -2.994815716318386E-005
 -2.994748652190830E-005
 -2.994713736821342E-005
 -2.994703396098495E-005
 -2.994710839557122E-005
 -2.994730066444536E-005
 -2.994755871075407E-005
 -2.994783847483667E-005
 -2.994810393367478E-005
 -2.994832713329835E-005
 -2.994848821416681E-005
 -3.005288076505277E-005
 -3.005346905616414E-005
 -3.005453832503244E-005
 -3.005597737721249E-005
 -3.005768289637749E-005
 -3.005955953513054E-005
 -3.006151999846296E-005
 -3.006348511985572E-005
 -3.006538393003764E-005
 -3.006715371848892E-005
 -3.006874008768941E-005
 -3.007009700012672E-005
 -3.007118681815744E-005
 -3.007198033671006E-005
 -3.007245680883102E-005
 -3.014858380216401E-005
 -3.015283014491973E-005
 -3.015732399799308E-005
 -3.016194907650636E-005
 -3.016659734691244E-005
 -3.017116911957660E-005
 -3.017557313363026E-005
 -3.017972663423065E-005
 -3.018355544227671E-005
 -3.018699401663066E-005
 -3.018998550891504E-005
 -3.019248181096845E-005
 -3.019444359498719E-005
 -3.019584034642371E-005
 -3.019665038969628E-005
 -3.024241309518781E-005
 -3.025052830301995E-005
 -3.025864382697010E-005
 -3.026663805243421E-005
 -3.027439800832202E-005
 -3.028181946116135E-005
 -3.028880700117144E-005
 -3.029527412051925E-005
 -3.030114328372945E-005
 -3.030634599046563E-005
 -3.031082283070899E-005
 -3.031452353244692E-005
 -3.031740700196943E-005
 -3.031944135682827E-005
 -3.032060395156021E-005
 -3.033380286940389E-005
 -3.034600745792101E-005
 -3.035795077024483E-005
 -3.036950561876916E-005
 -3.038055387134893E-005
 -3.039098654665134E-005
 -3.040070390118044E-005
 -3.040961550817307E-005
 -3.041764032847699E-005
 -3.042470677355731E-005
 -3.043075276079245E-005
 -3.043572576115522E-005
 -3.043958283943403E-005
 -3.044229068705828E-005
 -3.044382564769156E-005
 -3.042215604173828E-005
 -3.043868067384352E-005
 -3.045466733187393E-005
 -3.046998300863298E-005
 -3.048450418503583E-005
 -3.049811692625959E-005
 -3.051071696931790E-005
 -3.052220980218353E-005
 -3.053251073469236E-005
 -3.054154496142244E-005
 -3.054924761670044E-005
 -3.055556382194767E-005
 -3.056044872550778E-005
 -3.056386753510655E-005
 -3.056579554304576E-005
 -3.050684291875138E-005
 -3.052792885718294E-005
 -3.054818427209536E-005
 -3.056747008791284E-005
 -3.058565717141831E-005
 -3.060262642819916E-005
 -3.061826889016691E-005
 -3.063248579437075E-005
 -3.064518865337192E-005
 -3.065629931744888E-005
 -3.066575002885022E-005
 -3.067348346832690E-005
 -3.067945279420049E-005
 -3.068362167404406E-005
 -3.068596430929341E-005
 -3.058719985856881E-005
 -3.061309942413508E-005
 -3.063785927810815E-005
 -3.066133402692953E-005
 -3.068338869626940E-005
 -3.070389882703500E-005
 -3.072275056209854E-005
 -3.073984072405796E-005
 -3.075507688438596E-005
 -3.076837742424973E-005
 -3.077967158738521E-005
 -3.078889952525470E-005
 -3.079601233474905E-005
 -3.080097208878817E-005
 -3.080375185984652E-005
 -3.066252790283427E-005
 -3.069350493598673E-005
 -3.072301559983041E-005
 -3.075090793429397E-005
 -3.077704089908252E-005
 -3.080128446830391E-005
 -3.082351971545689E-005
 -3.084363888920257E-005
 -3.086154548032745E-005
 -3.087715428036788E-005
 -3.089039143222731E-005
 -3.090119447322413E-005
 -3.090951237085151E-005
 -3.091530555159632E-005
 -3.091854592305888E-005
 -3.073209138618852E-005
 -3.076842170878589E-005
 -3.080294065659276E-005
 -3.083548945795901E-005
 -3.086592078638729E-005
 -3.089409885256143E-005
 -3.091989948637017E-005
 -3.094321020945360E-005
 -3.096393029886672E-005
 -3.098197084234686E-005
 -3.099725478569909E-005
 -3.100971697275300E-005
 -3.101930417837464E-005
 -3.102597513481628E-005
 -3.102970055181389E-005
 -3.079511653255247E-005
 -3.083708840571607E-005
 -3.087688462197576E-005
 -3.091433935962446E-005
 -3.094929879352512E-005
 -3.098162118298765E-005
 -3.101117694924635E-005
 -3.103784874331521E-005
 -3.106153150484254E-005
 -3.108213251264698E-005
 -3.109957142757607E-005
 -3.111378032825122E-005
 -3.112470374022457E-005
 -3.113229865905361E-005
 -3.113653456764487E-005
 -3.085079004973645E-005
 -3.089870462243466E-005
 -3.094405899583583E-005
 -3.098668007025624E-005
 -3.102640732129250E-005
 -3.106309288158727E-005
 -3.109660161184391E-005
 -3.112681116206205E-005
 -3.115361202375240E-005
 -3.117690757403688E-005
 -3.119661411236446E-005
 -3.121266089058263E-005
 -3.122499013702207E-005
 -3.123355707517408E-005
 -3.123832993743600E-005
 -3.089825773648325E-005
 -3.095242947796386E-005
 -3.100363517455449E-005
 -3.105169423615156E-005
 -3.109643925531143E-005
 -3.113771608040761E-005
 -3.117538387777752E-005
 -3.120931518392080E-005
 -3.123939594885952E-005
 -3.126552557162805E-005
 -3.128761692888545E-005
 -3.130559639755183E-005
 -3.131940387225536E-005
 -3.132899277827508E-005
 -3.133433008065720E-005
 -3.093662311908130E-005
 -3.099738022651100E-005
 -3.105474303285717E-005
 -3.110852326695285E-005
 -3.115854647765368E-005
 -3.120465209539424E-005
 -3.124669348236411E-005
 -3.128453797281517E-005
 -3.131806690469459E-005
 -3.134717564393178E-005
 -3.137177360255880E-005
 -3.139178425170528E-005
 -3.140714513049262E-005
 -3.141780785169978E-005
 -3.142373810490143E-005
 -3.096494613837863E-005
 -3.103263090860287E-005
 -3.109646953342001E-005
 -3.115626589948022E-005
 -3.121183838227781E-005
 -3.126301989219426E-005
 -3.130965790906491E-005
 -3.135161450690718E-005
 -3.138876637043453E-005
 -3.142100480493230E-005
 -3.144823574091305E-005
 -3.147037973486022E-005
 -3.148737196728932E-005
 -3.149916223914520E-005
 -3.150571496743132E-005
 -3.098224191222391E-005
 -3.105721106385298E-005
 -3.112785738353463E-005
 -3.119397679389377E-005
 -3.125538040796393E-005
 -3.131189455507263E-005
 -3.136336079511556E-005
 -3.140963592332678E-005
 -3.145059196750472E-005
 -3.148611617955933E-005
 -3.151611102315507E-005
 -3.154049415901691E-005
 -3.155919842935692E-005
 -3.157217184270292E-005
 -3.157937756014291E-005
 -3.098747960324125E-005
 -3.107010453170936E-005
 -3.114790376185710E-005
 -3.122066518168047E-005
 -3.128819260514164E-005
 -3.135030577208635E-005
 -3.140684033663782E-005
 -3.145764784663663E-005
 -3.150259571649730E-005
 -3.154156719570513E-005
 -3.157446133519054E-005
 -3.160119295335740E-005
 -3.162169260358076E-005
 -3.163590654463381E-005
 -3.164379671534307E-005
 -3.097958142735974E-005
 -3.107024837153911E-005
 -3.115555914242994E-005
 -3.123529358876733E-005
 -3.130924825578697E-005
 -3.137723635211206E-005
 -3.143908770544440E-005
 -3.149464871017196E-005
 -3.154378226973032E-005
 -3.158636773648106E-005
 -3.162230085160745E-005
 -3.165149368735251E-005
 -3.167387459360832E-005
 -3.168938815065260E-005
 -3.169799512958805E-005
 -3.095742184509260E-005
 -3.105653193876815E-005
 -3.114972624764341E-005
 -3.123677666053680E-005
 -3.131747256886592E-005
 -3.139162079193760E-005
 -3.145904549171661E-005
 -3.151958808078261E-005
 -3.157310712690066E-005
 -3.161947825752508E-005
 -3.165859406717050E-005
 -3.169036403042454E-005
 -3.171471442297033E-005
 -3.173158825274829E-005
 -3.174094520302185E-005
 -3.091982698440518E-005
 -3.102779616011518E-005
 -3.112925916743809E-005
 -3.122398012044805E-005
 -3.131174147751290E-005
 -3.139234391461178E-005
 -3.146560618932589E-005
 -3.153136499978745E-005
 -3.158947484283534E-005
 -3.163980787513621E-005
 -3.168225378088051E-005
 -3.171671964918281E-005
 -3.174312986409472E-005
 -3.176142600961538E-005
 -3.177156679177820E-005
 -3.086557435234448E-005
 -3.098283305765038E-005
 -3.109296268739733E-005
 -3.119571989841753E-005
 -3.129088056815174E-005
 -3.137823960369989E-005
 -3.145761074320313E-005
 -3.152882635480778E-005
 -3.159173723809070E-005
 -3.164621243250712E-005
 -3.169213903694680E-005
 -3.172942204416706E-005
 -3.175798419337880E-005
 -3.177776584381940E-005
 -3.178872487169521E-005
 -3.079339290113788E-005
 -3.092038557904102E-005
 -3.103959187524666E-005
 -3.115076147081859E-005
 -3.125366417629625E-005
 -3.134808966168126E-005
 -3.143384718133848E-005
 -3.151076529996100E-005
 -3.157869162532490E-005
 -3.163749255310834E-005
 -3.168705302857034E-005
 -3.172727632941375E-005
 -3.175808387361678E-005
 -3.177941505549304E-005
 -3.179122711266011E-005
 -3.070196352434779E-005
 -3.083914779957667E-005
 -3.096785198181409E-005
 -3.108781945970710E-005
 -3.119881468882594E-005
 -3.130062282523535E-005
 -3.139304935760331E-005
 -3.147591974501433E-005
 -3.154907906713467E-005
 -3.161239169277639E-005
 -3.166574097249844E-005
 -3.170902896004525E-005
 -3.174217616703587E-005
 -3.176512135454211E-005
 -3.177782136467207E-005
 -3.058992006890579E-005
 -3.073776557034265E-005
 -3.087639872041307E-005
 -3.100555754529596E-005
 -3.112500209786357E-005
 -3.123451397455227E-005
 -3.133389583567451E-005
 -3.142297093756783E-005
 -3.150158268414649E-005
 -3.156959420483599E-005
 -3.162688796521618E-005
 -3.167336541593110E-005
 -3.170894668468236E-005
 -3.173357031557969E-005
 -3.174719305913582E-005
 -3.045585095986629E-005
 -3.061483769626977E-005
 -3.076383899623951E-005
 -3.090258875258148E-005
 -3.103084385754505E-005
 -3.114838357940315E-005
 -3.125500894914648E-005
 -3.135054216688301E-005
 -3.143482603653302E-005
 -3.150772343679939E-005
 -3.156911683543908E-005
 -3.161890785303572E-005
 -3.165701688180513E-005
 -3.168338276388818E-005
 -3.169796253302654E-005
 -3.029830154637530E-005
 -3.046891773765308E-005
 -3.062873216602057E-005
 -3.077747618032580E-005
 -3.091490510120750E-005
 -3.104079743028598E-005
 -3.115495407834952E-005
 -3.125719762320188E-005
 -3.134737160705403E-005
 -3.142533988218948E-005
 -3.149098601277058E-005
 -3.154421273964173E-005
 -3.158494151415540E-005
 -3.161311210591537E-005
 -3.162868228865640E-005
 -3.011577728868146E-005
 -3.029851653842060E-005
 -3.046959191651727E-005
 -3.062873424818443E-005
 -3.077569928376998E-005
 -3.091026670986491E-005
 -3.103223919079847E-005
 -3.114144145259531E-005
 -3.123771942014863E-005
 -3.132093941738735E-005
 -3.139098743897416E-005
 -3.144776850098903E-005
 -3.149120607700018E-005
 -3.152124162496936E-005
 -3.153783420928004E-005
 -2.990674791792970E-005
 -3.010210559464980E-005
 -3.028488885949060E-005
 -3.045483054581760E-005
 -3.061168932139970E-005
 -3.075524846694281E-005
 -3.088531469967872E-005
 -3.100171705523013E-005
 -3.110430583964643E-005
 -3.119295166205053E-005
 -3.126754455715570E-005
 -3.132799320551023E-005
 -3.137422425834903E-005
 -3.140618177258437E-005
 -3.142382676056094E-005
 -2.966965271105390E-005
 -2.987812138590766E-005
 -3.007305394891936E-005
 -3.025418837574972E-005
 -3.042128930854972E-005
 -3.057414656369752E-005
 -3.071257370317026E-005
 -3.083640668381900E-005
 -3.094550259731497E-005
 -3.103973851181945E-005
 -3.111901042506953E-005
 -3.118323233715320E-005
 -3.123233544988157E-005
 -3.126626749856078E-005
 -3.128499222077472E-005
 -2.940290703310651E-005
 -2.962497080094417E-005
 -2.983248283457477E-005
 -3.002519008989040E-005
 -3.020286690101605E-005
 -3.036531317571914E-005
 -3.051235267759802E-005
 -3.064383141023262E-005
 -3.075961611659848E-005
 -3.085959290525386E-005
 -3.094366601316293E-005
 -3.101175671338921E-005
 -3.106380237472012E-005
 -3.109975567876698E-005
 -3.111958399901105E-005
 -2.910491030705183E-005
 -2.934103779620944E-005
 -2.956154127328905E-005
 -2.976618132740952E-005
 -2.995474646223644E-005
 -3.012705093465066E-005
 -3.028293270879833E-005
 -3.042225154118376E-005
 -3.054488721042096E-005
 -3.065073790299602E-005
 -3.073971876489562E-005
 -3.081176062701848E-005
 -3.086680891089935E-005
 -3.090482272014983E-005
 -3.092577412154502E-005
 -2.877405557610710E-005
 -2.902469143092591E-005
 -2.925857172498351E-005
 -2.947547626888656E-005
 -2.967521307920817E-005
 -2.985761581410352E-005
 -3.002254135917573E-005
 -3.016986757930050E-005
 -3.029949124961671E-005
 -3.041132617669764E-005
 -3.050530151887219E-005
 -3.058136031297483E-005
 -3.063945821334417E-005
 -3.067956244749020E-005
 -3.070165099186121E-005
 -2.840874082498281E-005
 -2.867429542451212E-005
 -2.892190126461050E-005
 -2.915136402794876E-005
 -2.936251756337443E-005
 -2.955522087159300E-005
 -2.972935528315105E-005
 -2.988482184375183E-005
 -3.002153891903460E-005
 -3.013944002865742E-005
 -3.023847191732824E-005
 -3.031859286870284E-005
 -3.037977126657431E-005
 -3.042198440665179E-005
 -3.044521756108847E-005
 -2.800738222198649E-005
 -2.828821938047915E-005
 -2.854985094241632E-005
 -2.879211630640371E-005
 -2.901488256037715E-005
 -2.921804097174427E-005
 -2.940150372006359E-005
 -2.956520088543710E-005
 -2.970907770291491E-005
 -2.983309209052740E-005
 -2.993721245655859E-005
 -3.002141578973659E-005
 -3.008568603485469E-005
 -3.013001275517883E-005
 -3.015439008225571E-005
 -2.756842943339892E-005
 -2.786485181387623E-005
 -2.814074672257947E-005
 -2.839599644174856E-005
 -2.863050990081643E-005
 -2.884421862946855E-005
 -2.903707301215488E-005
 -2.920903885445948E-005
 -2.936009426842997E-005
 -2.949022688119578E-005
 -2.959943136939376E-005
 -2.968770731996952E-005
 -2.975505741695757E-005
 -2.980148595311984E-005
 -2.982699766472664E-005
 -2.709038314156884E-005
 -2.740261510567288E-005
 -2.769293212301910E-005
 -2.796126997507184E-005
 -2.820758933008697E-005
 -2.843187112449793E-005
 -2.863411231446421E-005
 -2.881432200327802E-005
 -2.897251794714961E-005
 -2.910872343926250E-005
 -2.922296456990086E-005
 -2.931526785922745E-005
 -2.938565825839787E-005
 -2.943415751436985E-005
 -2.946078289382809E-005
 -2.657181486767376E-005
 -2.689998248515432E-005
 -2.720478266556683E-005
 -2.748621686305430E-005
 -2.774430875943686E-005
 -2.797909905087704E-005
 -2.819064068323894E-005
 -2.837899453554648E-005
 -2.854422554749619E-005
 -2.868639928477921E-005
 -2.880557893402317E-005
 -2.890182271841451E-005
 -2.897518172460242E-005
 -2.902569813178873E-005
 -2.905340383467697E-005
 -2.601138915592196E-005
 -2.635549710858042E-005
 -2.667472222410769E-005
 -2.696914544647772E-005
 -2.723886618000125E-005
 -2.748399647453487E-005
 -2.770465574815980E-005
 -2.790096603778003E-005
 -2.807304776536533E-005
 -2.822101600512417E-005
 -2.834497723596212E-005
 -2.844502656302235E-005
 -2.852124539260331E-005
 -2.857369954568158E-005
 -2.860243779700771E-005
 -2.540788811455689E-005
 -2.576779325529944E-005
 -2.610124132533349E-005
 -2.640840826878311E-005
 -2.668948337473574E-005
 -2.694466287692012E-005
 -2.717414418917034E-005
 -2.737812075585127E-005
 -2.755677749385562E-005
 -2.771028680127290E-005
 -2.783880510716877E-005
 -2.794246993761893E-005
 -2.802139747416387E-005
 -2.807568058319021E-005
 -2.810538729717907E-005
 -2.476023822738722E-005
 -2.513561959902150E-005
 -2.548291741033414E-005
 -2.580241980726979E-005
 -2.609442154756148E-005
 -2.635921706033245E-005
 -2.659709424851222E-005
 -2.680832899885614E-005
 -2.699318036241364E-005
 -2.715188636763483E-005
 -2.728466042873278E-005
 -2.739168831347709E-005
 -2.747312563721115E-005
 -2.752909585296371E-005
 -2.755968871179100E-005
 -2.406753924187804E-005
 -2.445786442632432E-005
 -2.481843699995449E-005
 -2.514967613321342E-005
 -2.545199895912884E-005
 -2.572581317608844E-005
 -2.597151050724702E-005
 -2.618946096365892E-005
 -2.638000785712524E-005
 -2.654346350931889E-005
 -2.668010560560460E-005
 -2.679017414471511E-005
 -2.687386893960259E-005
 -2.693134762955616E-005
 -2.696272416926682E-005
 -2.332909480094880E-005
 -2.373358256156405E-005
 -2.410661961782025E-005
 -2.444877644922789E-005
 -2.476061060998978E-005
 -2.504265900478628E-005
 -2.529543113911272E-005
 -2.551940326974601E-005
 -2.571501338131470E-005
 -2.588265691715446E-005
 -2.602268319581377E-005
 -2.613539244939743E-005
 -2.622103342550808E-005
 -2.627980150142683E-005
 -2.631183726658981E-005
 -2.254444430714472E-005
 -2.296202360896366E-005
 -2.334644320309301E-005
 -2.369844635450348E-005
 -2.401874993548571E-005
 -2.430803656042899E-005
 -2.456694781320562E-005
 -2.479607846727713E-005
 -2.499597160142917E-005
 -2.516711451762290E-005
 -2.530993537291719E-005
 -2.542480044410999E-005
 -2.551201195142732E-005
 -2.557180637663795E-005
 -2.560435322063176E-005
 -2.171339527983402E-005
 -2.214266092863474E-005
 -2.253707058105182E-005
 -2.289756255083644E-005
 -2.322503236241044E-005
 -2.352032499667528E-005
 -2.378422834211621E-005
 -2.401746772267765E-005
 -2.422070137853813E-005
 -2.439451678183193E-005
 -2.453942767713569E-005
 -2.465587174534051E-005
 -2.474420879975837E-005
 -2.480471943472622E-005
 -2.483760405926188E-005
 -2.083605517331069E-005
 -2.127522050746837E-005
 -2.167787633692295E-005
 -2.204517850928455E-005
 -2.237822041086373E-005
 -2.267802565060850E-005
 -2.294554205077648E-005
 -2.318163678357989E-005
 -2.338709250008018E-005
 -2.356260430616899E-005
 -2.370877745040848E-005
 -2.382612559981702E-005
 -2.391506959284229E-005
 -2.397593657255788E-005
 -2.400895941883622E-005
 -1.991286124604456E-005
 -2.035970854846306E-005
 -2.076847313669331E-005
 -2.114055034891762E-005
 -2.147724978727445E-005
 -2.177978885092469E-005
 -2.204928765879152E-005
 -2.228676516601977E-005
 -2.249313628797714E-005
 -2.266920985633170E-005
 -2.281568724401223E-005
 -2.293316151029972E-005
 -2.302211693238269E-005
 -2.308292880808602E-005
 -2.311586343206556E-005
 -1.894460657562810E-005
 -1.939643615017620E-005
 -1.980873612916848E-005
 -2.018316180976757E-005
 -2.052125558412642E-005
 -2.082444182364650E-005
 -2.109402320996877E-005
 -2.133117827927152E-005
 -2.153695995922088E-005
 -2.171229488871226E-005
 -2.185798332737304E-005
 -2.197469947590564E-005
 -2.206299205048335E-005
 -2.212328497192502E-005
 -2.215587805749851E-005
 -1.793245965318768E-005
 -1.838603883704217E-005
 -1.879882350452173E-005
 -1.917274669749901E-005
 -1.950959725197391E-005
 -1.981101663222778E-005
 -2.007849723588290E-005
 -2.031338190039736E-005
 -2.051686434780142E-005
 -2.068999032567631E-005
 -2.083365921002518E-005
 -2.094862586482179E-005
 -2.103550256463960E-005
 -2.109476082688386E-005
 -2.112673301119428E-005
 -1.687797408489093E-005
 -1.732948786408015E-005
 -1.773919052348430E-005
 -1.810930649921899E-005
 -1.844188041702680E-005
 -1.873877657718810E-005
 -1.900167990374763E-005
 -1.923209803575013E-005
 -1.943136427310355E-005
 -1.960064107035352E-005
 -1.974092382348369E-005
 -1.985304468057477E-005
 -1.993767618130414E-005
 -1.999533450420095E-005
 -2.002638220926037E-005
 -1.578308366637247E-005
 -1.622808905518266E-005
 -1.663059330146140E-005
 -1.699311998365205E-005
 -1.731797287037016E-005
 -1.760723887260937E-005
 -1.786279239856586E-005
 -1.808630079975185E-005
 -1.827923048694585E-005
 -1.844285343764118E-005
 -1.857825370298051E-005
 -1.868633369228155E-005
 -1.876781987695521E-005
 -1.882326783621758E-005
 -1.885306630190703E-005
 -1.465007623849615E-005
 -1.508346333430604E-005
 -1.547407725934397E-005
 -1.582474048200456E-005
 -1.613801121424477E-005
 -1.641619076668994E-005
 -1.666133233485340E-005
 -1.687525057830145E-005
 -1.705953184899653E-005
 -1.721554437419290E-005
 -1.734444823542004E-005
 -1.744720452325908E-005
 -1.752458375059239E-005
 -1.757717272961150E-005
 -1.760538048074271E-005
 -1.348153722032527E-005
 -1.389750078217868E-005
 -1.427094340861096E-005
 -1.460497534390999E-005
 -1.490239378213487E-005
 -1.516569588986946E-005
 -1.539709274477935E-005
 -1.559852468190827E-005
 -1.577167624502053E-005
 -1.591799125134138E-005
 -1.603868663631964E-005
 -1.613476556102839E-005
 -1.620702807265558E-005
 -1.625608133203256E-005
 -1.628234609653222E-005
 -1.228024895236443E-005
 -1.267227739633993E-005
 -1.302268359688391E-005
 -1.333484073344118E-005
 -1.361175547864965E-005
 -1.385608763860290E-005
 -1.407017288421207E-005
 -1.425604315702906E-005
 -1.441544925047046E-005
 -1.454988076667989E-005
 -1.466058552972234E-005
 -1.474858526180424E-005
 -1.481469212380425E-005
 -1.485951721705266E-005
 -1.488348423590434E-005
 -1.104902995805501E-005
 -1.140991804052545E-005
 -1.173087385848137E-005
 -1.201548613019654E-005
 -1.226692015154068E-005
 -1.248794958429447E-005
 -1.268098094495080E-005
 -1.284809051228780E-005
 -1.299105028807075E-005
 -1.311135667696971E-005
 -1.321025336300153E-005
 -1.328875536402231E-005
 -1.334765838066348E-005
 -1.338756683499216E-005
 -1.340888629481748E-005
 -9.790470646195984E-006
 -1.011239280242641E-005
 -1.039701597681678E-005
 -1.064808023175939E-005
 -1.086883801124226E-005
 -1.106208572143131E-005
 -1.123023619703530E-005
 -1.137533834849952E-005
 -1.149912864250658E-005
 -1.160306247933282E-005
 -1.168834356658067E-005
 -1.175593769061006E-005
 -1.180661932861375E-005
 -1.184093271212776E-005
 -1.185928483801407E-005
 -8.506602496926284E-006
 -8.781194604557879E-006
 -9.022314293629861E-006
 -9.233691073166109E-006
 -9.418506111031597E-006
 -9.579512990671927E-006
 -9.718988849651611E-006
 -9.838880577942549E-006
 -9.940823552294888E-006
 -1.002618055676914E-005
 -1.009607389052934E-005
 -1.015142340016023E-005
 -1.019287525474379E-005
 -1.022102043090660E-005
 -1.023608112087722E-005
 -7.198068313757762E-006
 -7.417014445944270E-006
 -7.607457078997552E-006
 -7.773095479827354E-006
 -7.917006606180423E-006
 -8.041509068845820E-006
 -8.148703311391133E-006
 -8.240313753187433E-006
 -8.317805973234453E-006
 -8.382438291644289E-006
 -8.435243022890308E-006
 -8.477009096914032E-006
 -8.508496861808252E-006
 -8.529767840447992E-006
 -8.541522873524595E-006
 -5.864589708053610E-006
 -6.018892635429877E-006
 -6.152217817951640E-006
 -6.267122897403682E-006
 -6.365561450101166E-006
 -6.449853396680243E-006
 -6.521526033594583E-006
 -6.581915105803664E-006
 -6.632324678795686E-006
 -6.673990210479505E-006
 -6.708014516674001E-006
 -6.735160507229099E-006
 -6.755524866120281E-006
 -6.770508780413290E-006
 -6.778126350368597E-006
 -4.497708499048364E-006
 -4.585428732179085E-006
 -4.656793421509811E-006
 -4.716211167148068E-006
 -4.766296080838431E-006
 -4.807622832061230E-006
 -4.840792286991135E-006
 -4.866907167112551E-006
 -4.887262423294792E-006
 -4.903239239254117E-006
 -4.916231749334424E-006
 -4.927662849206869E-006
 -4.938178487729599E-006
 -4.944036568590787E-006
 -4.952230582764448E-006
 -3.110889216354754E-006
 -3.110616593384212E-006
 -3.120139802314574E-006
 -3.123619944542146E-006
 -3.124370589539433E-006
 -3.120166498723198E-006
 -3.111552830677532E-006
 -3.099682160995459E-006
 -3.086131091216588E-006
 -3.072675969716901E-006
 -3.061182966630246E-006
 -3.053630957930268E-006
 -3.053714384096401E-006
 -3.064934275803918E-006
 -3.059012510832067E-006
 -1.602589838341192E-006
 -1.629000618169753E-006
 -1.545847191586615E-006
 -1.498162033671577E-006
 -1.448421265349989E-006
 -1.395848124487575E-006
 -1.341014178497383E-006
 -1.285894760108373E-006
 -1.232903345554995E-006
 -1.184527677653475E-006
 -1.143231949335634E-006
 -1.111575974167561E-006
 -1.091629213074771E-006
 -1.100751897859273E-006
 -1.172833368481707E-006
 -7.112165677467955E-007
  2.887074029582970E-008
  5.911261254831201E-008
  1.469828153812093E-007
  2.459149522586478E-007
  3.524383439774691E-007
  4.613368020997904E-007
  5.679238716901677E-007
  6.682516748532181E-007
  7.591292025659187E-007
  8.379990680808426E-007
  9.028115451195138E-007
  9.516386531316741E-007
  1.002667417296195E-006
  9.370134254385661E-007
SCALARS poroP double 
LOOKUP_TABLE default
  0.000000000000000E+000
  0.000000000000000E+000
  0.000000000000000E+000
  0.000000000000000E+000
  0.000000000000000E+000
  0.000000000000000E+000
  0.000000000000000E+000
  0.000000000000000E+000
  0.000000000000000E+000
  0.000000000000000E+000
  0.000000000000000E+000
  0.000000000000000E+000
  0.000000000000000E+000
  0.000000000000000E+000
  0.000000000000000E+000
  0.000000000000000E+000
  0.000000000000000E+000
  0.000000000000000E+000
  0.000000000000000E+000
  0.000000000000000E+000
  0.000000000000000E+000
  0.000000000000000E+000
  0.000000000000000E+000
  0.000000000000000E+000
  0.000000000000000E+000
  0.000000000000000E+000
  0.000000000000000E+000
  0.000000000000000E+000
  0.000000000000000E+000
  0.000000000000000E+000
  0.000000000000000E+000
  0.000000000000000E+000
  0.000000000000000E+000
  0.000000000000000E+000
  0.000000000000000E+000
  0.000000000000000E+000
  0.000000000000000E+000
  0.000000000000000E+000
  0.000000000000000E+000
  0.000000000000000E+000
  0.000000000000000E+000
  0.000000000000000E+000
  0.000000000000000E+000
  0.000000000000000E+000
  0.000000000000000E+000
  0.000000000000000E+000
  0.000000000000000E+000
  0.000000000000000E+000
  0.000000000000000E+000
  0.000000000000000E+000
  0.000000000000000E+000
  0.000000000000000E+000
  0.000000000000000E+000
  0.000000000000000E+000
  0.000000000000000E+000
  0.000000000000000E+000
  0.000000000000000E+000
  0.000000000000000E+000
  0.000000000000000E+000
  0.000000000000000E+000
  0.000000000000000E+000
  0.000000000000000E+000
  0.000000000000000E+000
  0.000000000000000E+000
  0.000000000000000E+000
  0.000000000000000E+000
  0.000000000000000E+000
  0.000000000000000E+000
  0.000000000000000E+000
  0.000000000000000E+000
  0.000000000000000E+000
  0.000000000000000E+000
  0.000000000000000E+000
  0.000000000000000E+000
  0.000000000000000E+000
  0.000000000000000E+000
  0.000000000000000E+000
  0.000000000000000E+000
  0.000000000000000E+000
  0.000000000000000E+000
  0.000000000000000E+000
  0.000000000000000E+000
  0.000000000000000E+000
  0.000000000000000E+000
  0.000000000000000E+000
  0.000000000000000E+000
  0.000000000000000E+000
  0.000000000000000E+000
  0.000000000000000E+000
  0.000000000000000E+000
  0.000000000000000E+000
  0.000000000000000E+000
  0.000000000000000E+000
  0.000000000000000E+000
  0.000000000000000E+000
  0.000000000000000E+000
  0.000000000000000E+000
  0.000000000000000E+000
  0.000000000000000E+000
  0.000000000000000E+000
  0.000000000000000E+000
  0.000000000000000E+000
  0.000000000000000E+000
  0.000000000000000E+000
  0.000000000000000E+000
  0.000000000000000E+000
  0.000000000000000E+000
  0.000000000000000E+000
  0.000000000000000E+000
  0.000000000000000E+000
  0.000000000000000E+000
  0.000000000000000E+000
  0.000000000000000E+000
  0.000000000000000E+000
  0.000000000000000E+000
  0.000000000000000E+000
  0.000000000000000E+000
  0.000000000000000E+000
  0.000000000000000E+000
  0.000000000000000E+000
  0.000000000000000E+000
  0.000000000000000E+000
  0.000000000000000E+000
  0.000000000000000E+000
  0.000000000000000E+000
  0.000000000000000E+000
  0.000000000000000E+000
  0.000000000000000E+000
  0.000000000000000E+000
  0.000000000000000E+000
  0.000000000000000E+000
  0.000000000000000E+000
  0.000000000000000E+000
  0.000000000000000E+000
  0.000000000000000E+000
  0.000000000000000E+000
  0.000000000000000E+000
  0.000000000000000E+000
  0.000000000000000E+000
  0.000000000000000E+000
  0.000000000000000E+000
  0.000000000000000E+000
  0.000000000000000E+000
  0.000000000000000E+000
  0.000000000000000E+000
  0.000000000000000E+000
  0.000000000000000E+000
  0.000000000000000E+000
  0.000000000000000E+000
  0.000000000000000E+000
  0.000000000000000E+000
  0.000000000000000E+000
  0.000000000000000E+000
  0.000000000000000E+000
  0.000000000000000E+000
  0.000000000000000E+000
  0.000000000000000E+000
  0.000000000000000E+000
  0.000000000000000E+000
  0.000000000000000E+000
  0.000000000000000E+000
  0.000000000000000E+000
  0.000000000000000E+000
  0.000000000000000E+000
  0.000000000000000E+000
  0.000000000000000E+000
  0.000000000000000E+000
  0.000000000000000E+000
  0.000000000000000E+000
  0.000000000000000E+000
  0.000000000000000E+000
  0.000000000000000E+000
  0.000000000000000E+000
  0.000000000000000E+000
  0.000000000000000E+000
  0.000000000000000E+000
  0.000000000000000E+000
  0.000000000000000E+000
  0.000000000000000E+000
  0.000000000000000E+000
  0.000000000000000E+000
  0.000000000000000E+000
  0.000000000000000E+000
  0.000000000000000E+000
  0.000000000000000E+000
  0.000000000000000E+000
  0.000000000000000E+000
  0.000000000000000E+000
  0.000000000000000E+000
  0.000000000000000E+000
  0.000000000000000E+000
  0.000000000000000E+000
  0.000000000000000E+000
  0.000000000000000E+000
  0.000000000000000E+000
  0.000000000000000E+000
  0.000000000000000E+000
  0.000000000000000E+000
  0.000000000000000E+000
  0.000000000000000E+000
  0.000000000000000E+000
  0.000000000000000E+000
  0.000000000000000E+000
  0.000000000000000E+000
  0.000000000000000E+000
  0.000000000000000E+000
  0.000000000000000E+000
  0.000000000000000E+000
  0.000000000000000E+000
  0.000000000000000E+000
  0.000000000000000E+000
  0.000000000000000E+000
  0.000000000000000E+000
  0.000000000000000E+000
  0.000000000000000E+000
  0.000000000000000E+000
  0.000000000000000E+000
  0.000000000000000E+000
  0.000000000000000E+000
  0.000000000000000E+000
  0.000000000000000E+000
  0.000000000000000E+000
  0.000000000000000E+000
  0.000000000000000E+000
  0.000000000000000E+000
  0.000000000000000E+000
  0.000000000000000E+000
  0.000000000000000E+000
  0.000000000000000E+000
  0.000000000000000E+000
  0.000000000000000E+000
  0.000000000000000E+000
  0.000000000000000E+000
  0.000000000000000E+000
  0.000000000000000E+000
  0.000000000000000E+000
  0.000000000000000E+000
  0.000000000000000E+000
  0.000000000000000E+000
  0.000000000000000E+000
  0.000000000000000E+000
  0.000000000000000E+000
  0.000000000000000E+000
  0.000000000000000E+000
  0.000000000000000E+000
  0.000000000000000E+000
  0.000000000000000E+000
  0.000000000000000E+000
  0.000000000000000E+000
  0.000000000000000E+000
  0.000000000000000E+000
  0.000000000000000E+000
  0.000000000000000E+000
  0.000000000000000E+000
  0.000000000000000E+000
  0.000000000000000E+000
  0.000000000000000E+000
  0.000000000000000E+000
  0.000000000000000E+000
  0.000000000000000E+000
  0.000000000000000E+000
  0.000000000000000E+000
  0.000000000000000E+000
  0.000000000000000E+000
  0.000000000000000E+000
  0.000000000000000E+000
  0.000000000000000E+000
  0.000000000000000E+000
  0.000000000000000E+000
  0.000000000000000E+000
  0.000000000000000E+000
  0.000000000000000E+000
  0.000000000000000E+000
  0.000000000000000E+000
  0.000000000000000E+000
  0.000000000000000E+000
  0.000000000000000E+000
  0.000000000000000E+000
  0.000000000000000E+000
  0.000000000000000E+000
  0.000000000000000E+000
  0.000000000000000E+000
  0.000000000000000E+000
  0.000000000000000E+000
  0.000000000000000E+000
  0.000000000000000E+000
  0.000000000000000E+000
  0.000000000000000E+000
  0.000000000000000E+000
  0.000000000000000E+000
  0.000000000000000E+000
  0.000000000000000E+000
  0.000000000000000E+000
  0.000000000000000E+000
  0.000000000000000E+000
  0.000000000000000E+000
  0.000000000000000E+000
  0.000000000000000E+000
  0.000000000000000E+000
  0.000000000000000E+000
  0.000000000000000E+000
  0.000000000000000E+000
  0.000000000000000E+000
  0.000000000000000E+000
  0.000000000000000E+000
  0.000000000000000E+000
  0.000000000000000E+000
  0.000000000000000E+000
  0.000000000000000E+000
  0.000000000000000E+000
  0.000000000000000E+000
  0.000000000000000E+000
  0.000000000000000E+000
  0.000000000000000E+000
  0.000000000000000E+000
  0.000000000000000E+000
  0.000000000000000E+000
  0.000000000000000E+000
  0.000000000000000E+000
  0.000000000000000E+000
  0.000000000000000E+000
  0.000000000000000E+000
  0.000000000000000E+000
  0.000000000000000E+000
  0.000000000000000E+000
  0.000000000000000E+000
  0.000000000000000E+000
  0.000000000000000E+000
  0.000000000000000E+000
  0.000000000000000E+000
  0.000000000000000E+000
  0.000000000000000E+000
  0.000000000000000E+000
  0.000000000000000E+000
  0.000000000000000E+000
  0.000000000000000E+000
  0.000000000000000E+000
  0.000000000000000E+000
  0.000000000000000E+000
  0.000000000000000E+000
  0.000000000000000E+000
  0.000000000000000E+000
  0.000000000000000E+000
  0.000000000000000E+000
  0.000000000000000E+000
  0.000000000000000E+000
  0.000000000000000E+000
  0.000000000000000E+000
  0.000000000000000E+000
  0.000000000000000E+000
  0.000000000000000E+000
  0.000000000000000E+000
  0.000000000000000E+000
  0.000000000000000E+000
  0.000000000000000E+000
  0.000000000000000E+000
  0.000000000000000E+000
  0.000000000000000E+000
  0.000000000000000E+000
  0.000000000000000E+000
  0.000000000000000E+000
  0.000000000000000E+000
  0.000000000000000E+000
  0.000000000000000E+000
  0.000000000000000E+000
  0.000000000000000E+000
  0.000000000000000E+000
  0.000000000000000E+000
  0.000000000000000E+000
  0.000000000000000E+000
  0.000000000000000E+000
  0.000000000000000E+000
  0.000000000000000E+000
  0.000000000000000E+000
  0.000000000000000E+000
  0.000000000000000E+000
  0.000000000000000E+000
  0.000000000000000E+000
  0.000000000000000E+000
  0.000000000000000E+000
  0.000000000000000E+000
  0.000000000000000E+000
  0.000000000000000E+000
  0.000000000000000E+000
  0.000000000000000E+000
  0.000000000000000E+000
  0.000000000000000E+000
  0.000000000000000E+000
  0.000000000000000E+000
  0.000000000000000E+000
  0.000000000000000E+000
  0.000000000000000E+000
  0.000000000000000E+000
  0.000000000000000E+000
  0.000000000000000E+000
  0.000000000000000E+000
  0.000000000000000E+000
  0.000000000000000E+000
  0.000000000000000E+000
  0.000000000000000E+000
  0.000000000000000E+000
  0.000000000000000E+000
  0.000000000000000E+000
  0.000000000000000E+000
  0.000000000000000E+000
  0.000000000000000E+000
  0.000000000000000E+000
  0.000000000000000E+000
  0.000000000000000E+000
  0.000000000000000E+000
  0.000000000000000E+000
  0.000000000000000E+000
  0.000000000000000E+000
  0.000000000000000E+000
  0.000000000000000E+000
  0.000000000000000E+000
  0.000000000000000E+000
  0.000000000000000E+000
  0.000000000000000E+000
  0.000000000000000E+000
  0.000000000000000E+000
  0.000000000000000E+000
  0.000000000000000E+000
  0.000000000000000E+000
  0.000000000000000E+000
  0.000000000000000E+000
  0.000000000000000E+000
  0.000000000000000E+000
  0.000000000000000E+000
  0.000000000000000E+000
  0.000000000000000E+000
  0.000000000000000E+000
  0.000000000000000E+000
  0.000000000000000E+000
  0.000000000000000E+000
  0.000000000000000E+000
  0.000000000000000E+000
  0.000000000000000E+000
  0.000000000000000E+000
  0.000000000000000E+000
  0.000000000000000E+000
  0.000000000000000E+000
  0.000000000000000E+000
  0.000000000000000E+000
  0.000000000000000E+000
  0.000000000000000E+000
  0.000000000000000E+000
  0.000000000000000E+000
  0.000000000000000E+000
  0.000000000000000E+000
  0.000000000000000E+000
  0.000000000000000E+000
  0.000000000000000E+000
  0.000000000000000E+000
  0.000000000000000E+000
  0.000000000000000E+000
  0.000000000000000E+000
  0.000000000000000E+000
  0.000000000000000E+000
  0.000000000000000E+000
  0.000000000000000E+000
  0.000000000000000E+000
  0.000000000000000E+000
  0.000000000000000E+000
  0.000000000000000E+000
  0.000000000000000E+000
  0.000000000000000E+000
  0.000000000000000E+000
  0.000000000000000E+000
  0.000000000000000E+000
  0.000000000000000E+000
  0.000000000000000E+000
  0.000000000000000E+000
  0.000000000000000E+000
  0.000000000000000E+000
  0.000000000000000E+000
  0.000000000000000E+000
  0.000000000000000E+000
  0.000000000000000E+000
  0.000000000000000E+000
  0.000000000000000E+000
  0.000000000000000E+000
  0.000000000000000E+000
  0.000000000000000E+000
  0.000000000000000E+000
  0.000000000000000E+000
  0.000000000000000E+000
  0.000000000000000E+000
  0.000000000000000E+000
  0.000000000000000E+000
  0.000000000000000E+000
  0.000000000000000E+000
  0.000000000000000E+000
  0.000000000000000E+000
  0.000000000000000E+000
  0.000000000000000E+000
  0.000000000000000E+000
  0.000000000000000E+000
  0.000000000000000E+000
  0.000000000000000E+000
  0.000000000000000E+000
  0.000000000000000E+000
  0.000000000000000E+000
  0.000000000000000E+000
  0.000000000000000E+000
  0.000000000000000E+000
  0.000000000000000E+000
  0.000000000000000E+000
  0.000000000000000E+000
  0.000000000000000E+000
  0.000000000000000E+000
  0.000000000000000E+000
  0.000000000000000E+000
  0.000000000000000E+000
  0.000000000000000E+000
  0.000000000000000E+000
  0.000000000000000E+000
  0.000000000000000E+000
  0.000000000000000E+000
  0.000000000000000E+000
  0.000000000000000E+000
  0.000000000000000E+000
  0.000000000000000E+000
  0.000000000000000E+000
  0.000000000000000E+000
  0.000000000000000E+000
  0.000000000000000E+000
  0.000000000000000E+000
  0.000000000000000E+000
  0.000000000000000E+000
  0.000000000000000E+000
  0.000000000000000E+000
  0.000000000000000E+000
  0.000000000000000E+000
  0.000000000000000E+000
  0.000000000000000E+000
  0.000000000000000E+000
  0.000000000000000E+000
  0.000000000000000E+000
  0.000000000000000E+000
  0.000000000000000E+000
  0.000000000000000E+000
  0.000000000000000E+000
  0.000000000000000E+000
  0.000000000000000E+000
  0.000000000000000E+000
  0.000000000000000E+000
  0.000000000000000E+000
  0.000000000000000E+000
  0.000000000000000E+000
  0.000000000000000E+000
  0.000000000000000E+000
  0.000000000000000E+000
  0.000000000000000E+000
  0.000000000000000E+000
  0.000000000000000E+000
  0.000000000000000E+000
  0.000000000000000E+000
  0.000000000000000E+000
  0.000000000000000E+000
  0.000000000000000E+000
  0.000000000000000E+000
  0.000000000000000E+000
  0.000000000000000E+000
  0.000000000000000E+000
  0.000000000000000E+000
  0.000000000000000E+000
  0.000000000000000E+000
  0.000000000000000E+000
  0.000000000000000E+000
  0.000000000000000E+000
  0.000000000000000E+000
  0.000000000000000E+000
  0.000000000000000E+000
  0.000000000000000E+000
  0.000000000000000E+000
  0.000000000000000E+000
  0.000000000000000E+000
  0.000000000000000E+000
  0.000000000000000E+000
  0.000000000000000E+000
  0.000000000000000E+000
  0.000000000000000E+000
  0.000000000000000E+000
  0.000000000000000E+000
  0.000000000000000E+000
  0.000000000000000E+000
  0.000000000000000E+000
  0.000000000000000E+000
  0.000000000000000E+000
  0.000000000000000E+000
  0.000000000000000E+000
  0.000000000000000E+000
  0.000000000000000E+000
  0.000000000000000E+000
  0.000000000000000E+000
  0.000000000000000E+000
  0.000000000000000E+000
  0.000000000000000E+000
  0.000000000000000E+000
  0.000000000000000E+000
  0.000000000000000E+000
  0.000000000000000E+000
  0.000000000000000E+000
  0.000000000000000E+000
  0.000000000000000E+000
  0.000000000000000E+000
  0.000000000000000E+000
  0.000000000000000E+000
  0.000000000000000E+000
  0.000000000000000E+000
  0.000000000000000E+000
  0.000000000000000E+000
  0.000000000000000E+000
  0.000000000000000E+000
  0.000000000000000E+000
  0.000000000000000E+000
  0.000000000000000E+000
  0.000000000000000E+000
  0.000000000000000E+000
  0.000000000000000E+000
  0.000000000000000E+000
  0.000000000000000E+000
  0.000000000000000E+000
  0.000000000000000E+000
  0.000000000000000E+000
  0.000000000000000E+000
  0.000000000000000E+000
  0.000000000000000E+000
  0.000000000000000E+000
  0.000000000000000E+000
  0.000000000000000E+000
  0.000000000000000E+000
  0.000000000000000E+000
  0.000000000000000E+000
  0.000000000000000E+000
  0.000000000000000E+000
  0.000000000000000E+000
  0.000000000000000E+000
  0.000000000000000E+000
  0.000000000000000E+000
  0.000000000000000E+000
  0.000000000000000E+000
  0.000000000000000E+000
  0.000000000000000E+000
  0.000000000000000E+000
  0.000000000000000E+000
  0.000000000000000E+000
  0.000000000000000E+000
  0.000000000000000E+000
  0.000000000000000E+000
  0.000000000000000E+000
  0.000000000000000E+000
  0.000000000000000E+000
  0.000000000000000E+000
  0.000000000000000E+000
  0.000000000000000E+000
  0.000000000000000E+000
  0.000000000000000E+000
  0.000000000000000E+000
  0.000000000000000E+000
  0.000000000000000E+000
  0.000000000000000E+000
  0.000000000000000E+000
  0.000000000000000E+000
  0.000000000000000E+000
  0.000000000000000E+000
  0.000000000000000E+000
  0.000000000000000E+000
  0.000000000000000E+000
  0.000000000000000E+000
  0.000000000000000E+000
  0.000000000000000E+000
  0.000000000000000E+000
  0.000000000000000E+000
  0.000000000000000E+000
  0.000000000000000E+000
  0.000000000000000E+000
  0.000000000000000E+000
  0.000000000000000E+000
  0.000000000000000E+000
  0.000000000000000E+000
  0.000000000000000E+000
  0.000000000000000E+000
  0.000000000000000E+000
  0.000000000000000E+000
  0.000000000000000E+000
  0.000000000000000E+000
  0.000000000000000E+000
  0.000000000000000E+000
  0.000000000000000E+000
  0.000000000000000E+000
  0.000000000000000E+000
  0.000000000000000E+000
  0.000000000000000E+000
  0.000000000000000E+000
  0.000000000000000E+000
  0.000000000000000E+000
  0.000000000000000E+000
  0.000000000000000E+000
  0.000000000000000E+000
  0.000000000000000E+000
  0.000000000000000E+000
  0.000000000000000E+000
  0.000000000000000E+000
  0.000000000000000E+000
  0.000000000000000E+000
  0.000000000000000E+000
  0.000000000000000E+000
  0.000000000000000E+000
  0.000000000000000E+000
  0.000000000000000E+000
  0.000000000000000E+000
  0.000000000000000E+000
  0.000000000000000E+000
  0.000000000000000E+000
  0.000000000000000E+000
  0.000000000000000E+000
  0.000000000000000E+000
  0.000000000000000E+000
  0.000000000000000E+000
  0.000000000000000E+000
  0.000000000000000E+000
  0.000000000000000E+000
  0.000000000000000E+000
  0.000000000000000E+000
  0.000000000000000E+000
  0.000000000000000E+000
  0.000000000000000E+000
  0.000000000000000E+000
  0.000000000000000E+000
  0.000000000000000E+000
  0.000000000000000E+000
  0.000000000000000E+000
  0.000000000000000E+000
  0.000000000000000E+000
  0.000000000000000E+000
  0.000000000000000E+000
  0.000000000000000E+000
  0.000000000000000E+000
  0.000000000000000E+000
  0.000000000000000E+000
  0.000000000000000E+000
  0.000000000000000E+000
  0.000000000000000E+000
  0.000000000000000E+000
  0.000000000000000E+000
  0.000000000000000E+000
  0.000000000000000E+000
  0.000000000000000E+000
  0.000000000000000E+000
  0.000000000000000E+000
  0.000000000000000E+000
  0.000000000000000E+000
  0.000000000000000E+000
  0.000000000000000E+000
  0.000000000000000E+000
  0.000000000000000E+000
  0.000000000000000E+000
  0.000000000000000E+000
  0.000000000000000E+000
  0.000000000000000E+000
  0.000000000000000E+000
  0.000000000000000E+000
  0.000000000000000E+000
  0.000000000000000E+000
  0.000000000000000E+000
  0.000000000000000E+000
  0.000000000000000E+000
  0.000000000000000E+000
  0.000000000000000E+000
  0.000000000000000E+000
  0.000000000000000E+000
  0.000000000000000E+000
  0.000000000000000E+000
  0.000000000000000E+000
  0.000000000000000E+000
  0.000000000000000E+000
  0.000000000000000E+000
  0.000000000000000E+000
  0.000000000000000E+000
  0.000000000000000E+000
  0.000000000000000E+000
  0.000000000000000E+000
  0.000000000000000E+000
  0.000000000000000E+000
  0.000000000000000E+000
  0.000000000000000E+000
  0.000000000000000E+000
  0.000000000000000E+000
  0.000000000000000E+000
  0.000000000000000E+000
  0.000000000000000E+000
  0.000000000000000E+000
  0.000000000000000E+000
  0.000000000000000E+000
  0.000000000000000E+000
  0.000000000000000E+000
  0.000000000000000E+000
  0.000000000000000E+000
  0.000000000000000E+000
  0.000000000000000E+000
  0.000000000000000E+000
  0.000000000000000E+000
  0.000000000000000E+000
  0.000000000000000E+000
  0.000000000000000E+000
  0.000000000000000E+000
  0.000000000000000E+000
  0.000000000000000E+000
  0.000000000000000E+000
  0.000000000000000E+000
  0.000000000000000E+000
  0.000000000000000E+000
  0.000000000000000E+000
  0.000000000000000E+000
  0.000000000000000E+000
  0.000000000000000E+000
  0.000000000000000E+000
  0.000000000000000E+000
  0.000000000000000E+000
  0.000000000000000E+000
  0.000000000000000E+000
  0.000000000000000E+000
  0.000000000000000E+000
  0.000000000000000E+000
  0.000000000000000E+000
  0.000000000000000E+000
  0.000000000000000E+000
  0.000000000000000E+000
  0.000000000000000E+000
  0.000000000000000E+000
  0.000000000000000E+000
  0.000000000000000E+000
  0.000000000000000E+000
  0.000000000000000E+000
  0.000000000000000E+000
  0.000000000000000E+000
  0.000000000000000E+000
  0.000000000000000E+000
  0.000000000000000E+000
  0.000000000000000E+000
  0.000000000000000E+000
  0.000000000000000E+000
  0.000000000000000E+000
  0.000000000000000E+000
  0.000000000000000E+000
  0.000000000000000E+000
  0.000000000000000E+000
  0.000000000000000E+000
  0.000000000000000E+000
  0.000000000000000E+000
  0.000000000000000E+000
  0.000000000000000E+000
  0.000000000000000E+000
  0.000000000000000E+000
  0.000000000000000E+000
  0.000000000000000E+000
  0.000000000000000E+000
  0.000000000000000E+000
  0.000000000000000E+000
  0.000000000000000E+000
  0.000000000000000E+000
  0.000000000000000E+000
  0.000000000000000E+000
  0.000000000000000E+000
  0.000000000000000E+000
  0.000000000000000E+000
  0.000000000000000E+000
  0.000000000000000E+000
  0.000000000000000E+000
  0.000000000000000E+000
  0.000000000000000E+000
  0.000000000000000E+000
  0.000000000000000E+000
  0.000000000000000E+000
  0.000000000000000E+000
  0.000000000000000E+000
  0.000000000000000E+000
  0.000000000000000E+000
  0.000000000000000E+000
  0.000000000000000E+000
  0.000000000000000E+000
  0.000000000000000E+000
  0.000000000000000E+000
  0.000000000000000E+000
  0.000000000000000E+000
  0.000000000000000E+000
  0.000000000000000E+000
  0.000000000000000E+000
  0.000000000000000E+000
  0.000000000000000E+000
  0.000000000000000E+000
  0.000000000000000E+000
  0.000000000000000E+000
  0.000000000000000E+000
  0.000000000000000E+000
  0.000000000000000E+000
  0.000000000000000E+000
  0.000000000000000E+000
  0.000000000000000E+000
  0.000000000000000E+000
  0.000000000000000E+000
  0.000000000000000E+000
  0.000000000000000E+000
  0.000000000000000E+000
  0.000000000000000E+000
  0.000000000000000E+000
  0.000000000000000E+000
  0.000000000000000E+000
  0.000000000000000E+000
  0.000000000000000E+000
  0.000000000000000E+000
  0.000000000000000E+000
  0.000000000000000E+000
  0.000000000000000E+000
  0.000000000000000E+000
  0.000000000000000E+000
  0.000000000000000E+000
  0.000000000000000E+000
  0.000000000000000E+000
  0.000000000000000E+000
  0.000000000000000E+000
  0.000000000000000E+000
  0.000000000000000E+000
  0.000000000000000E+000
  0.000000000000000E+000
  0.000000000000000E+000
  0.000000000000000E+000
  0.000000000000000E+000
  0.000000000000000E+000
  0.000000000000000E+000
  0.000000000000000E+000
  0.000000000000000E+000
  0.000000000000000E+000
  0.000000000000000E+000
  0.000000000000000E+000
  0.000000000000000E+000
  0.000000000000000E+000
  0.000000000000000E+000
  0.000000000000000E+000
  0.000000000000000E+000
  0.000000000000000E+000
  0.000000000000000E+000
  0.000000000000000E+000
  0.000000000000000E+000
  0.000000000000000E+000
  0.000000000000000E+000
  0.000000000000000E+000
  0.000000000000000E+000
  0.000000000000000E+000
  0.000000000000000E+000
  0.000000000000000E+000
  0.000000000000000E+000
  0.000000000000000E+000
  0.000000000000000E+000
  0.000000000000000E+000
  0.000000000000000E+000
  0.000000000000000E+000
  0.000000000000000E+000
  0.000000000000000E+000
  0.000000000000000E+000
  0.000000000000000E+000
  0.000000000000000E+000
  0.000000000000000E+000
  0.000000000000000E+000
  0.000000000000000E+000
  0.000000000000000E+000
  0.000000000000000E+000
  0.000000000000000E+000
  0.000000000000000E+000
  0.000000000000000E+000
  0.000000000000000E+000
  0.000000000000000E+000
  0.000000000000000E+000
  0.000000000000000E+000
  0.000000000000000E+000
  0.000000000000000E+000
  0.000000000000000E+000
  0.000000000000000E+000
  0.000000000000000E+000
  0.000000000000000E+000
  0.000000000000000E+000
  0.000000000000000E+000
  0.000000000000000E+000
  0.000000000000000E+000
  0.000000000000000E+000
  0.000000000000000E+000
  0.000000000000000E+000
  0.000000000000000E+000
  0.000000000000000E+000
  0.000000000000000E+000
  0.000000000000000E+000
  0.000000000000000E+000
  0.000000000000000E+000
  0.000000000000000E+000
  0.000000000000000E+000
  0.000000000000000E+000
  0.000000000000000E+000
  0.000000000000000E+000
  0.000000000000000E+000
  0.000000000000000E+000
  0.000000000000000E+000
  0.000000000000000E+000
  0.000000000000000E+000
  0.000000000000000E+000
  0.000000000000000E+000
  0.000000000000000E+000
  0.000000000000000E+000
  0.000000000000000E+000
  0.000000000000000E+000
  0.000000000000000E+000
  0.000000000000000E+000
  0.000000000000000E+000
  0.000000000000000E+000
  0.000000000000000E+000
  0.000000000000000E+000
  0.000000000000000E+000
  0.000000000000000E+000
  0.000000000000000E+000
  0.000000000000000E+000
  0.000000000000000E+000
  0.000000000000000E+000
  0.000000000000000E+000
  0.000000000000000E+000
  0.000000000000000E+000
  0.000000000000000E+000
  0.000000000000000E+000
  0.000000000000000E+000
  0.000000000000000E+000
  0.000000000000000E+000
  0.000000000000000E+000
  0.000000000000000E+000
  0.000000000000000E+000
  0.000000000000000E+000
  0.000000000000000E+000
  0.000000000000000E+000
  0.000000000000000E+000
  0.000000000000000E+000
  0.000000000000000E+000
  0.000000000000000E+000
  0.000000000000000E+000
  0.000000000000000E+000
  0.000000000000000E+000
  0.000000000000000E+000
  0.000000000000000E+000
  0.000000000000000E+000
  0.000000000000000E+000
  0.000000000000000E+000
  0.000000000000000E+000
  0.000000000000000E+000
  0.000000000000000E+000
  0.000000000000000E+000
  0.000000000000000E+000
  0.000000000000000E+000
  0.000000000000000E+000
  0.000000000000000E+000
  0.000000000000000E+000
  0.000000000000000E+000
  0.000000000000000E+000
  0.000000000000000E+000
  0.000000000000000E+000
  0.000000000000000E+000
  0.000000000000000E+000
  0.000000000000000E+000
  0.000000000000000E+000
  0.000000000000000E+000
  0.000000000000000E+000
  0.000000000000000E+000
  0.000000000000000E+000
  0.000000000000000E+000
  0.000000000000000E+000
  0.000000000000000E+000
  0.000000000000000E+000
  0.000000000000000E+000
  0.000000000000000E+000
  0.000000000000000E+000
  0.000000000000000E+000
  0.000000000000000E+000
  0.000000000000000E+000
  0.000000000000000E+000
  0.000000000000000E+000
  0.000000000000000E+000
  0.000000000000000E+000
  0.000000000000000E+000
  0.000000000000000E+000
  0.000000000000000E+000
  0.000000000000000E+000
  0.000000000000000E+000
  0.000000000000000E+000
  0.000000000000000E+000
  0.000000000000000E+000
  0.000000000000000E+000
  0.000000000000000E+000
  0.000000000000000E+000
  0.000000000000000E+000
  0.000000000000000E+000
  0.000000000000000E+000
  0.000000000000000E+000
  0.000000000000000E+000
  0.000000000000000E+000
  0.000000000000000E+000
  0.000000000000000E+000
  0.000000000000000E+000
  0.000000000000000E+000
  0.000000000000000E+000
  0.000000000000000E+000
  0.000000000000000E+000
  0.000000000000000E+000
  0.000000000000000E+000
  0.000000000000000E+000
  0.000000000000000E+000
  0.000000000000000E+000
  0.000000000000000E+000
  0.000000000000000E+000
  0.000000000000000E+000
  0.000000000000000E+000
  0.000000000000000E+000
  0.000000000000000E+000
  0.000000000000000E+000
  0.000000000000000E+000
  0.000000000000000E+000
  0.000000000000000E+000
  0.000000000000000E+000
  0.000000000000000E+000
  0.000000000000000E+000
  0.000000000000000E+000
  0.000000000000000E+000
  0.000000000000000E+000
  0.000000000000000E+000
  0.000000000000000E+000
  0.000000000000000E+000
  0.000000000000000E+000
  0.000000000000000E+000
  0.000000000000000E+000
  0.000000000000000E+000
  0.000000000000000E+000
  0.000000000000000E+000
  0.000000000000000E+000
  0.000000000000000E+000
  0.000000000000000E+000
  0.000000000000000E+000
  0.000000000000000E+000
  0.000000000000000E+000
  0.000000000000000E+000
  0.000000000000000E+000
  0.000000000000000E+000
  0.000000000000000E+000
  0.000000000000000E+000
  0.000000000000000E+000
  0.000000000000000E+000
  0.000000000000000E+000
  0.000000000000000E+000
  0.000000000000000E+000
  0.000000000000000E+000
  0.000000000000000E+000
  0.000000000000000E+000
  0.000000000000000E+000
  0.000000000000000E+000
  0.000000000000000E+000
  0.000000000000000E+000
  0.000000000000000E+000
  0.000000000000000E+000
  0.000000000000000E+000
  0.000000000000000E+000
  0.000000000000000E+000
  0.000000000000000E+000
  0.000000000000000E+000
  0.000000000000000E+000
  0.000000000000000E+000
  0.000000000000000E+000
  0.000000000000000E+000
  0.000000000000000E+000
  0.000000000000000E+000
  0.000000000000000E+000
  0.000000000000000E+000
  0.000000000000000E+000
  0.000000000000000E+000
  0.000000000000000E+000
  0.000000000000000E+000
  0.000000000000000E+000
  0.000000000000000E+000
  0.000000000000000E+000
  0.000000000000000E+000
  0.000000000000000E+000
  0.000000000000000E+000
  0.000000000000000E+000
  0.000000000000000E+000
  0.000000000000000E+000
  0.000000000000000E+000
  0.000000000000000E+000
  0.000000000000000E+000
  0.000000000000000E+000
  0.000000000000000E+000
  0.000000000000000E+000
  0.000000000000000E+000
  0.000000000000000E+000
  0.000000000000000E+000
  0.000000000000000E+000
  0.000000000000000E+000
  0.000000000000000E+000
  0.000000000000000E+000
  0.000000000000000E+000
  0.000000000000000E+000
  0.000000000000000E+000
  0.000000000000000E+000
  0.000000000000000E+000
  0.000000000000000E+000
  0.000000000000000E+000
  0.000000000000000E+000
  0.000000000000000E+000
  0.000000000000000E+000
  0.000000000000000E+000
  0.000000000000000E+000
  0.000000000000000E+000
  0.000000000000000E+000
  0.000000000000000E+000
  0.000000000000000E+000
  0.000000000000000E+000
  0.000000000000000E+000
  0.000000000000000E+000
  0.000000000000000E+000
  0.000000000000000E+000
  0.000000000000000E+000
  0.000000000000000E+000
  0.000000000000000E+000
  0.000000000000000E+000
  0.000000000000000E+000
  0.000000000000000E+000
  0.000000000000000E+000
  0.000000000000000E+000
  0.000000000000000E+000
  0.000000000000000E+000
  0.000000000000000E+000
  0.000000000000000E+000
  0.000000000000000E+000
  0.000000000000000E+000
  0.000000000000000E+000
  0.000000000000000E+000
  0.000000000000000E+000
  0.000000000000000E+000
  0.000000000000000E+000
  0.000000000000000E+000
  0.000000000000000E+000
  0.000000000000000E+000
  0.000000000000000E+000
  0.000000000000000E+000
  0.000000000000000E+000
  0.000000000000000E+000
  0.000000000000000E+000
  0.000000000000000E+000
  0.000000000000000E+000
  0.000000000000000E+000
  0.000000000000000E+000
  0.000000000000000E+000
  0.000000000000000E+000
  0.000000000000000E+000
  0.000000000000000E+000
  0.000000000000000E+000
  0.000000000000000E+000
  0.000000000000000E+000
  0.000000000000000E+000
  0.000000000000000E+000
  0.000000000000000E+000
  0.000000000000000E+000
  0.000000000000000E+000
  0.000000000000000E+000
  0.000000000000000E+000
  0.000000000000000E+000
  0.000000000000000E+000
  0.000000000000000E+000
  0.000000000000000E+000
  0.000000000000000E+000
  0.000000000000000E+000
  0.000000000000000E+000
  0.000000000000000E+000
  0.000000000000000E+000
  0.000000000000000E+000
  0.000000000000000E+000
  0.000000000000000E+000
  0.000000000000000E+000
  0.000000000000000E+000
  0.000000000000000E+000
  0.000000000000000E+000
  0.000000000000000E+000
  0.000000000000000E+000
  0.000000000000000E+000
  0.000000000000000E+000
  0.000000000000000E+000
  0.000000000000000E+000
  0.000000000000000E+000
  0.000000000000000E+000
  0.000000000000000E+000
  0.000000000000000E+000
  0.000000000000000E+000
  0.000000000000000E+000
  0.000000000000000E+000
  0.000000000000000E+000
  0.000000000000000E+000
  0.000000000000000E+000
  0.000000000000000E+000
  0.000000000000000E+000
  0.000000000000000E+000
  0.000000000000000E+000
  0.000000000000000E+000
  0.000000000000000E+000
  0.000000000000000E+000
  0.000000000000000E+000
  0.000000000000000E+000
  0.000000000000000E+000
  0.000000000000000E+000
  0.000000000000000E+000
  0.000000000000000E+000
  0.000000000000000E+000
  0.000000000000000E+000
  0.000000000000000E+000
  0.000000000000000E+000
  0.000000000000000E+000
  0.000000000000000E+000
  0.000000000000000E+000
  0.000000000000000E+000
  0.000000000000000E+000
  0.000000000000000E+000
  0.000000000000000E+000
  0.000000000000000E+000
  0.000000000000000E+000
  0.000000000000000E+000
  0.000000000000000E+000
  0.000000000000000E+000
  0.000000000000000E+000
  0.000000000000000E+000
  0.000000000000000E+000
  0.000000000000000E+000
  0.000000000000000E+000
  0.000000000000000E+000
  0.000000000000000E+000
  0.000000000000000E+000
  0.000000000000000E+000
  0.000000000000000E+000
  0.000000000000000E+000
  0.000000000000000E+000
  0.000000000000000E+000
  0.000000000000000E+000
  0.000000000000000E+000
  0.000000000000000E+000
  0.000000000000000E+000
  0.000000000000000E+000
  0.000000000000000E+000
  0.000000000000000E+000
  0.000000000000000E+000
SCALARS elementIsPlast double 
LOOKUP_TABLE default
  0.000000000000000E+000
  0.000000000000000E+000
  0.000000000000000E+000
  0.000000000000000E+000
  0.000000000000000E+000
  0.000000000000000E+000
  0.000000000000000E+000
  0.000000000000000E+000
  0.000000000000000E+000
  0.000000000000000E+000
  0.000000000000000E+000
  0.000000000000000E+000
  0.000000000000000E+000
  0.000000000000000E+000
  0.000000000000000E+000
  0.000000000000000E+000
  0.000000000000000E+000
  0.000000000000000E+000
  0.000000000000000E+000
  0.000000000000000E+000
  0.000000000000000E+000
  0.000000000000000E+000
  0.000000000000000E+000
  0.000000000000000E+000
  0.000000000000000E+000
  0.000000000000000E+000
  0.000000000000000E+000
  0.000000000000000E+000
  0.000000000000000E+000
  0.000000000000000E+000
  0.000000000000000E+000
  0.000000000000000E+000
  0.000000000000000E+000
  0.000000000000000E+000
  0.000000000000000E+000
  0.000000000000000E+000
  0.000000000000000E+000
  0.000000000000000E+000
  0.000000000000000E+000
  0.000000000000000E+000
  0.000000000000000E+000
  0.000000000000000E+000
  0.000000000000000E+000
  0.000000000000000E+000
  0.000000000000000E+000
  0.000000000000000E+000
  0.000000000000000E+000
  0.000000000000000E+000
  0.000000000000000E+000
  0.000000000000000E+000
  0.000000000000000E+000
  0.000000000000000E+000
  0.000000000000000E+000
  0.000000000000000E+000
  0.000000000000000E+000
  0.000000000000000E+000
  0.000000000000000E+000
  0.000000000000000E+000
  0.000000000000000E+000
  0.000000000000000E+000
  0.000000000000000E+000
  0.000000000000000E+000
  0.000000000000000E+000
  0.000000000000000E+000
  0.000000000000000E+000
  0.000000000000000E+000
  0.000000000000000E+000
  0.000000000000000E+000
  0.000000000000000E+000
  0.000000000000000E+000
  0.000000000000000E+000
  0.000000000000000E+000
  0.000000000000000E+000
  0.000000000000000E+000
  0.000000000000000E+000
  0.000000000000000E+000
  0.000000000000000E+000
  0.000000000000000E+000
  0.000000000000000E+000
  0.000000000000000E+000
  0.000000000000000E+000
  0.000000000000000E+000
  0.000000000000000E+000
  0.000000000000000E+000
  0.000000000000000E+000
  0.000000000000000E+000
  0.000000000000000E+000
  0.000000000000000E+000
  0.000000000000000E+000
  0.000000000000000E+000
  0.000000000000000E+000
  0.000000000000000E+000
  0.000000000000000E+000
  0.000000000000000E+000
  0.000000000000000E+000
  0.000000000000000E+000
  0.000000000000000E+000
  0.000000000000000E+000
  0.000000000000000E+000
  0.000000000000000E+000
  0.000000000000000E+000
  0.000000000000000E+000
  0.000000000000000E+000
  0.000000000000000E+000
  0.000000000000000E+000
  0.000000000000000E+000
  0.000000000000000E+000
  0.000000000000000E+000
  0.000000000000000E+000
  0.000000000000000E+000
  0.000000000000000E+000
  0.000000000000000E+000
  0.000000000000000E+000
  0.000000000000000E+000
  0.000000000000000E+000
  0.000000000000000E+000
  0.000000000000000E+000
  0.000000000000000E+000
  0.000000000000000E+000
  0.000000000000000E+000
  0.000000000000000E+000
  0.000000000000000E+000
  0.000000000000000E+000
  0.000000000000000E+000
  0.000000000000000E+000
  0.000000000000000E+000
  0.000000000000000E+000
  0.000000000000000E+000
  0.000000000000000E+000
  0.000000000000000E+000
  0.000000000000000E+000
  0.000000000000000E+000
  0.000000000000000E+000
  0.000000000000000E+000
  0.000000000000000E+000
  0.000000000000000E+000
  0.000000000000000E+000
  0.000000000000000E+000
  0.000000000000000E+000
  0.000000000000000E+000
  0.000000000000000E+000
  0.000000000000000E+000
  0.000000000000000E+000
  0.000000000000000E+000
  0.000000000000000E+000
  0.000000000000000E+000
  0.000000000000000E+000
  0.000000000000000E+000
  0.000000000000000E+000
  0.000000000000000E+000
  0.000000000000000E+000
  0.000000000000000E+000
  0.000000000000000E+000
  0.000000000000000E+000
  0.000000000000000E+000
  0.000000000000000E+000
  0.000000000000000E+000
  0.000000000000000E+000
  0.000000000000000E+000
  0.000000000000000E+000
  0.000000000000000E+000
  0.000000000000000E+000
  0.000000000000000E+000
  0.000000000000000E+000
  0.000000000000000E+000
  0.000000000000000E+000
  0.000000000000000E+000
  0.000000000000000E+000
  0.000000000000000E+000
  0.000000000000000E+000
  0.000000000000000E+000
  0.000000000000000E+000
  0.000000000000000E+000
  0.000000000000000E+000
  0.000000000000000E+000
  0.000000000000000E+000
  0.000000000000000E+000
  0.000000000000000E+000
  0.000000000000000E+000
  0.000000000000000E+000
  0.000000000000000E+000
  0.000000000000000E+000
  0.000000000000000E+000
  0.000000000000000E+000
  0.000000000000000E+000
  0.000000000000000E+000
  0.000000000000000E+000
  0.000000000000000E+000
  0.000000000000000E+000
  0.000000000000000E+000
  0.000000000000000E+000
  0.000000000000000E+000
  0.000000000000000E+000
  0.000000000000000E+000
  0.000000000000000E+000
  0.000000000000000E+000
  0.000000000000000E+000
  0.000000000000000E+000
  0.000000000000000E+000
  0.000000000000000E+000
  0.000000000000000E+000
  0.000000000000000E+000
  0.000000000000000E+000
  0.000000000000000E+000
  0.000000000000000E+000
  0.000000000000000E+000
  0.000000000000000E+000
  0.000000000000000E+000
  0.000000000000000E+000
  0.000000000000000E+000
  0.000000000000000E+000
  0.000000000000000E+000
  0.000000000000000E+000
  0.000000000000000E+000
  0.000000000000000E+000
  0.000000000000000E+000
  0.000000000000000E+000
  0.000000000000000E+000
  0.000000000000000E+000
  0.000000000000000E+000
  0.000000000000000E+000
  0.000000000000000E+000
  0.000000000000000E+000
  0.000000000000000E+000
  0.000000000000000E+000
  0.000000000000000E+000
  0.000000000000000E+000
  0.000000000000000E+000
  0.000000000000000E+000
  0.000000000000000E+000
  0.000000000000000E+000
  0.000000000000000E+000
  0.000000000000000E+000
  0.000000000000000E+000
  0.000000000000000E+000
  0.000000000000000E+000
  0.000000000000000E+000
  0.000000000000000E+000
  0.000000000000000E+000
  0.000000000000000E+000
  0.000000000000000E+000
  0.000000000000000E+000
  0.000000000000000E+000
  0.000000000000000E+000
  0.000000000000000E+000
  0.000000000000000E+000
  0.000000000000000E+000
  0.000000000000000E+000
  0.000000000000000E+000
  0.000000000000000E+000
  0.000000000000000E+000
  0.000000000000000E+000
  0.000000000000000E+000
  0.000000000000000E+000
  0.000000000000000E+000
  0.000000000000000E+000
  0.000000000000000E+000
  0.000000000000000E+000
  0.000000000000000E+000
  0.000000000000000E+000
  0.000000000000000E+000
  0.000000000000000E+000
  0.000000000000000E+000
  0.000000000000000E+000
  0.000000000000000E+000
  0.000000000000000E+000
  0.000000000000000E+000
  0.000000000000000E+000
  0.000000000000000E+000
  0.000000000000000E+000
  0.000000000000000E+000
  0.000000000000000E+000
  0.000000000000000E+000
  0.000000000000000E+000
  0.000000000000000E+000
  0.000000000000000E+000
  0.000000000000000E+000
  0.000000000000000E+000
  0.000000000000000E+000
  0.000000000000000E+000
  0.000000000000000E+000
  0.000000000000000E+000
  0.000000000000000E+000
  0.000000000000000E+000
  0.000000000000000E+000
  0.000000000000000E+000
  0.000000000000000E+000
  0.000000000000000E+000
  0.000000000000000E+000
  0.000000000000000E+000
  0.000000000000000E+000
  0.000000000000000E+000
  0.000000000000000E+000
  0.000000000000000E+000
  0.000000000000000E+000
  0.000000000000000E+000
  0.000000000000000E+000
  0.000000000000000E+000
  0.000000000000000E+000
  0.000000000000000E+000
  0.000000000000000E+000
  0.000000000000000E+000
  0.000000000000000E+000
  0.000000000000000E+000
  0.000000000000000E+000
  0.000000000000000E+000
  0.000000000000000E+000
  0.000000000000000E+000
  0.000000000000000E+000
  0.000000000000000E+000
  0.000000000000000E+000
  0.000000000000000E+000
  0.000000000000000E+000
  0.000000000000000E+000
  0.000000000000000E+000
  0.000000000000000E+000
  0.000000000000000E+000
  0.000000000000000E+000
  0.000000000000000E+000
  0.000000000000000E+000
  0.000000000000000E+000
  0.000000000000000E+000
  0.000000000000000E+000
  0.000000000000000E+000
  0.000000000000000E+000
  0.000000000000000E+000
  0.000000000000000E+000
  0.000000000000000E+000
  0.000000000000000E+000
  0.000000000000000E+000
  0.000000000000000E+000
  0.000000000000000E+000
  0.000000000000000E+000
  0.000000000000000E+000
  0.000000000000000E+000
  0.000000000000000E+000
  0.000000000000000E+000
  0.000000000000000E+000
  0.000000000000000E+000
  0.000000000000000E+000
  0.000000000000000E+000
  0.000000000000000E+000
  0.000000000000000E+000
  0.000000000000000E+000
  0.000000000000000E+000
  0.000000000000000E+000
  0.000000000000000E+000
  0.000000000000000E+000
  0.000000000000000E+000
  0.000000000000000E+000
  0.000000000000000E+000
  0.000000000000000E+000
  0.000000000000000E+000
  0.000000000000000E+000
  0.000000000000000E+000
  0.000000000000000E+000
  0.000000000000000E+000
  0.000000000000000E+000
  0.000000000000000E+000
  0.000000000000000E+000
  0.000000000000000E+000
  0.000000000000000E+000
  0.000000000000000E+000
  0.000000000000000E+000
  0.000000000000000E+000
  0.000000000000000E+000
  0.000000000000000E+000
  0.000000000000000E+000
  0.000000000000000E+000
  0.000000000000000E+000
  0.000000000000000E+000
  0.000000000000000E+000
  0.000000000000000E+000
  0.000000000000000E+000
  0.000000000000000E+000
  0.000000000000000E+000
  0.000000000000000E+000
  0.000000000000000E+000
  0.000000000000000E+000
  0.000000000000000E+000
  0.000000000000000E+000
  0.000000000000000E+000
  0.000000000000000E+000
  0.000000000000000E+000
  0.000000000000000E+000
  0.000000000000000E+000
  0.000000000000000E+000
  0.000000000000000E+000
  0.000000000000000E+000
  0.000000000000000E+000
  0.000000000000000E+000
  0.000000000000000E+000
  0.000000000000000E+000
  0.000000000000000E+000
  0.000000000000000E+000
  0.000000000000000E+000
  0.000000000000000E+000
  0.000000000000000E+000
  0.000000000000000E+000
  0.000000000000000E+000
  0.000000000000000E+000
  0.000000000000000E+000
  0.000000000000000E+000
  0.000000000000000E+000
  0.000000000000000E+000
  0.000000000000000E+000
  0.000000000000000E+000
  0.000000000000000E+000
  0.000000000000000E+000
  0.000000000000000E+000
  0.000000000000000E+000
  0.000000000000000E+000
  0.000000000000000E+000
  0.000000000000000E+000
  0.000000000000000E+000
  0.000000000000000E+000
  0.000000000000000E+000
  0.000000000000000E+000
  0.000000000000000E+000
  0.000000000000000E+000
  0.000000000000000E+000
  0.000000000000000E+000
  0.000000000000000E+000
  0.000000000000000E+000
  0.000000000000000E+000
  0.000000000000000E+000
  0.000000000000000E+000
  0.000000000000000E+000
  0.000000000000000E+000
  0.000000000000000E+000
  0.000000000000000E+000
  0.000000000000000E+000
  0.000000000000000E+000
  0.000000000000000E+000
  0.000000000000000E+000
  0.000000000000000E+000
  0.000000000000000E+000
  0.000000000000000E+000
  0.000000000000000E+000
  0.000000000000000E+000
  0.000000000000000E+000
  0.000000000000000E+000
  0.000000000000000E+000
  0.000000000000000E+000
  0.000000000000000E+000
  0.000000000000000E+000
  0.000000000000000E+000
  0.000000000000000E+000
  0.000000000000000E+000
  0.000000000000000E+000
  0.000000000000000E+000
  0.000000000000000E+000
  0.000000000000000E+000
  0.000000000000000E+000
  0.000000000000000E+000
  0.000000000000000E+000
  0.000000000000000E+000
  0.000000000000000E+000
  0.000000000000000E+000
  0.000000000000000E+000
  0.000000000000000E+000
  0.000000000000000E+000
  0.000000000000000E+000
  0.000000000000000E+000
  0.000000000000000E+000
  0.000000000000000E+000
  0.000000000000000E+000
  0.000000000000000E+000
  0.000000000000000E+000
  0.000000000000000E+000
  0.000000000000000E+000
  0.000000000000000E+000
  0.000000000000000E+000
  0.000000000000000E+000
  0.000000000000000E+000
  0.000000000000000E+000
  0.000000000000000E+000
  0.000000000000000E+000
  0.000000000000000E+000
  0.000000000000000E+000
  0.000000000000000E+000
  0.000000000000000E+000
  0.000000000000000E+000
  0.000000000000000E+000
  0.000000000000000E+000
  0.000000000000000E+000
  0.000000000000000E+000
  0.000000000000000E+000
  0.000000000000000E+000
  0.000000000000000E+000
  0.000000000000000E+000
  0.000000000000000E+000
  0.000000000000000E+000
  0.000000000000000E+000
  0.000000000000000E+000
  0.000000000000000E+000
  0.000000000000000E+000
  0.000000000000000E+000
  0.000000000000000E+000
  0.000000000000000E+000
  0.000000000000000E+000
  0.000000000000000E+000
  0.000000000000000E+000
  0.000000000000000E+000
  0.000000000000000E+000
  0.000000000000000E+000
  0.000000000000000E+000
  0.000000000000000E+000
  0.000000000000000E+000
  0.000000000000000E+000
  0.000000000000000E+000
  0.000000000000000E+000
  0.000000000000000E+000
  0.000000000000000E+000
  0.000000000000000E+000
  0.000000000000000E+000
  0.000000000000000E+000
  0.000000000000000E+000
  0.000000000000000E+000
  0.000000000000000E+000
  0.000000000000000E+000
  0.000000000000000E+000
  0.000000000000000E+000
  0.000000000000000E+000
  0.000000000000000E+000
  0.000000000000000E+000
  0.000000000000000E+000
  0.000000000000000E+000
  0.000000000000000E+000
  0.000000000000000E+000
  0.000000000000000E+000
  0.000000000000000E+000
  0.000000000000000E+000
  0.000000000000000E+000
  0.000000000000000E+000
  0.000000000000000E+000
  0.000000000000000E+000
  0.000000000000000E+000
  0.000000000000000E+000
  0.000000000000000E+000
  0.000000000000000E+000
  0.000000000000000E+000
  0.000000000000000E+000
  0.000000000000000E+000
  0.000000000000000E+000
  0.000000000000000E+000
  0.000000000000000E+000
  0.000000000000000E+000
  0.000000000000000E+000
  0.000000000000000E+000
  0.000000000000000E+000
  0.000000000000000E+000
  0.000000000000000E+000
  0.000000000000000E+000
  0.000000000000000E+000
  0.000000000000000E+000
  0.000000000000000E+000
  0.000000000000000E+000
  0.000000000000000E+000
  0.000000000000000E+000
  0.000000000000000E+000
  0.000000000000000E+000
  0.000000000000000E+000
  0.000000000000000E+000
  0.000000000000000E+000
  0.000000000000000E+000
  0.000000000000000E+000
  0.000000000000000E+000
  0.000000000000000E+000
  0.000000000000000E+000
  0.000000000000000E+000
  0.000000000000000E+000
  0.000000000000000E+000
  0.000000000000000E+000
  0.000000000000000E+000
  0.000000000000000E+000
  0.000000000000000E+000
  0.000000000000000E+000
  0.000000000000000E+000
  0.000000000000000E+000
  0.000000000000000E+000
  0.000000000000000E+000
  0.000000000000000E+000
  0.000000000000000E+000
  0.000000000000000E+000
  0.000000000000000E+000
  0.000000000000000E+000
  0.000000000000000E+000
  0.000000000000000E+000
  0.000000000000000E+000
  0.000000000000000E+000
  0.000000000000000E+000
  0.000000000000000E+000
  0.000000000000000E+000
  0.000000000000000E+000
  0.000000000000000E+000
  0.000000000000000E+000
  0.000000000000000E+000
  0.000000000000000E+000
  0.000000000000000E+000
  0.000000000000000E+000
  0.000000000000000E+000
  0.000000000000000E+000
  0.000000000000000E+000
  0.000000000000000E+000
  0.000000000000000E+000
  0.000000000000000E+000
  0.000000000000000E+000
  0.000000000000000E+000
  0.000000000000000E+000
  0.000000000000000E+000
  0.000000000000000E+000
  0.000000000000000E+000
  0.000000000000000E+000
  0.000000000000000E+000
  0.000000000000000E+000
  0.000000000000000E+000
  0.000000000000000E+000
  0.000000000000000E+000
  0.000000000000000E+000
  0.000000000000000E+000
  0.000000000000000E+000
  0.000000000000000E+000
  0.000000000000000E+000
  0.000000000000000E+000
  0.000000000000000E+000
  0.000000000000000E+000
  0.000000000000000E+000
  0.000000000000000E+000
  0.000000000000000E+000
  0.000000000000000E+000
  0.000000000000000E+000
  0.000000000000000E+000
  0.000000000000000E+000
  0.000000000000000E+000
  0.000000000000000E+000
  0.000000000000000E+000
  0.000000000000000E+000
  0.000000000000000E+000
  0.000000000000000E+000
  0.000000000000000E+000
  0.000000000000000E+000
  0.000000000000000E+000
  0.000000000000000E+000
  0.000000000000000E+000
  0.000000000000000E+000
  0.000000000000000E+000
  0.000000000000000E+000
  0.000000000000000E+000
  0.000000000000000E+000
  0.000000000000000E+000
  0.000000000000000E+000
  0.000000000000000E+000
  0.000000000000000E+000
  0.000000000000000E+000
  0.000000000000000E+000
  0.000000000000000E+000
  0.000000000000000E+000
  0.000000000000000E+000
  0.000000000000000E+000
  0.000000000000000E+000
  0.000000000000000E+000
  0.000000000000000E+000
  0.000000000000000E+000
  0.000000000000000E+000
  0.000000000000000E+000
  0.000000000000000E+000
  0.000000000000000E+000
  0.000000000000000E+000
  0.000000000000000E+000
  0.000000000000000E+000
  0.000000000000000E+000
  0.000000000000000E+000
  0.000000000000000E+000
  0.000000000000000E+000
  0.000000000000000E+000
  0.000000000000000E+000
  0.000000000000000E+000
  0.000000000000000E+000
  0.000000000000000E+000
  0.000000000000000E+000
  0.000000000000000E+000
  0.000000000000000E+000
  0.000000000000000E+000
  0.000000000000000E+000
  0.000000000000000E+000
  0.000000000000000E+000
  0.000000000000000E+000
  0.000000000000000E+000
  0.000000000000000E+000
  0.000000000000000E+000
  0.000000000000000E+000
  0.000000000000000E+000
  0.000000000000000E+000
  0.000000000000000E+000
  0.000000000000000E+000
  0.000000000000000E+000
  0.000000000000000E+000
  0.000000000000000E+000
  0.000000000000000E+000
  0.000000000000000E+000
  0.000000000000000E+000
  0.000000000000000E+000
  0.000000000000000E+000
  0.000000000000000E+000
  0.000000000000000E+000
  0.000000000000000E+000
  0.000000000000000E+000
  0.000000000000000E+000
  0.000000000000000E+000
  0.000000000000000E+000
  0.000000000000000E+000
  0.000000000000000E+000
  0.000000000000000E+000
  0.000000000000000E+000
  0.000000000000000E+000
  0.000000000000000E+000
  0.000000000000000E+000
  0.000000000000000E+000
  0.000000000000000E+000
  0.000000000000000E+000
  0.000000000000000E+000
  0.000000000000000E+000
  0.000000000000000E+000
  0.000000000000000E+000
  0.000000000000000E+000
  0.000000000000000E+000
  0.000000000000000E+000
  0.000000000000000E+000
  0.000000000000000E+000
  0.000000000000000E+000
  0.000000000000000E+000
  0.000000000000000E+000
  0.000000000000000E+000
  0.000000000000000E+000
  0.000000000000000E+000
  0.000000000000000E+000
  0.000000000000000E+000
  0.000000000000000E+000
  0.000000000000000E+000
  0.000000000000000E+000
  0.000000000000000E+000
  0.000000000000000E+000
  0.000000000000000E+000
  0.000000000000000E+000
  0.000000000000000E+000
  0.000000000000000E+000
  0.000000000000000E+000
  0.000000000000000E+000
  0.000000000000000E+000
  0.000000000000000E+000
  0.000000000000000E+000
  0.000000000000000E+000
  0.000000000000000E+000
  0.000000000000000E+000
  0.000000000000000E+000
  0.000000000000000E+000
  0.000000000000000E+000
  0.000000000000000E+000
  0.000000000000000E+000
  0.000000000000000E+000
  0.000000000000000E+000
  0.000000000000000E+000
  0.000000000000000E+000
  0.000000000000000E+000
  0.000000000000000E+000
  0.000000000000000E+000
  0.000000000000000E+000
  0.000000000000000E+000
  0.000000000000000E+000
  0.000000000000000E+000
  0.000000000000000E+000
  0.000000000000000E+000
  0.000000000000000E+000
  0.000000000000000E+000
  0.000000000000000E+000
  0.000000000000000E+000
  0.000000000000000E+000
  0.000000000000000E+000
  0.000000000000000E+000
  0.000000000000000E+000
  0.000000000000000E+000
  0.000000000000000E+000
  0.000000000000000E+000
  0.000000000000000E+000
  0.000000000000000E+000
  0.000000000000000E+000
  0.000000000000000E+000
  0.000000000000000E+000
  0.000000000000000E+000
  0.000000000000000E+000
  0.000000000000000E+000
  0.000000000000000E+000
  0.000000000000000E+000
  0.000000000000000E+000
  0.000000000000000E+000
  0.000000000000000E+000
  0.000000000000000E+000
  0.000000000000000E+000
  0.000000000000000E+000
  0.000000000000000E+000
  0.000000000000000E+000
  0.000000000000000E+000
  0.000000000000000E+000
  0.000000000000000E+000
  0.000000000000000E+000
  0.000000000000000E+000
  0.000000000000000E+000
  0.000000000000000E+000
  0.000000000000000E+000
  0.000000000000000E+000
  0.000000000000000E+000
  0.000000000000000E+000
  0.000000000000000E+000
  0.000000000000000E+000
  0.000000000000000E+000
  0.000000000000000E+000
  0.000000000000000E+000
  0.000000000000000E+000
  0.000000000000000E+000
  0.000000000000000E+000
  0.000000000000000E+000
  0.000000000000000E+000
  0.000000000000000E+000
  0.000000000000000E+000
  0.000000000000000E+000
  0.000000000000000E+000
  0.000000000000000E+000
  0.000000000000000E+000
  0.000000000000000E+000
  0.000000000000000E+000
  0.000000000000000E+000
  0.000000000000000E+000
  0.000000000000000E+000
  0.000000000000000E+000
  0.000000000000000E+000
  0.000000000000000E+000
  0.000000000000000E+000
  0.000000000000000E+000
  0.000000000000000E+000
  0.000000000000000E+000
  0.000000000000000E+000
  0.000000000000000E+000
  0.000000000000000E+000
  0.000000000000000E+000
  0.000000000000000E+000
  0.000000000000000E+000
  0.000000000000000E+000
  0.000000000000000E+000
  0.000000000000000E+000
  0.000000000000000E+000
  0.000000000000000E+000
  0.000000000000000E+000
  0.000000000000000E+000
  0.000000000000000E+000
  0.000000000000000E+000
  0.000000000000000E+000
  0.000000000000000E+000
  0.000000000000000E+000
  0.000000000000000E+000
  0.000000000000000E+000
  0.000000000000000E+000
  0.000000000000000E+000
  0.000000000000000E+000
  0.000000000000000E+000
  0.000000000000000E+000
  0.000000000000000E+000
  0.000000000000000E+000
  0.000000000000000E+000
  0.000000000000000E+000
  0.000000000000000E+000
  0.000000000000000E+000
  0.000000000000000E+000
  0.000000000000000E+000
  0.000000000000000E+000
  0.000000000000000E+000
  0.000000000000000E+000
  0.000000000000000E+000
  0.000000000000000E+000
  0.000000000000000E+000
  0.000000000000000E+000
  0.000000000000000E+000
  0.000000000000000E+000
  0.000000000000000E+000
  0.000000000000000E+000
  0.000000000000000E+000
  0.000000000000000E+000
  0.000000000000000E+000
  0.000000000000000E+000
  0.000000000000000E+000
  0.000000000000000E+000
  0.000000000000000E+000
  0.000000000000000E+000
  0.000000000000000E+000
  0.000000000000000E+000
  0.000000000000000E+000
  0.000000000000000E+000
  0.000000000000000E+000
  0.000000000000000E+000
  0.000000000000000E+000
  0.000000000000000E+000
  0.000000000000000E+000
  0.000000000000000E+000
  0.000000000000000E+000
  0.000000000000000E+000
  0.000000000000000E+000
  0.000000000000000E+000
  0.000000000000000E+000
  0.000000000000000E+000
  0.000000000000000E+000
  0.000000000000000E+000
  0.000000000000000E+000
  0.000000000000000E+000
  0.000000000000000E+000
  0.000000000000000E+000
  0.000000000000000E+000
  0.000000000000000E+000
  0.000000000000000E+000
  0.000000000000000E+000
  0.000000000000000E+000
  0.000000000000000E+000
  0.000000000000000E+000
  0.000000000000000E+000
  0.000000000000000E+000
  0.000000000000000E+000
  0.000000000000000E+000
  0.000000000000000E+000
  0.000000000000000E+000
  0.000000000000000E+000
  0.000000000000000E+000
  0.000000000000000E+000
  0.000000000000000E+000
  0.000000000000000E+000
  0.000000000000000E+000
  0.000000000000000E+000
  0.000000000000000E+000
  0.000000000000000E+000
  0.000000000000000E+000
  0.000000000000000E+000
  0.000000000000000E+000
  0.000000000000000E+000
  0.000000000000000E+000
  0.000000000000000E+000
  0.000000000000000E+000
  0.000000000000000E+000
  0.000000000000000E+000
  0.000000000000000E+000
  0.000000000000000E+000
  0.000000000000000E+000
  0.000000000000000E+000
  0.000000000000000E+000
  0.000000000000000E+000
  0.000000000000000E+000
  0.000000000000000E+000
  0.000000000000000E+000
  0.000000000000000E+000
  0.000000000000000E+000
  0.000000000000000E+000
  0.000000000000000E+000
  0.000000000000000E+000
  0.000000000000000E+000
  0.000000000000000E+000
  0.000000000000000E+000
  0.000000000000000E+000
  0.000000000000000E+000
  0.000000000000000E+000
  0.000000000000000E+000
  0.000000000000000E+000
  0.000000000000000E+000
  0.000000000000000E+000
  0.000000000000000E+000
  0.000000000000000E+000
  0.000000000000000E+000
  0.000000000000000E+000
  0.000000000000000E+000
  0.000000000000000E+000
  0.000000000000000E+000
  0.000000000000000E+000
  0.000000000000000E+000
  0.000000000000000E+000
  0.000000000000000E+000
  0.000000000000000E+000
  0.000000000000000E+000
  0.000000000000000E+000
  0.000000000000000E+000
  0.000000000000000E+000
  0.000000000000000E+000
  0.000000000000000E+000
  0.000000000000000E+000
  0.000000000000000E+000
  0.000000000000000E+000
  0.000000000000000E+000
  0.000000000000000E+000
  0.000000000000000E+000
  0.000000000000000E+000
  0.000000000000000E+000
  0.000000000000000E+000
  0.000000000000000E+000
  0.000000000000000E+000
  0.000000000000000E+000
  0.000000000000000E+000
  0.000000000000000E+000
  0.000000000000000E+000
  0.000000000000000E+000
  0.000000000000000E+000
  0.000000000000000E+000
  0.000000000000000E+000
  0.000000000000000E+000
  0.000000000000000E+000
  0.000000000000000E+000
  0.000000000000000E+000
  0.000000000000000E+000
  0.000000000000000E+000
  0.000000000000000E+000
  0.000000000000000E+000
  0.000000000000000E+000
  0.000000000000000E+000
  0.000000000000000E+000
  0.000000000000000E+000
  0.000000000000000E+000
  0.000000000000000E+000
  0.000000000000000E+000
  0.000000000000000E+000
  0.000000000000000E+000
  0.000000000000000E+000
  0.000000000000000E+000
  0.000000000000000E+000
  0.000000000000000E+000
  0.000000000000000E+000
  0.000000000000000E+000
  0.000000000000000E+000
  0.000000000000000E+000
  0.000000000000000E+000
  0.000000000000000E+000
  0.000000000000000E+000
  0.000000000000000E+000
  0.000000000000000E+000
  0.000000000000000E+000
  0.000000000000000E+000
  0.000000000000000E+000
  0.000000000000000E+000
  0.000000000000000E+000
  0.000000000000000E+000
  0.000000000000000E+000
  0.000000000000000E+000
  0.000000000000000E+000
  0.000000000000000E+000
  0.000000000000000E+000
  0.000000000000000E+000
  0.000000000000000E+000
  0.000000000000000E+000
  0.000000000000000E+000
  0.000000000000000E+000
  0.000000000000000E+000
  0.000000000000000E+000
  0.000000000000000E+000
  0.000000000000000E+000
  0.000000000000000E+000
  0.000000000000000E+000
  0.000000000000000E+000
  0.000000000000000E+000
  0.000000000000000E+000
  0.000000000000000E+000
  0.000000000000000E+000
  0.000000000000000E+000
  0.000000000000000E+000
  0.000000000000000E+000
  0.000000000000000E+000
  0.000000000000000E+000
  0.000000000000000E+000
  0.000000000000000E+000
  0.000000000000000E+000
  0.000000000000000E+000
  0.000000000000000E+000
  0.000000000000000E+000
  0.000000000000000E+000
  0.000000000000000E+000
  0.000000000000000E+000
  0.000000000000000E+000
  0.000000000000000E+000
  0.000000000000000E+000
  0.000000000000000E+000
  0.000000000000000E+000
  0.000000000000000E+000
  0.000000000000000E+000
  0.000000000000000E+000
  0.000000000000000E+000
  0.000000000000000E+000
  0.000000000000000E+000
  0.000000000000000E+000
  0.000000000000000E+000
  0.000000000000000E+000
  0.000000000000000E+000
  0.000000000000000E+000
  0.000000000000000E+000
  0.000000000000000E+000
  0.000000000000000E+000
  0.000000000000000E+000
  0.000000000000000E+000
  0.000000000000000E+000
  0.000000000000000E+000
  0.000000000000000E+000
  0.000000000000000E+000
  0.000000000000000E+000
  0.000000000000000E+000
  0.000000000000000E+000
  0.000000000000000E+000
  0.000000000000000E+000
  0.000000000000000E+000
  0.000000000000000E+000
  0.000000000000000E+000
  0.000000000000000E+000
  0.000000000000000E+000
  0.000000000000000E+000
  0.000000000000000E+000
  0.000000000000000E+000
  0.000000000000000E+000
  0.000000000000000E+000
  0.000000000000000E+000
  0.000000000000000E+000
  0.000000000000000E+000
  0.000000000000000E+000
  0.000000000000000E+000
  0.000000000000000E+000
  0.000000000000000E+000
  0.000000000000000E+000
  0.000000000000000E+000
  0.000000000000000E+000
  0.000000000000000E+000
  0.000000000000000E+000
  0.000000000000000E+000
  0.000000000000000E+000
  0.000000000000000E+000
  0.000000000000000E+000
  0.000000000000000E+000
  0.000000000000000E+000
  0.000000000000000E+000
  0.000000000000000E+000
  0.000000000000000E+000
  0.000000000000000E+000
  0.000000000000000E+000
  0.000000000000000E+000
  0.000000000000000E+000
  0.000000000000000E+000
  0.000000000000000E+000
  0.000000000000000E+000
  0.000000000000000E+000
  0.000000000000000E+000
  0.000000000000000E+000
  0.000000000000000E+000
  0.000000000000000E+000
  0.000000000000000E+000
  0.000000000000000E+000
  0.000000000000000E+000
  0.000000000000000E+000
  0.000000000000000E+000
  0.000000000000000E+000
  0.000000000000000E+000
  0.000000000000000E+000
  0.000000000000000E+000
  0.000000000000000E+000
  0.000000000000000E+000
  0.000000000000000E+000
  0.000000000000000E+000
  0.000000000000000E+000
  0.000000000000000E+000
  0.000000000000000E+000
  0.000000000000000E+000
  0.000000000000000E+000
  0.000000000000000E+000
  0.000000000000000E+000
  0.000000000000000E+000
  0.000000000000000E+000
  0.000000000000000E+000
  0.000000000000000E+000
  0.000000000000000E+000
  0.000000000000000E+000
  0.000000000000000E+000
  0.000000000000000E+000
  0.000000000000000E+000
  0.000000000000000E+000
  0.000000000000000E+000
  0.000000000000000E+000
  0.000000000000000E+000
  0.000000000000000E+000
  0.000000000000000E+000
  0.000000000000000E+000
  0.000000000000000E+000
  0.000000000000000E+000
  0.000000000000000E+000
  0.000000000000000E+000
  0.000000000000000E+000
  0.000000000000000E+000
  0.000000000000000E+000
  0.000000000000000E+000
  0.000000000000000E+000
  0.000000000000000E+000
  0.000000000000000E+000
  0.000000000000000E+000
  0.000000000000000E+000
  0.000000000000000E+000
  0.000000000000000E+000
  0.000000000000000E+000
  0.000000000000000E+000
  0.000000000000000E+000
  0.000000000000000E+000
  0.000000000000000E+000
  0.000000000000000E+000
  0.000000000000000E+000
  0.000000000000000E+000
  0.000000000000000E+000
  0.000000000000000E+000
  0.000000000000000E+000
  0.000000000000000E+000
  0.000000000000000E+000
  0.000000000000000E+000
  0.000000000000000E+000
  0.000000000000000E+000
  0.000000000000000E+000
  0.000000000000000E+000
  0.000000000000000E+000
  0.000000000000000E+000
  0.000000000000000E+000
  0.000000000000000E+000
  0.000000000000000E+000
  0.000000000000000E+000
  0.000000000000000E+000
  0.000000000000000E+000
  0.000000000000000E+000
  0.000000000000000E+000
  0.000000000000000E+000
  0.000000000000000E+000
  0.000000000000000E+000
  0.000000000000000E+000
  0.000000000000000E+000
  0.000000000000000E+000
  0.000000000000000E+000
  0.000000000000000E+000
  0.000000000000000E+000
  0.000000000000000E+000
  0.000000000000000E+000
  0.000000000000000E+000
  0.000000000000000E+000
  0.000000000000000E+000
  0.000000000000000E+000
  0.000000000000000E+000
  0.000000000000000E+000
  0.000000000000000E+000
  0.000000000000000E+000
  0.000000000000000E+000
  0.000000000000000E+000
  0.000000000000000E+000
  0.000000000000000E+000
  0.000000000000000E+000
  0.000000000000000E+000
  0.000000000000000E+000
  0.000000000000000E+000
  0.000000000000000E+000
  0.000000000000000E+000
  0.000000000000000E+000
  0.000000000000000E+000
  0.000000000000000E+000
  0.000000000000000E+000
  0.000000000000000E+000
  0.000000000000000E+000
  0.000000000000000E+000
  0.000000000000000E+000
  0.000000000000000E+000
  0.000000000000000E+000
  0.000000000000000E+000
  0.000000000000000E+000
  0.000000000000000E+000
  0.000000000000000E+000
  0.000000000000000E+000
  0.000000000000000E+000
  0.000000000000000E+000
  0.000000000000000E+000
  0.000000000000000E+000
  0.000000000000000E+000
  0.000000000000000E+000
  0.000000000000000E+000
  0.000000000000000E+000
  0.000000000000000E+000
  0.000000000000000E+000
  0.000000000000000E+000
  0.000000000000000E+000
  0.000000000000000E+000
  0.000000000000000E+000
  0.000000000000000E+000
  0.000000000000000E+000
  0.000000000000000E+000
  0.000000000000000E+000
  0.000000000000000E+000
  0.000000000000000E+000
  0.000000000000000E+000
  0.000000000000000E+000
  0.000000000000000E+000
  0.000000000000000E+000
  0.000000000000000E+000
  0.000000000000000E+000
  0.000000000000000E+000
  0.000000000000000E+000
  0.000000000000000E+000
  0.000000000000000E+000
  0.000000000000000E+000
  0.000000000000000E+000
  0.000000000000000E+000
  0.000000000000000E+000
  0.000000000000000E+000
  0.000000000000000E+000
  0.000000000000000E+000
  0.000000000000000E+000
  0.000000000000000E+000
  0.000000000000000E+000
  0.000000000000000E+000
  0.000000000000000E+000
  0.000000000000000E+000
  0.000000000000000E+000
  0.000000000000000E+000
  0.000000000000000E+000
  0.000000000000000E+000
  0.000000000000000E+000
  0.000000000000000E+000
  0.000000000000000E+000
  0.000000000000000E+000
  0.000000000000000E+000
  0.000000000000000E+000
  0.000000000000000E+000
  0.000000000000000E+000
  0.000000000000000E+000
  0.000000000000000E+000
  0.000000000000000E+000
  0.000000000000000E+000
  0.000000000000000E+000
  0.000000000000000E+000
  0.000000000000000E+000
  0.000000000000000E+000
  0.000000000000000E+000
  0.000000000000000E+000
  0.000000000000000E+000
  0.000000000000000E+000
  0.000000000000000E+000
  0.000000000000000E+000
  0.000000000000000E+000
  0.000000000000000E+000
  0.000000000000000E+000
  0.000000000000000E+000
  0.000000000000000E+000
  0.000000000000000E+000
  0.000000000000000E+000
SCALARS poroL double 
LOOKUP_TABLE default
  0.197300159166545     
  0.197303402638390     
  0.197299932241441     
  0.197297635597752     
  0.197295764668092     
  0.197294158247298     
  0.197292754878757     
  0.197291526802232     
  0.197290459087055     
  0.197289541560336     
  0.197288763949358     
  0.197288109183930     
  0.197287535097083     
  0.197286815104487     
  0.197289182984245     
  0.197299469998621     
  0.197298327929671     
  0.197297709934478     
  0.197296071232334     
  0.197294453086816     
  0.197292958966907     
  0.197291612247553     
  0.197290416648288     
  0.197289371523535     
  0.197288475610216     
  0.197287728840428     
  0.197287136772660     
  0.197286727012422     
  0.197286846773086     
  0.197286473222098     
  0.197298671997798     
  0.197296716118299     
  0.197295014290394     
  0.197293564167176     
  0.197292080015072     
  0.197290671592510     
  0.197289378667183     
  0.197288218775756     
  0.197287200167919     
  0.197286327926071     
  0.197285607647906     
  0.197285049525519     
  0.197284683112074     
  0.197284367347851     
  0.197284282640114     
  0.197295709889860     
  0.197293733458293     
  0.197291924656141     
  0.197290264012624     
  0.197288759662473     
  0.197287366718384     
  0.197286095117854     
  0.197284954642524     
  0.197283952365148     
  0.197283093424807     
  0.197282381973938     
  0.197281820877235     
  0.197281392883642     
  0.197281124954490     
  0.197280979417868     
  0.197291567076180     
  0.197289556072558     
  0.197287704745242     
  0.197286007504263     
  0.197284453957435     
  0.197283043677514     
  0.197281769504671     
  0.197280632290825     
  0.197279634591515     
  0.197278778853529     
  0.197278066550763     
  0.197277496412747     
  0.197277072174510     
  0.197276786831522     
  0.197276646501748     
  0.197286284668693     
  0.197284263373128     
  0.197282393964814     
  0.197280674413413     
  0.197279102725165     
  0.197277675435532     
  0.197276391473786     
  0.197275249445468     
  0.197274249344364     
  0.197273391643711     
  0.197272676646224     
  0.197272105105038     
  0.197271676060839     
  0.197271390740740     
  0.197271247715789     
  0.197279901974969     
  0.197277873431399     
  0.197275994116484     
  0.197274263173303     
  0.197272679364359     
  0.197271241660304     
  0.197269948832577     
  0.197268800222600     
  0.197267795335540     
  0.197266933981087     
  0.197266216207551     
  0.197265641907581     
  0.197265211321426     
  0.197264924162276     
  0.197264780668330     
  0.197272429829926     
  0.197270395705821     
  0.197268509486989     
  0.197266770760571     
  0.197265178987589     
  0.197263733509826     
  0.197262433752851     
  0.197261279165202     
  0.197260269359417     
  0.197259404066214     
  0.197258683102934     
  0.197258106414882     
  0.197257673903925     
  0.197257385601235     
  0.197257241438351     
  0.197263872734785     
  0.197261833497562     
  0.197259941606195     
  0.197258196832333     
  0.197256598863436     
  0.197255147350012     
  0.197253841917942     
  0.197252682228873     
  0.197251667982826     
  0.197250798942534     
  0.197250074937122     
  0.197249495836250     
  0.197249061571120     
  0.197248772079474     
  0.197248627343341     
  0.197254231814551     
  0.197252187641732     
  0.197250290610638     
  0.197248540578603     
  0.197246937359694     
  0.197245480735386     
  0.197244170476480     
  0.197243006354575     
  0.197241988161308     
  0.197241115716092     
  0.197240388870387     
  0.197239807512386     
  0.197239371556652     
  0.197239080949244     
  0.197238935653130     
  0.197243506725298     
  0.197241457648950     
  0.197239555703003     
  0.197237800794962     
  0.197236192805883     
  0.197234731597738     
  0.197233417020854     
  0.197232248924200     
  0.197231227162905     
  0.197230351605638     
  0.197229622139502     
  0.197229038671403     
  0.197228601130138     
  0.197228309463352     
  0.197228163638213     
  0.197231696318466     
  0.197229642289918     
  0.197227735494077     
  0.197225975872591     
  0.197224363350073     
  0.197222897837694     
  0.197221579238153     
  0.197220407450668     
  0.197219382376323     
  0.197218503922536     
  0.197217772006581     
  0.197217186558291     
  0.197216747521060     
  0.197216454852834     
  0.197216308525618     
  0.197218798949513     
  0.197216739857508     
  0.197214828177129     
  0.197213063875825     
  0.197211446908551     
  0.197209977220293     
  0.197208654749026     
  0.197207479429047     
  0.197206451194253     
  0.197205569981234     
  0.197204835731943     
  0.197204248395717     
  0.197203807930859     
  0.197203514305491     
  0.197203367498196     
  0.197204812611675     
  0.197202748293567     
  0.197200831624513     
  0.197199062591917     
  0.197197441173137     
  0.197195967337352     
  0.197194641047686     
  0.197193462263450     
  0.197192430942434     
  0.197191547043068     
  0.197190810526378     
  0.197190221357650     
  0.197189779507720     
  0.197189484953979     
  0.197189337681007     
  0.197189735000065     
  0.197187665252093     
  0.197185743439544     
  0.197183969565105     
  0.197182343622843     
  0.197180865599700     
  0.197179535477087     
  0.197178353232549     
  0.197177318841416     
  0.197176432278397     
  0.197175693519054     
  0.197175102541079     
  0.197174659325377     
  0.197174363856909     
  0.197174216125314     
  0.197173563546028     
  0.197171488133839     
  0.197169560986586     
  0.197167782118289     
  0.197166151535329     
  0.197164669237658     
  0.197163335220054     
  0.197162149473393     
  0.197161111985901     
  0.197160222744364     
  0.197159481735243     
  0.197158888945676     
  0.197158444364329     
  0.197158147982096     
  0.197157999792613     
  0.197156295439484     
  0.197154214108337     
  0.197152281410606     
  0.197150497368307     
  0.197148861996603     
  0.197147375304783     
  0.197146037297261     
  0.197144847974564     
  0.197143807334307     
  0.197142915372123     
  0.197142172082527     
  0.197141577459689     
  0.197141131498113     
  0.197140834193182     
  0.197140685541580     
  0.197137927646557     
  0.197135840130639     
  0.197133901652090     
  0.197132112238153     
  0.197130471909918     
  0.197128980683107     
  0.197127638568860     
  0.197126445574517     
  0.197125401704374     
  0.197124506960410     
  0.197123761342957     
  0.197123164851306     
  0.197122717484228     
  0.197122419240413     
  0.197122270118800     
  0.197118456925435     
  0.197116362955962     
  0.197114418460103     
  0.197112623468074     
  0.197110978004598     
  0.197109482089517     
  0.197108135738410     
  0.197106938963204     
  0.197105891772764     
  0.197104994173460     
  0.197104246169687     
  0.197103647764338     
  0.197103198959213     
  0.197102899755354     
  0.197102750153310     
  0.197097879841588     
  0.197095779153636     
  0.197093828404809     
  0.197092027626507     
  0.197090376845264     
  0.197088876083209     
  0.197087525358556     
  0.197086324686068     
  0.197085274077522     
  0.197084373542142     
  0.197083623087011     
  0.197083022717431     
  0.197082572437243     
  0.197082272249090     
  0.197082122154619     
  0.197076192782732     
  0.197074085120847     
  0.197072127889967     
  0.197070321121279     
  0.197068664841689     
  0.197067159074183     
  0.197065803838183     
  0.197064599149917     
  0.197063545022769     
  0.197062641467616     
  0.197061888493142     
  0.197061286106121     
  0.197060834311662     
  0.197060533113413     
  0.197060382513716     
  0.197053391973651     
  0.197051277096420     
  0.197049313165649     
  0.197047500211237     
  0.197045838259355     
  0.197044327332717     
  0.197042967450849     
  0.197041758630364     
  0.197040700885231     
  0.197039794227035     
  0.197039038665214     
  0.197038434207275     
  0.197037980858988     
  0.197037678624535     
  0.197037527506639     
  0.197029473490931     
  0.197027351174675     
  0.197025380341229     
  0.197023561018377     
  0.197021893230703     
  0.197020376999780     
  0.197019012344371     
  0.197017799280634     
  0.197016737822329     
  0.197015827981003     
  0.197015069766183     
  0.197014463185533     
  0.197014008245004     
  0.197013704948948     
  0.197013553300215     
  0.197004433277628     
  0.197002303319433     
  0.197000325398692     
  0.196998499540459     
  0.196996825767070     
  0.196995304098288     
  0.196993934551441     
  0.196992717141580     
  0.196991651881626     
  0.196990738782514     
  0.196989977853336     
  0.196989369101459     
  0.196988912532639     
  0.196988608151111     
  0.196988455959657     
  0.196978267157964     
  0.196976129378186     
  0.196974144206291     
  0.196972311664124     
  0.196970631771276     
  0.196969104545176     
  0.196967730001199     
  0.196966508152773     
  0.196965439011494     
  0.196964522587230     
  0.196963758888226     
  0.196963147921198     
  0.196962689691412     
  0.196962384202757     
  0.196962231457793     
  0.196950970852102     
  0.196948825096515     
  0.196946832532568     
  0.196944993178534     
  0.196943307050862     
  0.196941774164244     
  0.196940394531690     
  0.196939168164605     
  0.196938095072875     
  0.196937175264940     
  0.196936408747879     
  0.196935795527469     
  0.196935335608255     
  0.196935028993600     
  0.196934875685722     
  0.196922539991122     
  0.196920386132820     
  0.196918386060823     
  0.196916539789543     
  0.196914847331974     
  0.196913308699747     
  0.196911923903179     
  0.196910692951334     
  0.196909615852077     
  0.196908692612137     
  0.196907923237162     
  0.196907307731771     
  0.196906846099600     
  0.196906538343339     
  0.196906384464767     
  0.196892970132293     
  0.196890808073436     
  0.196888800404058     
  0.196886947134459     
  0.196885248273923     
  0.196883703830752     
  0.196882313812306     
  0.196881078225039     
  0.196879997074548     
  0.196879070365615     
  0.196878298102250     
  0.196877680287728     
  0.196877216924622     
  0.196876908014839     
  0.196876753559635     
  0.196862256774753     
  0.196860086448251     
  0.196858071120487     
  0.196856210797436     
  0.196854505484449     
  0.196852955186269     
  0.196851559907067     
  0.196850319650471     
  0.196849234419597     
  0.196848304217083     
  0.196847529045126     
  0.196846908905501     
  0.196846443799598     
  0.196846133728438     
  0.196845978692692     
  0.196830395375706     
  0.196828216746876     
  0.196826193729676     
  0.196824326325558     
  0.196822614535730     
  0.196821058361173     
  0.196819657802667     
  0.196818412860815     
  0.196817323536069     
  0.196816389828756     
  0.196815611739103     
  0.196814989267259     
  0.196814522413319     
  0.196814211177336     
  0.196814055559338     
  0.196797381367239     
  0.196795194435491     
  0.196793163729391     
  0.196791289245668     
  0.196789570981189     
  0.196788008932978     
  0.196786603098235     
  0.196785353474360     
  0.196784260058972     
  0.196783322849933     
  0.196782541845365     
  0.196781917043674     
  0.196781448443560     
  0.196781136044038     
  0.196780979844443     
  0.196763210173856     
  0.196761014974441     
  0.196758976613229     
  0.196757095082022     
  0.196755370373149     
  0.196753802479485     
  0.196752391394468     
  0.196751137112121     
  0.196750039627073     
  0.196749098934574     
  0.196748315030517     
  0.196747687911452     
  0.196747217574601     
  0.196746904017869     
  0.196746747239854     
  0.196727877230821     
  0.196725673836653     
  0.196723627889098     
  0.196721739374818     
  0.196720008281400     
  0.196718434597372     
  0.196717018312228     
  0.196715759416444     
  0.196714657901502     
  0.196713713759901     
  0.196712926985181     
  0.196712297571932     
  0.196711825515811     
  0.196711510813549     
  0.196711353462965     
  0.196691378003395     
  0.196689166526973     
  0.196687113098637     
  0.196685217699681     
  0.196683480312730     
  0.196681900921766     
  0.196680479512149     
  0.196679216070636     
  0.196678110585402     
  0.196677163046057     
  0.196676373443663     
  0.196675741770747     
  0.196675268021318     
  0.196674952190872     
  0.196674794276401     
  0.196653708007048     
  0.196651488602493     
  0.196649427837635     
  0.196647525688155     
  0.196645782131491     
  0.196644197146864     
  0.196642770715303     
  0.196641502819665     
  0.196640393444658     
  0.196639442576857     
  0.196638650204723     
  0.196638016318616     
  0.196637540910811     
  0.196637223975502     
  0.196637065508817     
  0.196614862828733     
  0.196612635693930     
  0.196610567777512     
  0.196608659049285     
  0.196606909481254     
  0.196605319047654     
  0.196603887724976     
  0.196602615491989     
  0.196601502329763     
  0.196600548221691     
  0.196599753153504     
  0.196599117113286     
  0.196598640091491     
  0.196598322080948     
  0.196598163076873     
  0.196574838149277     
  0.196572603528149     
  0.196570528687954     
  0.196568613592340     
  0.196566858207621     
  0.196565262502804     
  0.196563826449624     
  0.196562550022562     
  0.196561433198876     
  0.196560475958617     
  0.196559678284654     
  0.196559040162682     
  0.196558561581244     
  0.196558242531736     
  0.196558083008418     
  0.196533629766979     
  0.196531387951887     
  0.196529306460748     
  0.196527385250757     
  0.196525624282257     
  0.196524023518776     
  0.196522582927056     
  0.196521302477085     
  0.196520182142118     
  0.196519221898705     
  0.196518421726708     
  0.196517781609318     
  0.196517301533072     
  0.196516981487861     
  0.196516821466942     
  0.196491233622478     
  0.196488984956742     
  0.196486897134896     
  0.196484970107359     
  0.196483203828211     
  0.196481598255227     
  0.196480153349915     
  0.196478869077546     
  0.196477745407178     
  0.196476782311685     
  0.196475979767776     
  0.196475337756014     
  0.196474856260831     
  0.196474535270539     
  0.196474374777343     
  0.196447645824954     
  0.196445390705522     
  0.196443296923078     
  0.196441364420929     
  0.196439593146580     
  0.196437983051771     
  0.196436534092515     
  0.196435246229133     
  0.196434119426279     
  0.196433153652971     
  0.196432348882607     
  0.196431705092994     
  0.196431222266356     
  0.196430900389347     
  0.196430739453069     
  0.196402862679754     
  0.196400601559987     
  0.196398502239520     
  0.196396564654192     
  0.196394788744603     
  0.196393174456158     
  0.196391721739104     
  0.196390430548565     
  0.196389300844576     
  0.196388332592104     
  0.196387525761080     
  0.196386880326413     
  0.196386396268012     
  0.196386073570795     
  0.196385912224702     
  0.196356880717481     
  0.196354614110088     
  0.196352509729358     
  0.196350567503289     
  0.196348787365233     
  0.196347169253943     
  0.196345713113614     
  0.196344418893919     
  0.196343286550041     
  0.196342316042703     
  0.196341507338192     
  0.196340860408382     
  0.196340375230751     
  0.196340051788394     
  0.196339890070035     
  0.196309696724650     
  0.196307425204748     
  0.196305316299544     
  0.196303369928803     
  0.196301586018267     
  0.196299964499709     
  0.196298505310974     
  0.196297208396013     
  0.196296073704922     
  0.196295101193968     
  0.196294290825618     
  0.196293642568561     
  0.196293156397726     
  0.196292832294295     
  0.196292670245718     
  0.196261307775959     
  0.196259031984275     
  0.196256919151384     
  0.196254969188407     
  0.196253182013104     
  0.196251557549923     
  0.196250095730046     
  0.196248796491424     
  0.196247659778816     
  0.196246685543817     
  0.196245873744888     
  0.196245224347377     
  0.196244737323541     
  0.196244412652556     
  0.196244250320537     
  0.196211711268264     
  0.196209431914470     
  0.196207315814770     
  0.196205362871218     
  0.196203572993200     
  0.196201946097483     
  0.196200482108262     
  0.196199180957197     
  0.196198042583451     
  0.196197066933722     
  0.196196253962272     
  0.196195603630946     
  0.196195115909201     
  0.196194790774112     
  0.196194628210391     
  0.196160904956319     
  0.196158622822505     
  0.196156504184186     
  0.196154548933912     
  0.196152756972291     
  0.196151128208039     
  0.196149662558027     
  0.196148359947325     
  0.196147220309231     
  0.196146243585313     
  0.196145429725430     
  0.196144778687762     
  0.196144290438829     
  0.196143964953505     
  0.196143802215033     
  0.196108886990377     
  0.196106602934650     
  0.196104482556557     
  0.196102525738688     
  0.196100732372457     
  0.196099102358148     
  0.196097635604964     
  0.196096332031068     
  0.196095191563620     
  0.196094214138814     
  0.196093399701902     
  0.196092748207221     
  0.196092259618218     
  0.196091933907462     
  0.196091771056659     
  0.196055655955701     
  0.196053370915920     
  0.196051249671012     
  0.196049292093143     
  0.196047498064103     
  0.196045867475351     
  0.196044400228065     
  0.196043096233182     
  0.196041955411438     
  0.196040977693401     
  0.196040163019501     
  0.196039511340057     
  0.196039022615296     
  0.196038696815376     
  0.196038533920393     
  0.196001210914091     
  0.195998925911721     
  0.195996804750648     
  0.195994847292139     
  0.195993053407919     
  0.195991422980220     
  0.195989955901829     
  0.195988652076126     
  0.195987511417128     
  0.195986533849520     
  0.195985719308688     
  0.195985067740747     
  0.195984579102560     
  0.195984253361759     
  0.195984090496755     
  0.195945551447470     
  0.195943267591558     
  0.195941147546348     
  0.195939191161724     
  0.195937398298899     
  0.195935768830466     
  0.195934302640443     
  0.195932999624314     
  0.195931859689074     
  0.195930882753260     
  0.195930068746987     
  0.195929417611971     
  0.195928929301558     
  0.195928603780739     
  0.195928441026167     
  0.195888677703638     
  0.195886396194889     
  0.195884278382736     
  0.195882324105186     
  0.195880533212484     
  0.195878905567160     
  0.195877441044078     
  0.195876139530481     
  0.195875000926028     
  0.195874025142834     
  0.195873212105504     
  0.195872561751161     
  0.195872074029472     
  0.195871748902670     
  0.195871586345567     
  0.195830590444225     
  0.195828312579187     
  0.195826198206332     
  0.195824247151293     
  0.195822459252880     
  0.195820834363133     
  0.195819372347368     
  0.195818073084226     
  0.195816936465709     
  0.195815962397227     
  0.195815150797629     
  0.195814501599239     
  0.195814014747882     
  0.195813690202903     
  0.195813527937194     
  0.195771291094939     
  0.195769018270262     
  0.195766908635959     
  0.195764962004779     
  0.195763178203629     
  0.195761557073619     
  0.195760098470113     
  0.195758802262777     
  0.195757668335628     
  0.195756696587074     
  0.195755886929952     
  0.195755239291573     
  0.195754753613741     
  0.195754429852791     
  0.195754267979598     
  0.195710781798139     
  0.195708515514914     
  0.195706412015460     
  0.195704471099138     
  0.195702692580467     
  0.195701076289180     
  0.195699622070271     
  0.195698329784052     
  0.195697199306204     
  0.195696230527823     
  0.195695423355470     
  0.195694777711211     
  0.195694293532652     
  0.195693970772971     
  0.195693809400939     
  0.195649065467800     
  0.195646807335941     
  0.195644711468772     
  0.195642777651748     
  0.195641005686514     
  0.195639395390960     
  0.195637946599280     
  0.195636659162029     
  0.195635532946189     
  0.195634567835218     
  0.195633763729113     
  0.195633120544456     
  0.195632638214454     
  0.195632316688982     
  0.195632155934607     
  0.195586145846872     
  0.195583897589543     
  0.195581810957367     
  0.195579885721373     
  0.195578121669830     
  0.195576518608303     
  0.195575076359730     
  0.195573794764490     
  0.195572673680471     
  0.195571712983148     
  0.195570912565643     
  0.195570272338792     
  0.195569792231191     
  0.195569472189250     
  0.195569312177219     
  0.195522027567072     
  0.195519791025121     
  0.195517715340088     
  0.195515800268042     
  0.195514045583347     
  0.195512451078740     
  0.195511016565420     
  0.195509741873130     
  0.195508626850248     
  0.195507671363880     
  0.195506875299937     
  0.195506238563219     
  0.195505761077476     
  0.195505442785469     
  0.195505283649016     
  0.195456716211075     
  0.195454493347475     
  0.195452430435366     
  0.195450527215297     
  0.195448783447173     
  0.195447198910360     
  0.195445773403789     
  0.195444506746070     
  0.195443398775604     
  0.195442449350702     
  0.195441658349687     
  0.195441025670998     
  0.195440551233273     
  0.195440234975424     
  0.195440076856694     
  0.195390218377069     
  0.195388011281345     
  0.195385963085776     
  0.195384073514794     
  0.195382342313248     
  0.195380769246531     
  0.195379354100722     
  0.195378096682737     
  0.195376996820474     
  0.195376054362965     
  0.195375269180514     
  0.195374641164827     
  0.195374170229124     
  0.195373856308233     
  0.195373699358667     
  0.195322541745600     
  0.195320352638234     
  0.195318321224878     
  0.195316447213195     
  0.195314730332304     
  0.195313170332949     
  0.195311766987693     
  0.195310520091111     
  0.195309429459989     
  0.195308494933520     
  0.195307716373486     
  0.195307093664427     
  0.195306626713788     
  0.195306315452039     
  0.195306159832774     
  0.195253695148583     
  0.195251526385408     
  0.195249513946248     
  0.195247657521257     
  0.195245956823050     
  0.195244411586939     
  0.195243021571187     
  0.195241786557273     
  0.195240706350152     
  0.195239780778515     
  0.195239009695026     
  0.195238392976544     
  0.195237930524311     
  0.195237622264117     
  0.195237468146417     
  0.195183688640323     
  0.195181542716918     
  0.195179551574558     
  0.195177714885016     
  0.195176032343489     
  0.195174503668917     
  0.195173128604331     
  0.195171906917205     
  0.195170838399800     
  0.195169922869505     
  0.195169160169151     
  0.195168550167295     
  0.195168092758469     
  0.195167787863384     
  0.195167635429092     
  0.195112533570312     
  0.195110413126448     
  0.195108445738534     
  0.195106631058906     
  0.195104968764222     
  0.195103458555911     
  0.195102100160632     
  0.195100893330745     
  0.195099837844765     
  0.195098933507810     
  0.195098180152003     
  0.195097577636847     
  0.195097125849540     
  0.195096824705242     
  0.195096674147279     
  0.195040242657549     
  0.195038150481752     
  0.195036209445583     
  0.195034419180614     
  0.195032779343580     
  0.195031289616979     
  0.195029949709688     
  0.195028759357585     
  0.195027718324148     
  0.195026826401027     
  0.195026083408574     
  0.195025489196314     
  0.195025043643355     
  0.195024746658725     
  0.195024598181630     
  0.194966830066025     
  0.194964769100377     
  0.194962857157815     
  0.194961093847467     
  0.194959478804388     
  0.194958011690362     
  0.194956692194729     
  0.194955520035185     
  0.194954494958571     
  0.194953616741601     
  0.194952885191542     
  0.194952300146816     
  0.194951861477514     
  0.194951569085824     
  0.194951422906354     
  0.194892311481000     
  0.194890284826335     
  0.194888404869187     
  0.194886671194072     
  0.194885083412126     
  0.194883641162176     
  0.194882344111814     
  0.194881191958443     
  0.194880184430285     
  0.194879321287309     
  0.194878602322090     
  0.194878027360565     
  0.194877596262679     
  0.194877308922920     
  0.194877165270717     
  0.194816704185607     
  0.194814715107340     
  0.194812870183420     
  0.194811168970945     
  0.194809611054272     
  0.194808196046427     
  0.194806923590494     
  0.194805793360954     
  0.194804805064964     
  0.194803958443525     
  0.194803253272557     
  0.194802689363833     
  0.194802266565785     
  0.194801984764157     
  0.194801843882497     
  0.194740027137324     
  0.194738079072211     
  0.194736272392367     
  0.194734606623836     
  0.194733081320549     
  0.194731696066144     
  0.194730450475748     
  0.194729344197675     
  0.194728376915010     
  0.194727548347081     
  0.194726858250767     
  0.194726306421656     
  0.194725892695018     
  0.194725616946602     
  0.194725479093237     
  0.194662301043804     
  0.194660397608044     
  0.194658632554503     
  0.194657005373489     
  0.194655515583868     
  0.194654162735403     
  0.194652946410995     
  0.194651866228797     
  0.194650921844183     
  0.194650112951529     
  0.194649439285821     
  0.194648900624036     
  0.194648496786327     
  0.194648227636967     
  0.194648093085068     
  0.194583548437626     
  0.194581693436802     
  0.194579973573269     
  0.194578388295600     
  0.194576937081766     
  0.194575619442082     
  0.194574434921987     
  0.194573383104648     
  0.194572463613337     
  0.194571676113588     
  0.194571020315103     
  0.194570495973403     
  0.194570102891220     
  0.194569840919616     
  0.194569709958826     
  0.194503793749627     
  0.194501991191107     
  0.194500320275109     
  0.194498780400876     
  0.194497370998226     
  0.194496091531197     
  0.194494941501450     
  0.194493920451396     
  0.194493027967033     
  0.194492263680481     
  0.194491627272217     
  0.194491118473000     
  0.194490737065482     
  0.194490482885511     
  0.194490355823103     
  0.194423063380698     
  0.194421317489238     
  0.194419699487281     
  0.194418208715245     
  0.194416844545897     
  0.194415606388787     
  0.194414493694309     
  0.194413505957383     
  0.194412642720740     
  0.194411903577845     
  0.194411288175449     
  0.194410796215782     
  0.194410427458395     
  0.194410181721638     
  0.194410058883785     
  0.194341385772372     
  0.194339701009746     
  0.194338140115830     
  0.194336702360547     
  0.194335387048928     
  0.194334193526383     
  0.194333121183410     
  0.194332169459779     
  0.194331337848227     
  0.194330625897706     
  0.194330033216218     
  0.194329559473258     
  0.194329204401876     
  0.194328967800361     
  0.194328849533512     
  0.194258791477227     
  0.194257172566753     
  0.194255673224702     
  0.194254292636454     
  0.194253030026845     
  0.194251884666195     
  0.194250855875542     
  0.194249943031171     
  0.194249145568562     
  0.194248462985834     
  0.194247894846780     
  0.194247440783530     
  0.194247100498841     
  0.194246873768017     
  0.194246760440401     
  0.194175313231363     
  0.194173765188139     
  0.194172332117849     
  0.194171013104974     
  0.194169807280246     
  0.194168713827162     
  0.194167731987387     
  0.194166861065256     
  0.194166100431627     
  0.194165449527283     
  0.194164907866024     
  0.194164475037518     
  0.194164150709893     
  0.194163934632028     
  0.194163826635398     
  0.194090986033342     
  0.194089514200601     
  0.194088152427567     
  0.194086899679713     
  0.194085754979311     
  0.194084717411757     
  0.194083786130343     
  0.194082960359945     
  0.194082239400139     
  0.194081622628104     
  0.194081109501586     
  0.194080699561972     
  0.194080392437444     
  0.194080187845964     
  0.194080085597892     
  0.194005847237586     
  0.194004457328704     
  0.194003172214522     
  0.194001990723259     
  0.194000911756246     
  0.193999934292588     
  0.193999057391613     
  0.193998280194261     
  0.193997601924201     
  0.193997021889539     
  0.193996539485375     
  0.193996154197461     
  0.193995865606471     
  0.193995673392706     
  0.193995577340236     
  0.193919936676657     
  0.193918634820292     
  0.193917432088457     
  0.193916327157524     
  0.193915318802255     
  0.193914405895533     
  0.193913587405473     
  0.193912862391300     
  0.193912230000491     
  0.193911689467836     
  0.193911240117738     
  0.193910881368965     
  0.193910612742193     
  0.193910433867843     
  0.193910344494440     
  0.193833296838684     
  0.193832089619857     
  0.193830975364373     
  0.193829952593866     
  0.193829019967428     
  0.193828176270883     
  0.193827420400952     
  0.193826751351213     
  0.193826168200232     
  0.193825670106922     
  0.193825256311816     
  0.193824926146725     
  0.193824679047151     
  0.193824514570564     
  0.193824432410398     
  0.193745973146450     
  0.193744867628273     
  0.193743848278975     
  0.193742913491059     
  0.193742061856978     
  0.193741292131624     
  0.193740603196676     
  0.193739994020689     
  0.193739463634888     
  0.193739011118654     
  0.193738635604803     
  0.193738336293751     
  0.193738112488173     
  0.193737963619236     
  0.193737889289046     
  0.193658014429475     
  0.193657018116181     
  0.193656100306858     
  0.193655259353570     
  0.193654493900525     
  0.193653802814817     
  0.193653185079746     
  0.193652639731903     
  0.193652165796048     
  0.193651762265998     
  0.193651428106567     
  0.193651162305444     
  0.193650963910785     
  0.193650832138349     
  0.193650766401003     
  0.193569473732611     
  0.193568594418417     
  0.193567784654327     
  0.193567042964281     
  0.193566368354701     
  0.193565760060008     
  0.193565217443311     
  0.193564739773143     
  0.193564326150167     
  0.193563975448751     
  0.193563686357838     
  0.193563457421651     
  0.193563287263156     
  0.193563174587604     
  0.193563118512577     
  0.193480409861374     
  0.193479655131694     
  0.193478959000345     
  0.193478320710951     
  0.193477740066973     
  0.193477217422752     
  0.193476752915375     
  0.193476346421307     
  0.193475997239881     
  0.193475704049265     
  0.193475464941248     
  0.193475277740152     
  0.193475139919331     
  0.193475049535608     
  0.193475004720155     
  0.193390889858008     
  0.193390266243189     
  0.193389686950595     
  0.193389152633582     
  0.193388665934675     
  0.193388228798707     
  0.193387843475401     
  0.193387510931720     
  0.193387230841129     
  0.193387001497679     
  0.193386819947205     
  0.193386681986884     
  0.193386583939156     
  0.193386520785752     
  0.193386490409178     
  0.193300995609911     
  0.193300505359506     
  0.193300038985660     
  0.193299603385388     
  0.193299202575081     
  0.193298845383788     
  0.193298536623558     
  0.193298279484169     
  0.193298074380193     
  0.193297918610409     
  0.193297806955405     
  0.193297732931614     
  0.193297685956311     
  0.193297662218162     
  0.193297650474528     
  0.193210829092892     
  0.193210466615712     
  0.193210101135275     
  0.193209736372177     
  0.193209402921012     
  0.193209109205201     
  0.193208867814311     
  0.193208685787288     
  0.193208564049560     
  0.193208498377270     
  0.193208479023520     
  0.193208491969300     
  0.193208528993192     
  0.193208556028345     
  0.193208581745179     
  0.193120560795675     
  0.193120295528153     
  0.193119946777782     
  0.193119621451672     
  0.193119301039488     
  0.193119036420720     
  0.193118849026666     
  0.193118742337966     
  0.193118714540850     
  0.193118761837506     
  0.193118875722341     
  0.193119031455307     
  0.193119179464367     
  0.193119350592274     
  0.193119405838716     
  0.193030416217170     
  0.193030075607968     
  0.193029771392987     
  0.193029254533773     
  0.193028848713816     
  0.193028593764785     
  0.193028465609137     
  0.193028443441059     
  0.193028516981304     
  0.193028687382833     
  0.193028966256966     
  0.193029368370861     
  0.193029845639673     
  0.193030079736611     
  0.193030438693580     
  0.192941030648402     
  0.192940878383329     
  0.192939182133663     
  0.192938283632743     
  0.192937877506132     
  0.192937720155852     
  0.192937710180664     
  0.192937800299525     
  0.192937972704039     
  0.192938232423264     
  0.192938613449204     
  0.192939201651621     
  0.192940216817251     
  0.192941911211767     
  0.192941835239738     
  0.192857441302648     
  0.192848275047962     
  0.192846592731648     
  0.192846296222713     
  0.192846305648653     
  0.192846448651803     
  0.192846657301499     
  0.192846901098153     
  0.192847165856470     
  0.192847449836143     
  0.192847768254727     
  0.192848175135888     
  0.192848829463184     
  0.192850784715046     
  0.192859919079715     
