# vtk DataFile Version 3.0
vtk output
ASCII
DATASET UNSTRUCTURED_GRID
POINTS      1456 double 
  0.00000000E+00  1.00000000E+01  0.00000000E+00
  0.00000000E+00  9.33333333E+00  0.00000000E+00
  0.00000000E+00  8.66666667E+00  0.00000000E+00
  0.00000000E+00  8.00000000E+00  0.00000000E+00
  0.00000000E+00  7.33333333E+00  0.00000000E+00
  0.00000000E+00  6.66666667E+00  0.00000000E+00
  0.00000000E+00  6.00000000E+00  0.00000000E+00
  0.00000000E+00  5.33333333E+00  0.00000000E+00
  0.00000000E+00  4.66666667E+00  0.00000000E+00
  0.00000000E+00  4.00000000E+00  0.00000000E+00
  0.00000000E+00  3.33333333E+00  0.00000000E+00
  0.00000000E+00  2.66666667E+00  0.00000000E+00
  0.00000000E+00  2.00000000E+00  0.00000000E+00
  0.00000000E+00  1.33333333E+00  0.00000000E+00
  0.00000000E+00  6.66666667E-01  0.00000000E+00
  0.00000000E+00  1.66533454E-15  0.00000000E+00
  1.11111111E+00  1.00000000E+01  0.00000000E+00
  1.11111111E+00  9.33333333E+00  0.00000000E+00
  1.11111111E+00  8.66666667E+00  0.00000000E+00
  1.11111111E+00  8.00000000E+00  0.00000000E+00
  1.11111111E+00  7.33333333E+00  0.00000000E+00
  1.11111111E+00  6.66666667E+00  0.00000000E+00
  1.11111111E+00  6.00000000E+00  0.00000000E+00
  1.11111111E+00  5.33333333E+00  0.00000000E+00
  1.11111111E+00  4.66666667E+00  0.00000000E+00
  1.11111111E+00  4.00000000E+00  0.00000000E+00
  1.11111111E+00  3.33333333E+00  0.00000000E+00
  1.11111111E+00  2.66666667E+00  0.00000000E+00
  1.11111111E+00  2.00000000E+00  0.00000000E+00
  1.11111111E+00  1.33333333E+00  0.00000000E+00
  1.11111111E+00  6.66666667E-01  0.00000000E+00
  1.11111111E+00  1.66533454E-15  0.00000000E+00
  2.22222222E+00  1.00000000E+01  0.00000000E+00
  2.22222222E+00  9.33333333E+00  0.00000000E+00
  2.22222222E+00  8.66666667E+00  0.00000000E+00
  2.22222222E+00  8.00000000E+00  0.00000000E+00
  2.22222222E+00  7.33333333E+00  0.00000000E+00
  2.22222222E+00  6.66666667E+00  0.00000000E+00
  2.22222222E+00  6.00000000E+00  0.00000000E+00
  2.22222222E+00  5.33333333E+00  0.00000000E+00
  2.22222222E+00  4.66666667E+00  0.00000000E+00
  2.22222222E+00  4.00000000E+00  0.00000000E+00
  2.22222222E+00  3.33333333E+00  0.00000000E+00
  2.22222222E+00  2.66666667E+00  0.00000000E+00
  2.22222222E+00  2.00000000E+00  0.00000000E+00
  2.22222222E+00  1.33333333E+00  0.00000000E+00
  2.22222222E+00  6.66666667E-01  0.00000000E+00
  2.22222222E+00  1.66533454E-15  0.00000000E+00
  3.33333333E+00  1.00000000E+01  0.00000000E+00
  3.33333333E+00  9.33333333E+00  0.00000000E+00
  3.33333333E+00  8.66666667E+00  0.00000000E+00
  3.33333333E+00  8.00000000E+00  0.00000000E+00
  3.33333333E+00  7.33333333E+00  0.00000000E+00
  3.33333333E+00  6.66666667E+00  0.00000000E+00
  3.33333333E+00  6.00000000E+00  0.00000000E+00
  3.33333333E+00  5.33333333E+00  0.00000000E+00
  3.33333333E+00  4.66666667E+00  0.00000000E+00
  3.33333333E+00  4.00000000E+00  0.00000000E+00
  3.33333333E+00  3.33333333E+00  0.00000000E+00
  3.33333333E+00  2.66666667E+00  0.00000000E+00
  3.33333333E+00  2.00000000E+00  0.00000000E+00
  3.33333333E+00  1.33333333E+00  0.00000000E+00
  3.33333333E+00  6.66666667E-01  0.00000000E+00
  3.33333333E+00  1.66533454E-15  0.00000000E+00
  4.44444444E+00  1.00000000E+01  0.00000000E+00
  4.44444444E+00  9.33333333E+00  0.00000000E+00
  4.44444444E+00  8.66666667E+00  0.00000000E+00
  4.44444444E+00  8.00000000E+00  0.00000000E+00
  4.44444444E+00  7.33333333E+00  0.00000000E+00
  4.44444444E+00  6.66666667E+00  0.00000000E+00
  4.44444444E+00  6.00000000E+00  0.00000000E+00
  4.44444444E+00  5.33333333E+00  0.00000000E+00
  4.44444444E+00  4.66666667E+00  0.00000000E+00
  4.44444444E+00  4.00000000E+00  0.00000000E+00
  4.44444444E+00  3.33333333E+00  0.00000000E+00
  4.44444444E+00  2.66666667E+00  0.00000000E+00
  4.44444444E+00  2.00000000E+00  0.00000000E+00
  4.44444444E+00  1.33333333E+00  0.00000000E+00
  4.44444444E+00  6.66666667E-01  0.00000000E+00
  4.44444444E+00  1.66533454E-15  0.00000000E+00
  5.55555556E+00  1.00000000E+01  0.00000000E+00
  5.55555556E+00  9.33333333E+00  0.00000000E+00
  5.55555556E+00  8.66666667E+00  0.00000000E+00
  5.55555556E+00  8.00000000E+00  0.00000000E+00
  5.55555556E+00  7.33333333E+00  0.00000000E+00
  5.55555556E+00  6.66666667E+00  0.00000000E+00
  5.55555556E+00  6.00000000E+00  0.00000000E+00
  5.55555556E+00  5.33333333E+00  0.00000000E+00
  5.55555556E+00  4.66666667E+00  0.00000000E+00
  5.55555556E+00  4.00000000E+00  0.00000000E+00
  5.55555556E+00  3.33333333E+00  0.00000000E+00
  5.55555556E+00  2.66666667E+00  0.00000000E+00
  5.55555556E+00  2.00000000E+00  0.00000000E+00
  5.55555556E+00  1.33333333E+00  0.00000000E+00
  5.55555556E+00  6.66666667E-01  0.00000000E+00
  5.55555556E+00  1.66533454E-15  0.00000000E+00
  6.66666667E+00  1.00000000E+01  0.00000000E+00
  6.66666667E+00  9.33333333E+00  0.00000000E+00
  6.66666667E+00  8.66666667E+00  0.00000000E+00
  6.66666667E+00  8.00000000E+00  0.00000000E+00
  6.66666667E+00  7.33333333E+00  0.00000000E+00
  6.66666667E+00  6.66666667E+00  0.00000000E+00
  6.66666667E+00  6.00000000E+00  0.00000000E+00
  6.66666667E+00  5.33333333E+00  0.00000000E+00
  6.66666667E+00  4.66666667E+00  0.00000000E+00
  6.66666667E+00  4.00000000E+00  0.00000000E+00
  6.66666667E+00  3.33333333E+00  0.00000000E+00
  6.66666667E+00  2.66666667E+00  0.00000000E+00
  6.66666667E+00  2.00000000E+00  0.00000000E+00
  6.66666667E+00  1.33333333E+00  0.00000000E+00
  6.66666667E+00  6.66666667E-01  0.00000000E+00
  6.66666667E+00  1.66533454E-15  0.00000000E+00
  7.77777778E+00  1.00000000E+01  0.00000000E+00
  7.77777778E+00  9.33333333E+00  0.00000000E+00
  7.77777778E+00  8.66666667E+00  0.00000000E+00
  7.77777778E+00  8.00000000E+00  0.00000000E+00
  7.77777778E+00  7.33333333E+00  0.00000000E+00
  7.77777778E+00  6.66666667E+00  0.00000000E+00
  7.77777778E+00  6.00000000E+00  0.00000000E+00
  7.77777778E+00  5.33333333E+00  0.00000000E+00
  7.77777778E+00  4.66666667E+00  0.00000000E+00
  7.77777778E+00  4.00000000E+00  0.00000000E+00
  7.77777778E+00  3.33333333E+00  0.00000000E+00
  7.77777778E+00  2.66666667E+00  0.00000000E+00
  7.77777778E+00  2.00000000E+00  0.00000000E+00
  7.77777778E+00  1.33333333E+00  0.00000000E+00
  7.77777778E+00  6.66666667E-01  0.00000000E+00
  7.77777778E+00  1.66533454E-15  0.00000000E+00
  8.88888889E+00  1.00000000E+01  0.00000000E+00
  8.88888889E+00  9.33333333E+00  0.00000000E+00
  8.88888889E+00  8.66666667E+00  0.00000000E+00
  8.88888889E+00  8.00000000E+00  0.00000000E+00
  8.88888889E+00  7.33333333E+00  0.00000000E+00
  8.88888889E+00  6.66666667E+00  0.00000000E+00
  8.88888889E+00  6.00000000E+00  0.00000000E+00
  8.88888889E+00  5.33333333E+00  0.00000000E+00
  8.88888889E+00  4.66666667E+00  0.00000000E+00
  8.88888889E+00  4.00000000E+00  0.00000000E+00
  8.88888889E+00  3.33333333E+00  0.00000000E+00
  8.88888889E+00  2.66666667E+00  0.00000000E+00
  8.88888889E+00  2.00000000E+00  0.00000000E+00
  8.88888889E+00  1.33333333E+00  0.00000000E+00
  8.88888889E+00  6.66666667E-01  0.00000000E+00
  8.88888889E+00  1.66533454E-15  0.00000000E+00
  1.00000000E+01  1.00000000E+01  0.00000000E+00
  1.00000000E+01  9.33333333E+00  0.00000000E+00
  1.00000000E+01  8.66666667E+00  0.00000000E+00
  1.00000000E+01  8.00000000E+00  0.00000000E+00
  1.00000000E+01  7.33333333E+00  0.00000000E+00
  1.00000000E+01  6.66666667E+00  0.00000000E+00
  1.00000000E+01  6.00000000E+00  0.00000000E+00
  1.00000000E+01  5.33333333E+00  0.00000000E+00
  1.00000000E+01  4.66666667E+00  0.00000000E+00
  1.00000000E+01  4.00000000E+00  0.00000000E+00
  1.00000000E+01  3.33333333E+00  0.00000000E+00
  1.00000000E+01  2.66666667E+00  0.00000000E+00
  1.00000000E+01  2.00000000E+00  0.00000000E+00
  1.00000000E+01  1.33333333E+00  0.00000000E+00
  1.00000000E+01  6.66666667E-01  0.00000000E+00
  1.00000000E+01  1.66533454E-15  0.00000000E+00
  1.11111111E+01  1.00000000E+01  0.00000000E+00
  1.11111111E+01  9.33333333E+00  0.00000000E+00
  1.11111111E+01  8.66666667E+00  0.00000000E+00
  1.11111111E+01  8.00000000E+00  0.00000000E+00
  1.11111111E+01  7.33333333E+00  0.00000000E+00
  1.11111111E+01  6.66666667E+00  0.00000000E+00
  1.11111111E+01  6.00000000E+00  0.00000000E+00
  1.11111111E+01  5.33333333E+00  0.00000000E+00
  1.11111111E+01  4.66666667E+00  0.00000000E+00
  1.11111111E+01  4.00000000E+00  0.00000000E+00
  1.11111111E+01  3.33333333E+00  0.00000000E+00
  1.11111111E+01  2.66666667E+00  0.00000000E+00
  1.11111111E+01  2.00000000E+00  0.00000000E+00
  1.11111111E+01  1.33333333E+00  0.00000000E+00
  1.11111111E+01  6.66666667E-01  0.00000000E+00
  1.11111111E+01  1.66533454E-15  0.00000000E+00
  1.22222222E+01  1.00000000E+01  0.00000000E+00
  1.22222222E+01  9.33333333E+00  0.00000000E+00
  1.22222222E+01  8.66666667E+00  0.00000000E+00
  1.22222222E+01  8.00000000E+00  0.00000000E+00
  1.22222222E+01  7.33333333E+00  0.00000000E+00
  1.22222222E+01  6.66666667E+00  0.00000000E+00
  1.22222222E+01  6.00000000E+00  0.00000000E+00
  1.22222222E+01  5.33333333E+00  0.00000000E+00
  1.22222222E+01  4.66666667E+00  0.00000000E+00
  1.22222222E+01  4.00000000E+00  0.00000000E+00
  1.22222222E+01  3.33333333E+00  0.00000000E+00
  1.22222222E+01  2.66666667E+00  0.00000000E+00
  1.22222222E+01  2.00000000E+00  0.00000000E+00
  1.22222222E+01  1.33333333E+00  0.00000000E+00
  1.22222222E+01  6.66666667E-01  0.00000000E+00
  1.22222222E+01  1.66533454E-15  0.00000000E+00
  1.33333333E+01  1.00000000E+01  0.00000000E+00
  1.33333333E+01  9.33333333E+00  0.00000000E+00
  1.33333333E+01  8.66666667E+00  0.00000000E+00
  1.33333333E+01  8.00000000E+00  0.00000000E+00
  1.33333333E+01  7.33333333E+00  0.00000000E+00
  1.33333333E+01  6.66666667E+00  0.00000000E+00
  1.33333333E+01  6.00000000E+00  0.00000000E+00
  1.33333333E+01  5.33333333E+00  0.00000000E+00
  1.33333333E+01  4.66666667E+00  0.00000000E+00
  1.33333333E+01  4.00000000E+00  0.00000000E+00
  1.33333333E+01  3.33333333E+00  0.00000000E+00
  1.33333333E+01  2.66666667E+00  0.00000000E+00
  1.33333333E+01  2.00000000E+00  0.00000000E+00
  1.33333333E+01  1.33333333E+00  0.00000000E+00
  1.33333333E+01  6.66666667E-01  0.00000000E+00
  1.33333333E+01  1.66533454E-15  0.00000000E+00
  1.44444444E+01  1.00000000E+01  0.00000000E+00
  1.44444444E+01  9.33333333E+00  0.00000000E+00
  1.44444444E+01  8.66666667E+00  0.00000000E+00
  1.44444444E+01  8.00000000E+00  0.00000000E+00
  1.44444444E+01  7.33333333E+00  0.00000000E+00
  1.44444444E+01  6.66666667E+00  0.00000000E+00
  1.44444444E+01  6.00000000E+00  0.00000000E+00
  1.44444444E+01  5.33333333E+00  0.00000000E+00
  1.44444444E+01  4.66666667E+00  0.00000000E+00
  1.44444444E+01  4.00000000E+00  0.00000000E+00
  1.44444444E+01  3.33333333E+00  0.00000000E+00
  1.44444444E+01  2.66666667E+00  0.00000000E+00
  1.44444444E+01  2.00000000E+00  0.00000000E+00
  1.44444444E+01  1.33333333E+00  0.00000000E+00
  1.44444444E+01  6.66666667E-01  0.00000000E+00
  1.44444444E+01  1.66533454E-15  0.00000000E+00
  1.55555556E+01  1.00000000E+01  0.00000000E+00
  1.55555556E+01  9.33333333E+00  0.00000000E+00
  1.55555556E+01  8.66666667E+00  0.00000000E+00
  1.55555556E+01  8.00000000E+00  0.00000000E+00
  1.55555556E+01  7.33333333E+00  0.00000000E+00
  1.55555556E+01  6.66666667E+00  0.00000000E+00
  1.55555556E+01  6.00000000E+00  0.00000000E+00
  1.55555556E+01  5.33333333E+00  0.00000000E+00
  1.55555556E+01  4.66666667E+00  0.00000000E+00
  1.55555556E+01  4.00000000E+00  0.00000000E+00
  1.55555556E+01  3.33333333E+00  0.00000000E+00
  1.55555556E+01  2.66666667E+00  0.00000000E+00
  1.55555556E+01  2.00000000E+00  0.00000000E+00
  1.55555556E+01  1.33333333E+00  0.00000000E+00
  1.55555556E+01  6.66666667E-01  0.00000000E+00
  1.55555556E+01  1.66533454E-15  0.00000000E+00
  1.66666667E+01  1.00000000E+01  0.00000000E+00
  1.66666667E+01  9.33333333E+00  0.00000000E+00
  1.66666667E+01  8.66666667E+00  0.00000000E+00
  1.66666667E+01  8.00000000E+00  0.00000000E+00
  1.66666667E+01  7.33333333E+00  0.00000000E+00
  1.66666667E+01  6.66666667E+00  0.00000000E+00
  1.66666667E+01  6.00000000E+00  0.00000000E+00
  1.66666667E+01  5.33333333E+00  0.00000000E+00
  1.66666667E+01  4.66666667E+00  0.00000000E+00
  1.66666667E+01  4.00000000E+00  0.00000000E+00
  1.66666667E+01  3.33333333E+00  0.00000000E+00
  1.66666667E+01  2.66666667E+00  0.00000000E+00
  1.66666667E+01  2.00000000E+00  0.00000000E+00
  1.66666667E+01  1.33333333E+00  0.00000000E+00
  1.66666667E+01  6.66666667E-01  0.00000000E+00
  1.66666667E+01  1.66533454E-15  0.00000000E+00
  1.77777778E+01  1.00000000E+01  0.00000000E+00
  1.77777778E+01  9.33333333E+00  0.00000000E+00
  1.77777778E+01  8.66666667E+00  0.00000000E+00
  1.77777778E+01  8.00000000E+00  0.00000000E+00
  1.77777778E+01  7.33333333E+00  0.00000000E+00
  1.77777778E+01  6.66666667E+00  0.00000000E+00
  1.77777778E+01  6.00000000E+00  0.00000000E+00
  1.77777778E+01  5.33333333E+00  0.00000000E+00
  1.77777778E+01  4.66666667E+00  0.00000000E+00
  1.77777778E+01  4.00000000E+00  0.00000000E+00
  1.77777778E+01  3.33333333E+00  0.00000000E+00
  1.77777778E+01  2.66666667E+00  0.00000000E+00
  1.77777778E+01  2.00000000E+00  0.00000000E+00
  1.77777778E+01  1.33333333E+00  0.00000000E+00
  1.77777778E+01  6.66666667E-01  0.00000000E+00
  1.77777778E+01  1.66533454E-15  0.00000000E+00
  1.88888889E+01  1.00000000E+01  0.00000000E+00
  1.88888889E+01  9.33333333E+00  0.00000000E+00
  1.88888889E+01  8.66666667E+00  0.00000000E+00
  1.88888889E+01  8.00000000E+00  0.00000000E+00
  1.88888889E+01  7.33333333E+00  0.00000000E+00
  1.88888889E+01  6.66666667E+00  0.00000000E+00
  1.88888889E+01  6.00000000E+00  0.00000000E+00
  1.88888889E+01  5.33333333E+00  0.00000000E+00
  1.88888889E+01  4.66666667E+00  0.00000000E+00
  1.88888889E+01  4.00000000E+00  0.00000000E+00
  1.88888889E+01  3.33333333E+00  0.00000000E+00
  1.88888889E+01  2.66666667E+00  0.00000000E+00
  1.88888889E+01  2.00000000E+00  0.00000000E+00
  1.88888889E+01  1.33333333E+00  0.00000000E+00
  1.88888889E+01  6.66666667E-01  0.00000000E+00
  1.88888889E+01  1.66533454E-15  0.00000000E+00
  2.00000000E+01  1.00000000E+01  0.00000000E+00
  2.00000000E+01  9.33333333E+00  0.00000000E+00
  2.00000000E+01  8.66666667E+00  0.00000000E+00
  2.00000000E+01  8.00000000E+00  0.00000000E+00
  2.00000000E+01  7.33333333E+00  0.00000000E+00
  2.00000000E+01  6.66666667E+00  0.00000000E+00
  2.00000000E+01  6.00000000E+00  0.00000000E+00
  2.00000000E+01  5.33333333E+00  0.00000000E+00
  2.00000000E+01  4.66666667E+00  0.00000000E+00
  2.00000000E+01  4.00000000E+00  0.00000000E+00
  2.00000000E+01  3.33333333E+00  0.00000000E+00
  2.00000000E+01  2.66666667E+00  0.00000000E+00
  2.00000000E+01  2.00000000E+00  0.00000000E+00
  2.00000000E+01  1.33333333E+00  0.00000000E+00
  2.00000000E+01  6.66666667E-01  0.00000000E+00
  2.00000000E+01  1.66533454E-15  0.00000000E+00
  2.11111111E+01  1.00000000E+01  0.00000000E+00
  2.11111111E+01  9.33333333E+00  0.00000000E+00
  2.11111111E+01  8.66666667E+00  0.00000000E+00
  2.11111111E+01  8.00000000E+00  0.00000000E+00
  2.11111111E+01  7.33333333E+00  0.00000000E+00
  2.11111111E+01  6.66666667E+00  0.00000000E+00
  2.11111111E+01  6.00000000E+00  0.00000000E+00
  2.11111111E+01  5.33333333E+00  0.00000000E+00
  2.11111111E+01  4.66666667E+00  0.00000000E+00
  2.11111111E+01  4.00000000E+00  0.00000000E+00
  2.11111111E+01  3.33333333E+00  0.00000000E+00
  2.11111111E+01  2.66666667E+00  0.00000000E+00
  2.11111111E+01  2.00000000E+00  0.00000000E+00
  2.11111111E+01  1.33333333E+00  0.00000000E+00
  2.11111111E+01  6.66666667E-01  0.00000000E+00
  2.11111111E+01  1.66533454E-15  0.00000000E+00
  2.22222222E+01  1.00000000E+01  0.00000000E+00
  2.22222222E+01  9.33333333E+00  0.00000000E+00
  2.22222222E+01  8.66666667E+00  0.00000000E+00
  2.22222222E+01  8.00000000E+00  0.00000000E+00
  2.22222222E+01  7.33333333E+00  0.00000000E+00
  2.22222222E+01  6.66666667E+00  0.00000000E+00
  2.22222222E+01  6.00000000E+00  0.00000000E+00
  2.22222222E+01  5.33333333E+00  0.00000000E+00
  2.22222222E+01  4.66666667E+00  0.00000000E+00
  2.22222222E+01  4.00000000E+00  0.00000000E+00
  2.22222222E+01  3.33333333E+00  0.00000000E+00
  2.22222222E+01  2.66666667E+00  0.00000000E+00
  2.22222222E+01  2.00000000E+00  0.00000000E+00
  2.22222222E+01  1.33333333E+00  0.00000000E+00
  2.22222222E+01  6.66666667E-01  0.00000000E+00
  2.22222222E+01  1.66533454E-15  0.00000000E+00
  2.33333333E+01  1.00000000E+01  0.00000000E+00
  2.33333333E+01  9.33333333E+00  0.00000000E+00
  2.33333333E+01  8.66666667E+00  0.00000000E+00
  2.33333333E+01  8.00000000E+00  0.00000000E+00
  2.33333333E+01  7.33333333E+00  0.00000000E+00
  2.33333333E+01  6.66666667E+00  0.00000000E+00
  2.33333333E+01  6.00000000E+00  0.00000000E+00
  2.33333333E+01  5.33333333E+00  0.00000000E+00
  2.33333333E+01  4.66666667E+00  0.00000000E+00
  2.33333333E+01  4.00000000E+00  0.00000000E+00
  2.33333333E+01  3.33333333E+00  0.00000000E+00
  2.33333333E+01  2.66666667E+00  0.00000000E+00
  2.33333333E+01  2.00000000E+00  0.00000000E+00
  2.33333333E+01  1.33333333E+00  0.00000000E+00
  2.33333333E+01  6.66666667E-01  0.00000000E+00
  2.33333333E+01  1.66533454E-15  0.00000000E+00
  2.44444444E+01  1.00000000E+01  0.00000000E+00
  2.44444444E+01  9.33333333E+00  0.00000000E+00
  2.44444444E+01  8.66666667E+00  0.00000000E+00
  2.44444444E+01  8.00000000E+00  0.00000000E+00
  2.44444444E+01  7.33333333E+00  0.00000000E+00
  2.44444444E+01  6.66666667E+00  0.00000000E+00
  2.44444444E+01  6.00000000E+00  0.00000000E+00
  2.44444444E+01  5.33333333E+00  0.00000000E+00
  2.44444444E+01  4.66666667E+00  0.00000000E+00
  2.44444444E+01  4.00000000E+00  0.00000000E+00
  2.44444444E+01  3.33333333E+00  0.00000000E+00
  2.44444444E+01  2.66666667E+00  0.00000000E+00
  2.44444444E+01  2.00000000E+00  0.00000000E+00
  2.44444444E+01  1.33333333E+00  0.00000000E+00
  2.44444444E+01  6.66666667E-01  0.00000000E+00
  2.44444444E+01  1.66533454E-15  0.00000000E+00
  2.55555556E+01  1.00000000E+01  0.00000000E+00
  2.55555556E+01  9.33333333E+00  0.00000000E+00
  2.55555556E+01  8.66666667E+00  0.00000000E+00
  2.55555556E+01  8.00000000E+00  0.00000000E+00
  2.55555556E+01  7.33333333E+00  0.00000000E+00
  2.55555556E+01  6.66666667E+00  0.00000000E+00
  2.55555556E+01  6.00000000E+00  0.00000000E+00
  2.55555556E+01  5.33333333E+00  0.00000000E+00
  2.55555556E+01  4.66666667E+00  0.00000000E+00
  2.55555556E+01  4.00000000E+00  0.00000000E+00
  2.55555556E+01  3.33333333E+00  0.00000000E+00
  2.55555556E+01  2.66666667E+00  0.00000000E+00
  2.55555556E+01  2.00000000E+00  0.00000000E+00
  2.55555556E+01  1.33333333E+00  0.00000000E+00
  2.55555556E+01  6.66666667E-01  0.00000000E+00
  2.55555556E+01  1.66533454E-15  0.00000000E+00
  2.66666667E+01  1.00000000E+01  0.00000000E+00
  2.66666667E+01  9.33333333E+00  0.00000000E+00
  2.66666667E+01  8.66666667E+00  0.00000000E+00
  2.66666667E+01  8.00000000E+00  0.00000000E+00
  2.66666667E+01  7.33333333E+00  0.00000000E+00
  2.66666667E+01  6.66666667E+00  0.00000000E+00
  2.66666667E+01  6.00000000E+00  0.00000000E+00
  2.66666667E+01  5.33333333E+00  0.00000000E+00
  2.66666667E+01  4.66666667E+00  0.00000000E+00
  2.66666667E+01  4.00000000E+00  0.00000000E+00
  2.66666667E+01  3.33333333E+00  0.00000000E+00
  2.66666667E+01  2.66666667E+00  0.00000000E+00
  2.66666667E+01  2.00000000E+00  0.00000000E+00
  2.66666667E+01  1.33333333E+00  0.00000000E+00
  2.66666667E+01  6.66666667E-01  0.00000000E+00
  2.66666667E+01  1.66533454E-15  0.00000000E+00
  2.77777778E+01  1.00000000E+01  0.00000000E+00
  2.77777778E+01  9.33333333E+00  0.00000000E+00
  2.77777778E+01  8.66666667E+00  0.00000000E+00
  2.77777778E+01  8.00000000E+00  0.00000000E+00
  2.77777778E+01  7.33333333E+00  0.00000000E+00
  2.77777778E+01  6.66666667E+00  0.00000000E+00
  2.77777778E+01  6.00000000E+00  0.00000000E+00
  2.77777778E+01  5.33333333E+00  0.00000000E+00
  2.77777778E+01  4.66666667E+00  0.00000000E+00
  2.77777778E+01  4.00000000E+00  0.00000000E+00
  2.77777778E+01  3.33333333E+00  0.00000000E+00
  2.77777778E+01  2.66666667E+00  0.00000000E+00
  2.77777778E+01  2.00000000E+00  0.00000000E+00
  2.77777778E+01  1.33333333E+00  0.00000000E+00
  2.77777778E+01  6.66666667E-01  0.00000000E+00
  2.77777778E+01  1.66533454E-15  0.00000000E+00
  2.88888889E+01  1.00000000E+01  0.00000000E+00
  2.88888889E+01  9.33333333E+00  0.00000000E+00
  2.88888889E+01  8.66666667E+00  0.00000000E+00
  2.88888889E+01  8.00000000E+00  0.00000000E+00
  2.88888889E+01  7.33333333E+00  0.00000000E+00
  2.88888889E+01  6.66666667E+00  0.00000000E+00
  2.88888889E+01  6.00000000E+00  0.00000000E+00
  2.88888889E+01  5.33333333E+00  0.00000000E+00
  2.88888889E+01  4.66666667E+00  0.00000000E+00
  2.88888889E+01  4.00000000E+00  0.00000000E+00
  2.88888889E+01  3.33333333E+00  0.00000000E+00
  2.88888889E+01  2.66666667E+00  0.00000000E+00
  2.88888889E+01  2.00000000E+00  0.00000000E+00
  2.88888889E+01  1.33333333E+00  0.00000000E+00
  2.88888889E+01  6.66666667E-01  0.00000000E+00
  2.88888889E+01  1.66533454E-15  0.00000000E+00
  3.00000000E+01  1.00000000E+01  0.00000000E+00
  3.00000000E+01  9.33333333E+00  0.00000000E+00
  3.00000000E+01  8.66666667E+00  0.00000000E+00
  3.00000000E+01  8.00000000E+00  0.00000000E+00
  3.00000000E+01  7.33333333E+00  0.00000000E+00
  3.00000000E+01  6.66666667E+00  0.00000000E+00
  3.00000000E+01  6.00000000E+00  0.00000000E+00
  3.00000000E+01  5.33333333E+00  0.00000000E+00
  3.00000000E+01  4.66666667E+00  0.00000000E+00
  3.00000000E+01  4.00000000E+00  0.00000000E+00
  3.00000000E+01  3.33333333E+00  0.00000000E+00
  3.00000000E+01  2.66666667E+00  0.00000000E+00
  3.00000000E+01  2.00000000E+00  0.00000000E+00
  3.00000000E+01  1.33333333E+00  0.00000000E+00
  3.00000000E+01  6.66666667E-01  0.00000000E+00
  3.00000000E+01  1.66533454E-15  0.00000000E+00
  3.11111111E+01  1.00000000E+01  0.00000000E+00
  3.11111111E+01  9.33333333E+00  0.00000000E+00
  3.11111111E+01  8.66666667E+00  0.00000000E+00
  3.11111111E+01  8.00000000E+00  0.00000000E+00
  3.11111111E+01  7.33333333E+00  0.00000000E+00
  3.11111111E+01  6.66666667E+00  0.00000000E+00
  3.11111111E+01  6.00000000E+00  0.00000000E+00
  3.11111111E+01  5.33333333E+00  0.00000000E+00
  3.11111111E+01  4.66666667E+00  0.00000000E+00
  3.11111111E+01  4.00000000E+00  0.00000000E+00
  3.11111111E+01  3.33333333E+00  0.00000000E+00
  3.11111111E+01  2.66666667E+00  0.00000000E+00
  3.11111111E+01  2.00000000E+00  0.00000000E+00
  3.11111111E+01  1.33333333E+00  0.00000000E+00
  3.11111111E+01  6.66666667E-01  0.00000000E+00
  3.11111111E+01  1.66533454E-15  0.00000000E+00
  3.22222222E+01  1.00000000E+01  0.00000000E+00
  3.22222222E+01  9.33333333E+00  0.00000000E+00
  3.22222222E+01  8.66666667E+00  0.00000000E+00
  3.22222222E+01  8.00000000E+00  0.00000000E+00
  3.22222222E+01  7.33333333E+00  0.00000000E+00
  3.22222222E+01  6.66666667E+00  0.00000000E+00
  3.22222222E+01  6.00000000E+00  0.00000000E+00
  3.22222222E+01  5.33333333E+00  0.00000000E+00
  3.22222222E+01  4.66666667E+00  0.00000000E+00
  3.22222222E+01  4.00000000E+00  0.00000000E+00
  3.22222222E+01  3.33333333E+00  0.00000000E+00
  3.22222222E+01  2.66666667E+00  0.00000000E+00
  3.22222222E+01  2.00000000E+00  0.00000000E+00
  3.22222222E+01  1.33333333E+00  0.00000000E+00
  3.22222222E+01  6.66666667E-01  0.00000000E+00
  3.22222222E+01  1.66533454E-15  0.00000000E+00
  3.33333333E+01  1.00000000E+01  0.00000000E+00
  3.33333333E+01  9.33333333E+00  0.00000000E+00
  3.33333333E+01  8.66666667E+00  0.00000000E+00
  3.33333333E+01  8.00000000E+00  0.00000000E+00
  3.33333333E+01  7.33333333E+00  0.00000000E+00
  3.33333333E+01  6.66666667E+00  0.00000000E+00
  3.33333333E+01  6.00000000E+00  0.00000000E+00
  3.33333333E+01  5.33333333E+00  0.00000000E+00
  3.33333333E+01  4.66666667E+00  0.00000000E+00
  3.33333333E+01  4.00000000E+00  0.00000000E+00
  3.33333333E+01  3.33333333E+00  0.00000000E+00
  3.33333333E+01  2.66666667E+00  0.00000000E+00
  3.33333333E+01  2.00000000E+00  0.00000000E+00
  3.33333333E+01  1.33333333E+00  0.00000000E+00
  3.33333333E+01  6.66666667E-01  0.00000000E+00
  3.33333333E+01  1.66533454E-15  0.00000000E+00
  3.44444444E+01  1.00000000E+01  0.00000000E+00
  3.44444444E+01  9.33333333E+00  0.00000000E+00
  3.44444444E+01  8.66666667E+00  0.00000000E+00
  3.44444444E+01  8.00000000E+00  0.00000000E+00
  3.44444444E+01  7.33333333E+00  0.00000000E+00
  3.44444444E+01  6.66666667E+00  0.00000000E+00
  3.44444444E+01  6.00000000E+00  0.00000000E+00
  3.44444444E+01  5.33333333E+00  0.00000000E+00
  3.44444444E+01  4.66666667E+00  0.00000000E+00
  3.44444444E+01  4.00000000E+00  0.00000000E+00
  3.44444444E+01  3.33333333E+00  0.00000000E+00
  3.44444444E+01  2.66666667E+00  0.00000000E+00
  3.44444444E+01  2.00000000E+00  0.00000000E+00
  3.44444444E+01  1.33333333E+00  0.00000000E+00
  3.44444444E+01  6.66666667E-01  0.00000000E+00
  3.44444444E+01  1.66533454E-15  0.00000000E+00
  3.55555556E+01  1.00000000E+01  0.00000000E+00
  3.55555556E+01  9.33333333E+00  0.00000000E+00
  3.55555556E+01  8.66666667E+00  0.00000000E+00
  3.55555556E+01  8.00000000E+00  0.00000000E+00
  3.55555556E+01  7.33333333E+00  0.00000000E+00
  3.55555556E+01  6.66666667E+00  0.00000000E+00
  3.55555556E+01  6.00000000E+00  0.00000000E+00
  3.55555556E+01  5.33333333E+00  0.00000000E+00
  3.55555556E+01  4.66666667E+00  0.00000000E+00
  3.55555556E+01  4.00000000E+00  0.00000000E+00
  3.55555556E+01  3.33333333E+00  0.00000000E+00
  3.55555556E+01  2.66666667E+00  0.00000000E+00
  3.55555556E+01  2.00000000E+00  0.00000000E+00
  3.55555556E+01  1.33333333E+00  0.00000000E+00
  3.55555556E+01  6.66666667E-01  0.00000000E+00
  3.55555556E+01  1.66533454E-15  0.00000000E+00
  3.66666667E+01  1.00000000E+01  0.00000000E+00
  3.66666667E+01  9.33333333E+00  0.00000000E+00
  3.66666667E+01  8.66666667E+00  0.00000000E+00
  3.66666667E+01  8.00000000E+00  0.00000000E+00
  3.66666667E+01  7.33333333E+00  0.00000000E+00
  3.66666667E+01  6.66666667E+00  0.00000000E+00
  3.66666667E+01  6.00000000E+00  0.00000000E+00
  3.66666667E+01  5.33333333E+00  0.00000000E+00
  3.66666667E+01  4.66666667E+00  0.00000000E+00
  3.66666667E+01  4.00000000E+00  0.00000000E+00
  3.66666667E+01  3.33333333E+00  0.00000000E+00
  3.66666667E+01  2.66666667E+00  0.00000000E+00
  3.66666667E+01  2.00000000E+00  0.00000000E+00
  3.66666667E+01  1.33333333E+00  0.00000000E+00
  3.66666667E+01  6.66666667E-01  0.00000000E+00
  3.66666667E+01  1.66533454E-15  0.00000000E+00
  3.77777778E+01  1.00000000E+01  0.00000000E+00
  3.77777778E+01  9.33333333E+00  0.00000000E+00
  3.77777778E+01  8.66666667E+00  0.00000000E+00
  3.77777778E+01  8.00000000E+00  0.00000000E+00
  3.77777778E+01  7.33333333E+00  0.00000000E+00
  3.77777778E+01  6.66666667E+00  0.00000000E+00
  3.77777778E+01  6.00000000E+00  0.00000000E+00
  3.77777778E+01  5.33333333E+00  0.00000000E+00
  3.77777778E+01  4.66666667E+00  0.00000000E+00
  3.77777778E+01  4.00000000E+00  0.00000000E+00
  3.77777778E+01  3.33333333E+00  0.00000000E+00
  3.77777778E+01  2.66666667E+00  0.00000000E+00
  3.77777778E+01  2.00000000E+00  0.00000000E+00
  3.77777778E+01  1.33333333E+00  0.00000000E+00
  3.77777778E+01  6.66666667E-01  0.00000000E+00
  3.77777778E+01  1.66533454E-15  0.00000000E+00
  3.88888889E+01  1.00000000E+01  0.00000000E+00
  3.88888889E+01  9.33333333E+00  0.00000000E+00
  3.88888889E+01  8.66666667E+00  0.00000000E+00
  3.88888889E+01  8.00000000E+00  0.00000000E+00
  3.88888889E+01  7.33333333E+00  0.00000000E+00
  3.88888889E+01  6.66666667E+00  0.00000000E+00
  3.88888889E+01  6.00000000E+00  0.00000000E+00
  3.88888889E+01  5.33333333E+00  0.00000000E+00
  3.88888889E+01  4.66666667E+00  0.00000000E+00
  3.88888889E+01  4.00000000E+00  0.00000000E+00
  3.88888889E+01  3.33333333E+00  0.00000000E+00
  3.88888889E+01  2.66666667E+00  0.00000000E+00
  3.88888889E+01  2.00000000E+00  0.00000000E+00
  3.88888889E+01  1.33333333E+00  0.00000000E+00
  3.88888889E+01  6.66666667E-01  0.00000000E+00
  3.88888889E+01  1.66533454E-15  0.00000000E+00
  4.00000000E+01  1.00000000E+01  0.00000000E+00
  4.00000000E+01  9.33333333E+00  0.00000000E+00
  4.00000000E+01  8.66666667E+00  0.00000000E+00
  4.00000000E+01  8.00000000E+00  0.00000000E+00
  4.00000000E+01  7.33333333E+00  0.00000000E+00
  4.00000000E+01  6.66666667E+00  0.00000000E+00
  4.00000000E+01  6.00000000E+00  0.00000000E+00
  4.00000000E+01  5.33333333E+00  0.00000000E+00
  4.00000000E+01  4.66666667E+00  0.00000000E+00
  4.00000000E+01  4.00000000E+00  0.00000000E+00
  4.00000000E+01  3.33333333E+00  0.00000000E+00
  4.00000000E+01  2.66666667E+00  0.00000000E+00
  4.00000000E+01  2.00000000E+00  0.00000000E+00
  4.00000000E+01  1.33333333E+00  0.00000000E+00
  4.00000000E+01  6.66666667E-01  0.00000000E+00
  4.00000000E+01  1.66533454E-15  0.00000000E+00
  4.11111111E+01  1.00000000E+01  0.00000000E+00
  4.11111111E+01  9.33333333E+00  0.00000000E+00
  4.11111111E+01  8.66666667E+00  0.00000000E+00
  4.11111111E+01  8.00000000E+00  0.00000000E+00
  4.11111111E+01  7.33333333E+00  0.00000000E+00
  4.11111111E+01  6.66666667E+00  0.00000000E+00
  4.11111111E+01  6.00000000E+00  0.00000000E+00
  4.11111111E+01  5.33333333E+00  0.00000000E+00
  4.11111111E+01  4.66666667E+00  0.00000000E+00
  4.11111111E+01  4.00000000E+00  0.00000000E+00
  4.11111111E+01  3.33333333E+00  0.00000000E+00
  4.11111111E+01  2.66666667E+00  0.00000000E+00
  4.11111111E+01  2.00000000E+00  0.00000000E+00
  4.11111111E+01  1.33333333E+00  0.00000000E+00
  4.11111111E+01  6.66666667E-01  0.00000000E+00
  4.11111111E+01  1.66533454E-15  0.00000000E+00
  4.22222222E+01  1.00000000E+01  0.00000000E+00
  4.22222222E+01  9.33333333E+00  0.00000000E+00
  4.22222222E+01  8.66666667E+00  0.00000000E+00
  4.22222222E+01  8.00000000E+00  0.00000000E+00
  4.22222222E+01  7.33333333E+00  0.00000000E+00
  4.22222222E+01  6.66666667E+00  0.00000000E+00
  4.22222222E+01  6.00000000E+00  0.00000000E+00
  4.22222222E+01  5.33333333E+00  0.00000000E+00
  4.22222222E+01  4.66666667E+00  0.00000000E+00
  4.22222222E+01  4.00000000E+00  0.00000000E+00
  4.22222222E+01  3.33333333E+00  0.00000000E+00
  4.22222222E+01  2.66666667E+00  0.00000000E+00
  4.22222222E+01  2.00000000E+00  0.00000000E+00
  4.22222222E+01  1.33333333E+00  0.00000000E+00
  4.22222222E+01  6.66666667E-01  0.00000000E+00
  4.22222222E+01  1.66533454E-15  0.00000000E+00
  4.33333333E+01  1.00000000E+01  0.00000000E+00
  4.33333333E+01  9.33333333E+00  0.00000000E+00
  4.33333333E+01  8.66666667E+00  0.00000000E+00
  4.33333333E+01  8.00000000E+00  0.00000000E+00
  4.33333333E+01  7.33333333E+00  0.00000000E+00
  4.33333333E+01  6.66666667E+00  0.00000000E+00
  4.33333333E+01  6.00000000E+00  0.00000000E+00
  4.33333333E+01  5.33333333E+00  0.00000000E+00
  4.33333333E+01  4.66666667E+00  0.00000000E+00
  4.33333333E+01  4.00000000E+00  0.00000000E+00
  4.33333333E+01  3.33333333E+00  0.00000000E+00
  4.33333333E+01  2.66666667E+00  0.00000000E+00
  4.33333333E+01  2.00000000E+00  0.00000000E+00
  4.33333333E+01  1.33333333E+00  0.00000000E+00
  4.33333333E+01  6.66666667E-01  0.00000000E+00
  4.33333333E+01  1.66533454E-15  0.00000000E+00
  4.44444444E+01  1.00000000E+01  0.00000000E+00
  4.44444444E+01  9.33333333E+00  0.00000000E+00
  4.44444444E+01  8.66666667E+00  0.00000000E+00
  4.44444444E+01  8.00000000E+00  0.00000000E+00
  4.44444444E+01  7.33333333E+00  0.00000000E+00
  4.44444444E+01  6.66666667E+00  0.00000000E+00
  4.44444444E+01  6.00000000E+00  0.00000000E+00
  4.44444444E+01  5.33333333E+00  0.00000000E+00
  4.44444444E+01  4.66666667E+00  0.00000000E+00
  4.44444444E+01  4.00000000E+00  0.00000000E+00
  4.44444444E+01  3.33333333E+00  0.00000000E+00
  4.44444444E+01  2.66666667E+00  0.00000000E+00
  4.44444444E+01  2.00000000E+00  0.00000000E+00
  4.44444444E+01  1.33333333E+00  0.00000000E+00
  4.44444444E+01  6.66666667E-01  0.00000000E+00
  4.44444444E+01  1.66533454E-15  0.00000000E+00
  4.55555556E+01  1.00000000E+01  0.00000000E+00
  4.55555556E+01  9.33333333E+00  0.00000000E+00
  4.55555556E+01  8.66666667E+00  0.00000000E+00
  4.55555556E+01  8.00000000E+00  0.00000000E+00
  4.55555556E+01  7.33333333E+00  0.00000000E+00
  4.55555556E+01  6.66666667E+00  0.00000000E+00
  4.55555556E+01  6.00000000E+00  0.00000000E+00
  4.55555556E+01  5.33333333E+00  0.00000000E+00
  4.55555556E+01  4.66666667E+00  0.00000000E+00
  4.55555556E+01  4.00000000E+00  0.00000000E+00
  4.55555556E+01  3.33333333E+00  0.00000000E+00
  4.55555556E+01  2.66666667E+00  0.00000000E+00
  4.55555556E+01  2.00000000E+00  0.00000000E+00
  4.55555556E+01  1.33333333E+00  0.00000000E+00
  4.55555556E+01  6.66666667E-01  0.00000000E+00
  4.55555556E+01  1.66533454E-15  0.00000000E+00
  4.66666667E+01  1.00000000E+01  0.00000000E+00
  4.66666667E+01  9.33333333E+00  0.00000000E+00
  4.66666667E+01  8.66666667E+00  0.00000000E+00
  4.66666667E+01  8.00000000E+00  0.00000000E+00
  4.66666667E+01  7.33333333E+00  0.00000000E+00
  4.66666667E+01  6.66666667E+00  0.00000000E+00
  4.66666667E+01  6.00000000E+00  0.00000000E+00
  4.66666667E+01  5.33333333E+00  0.00000000E+00
  4.66666667E+01  4.66666667E+00  0.00000000E+00
  4.66666667E+01  4.00000000E+00  0.00000000E+00
  4.66666667E+01  3.33333333E+00  0.00000000E+00
  4.66666667E+01  2.66666667E+00  0.00000000E+00
  4.66666667E+01  2.00000000E+00  0.00000000E+00
  4.66666667E+01  1.33333333E+00  0.00000000E+00
  4.66666667E+01  6.66666667E-01  0.00000000E+00
  4.66666667E+01  1.66533454E-15  0.00000000E+00
  4.77777778E+01  1.00000000E+01  0.00000000E+00
  4.77777778E+01  9.33333333E+00  0.00000000E+00
  4.77777778E+01  8.66666667E+00  0.00000000E+00
  4.77777778E+01  8.00000000E+00  0.00000000E+00
  4.77777778E+01  7.33333333E+00  0.00000000E+00
  4.77777778E+01  6.66666667E+00  0.00000000E+00
  4.77777778E+01  6.00000000E+00  0.00000000E+00
  4.77777778E+01  5.33333333E+00  0.00000000E+00
  4.77777778E+01  4.66666667E+00  0.00000000E+00
  4.77777778E+01  4.00000000E+00  0.00000000E+00
  4.77777778E+01  3.33333333E+00  0.00000000E+00
  4.77777778E+01  2.66666667E+00  0.00000000E+00
  4.77777778E+01  2.00000000E+00  0.00000000E+00
  4.77777778E+01  1.33333333E+00  0.00000000E+00
  4.77777778E+01  6.66666667E-01  0.00000000E+00
  4.77777778E+01  1.66533454E-15  0.00000000E+00
  4.88888889E+01  1.00000000E+01  0.00000000E+00
  4.88888889E+01  9.33333333E+00  0.00000000E+00
  4.88888889E+01  8.66666667E+00  0.00000000E+00
  4.88888889E+01  8.00000000E+00  0.00000000E+00
  4.88888889E+01  7.33333333E+00  0.00000000E+00
  4.88888889E+01  6.66666667E+00  0.00000000E+00
  4.88888889E+01  6.00000000E+00  0.00000000E+00
  4.88888889E+01  5.33333333E+00  0.00000000E+00
  4.88888889E+01  4.66666667E+00  0.00000000E+00
  4.88888889E+01  4.00000000E+00  0.00000000E+00
  4.88888889E+01  3.33333333E+00  0.00000000E+00
  4.88888889E+01  2.66666667E+00  0.00000000E+00
  4.88888889E+01  2.00000000E+00  0.00000000E+00
  4.88888889E+01  1.33333333E+00  0.00000000E+00
  4.88888889E+01  6.66666667E-01  0.00000000E+00
  4.88888889E+01  1.66533454E-15  0.00000000E+00
  5.00000000E+01  1.00000000E+01  0.00000000E+00
  5.00000000E+01  9.33333333E+00  0.00000000E+00
  5.00000000E+01  8.66666667E+00  0.00000000E+00
  5.00000000E+01  8.00000000E+00  0.00000000E+00
  5.00000000E+01  7.33333333E+00  0.00000000E+00
  5.00000000E+01  6.66666667E+00  0.00000000E+00
  5.00000000E+01  6.00000000E+00  0.00000000E+00
  5.00000000E+01  5.33333333E+00  0.00000000E+00
  5.00000000E+01  4.66666667E+00  0.00000000E+00
  5.00000000E+01  4.00000000E+00  0.00000000E+00
  5.00000000E+01  3.33333333E+00  0.00000000E+00
  5.00000000E+01  2.66666667E+00  0.00000000E+00
  5.00000000E+01  2.00000000E+00  0.00000000E+00
  5.00000000E+01  1.33333333E+00  0.00000000E+00
  5.00000000E+01  6.66666667E-01  0.00000000E+00
  5.00000000E+01  1.66533454E-15  0.00000000E+00
  5.11111111E+01  1.00000000E+01  0.00000000E+00
  5.11111111E+01  9.33333333E+00  0.00000000E+00
  5.11111111E+01  8.66666667E+00  0.00000000E+00
  5.11111111E+01  8.00000000E+00  0.00000000E+00
  5.11111111E+01  7.33333333E+00  0.00000000E+00
  5.11111111E+01  6.66666667E+00  0.00000000E+00
  5.11111111E+01  6.00000000E+00  0.00000000E+00
  5.11111111E+01  5.33333333E+00  0.00000000E+00
  5.11111111E+01  4.66666667E+00  0.00000000E+00
  5.11111111E+01  4.00000000E+00  0.00000000E+00
  5.11111111E+01  3.33333333E+00  0.00000000E+00
  5.11111111E+01  2.66666667E+00  0.00000000E+00
  5.11111111E+01  2.00000000E+00  0.00000000E+00
  5.11111111E+01  1.33333333E+00  0.00000000E+00
  5.11111111E+01  6.66666667E-01  0.00000000E+00
  5.11111111E+01  1.66533454E-15  0.00000000E+00
  5.22222222E+01  1.00000000E+01  0.00000000E+00
  5.22222222E+01  9.33333333E+00  0.00000000E+00
  5.22222222E+01  8.66666667E+00  0.00000000E+00
  5.22222222E+01  8.00000000E+00  0.00000000E+00
  5.22222222E+01  7.33333333E+00  0.00000000E+00
  5.22222222E+01  6.66666667E+00  0.00000000E+00
  5.22222222E+01  6.00000000E+00  0.00000000E+00
  5.22222222E+01  5.33333333E+00  0.00000000E+00
  5.22222222E+01  4.66666667E+00  0.00000000E+00
  5.22222222E+01  4.00000000E+00  0.00000000E+00
  5.22222222E+01  3.33333333E+00  0.00000000E+00
  5.22222222E+01  2.66666667E+00  0.00000000E+00
  5.22222222E+01  2.00000000E+00  0.00000000E+00
  5.22222222E+01  1.33333333E+00  0.00000000E+00
  5.22222222E+01  6.66666667E-01  0.00000000E+00
  5.22222222E+01  1.66533454E-15  0.00000000E+00
  5.33333333E+01  1.00000000E+01  0.00000000E+00
  5.33333333E+01  9.33333333E+00  0.00000000E+00
  5.33333333E+01  8.66666667E+00  0.00000000E+00
  5.33333333E+01  8.00000000E+00  0.00000000E+00
  5.33333333E+01  7.33333333E+00  0.00000000E+00
  5.33333333E+01  6.66666667E+00  0.00000000E+00
  5.33333333E+01  6.00000000E+00  0.00000000E+00
  5.33333333E+01  5.33333333E+00  0.00000000E+00
  5.33333333E+01  4.66666667E+00  0.00000000E+00
  5.33333333E+01  4.00000000E+00  0.00000000E+00
  5.33333333E+01  3.33333333E+00  0.00000000E+00
  5.33333333E+01  2.66666667E+00  0.00000000E+00
  5.33333333E+01  2.00000000E+00  0.00000000E+00
  5.33333333E+01  1.33333333E+00  0.00000000E+00
  5.33333333E+01  6.66666667E-01  0.00000000E+00
  5.33333333E+01  1.66533454E-15  0.00000000E+00
  5.44444444E+01  1.00000000E+01  0.00000000E+00
  5.44444444E+01  9.33333333E+00  0.00000000E+00
  5.44444444E+01  8.66666667E+00  0.00000000E+00
  5.44444444E+01  8.00000000E+00  0.00000000E+00
  5.44444444E+01  7.33333333E+00  0.00000000E+00
  5.44444444E+01  6.66666667E+00  0.00000000E+00
  5.44444444E+01  6.00000000E+00  0.00000000E+00
  5.44444444E+01  5.33333333E+00  0.00000000E+00
  5.44444444E+01  4.66666667E+00  0.00000000E+00
  5.44444444E+01  4.00000000E+00  0.00000000E+00
  5.44444444E+01  3.33333333E+00  0.00000000E+00
  5.44444444E+01  2.66666667E+00  0.00000000E+00
  5.44444444E+01  2.00000000E+00  0.00000000E+00
  5.44444444E+01  1.33333333E+00  0.00000000E+00
  5.44444444E+01  6.66666667E-01  0.00000000E+00
  5.44444444E+01  1.66533454E-15  0.00000000E+00
  5.55555556E+01  1.00000000E+01  0.00000000E+00
  5.55555556E+01  9.33333333E+00  0.00000000E+00
  5.55555556E+01  8.66666667E+00  0.00000000E+00
  5.55555556E+01  8.00000000E+00  0.00000000E+00
  5.55555556E+01  7.33333333E+00  0.00000000E+00
  5.55555556E+01  6.66666667E+00  0.00000000E+00
  5.55555556E+01  6.00000000E+00  0.00000000E+00
  5.55555556E+01  5.33333333E+00  0.00000000E+00
  5.55555556E+01  4.66666667E+00  0.00000000E+00
  5.55555556E+01  4.00000000E+00  0.00000000E+00
  5.55555556E+01  3.33333333E+00  0.00000000E+00
  5.55555556E+01  2.66666667E+00  0.00000000E+00
  5.55555556E+01  2.00000000E+00  0.00000000E+00
  5.55555556E+01  1.33333333E+00  0.00000000E+00
  5.55555556E+01  6.66666667E-01  0.00000000E+00
  5.55555556E+01  1.66533454E-15  0.00000000E+00
  5.66666667E+01  1.00000000E+01  0.00000000E+00
  5.66666667E+01  9.33333333E+00  0.00000000E+00
  5.66666667E+01  8.66666667E+00  0.00000000E+00
  5.66666667E+01  8.00000000E+00  0.00000000E+00
  5.66666667E+01  7.33333333E+00  0.00000000E+00
  5.66666667E+01  6.66666667E+00  0.00000000E+00
  5.66666667E+01  6.00000000E+00  0.00000000E+00
  5.66666667E+01  5.33333333E+00  0.00000000E+00
  5.66666667E+01  4.66666667E+00  0.00000000E+00
  5.66666667E+01  4.00000000E+00  0.00000000E+00
  5.66666667E+01  3.33333333E+00  0.00000000E+00
  5.66666667E+01  2.66666667E+00  0.00000000E+00
  5.66666667E+01  2.00000000E+00  0.00000000E+00
  5.66666667E+01  1.33333333E+00  0.00000000E+00
  5.66666667E+01  6.66666667E-01  0.00000000E+00
  5.66666667E+01  1.66533454E-15  0.00000000E+00
  5.77777778E+01  1.00000000E+01  0.00000000E+00
  5.77777778E+01  9.33333333E+00  0.00000000E+00
  5.77777778E+01  8.66666667E+00  0.00000000E+00
  5.77777778E+01  8.00000000E+00  0.00000000E+00
  5.77777778E+01  7.33333333E+00  0.00000000E+00
  5.77777778E+01  6.66666667E+00  0.00000000E+00
  5.77777778E+01  6.00000000E+00  0.00000000E+00
  5.77777778E+01  5.33333333E+00  0.00000000E+00
  5.77777778E+01  4.66666667E+00  0.00000000E+00
  5.77777778E+01  4.00000000E+00  0.00000000E+00
  5.77777778E+01  3.33333333E+00  0.00000000E+00
  5.77777778E+01  2.66666667E+00  0.00000000E+00
  5.77777778E+01  2.00000000E+00  0.00000000E+00
  5.77777778E+01  1.33333333E+00  0.00000000E+00
  5.77777778E+01  6.66666667E-01  0.00000000E+00
  5.77777778E+01  1.66533454E-15  0.00000000E+00
  5.88888889E+01  1.00000000E+01  0.00000000E+00
  5.88888889E+01  9.33333333E+00  0.00000000E+00
  5.88888889E+01  8.66666667E+00  0.00000000E+00
  5.88888889E+01  8.00000000E+00  0.00000000E+00
  5.88888889E+01  7.33333333E+00  0.00000000E+00
  5.88888889E+01  6.66666667E+00  0.00000000E+00
  5.88888889E+01  6.00000000E+00  0.00000000E+00
  5.88888889E+01  5.33333333E+00  0.00000000E+00
  5.88888889E+01  4.66666667E+00  0.00000000E+00
  5.88888889E+01  4.00000000E+00  0.00000000E+00
  5.88888889E+01  3.33333333E+00  0.00000000E+00
  5.88888889E+01  2.66666667E+00  0.00000000E+00
  5.88888889E+01  2.00000000E+00  0.00000000E+00
  5.88888889E+01  1.33333333E+00  0.00000000E+00
  5.88888889E+01  6.66666667E-01  0.00000000E+00
  5.88888889E+01  1.66533454E-15  0.00000000E+00
  6.00000000E+01  1.00000000E+01  0.00000000E+00
  6.00000000E+01  9.33333333E+00  0.00000000E+00
  6.00000000E+01  8.66666667E+00  0.00000000E+00
  6.00000000E+01  8.00000000E+00  0.00000000E+00
  6.00000000E+01  7.33333333E+00  0.00000000E+00
  6.00000000E+01  6.66666667E+00  0.00000000E+00
  6.00000000E+01  6.00000000E+00  0.00000000E+00
  6.00000000E+01  5.33333333E+00  0.00000000E+00
  6.00000000E+01  4.66666667E+00  0.00000000E+00
  6.00000000E+01  4.00000000E+00  0.00000000E+00
  6.00000000E+01  3.33333333E+00  0.00000000E+00
  6.00000000E+01  2.66666667E+00  0.00000000E+00
  6.00000000E+01  2.00000000E+00  0.00000000E+00
  6.00000000E+01  1.33333333E+00  0.00000000E+00
  6.00000000E+01  6.66666667E-01  0.00000000E+00
  6.00000000E+01  1.66533454E-15  0.00000000E+00
  6.11111111E+01  1.00000000E+01  0.00000000E+00
  6.11111111E+01  9.33333333E+00  0.00000000E+00
  6.11111111E+01  8.66666667E+00  0.00000000E+00
  6.11111111E+01  8.00000000E+00  0.00000000E+00
  6.11111111E+01  7.33333333E+00  0.00000000E+00
  6.11111111E+01  6.66666667E+00  0.00000000E+00
  6.11111111E+01  6.00000000E+00  0.00000000E+00
  6.11111111E+01  5.33333333E+00  0.00000000E+00
  6.11111111E+01  4.66666667E+00  0.00000000E+00
  6.11111111E+01  4.00000000E+00  0.00000000E+00
  6.11111111E+01  3.33333333E+00  0.00000000E+00
  6.11111111E+01  2.66666667E+00  0.00000000E+00
  6.11111111E+01  2.00000000E+00  0.00000000E+00
  6.11111111E+01  1.33333333E+00  0.00000000E+00
  6.11111111E+01  6.66666667E-01  0.00000000E+00
  6.11111111E+01  1.66533454E-15  0.00000000E+00
  6.22222222E+01  1.00000000E+01  0.00000000E+00
  6.22222222E+01  9.33333333E+00  0.00000000E+00
  6.22222222E+01  8.66666667E+00  0.00000000E+00
  6.22222222E+01  8.00000000E+00  0.00000000E+00
  6.22222222E+01  7.33333333E+00  0.00000000E+00
  6.22222222E+01  6.66666667E+00  0.00000000E+00
  6.22222222E+01  6.00000000E+00  0.00000000E+00
  6.22222222E+01  5.33333333E+00  0.00000000E+00
  6.22222222E+01  4.66666667E+00  0.00000000E+00
  6.22222222E+01  4.00000000E+00  0.00000000E+00
  6.22222222E+01  3.33333333E+00  0.00000000E+00
  6.22222222E+01  2.66666667E+00  0.00000000E+00
  6.22222222E+01  2.00000000E+00  0.00000000E+00
  6.22222222E+01  1.33333333E+00  0.00000000E+00
  6.22222222E+01  6.66666667E-01  0.00000000E+00
  6.22222222E+01  1.66533454E-15  0.00000000E+00
  6.33333333E+01  1.00000000E+01  0.00000000E+00
  6.33333333E+01  9.33333333E+00  0.00000000E+00
  6.33333333E+01  8.66666667E+00  0.00000000E+00
  6.33333333E+01  8.00000000E+00  0.00000000E+00
  6.33333333E+01  7.33333333E+00  0.00000000E+00
  6.33333333E+01  6.66666667E+00  0.00000000E+00
  6.33333333E+01  6.00000000E+00  0.00000000E+00
  6.33333333E+01  5.33333333E+00  0.00000000E+00
  6.33333333E+01  4.66666667E+00  0.00000000E+00
  6.33333333E+01  4.00000000E+00  0.00000000E+00
  6.33333333E+01  3.33333333E+00  0.00000000E+00
  6.33333333E+01  2.66666667E+00  0.00000000E+00
  6.33333333E+01  2.00000000E+00  0.00000000E+00
  6.33333333E+01  1.33333333E+00  0.00000000E+00
  6.33333333E+01  6.66666667E-01  0.00000000E+00
  6.33333333E+01  1.66533454E-15  0.00000000E+00
  6.44444444E+01  1.00000000E+01  0.00000000E+00
  6.44444444E+01  9.33333333E+00  0.00000000E+00
  6.44444444E+01  8.66666667E+00  0.00000000E+00
  6.44444444E+01  8.00000000E+00  0.00000000E+00
  6.44444444E+01  7.33333333E+00  0.00000000E+00
  6.44444444E+01  6.66666667E+00  0.00000000E+00
  6.44444444E+01  6.00000000E+00  0.00000000E+00
  6.44444444E+01  5.33333333E+00  0.00000000E+00
  6.44444444E+01  4.66666667E+00  0.00000000E+00
  6.44444444E+01  4.00000000E+00  0.00000000E+00
  6.44444444E+01  3.33333333E+00  0.00000000E+00
  6.44444444E+01  2.66666667E+00  0.00000000E+00
  6.44444444E+01  2.00000000E+00  0.00000000E+00
  6.44444444E+01  1.33333333E+00  0.00000000E+00
  6.44444444E+01  6.66666667E-01  0.00000000E+00
  6.44444444E+01  1.66533454E-15  0.00000000E+00
  6.55555556E+01  1.00000000E+01  0.00000000E+00
  6.55555556E+01  9.33333333E+00  0.00000000E+00
  6.55555556E+01  8.66666667E+00  0.00000000E+00
  6.55555556E+01  8.00000000E+00  0.00000000E+00
  6.55555556E+01  7.33333333E+00  0.00000000E+00
  6.55555556E+01  6.66666667E+00  0.00000000E+00
  6.55555556E+01  6.00000000E+00  0.00000000E+00
  6.55555556E+01  5.33333333E+00  0.00000000E+00
  6.55555556E+01  4.66666667E+00  0.00000000E+00
  6.55555556E+01  4.00000000E+00  0.00000000E+00
  6.55555556E+01  3.33333333E+00  0.00000000E+00
  6.55555556E+01  2.66666667E+00  0.00000000E+00
  6.55555556E+01  2.00000000E+00  0.00000000E+00
  6.55555556E+01  1.33333333E+00  0.00000000E+00
  6.55555556E+01  6.66666667E-01  0.00000000E+00
  6.55555556E+01  1.66533454E-15  0.00000000E+00
  6.66666667E+01  1.00000000E+01  0.00000000E+00
  6.66666667E+01  9.33333333E+00  0.00000000E+00
  6.66666667E+01  8.66666667E+00  0.00000000E+00
  6.66666667E+01  8.00000000E+00  0.00000000E+00
  6.66666667E+01  7.33333333E+00  0.00000000E+00
  6.66666667E+01  6.66666667E+00  0.00000000E+00
  6.66666667E+01  6.00000000E+00  0.00000000E+00
  6.66666667E+01  5.33333333E+00  0.00000000E+00
  6.66666667E+01  4.66666667E+00  0.00000000E+00
  6.66666667E+01  4.00000000E+00  0.00000000E+00
  6.66666667E+01  3.33333333E+00  0.00000000E+00
  6.66666667E+01  2.66666667E+00  0.00000000E+00
  6.66666667E+01  2.00000000E+00  0.00000000E+00
  6.66666667E+01  1.33333333E+00  0.00000000E+00
  6.66666667E+01  6.66666667E-01  0.00000000E+00
  6.66666667E+01  1.66533454E-15  0.00000000E+00
  6.77777778E+01  1.00000000E+01  0.00000000E+00
  6.77777778E+01  9.33333333E+00  0.00000000E+00
  6.77777778E+01  8.66666667E+00  0.00000000E+00
  6.77777778E+01  8.00000000E+00  0.00000000E+00
  6.77777778E+01  7.33333333E+00  0.00000000E+00
  6.77777778E+01  6.66666667E+00  0.00000000E+00
  6.77777778E+01  6.00000000E+00  0.00000000E+00
  6.77777778E+01  5.33333333E+00  0.00000000E+00
  6.77777778E+01  4.66666667E+00  0.00000000E+00
  6.77777778E+01  4.00000000E+00  0.00000000E+00
  6.77777778E+01  3.33333333E+00  0.00000000E+00
  6.77777778E+01  2.66666667E+00  0.00000000E+00
  6.77777778E+01  2.00000000E+00  0.00000000E+00
  6.77777778E+01  1.33333333E+00  0.00000000E+00
  6.77777778E+01  6.66666667E-01  0.00000000E+00
  6.77777778E+01  1.66533454E-15  0.00000000E+00
  6.88888889E+01  1.00000000E+01  0.00000000E+00
  6.88888889E+01  9.33333333E+00  0.00000000E+00
  6.88888889E+01  8.66666667E+00  0.00000000E+00
  6.88888889E+01  8.00000000E+00  0.00000000E+00
  6.88888889E+01  7.33333333E+00  0.00000000E+00
  6.88888889E+01  6.66666667E+00  0.00000000E+00
  6.88888889E+01  6.00000000E+00  0.00000000E+00
  6.88888889E+01  5.33333333E+00  0.00000000E+00
  6.88888889E+01  4.66666667E+00  0.00000000E+00
  6.88888889E+01  4.00000000E+00  0.00000000E+00
  6.88888889E+01  3.33333333E+00  0.00000000E+00
  6.88888889E+01  2.66666667E+00  0.00000000E+00
  6.88888889E+01  2.00000000E+00  0.00000000E+00
  6.88888889E+01  1.33333333E+00  0.00000000E+00
  6.88888889E+01  6.66666667E-01  0.00000000E+00
  6.88888889E+01  1.66533454E-15  0.00000000E+00
  7.00000000E+01  1.00000000E+01  0.00000000E+00
  7.00000000E+01  9.33333333E+00  0.00000000E+00
  7.00000000E+01  8.66666667E+00  0.00000000E+00
  7.00000000E+01  8.00000000E+00  0.00000000E+00
  7.00000000E+01  7.33333333E+00  0.00000000E+00
  7.00000000E+01  6.66666667E+00  0.00000000E+00
  7.00000000E+01  6.00000000E+00  0.00000000E+00
  7.00000000E+01  5.33333333E+00  0.00000000E+00
  7.00000000E+01  4.66666667E+00  0.00000000E+00
  7.00000000E+01  4.00000000E+00  0.00000000E+00
  7.00000000E+01  3.33333333E+00  0.00000000E+00
  7.00000000E+01  2.66666667E+00  0.00000000E+00
  7.00000000E+01  2.00000000E+00  0.00000000E+00
  7.00000000E+01  1.33333333E+00  0.00000000E+00
  7.00000000E+01  6.66666667E-01  0.00000000E+00
  7.00000000E+01  1.66533454E-15  0.00000000E+00
  7.11111111E+01  1.00000000E+01  0.00000000E+00
  7.11111111E+01  9.33333333E+00  0.00000000E+00
  7.11111111E+01  8.66666667E+00  0.00000000E+00
  7.11111111E+01  8.00000000E+00  0.00000000E+00
  7.11111111E+01  7.33333333E+00  0.00000000E+00
  7.11111111E+01  6.66666667E+00  0.00000000E+00
  7.11111111E+01  6.00000000E+00  0.00000000E+00
  7.11111111E+01  5.33333333E+00  0.00000000E+00
  7.11111111E+01  4.66666667E+00  0.00000000E+00
  7.11111111E+01  4.00000000E+00  0.00000000E+00
  7.11111111E+01  3.33333333E+00  0.00000000E+00
  7.11111111E+01  2.66666667E+00  0.00000000E+00
  7.11111111E+01  2.00000000E+00  0.00000000E+00
  7.11111111E+01  1.33333333E+00  0.00000000E+00
  7.11111111E+01  6.66666667E-01  0.00000000E+00
  7.11111111E+01  1.66533454E-15  0.00000000E+00
  7.22222222E+01  1.00000000E+01  0.00000000E+00
  7.22222222E+01  9.33333333E+00  0.00000000E+00
  7.22222222E+01  8.66666667E+00  0.00000000E+00
  7.22222222E+01  8.00000000E+00  0.00000000E+00
  7.22222222E+01  7.33333333E+00  0.00000000E+00
  7.22222222E+01  6.66666667E+00  0.00000000E+00
  7.22222222E+01  6.00000000E+00  0.00000000E+00
  7.22222222E+01  5.33333333E+00  0.00000000E+00
  7.22222222E+01  4.66666667E+00  0.00000000E+00
  7.22222222E+01  4.00000000E+00  0.00000000E+00
  7.22222222E+01  3.33333333E+00  0.00000000E+00
  7.22222222E+01  2.66666667E+00  0.00000000E+00
  7.22222222E+01  2.00000000E+00  0.00000000E+00
  7.22222222E+01  1.33333333E+00  0.00000000E+00
  7.22222222E+01  6.66666667E-01  0.00000000E+00
  7.22222222E+01  1.66533454E-15  0.00000000E+00
  7.33333333E+01  1.00000000E+01  0.00000000E+00
  7.33333333E+01  9.33333333E+00  0.00000000E+00
  7.33333333E+01  8.66666667E+00  0.00000000E+00
  7.33333333E+01  8.00000000E+00  0.00000000E+00
  7.33333333E+01  7.33333333E+00  0.00000000E+00
  7.33333333E+01  6.66666667E+00  0.00000000E+00
  7.33333333E+01  6.00000000E+00  0.00000000E+00
  7.33333333E+01  5.33333333E+00  0.00000000E+00
  7.33333333E+01  4.66666667E+00  0.00000000E+00
  7.33333333E+01  4.00000000E+00  0.00000000E+00
  7.33333333E+01  3.33333333E+00  0.00000000E+00
  7.33333333E+01  2.66666667E+00  0.00000000E+00
  7.33333333E+01  2.00000000E+00  0.00000000E+00
  7.33333333E+01  1.33333333E+00  0.00000000E+00
  7.33333333E+01  6.66666667E-01  0.00000000E+00
  7.33333333E+01  1.66533454E-15  0.00000000E+00
  7.44444444E+01  1.00000000E+01  0.00000000E+00
  7.44444444E+01  9.33333333E+00  0.00000000E+00
  7.44444444E+01  8.66666667E+00  0.00000000E+00
  7.44444444E+01  8.00000000E+00  0.00000000E+00
  7.44444444E+01  7.33333333E+00  0.00000000E+00
  7.44444444E+01  6.66666667E+00  0.00000000E+00
  7.44444444E+01  6.00000000E+00  0.00000000E+00
  7.44444444E+01  5.33333333E+00  0.00000000E+00
  7.44444444E+01  4.66666667E+00  0.00000000E+00
  7.44444444E+01  4.00000000E+00  0.00000000E+00
  7.44444444E+01  3.33333333E+00  0.00000000E+00
  7.44444444E+01  2.66666667E+00  0.00000000E+00
  7.44444444E+01  2.00000000E+00  0.00000000E+00
  7.44444444E+01  1.33333333E+00  0.00000000E+00
  7.44444444E+01  6.66666667E-01  0.00000000E+00
  7.44444444E+01  1.66533454E-15  0.00000000E+00
  7.55555556E+01  1.00000000E+01  0.00000000E+00
  7.55555556E+01  9.33333333E+00  0.00000000E+00
  7.55555556E+01  8.66666667E+00  0.00000000E+00
  7.55555556E+01  8.00000000E+00  0.00000000E+00
  7.55555556E+01  7.33333333E+00  0.00000000E+00
  7.55555556E+01  6.66666667E+00  0.00000000E+00
  7.55555556E+01  6.00000000E+00  0.00000000E+00
  7.55555556E+01  5.33333333E+00  0.00000000E+00
  7.55555556E+01  4.66666667E+00  0.00000000E+00
  7.55555556E+01  4.00000000E+00  0.00000000E+00
  7.55555556E+01  3.33333333E+00  0.00000000E+00
  7.55555556E+01  2.66666667E+00  0.00000000E+00
  7.55555556E+01  2.00000000E+00  0.00000000E+00
  7.55555556E+01  1.33333333E+00  0.00000000E+00
  7.55555556E+01  6.66666667E-01  0.00000000E+00
  7.55555556E+01  1.66533454E-15  0.00000000E+00
  7.66666667E+01  1.00000000E+01  0.00000000E+00
  7.66666667E+01  9.33333333E+00  0.00000000E+00
  7.66666667E+01  8.66666667E+00  0.00000000E+00
  7.66666667E+01  8.00000000E+00  0.00000000E+00
  7.66666667E+01  7.33333333E+00  0.00000000E+00
  7.66666667E+01  6.66666667E+00  0.00000000E+00
  7.66666667E+01  6.00000000E+00  0.00000000E+00
  7.66666667E+01  5.33333333E+00  0.00000000E+00
  7.66666667E+01  4.66666667E+00  0.00000000E+00
  7.66666667E+01  4.00000000E+00  0.00000000E+00
  7.66666667E+01  3.33333333E+00  0.00000000E+00
  7.66666667E+01  2.66666667E+00  0.00000000E+00
  7.66666667E+01  2.00000000E+00  0.00000000E+00
  7.66666667E+01  1.33333333E+00  0.00000000E+00
  7.66666667E+01  6.66666667E-01  0.00000000E+00
  7.66666667E+01  1.66533454E-15  0.00000000E+00
  7.77777778E+01  1.00000000E+01  0.00000000E+00
  7.77777778E+01  9.33333333E+00  0.00000000E+00
  7.77777778E+01  8.66666667E+00  0.00000000E+00
  7.77777778E+01  8.00000000E+00  0.00000000E+00
  7.77777778E+01  7.33333333E+00  0.00000000E+00
  7.77777778E+01  6.66666667E+00  0.00000000E+00
  7.77777778E+01  6.00000000E+00  0.00000000E+00
  7.77777778E+01  5.33333333E+00  0.00000000E+00
  7.77777778E+01  4.66666667E+00  0.00000000E+00
  7.77777778E+01  4.00000000E+00  0.00000000E+00
  7.77777778E+01  3.33333333E+00  0.00000000E+00
  7.77777778E+01  2.66666667E+00  0.00000000E+00
  7.77777778E+01  2.00000000E+00  0.00000000E+00
  7.77777778E+01  1.33333333E+00  0.00000000E+00
  7.77777778E+01  6.66666667E-01  0.00000000E+00
  7.77777778E+01  1.66533454E-15  0.00000000E+00
  7.88888889E+01  1.00000000E+01  0.00000000E+00
  7.88888889E+01  9.33333333E+00  0.00000000E+00
  7.88888889E+01  8.66666667E+00  0.00000000E+00
  7.88888889E+01  8.00000000E+00  0.00000000E+00
  7.88888889E+01  7.33333333E+00  0.00000000E+00
  7.88888889E+01  6.66666667E+00  0.00000000E+00
  7.88888889E+01  6.00000000E+00  0.00000000E+00
  7.88888889E+01  5.33333333E+00  0.00000000E+00
  7.88888889E+01  4.66666667E+00  0.00000000E+00
  7.88888889E+01  4.00000000E+00  0.00000000E+00
  7.88888889E+01  3.33333333E+00  0.00000000E+00
  7.88888889E+01  2.66666667E+00  0.00000000E+00
  7.88888889E+01  2.00000000E+00  0.00000000E+00
  7.88888889E+01  1.33333333E+00  0.00000000E+00
  7.88888889E+01  6.66666667E-01  0.00000000E+00
  7.88888889E+01  1.66533454E-15  0.00000000E+00
  8.00000000E+01  1.00000000E+01  0.00000000E+00
  8.00000000E+01  9.33333333E+00  0.00000000E+00
  8.00000000E+01  8.66666667E+00  0.00000000E+00
  8.00000000E+01  8.00000000E+00  0.00000000E+00
  8.00000000E+01  7.33333333E+00  0.00000000E+00
  8.00000000E+01  6.66666667E+00  0.00000000E+00
  8.00000000E+01  6.00000000E+00  0.00000000E+00
  8.00000000E+01  5.33333333E+00  0.00000000E+00
  8.00000000E+01  4.66666667E+00  0.00000000E+00
  8.00000000E+01  4.00000000E+00  0.00000000E+00
  8.00000000E+01  3.33333333E+00  0.00000000E+00
  8.00000000E+01  2.66666667E+00  0.00000000E+00
  8.00000000E+01  2.00000000E+00  0.00000000E+00
  8.00000000E+01  1.33333333E+00  0.00000000E+00
  8.00000000E+01  6.66666667E-01  0.00000000E+00
  8.00000000E+01  1.66533454E-15  0.00000000E+00
  8.11111111E+01  1.00000000E+01  0.00000000E+00
  8.11111111E+01  9.33333333E+00  0.00000000E+00
  8.11111111E+01  8.66666667E+00  0.00000000E+00
  8.11111111E+01  8.00000000E+00  0.00000000E+00
  8.11111111E+01  7.33333333E+00  0.00000000E+00
  8.11111111E+01  6.66666667E+00  0.00000000E+00
  8.11111111E+01  6.00000000E+00  0.00000000E+00
  8.11111111E+01  5.33333333E+00  0.00000000E+00
  8.11111111E+01  4.66666667E+00  0.00000000E+00
  8.11111111E+01  4.00000000E+00  0.00000000E+00
  8.11111111E+01  3.33333333E+00  0.00000000E+00
  8.11111111E+01  2.66666667E+00  0.00000000E+00
  8.11111111E+01  2.00000000E+00  0.00000000E+00
  8.11111111E+01  1.33333333E+00  0.00000000E+00
  8.11111111E+01  6.66666667E-01  0.00000000E+00
  8.11111111E+01  1.66533454E-15  0.00000000E+00
  8.22222222E+01  1.00000000E+01  0.00000000E+00
  8.22222222E+01  9.33333333E+00  0.00000000E+00
  8.22222222E+01  8.66666667E+00  0.00000000E+00
  8.22222222E+01  8.00000000E+00  0.00000000E+00
  8.22222222E+01  7.33333333E+00  0.00000000E+00
  8.22222222E+01  6.66666667E+00  0.00000000E+00
  8.22222222E+01  6.00000000E+00  0.00000000E+00
  8.22222222E+01  5.33333333E+00  0.00000000E+00
  8.22222222E+01  4.66666667E+00  0.00000000E+00
  8.22222222E+01  4.00000000E+00  0.00000000E+00
  8.22222222E+01  3.33333333E+00  0.00000000E+00
  8.22222222E+01  2.66666667E+00  0.00000000E+00
  8.22222222E+01  2.00000000E+00  0.00000000E+00
  8.22222222E+01  1.33333333E+00  0.00000000E+00
  8.22222222E+01  6.66666667E-01  0.00000000E+00
  8.22222222E+01  1.66533454E-15  0.00000000E+00
  8.33333333E+01  1.00000000E+01  0.00000000E+00
  8.33333333E+01  9.33333333E+00  0.00000000E+00
  8.33333333E+01  8.66666667E+00  0.00000000E+00
  8.33333333E+01  8.00000000E+00  0.00000000E+00
  8.33333333E+01  7.33333333E+00  0.00000000E+00
  8.33333333E+01  6.66666667E+00  0.00000000E+00
  8.33333333E+01  6.00000000E+00  0.00000000E+00
  8.33333333E+01  5.33333333E+00  0.00000000E+00
  8.33333333E+01  4.66666667E+00  0.00000000E+00
  8.33333333E+01  4.00000000E+00  0.00000000E+00
  8.33333333E+01  3.33333333E+00  0.00000000E+00
  8.33333333E+01  2.66666667E+00  0.00000000E+00
  8.33333333E+01  2.00000000E+00  0.00000000E+00
  8.33333333E+01  1.33333333E+00  0.00000000E+00
  8.33333333E+01  6.66666667E-01  0.00000000E+00
  8.33333333E+01  1.66533454E-15  0.00000000E+00
  8.44444444E+01  1.00000000E+01  0.00000000E+00
  8.44444444E+01  9.33333333E+00  0.00000000E+00
  8.44444444E+01  8.66666667E+00  0.00000000E+00
  8.44444444E+01  8.00000000E+00  0.00000000E+00
  8.44444444E+01  7.33333333E+00  0.00000000E+00
  8.44444444E+01  6.66666667E+00  0.00000000E+00
  8.44444444E+01  6.00000000E+00  0.00000000E+00
  8.44444444E+01  5.33333333E+00  0.00000000E+00
  8.44444444E+01  4.66666667E+00  0.00000000E+00
  8.44444444E+01  4.00000000E+00  0.00000000E+00
  8.44444444E+01  3.33333333E+00  0.00000000E+00
  8.44444444E+01  2.66666667E+00  0.00000000E+00
  8.44444444E+01  2.00000000E+00  0.00000000E+00
  8.44444444E+01  1.33333333E+00  0.00000000E+00
  8.44444444E+01  6.66666667E-01  0.00000000E+00
  8.44444444E+01  1.66533454E-15  0.00000000E+00
  8.55555556E+01  1.00000000E+01  0.00000000E+00
  8.55555556E+01  9.33333333E+00  0.00000000E+00
  8.55555556E+01  8.66666667E+00  0.00000000E+00
  8.55555556E+01  8.00000000E+00  0.00000000E+00
  8.55555556E+01  7.33333333E+00  0.00000000E+00
  8.55555556E+01  6.66666667E+00  0.00000000E+00
  8.55555556E+01  6.00000000E+00  0.00000000E+00
  8.55555556E+01  5.33333333E+00  0.00000000E+00
  8.55555556E+01  4.66666667E+00  0.00000000E+00
  8.55555556E+01  4.00000000E+00  0.00000000E+00
  8.55555556E+01  3.33333333E+00  0.00000000E+00
  8.55555556E+01  2.66666667E+00  0.00000000E+00
  8.55555556E+01  2.00000000E+00  0.00000000E+00
  8.55555556E+01  1.33333333E+00  0.00000000E+00
  8.55555556E+01  6.66666667E-01  0.00000000E+00
  8.55555556E+01  1.66533454E-15  0.00000000E+00
  8.66666667E+01  1.00000000E+01  0.00000000E+00
  8.66666667E+01  9.33333333E+00  0.00000000E+00
  8.66666667E+01  8.66666667E+00  0.00000000E+00
  8.66666667E+01  8.00000000E+00  0.00000000E+00
  8.66666667E+01  7.33333333E+00  0.00000000E+00
  8.66666667E+01  6.66666667E+00  0.00000000E+00
  8.66666667E+01  6.00000000E+00  0.00000000E+00
  8.66666667E+01  5.33333333E+00  0.00000000E+00
  8.66666667E+01  4.66666667E+00  0.00000000E+00
  8.66666667E+01  4.00000000E+00  0.00000000E+00
  8.66666667E+01  3.33333333E+00  0.00000000E+00
  8.66666667E+01  2.66666667E+00  0.00000000E+00
  8.66666667E+01  2.00000000E+00  0.00000000E+00
  8.66666667E+01  1.33333333E+00  0.00000000E+00
  8.66666667E+01  6.66666667E-01  0.00000000E+00
  8.66666667E+01  1.66533454E-15  0.00000000E+00
  8.77777778E+01  1.00000000E+01  0.00000000E+00
  8.77777778E+01  9.33333333E+00  0.00000000E+00
  8.77777778E+01  8.66666667E+00  0.00000000E+00
  8.77777778E+01  8.00000000E+00  0.00000000E+00
  8.77777778E+01  7.33333333E+00  0.00000000E+00
  8.77777778E+01  6.66666667E+00  0.00000000E+00
  8.77777778E+01  6.00000000E+00  0.00000000E+00
  8.77777778E+01  5.33333333E+00  0.00000000E+00
  8.77777778E+01  4.66666667E+00  0.00000000E+00
  8.77777778E+01  4.00000000E+00  0.00000000E+00
  8.77777778E+01  3.33333333E+00  0.00000000E+00
  8.77777778E+01  2.66666667E+00  0.00000000E+00
  8.77777778E+01  2.00000000E+00  0.00000000E+00
  8.77777778E+01  1.33333333E+00  0.00000000E+00
  8.77777778E+01  6.66666667E-01  0.00000000E+00
  8.77777778E+01  1.66533454E-15  0.00000000E+00
  8.88888889E+01  1.00000000E+01  0.00000000E+00
  8.88888889E+01  9.33333333E+00  0.00000000E+00
  8.88888889E+01  8.66666667E+00  0.00000000E+00
  8.88888889E+01  8.00000000E+00  0.00000000E+00
  8.88888889E+01  7.33333333E+00  0.00000000E+00
  8.88888889E+01  6.66666667E+00  0.00000000E+00
  8.88888889E+01  6.00000000E+00  0.00000000E+00
  8.88888889E+01  5.33333333E+00  0.00000000E+00
  8.88888889E+01  4.66666667E+00  0.00000000E+00
  8.88888889E+01  4.00000000E+00  0.00000000E+00
  8.88888889E+01  3.33333333E+00  0.00000000E+00
  8.88888889E+01  2.66666667E+00  0.00000000E+00
  8.88888889E+01  2.00000000E+00  0.00000000E+00
  8.88888889E+01  1.33333333E+00  0.00000000E+00
  8.88888889E+01  6.66666667E-01  0.00000000E+00
  8.88888889E+01  1.66533454E-15  0.00000000E+00
  9.00000000E+01  1.00000000E+01  0.00000000E+00
  9.00000000E+01  9.33333333E+00  0.00000000E+00
  9.00000000E+01  8.66666667E+00  0.00000000E+00
  9.00000000E+01  8.00000000E+00  0.00000000E+00
  9.00000000E+01  7.33333333E+00  0.00000000E+00
  9.00000000E+01  6.66666667E+00  0.00000000E+00
  9.00000000E+01  6.00000000E+00  0.00000000E+00
  9.00000000E+01  5.33333333E+00  0.00000000E+00
  9.00000000E+01  4.66666667E+00  0.00000000E+00
  9.00000000E+01  4.00000000E+00  0.00000000E+00
  9.00000000E+01  3.33333333E+00  0.00000000E+00
  9.00000000E+01  2.66666667E+00  0.00000000E+00
  9.00000000E+01  2.00000000E+00  0.00000000E+00
  9.00000000E+01  1.33333333E+00  0.00000000E+00
  9.00000000E+01  6.66666667E-01  0.00000000E+00
  9.00000000E+01  1.66533454E-15  0.00000000E+00
  9.11111111E+01  1.00000000E+01  0.00000000E+00
  9.11111111E+01  9.33333333E+00  0.00000000E+00
  9.11111111E+01  8.66666667E+00  0.00000000E+00
  9.11111111E+01  8.00000000E+00  0.00000000E+00
  9.11111111E+01  7.33333333E+00  0.00000000E+00
  9.11111111E+01  6.66666667E+00  0.00000000E+00
  9.11111111E+01  6.00000000E+00  0.00000000E+00
  9.11111111E+01  5.33333333E+00  0.00000000E+00
  9.11111111E+01  4.66666667E+00  0.00000000E+00
  9.11111111E+01  4.00000000E+00  0.00000000E+00
  9.11111111E+01  3.33333333E+00  0.00000000E+00
  9.11111111E+01  2.66666667E+00  0.00000000E+00
  9.11111111E+01  2.00000000E+00  0.00000000E+00
  9.11111111E+01  1.33333333E+00  0.00000000E+00
  9.11111111E+01  6.66666667E-01  0.00000000E+00
  9.11111111E+01  1.66533454E-15  0.00000000E+00
  9.22222222E+01  1.00000000E+01  0.00000000E+00
  9.22222222E+01  9.33333333E+00  0.00000000E+00
  9.22222222E+01  8.66666667E+00  0.00000000E+00
  9.22222222E+01  8.00000000E+00  0.00000000E+00
  9.22222222E+01  7.33333333E+00  0.00000000E+00
  9.22222222E+01  6.66666667E+00  0.00000000E+00
  9.22222222E+01  6.00000000E+00  0.00000000E+00
  9.22222222E+01  5.33333333E+00  0.00000000E+00
  9.22222222E+01  4.66666667E+00  0.00000000E+00
  9.22222222E+01  4.00000000E+00  0.00000000E+00
  9.22222222E+01  3.33333333E+00  0.00000000E+00
  9.22222222E+01  2.66666667E+00  0.00000000E+00
  9.22222222E+01  2.00000000E+00  0.00000000E+00
  9.22222222E+01  1.33333333E+00  0.00000000E+00
  9.22222222E+01  6.66666667E-01  0.00000000E+00
  9.22222222E+01  1.66533454E-15  0.00000000E+00
  9.33333333E+01  1.00000000E+01  0.00000000E+00
  9.33333333E+01  9.33333333E+00  0.00000000E+00
  9.33333333E+01  8.66666667E+00  0.00000000E+00
  9.33333333E+01  8.00000000E+00  0.00000000E+00
  9.33333333E+01  7.33333333E+00  0.00000000E+00
  9.33333333E+01  6.66666667E+00  0.00000000E+00
  9.33333333E+01  6.00000000E+00  0.00000000E+00
  9.33333333E+01  5.33333333E+00  0.00000000E+00
  9.33333333E+01  4.66666667E+00  0.00000000E+00
  9.33333333E+01  4.00000000E+00  0.00000000E+00
  9.33333333E+01  3.33333333E+00  0.00000000E+00
  9.33333333E+01  2.66666667E+00  0.00000000E+00
  9.33333333E+01  2.00000000E+00  0.00000000E+00
  9.33333333E+01  1.33333333E+00  0.00000000E+00
  9.33333333E+01  6.66666667E-01  0.00000000E+00
  9.33333333E+01  1.66533454E-15  0.00000000E+00
  9.44444444E+01  1.00000000E+01  0.00000000E+00
  9.44444444E+01  9.33333333E+00  0.00000000E+00
  9.44444444E+01  8.66666667E+00  0.00000000E+00
  9.44444444E+01  8.00000000E+00  0.00000000E+00
  9.44444444E+01  7.33333333E+00  0.00000000E+00
  9.44444444E+01  6.66666667E+00  0.00000000E+00
  9.44444444E+01  6.00000000E+00  0.00000000E+00
  9.44444444E+01  5.33333333E+00  0.00000000E+00
  9.44444444E+01  4.66666667E+00  0.00000000E+00
  9.44444444E+01  4.00000000E+00  0.00000000E+00
  9.44444444E+01  3.33333333E+00  0.00000000E+00
  9.44444444E+01  2.66666667E+00  0.00000000E+00
  9.44444444E+01  2.00000000E+00  0.00000000E+00
  9.44444444E+01  1.33333333E+00  0.00000000E+00
  9.44444444E+01  6.66666667E-01  0.00000000E+00
  9.44444444E+01  1.66533454E-15  0.00000000E+00
  9.55555556E+01  1.00000000E+01  0.00000000E+00
  9.55555556E+01  9.33333333E+00  0.00000000E+00
  9.55555556E+01  8.66666667E+00  0.00000000E+00
  9.55555556E+01  8.00000000E+00  0.00000000E+00
  9.55555556E+01  7.33333333E+00  0.00000000E+00
  9.55555556E+01  6.66666667E+00  0.00000000E+00
  9.55555556E+01  6.00000000E+00  0.00000000E+00
  9.55555556E+01  5.33333333E+00  0.00000000E+00
  9.55555556E+01  4.66666667E+00  0.00000000E+00
  9.55555556E+01  4.00000000E+00  0.00000000E+00
  9.55555556E+01  3.33333333E+00  0.00000000E+00
  9.55555556E+01  2.66666667E+00  0.00000000E+00
  9.55555556E+01  2.00000000E+00  0.00000000E+00
  9.55555556E+01  1.33333333E+00  0.00000000E+00
  9.55555556E+01  6.66666667E-01  0.00000000E+00
  9.55555556E+01  1.66533454E-15  0.00000000E+00
  9.66666667E+01  1.00000000E+01  0.00000000E+00
  9.66666667E+01  9.33333333E+00  0.00000000E+00
  9.66666667E+01  8.66666667E+00  0.00000000E+00
  9.66666667E+01  8.00000000E+00  0.00000000E+00
  9.66666667E+01  7.33333333E+00  0.00000000E+00
  9.66666667E+01  6.66666667E+00  0.00000000E+00
  9.66666667E+01  6.00000000E+00  0.00000000E+00
  9.66666667E+01  5.33333333E+00  0.00000000E+00
  9.66666667E+01  4.66666667E+00  0.00000000E+00
  9.66666667E+01  4.00000000E+00  0.00000000E+00
  9.66666667E+01  3.33333333E+00  0.00000000E+00
  9.66666667E+01  2.66666667E+00  0.00000000E+00
  9.66666667E+01  2.00000000E+00  0.00000000E+00
  9.66666667E+01  1.33333333E+00  0.00000000E+00
  9.66666667E+01  6.66666667E-01  0.00000000E+00
  9.66666667E+01  1.66533454E-15  0.00000000E+00
  9.77777778E+01  1.00000000E+01  0.00000000E+00
  9.77777778E+01  9.33333333E+00  0.00000000E+00
  9.77777778E+01  8.66666667E+00  0.00000000E+00
  9.77777778E+01  8.00000000E+00  0.00000000E+00
  9.77777778E+01  7.33333333E+00  0.00000000E+00
  9.77777778E+01  6.66666667E+00  0.00000000E+00
  9.77777778E+01  6.00000000E+00  0.00000000E+00
  9.77777778E+01  5.33333333E+00  0.00000000E+00
  9.77777778E+01  4.66666667E+00  0.00000000E+00
  9.77777778E+01  4.00000000E+00  0.00000000E+00
  9.77777778E+01  3.33333333E+00  0.00000000E+00
  9.77777778E+01  2.66666667E+00  0.00000000E+00
  9.77777778E+01  2.00000000E+00  0.00000000E+00
  9.77777778E+01  1.33333333E+00  0.00000000E+00
  9.77777778E+01  6.66666667E-01  0.00000000E+00
  9.77777778E+01  1.66533454E-15  0.00000000E+00
  9.88888889E+01  1.00000000E+01  0.00000000E+00
  9.88888889E+01  9.33333333E+00  0.00000000E+00
  9.88888889E+01  8.66666667E+00  0.00000000E+00
  9.88888889E+01  8.00000000E+00  0.00000000E+00
  9.88888889E+01  7.33333333E+00  0.00000000E+00
  9.88888889E+01  6.66666667E+00  0.00000000E+00
  9.88888889E+01  6.00000000E+00  0.00000000E+00
  9.88888889E+01  5.33333333E+00  0.00000000E+00
  9.88888889E+01  4.66666667E+00  0.00000000E+00
  9.88888889E+01  4.00000000E+00  0.00000000E+00
  9.88888889E+01  3.33333333E+00  0.00000000E+00
  9.88888889E+01  2.66666667E+00  0.00000000E+00
  9.88888889E+01  2.00000000E+00  0.00000000E+00
  9.88888889E+01  1.33333333E+00  0.00000000E+00
  9.88888889E+01  6.66666667E-01  0.00000000E+00
  9.88888889E+01  1.66533454E-15  0.00000000E+00
  1.00000000E+02  1.00000000E+01  0.00000000E+00
  1.00000000E+02  9.33333333E+00  0.00000000E+00
  1.00000000E+02  8.66666667E+00  0.00000000E+00
  1.00000000E+02  8.00000000E+00  0.00000000E+00
  1.00000000E+02  7.33333333E+00  0.00000000E+00
  1.00000000E+02  6.66666667E+00  0.00000000E+00
  1.00000000E+02  6.00000000E+00  0.00000000E+00
  1.00000000E+02  5.33333333E+00  0.00000000E+00
  1.00000000E+02  4.66666667E+00  0.00000000E+00
  1.00000000E+02  4.00000000E+00  0.00000000E+00
  1.00000000E+02  3.33333333E+00  0.00000000E+00
  1.00000000E+02  2.66666667E+00  0.00000000E+00
  1.00000000E+02  2.00000000E+00  0.00000000E+00
  1.00000000E+02  1.33333333E+00  0.00000000E+00
  1.00000000E+02  6.66666667E-01  0.00000000E+00
  1.00000000E+02  1.66533454E-15  0.00000000E+00
CELLS      1350      6750
         4           0           1          17          16
         4           1           2          18          17
         4           2           3          19          18
         4           3           4          20          19
         4           4           5          21          20
         4           5           6          22          21
         4           6           7          23          22
         4           7           8          24          23
         4           8           9          25          24
         4           9          10          26          25
         4          10          11          27          26
         4          11          12          28          27
         4          12          13          29          28
         4          13          14          30          29
         4          14          15          31          30
         4          16          17          33          32
         4          17          18          34          33
         4          18          19          35          34
         4          19          20          36          35
         4          20          21          37          36
         4          21          22          38          37
         4          22          23          39          38
         4          23          24          40          39
         4          24          25          41          40
         4          25          26          42          41
         4          26          27          43          42
         4          27          28          44          43
         4          28          29          45          44
         4          29          30          46          45
         4          30          31          47          46
         4          32          33          49          48
         4          33          34          50          49
         4          34          35          51          50
         4          35          36          52          51
         4          36          37          53          52
         4          37          38          54          53
         4          38          39          55          54
         4          39          40          56          55
         4          40          41          57          56
         4          41          42          58          57
         4          42          43          59          58
         4          43          44          60          59
         4          44          45          61          60
         4          45          46          62          61
         4          46          47          63          62
         4          48          49          65          64
         4          49          50          66          65
         4          50          51          67          66
         4          51          52          68          67
         4          52          53          69          68
         4          53          54          70          69
         4          54          55          71          70
         4          55          56          72          71
         4          56          57          73          72
         4          57          58          74          73
         4          58          59          75          74
         4          59          60          76          75
         4          60          61          77          76
         4          61          62          78          77
         4          62          63          79          78
         4          64          65          81          80
         4          65          66          82          81
         4          66          67          83          82
         4          67          68          84          83
         4          68          69          85          84
         4          69          70          86          85
         4          70          71          87          86
         4          71          72          88          87
         4          72          73          89          88
         4          73          74          90          89
         4          74          75          91          90
         4          75          76          92          91
         4          76          77          93          92
         4          77          78          94          93
         4          78          79          95          94
         4          80          81          97          96
         4          81          82          98          97
         4          82          83          99          98
         4          83          84         100          99
         4          84          85         101         100
         4          85          86         102         101
         4          86          87         103         102
         4          87          88         104         103
         4          88          89         105         104
         4          89          90         106         105
         4          90          91         107         106
         4          91          92         108         107
         4          92          93         109         108
         4          93          94         110         109
         4          94          95         111         110
         4          96          97         113         112
         4          97          98         114         113
         4          98          99         115         114
         4          99         100         116         115
         4         100         101         117         116
         4         101         102         118         117
         4         102         103         119         118
         4         103         104         120         119
         4         104         105         121         120
         4         105         106         122         121
         4         106         107         123         122
         4         107         108         124         123
         4         108         109         125         124
         4         109         110         126         125
         4         110         111         127         126
         4         112         113         129         128
         4         113         114         130         129
         4         114         115         131         130
         4         115         116         132         131
         4         116         117         133         132
         4         117         118         134         133
         4         118         119         135         134
         4         119         120         136         135
         4         120         121         137         136
         4         121         122         138         137
         4         122         123         139         138
         4         123         124         140         139
         4         124         125         141         140
         4         125         126         142         141
         4         126         127         143         142
         4         128         129         145         144
         4         129         130         146         145
         4         130         131         147         146
         4         131         132         148         147
         4         132         133         149         148
         4         133         134         150         149
         4         134         135         151         150
         4         135         136         152         151
         4         136         137         153         152
         4         137         138         154         153
         4         138         139         155         154
         4         139         140         156         155
         4         140         141         157         156
         4         141         142         158         157
         4         142         143         159         158
         4         144         145         161         160
         4         145         146         162         161
         4         146         147         163         162
         4         147         148         164         163
         4         148         149         165         164
         4         149         150         166         165
         4         150         151         167         166
         4         151         152         168         167
         4         152         153         169         168
         4         153         154         170         169
         4         154         155         171         170
         4         155         156         172         171
         4         156         157         173         172
         4         157         158         174         173
         4         158         159         175         174
         4         160         161         177         176
         4         161         162         178         177
         4         162         163         179         178
         4         163         164         180         179
         4         164         165         181         180
         4         165         166         182         181
         4         166         167         183         182
         4         167         168         184         183
         4         168         169         185         184
         4         169         170         186         185
         4         170         171         187         186
         4         171         172         188         187
         4         172         173         189         188
         4         173         174         190         189
         4         174         175         191         190
         4         176         177         193         192
         4         177         178         194         193
         4         178         179         195         194
         4         179         180         196         195
         4         180         181         197         196
         4         181         182         198         197
         4         182         183         199         198
         4         183         184         200         199
         4         184         185         201         200
         4         185         186         202         201
         4         186         187         203         202
         4         187         188         204         203
         4         188         189         205         204
         4         189         190         206         205
         4         190         191         207         206
         4         192         193         209         208
         4         193         194         210         209
         4         194         195         211         210
         4         195         196         212         211
         4         196         197         213         212
         4         197         198         214         213
         4         198         199         215         214
         4         199         200         216         215
         4         200         201         217         216
         4         201         202         218         217
         4         202         203         219         218
         4         203         204         220         219
         4         204         205         221         220
         4         205         206         222         221
         4         206         207         223         222
         4         208         209         225         224
         4         209         210         226         225
         4         210         211         227         226
         4         211         212         228         227
         4         212         213         229         228
         4         213         214         230         229
         4         214         215         231         230
         4         215         216         232         231
         4         216         217         233         232
         4         217         218         234         233
         4         218         219         235         234
         4         219         220         236         235
         4         220         221         237         236
         4         221         222         238         237
         4         222         223         239         238
         4         224         225         241         240
         4         225         226         242         241
         4         226         227         243         242
         4         227         228         244         243
         4         228         229         245         244
         4         229         230         246         245
         4         230         231         247         246
         4         231         232         248         247
         4         232         233         249         248
         4         233         234         250         249
         4         234         235         251         250
         4         235         236         252         251
         4         236         237         253         252
         4         237         238         254         253
         4         238         239         255         254
         4         240         241         257         256
         4         241         242         258         257
         4         242         243         259         258
         4         243         244         260         259
         4         244         245         261         260
         4         245         246         262         261
         4         246         247         263         262
         4         247         248         264         263
         4         248         249         265         264
         4         249         250         266         265
         4         250         251         267         266
         4         251         252         268         267
         4         252         253         269         268
         4         253         254         270         269
         4         254         255         271         270
         4         256         257         273         272
         4         257         258         274         273
         4         258         259         275         274
         4         259         260         276         275
         4         260         261         277         276
         4         261         262         278         277
         4         262         263         279         278
         4         263         264         280         279
         4         264         265         281         280
         4         265         266         282         281
         4         266         267         283         282
         4         267         268         284         283
         4         268         269         285         284
         4         269         270         286         285
         4         270         271         287         286
         4         272         273         289         288
         4         273         274         290         289
         4         274         275         291         290
         4         275         276         292         291
         4         276         277         293         292
         4         277         278         294         293
         4         278         279         295         294
         4         279         280         296         295
         4         280         281         297         296
         4         281         282         298         297
         4         282         283         299         298
         4         283         284         300         299
         4         284         285         301         300
         4         285         286         302         301
         4         286         287         303         302
         4         288         289         305         304
         4         289         290         306         305
         4         290         291         307         306
         4         291         292         308         307
         4         292         293         309         308
         4         293         294         310         309
         4         294         295         311         310
         4         295         296         312         311
         4         296         297         313         312
         4         297         298         314         313
         4         298         299         315         314
         4         299         300         316         315
         4         300         301         317         316
         4         301         302         318         317
         4         302         303         319         318
         4         304         305         321         320
         4         305         306         322         321
         4         306         307         323         322
         4         307         308         324         323
         4         308         309         325         324
         4         309         310         326         325
         4         310         311         327         326
         4         311         312         328         327
         4         312         313         329         328
         4         313         314         330         329
         4         314         315         331         330
         4         315         316         332         331
         4         316         317         333         332
         4         317         318         334         333
         4         318         319         335         334
         4         320         321         337         336
         4         321         322         338         337
         4         322         323         339         338
         4         323         324         340         339
         4         324         325         341         340
         4         325         326         342         341
         4         326         327         343         342
         4         327         328         344         343
         4         328         329         345         344
         4         329         330         346         345
         4         330         331         347         346
         4         331         332         348         347
         4         332         333         349         348
         4         333         334         350         349
         4         334         335         351         350
         4         336         337         353         352
         4         337         338         354         353
         4         338         339         355         354
         4         339         340         356         355
         4         340         341         357         356
         4         341         342         358         357
         4         342         343         359         358
         4         343         344         360         359
         4         344         345         361         360
         4         345         346         362         361
         4         346         347         363         362
         4         347         348         364         363
         4         348         349         365         364
         4         349         350         366         365
         4         350         351         367         366
         4         352         353         369         368
         4         353         354         370         369
         4         354         355         371         370
         4         355         356         372         371
         4         356         357         373         372
         4         357         358         374         373
         4         358         359         375         374
         4         359         360         376         375
         4         360         361         377         376
         4         361         362         378         377
         4         362         363         379         378
         4         363         364         380         379
         4         364         365         381         380
         4         365         366         382         381
         4         366         367         383         382
         4         368         369         385         384
         4         369         370         386         385
         4         370         371         387         386
         4         371         372         388         387
         4         372         373         389         388
         4         373         374         390         389
         4         374         375         391         390
         4         375         376         392         391
         4         376         377         393         392
         4         377         378         394         393
         4         378         379         395         394
         4         379         380         396         395
         4         380         381         397         396
         4         381         382         398         397
         4         382         383         399         398
         4         384         385         401         400
         4         385         386         402         401
         4         386         387         403         402
         4         387         388         404         403
         4         388         389         405         404
         4         389         390         406         405
         4         390         391         407         406
         4         391         392         408         407
         4         392         393         409         408
         4         393         394         410         409
         4         394         395         411         410
         4         395         396         412         411
         4         396         397         413         412
         4         397         398         414         413
         4         398         399         415         414
         4         400         401         417         416
         4         401         402         418         417
         4         402         403         419         418
         4         403         404         420         419
         4         404         405         421         420
         4         405         406         422         421
         4         406         407         423         422
         4         407         408         424         423
         4         408         409         425         424
         4         409         410         426         425
         4         410         411         427         426
         4         411         412         428         427
         4         412         413         429         428
         4         413         414         430         429
         4         414         415         431         430
         4         416         417         433         432
         4         417         418         434         433
         4         418         419         435         434
         4         419         420         436         435
         4         420         421         437         436
         4         421         422         438         437
         4         422         423         439         438
         4         423         424         440         439
         4         424         425         441         440
         4         425         426         442         441
         4         426         427         443         442
         4         427         428         444         443
         4         428         429         445         444
         4         429         430         446         445
         4         430         431         447         446
         4         432         433         449         448
         4         433         434         450         449
         4         434         435         451         450
         4         435         436         452         451
         4         436         437         453         452
         4         437         438         454         453
         4         438         439         455         454
         4         439         440         456         455
         4         440         441         457         456
         4         441         442         458         457
         4         442         443         459         458
         4         443         444         460         459
         4         444         445         461         460
         4         445         446         462         461
         4         446         447         463         462
         4         448         449         465         464
         4         449         450         466         465
         4         450         451         467         466
         4         451         452         468         467
         4         452         453         469         468
         4         453         454         470         469
         4         454         455         471         470
         4         455         456         472         471
         4         456         457         473         472
         4         457         458         474         473
         4         458         459         475         474
         4         459         460         476         475
         4         460         461         477         476
         4         461         462         478         477
         4         462         463         479         478
         4         464         465         481         480
         4         465         466         482         481
         4         466         467         483         482
         4         467         468         484         483
         4         468         469         485         484
         4         469         470         486         485
         4         470         471         487         486
         4         471         472         488         487
         4         472         473         489         488
         4         473         474         490         489
         4         474         475         491         490
         4         475         476         492         491
         4         476         477         493         492
         4         477         478         494         493
         4         478         479         495         494
         4         480         481         497         496
         4         481         482         498         497
         4         482         483         499         498
         4         483         484         500         499
         4         484         485         501         500
         4         485         486         502         501
         4         486         487         503         502
         4         487         488         504         503
         4         488         489         505         504
         4         489         490         506         505
         4         490         491         507         506
         4         491         492         508         507
         4         492         493         509         508
         4         493         494         510         509
         4         494         495         511         510
         4         496         497         513         512
         4         497         498         514         513
         4         498         499         515         514
         4         499         500         516         515
         4         500         501         517         516
         4         501         502         518         517
         4         502         503         519         518
         4         503         504         520         519
         4         504         505         521         520
         4         505         506         522         521
         4         506         507         523         522
         4         507         508         524         523
         4         508         509         525         524
         4         509         510         526         525
         4         510         511         527         526
         4         512         513         529         528
         4         513         514         530         529
         4         514         515         531         530
         4         515         516         532         531
         4         516         517         533         532
         4         517         518         534         533
         4         518         519         535         534
         4         519         520         536         535
         4         520         521         537         536
         4         521         522         538         537
         4         522         523         539         538
         4         523         524         540         539
         4         524         525         541         540
         4         525         526         542         541
         4         526         527         543         542
         4         528         529         545         544
         4         529         530         546         545
         4         530         531         547         546
         4         531         532         548         547
         4         532         533         549         548
         4         533         534         550         549
         4         534         535         551         550
         4         535         536         552         551
         4         536         537         553         552
         4         537         538         554         553
         4         538         539         555         554
         4         539         540         556         555
         4         540         541         557         556
         4         541         542         558         557
         4         542         543         559         558
         4         544         545         561         560
         4         545         546         562         561
         4         546         547         563         562
         4         547         548         564         563
         4         548         549         565         564
         4         549         550         566         565
         4         550         551         567         566
         4         551         552         568         567
         4         552         553         569         568
         4         553         554         570         569
         4         554         555         571         570
         4         555         556         572         571
         4         556         557         573         572
         4         557         558         574         573
         4         558         559         575         574
         4         560         561         577         576
         4         561         562         578         577
         4         562         563         579         578
         4         563         564         580         579
         4         564         565         581         580
         4         565         566         582         581
         4         566         567         583         582
         4         567         568         584         583
         4         568         569         585         584
         4         569         570         586         585
         4         570         571         587         586
         4         571         572         588         587
         4         572         573         589         588
         4         573         574         590         589
         4         574         575         591         590
         4         576         577         593         592
         4         577         578         594         593
         4         578         579         595         594
         4         579         580         596         595
         4         580         581         597         596
         4         581         582         598         597
         4         582         583         599         598
         4         583         584         600         599
         4         584         585         601         600
         4         585         586         602         601
         4         586         587         603         602
         4         587         588         604         603
         4         588         589         605         604
         4         589         590         606         605
         4         590         591         607         606
         4         592         593         609         608
         4         593         594         610         609
         4         594         595         611         610
         4         595         596         612         611
         4         596         597         613         612
         4         597         598         614         613
         4         598         599         615         614
         4         599         600         616         615
         4         600         601         617         616
         4         601         602         618         617
         4         602         603         619         618
         4         603         604         620         619
         4         604         605         621         620
         4         605         606         622         621
         4         606         607         623         622
         4         608         609         625         624
         4         609         610         626         625
         4         610         611         627         626
         4         611         612         628         627
         4         612         613         629         628
         4         613         614         630         629
         4         614         615         631         630
         4         615         616         632         631
         4         616         617         633         632
         4         617         618         634         633
         4         618         619         635         634
         4         619         620         636         635
         4         620         621         637         636
         4         621         622         638         637
         4         622         623         639         638
         4         624         625         641         640
         4         625         626         642         641
         4         626         627         643         642
         4         627         628         644         643
         4         628         629         645         644
         4         629         630         646         645
         4         630         631         647         646
         4         631         632         648         647
         4         632         633         649         648
         4         633         634         650         649
         4         634         635         651         650
         4         635         636         652         651
         4         636         637         653         652
         4         637         638         654         653
         4         638         639         655         654
         4         640         641         657         656
         4         641         642         658         657
         4         642         643         659         658
         4         643         644         660         659
         4         644         645         661         660
         4         645         646         662         661
         4         646         647         663         662
         4         647         648         664         663
         4         648         649         665         664
         4         649         650         666         665
         4         650         651         667         666
         4         651         652         668         667
         4         652         653         669         668
         4         653         654         670         669
         4         654         655         671         670
         4         656         657         673         672
         4         657         658         674         673
         4         658         659         675         674
         4         659         660         676         675
         4         660         661         677         676
         4         661         662         678         677
         4         662         663         679         678
         4         663         664         680         679
         4         664         665         681         680
         4         665         666         682         681
         4         666         667         683         682
         4         667         668         684         683
         4         668         669         685         684
         4         669         670         686         685
         4         670         671         687         686
         4         672         673         689         688
         4         673         674         690         689
         4         674         675         691         690
         4         675         676         692         691
         4         676         677         693         692
         4         677         678         694         693
         4         678         679         695         694
         4         679         680         696         695
         4         680         681         697         696
         4         681         682         698         697
         4         682         683         699         698
         4         683         684         700         699
         4         684         685         701         700
         4         685         686         702         701
         4         686         687         703         702
         4         688         689         705         704
         4         689         690         706         705
         4         690         691         707         706
         4         691         692         708         707
         4         692         693         709         708
         4         693         694         710         709
         4         694         695         711         710
         4         695         696         712         711
         4         696         697         713         712
         4         697         698         714         713
         4         698         699         715         714
         4         699         700         716         715
         4         700         701         717         716
         4         701         702         718         717
         4         702         703         719         718
         4         704         705         721         720
         4         705         706         722         721
         4         706         707         723         722
         4         707         708         724         723
         4         708         709         725         724
         4         709         710         726         725
         4         710         711         727         726
         4         711         712         728         727
         4         712         713         729         728
         4         713         714         730         729
         4         714         715         731         730
         4         715         716         732         731
         4         716         717         733         732
         4         717         718         734         733
         4         718         719         735         734
         4         720         721         737         736
         4         721         722         738         737
         4         722         723         739         738
         4         723         724         740         739
         4         724         725         741         740
         4         725         726         742         741
         4         726         727         743         742
         4         727         728         744         743
         4         728         729         745         744
         4         729         730         746         745
         4         730         731         747         746
         4         731         732         748         747
         4         732         733         749         748
         4         733         734         750         749
         4         734         735         751         750
         4         736         737         753         752
         4         737         738         754         753
         4         738         739         755         754
         4         739         740         756         755
         4         740         741         757         756
         4         741         742         758         757
         4         742         743         759         758
         4         743         744         760         759
         4         744         745         761         760
         4         745         746         762         761
         4         746         747         763         762
         4         747         748         764         763
         4         748         749         765         764
         4         749         750         766         765
         4         750         751         767         766
         4         752         753         769         768
         4         753         754         770         769
         4         754         755         771         770
         4         755         756         772         771
         4         756         757         773         772
         4         757         758         774         773
         4         758         759         775         774
         4         759         760         776         775
         4         760         761         777         776
         4         761         762         778         777
         4         762         763         779         778
         4         763         764         780         779
         4         764         765         781         780
         4         765         766         782         781
         4         766         767         783         782
         4         768         769         785         784
         4         769         770         786         785
         4         770         771         787         786
         4         771         772         788         787
         4         772         773         789         788
         4         773         774         790         789
         4         774         775         791         790
         4         775         776         792         791
         4         776         777         793         792
         4         777         778         794         793
         4         778         779         795         794
         4         779         780         796         795
         4         780         781         797         796
         4         781         782         798         797
         4         782         783         799         798
         4         784         785         801         800
         4         785         786         802         801
         4         786         787         803         802
         4         787         788         804         803
         4         788         789         805         804
         4         789         790         806         805
         4         790         791         807         806
         4         791         792         808         807
         4         792         793         809         808
         4         793         794         810         809
         4         794         795         811         810
         4         795         796         812         811
         4         796         797         813         812
         4         797         798         814         813
         4         798         799         815         814
         4         800         801         817         816
         4         801         802         818         817
         4         802         803         819         818
         4         803         804         820         819
         4         804         805         821         820
         4         805         806         822         821
         4         806         807         823         822
         4         807         808         824         823
         4         808         809         825         824
         4         809         810         826         825
         4         810         811         827         826
         4         811         812         828         827
         4         812         813         829         828
         4         813         814         830         829
         4         814         815         831         830
         4         816         817         833         832
         4         817         818         834         833
         4         818         819         835         834
         4         819         820         836         835
         4         820         821         837         836
         4         821         822         838         837
         4         822         823         839         838
         4         823         824         840         839
         4         824         825         841         840
         4         825         826         842         841
         4         826         827         843         842
         4         827         828         844         843
         4         828         829         845         844
         4         829         830         846         845
         4         830         831         847         846
         4         832         833         849         848
         4         833         834         850         849
         4         834         835         851         850
         4         835         836         852         851
         4         836         837         853         852
         4         837         838         854         853
         4         838         839         855         854
         4         839         840         856         855
         4         840         841         857         856
         4         841         842         858         857
         4         842         843         859         858
         4         843         844         860         859
         4         844         845         861         860
         4         845         846         862         861
         4         846         847         863         862
         4         848         849         865         864
         4         849         850         866         865
         4         850         851         867         866
         4         851         852         868         867
         4         852         853         869         868
         4         853         854         870         869
         4         854         855         871         870
         4         855         856         872         871
         4         856         857         873         872
         4         857         858         874         873
         4         858         859         875         874
         4         859         860         876         875
         4         860         861         877         876
         4         861         862         878         877
         4         862         863         879         878
         4         864         865         881         880
         4         865         866         882         881
         4         866         867         883         882
         4         867         868         884         883
         4         868         869         885         884
         4         869         870         886         885
         4         870         871         887         886
         4         871         872         888         887
         4         872         873         889         888
         4         873         874         890         889
         4         874         875         891         890
         4         875         876         892         891
         4         876         877         893         892
         4         877         878         894         893
         4         878         879         895         894
         4         880         881         897         896
         4         881         882         898         897
         4         882         883         899         898
         4         883         884         900         899
         4         884         885         901         900
         4         885         886         902         901
         4         886         887         903         902
         4         887         888         904         903
         4         888         889         905         904
         4         889         890         906         905
         4         890         891         907         906
         4         891         892         908         907
         4         892         893         909         908
         4         893         894         910         909
         4         894         895         911         910
         4         896         897         913         912
         4         897         898         914         913
         4         898         899         915         914
         4         899         900         916         915
         4         900         901         917         916
         4         901         902         918         917
         4         902         903         919         918
         4         903         904         920         919
         4         904         905         921         920
         4         905         906         922         921
         4         906         907         923         922
         4         907         908         924         923
         4         908         909         925         924
         4         909         910         926         925
         4         910         911         927         926
         4         912         913         929         928
         4         913         914         930         929
         4         914         915         931         930
         4         915         916         932         931
         4         916         917         933         932
         4         917         918         934         933
         4         918         919         935         934
         4         919         920         936         935
         4         920         921         937         936
         4         921         922         938         937
         4         922         923         939         938
         4         923         924         940         939
         4         924         925         941         940
         4         925         926         942         941
         4         926         927         943         942
         4         928         929         945         944
         4         929         930         946         945
         4         930         931         947         946
         4         931         932         948         947
         4         932         933         949         948
         4         933         934         950         949
         4         934         935         951         950
         4         935         936         952         951
         4         936         937         953         952
         4         937         938         954         953
         4         938         939         955         954
         4         939         940         956         955
         4         940         941         957         956
         4         941         942         958         957
         4         942         943         959         958
         4         944         945         961         960
         4         945         946         962         961
         4         946         947         963         962
         4         947         948         964         963
         4         948         949         965         964
         4         949         950         966         965
         4         950         951         967         966
         4         951         952         968         967
         4         952         953         969         968
         4         953         954         970         969
         4         954         955         971         970
         4         955         956         972         971
         4         956         957         973         972
         4         957         958         974         973
         4         958         959         975         974
         4         960         961         977         976
         4         961         962         978         977
         4         962         963         979         978
         4         963         964         980         979
         4         964         965         981         980
         4         965         966         982         981
         4         966         967         983         982
         4         967         968         984         983
         4         968         969         985         984
         4         969         970         986         985
         4         970         971         987         986
         4         971         972         988         987
         4         972         973         989         988
         4         973         974         990         989
         4         974         975         991         990
         4         976         977         993         992
         4         977         978         994         993
         4         978         979         995         994
         4         979         980         996         995
         4         980         981         997         996
         4         981         982         998         997
         4         982         983         999         998
         4         983         984        1000         999
         4         984         985        1001        1000
         4         985         986        1002        1001
         4         986         987        1003        1002
         4         987         988        1004        1003
         4         988         989        1005        1004
         4         989         990        1006        1005
         4         990         991        1007        1006
         4         992         993        1009        1008
         4         993         994        1010        1009
         4         994         995        1011        1010
         4         995         996        1012        1011
         4         996         997        1013        1012
         4         997         998        1014        1013
         4         998         999        1015        1014
         4         999        1000        1016        1015
         4        1000        1001        1017        1016
         4        1001        1002        1018        1017
         4        1002        1003        1019        1018
         4        1003        1004        1020        1019
         4        1004        1005        1021        1020
         4        1005        1006        1022        1021
         4        1006        1007        1023        1022
         4        1008        1009        1025        1024
         4        1009        1010        1026        1025
         4        1010        1011        1027        1026
         4        1011        1012        1028        1027
         4        1012        1013        1029        1028
         4        1013        1014        1030        1029
         4        1014        1015        1031        1030
         4        1015        1016        1032        1031
         4        1016        1017        1033        1032
         4        1017        1018        1034        1033
         4        1018        1019        1035        1034
         4        1019        1020        1036        1035
         4        1020        1021        1037        1036
         4        1021        1022        1038        1037
         4        1022        1023        1039        1038
         4        1024        1025        1041        1040
         4        1025        1026        1042        1041
         4        1026        1027        1043        1042
         4        1027        1028        1044        1043
         4        1028        1029        1045        1044
         4        1029        1030        1046        1045
         4        1030        1031        1047        1046
         4        1031        1032        1048        1047
         4        1032        1033        1049        1048
         4        1033        1034        1050        1049
         4        1034        1035        1051        1050
         4        1035        1036        1052        1051
         4        1036        1037        1053        1052
         4        1037        1038        1054        1053
         4        1038        1039        1055        1054
         4        1040        1041        1057        1056
         4        1041        1042        1058        1057
         4        1042        1043        1059        1058
         4        1043        1044        1060        1059
         4        1044        1045        1061        1060
         4        1045        1046        1062        1061
         4        1046        1047        1063        1062
         4        1047        1048        1064        1063
         4        1048        1049        1065        1064
         4        1049        1050        1066        1065
         4        1050        1051        1067        1066
         4        1051        1052        1068        1067
         4        1052        1053        1069        1068
         4        1053        1054        1070        1069
         4        1054        1055        1071        1070
         4        1056        1057        1073        1072
         4        1057        1058        1074        1073
         4        1058        1059        1075        1074
         4        1059        1060        1076        1075
         4        1060        1061        1077        1076
         4        1061        1062        1078        1077
         4        1062        1063        1079        1078
         4        1063        1064        1080        1079
         4        1064        1065        1081        1080
         4        1065        1066        1082        1081
         4        1066        1067        1083        1082
         4        1067        1068        1084        1083
         4        1068        1069        1085        1084
         4        1069        1070        1086        1085
         4        1070        1071        1087        1086
         4        1072        1073        1089        1088
         4        1073        1074        1090        1089
         4        1074        1075        1091        1090
         4        1075        1076        1092        1091
         4        1076        1077        1093        1092
         4        1077        1078        1094        1093
         4        1078        1079        1095        1094
         4        1079        1080        1096        1095
         4        1080        1081        1097        1096
         4        1081        1082        1098        1097
         4        1082        1083        1099        1098
         4        1083        1084        1100        1099
         4        1084        1085        1101        1100
         4        1085        1086        1102        1101
         4        1086        1087        1103        1102
         4        1088        1089        1105        1104
         4        1089        1090        1106        1105
         4        1090        1091        1107        1106
         4        1091        1092        1108        1107
         4        1092        1093        1109        1108
         4        1093        1094        1110        1109
         4        1094        1095        1111        1110
         4        1095        1096        1112        1111
         4        1096        1097        1113        1112
         4        1097        1098        1114        1113
         4        1098        1099        1115        1114
         4        1099        1100        1116        1115
         4        1100        1101        1117        1116
         4        1101        1102        1118        1117
         4        1102        1103        1119        1118
         4        1104        1105        1121        1120
         4        1105        1106        1122        1121
         4        1106        1107        1123        1122
         4        1107        1108        1124        1123
         4        1108        1109        1125        1124
         4        1109        1110        1126        1125
         4        1110        1111        1127        1126
         4        1111        1112        1128        1127
         4        1112        1113        1129        1128
         4        1113        1114        1130        1129
         4        1114        1115        1131        1130
         4        1115        1116        1132        1131
         4        1116        1117        1133        1132
         4        1117        1118        1134        1133
         4        1118        1119        1135        1134
         4        1120        1121        1137        1136
         4        1121        1122        1138        1137
         4        1122        1123        1139        1138
         4        1123        1124        1140        1139
         4        1124        1125        1141        1140
         4        1125        1126        1142        1141
         4        1126        1127        1143        1142
         4        1127        1128        1144        1143
         4        1128        1129        1145        1144
         4        1129        1130        1146        1145
         4        1130        1131        1147        1146
         4        1131        1132        1148        1147
         4        1132        1133        1149        1148
         4        1133        1134        1150        1149
         4        1134        1135        1151        1150
         4        1136        1137        1153        1152
         4        1137        1138        1154        1153
         4        1138        1139        1155        1154
         4        1139        1140        1156        1155
         4        1140        1141        1157        1156
         4        1141        1142        1158        1157
         4        1142        1143        1159        1158
         4        1143        1144        1160        1159
         4        1144        1145        1161        1160
         4        1145        1146        1162        1161
         4        1146        1147        1163        1162
         4        1147        1148        1164        1163
         4        1148        1149        1165        1164
         4        1149        1150        1166        1165
         4        1150        1151        1167        1166
         4        1152        1153        1169        1168
         4        1153        1154        1170        1169
         4        1154        1155        1171        1170
         4        1155        1156        1172        1171
         4        1156        1157        1173        1172
         4        1157        1158        1174        1173
         4        1158        1159        1175        1174
         4        1159        1160        1176        1175
         4        1160        1161        1177        1176
         4        1161        1162        1178        1177
         4        1162        1163        1179        1178
         4        1163        1164        1180        1179
         4        1164        1165        1181        1180
         4        1165        1166        1182        1181
         4        1166        1167        1183        1182
         4        1168        1169        1185        1184
         4        1169        1170        1186        1185
         4        1170        1171        1187        1186
         4        1171        1172        1188        1187
         4        1172        1173        1189        1188
         4        1173        1174        1190        1189
         4        1174        1175        1191        1190
         4        1175        1176        1192        1191
         4        1176        1177        1193        1192
         4        1177        1178        1194        1193
         4        1178        1179        1195        1194
         4        1179        1180        1196        1195
         4        1180        1181        1197        1196
         4        1181        1182        1198        1197
         4        1182        1183        1199        1198
         4        1184        1185        1201        1200
         4        1185        1186        1202        1201
         4        1186        1187        1203        1202
         4        1187        1188        1204        1203
         4        1188        1189        1205        1204
         4        1189        1190        1206        1205
         4        1190        1191        1207        1206
         4        1191        1192        1208        1207
         4        1192        1193        1209        1208
         4        1193        1194        1210        1209
         4        1194        1195        1211        1210
         4        1195        1196        1212        1211
         4        1196        1197        1213        1212
         4        1197        1198        1214        1213
         4        1198        1199        1215        1214
         4        1200        1201        1217        1216
         4        1201        1202        1218        1217
         4        1202        1203        1219        1218
         4        1203        1204        1220        1219
         4        1204        1205        1221        1220
         4        1205        1206        1222        1221
         4        1206        1207        1223        1222
         4        1207        1208        1224        1223
         4        1208        1209        1225        1224
         4        1209        1210        1226        1225
         4        1210        1211        1227        1226
         4        1211        1212        1228        1227
         4        1212        1213        1229        1228
         4        1213        1214        1230        1229
         4        1214        1215        1231        1230
         4        1216        1217        1233        1232
         4        1217        1218        1234        1233
         4        1218        1219        1235        1234
         4        1219        1220        1236        1235
         4        1220        1221        1237        1236
         4        1221        1222        1238        1237
         4        1222        1223        1239        1238
         4        1223        1224        1240        1239
         4        1224        1225        1241        1240
         4        1225        1226        1242        1241
         4        1226        1227        1243        1242
         4        1227        1228        1244        1243
         4        1228        1229        1245        1244
         4        1229        1230        1246        1245
         4        1230        1231        1247        1246
         4        1232        1233        1249        1248
         4        1233        1234        1250        1249
         4        1234        1235        1251        1250
         4        1235        1236        1252        1251
         4        1236        1237        1253        1252
         4        1237        1238        1254        1253
         4        1238        1239        1255        1254
         4        1239        1240        1256        1255
         4        1240        1241        1257        1256
         4        1241        1242        1258        1257
         4        1242        1243        1259        1258
         4        1243        1244        1260        1259
         4        1244        1245        1261        1260
         4        1245        1246        1262        1261
         4        1246        1247        1263        1262
         4        1248        1249        1265        1264
         4        1249        1250        1266        1265
         4        1250        1251        1267        1266
         4        1251        1252        1268        1267
         4        1252        1253        1269        1268
         4        1253        1254        1270        1269
         4        1254        1255        1271        1270
         4        1255        1256        1272        1271
         4        1256        1257        1273        1272
         4        1257        1258        1274        1273
         4        1258        1259        1275        1274
         4        1259        1260        1276        1275
         4        1260        1261        1277        1276
         4        1261        1262        1278        1277
         4        1262        1263        1279        1278
         4        1264        1265        1281        1280
         4        1265        1266        1282        1281
         4        1266        1267        1283        1282
         4        1267        1268        1284        1283
         4        1268        1269        1285        1284
         4        1269        1270        1286        1285
         4        1270        1271        1287        1286
         4        1271        1272        1288        1287
         4        1272        1273        1289        1288
         4        1273        1274        1290        1289
         4        1274        1275        1291        1290
         4        1275        1276        1292        1291
         4        1276        1277        1293        1292
         4        1277        1278        1294        1293
         4        1278        1279        1295        1294
         4        1280        1281        1297        1296
         4        1281        1282        1298        1297
         4        1282        1283        1299        1298
         4        1283        1284        1300        1299
         4        1284        1285        1301        1300
         4        1285        1286        1302        1301
         4        1286        1287        1303        1302
         4        1287        1288        1304        1303
         4        1288        1289        1305        1304
         4        1289        1290        1306        1305
         4        1290        1291        1307        1306
         4        1291        1292        1308        1307
         4        1292        1293        1309        1308
         4        1293        1294        1310        1309
         4        1294        1295        1311        1310
         4        1296        1297        1313        1312
         4        1297        1298        1314        1313
         4        1298        1299        1315        1314
         4        1299        1300        1316        1315
         4        1300        1301        1317        1316
         4        1301        1302        1318        1317
         4        1302        1303        1319        1318
         4        1303        1304        1320        1319
         4        1304        1305        1321        1320
         4        1305        1306        1322        1321
         4        1306        1307        1323        1322
         4        1307        1308        1324        1323
         4        1308        1309        1325        1324
         4        1309        1310        1326        1325
         4        1310        1311        1327        1326
         4        1312        1313        1329        1328
         4        1313        1314        1330        1329
         4        1314        1315        1331        1330
         4        1315        1316        1332        1331
         4        1316        1317        1333        1332
         4        1317        1318        1334        1333
         4        1318        1319        1335        1334
         4        1319        1320        1336        1335
         4        1320        1321        1337        1336
         4        1321        1322        1338        1337
         4        1322        1323        1339        1338
         4        1323        1324        1340        1339
         4        1324        1325        1341        1340
         4        1325        1326        1342        1341
         4        1326        1327        1343        1342
         4        1328        1329        1345        1344
         4        1329        1330        1346        1345
         4        1330        1331        1347        1346
         4        1331        1332        1348        1347
         4        1332        1333        1349        1348
         4        1333        1334        1350        1349
         4        1334        1335        1351        1350
         4        1335        1336        1352        1351
         4        1336        1337        1353        1352
         4        1337        1338        1354        1353
         4        1338        1339        1355        1354
         4        1339        1340        1356        1355
         4        1340        1341        1357        1356
         4        1341        1342        1358        1357
         4        1342        1343        1359        1358
         4        1344        1345        1361        1360
         4        1345        1346        1362        1361
         4        1346        1347        1363        1362
         4        1347        1348        1364        1363
         4        1348        1349        1365        1364
         4        1349        1350        1366        1365
         4        1350        1351        1367        1366
         4        1351        1352        1368        1367
         4        1352        1353        1369        1368
         4        1353        1354        1370        1369
         4        1354        1355        1371        1370
         4        1355        1356        1372        1371
         4        1356        1357        1373        1372
         4        1357        1358        1374        1373
         4        1358        1359        1375        1374
         4        1360        1361        1377        1376
         4        1361        1362        1378        1377
         4        1362        1363        1379        1378
         4        1363        1364        1380        1379
         4        1364        1365        1381        1380
         4        1365        1366        1382        1381
         4        1366        1367        1383        1382
         4        1367        1368        1384        1383
         4        1368        1369        1385        1384
         4        1369        1370        1386        1385
         4        1370        1371        1387        1386
         4        1371        1372        1388        1387
         4        1372        1373        1389        1388
         4        1373        1374        1390        1389
         4        1374        1375        1391        1390
         4        1376        1377        1393        1392
         4        1377        1378        1394        1393
         4        1378        1379        1395        1394
         4        1379        1380        1396        1395
         4        1380        1381        1397        1396
         4        1381        1382        1398        1397
         4        1382        1383        1399        1398
         4        1383        1384        1400        1399
         4        1384        1385        1401        1400
         4        1385        1386        1402        1401
         4        1386        1387        1403        1402
         4        1387        1388        1404        1403
         4        1388        1389        1405        1404
         4        1389        1390        1406        1405
         4        1390        1391        1407        1406
         4        1392        1393        1409        1408
         4        1393        1394        1410        1409
         4        1394        1395        1411        1410
         4        1395        1396        1412        1411
         4        1396        1397        1413        1412
         4        1397        1398        1414        1413
         4        1398        1399        1415        1414
         4        1399        1400        1416        1415
         4        1400        1401        1417        1416
         4        1401        1402        1418        1417
         4        1402        1403        1419        1418
         4        1403        1404        1420        1419
         4        1404        1405        1421        1420
         4        1405        1406        1422        1421
         4        1406        1407        1423        1422
         4        1408        1409        1425        1424
         4        1409        1410        1426        1425
         4        1410        1411        1427        1426
         4        1411        1412        1428        1427
         4        1412        1413        1429        1428
         4        1413        1414        1430        1429
         4        1414        1415        1431        1430
         4        1415        1416        1432        1431
         4        1416        1417        1433        1432
         4        1417        1418        1434        1433
         4        1418        1419        1435        1434
         4        1419        1420        1436        1435
         4        1420        1421        1437        1436
         4        1421        1422        1438        1437
         4        1422        1423        1439        1438
         4        1424        1425        1441        1440
         4        1425        1426        1442        1441
         4        1426        1427        1443        1442
         4        1427        1428        1444        1443
         4        1428        1429        1445        1444
         4        1429        1430        1446        1445
         4        1430        1431        1447        1446
         4        1431        1432        1448        1447
         4        1432        1433        1449        1448
         4        1433        1434        1450        1449
         4        1434        1435        1451        1450
         4        1435        1436        1452        1451
         4        1436        1437        1453        1452
         4        1437        1438        1454        1453
         4        1438        1439        1455        1454
CELL_TYPES       1350
9
9
9
9
9
9
9
9
9
9
9
9
9
9
9
9
9
9
9
9
9
9
9
9
9
9
9
9
9
9
9
9
9
9
9
9
9
9
9
9
9
9
9
9
9
9
9
9
9
9
9
9
9
9
9
9
9
9
9
9
9
9
9
9
9
9
9
9
9
9
9
9
9
9
9
9
9
9
9
9
9
9
9
9
9
9
9
9
9
9
9
9
9
9
9
9
9
9
9
9
9
9
9
9
9
9
9
9
9
9
9
9
9
9
9
9
9
9
9
9
9
9
9
9
9
9
9
9
9
9
9
9
9
9
9
9
9
9
9
9
9
9
9
9
9
9
9
9
9
9
9
9
9
9
9
9
9
9
9
9
9
9
9
9
9
9
9
9
9
9
9
9
9
9
9
9
9
9
9
9
9
9
9
9
9
9
9
9
9
9
9
9
9
9
9
9
9
9
9
9
9
9
9
9
9
9
9
9
9
9
9
9
9
9
9
9
9
9
9
9
9
9
9
9
9
9
9
9
9
9
9
9
9
9
9
9
9
9
9
9
9
9
9
9
9
9
9
9
9
9
9
9
9
9
9
9
9
9
9
9
9
9
9
9
9
9
9
9
9
9
9
9
9
9
9
9
9
9
9
9
9
9
9
9
9
9
9
9
9
9
9
9
9
9
9
9
9
9
9
9
9
9
9
9
9
9
9
9
9
9
9
9
9
9
9
9
9
9
9
9
9
9
9
9
9
9
9
9
9
9
9
9
9
9
9
9
9
9
9
9
9
9
9
9
9
9
9
9
9
9
9
9
9
9
9
9
9
9
9
9
9
9
9
9
9
9
9
9
9
9
9
9
9
9
9
9
9
9
9
9
9
9
9
9
9
9
9
9
9
9
9
9
9
9
9
9
9
9
9
9
9
9
9
9
9
9
9
9
9
9
9
9
9
9
9
9
9
9
9
9
9
9
9
9
9
9
9
9
9
9
9
9
9
9
9
9
9
9
9
9
9
9
9
9
9
9
9
9
9
9
9
9
9
9
9
9
9
9
9
9
9
9
9
9
9
9
9
9
9
9
9
9
9
9
9
9
9
9
9
9
9
9
9
9
9
9
9
9
9
9
9
9
9
9
9
9
9
9
9
9
9
9
9
9
9
9
9
9
9
9
9
9
9
9
9
9
9
9
9
9
9
9
9
9
9
9
9
9
9
9
9
9
9
9
9
9
9
9
9
9
9
9
9
9
9
9
9
9
9
9
9
9
9
9
9
9
9
9
9
9
9
9
9
9
9
9
9
9
9
9
9
9
9
9
9
9
9
9
9
9
9
9
9
9
9
9
9
9
9
9
9
9
9
9
9
9
9
9
9
9
9
9
9
9
9
9
9
9
9
9
9
9
9
9
9
9
9
9
9
9
9
9
9
9
9
9
9
9
9
9
9
9
9
9
9
9
9
9
9
9
9
9
9
9
9
9
9
9
9
9
9
9
9
9
9
9
9
9
9
9
9
9
9
9
9
9
9
9
9
9
9
9
9
9
9
9
9
9
9
9
9
9
9
9
9
9
9
9
9
9
9
9
9
9
9
9
9
9
9
9
9
9
9
9
9
9
9
9
9
9
9
9
9
9
9
9
9
9
9
9
9
9
9
9
9
9
9
9
9
9
9
9
9
9
9
9
9
9
9
9
9
9
9
9
9
9
9
9
9
9
9
9
9
9
9
9
9
9
9
9
9
9
9
9
9
9
9
9
9
9
9
9
9
9
9
9
9
9
9
9
9
9
9
9
9
9
9
9
9
9
9
9
9
9
9
9
9
9
9
9
9
9
9
9
9
9
9
9
9
9
9
9
9
9
9
9
9
9
9
9
9
9
9
9
9
9
9
9
9
9
9
9
9
9
9
9
9
9
9
9
9
9
9
9
9
9
9
9
9
9
9
9
9
9
9
9
9
9
9
9
9
9
9
9
9
9
9
9
9
9
9
9
9
9
9
9
9
9
9
9
9
9
9
9
9
9
9
9
9
9
9
9
9
9
9
9
9
9
9
9
9
9
9
9
9
9
9
9
9
9
9
9
9
9
9
9
9
9
9
9
9
9
9
9
9
9
9
9
9
9
9
9
9
9
9
9
9
9
9
9
9
9
9
9
9
9
9
9
9
9
9
9
9
9
9
9
9
9
9
9
9
9
9
9
9
9
9
9
9
9
9
9
9
9
9
9
9
9
9
9
9
9
9
9
9
9
9
9
9
9
9
9
9
9
9
9
9
9
9
9
9
9
9
9
9
9
9
9
9
9
9
9
9
9
9
9
9
9
9
9
9
9
9
9
9
9
9
9
9
9
9
9
9
9
9
9
9
9
9
9
9
9
9
9
9
9
9
9
9
9
9
9
9
9
9
9
9
9
9
9
9
9
9
9
9
9
9
9
9
9
9
9
9
9
9
9
9
9
9
9
9
9
9
9
9
9
9
9
9
9
9
9
9
9
9
9
9
9
9
9
9
9
9
9
9
9
9
9
9
9
9
9
9
9
9
9
9
9
9
9
9
9
9
9
9
9
9
9
9
9
9
9
9
9
9
9
9
9
9
9
9
9
9
9
9
9
9
9
9
9
9
9
9
9
9
9
9
9
9
9
9
9
9
9
9
9
9
9
9
9
9
9
9
9
9
9
9
9
9
9
9
9
9
9
9
9
9
9
9
9
9
9
9
9
9
9
9
9
9
9
9
9
9
9
9
9
9
9
9
9
9
9
9
9
9
9
9
9
9
9
9
9
9
9
9
9
9
9
9
9
9
9
9
9
9
9
9
9
9
9
9
9
9
9
9
9
9
9
9
9
9
9
9
9
9
9
9
9
9
9
9
9
9
9
9
9
9
9
9
9
9
9
9
9
9
9
9
9
9
9
9
9
9
9
9
9
9
9
9
9
9
9
9
9
9
9
9
9
9
9
9
9
9
9
9
9
9
9
9
9
9
9
9
9
9
9
9
9
9
9
9
9
9
9
9
9
9
9
9
9
9
9
9
9
9
9
9
9
9
9
9
9
9
9
9
9
9
9
9
9
POINT_DATA      1456
SCALARS p double 
LOOKUP_TABLE default
   258084.192422645     
   258084.192422645     
   258084.192422645     
   258084.192422645     
   258084.192422645     
   258084.192422645     
   258084.192422645     
   258084.192422645     
   258084.192422644     
   258084.192422644     
   258084.192422644     
   258084.192422644     
   258084.192422644     
   258084.192422644     
   258084.192422644     
   258084.192422644     
   258084.190928238     
   258084.190928238     
   258084.190928239     
   258084.190928239     
   258084.190928238     
   258084.190928238     
   258084.190928238     
   258084.190928238     
   258084.190928238     
   258084.190928238     
   258084.190928238     
   258084.190928237     
   258084.190928237     
   258084.190928237     
   258084.190928237     
   258084.190928237     
   258084.186397210     
   258084.186397210     
   258084.186397210     
   258084.186397210     
   258084.186397210     
   258084.186397210     
   258084.186397210     
   258084.186397210     
   258084.186397210     
   258084.186397210     
   258084.186397210     
   258084.186397210     
   258084.186397210     
   258084.186397209     
   258084.186397209     
   258084.186397209     
   258084.178684606     
   258084.178684606     
   258084.178684606     
   258084.178684606     
   258084.178684606     
   258084.178684606     
   258084.178684606     
   258084.178684606     
   258084.178684606     
   258084.178684606     
   258084.178684605     
   258084.178684605     
   258084.178684605     
   258084.178684605     
   258084.178684605     
   258084.178684605     
   258084.167543688     
   258084.167543688     
   258084.167543688     
   258084.167543688     
   258084.167543688     
   258084.167543688     
   258084.167543688     
   258084.167543688     
   258084.167543688     
   258084.167543688     
   258084.167543688     
   258084.167543688     
   258084.167543688     
   258084.167543688     
   258084.167543688     
   258084.167543688     
   258084.152618048     
   258084.152618048     
   258084.152618048     
   258084.152618048     
   258084.152618048     
   258084.152618048     
   258084.152618048     
   258084.152618048     
   258084.152618048     
   258084.152618048     
   258084.152618047     
   258084.152618048     
   258084.152618048     
   258084.152618048     
   258084.152618048     
   258084.152618048     
   258084.133430206     
   258084.133430206     
   258084.133430206     
   258084.133430206     
   258084.133430206     
   258084.133430206     
   258084.133430206     
   258084.133430206     
   258084.133430206     
   258084.133430206     
   258084.133430206     
   258084.133430206     
   258084.133430206     
   258084.133430206     
   258084.133430206     
   258084.133430206     
   258084.109366344     
   258084.109366344     
   258084.109366344     
   258084.109366344     
   258084.109366344     
   258084.109366344     
   258084.109366344     
   258084.109366344     
   258084.109366344     
   258084.109366344     
   258084.109366344     
   258084.109366344     
   258084.109366344     
   258084.109366344     
   258084.109366344     
   258084.109366344     
   258084.079656679     
   258084.079656679     
   258084.079656679     
   258084.079656679     
   258084.079656679     
   258084.079656679     
   258084.079656679     
   258084.079656679     
   258084.079656679     
   258084.079656678     
   258084.079656679     
   258084.079656678     
   258084.079656678     
   258084.079656678     
   258084.079656678     
   258084.079656678     
   258084.043350845     
   258084.043350845     
   258084.043350845     
   258084.043350845     
   258084.043350845     
   258084.043350845     
   258084.043350845     
   258084.043350845     
   258084.043350845     
   258084.043350845     
   258084.043350844     
   258084.043350844     
   258084.043350844     
   258084.043350844     
   258084.043350844     
   258084.043350844     
   258083.999287514     
   258083.999287514     
   258083.999287514     
   258083.999287514     
   258083.999287514     
   258083.999287514     
   258083.999287513     
   258083.999287513     
   258083.999287513     
   258083.999287513     
   258083.999287513     
   258083.999287513     
   258083.999287513     
   258083.999287513     
   258083.999287513     
   258083.999287513     
   258083.946057261     
   258083.946057262     
   258083.946057262     
   258083.946057262     
   258083.946057262     
   258083.946057262     
   258083.946057262     
   258083.946057261     
   258083.946057261     
   258083.946057261     
   258083.946057261     
   258083.946057261     
   258083.946057261     
   258083.946057261     
   258083.946057261     
   258083.946057261     
   258083.881957517     
   258083.881957517     
   258083.881957517     
   258083.881957516     
   258083.881957516     
   258083.881957517     
   258083.881957516     
   258083.881957516     
   258083.881957516     
   258083.881957516     
   258083.881957516     
   258083.881957516     
   258083.881957516     
   258083.881957516     
   258083.881957516     
   258083.881957516     
   258083.804938135     
   258083.804938134     
   258083.804938134     
   258083.804938134     
   258083.804938134     
   258083.804938134     
   258083.804938134     
   258083.804938134     
   258083.804938134     
   258083.804938134     
   258083.804938134     
   258083.804938134     
   258083.804938134     
   258083.804938134     
   258083.804938134     
   258083.804938134     
   258083.712535873     
   258083.712535873     
   258083.712535873     
   258083.712535873     
   258083.712535873     
   258083.712535873     
   258083.712535873     
   258083.712535873     
   258083.712535873     
   258083.712535873     
   258083.712535873     
   258083.712535873     
   258083.712535873     
   258083.712535873     
   258083.712535873     
   258083.712535873     
   258083.601795675     
   258083.601795675     
   258083.601795675     
   258083.601795675     
   258083.601795675     
   258083.601795675     
   258083.601795675     
   258083.601795675     
   258083.601795675     
   258083.601795675     
   258083.601795675     
   258083.601795675     
   258083.601795675     
   258083.601795675     
   258083.601795675     
   258083.601795675     
   258083.469176240     
   258083.469176240     
   258083.469176240     
   258083.469176240     
   258083.469176240     
   258083.469176240     
   258083.469176240     
   258083.469176240     
   258083.469176240     
   258083.469176240     
   258083.469176240     
   258083.469176240     
   258083.469176240     
   258083.469176240     
   258083.469176240     
   258083.469176240     
   258083.310436883     
   258083.310436883     
   258083.310436883     
   258083.310436883     
   258083.310436884     
   258083.310436884     
   258083.310436884     
   258083.310436884     
   258083.310436884     
   258083.310436884     
   258083.310436884     
   258083.310436884     
   258083.310436883     
   258083.310436883     
   258083.310436884     
   258083.310436884     
   258083.120502074     
   258083.120502074     
   258083.120502074     
   258083.120502074     
   258083.120502074     
   258083.120502074     
   258083.120502074     
   258083.120502074     
   258083.120502074     
   258083.120502074     
   258083.120502074     
   258083.120502074     
   258083.120502074     
   258083.120502074     
   258083.120502074     
   258083.120502074     
   258082.893299324     
   258082.893299324     
   258082.893299324     
   258082.893299324     
   258082.893299324     
   258082.893299324     
   258082.893299325     
   258082.893299324     
   258082.893299325     
   258082.893299325     
   258082.893299325     
   258082.893299325     
   258082.893299325     
   258082.893299325     
   258082.893299325     
   258082.893299325     
   258082.621565285     
   258082.621565285     
   258082.621565285     
   258082.621565285     
   258082.621565285     
   258082.621565285     
   258082.621565285     
   258082.621565286     
   258082.621565286     
   258082.621565286     
   258082.621565285     
   258082.621565285     
   258082.621565285     
   258082.621565286     
   258082.621565286     
   258082.621565286     
   258082.296613854     
   258082.296613854     
   258082.296613854     
   258082.296613854     
   258082.296613854     
   258082.296613854     
   258082.296613854     
   258082.296613854     
   258082.296613854     
   258082.296613854     
   258082.296613854     
   258082.296613854     
   258082.296613854     
   258082.296613854     
   258082.296613854     
   258082.296613854     
   258081.908058929     
   258081.908058929     
   258081.908058929     
   258081.908058929     
   258081.908058929     
   258081.908058929     
   258081.908058929     
   258081.908058929     
   258081.908058929     
   258081.908058929     
   258081.908058929     
   258081.908058929     
   258081.908058929     
   258081.908058929     
   258081.908058929     
   258081.908058929     
   258081.443482984     
   258081.443482984     
   258081.443482984     
   258081.443482984     
   258081.443482984     
   258081.443482984     
   258081.443482984     
   258081.443482984     
   258081.443482984     
   258081.443482984     
   258081.443482985     
   258081.443482985     
   258081.443482985     
   258081.443482984     
   258081.443482984     
   258081.443482984     
   258080.888040937     
   258080.888040937     
   258080.888040937     
   258080.888040937     
   258080.888040938     
   258080.888040937     
   258080.888040937     
   258080.888040938     
   258080.888040938     
   258080.888040937     
   258080.888040938     
   258080.888040938     
   258080.888040938     
   258080.888040938     
   258080.888040938     
   258080.888040938     
   258080.223986715     
   258080.223986715     
   258080.223986715     
   258080.223986715     
   258080.223986715     
   258080.223986715     
   258080.223986715     
   258080.223986715     
   258080.223986715     
   258080.223986715     
   258080.223986715     
   258080.223986715     
   258080.223986715     
   258080.223986715     
   258080.223986716     
   258080.223986716     
   258079.430107497     
   258079.430107497     
   258079.430107497     
   258079.430107497     
   258079.430107497     
   258079.430107497     
   258079.430107497     
   258079.430107497     
   258079.430107497     
   258079.430107497     
   258079.430107497     
   258079.430107497     
   258079.430107497     
   258079.430107498     
   258079.430107498     
   258079.430107498     
   258078.481047695     
   258078.481047695     
   258078.481047695     
   258078.481047695     
   258078.481047695     
   258078.481047695     
   258078.481047695     
   258078.481047695     
   258078.481047694     
   258078.481047694     
   258078.481047695     
   258078.481047695     
   258078.481047695     
   258078.481047695     
   258078.481047695     
   258078.481047695     
   258077.346501233     
   258077.346501233     
   258077.346501233     
   258077.346501233     
   258077.346501233     
   258077.346501233     
   258077.346501233     
   258077.346501233     
   258077.346501232     
   258077.346501233     
   258077.346501233     
   258077.346501233     
   258077.346501233     
   258077.346501233     
   258077.346501233     
   258077.346501233     
   258075.990246575     
   258075.990246575     
   258075.990246575     
   258075.990246575     
   258075.990246575     
   258075.990246575     
   258075.990246575     
   258075.990246575     
   258075.990246575     
   258075.990246575     
   258075.990246575     
   258075.990246575     
   258075.990246575     
   258075.990246575     
   258075.990246575     
   258075.990246576     
   258074.368993972     
   258074.368993972     
   258074.368993972     
   258074.368993972     
   258074.368993972     
   258074.368993972     
   258074.368993972     
   258074.368993972     
   258074.368993972     
   258074.368993972     
   258074.368993972     
   258074.368993972     
   258074.368993972     
   258074.368993972     
   258074.368993972     
   258074.368993972     
   258072.431008517     
   258072.431008517     
   258072.431008517     
   258072.431008517     
   258072.431008517     
   258072.431008517     
   258072.431008517     
   258072.431008517     
   258072.431008517     
   258072.431008517     
   258072.431008517     
   258072.431008517     
   258072.431008517     
   258072.431008517     
   258072.431008517     
   258072.431008517     
   258070.114465591     
   258070.114465591     
   258070.114465591     
   258070.114465591     
   258070.114465591     
   258070.114465591     
   258070.114465591     
   258070.114465590     
   258070.114465590     
   258070.114465590     
   258070.114465590     
   258070.114465590     
   258070.114465590     
   258070.114465590     
   258070.114465590     
   258070.114465590     
   258067.345486878     
   258067.345486878     
   258067.345486878     
   258067.345486878     
   258067.345486878     
   258067.345486878     
   258067.345486878     
   258067.345486878     
   258067.345486878     
   258067.345486878     
   258067.345486878     
   258067.345486877     
   258067.345486877     
   258067.345486877     
   258067.345486877     
   258067.345486877     
   258064.035795212     
   258064.035795212     
   258064.035795212     
   258064.035795212     
   258064.035795212     
   258064.035795212     
   258064.035795212     
   258064.035795212     
   258064.035795212     
   258064.035795212     
   258064.035795212     
   258064.035795212     
   258064.035795211     
   258064.035795211     
   258064.035795211     
   258064.035795211     
   258060.079914622     
   258060.079914622     
   258060.079914622     
   258060.079914622     
   258060.079914622     
   258060.079914622     
   258060.079914622     
   258060.079914622     
   258060.079914622     
   258060.079914622     
   258060.079914622     
   258060.079914621     
   258060.079914621     
   258060.079914621     
   258060.079914621     
   258060.079914621     
   258055.351827868     
   258055.351827868     
   258055.351827868     
   258055.351827868     
   258055.351827868     
   258055.351827868     
   258055.351827868     
   258055.351827868     
   258055.351827868     
   258055.351827868     
   258055.351827868     
   258055.351827868     
   258055.351827867     
   258055.351827867     
   258055.351827867     
   258055.351827867     
   258049.700986979     
   258049.700986979     
   258049.700986979     
   258049.700986979     
   258049.700986979     
   258049.700986979     
   258049.700986979     
   258049.700986979     
   258049.700986979     
   258049.700986980     
   258049.700986979     
   258049.700986979     
   258049.700986979     
   258049.700986979     
   258049.700986979     
   258049.700986979     
   258042.947552385     
   258042.947552385     
   258042.947552385     
   258042.947552385     
   258042.947552385     
   258042.947552385     
   258042.947552385     
   258042.947552385     
   258042.947552385     
   258042.947552385     
   258042.947552385     
   258042.947552385     
   258042.947552385     
   258042.947552385     
   258042.947552385     
   258042.947552385     
   258034.876712562     
   258034.876712562     
   258034.876712562     
   258034.876712562     
   258034.876712562     
   258034.876712562     
   258034.876712562     
   258034.876712563     
   258034.876712563     
   258034.876712562     
   258034.876712562     
   258034.876712563     
   258034.876712562     
   258034.876712563     
   258034.876712562     
   258034.876712562     
   258025.231908059     
   258025.231908059     
   258025.231908059     
   258025.231908059     
   258025.231908059     
   258025.231908059     
   258025.231908059     
   258025.231908059     
   258025.231908059     
   258025.231908060     
   258025.231908060     
   258025.231908060     
   258025.231908060     
   258025.231908060     
   258025.231908060     
   258025.231908059     
   258013.706750454     
   258013.706750454     
   258013.706750454     
   258013.706750455     
   258013.706750455     
   258013.706750455     
   258013.706750455     
   258013.706750455     
   258013.706750455     
   258013.706750455     
   258013.706750455     
   258013.706750455     
   258013.706750455     
   258013.706750455     
   258013.706750455     
   258013.706750455     
   257999.935387388     
   257999.935387388     
   257999.935387388     
   257999.935387389     
   257999.935387389     
   257999.935387389     
   257999.935387389     
   257999.935387389     
   257999.935387389     
   257999.935387389     
   257999.935387389     
   257999.935387389     
   257999.935387389     
   257999.935387389     
   257999.935387389     
   257999.935387389     
   257983.481018127     
   257983.481018127     
   257983.481018127     
   257983.481018128     
   257983.481018128     
   257983.481018128     
   257983.481018128     
   257983.481018128     
   257983.481018128     
   257983.481018128     
   257983.481018128     
   257983.481018128     
   257983.481018128     
   257983.481018128     
   257983.481018128     
   257983.481018128     
   257963.822208992     
   257963.822208992     
   257963.822208992     
   257963.822208992     
   257963.822208992     
   257963.822208992     
   257963.822208992     
   257963.822208992     
   257963.822208992     
   257963.822208992     
   257963.822208992     
   257963.822208992     
   257963.822208992     
   257963.822208992     
   257963.822208992     
   257963.822208992     
   257940.336592844     
   257940.336592844     
   257940.336592844     
   257940.336592844     
   257940.336592844     
   257940.336592845     
   257940.336592845     
   257940.336592845     
   257940.336592844     
   257940.336592845     
   257940.336592845     
   257940.336592845     
   257940.336592844     
   257940.336592845     
   257940.336592845     
   257940.336592845     
   257912.281460118     
   257912.281460118     
   257912.281460118     
   257912.281460118     
   257912.281460118     
   257912.281460118     
   257912.281460118     
   257912.281460118     
   257912.281460118     
   257912.281460118     
   257912.281460118     
   257912.281460118     
   257912.281460118     
   257912.281460118     
   257912.281460118     
   257912.281460118     
   257878.770658535     
   257878.770658535     
   257878.770658535     
   257878.770658535     
   257878.770658536     
   257878.770658536     
   257878.770658536     
   257878.770658536     
   257878.770658535     
   257878.770658535     
   257878.770658535     
   257878.770658535     
   257878.770658536     
   257878.770658535     
   257878.770658536     
   257878.770658535     
   257838.747112610     
   257838.747112610     
   257838.747112610     
   257838.747112610     
   257838.747112610     
   257838.747112610     
   257838.747112610     
   257838.747112610     
   257838.747112610     
   257838.747112610     
   257838.747112610     
   257838.747112610     
   257838.747112610     
   257838.747112610     
   257838.747112610     
   257838.747112610     
   257790.950149698     
   257790.950149698     
   257790.950149698     
   257790.950149698     
   257790.950149698     
   257790.950149698     
   257790.950149698     
   257790.950149698     
   257790.950149698     
   257790.950149698     
   257790.950149698     
   257790.950149698     
   257790.950149698     
   257790.950149698     
   257790.950149698     
   257790.950149698     
   257733.876674005     
   257733.876674005     
   257733.876674005     
   257733.876674005     
   257733.876674005     
   257733.876674005     
   257733.876674005     
   257733.876674005     
   257733.876674005     
   257733.876674005     
   257733.876674005     
   257733.876674005     
   257733.876674005     
   257733.876674005     
   257733.876674005     
   257733.876674005     
   257665.735060505     
   257665.735060505     
   257665.735060505     
   257665.735060505     
   257665.735060505     
   257665.735060505     
   257665.735060505     
   257665.735060505     
   257665.735060505     
   257665.735060505     
   257665.735060506     
   257665.735060506     
   257665.735060506     
   257665.735060506     
   257665.735060506     
   257665.735060506     
   257584.390443785     
   257584.390443785     
   257584.390443785     
   257584.390443785     
   257584.390443785     
   257584.390443786     
   257584.390443786     
   257584.390443786     
   257584.390443786     
   257584.390443786     
   257584.390443786     
   257584.390443786     
   257584.390443786     
   257584.390443786     
   257584.390443786     
   257584.390443786     
   257487.299848858     
   257487.299848858     
   257487.299848858     
   257487.299848858     
   257487.299848858     
   257487.299848858     
   257487.299848858     
   257487.299848858     
   257487.299848858     
   257487.299848858     
   257487.299848858     
   257487.299848858     
   257487.299848858     
   257487.299848858     
   257487.299848858     
   257487.299848858     
   257371.435348243     
   257371.435348243     
   257371.435348243     
   257371.435348243     
   257371.435348244     
   257371.435348244     
   257371.435348244     
   257371.435348244     
   257371.435348244     
   257371.435348244     
   257371.435348244     
   257371.435348244     
   257371.435348244     
   257371.435348244     
   257371.435348244     
   257371.435348244     
   257233.193128412     
   257233.193128411     
   257233.193128411     
   257233.193128411     
   257233.193128411     
   257233.193128412     
   257233.193128412     
   257233.193128412     
   257233.193128412     
   257233.193128412     
   257233.193128413     
   257233.193128413     
   257233.193128413     
   257233.193128413     
   257233.193128413     
   257233.193128413     
   257068.286005518     
   257068.286005518     
   257068.286005518     
   257068.286005518     
   257068.286005518     
   257068.286005519     
   257068.286005519     
   257068.286005519     
   257068.286005519     
   257068.286005519     
   257068.286005519     
   257068.286005520     
   257068.286005520     
   257068.286005520     
   257068.286005520     
   257068.286005520     
   256871.616542482     
   256871.616542482     
   256871.616542482     
   256871.616542482     
   256871.616542482     
   256871.616542482     
   256871.616542482     
   256871.616542482     
   256871.616542482     
   256871.616542483     
   256871.616542483     
   256871.616542483     
   256871.616542483     
   256871.616542483     
   256871.616542484     
   256871.616542483     
   256637.127485022     
   256637.127485022     
   256637.127485022     
   256637.127485022     
   256637.127485022     
   256637.127485022     
   256637.127485023     
   256637.127485023     
   256637.127485023     
   256637.127485023     
   256637.127485024     
   256637.127485024     
   256637.127485024     
   256637.127485024     
   256637.127485024     
   256637.127485024     
   256357.625753565     
   256357.625753565     
   256357.625753565     
   256357.625753565     
   256357.625753565     
   256357.625753566     
   256357.625753566     
   256357.625753566     
   256357.625753567     
   256357.625753567     
   256357.625753567     
   256357.625753567     
   256357.625753567     
   256357.625753567     
   256357.625753567     
   256357.625753567     
   256024.575703961     
   256024.575703961     
   256024.575703961     
   256024.575703961     
   256024.575703961     
   256024.575703962     
   256024.575703962     
   256024.575703962     
   256024.575703962     
   256024.575703963     
   256024.575703963     
   256024.575703963     
   256024.575703964     
   256024.575703963     
   256024.575703963     
   256024.575703963     
   255627.856810362     
   255627.856810362     
   255627.856810362     
   255627.856810362     
   255627.856810363     
   255627.856810363     
   255627.856810363     
   255627.856810363     
   255627.856810364     
   255627.856810364     
   255627.856810364     
   255627.856810365     
   255627.856810365     
   255627.856810365     
   255627.856810365     
   255627.856810365     
   255155.480342415     
   255155.480342415     
   255155.480342415     
   255155.480342415     
   255155.480342415     
   255155.480342416     
   255155.480342416     
   255155.480342416     
   255155.480342417     
   255155.480342417     
   255155.480342417     
   255155.480342417     
   255155.480342418     
   255155.480342418     
   255155.480342418     
   255155.480342418     
   254593.259029605     
   254593.259029605     
   254593.259029605     
   254593.259029605     
   254593.259029605     
   254593.259029605     
   254593.259029606     
   254593.259029606     
   254593.259029606     
   254593.259029606     
   254593.259029607     
   254593.259029607     
   254593.259029607     
   254593.259029607     
   254593.259029607     
   254593.259029607     
   253924.423164935     
   253924.423164934     
   253924.423164935     
   253924.423164935     
   253924.423164935     
   253924.423164935     
   253924.423164935     
   253924.423164935     
   253924.423164936     
   253924.423164936     
   253924.423164936     
   253924.423164936     
   253924.423164936     
   253924.423164937     
   253924.423164937     
   253924.423164937     
   253129.176153549     
   253129.176153549     
   253129.176153549     
   253129.176153549     
   253129.176153549     
   253129.176153550     
   253129.176153550     
   253129.176153550     
   253129.176153550     
   253129.176153550     
   253129.176153551     
   253129.176153551     
   253129.176153551     
   253129.176153551     
   253129.176153551     
   253129.176153551     
   252184.182240780     
   252184.182240780     
   252184.182240780     
   252184.182240780     
   252184.182240780     
   252184.182240780     
   252184.182240780     
   252184.182240781     
   252184.182240781     
   252184.182240781     
   252184.182240781     
   252184.182240781     
   252184.182240781     
   252184.182240781     
   252184.182240781     
   252184.182240781     
   251061.979175518     
   251061.979175518     
   251061.979175518     
   251061.979175518     
   251061.979175518     
   251061.979175518     
   251061.979175519     
   251061.979175519     
   251061.979175519     
   251061.979175519     
   251061.979175519     
   251061.979175519     
   251061.979175520     
   251061.979175520     
   251061.979175520     
   251061.979175520     
   249730.309044906     
   249730.309044906     
   249730.309044906     
   249730.309044906     
   249730.309044906     
   249730.309044906     
   249730.309044906     
   249730.309044906     
   249730.309044907     
   249730.309044907     
   249730.309044907     
   249730.309044907     
   249730.309044907     
   249730.309044907     
   249730.309044907     
   249730.309044907     
   248151.361687933     
   248151.361687933     
   248151.361687933     
   248151.361687933     
   248151.361687933     
   248151.361687933     
   248151.361687934     
   248151.361687934     
   248151.361687934     
   248151.361687934     
   248151.361687934     
   248151.361687935     
   248151.361687935     
   248151.361687935     
   248151.361687935     
   248151.361687935     
   246280.927282224     
   246280.927282224     
   246280.927282224     
   246280.927282224     
   246280.927282224     
   246280.927282224     
   246280.927282224     
   246280.927282224     
   246280.927282225     
   246280.927282225     
   246280.927282225     
   246280.927282225     
   246280.927282225     
   246280.927282225     
   246280.927282225     
   246280.927282225     
   244067.458346174     
   244067.458346174     
   244067.458346174     
   244067.458346175     
   244067.458346175     
   244067.458346175     
   244067.458346175     
   244067.458346175     
   244067.458346175     
   244067.458346175     
   244067.458346175     
   244067.458346175     
   244067.458346175     
   244067.458346176     
   244067.458346175     
   244067.458346176     
   241451.047119120     
   241451.047119120     
   241451.047119121     
   241451.047119121     
   241451.047119121     
   241451.047119121     
   241451.047119121     
   241451.047119121     
   241451.047119121     
   241451.047119121     
   241451.047119121     
   241451.047119122     
   241451.047119122     
   241451.047119121     
   241451.047119122     
   241451.047119122     
   238362.332908865     
   238362.332908865     
   238362.332908865     
   238362.332908865     
   238362.332908865     
   238362.332908865     
   238362.332908865     
   238362.332908865     
   238362.332908866     
   238362.332908866     
   238362.332908866     
   238362.332908866     
   238362.332908866     
   238362.332908866     
   238362.332908866     
   238362.332908866     
   234721.366660251     
   234721.366660251     
   234721.366660251     
   234721.366660250     
   234721.366660251     
   234721.366660251     
   234721.366660251     
   234721.366660251     
   234721.366660251     
   234721.366660252     
   234721.366660252     
   234721.366660252     
   234721.366660252     
   234721.366660252     
   234721.366660252     
   234721.366660252     
   230436.478230645     
   230436.478230645     
   230436.478230645     
   230436.478230645     
   230436.478230645     
   230436.478230646     
   230436.478230646     
   230436.478230646     
   230436.478230646     
   230436.478230647     
   230436.478230647     
   230436.478230647     
   230436.478230647     
   230436.478230647     
   230436.478230647     
   230436.478230647     
   225403.217721025     
   225403.217721025     
   225403.217721025     
   225403.217721025     
   225403.217721025     
   225403.217721026     
   225403.217721026     
   225403.217721026     
   225403.217721026     
   225403.217721027     
   225403.217721027     
   225403.217721027     
   225403.217721027     
   225403.217721027     
   225403.217721027     
   225403.217721027     
   219503.478477751     
   219503.478477751     
   219503.478477751     
   219503.478477751     
   219503.478477751     
   219503.478477752     
   219503.478477752     
   219503.478477752     
   219503.478477752     
   219503.478477752     
   219503.478477753     
   219503.478477753     
   219503.478477753     
   219503.478477753     
   219503.478477753     
   219503.478477753     
   212604.959768909     
   212604.959768910     
   212604.959768910     
   212604.959768910     
   212604.959768910     
   212604.959768910     
   212604.959768910     
   212604.959768910     
   212604.959768911     
   212604.959768911     
   212604.959768911     
   212604.959768911     
   212604.959768911     
   212604.959768911     
   212604.959768911     
   212604.959768911     
   204561.196626844     
   204561.196626844     
   204561.196626844     
   204561.196626844     
   204561.196626845     
   204561.196626845     
   204561.196626845     
   204561.196626845     
   204561.196626845     
   204561.196626846     
   204561.196626846     
   204561.196626846     
   204561.196626846     
   204561.196626846     
   204561.196626846     
   204561.196626846     
   195212.479582854     
   195212.479582854     
   195212.479582855     
   195212.479582854     
   195212.479582854     
   195212.479582855     
   195212.479582855     
   195212.479582855     
   195212.479582855     
   195212.479582855     
   195212.479582856     
   195212.479582855     
   195212.479582855     
   195212.479582855     
   195212.479582856     
   195212.479582856     
   184388.116866220     
   184388.116866220     
   184388.116866220     
   184388.116866221     
   184388.116866220     
   184388.116866221     
   184388.116866221     
   184388.116866221     
   184388.116866221     
   184388.116866222     
   184388.116866222     
   184388.116866222     
   184388.116866222     
   184388.116866222     
   184388.116866222     
   184388.116866222     
   171910.667903369     
   171910.667903369     
   171910.667903369     
   171910.667903369     
   171910.667903369     
   171910.667903369     
   171910.667903369     
   171910.667903369     
   171910.667903370     
   171910.667903370     
   171910.667903370     
   171910.667903370     
   171910.667903370     
   171910.667903370     
   171910.667903370     
   171910.667903370     
   157603.015335241     
   157603.015335241     
   157603.015335241     
   157603.015335241     
   157603.015335241     
   157603.015335241     
   157603.015335241     
   157603.015335242     
   157603.015335242     
   157603.015335242     
   157603.015335242     
   157603.015335242     
   157603.015335242     
   157603.015335242     
   157603.015335242     
   157603.015335242     
   141299.464130314     
   141299.464130314     
   141299.464130314     
   141299.464130314     
   141299.464130314     
   141299.464130315     
   141299.464130315     
   141299.464130315     
   141299.464130315     
   141299.464130315     
   141299.464130315     
   141299.464130315     
   141299.464130315     
   141299.464130315     
   141299.464130315     
   141299.464130315     
   122862.488388926     
   122862.488388926     
   122862.488388926     
   122862.488388926     
   122862.488388926     
   122862.488388926     
   122862.488388926     
   122862.488388926     
   122862.488388926     
   122862.488388926     
   122862.488388926     
   122862.488388926     
   122862.488388926     
   122862.488388926     
   122862.488388926     
   122862.488388926     
   102207.325815531     
   102207.325815530     
   102207.325815530     
   102207.325815530     
   102207.325815530     
   102207.325815530     
   102207.325815530     
   102207.325815531     
   102207.325815531     
   102207.325815531     
   102207.325815531     
   102207.325815531     
   102207.325815531     
   102207.325815531     
   102207.325815531     
   102207.325815531     
   79337.3952066172     
   79337.3952066173     
   79337.3952066173     
   79337.3952066172     
   79337.3952066172     
   79337.3952066172     
   79337.3952066173     
   79337.3952066174     
   79337.3952066174     
   79337.3952066175     
   79337.3952066175     
   79337.3952066175     
   79337.3952066174     
   79337.3952066174     
   79337.3952066174     
   79337.3952066174     
   54394.5480407881     
   54394.5480407881     
   54394.5480407880     
   54394.5480407880     
   54394.5480407880     
   54394.5480407880     
   54394.5480407879     
   54394.5480407880     
   54394.5480407881     
   54394.5480407881     
   54394.5480407881     
   54394.5480407881     
   54394.5480407881     
   54394.5480407881     
   54394.5480407884     
   54394.5480407880     
   27729.5465380033     
   27729.5465380032     
   27729.5465380032     
   27729.5465380031     
   27729.5465380031     
   27729.5465380030     
   27729.5465380031     
   27729.5465380030     
   27729.5465380035     
   27729.5465380031     
   27729.5465380035     
   27729.5465380035     
   27729.5465380035     
   27729.5465380035     
   27729.5465380035     
   27729.5465380036     
  0.000000000000000E+000
  0.000000000000000E+000
  0.000000000000000E+000
  0.000000000000000E+000
  0.000000000000000E+000
  0.000000000000000E+000
  0.000000000000000E+000
  0.000000000000000E+000
  0.000000000000000E+000
  0.000000000000000E+000
  0.000000000000000E+000
  0.000000000000000E+000
  0.000000000000000E+000
  0.000000000000000E+000
  0.000000000000000E+000
  0.000000000000000E+000
VECTORS u double 
    0.00000E+00        -0.30970E-01         0.00000E+00
    0.00000E+00        -0.28905E-01         0.00000E+00
    0.00000E+00        -0.26841E-01         0.00000E+00
    0.00000E+00        -0.24776E-01         0.00000E+00
    0.00000E+00        -0.22711E-01         0.00000E+00
    0.00000E+00        -0.20647E-01         0.00000E+00
    0.00000E+00        -0.18582E-01         0.00000E+00
    0.00000E+00        -0.16517E-01         0.00000E+00
    0.00000E+00        -0.14453E-01         0.00000E+00
    0.00000E+00        -0.12388E-01         0.00000E+00
    0.00000E+00        -0.10323E-01         0.00000E+00
    0.00000E+00        -0.82587E-02         0.00000E+00
    0.00000E+00        -0.61940E-02         0.00000E+00
    0.00000E+00        -0.41293E-02         0.00000E+00
    0.00000E+00        -0.20647E-02         0.00000E+00
    0.00000E+00         0.00000E+00         0.00000E+00
    0.34411E-02        -0.30970E-01         0.00000E+00
    0.34411E-02        -0.28905E-01         0.00000E+00
    0.34411E-02        -0.26841E-01         0.00000E+00
    0.34411E-02        -0.24776E-01         0.00000E+00
    0.34411E-02        -0.22711E-01         0.00000E+00
    0.34411E-02        -0.20647E-01         0.00000E+00
    0.34411E-02        -0.18582E-01         0.00000E+00
    0.34411E-02        -0.16517E-01         0.00000E+00
    0.34411E-02        -0.14453E-01         0.00000E+00
    0.34411E-02        -0.12388E-01         0.00000E+00
    0.34411E-02        -0.10323E-01         0.00000E+00
    0.34411E-02        -0.82587E-02         0.00000E+00
    0.34411E-02        -0.61940E-02         0.00000E+00
    0.34411E-02        -0.41293E-02         0.00000E+00
    0.34411E-02        -0.20647E-02         0.00000E+00
    0.34411E-02         0.00000E+00         0.00000E+00
    0.68822E-02        -0.30970E-01         0.00000E+00
    0.68822E-02        -0.28905E-01         0.00000E+00
    0.68822E-02        -0.26841E-01         0.00000E+00
    0.68822E-02        -0.24776E-01         0.00000E+00
    0.68822E-02        -0.22711E-01         0.00000E+00
    0.68822E-02        -0.20647E-01         0.00000E+00
    0.68822E-02        -0.18582E-01         0.00000E+00
    0.68822E-02        -0.16517E-01         0.00000E+00
    0.68822E-02        -0.14453E-01         0.00000E+00
    0.68822E-02        -0.12388E-01         0.00000E+00
    0.68822E-02        -0.10323E-01         0.00000E+00
    0.68822E-02        -0.82587E-02         0.00000E+00
    0.68822E-02        -0.61940E-02         0.00000E+00
    0.68822E-02        -0.41293E-02         0.00000E+00
    0.68822E-02        -0.20647E-02         0.00000E+00
    0.68822E-02         0.00000E+00         0.00000E+00
    0.10323E-01        -0.30970E-01         0.00000E+00
    0.10323E-01        -0.28905E-01         0.00000E+00
    0.10323E-01        -0.26841E-01         0.00000E+00
    0.10323E-01        -0.24776E-01         0.00000E+00
    0.10323E-01        -0.22711E-01         0.00000E+00
    0.10323E-01        -0.20647E-01         0.00000E+00
    0.10323E-01        -0.18582E-01         0.00000E+00
    0.10323E-01        -0.16517E-01         0.00000E+00
    0.10323E-01        -0.14453E-01         0.00000E+00
    0.10323E-01        -0.12388E-01         0.00000E+00
    0.10323E-01        -0.10323E-01         0.00000E+00
    0.10323E-01        -0.82587E-02         0.00000E+00
    0.10323E-01        -0.61940E-02         0.00000E+00
    0.10323E-01        -0.41293E-02         0.00000E+00
    0.10323E-01        -0.20647E-02         0.00000E+00
    0.10323E-01         0.00000E+00         0.00000E+00
    0.13764E-01        -0.30970E-01         0.00000E+00
    0.13764E-01        -0.28905E-01         0.00000E+00
    0.13764E-01        -0.26841E-01         0.00000E+00
    0.13764E-01        -0.24776E-01         0.00000E+00
    0.13764E-01        -0.22711E-01         0.00000E+00
    0.13764E-01        -0.20647E-01         0.00000E+00
    0.13764E-01        -0.18582E-01         0.00000E+00
    0.13764E-01        -0.16517E-01         0.00000E+00
    0.13764E-01        -0.14453E-01         0.00000E+00
    0.13764E-01        -0.12388E-01         0.00000E+00
    0.13764E-01        -0.10323E-01         0.00000E+00
    0.13764E-01        -0.82587E-02         0.00000E+00
    0.13764E-01        -0.61940E-02         0.00000E+00
    0.13764E-01        -0.41293E-02         0.00000E+00
    0.13764E-01        -0.20647E-02         0.00000E+00
    0.13764E-01         0.00000E+00         0.00000E+00
    0.17206E-01        -0.30970E-01         0.00000E+00
    0.17206E-01        -0.28905E-01         0.00000E+00
    0.17206E-01        -0.26841E-01         0.00000E+00
    0.17206E-01        -0.24776E-01         0.00000E+00
    0.17206E-01        -0.22711E-01         0.00000E+00
    0.17206E-01        -0.20647E-01         0.00000E+00
    0.17206E-01        -0.18582E-01         0.00000E+00
    0.17206E-01        -0.16517E-01         0.00000E+00
    0.17206E-01        -0.14453E-01         0.00000E+00
    0.17206E-01        -0.12388E-01         0.00000E+00
    0.17206E-01        -0.10323E-01         0.00000E+00
    0.17206E-01        -0.82587E-02         0.00000E+00
    0.17206E-01        -0.61940E-02         0.00000E+00
    0.17206E-01        -0.41293E-02         0.00000E+00
    0.17206E-01        -0.20647E-02         0.00000E+00
    0.17206E-01         0.00000E+00         0.00000E+00
    0.20647E-01        -0.30970E-01         0.00000E+00
    0.20647E-01        -0.28905E-01         0.00000E+00
    0.20647E-01        -0.26841E-01         0.00000E+00
    0.20647E-01        -0.24776E-01         0.00000E+00
    0.20647E-01        -0.22711E-01         0.00000E+00
    0.20647E-01        -0.20647E-01         0.00000E+00
    0.20647E-01        -0.18582E-01         0.00000E+00
    0.20647E-01        -0.16517E-01         0.00000E+00
    0.20647E-01        -0.14453E-01         0.00000E+00
    0.20647E-01        -0.12388E-01         0.00000E+00
    0.20647E-01        -0.10323E-01         0.00000E+00
    0.20647E-01        -0.82587E-02         0.00000E+00
    0.20647E-01        -0.61940E-02         0.00000E+00
    0.20647E-01        -0.41293E-02         0.00000E+00
    0.20647E-01        -0.20647E-02         0.00000E+00
    0.20647E-01         0.00000E+00         0.00000E+00
    0.24088E-01        -0.30970E-01         0.00000E+00
    0.24088E-01        -0.28905E-01         0.00000E+00
    0.24088E-01        -0.26841E-01         0.00000E+00
    0.24088E-01        -0.24776E-01         0.00000E+00
    0.24088E-01        -0.22711E-01         0.00000E+00
    0.24088E-01        -0.20647E-01         0.00000E+00
    0.24088E-01        -0.18582E-01         0.00000E+00
    0.24088E-01        -0.16517E-01         0.00000E+00
    0.24088E-01        -0.14453E-01         0.00000E+00
    0.24088E-01        -0.12388E-01         0.00000E+00
    0.24088E-01        -0.10323E-01         0.00000E+00
    0.24088E-01        -0.82587E-02         0.00000E+00
    0.24088E-01        -0.61940E-02         0.00000E+00
    0.24088E-01        -0.41293E-02         0.00000E+00
    0.24088E-01        -0.20647E-02         0.00000E+00
    0.24088E-01         0.00000E+00         0.00000E+00
    0.27529E-01        -0.30970E-01         0.00000E+00
    0.27529E-01        -0.28905E-01         0.00000E+00
    0.27529E-01        -0.26841E-01         0.00000E+00
    0.27529E-01        -0.24776E-01         0.00000E+00
    0.27529E-01        -0.22711E-01         0.00000E+00
    0.27529E-01        -0.20647E-01         0.00000E+00
    0.27529E-01        -0.18582E-01         0.00000E+00
    0.27529E-01        -0.16517E-01         0.00000E+00
    0.27529E-01        -0.14453E-01         0.00000E+00
    0.27529E-01        -0.12388E-01         0.00000E+00
    0.27529E-01        -0.10323E-01         0.00000E+00
    0.27529E-01        -0.82587E-02         0.00000E+00
    0.27529E-01        -0.61940E-02         0.00000E+00
    0.27529E-01        -0.41293E-02         0.00000E+00
    0.27529E-01        -0.20647E-02         0.00000E+00
    0.27529E-01         0.00000E+00         0.00000E+00
    0.30970E-01        -0.30970E-01         0.00000E+00
    0.30970E-01        -0.28905E-01         0.00000E+00
    0.30970E-01        -0.26841E-01         0.00000E+00
    0.30970E-01        -0.24776E-01         0.00000E+00
    0.30970E-01        -0.22711E-01         0.00000E+00
    0.30970E-01        -0.20647E-01         0.00000E+00
    0.30970E-01        -0.18582E-01         0.00000E+00
    0.30970E-01        -0.16517E-01         0.00000E+00
    0.30970E-01        -0.14453E-01         0.00000E+00
    0.30970E-01        -0.12388E-01         0.00000E+00
    0.30970E-01        -0.10323E-01         0.00000E+00
    0.30970E-01        -0.82587E-02         0.00000E+00
    0.30970E-01        -0.61940E-02         0.00000E+00
    0.30970E-01        -0.41293E-02         0.00000E+00
    0.30970E-01        -0.20647E-02         0.00000E+00
    0.30970E-01         0.00000E+00         0.00000E+00
    0.34411E-01        -0.30970E-01         0.00000E+00
    0.34411E-01        -0.28905E-01         0.00000E+00
    0.34411E-01        -0.26841E-01         0.00000E+00
    0.34411E-01        -0.24776E-01         0.00000E+00
    0.34411E-01        -0.22711E-01         0.00000E+00
    0.34411E-01        -0.20647E-01         0.00000E+00
    0.34411E-01        -0.18582E-01         0.00000E+00
    0.34411E-01        -0.16517E-01         0.00000E+00
    0.34411E-01        -0.14453E-01         0.00000E+00
    0.34411E-01        -0.12388E-01         0.00000E+00
    0.34411E-01        -0.10323E-01         0.00000E+00
    0.34411E-01        -0.82587E-02         0.00000E+00
    0.34411E-01        -0.61940E-02         0.00000E+00
    0.34411E-01        -0.41293E-02         0.00000E+00
    0.34411E-01        -0.20647E-02         0.00000E+00
    0.34411E-01         0.00000E+00         0.00000E+00
    0.37852E-01        -0.30970E-01         0.00000E+00
    0.37852E-01        -0.28905E-01         0.00000E+00
    0.37852E-01        -0.26841E-01         0.00000E+00
    0.37852E-01        -0.24776E-01         0.00000E+00
    0.37852E-01        -0.22711E-01         0.00000E+00
    0.37852E-01        -0.20647E-01         0.00000E+00
    0.37852E-01        -0.18582E-01         0.00000E+00
    0.37852E-01        -0.16517E-01         0.00000E+00
    0.37852E-01        -0.14453E-01         0.00000E+00
    0.37852E-01        -0.12388E-01         0.00000E+00
    0.37852E-01        -0.10323E-01         0.00000E+00
    0.37852E-01        -0.82587E-02         0.00000E+00
    0.37852E-01        -0.61940E-02         0.00000E+00
    0.37852E-01        -0.41293E-02         0.00000E+00
    0.37852E-01        -0.20647E-02         0.00000E+00
    0.37852E-01         0.00000E+00         0.00000E+00
    0.41293E-01        -0.30970E-01         0.00000E+00
    0.41293E-01        -0.28905E-01         0.00000E+00
    0.41293E-01        -0.26841E-01         0.00000E+00
    0.41293E-01        -0.24776E-01         0.00000E+00
    0.41293E-01        -0.22711E-01         0.00000E+00
    0.41293E-01        -0.20647E-01         0.00000E+00
    0.41293E-01        -0.18582E-01         0.00000E+00
    0.41293E-01        -0.16517E-01         0.00000E+00
    0.41293E-01        -0.14453E-01         0.00000E+00
    0.41293E-01        -0.12388E-01         0.00000E+00
    0.41293E-01        -0.10323E-01         0.00000E+00
    0.41293E-01        -0.82587E-02         0.00000E+00
    0.41293E-01        -0.61940E-02         0.00000E+00
    0.41293E-01        -0.41293E-02         0.00000E+00
    0.41293E-01        -0.20647E-02         0.00000E+00
    0.41293E-01         0.00000E+00         0.00000E+00
    0.44735E-01        -0.30970E-01         0.00000E+00
    0.44735E-01        -0.28905E-01         0.00000E+00
    0.44735E-01        -0.26841E-01         0.00000E+00
    0.44735E-01        -0.24776E-01         0.00000E+00
    0.44735E-01        -0.22711E-01         0.00000E+00
    0.44735E-01        -0.20647E-01         0.00000E+00
    0.44735E-01        -0.18582E-01         0.00000E+00
    0.44735E-01        -0.16517E-01         0.00000E+00
    0.44735E-01        -0.14453E-01         0.00000E+00
    0.44735E-01        -0.12388E-01         0.00000E+00
    0.44735E-01        -0.10323E-01         0.00000E+00
    0.44735E-01        -0.82587E-02         0.00000E+00
    0.44735E-01        -0.61940E-02         0.00000E+00
    0.44735E-01        -0.41293E-02         0.00000E+00
    0.44735E-01        -0.20647E-02         0.00000E+00
    0.44735E-01         0.00000E+00         0.00000E+00
    0.48176E-01        -0.30970E-01         0.00000E+00
    0.48176E-01        -0.28905E-01         0.00000E+00
    0.48176E-01        -0.26841E-01         0.00000E+00
    0.48176E-01        -0.24776E-01         0.00000E+00
    0.48176E-01        -0.22711E-01         0.00000E+00
    0.48176E-01        -0.20647E-01         0.00000E+00
    0.48176E-01        -0.18582E-01         0.00000E+00
    0.48176E-01        -0.16517E-01         0.00000E+00
    0.48176E-01        -0.14453E-01         0.00000E+00
    0.48176E-01        -0.12388E-01         0.00000E+00
    0.48176E-01        -0.10323E-01         0.00000E+00
    0.48176E-01        -0.82587E-02         0.00000E+00
    0.48176E-01        -0.61940E-02         0.00000E+00
    0.48176E-01        -0.41293E-02         0.00000E+00
    0.48176E-01        -0.20647E-02         0.00000E+00
    0.48176E-01         0.00000E+00         0.00000E+00
    0.51617E-01        -0.30970E-01         0.00000E+00
    0.51617E-01        -0.28905E-01         0.00000E+00
    0.51617E-01        -0.26841E-01         0.00000E+00
    0.51617E-01        -0.24776E-01         0.00000E+00
    0.51617E-01        -0.22711E-01         0.00000E+00
    0.51617E-01        -0.20647E-01         0.00000E+00
    0.51617E-01        -0.18582E-01         0.00000E+00
    0.51617E-01        -0.16517E-01         0.00000E+00
    0.51617E-01        -0.14453E-01         0.00000E+00
    0.51617E-01        -0.12388E-01         0.00000E+00
    0.51617E-01        -0.10323E-01         0.00000E+00
    0.51617E-01        -0.82587E-02         0.00000E+00
    0.51617E-01        -0.61940E-02         0.00000E+00
    0.51617E-01        -0.41293E-02         0.00000E+00
    0.51617E-01        -0.20647E-02         0.00000E+00
    0.51617E-01         0.00000E+00         0.00000E+00
    0.55058E-01        -0.30970E-01         0.00000E+00
    0.55058E-01        -0.28905E-01         0.00000E+00
    0.55058E-01        -0.26841E-01         0.00000E+00
    0.55058E-01        -0.24776E-01         0.00000E+00
    0.55058E-01        -0.22711E-01         0.00000E+00
    0.55058E-01        -0.20647E-01         0.00000E+00
    0.55058E-01        -0.18582E-01         0.00000E+00
    0.55058E-01        -0.16517E-01         0.00000E+00
    0.55058E-01        -0.14453E-01         0.00000E+00
    0.55058E-01        -0.12388E-01         0.00000E+00
    0.55058E-01        -0.10323E-01         0.00000E+00
    0.55058E-01        -0.82587E-02         0.00000E+00
    0.55058E-01        -0.61940E-02         0.00000E+00
    0.55058E-01        -0.41293E-02         0.00000E+00
    0.55058E-01        -0.20647E-02         0.00000E+00
    0.55058E-01         0.00000E+00         0.00000E+00
    0.58499E-01        -0.30970E-01         0.00000E+00
    0.58499E-01        -0.28905E-01         0.00000E+00
    0.58499E-01        -0.26841E-01         0.00000E+00
    0.58499E-01        -0.24776E-01         0.00000E+00
    0.58499E-01        -0.22711E-01         0.00000E+00
    0.58499E-01        -0.20647E-01         0.00000E+00
    0.58499E-01        -0.18582E-01         0.00000E+00
    0.58499E-01        -0.16517E-01         0.00000E+00
    0.58499E-01        -0.14453E-01         0.00000E+00
    0.58499E-01        -0.12388E-01         0.00000E+00
    0.58499E-01        -0.10323E-01         0.00000E+00
    0.58499E-01        -0.82587E-02         0.00000E+00
    0.58499E-01        -0.61940E-02         0.00000E+00
    0.58499E-01        -0.41293E-02         0.00000E+00
    0.58499E-01        -0.20647E-02         0.00000E+00
    0.58499E-01         0.00000E+00         0.00000E+00
    0.61940E-01        -0.30970E-01         0.00000E+00
    0.61940E-01        -0.28905E-01         0.00000E+00
    0.61940E-01        -0.26841E-01         0.00000E+00
    0.61940E-01        -0.24776E-01         0.00000E+00
    0.61940E-01        -0.22711E-01         0.00000E+00
    0.61940E-01        -0.20647E-01         0.00000E+00
    0.61940E-01        -0.18582E-01         0.00000E+00
    0.61940E-01        -0.16517E-01         0.00000E+00
    0.61940E-01        -0.14453E-01         0.00000E+00
    0.61940E-01        -0.12388E-01         0.00000E+00
    0.61940E-01        -0.10323E-01         0.00000E+00
    0.61940E-01        -0.82587E-02         0.00000E+00
    0.61940E-01        -0.61940E-02         0.00000E+00
    0.61940E-01        -0.41293E-02         0.00000E+00
    0.61940E-01        -0.20647E-02         0.00000E+00
    0.61940E-01         0.00000E+00         0.00000E+00
    0.65381E-01        -0.30970E-01         0.00000E+00
    0.65381E-01        -0.28905E-01         0.00000E+00
    0.65381E-01        -0.26841E-01         0.00000E+00
    0.65381E-01        -0.24776E-01         0.00000E+00
    0.65381E-01        -0.22711E-01         0.00000E+00
    0.65381E-01        -0.20647E-01         0.00000E+00
    0.65381E-01        -0.18582E-01         0.00000E+00
    0.65381E-01        -0.16517E-01         0.00000E+00
    0.65381E-01        -0.14453E-01         0.00000E+00
    0.65381E-01        -0.12388E-01         0.00000E+00
    0.65381E-01        -0.10323E-01         0.00000E+00
    0.65381E-01        -0.82587E-02         0.00000E+00
    0.65381E-01        -0.61940E-02         0.00000E+00
    0.65381E-01        -0.41293E-02         0.00000E+00
    0.65381E-01        -0.20647E-02         0.00000E+00
    0.65381E-01         0.00000E+00         0.00000E+00
    0.68822E-01        -0.30970E-01         0.00000E+00
    0.68822E-01        -0.28905E-01         0.00000E+00
    0.68822E-01        -0.26841E-01         0.00000E+00
    0.68822E-01        -0.24776E-01         0.00000E+00
    0.68822E-01        -0.22711E-01         0.00000E+00
    0.68822E-01        -0.20647E-01         0.00000E+00
    0.68822E-01        -0.18582E-01         0.00000E+00
    0.68822E-01        -0.16517E-01         0.00000E+00
    0.68822E-01        -0.14453E-01         0.00000E+00
    0.68822E-01        -0.12388E-01         0.00000E+00
    0.68822E-01        -0.10323E-01         0.00000E+00
    0.68822E-01        -0.82587E-02         0.00000E+00
    0.68822E-01        -0.61940E-02         0.00000E+00
    0.68822E-01        -0.41293E-02         0.00000E+00
    0.68822E-01        -0.20647E-02         0.00000E+00
    0.68822E-01         0.00000E+00         0.00000E+00
    0.72263E-01        -0.30970E-01         0.00000E+00
    0.72263E-01        -0.28905E-01         0.00000E+00
    0.72263E-01        -0.26841E-01         0.00000E+00
    0.72263E-01        -0.24776E-01         0.00000E+00
    0.72263E-01        -0.22711E-01         0.00000E+00
    0.72263E-01        -0.20647E-01         0.00000E+00
    0.72263E-01        -0.18582E-01         0.00000E+00
    0.72263E-01        -0.16517E-01         0.00000E+00
    0.72263E-01        -0.14453E-01         0.00000E+00
    0.72263E-01        -0.12388E-01         0.00000E+00
    0.72263E-01        -0.10323E-01         0.00000E+00
    0.72263E-01        -0.82587E-02         0.00000E+00
    0.72263E-01        -0.61940E-02         0.00000E+00
    0.72263E-01        -0.41293E-02         0.00000E+00
    0.72263E-01        -0.20647E-02         0.00000E+00
    0.72263E-01         0.00000E+00         0.00000E+00
    0.75705E-01        -0.30970E-01         0.00000E+00
    0.75705E-01        -0.28905E-01         0.00000E+00
    0.75705E-01        -0.26841E-01         0.00000E+00
    0.75705E-01        -0.24776E-01         0.00000E+00
    0.75705E-01        -0.22711E-01         0.00000E+00
    0.75705E-01        -0.20647E-01         0.00000E+00
    0.75705E-01        -0.18582E-01         0.00000E+00
    0.75705E-01        -0.16517E-01         0.00000E+00
    0.75705E-01        -0.14453E-01         0.00000E+00
    0.75705E-01        -0.12388E-01         0.00000E+00
    0.75705E-01        -0.10323E-01         0.00000E+00
    0.75705E-01        -0.82587E-02         0.00000E+00
    0.75705E-01        -0.61940E-02         0.00000E+00
    0.75705E-01        -0.41293E-02         0.00000E+00
    0.75705E-01        -0.20647E-02         0.00000E+00
    0.75705E-01         0.00000E+00         0.00000E+00
    0.79146E-01        -0.30970E-01         0.00000E+00
    0.79146E-01        -0.28905E-01         0.00000E+00
    0.79146E-01        -0.26841E-01         0.00000E+00
    0.79146E-01        -0.24776E-01         0.00000E+00
    0.79146E-01        -0.22711E-01         0.00000E+00
    0.79146E-01        -0.20647E-01         0.00000E+00
    0.79146E-01        -0.18582E-01         0.00000E+00
    0.79146E-01        -0.16517E-01         0.00000E+00
    0.79146E-01        -0.14453E-01         0.00000E+00
    0.79146E-01        -0.12388E-01         0.00000E+00
    0.79146E-01        -0.10323E-01         0.00000E+00
    0.79146E-01        -0.82587E-02         0.00000E+00
    0.79146E-01        -0.61940E-02         0.00000E+00
    0.79146E-01        -0.41293E-02         0.00000E+00
    0.79146E-01        -0.20647E-02         0.00000E+00
    0.79146E-01         0.00000E+00         0.00000E+00
    0.82587E-01        -0.30970E-01         0.00000E+00
    0.82587E-01        -0.28905E-01         0.00000E+00
    0.82587E-01        -0.26841E-01         0.00000E+00
    0.82587E-01        -0.24776E-01         0.00000E+00
    0.82587E-01        -0.22711E-01         0.00000E+00
    0.82587E-01        -0.20647E-01         0.00000E+00
    0.82587E-01        -0.18582E-01         0.00000E+00
    0.82587E-01        -0.16517E-01         0.00000E+00
    0.82587E-01        -0.14453E-01         0.00000E+00
    0.82587E-01        -0.12388E-01         0.00000E+00
    0.82587E-01        -0.10323E-01         0.00000E+00
    0.82587E-01        -0.82587E-02         0.00000E+00
    0.82587E-01        -0.61940E-02         0.00000E+00
    0.82587E-01        -0.41293E-02         0.00000E+00
    0.82587E-01        -0.20647E-02         0.00000E+00
    0.82587E-01         0.00000E+00         0.00000E+00
    0.86028E-01        -0.30970E-01         0.00000E+00
    0.86028E-01        -0.28905E-01         0.00000E+00
    0.86028E-01        -0.26841E-01         0.00000E+00
    0.86028E-01        -0.24776E-01         0.00000E+00
    0.86028E-01        -0.22711E-01         0.00000E+00
    0.86028E-01        -0.20647E-01         0.00000E+00
    0.86028E-01        -0.18582E-01         0.00000E+00
    0.86028E-01        -0.16517E-01         0.00000E+00
    0.86028E-01        -0.14453E-01         0.00000E+00
    0.86028E-01        -0.12388E-01         0.00000E+00
    0.86028E-01        -0.10323E-01         0.00000E+00
    0.86028E-01        -0.82587E-02         0.00000E+00
    0.86028E-01        -0.61940E-02         0.00000E+00
    0.86028E-01        -0.41293E-02         0.00000E+00
    0.86028E-01        -0.20647E-02         0.00000E+00
    0.86028E-01         0.00000E+00         0.00000E+00
    0.89469E-01        -0.30970E-01         0.00000E+00
    0.89469E-01        -0.28905E-01         0.00000E+00
    0.89469E-01        -0.26841E-01         0.00000E+00
    0.89469E-01        -0.24776E-01         0.00000E+00
    0.89469E-01        -0.22711E-01         0.00000E+00
    0.89469E-01        -0.20647E-01         0.00000E+00
    0.89469E-01        -0.18582E-01         0.00000E+00
    0.89469E-01        -0.16517E-01         0.00000E+00
    0.89469E-01        -0.14453E-01         0.00000E+00
    0.89469E-01        -0.12388E-01         0.00000E+00
    0.89469E-01        -0.10323E-01         0.00000E+00
    0.89469E-01        -0.82587E-02         0.00000E+00
    0.89469E-01        -0.61940E-02         0.00000E+00
    0.89469E-01        -0.41293E-02         0.00000E+00
    0.89469E-01        -0.20647E-02         0.00000E+00
    0.89469E-01         0.00000E+00         0.00000E+00
    0.92910E-01        -0.30970E-01         0.00000E+00
    0.92910E-01        -0.28905E-01         0.00000E+00
    0.92910E-01        -0.26841E-01         0.00000E+00
    0.92910E-01        -0.24776E-01         0.00000E+00
    0.92910E-01        -0.22711E-01         0.00000E+00
    0.92910E-01        -0.20647E-01         0.00000E+00
    0.92910E-01        -0.18582E-01         0.00000E+00
    0.92910E-01        -0.16517E-01         0.00000E+00
    0.92910E-01        -0.14453E-01         0.00000E+00
    0.92910E-01        -0.12388E-01         0.00000E+00
    0.92910E-01        -0.10323E-01         0.00000E+00
    0.92910E-01        -0.82587E-02         0.00000E+00
    0.92910E-01        -0.61940E-02         0.00000E+00
    0.92910E-01        -0.41293E-02         0.00000E+00
    0.92910E-01        -0.20647E-02         0.00000E+00
    0.92910E-01         0.00000E+00         0.00000E+00
    0.96351E-01        -0.30970E-01         0.00000E+00
    0.96351E-01        -0.28905E-01         0.00000E+00
    0.96351E-01        -0.26841E-01         0.00000E+00
    0.96351E-01        -0.24776E-01         0.00000E+00
    0.96351E-01        -0.22711E-01         0.00000E+00
    0.96351E-01        -0.20647E-01         0.00000E+00
    0.96351E-01        -0.18582E-01         0.00000E+00
    0.96351E-01        -0.16517E-01         0.00000E+00
    0.96351E-01        -0.14453E-01         0.00000E+00
    0.96351E-01        -0.12388E-01         0.00000E+00
    0.96351E-01        -0.10323E-01         0.00000E+00
    0.96351E-01        -0.82587E-02         0.00000E+00
    0.96351E-01        -0.61940E-02         0.00000E+00
    0.96351E-01        -0.41293E-02         0.00000E+00
    0.96351E-01        -0.20647E-02         0.00000E+00
    0.96351E-01         0.00000E+00         0.00000E+00
    0.99792E-01        -0.30970E-01         0.00000E+00
    0.99792E-01        -0.28905E-01         0.00000E+00
    0.99792E-01        -0.26841E-01         0.00000E+00
    0.99792E-01        -0.24776E-01         0.00000E+00
    0.99792E-01        -0.22711E-01         0.00000E+00
    0.99792E-01        -0.20647E-01         0.00000E+00
    0.99792E-01        -0.18582E-01         0.00000E+00
    0.99792E-01        -0.16517E-01         0.00000E+00
    0.99792E-01        -0.14453E-01         0.00000E+00
    0.99792E-01        -0.12388E-01         0.00000E+00
    0.99792E-01        -0.10323E-01         0.00000E+00
    0.99792E-01        -0.82587E-02         0.00000E+00
    0.99792E-01        -0.61940E-02         0.00000E+00
    0.99792E-01        -0.41293E-02         0.00000E+00
    0.99792E-01        -0.20647E-02         0.00000E+00
    0.99792E-01         0.00000E+00         0.00000E+00
    0.10323E+00        -0.30970E-01         0.00000E+00
    0.10323E+00        -0.28905E-01         0.00000E+00
    0.10323E+00        -0.26841E-01         0.00000E+00
    0.10323E+00        -0.24776E-01         0.00000E+00
    0.10323E+00        -0.22711E-01         0.00000E+00
    0.10323E+00        -0.20647E-01         0.00000E+00
    0.10323E+00        -0.18582E-01         0.00000E+00
    0.10323E+00        -0.16517E-01         0.00000E+00
    0.10323E+00        -0.14453E-01         0.00000E+00
    0.10323E+00        -0.12388E-01         0.00000E+00
    0.10323E+00        -0.10323E-01         0.00000E+00
    0.10323E+00        -0.82587E-02         0.00000E+00
    0.10323E+00        -0.61940E-02         0.00000E+00
    0.10323E+00        -0.41293E-02         0.00000E+00
    0.10323E+00        -0.20647E-02         0.00000E+00
    0.10323E+00         0.00000E+00         0.00000E+00
    0.10667E+00        -0.30970E-01         0.00000E+00
    0.10667E+00        -0.28905E-01         0.00000E+00
    0.10667E+00        -0.26841E-01         0.00000E+00
    0.10667E+00        -0.24776E-01         0.00000E+00
    0.10667E+00        -0.22711E-01         0.00000E+00
    0.10667E+00        -0.20647E-01         0.00000E+00
    0.10667E+00        -0.18582E-01         0.00000E+00
    0.10667E+00        -0.16517E-01         0.00000E+00
    0.10667E+00        -0.14453E-01         0.00000E+00
    0.10667E+00        -0.12388E-01         0.00000E+00
    0.10667E+00        -0.10323E-01         0.00000E+00
    0.10667E+00        -0.82587E-02         0.00000E+00
    0.10667E+00        -0.61940E-02         0.00000E+00
    0.10667E+00        -0.41293E-02         0.00000E+00
    0.10667E+00        -0.20647E-02         0.00000E+00
    0.10667E+00         0.00000E+00         0.00000E+00
    0.11012E+00        -0.30970E-01         0.00000E+00
    0.11012E+00        -0.28905E-01         0.00000E+00
    0.11012E+00        -0.26841E-01         0.00000E+00
    0.11012E+00        -0.24776E-01         0.00000E+00
    0.11012E+00        -0.22711E-01         0.00000E+00
    0.11012E+00        -0.20647E-01         0.00000E+00
    0.11012E+00        -0.18582E-01         0.00000E+00
    0.11012E+00        -0.16517E-01         0.00000E+00
    0.11012E+00        -0.14453E-01         0.00000E+00
    0.11012E+00        -0.12388E-01         0.00000E+00
    0.11012E+00        -0.10323E-01         0.00000E+00
    0.11012E+00        -0.82587E-02         0.00000E+00
    0.11012E+00        -0.61940E-02         0.00000E+00
    0.11012E+00        -0.41293E-02         0.00000E+00
    0.11012E+00        -0.20647E-02         0.00000E+00
    0.11012E+00         0.00000E+00         0.00000E+00
    0.11356E+00        -0.30970E-01         0.00000E+00
    0.11356E+00        -0.28905E-01         0.00000E+00
    0.11356E+00        -0.26841E-01         0.00000E+00
    0.11356E+00        -0.24776E-01         0.00000E+00
    0.11356E+00        -0.22711E-01         0.00000E+00
    0.11356E+00        -0.20647E-01         0.00000E+00
    0.11356E+00        -0.18582E-01         0.00000E+00
    0.11356E+00        -0.16517E-01         0.00000E+00
    0.11356E+00        -0.14453E-01         0.00000E+00
    0.11356E+00        -0.12388E-01         0.00000E+00
    0.11356E+00        -0.10323E-01         0.00000E+00
    0.11356E+00        -0.82587E-02         0.00000E+00
    0.11356E+00        -0.61940E-02         0.00000E+00
    0.11356E+00        -0.41293E-02         0.00000E+00
    0.11356E+00        -0.20647E-02         0.00000E+00
    0.11356E+00         0.00000E+00         0.00000E+00
    0.11700E+00        -0.30970E-01         0.00000E+00
    0.11700E+00        -0.28905E-01         0.00000E+00
    0.11700E+00        -0.26841E-01         0.00000E+00
    0.11700E+00        -0.24776E-01         0.00000E+00
    0.11700E+00        -0.22711E-01         0.00000E+00
    0.11700E+00        -0.20647E-01         0.00000E+00
    0.11700E+00        -0.18582E-01         0.00000E+00
    0.11700E+00        -0.16517E-01         0.00000E+00
    0.11700E+00        -0.14453E-01         0.00000E+00
    0.11700E+00        -0.12388E-01         0.00000E+00
    0.11700E+00        -0.10323E-01         0.00000E+00
    0.11700E+00        -0.82587E-02         0.00000E+00
    0.11700E+00        -0.61940E-02         0.00000E+00
    0.11700E+00        -0.41293E-02         0.00000E+00
    0.11700E+00        -0.20647E-02         0.00000E+00
    0.11700E+00         0.00000E+00         0.00000E+00
    0.12044E+00        -0.30970E-01         0.00000E+00
    0.12044E+00        -0.28905E-01         0.00000E+00
    0.12044E+00        -0.26841E-01         0.00000E+00
    0.12044E+00        -0.24776E-01         0.00000E+00
    0.12044E+00        -0.22711E-01         0.00000E+00
    0.12044E+00        -0.20647E-01         0.00000E+00
    0.12044E+00        -0.18582E-01         0.00000E+00
    0.12044E+00        -0.16517E-01         0.00000E+00
    0.12044E+00        -0.14453E-01         0.00000E+00
    0.12044E+00        -0.12388E-01         0.00000E+00
    0.12044E+00        -0.10323E-01         0.00000E+00
    0.12044E+00        -0.82587E-02         0.00000E+00
    0.12044E+00        -0.61940E-02         0.00000E+00
    0.12044E+00        -0.41293E-02         0.00000E+00
    0.12044E+00        -0.20647E-02         0.00000E+00
    0.12044E+00         0.00000E+00         0.00000E+00
    0.12388E+00        -0.30970E-01         0.00000E+00
    0.12388E+00        -0.28905E-01         0.00000E+00
    0.12388E+00        -0.26841E-01         0.00000E+00
    0.12388E+00        -0.24776E-01         0.00000E+00
    0.12388E+00        -0.22711E-01         0.00000E+00
    0.12388E+00        -0.20647E-01         0.00000E+00
    0.12388E+00        -0.18582E-01         0.00000E+00
    0.12388E+00        -0.16517E-01         0.00000E+00
    0.12388E+00        -0.14453E-01         0.00000E+00
    0.12388E+00        -0.12388E-01         0.00000E+00
    0.12388E+00        -0.10323E-01         0.00000E+00
    0.12388E+00        -0.82587E-02         0.00000E+00
    0.12388E+00        -0.61940E-02         0.00000E+00
    0.12388E+00        -0.41293E-02         0.00000E+00
    0.12388E+00        -0.20647E-02         0.00000E+00
    0.12388E+00         0.00000E+00         0.00000E+00
    0.12732E+00        -0.30970E-01         0.00000E+00
    0.12732E+00        -0.28905E-01         0.00000E+00
    0.12732E+00        -0.26841E-01         0.00000E+00
    0.12732E+00        -0.24776E-01         0.00000E+00
    0.12732E+00        -0.22711E-01         0.00000E+00
    0.12732E+00        -0.20647E-01         0.00000E+00
    0.12732E+00        -0.18582E-01         0.00000E+00
    0.12732E+00        -0.16517E-01         0.00000E+00
    0.12732E+00        -0.14453E-01         0.00000E+00
    0.12732E+00        -0.12388E-01         0.00000E+00
    0.12732E+00        -0.10323E-01         0.00000E+00
    0.12732E+00        -0.82587E-02         0.00000E+00
    0.12732E+00        -0.61940E-02         0.00000E+00
    0.12732E+00        -0.41293E-02         0.00000E+00
    0.12732E+00        -0.20647E-02         0.00000E+00
    0.12732E+00         0.00000E+00         0.00000E+00
    0.13076E+00        -0.30970E-01         0.00000E+00
    0.13076E+00        -0.28905E-01         0.00000E+00
    0.13076E+00        -0.26841E-01         0.00000E+00
    0.13076E+00        -0.24776E-01         0.00000E+00
    0.13076E+00        -0.22711E-01         0.00000E+00
    0.13076E+00        -0.20647E-01         0.00000E+00
    0.13076E+00        -0.18582E-01         0.00000E+00
    0.13076E+00        -0.16517E-01         0.00000E+00
    0.13076E+00        -0.14453E-01         0.00000E+00
    0.13076E+00        -0.12388E-01         0.00000E+00
    0.13076E+00        -0.10323E-01         0.00000E+00
    0.13076E+00        -0.82587E-02         0.00000E+00
    0.13076E+00        -0.61940E-02         0.00000E+00
    0.13076E+00        -0.41293E-02         0.00000E+00
    0.13076E+00        -0.20647E-02         0.00000E+00
    0.13076E+00         0.00000E+00         0.00000E+00
    0.13420E+00        -0.30970E-01         0.00000E+00
    0.13420E+00        -0.28905E-01         0.00000E+00
    0.13420E+00        -0.26841E-01         0.00000E+00
    0.13420E+00        -0.24776E-01         0.00000E+00
    0.13420E+00        -0.22711E-01         0.00000E+00
    0.13420E+00        -0.20647E-01         0.00000E+00
    0.13420E+00        -0.18582E-01         0.00000E+00
    0.13420E+00        -0.16517E-01         0.00000E+00
    0.13420E+00        -0.14453E-01         0.00000E+00
    0.13420E+00        -0.12388E-01         0.00000E+00
    0.13420E+00        -0.10323E-01         0.00000E+00
    0.13420E+00        -0.82587E-02         0.00000E+00
    0.13420E+00        -0.61940E-02         0.00000E+00
    0.13420E+00        -0.41293E-02         0.00000E+00
    0.13420E+00        -0.20647E-02         0.00000E+00
    0.13420E+00         0.00000E+00         0.00000E+00
    0.13764E+00        -0.30970E-01         0.00000E+00
    0.13764E+00        -0.28905E-01         0.00000E+00
    0.13764E+00        -0.26841E-01         0.00000E+00
    0.13764E+00        -0.24776E-01         0.00000E+00
    0.13764E+00        -0.22711E-01         0.00000E+00
    0.13764E+00        -0.20647E-01         0.00000E+00
    0.13764E+00        -0.18582E-01         0.00000E+00
    0.13764E+00        -0.16517E-01         0.00000E+00
    0.13764E+00        -0.14453E-01         0.00000E+00
    0.13764E+00        -0.12388E-01         0.00000E+00
    0.13764E+00        -0.10323E-01         0.00000E+00
    0.13764E+00        -0.82587E-02         0.00000E+00
    0.13764E+00        -0.61940E-02         0.00000E+00
    0.13764E+00        -0.41293E-02         0.00000E+00
    0.13764E+00        -0.20647E-02         0.00000E+00
    0.13764E+00         0.00000E+00         0.00000E+00
    0.14108E+00        -0.30970E-01         0.00000E+00
    0.14108E+00        -0.28905E-01         0.00000E+00
    0.14108E+00        -0.26841E-01         0.00000E+00
    0.14108E+00        -0.24776E-01         0.00000E+00
    0.14108E+00        -0.22711E-01         0.00000E+00
    0.14108E+00        -0.20647E-01         0.00000E+00
    0.14108E+00        -0.18582E-01         0.00000E+00
    0.14108E+00        -0.16517E-01         0.00000E+00
    0.14108E+00        -0.14453E-01         0.00000E+00
    0.14108E+00        -0.12388E-01         0.00000E+00
    0.14108E+00        -0.10323E-01         0.00000E+00
    0.14108E+00        -0.82587E-02         0.00000E+00
    0.14108E+00        -0.61940E-02         0.00000E+00
    0.14108E+00        -0.41293E-02         0.00000E+00
    0.14108E+00        -0.20647E-02         0.00000E+00
    0.14108E+00         0.00000E+00         0.00000E+00
    0.14452E+00        -0.30970E-01         0.00000E+00
    0.14452E+00        -0.28905E-01         0.00000E+00
    0.14452E+00        -0.26841E-01         0.00000E+00
    0.14452E+00        -0.24776E-01         0.00000E+00
    0.14452E+00        -0.22711E-01         0.00000E+00
    0.14452E+00        -0.20647E-01         0.00000E+00
    0.14452E+00        -0.18582E-01         0.00000E+00
    0.14452E+00        -0.16517E-01         0.00000E+00
    0.14452E+00        -0.14453E-01         0.00000E+00
    0.14452E+00        -0.12388E-01         0.00000E+00
    0.14452E+00        -0.10323E-01         0.00000E+00
    0.14452E+00        -0.82587E-02         0.00000E+00
    0.14452E+00        -0.61940E-02         0.00000E+00
    0.14452E+00        -0.41293E-02         0.00000E+00
    0.14452E+00        -0.20647E-02         0.00000E+00
    0.14452E+00         0.00000E+00         0.00000E+00
    0.14796E+00        -0.30970E-01         0.00000E+00
    0.14796E+00        -0.28905E-01         0.00000E+00
    0.14796E+00        -0.26841E-01         0.00000E+00
    0.14796E+00        -0.24776E-01         0.00000E+00
    0.14796E+00        -0.22711E-01         0.00000E+00
    0.14796E+00        -0.20647E-01         0.00000E+00
    0.14796E+00        -0.18582E-01         0.00000E+00
    0.14796E+00        -0.16517E-01         0.00000E+00
    0.14796E+00        -0.14453E-01         0.00000E+00
    0.14796E+00        -0.12388E-01         0.00000E+00
    0.14796E+00        -0.10323E-01         0.00000E+00
    0.14796E+00        -0.82587E-02         0.00000E+00
    0.14796E+00        -0.61940E-02         0.00000E+00
    0.14796E+00        -0.41293E-02         0.00000E+00
    0.14796E+00        -0.20647E-02         0.00000E+00
    0.14796E+00         0.00000E+00         0.00000E+00
    0.15140E+00        -0.30970E-01         0.00000E+00
    0.15140E+00        -0.28905E-01         0.00000E+00
    0.15140E+00        -0.26841E-01         0.00000E+00
    0.15140E+00        -0.24776E-01         0.00000E+00
    0.15140E+00        -0.22711E-01         0.00000E+00
    0.15140E+00        -0.20647E-01         0.00000E+00
    0.15140E+00        -0.18582E-01         0.00000E+00
    0.15140E+00        -0.16517E-01         0.00000E+00
    0.15140E+00        -0.14453E-01         0.00000E+00
    0.15140E+00        -0.12388E-01         0.00000E+00
    0.15140E+00        -0.10323E-01         0.00000E+00
    0.15140E+00        -0.82587E-02         0.00000E+00
    0.15140E+00        -0.61940E-02         0.00000E+00
    0.15140E+00        -0.41293E-02         0.00000E+00
    0.15140E+00        -0.20647E-02         0.00000E+00
    0.15140E+00         0.00000E+00         0.00000E+00
    0.15484E+00        -0.30970E-01         0.00000E+00
    0.15484E+00        -0.28905E-01         0.00000E+00
    0.15484E+00        -0.26841E-01         0.00000E+00
    0.15484E+00        -0.24776E-01         0.00000E+00
    0.15484E+00        -0.22711E-01         0.00000E+00
    0.15484E+00        -0.20647E-01         0.00000E+00
    0.15484E+00        -0.18582E-01         0.00000E+00
    0.15484E+00        -0.16517E-01         0.00000E+00
    0.15484E+00        -0.14453E-01         0.00000E+00
    0.15484E+00        -0.12388E-01         0.00000E+00
    0.15484E+00        -0.10323E-01         0.00000E+00
    0.15484E+00        -0.82587E-02         0.00000E+00
    0.15484E+00        -0.61940E-02         0.00000E+00
    0.15484E+00        -0.41293E-02         0.00000E+00
    0.15484E+00        -0.20647E-02         0.00000E+00
    0.15484E+00         0.00000E+00         0.00000E+00
    0.15828E+00        -0.30970E-01         0.00000E+00
    0.15828E+00        -0.28905E-01         0.00000E+00
    0.15828E+00        -0.26841E-01         0.00000E+00
    0.15828E+00        -0.24776E-01         0.00000E+00
    0.15828E+00        -0.22711E-01         0.00000E+00
    0.15828E+00        -0.20647E-01         0.00000E+00
    0.15828E+00        -0.18582E-01         0.00000E+00
    0.15828E+00        -0.16517E-01         0.00000E+00
    0.15828E+00        -0.14453E-01         0.00000E+00
    0.15828E+00        -0.12388E-01         0.00000E+00
    0.15828E+00        -0.10323E-01         0.00000E+00
    0.15828E+00        -0.82587E-02         0.00000E+00
    0.15828E+00        -0.61940E-02         0.00000E+00
    0.15828E+00        -0.41293E-02         0.00000E+00
    0.15828E+00        -0.20647E-02         0.00000E+00
    0.15828E+00         0.00000E+00         0.00000E+00
    0.16172E+00        -0.30970E-01         0.00000E+00
    0.16172E+00        -0.28905E-01         0.00000E+00
    0.16172E+00        -0.26841E-01         0.00000E+00
    0.16172E+00        -0.24776E-01         0.00000E+00
    0.16172E+00        -0.22711E-01         0.00000E+00
    0.16172E+00        -0.20647E-01         0.00000E+00
    0.16172E+00        -0.18582E-01         0.00000E+00
    0.16172E+00        -0.16517E-01         0.00000E+00
    0.16172E+00        -0.14453E-01         0.00000E+00
    0.16172E+00        -0.12388E-01         0.00000E+00
    0.16172E+00        -0.10323E-01         0.00000E+00
    0.16172E+00        -0.82587E-02         0.00000E+00
    0.16172E+00        -0.61940E-02         0.00000E+00
    0.16172E+00        -0.41293E-02         0.00000E+00
    0.16172E+00        -0.20647E-02         0.00000E+00
    0.16172E+00         0.00000E+00         0.00000E+00
    0.16516E+00        -0.30970E-01         0.00000E+00
    0.16516E+00        -0.28905E-01         0.00000E+00
    0.16516E+00        -0.26841E-01         0.00000E+00
    0.16516E+00        -0.24776E-01         0.00000E+00
    0.16516E+00        -0.22711E-01         0.00000E+00
    0.16516E+00        -0.20647E-01         0.00000E+00
    0.16516E+00        -0.18582E-01         0.00000E+00
    0.16516E+00        -0.16517E-01         0.00000E+00
    0.16516E+00        -0.14453E-01         0.00000E+00
    0.16516E+00        -0.12388E-01         0.00000E+00
    0.16516E+00        -0.10323E-01         0.00000E+00
    0.16516E+00        -0.82587E-02         0.00000E+00
    0.16516E+00        -0.61940E-02         0.00000E+00
    0.16516E+00        -0.41293E-02         0.00000E+00
    0.16516E+00        -0.20647E-02         0.00000E+00
    0.16516E+00         0.00000E+00         0.00000E+00
    0.16860E+00        -0.30970E-01         0.00000E+00
    0.16860E+00        -0.28905E-01         0.00000E+00
    0.16860E+00        -0.26841E-01         0.00000E+00
    0.16860E+00        -0.24776E-01         0.00000E+00
    0.16860E+00        -0.22711E-01         0.00000E+00
    0.16860E+00        -0.20647E-01         0.00000E+00
    0.16860E+00        -0.18582E-01         0.00000E+00
    0.16860E+00        -0.16517E-01         0.00000E+00
    0.16860E+00        -0.14453E-01         0.00000E+00
    0.16860E+00        -0.12388E-01         0.00000E+00
    0.16860E+00        -0.10323E-01         0.00000E+00
    0.16860E+00        -0.82587E-02         0.00000E+00
    0.16860E+00        -0.61940E-02         0.00000E+00
    0.16860E+00        -0.41293E-02         0.00000E+00
    0.16860E+00        -0.20647E-02         0.00000E+00
    0.16860E+00         0.00000E+00         0.00000E+00
    0.17204E+00        -0.30970E-01         0.00000E+00
    0.17204E+00        -0.28905E-01         0.00000E+00
    0.17204E+00        -0.26841E-01         0.00000E+00
    0.17204E+00        -0.24776E-01         0.00000E+00
    0.17204E+00        -0.22711E-01         0.00000E+00
    0.17204E+00        -0.20647E-01         0.00000E+00
    0.17204E+00        -0.18582E-01         0.00000E+00
    0.17204E+00        -0.16517E-01         0.00000E+00
    0.17204E+00        -0.14453E-01         0.00000E+00
    0.17204E+00        -0.12388E-01         0.00000E+00
    0.17204E+00        -0.10323E-01         0.00000E+00
    0.17204E+00        -0.82587E-02         0.00000E+00
    0.17204E+00        -0.61940E-02         0.00000E+00
    0.17204E+00        -0.41293E-02         0.00000E+00
    0.17204E+00        -0.20647E-02         0.00000E+00
    0.17204E+00         0.00000E+00         0.00000E+00
    0.17547E+00        -0.30970E-01         0.00000E+00
    0.17547E+00        -0.28905E-01         0.00000E+00
    0.17547E+00        -0.26841E-01         0.00000E+00
    0.17547E+00        -0.24776E-01         0.00000E+00
    0.17547E+00        -0.22711E-01         0.00000E+00
    0.17547E+00        -0.20647E-01         0.00000E+00
    0.17547E+00        -0.18582E-01         0.00000E+00
    0.17547E+00        -0.16517E-01         0.00000E+00
    0.17547E+00        -0.14453E-01         0.00000E+00
    0.17547E+00        -0.12388E-01         0.00000E+00
    0.17547E+00        -0.10323E-01         0.00000E+00
    0.17547E+00        -0.82587E-02         0.00000E+00
    0.17547E+00        -0.61940E-02         0.00000E+00
    0.17547E+00        -0.41293E-02         0.00000E+00
    0.17547E+00        -0.20647E-02         0.00000E+00
    0.17547E+00         0.00000E+00         0.00000E+00
    0.17891E+00        -0.30970E-01         0.00000E+00
    0.17891E+00        -0.28905E-01         0.00000E+00
    0.17891E+00        -0.26841E-01         0.00000E+00
    0.17891E+00        -0.24776E-01         0.00000E+00
    0.17891E+00        -0.22711E-01         0.00000E+00
    0.17891E+00        -0.20647E-01         0.00000E+00
    0.17891E+00        -0.18582E-01         0.00000E+00
    0.17891E+00        -0.16517E-01         0.00000E+00
    0.17891E+00        -0.14453E-01         0.00000E+00
    0.17891E+00        -0.12388E-01         0.00000E+00
    0.17891E+00        -0.10323E-01         0.00000E+00
    0.17891E+00        -0.82587E-02         0.00000E+00
    0.17891E+00        -0.61940E-02         0.00000E+00
    0.17891E+00        -0.41293E-02         0.00000E+00
    0.17891E+00        -0.20647E-02         0.00000E+00
    0.17891E+00         0.00000E+00         0.00000E+00
    0.18235E+00        -0.30970E-01         0.00000E+00
    0.18235E+00        -0.28905E-01         0.00000E+00
    0.18235E+00        -0.26841E-01         0.00000E+00
    0.18235E+00        -0.24776E-01         0.00000E+00
    0.18235E+00        -0.22711E-01         0.00000E+00
    0.18235E+00        -0.20647E-01         0.00000E+00
    0.18235E+00        -0.18582E-01         0.00000E+00
    0.18235E+00        -0.16517E-01         0.00000E+00
    0.18235E+00        -0.14453E-01         0.00000E+00
    0.18235E+00        -0.12388E-01         0.00000E+00
    0.18235E+00        -0.10323E-01         0.00000E+00
    0.18235E+00        -0.82587E-02         0.00000E+00
    0.18235E+00        -0.61940E-02         0.00000E+00
    0.18235E+00        -0.41293E-02         0.00000E+00
    0.18235E+00        -0.20647E-02         0.00000E+00
    0.18235E+00         0.00000E+00         0.00000E+00
    0.18578E+00        -0.30970E-01         0.00000E+00
    0.18578E+00        -0.28905E-01         0.00000E+00
    0.18578E+00        -0.26841E-01         0.00000E+00
    0.18578E+00        -0.24776E-01         0.00000E+00
    0.18578E+00        -0.22711E-01         0.00000E+00
    0.18578E+00        -0.20647E-01         0.00000E+00
    0.18578E+00        -0.18582E-01         0.00000E+00
    0.18578E+00        -0.16517E-01         0.00000E+00
    0.18578E+00        -0.14453E-01         0.00000E+00
    0.18578E+00        -0.12388E-01         0.00000E+00
    0.18578E+00        -0.10323E-01         0.00000E+00
    0.18578E+00        -0.82587E-02         0.00000E+00
    0.18578E+00        -0.61940E-02         0.00000E+00
    0.18578E+00        -0.41293E-02         0.00000E+00
    0.18578E+00        -0.20647E-02         0.00000E+00
    0.18578E+00         0.00000E+00         0.00000E+00
    0.18921E+00        -0.30970E-01         0.00000E+00
    0.18921E+00        -0.28905E-01         0.00000E+00
    0.18921E+00        -0.26841E-01         0.00000E+00
    0.18921E+00        -0.24776E-01         0.00000E+00
    0.18921E+00        -0.22711E-01         0.00000E+00
    0.18921E+00        -0.20647E-01         0.00000E+00
    0.18921E+00        -0.18582E-01         0.00000E+00
    0.18921E+00        -0.16517E-01         0.00000E+00
    0.18921E+00        -0.14453E-01         0.00000E+00
    0.18921E+00        -0.12388E-01         0.00000E+00
    0.18921E+00        -0.10323E-01         0.00000E+00
    0.18921E+00        -0.82587E-02         0.00000E+00
    0.18921E+00        -0.61940E-02         0.00000E+00
    0.18921E+00        -0.41293E-02         0.00000E+00
    0.18921E+00        -0.20647E-02         0.00000E+00
    0.18921E+00         0.00000E+00         0.00000E+00
    0.19265E+00        -0.30970E-01         0.00000E+00
    0.19265E+00        -0.28905E-01         0.00000E+00
    0.19265E+00        -0.26841E-01         0.00000E+00
    0.19265E+00        -0.24776E-01         0.00000E+00
    0.19265E+00        -0.22711E-01         0.00000E+00
    0.19265E+00        -0.20647E-01         0.00000E+00
    0.19265E+00        -0.18582E-01         0.00000E+00
    0.19265E+00        -0.16517E-01         0.00000E+00
    0.19265E+00        -0.14453E-01         0.00000E+00
    0.19265E+00        -0.12388E-01         0.00000E+00
    0.19265E+00        -0.10323E-01         0.00000E+00
    0.19265E+00        -0.82587E-02         0.00000E+00
    0.19265E+00        -0.61940E-02         0.00000E+00
    0.19265E+00        -0.41293E-02         0.00000E+00
    0.19265E+00        -0.20647E-02         0.00000E+00
    0.19265E+00         0.00000E+00         0.00000E+00
    0.19608E+00        -0.30970E-01         0.00000E+00
    0.19608E+00        -0.28905E-01         0.00000E+00
    0.19608E+00        -0.26841E-01         0.00000E+00
    0.19608E+00        -0.24776E-01         0.00000E+00
    0.19608E+00        -0.22711E-01         0.00000E+00
    0.19608E+00        -0.20647E-01         0.00000E+00
    0.19608E+00        -0.18582E-01         0.00000E+00
    0.19608E+00        -0.16517E-01         0.00000E+00
    0.19608E+00        -0.14453E-01         0.00000E+00
    0.19608E+00        -0.12388E-01         0.00000E+00
    0.19608E+00        -0.10323E-01         0.00000E+00
    0.19608E+00        -0.82587E-02         0.00000E+00
    0.19608E+00        -0.61940E-02         0.00000E+00
    0.19608E+00        -0.41293E-02         0.00000E+00
    0.19608E+00        -0.20647E-02         0.00000E+00
    0.19608E+00         0.00000E+00         0.00000E+00
    0.19950E+00        -0.30970E-01         0.00000E+00
    0.19950E+00        -0.28905E-01         0.00000E+00
    0.19950E+00        -0.26841E-01         0.00000E+00
    0.19950E+00        -0.24776E-01         0.00000E+00
    0.19950E+00        -0.22711E-01         0.00000E+00
    0.19950E+00        -0.20647E-01         0.00000E+00
    0.19950E+00        -0.18582E-01         0.00000E+00
    0.19950E+00        -0.16517E-01         0.00000E+00
    0.19950E+00        -0.14453E-01         0.00000E+00
    0.19950E+00        -0.12388E-01         0.00000E+00
    0.19950E+00        -0.10323E-01         0.00000E+00
    0.19950E+00        -0.82587E-02         0.00000E+00
    0.19950E+00        -0.61940E-02         0.00000E+00
    0.19950E+00        -0.41293E-02         0.00000E+00
    0.19950E+00        -0.20647E-02         0.00000E+00
    0.19950E+00         0.00000E+00         0.00000E+00
    0.20293E+00        -0.30970E-01         0.00000E+00
    0.20293E+00        -0.28905E-01         0.00000E+00
    0.20293E+00        -0.26841E-01         0.00000E+00
    0.20293E+00        -0.24776E-01         0.00000E+00
    0.20293E+00        -0.22711E-01         0.00000E+00
    0.20293E+00        -0.20647E-01         0.00000E+00
    0.20293E+00        -0.18582E-01         0.00000E+00
    0.20293E+00        -0.16517E-01         0.00000E+00
    0.20293E+00        -0.14453E-01         0.00000E+00
    0.20293E+00        -0.12388E-01         0.00000E+00
    0.20293E+00        -0.10323E-01         0.00000E+00
    0.20293E+00        -0.82587E-02         0.00000E+00
    0.20293E+00        -0.61940E-02         0.00000E+00
    0.20293E+00        -0.41293E-02         0.00000E+00
    0.20293E+00        -0.20647E-02         0.00000E+00
    0.20293E+00         0.00000E+00         0.00000E+00
    0.20635E+00        -0.30970E-01         0.00000E+00
    0.20635E+00        -0.28905E-01         0.00000E+00
    0.20635E+00        -0.26841E-01         0.00000E+00
    0.20635E+00        -0.24776E-01         0.00000E+00
    0.20635E+00        -0.22711E-01         0.00000E+00
    0.20635E+00        -0.20647E-01         0.00000E+00
    0.20635E+00        -0.18582E-01         0.00000E+00
    0.20635E+00        -0.16517E-01         0.00000E+00
    0.20635E+00        -0.14453E-01         0.00000E+00
    0.20635E+00        -0.12388E-01         0.00000E+00
    0.20635E+00        -0.10323E-01         0.00000E+00
    0.20635E+00        -0.82587E-02         0.00000E+00
    0.20635E+00        -0.61940E-02         0.00000E+00
    0.20635E+00        -0.41293E-02         0.00000E+00
    0.20635E+00        -0.20647E-02         0.00000E+00
    0.20635E+00         0.00000E+00         0.00000E+00
    0.20977E+00        -0.30970E-01         0.00000E+00
    0.20977E+00        -0.28905E-01         0.00000E+00
    0.20977E+00        -0.26841E-01         0.00000E+00
    0.20977E+00        -0.24776E-01         0.00000E+00
    0.20977E+00        -0.22711E-01         0.00000E+00
    0.20977E+00        -0.20647E-01         0.00000E+00
    0.20977E+00        -0.18582E-01         0.00000E+00
    0.20977E+00        -0.16517E-01         0.00000E+00
    0.20977E+00        -0.14453E-01         0.00000E+00
    0.20977E+00        -0.12388E-01         0.00000E+00
    0.20977E+00        -0.10323E-01         0.00000E+00
    0.20977E+00        -0.82587E-02         0.00000E+00
    0.20977E+00        -0.61940E-02         0.00000E+00
    0.20977E+00        -0.41293E-02         0.00000E+00
    0.20977E+00        -0.20647E-02         0.00000E+00
    0.20977E+00         0.00000E+00         0.00000E+00
    0.21318E+00        -0.30970E-01         0.00000E+00
    0.21318E+00        -0.28905E-01         0.00000E+00
    0.21318E+00        -0.26841E-01         0.00000E+00
    0.21318E+00        -0.24776E-01         0.00000E+00
    0.21318E+00        -0.22711E-01         0.00000E+00
    0.21318E+00        -0.20647E-01         0.00000E+00
    0.21318E+00        -0.18582E-01         0.00000E+00
    0.21318E+00        -0.16517E-01         0.00000E+00
    0.21318E+00        -0.14453E-01         0.00000E+00
    0.21318E+00        -0.12388E-01         0.00000E+00
    0.21318E+00        -0.10323E-01         0.00000E+00
    0.21318E+00        -0.82587E-02         0.00000E+00
    0.21318E+00        -0.61940E-02         0.00000E+00
    0.21318E+00        -0.41293E-02         0.00000E+00
    0.21318E+00        -0.20647E-02         0.00000E+00
    0.21318E+00         0.00000E+00         0.00000E+00
    0.21659E+00        -0.30970E-01         0.00000E+00
    0.21659E+00        -0.28905E-01         0.00000E+00
    0.21659E+00        -0.26841E-01         0.00000E+00
    0.21659E+00        -0.24776E-01         0.00000E+00
    0.21659E+00        -0.22711E-01         0.00000E+00
    0.21659E+00        -0.20647E-01         0.00000E+00
    0.21659E+00        -0.18582E-01         0.00000E+00
    0.21659E+00        -0.16517E-01         0.00000E+00
    0.21659E+00        -0.14453E-01         0.00000E+00
    0.21659E+00        -0.12388E-01         0.00000E+00
    0.21659E+00        -0.10323E-01         0.00000E+00
    0.21659E+00        -0.82587E-02         0.00000E+00
    0.21659E+00        -0.61940E-02         0.00000E+00
    0.21659E+00        -0.41293E-02         0.00000E+00
    0.21659E+00        -0.20647E-02         0.00000E+00
    0.21659E+00         0.00000E+00         0.00000E+00
    0.22000E+00        -0.30970E-01         0.00000E+00
    0.22000E+00        -0.28905E-01         0.00000E+00
    0.22000E+00        -0.26841E-01         0.00000E+00
    0.22000E+00        -0.24776E-01         0.00000E+00
    0.22000E+00        -0.22711E-01         0.00000E+00
    0.22000E+00        -0.20647E-01         0.00000E+00
    0.22000E+00        -0.18582E-01         0.00000E+00
    0.22000E+00        -0.16517E-01         0.00000E+00
    0.22000E+00        -0.14453E-01         0.00000E+00
    0.22000E+00        -0.12388E-01         0.00000E+00
    0.22000E+00        -0.10323E-01         0.00000E+00
    0.22000E+00        -0.82587E-02         0.00000E+00
    0.22000E+00        -0.61940E-02         0.00000E+00
    0.22000E+00        -0.41293E-02         0.00000E+00
    0.22000E+00        -0.20647E-02         0.00000E+00
    0.22000E+00         0.00000E+00         0.00000E+00
    0.22339E+00        -0.30970E-01         0.00000E+00
    0.22339E+00        -0.28905E-01         0.00000E+00
    0.22339E+00        -0.26841E-01         0.00000E+00
    0.22339E+00        -0.24776E-01         0.00000E+00
    0.22339E+00        -0.22711E-01         0.00000E+00
    0.22339E+00        -0.20647E-01         0.00000E+00
    0.22339E+00        -0.18582E-01         0.00000E+00
    0.22339E+00        -0.16517E-01         0.00000E+00
    0.22339E+00        -0.14453E-01         0.00000E+00
    0.22339E+00        -0.12388E-01         0.00000E+00
    0.22339E+00        -0.10323E-01         0.00000E+00
    0.22339E+00        -0.82587E-02         0.00000E+00
    0.22339E+00        -0.61940E-02         0.00000E+00
    0.22339E+00        -0.41293E-02         0.00000E+00
    0.22339E+00        -0.20647E-02         0.00000E+00
    0.22339E+00         0.00000E+00         0.00000E+00
    0.22678E+00        -0.30970E-01         0.00000E+00
    0.22678E+00        -0.28905E-01         0.00000E+00
    0.22678E+00        -0.26841E-01         0.00000E+00
    0.22678E+00        -0.24776E-01         0.00000E+00
    0.22678E+00        -0.22711E-01         0.00000E+00
    0.22678E+00        -0.20647E-01         0.00000E+00
    0.22678E+00        -0.18582E-01         0.00000E+00
    0.22678E+00        -0.16517E-01         0.00000E+00
    0.22678E+00        -0.14453E-01         0.00000E+00
    0.22678E+00        -0.12388E-01         0.00000E+00
    0.22678E+00        -0.10323E-01         0.00000E+00
    0.22678E+00        -0.82587E-02         0.00000E+00
    0.22678E+00        -0.61940E-02         0.00000E+00
    0.22678E+00        -0.41293E-02         0.00000E+00
    0.22678E+00        -0.20647E-02         0.00000E+00
    0.22678E+00         0.00000E+00         0.00000E+00
    0.23015E+00        -0.30970E-01         0.00000E+00
    0.23015E+00        -0.28905E-01         0.00000E+00
    0.23015E+00        -0.26841E-01         0.00000E+00
    0.23015E+00        -0.24776E-01         0.00000E+00
    0.23015E+00        -0.22711E-01         0.00000E+00
    0.23015E+00        -0.20647E-01         0.00000E+00
    0.23015E+00        -0.18582E-01         0.00000E+00
    0.23015E+00        -0.16517E-01         0.00000E+00
    0.23015E+00        -0.14453E-01         0.00000E+00
    0.23015E+00        -0.12388E-01         0.00000E+00
    0.23015E+00        -0.10323E-01         0.00000E+00
    0.23015E+00        -0.82587E-02         0.00000E+00
    0.23015E+00        -0.61940E-02         0.00000E+00
    0.23015E+00        -0.41293E-02         0.00000E+00
    0.23015E+00        -0.20647E-02         0.00000E+00
    0.23015E+00         0.00000E+00         0.00000E+00
    0.23352E+00        -0.30970E-01         0.00000E+00
    0.23352E+00        -0.28905E-01         0.00000E+00
    0.23352E+00        -0.26841E-01         0.00000E+00
    0.23352E+00        -0.24776E-01         0.00000E+00
    0.23352E+00        -0.22711E-01         0.00000E+00
    0.23352E+00        -0.20647E-01         0.00000E+00
    0.23352E+00        -0.18582E-01         0.00000E+00
    0.23352E+00        -0.16517E-01         0.00000E+00
    0.23352E+00        -0.14453E-01         0.00000E+00
    0.23352E+00        -0.12388E-01         0.00000E+00
    0.23352E+00        -0.10323E-01         0.00000E+00
    0.23352E+00        -0.82587E-02         0.00000E+00
    0.23352E+00        -0.61940E-02         0.00000E+00
    0.23352E+00        -0.41293E-02         0.00000E+00
    0.23352E+00        -0.20647E-02         0.00000E+00
    0.23352E+00         0.00000E+00         0.00000E+00
    0.23687E+00        -0.30970E-01         0.00000E+00
    0.23687E+00        -0.28905E-01         0.00000E+00
    0.23687E+00        -0.26841E-01         0.00000E+00
    0.23687E+00        -0.24776E-01         0.00000E+00
    0.23687E+00        -0.22711E-01         0.00000E+00
    0.23687E+00        -0.20647E-01         0.00000E+00
    0.23687E+00        -0.18582E-01         0.00000E+00
    0.23687E+00        -0.16517E-01         0.00000E+00
    0.23687E+00        -0.14453E-01         0.00000E+00
    0.23687E+00        -0.12388E-01         0.00000E+00
    0.23687E+00        -0.10323E-01         0.00000E+00
    0.23687E+00        -0.82587E-02         0.00000E+00
    0.23687E+00        -0.61940E-02         0.00000E+00
    0.23687E+00        -0.41293E-02         0.00000E+00
    0.23687E+00        -0.20647E-02         0.00000E+00
    0.23687E+00         0.00000E+00         0.00000E+00
    0.24020E+00        -0.30970E-01         0.00000E+00
    0.24020E+00        -0.28905E-01         0.00000E+00
    0.24020E+00        -0.26841E-01         0.00000E+00
    0.24020E+00        -0.24776E-01         0.00000E+00
    0.24020E+00        -0.22711E-01         0.00000E+00
    0.24020E+00        -0.20647E-01         0.00000E+00
    0.24020E+00        -0.18582E-01         0.00000E+00
    0.24020E+00        -0.16517E-01         0.00000E+00
    0.24020E+00        -0.14453E-01         0.00000E+00
    0.24020E+00        -0.12388E-01         0.00000E+00
    0.24020E+00        -0.10323E-01         0.00000E+00
    0.24020E+00        -0.82587E-02         0.00000E+00
    0.24020E+00        -0.61940E-02         0.00000E+00
    0.24020E+00        -0.41293E-02         0.00000E+00
    0.24020E+00        -0.20647E-02         0.00000E+00
    0.24020E+00         0.00000E+00         0.00000E+00
    0.24351E+00        -0.30970E-01         0.00000E+00
    0.24351E+00        -0.28905E-01         0.00000E+00
    0.24351E+00        -0.26841E-01         0.00000E+00
    0.24351E+00        -0.24776E-01         0.00000E+00
    0.24351E+00        -0.22711E-01         0.00000E+00
    0.24351E+00        -0.20647E-01         0.00000E+00
    0.24351E+00        -0.18582E-01         0.00000E+00
    0.24351E+00        -0.16517E-01         0.00000E+00
    0.24351E+00        -0.14453E-01         0.00000E+00
    0.24351E+00        -0.12388E-01         0.00000E+00
    0.24351E+00        -0.10323E-01         0.00000E+00
    0.24351E+00        -0.82587E-02         0.00000E+00
    0.24351E+00        -0.61940E-02         0.00000E+00
    0.24351E+00        -0.41293E-02         0.00000E+00
    0.24351E+00        -0.20647E-02         0.00000E+00
    0.24351E+00         0.00000E+00         0.00000E+00
    0.24680E+00        -0.30970E-01         0.00000E+00
    0.24680E+00        -0.28905E-01         0.00000E+00
    0.24680E+00        -0.26841E-01         0.00000E+00
    0.24680E+00        -0.24776E-01         0.00000E+00
    0.24680E+00        -0.22711E-01         0.00000E+00
    0.24680E+00        -0.20647E-01         0.00000E+00
    0.24680E+00        -0.18582E-01         0.00000E+00
    0.24680E+00        -0.16517E-01         0.00000E+00
    0.24680E+00        -0.14453E-01         0.00000E+00
    0.24680E+00        -0.12388E-01         0.00000E+00
    0.24680E+00        -0.10323E-01         0.00000E+00
    0.24680E+00        -0.82587E-02         0.00000E+00
    0.24680E+00        -0.61940E-02         0.00000E+00
    0.24680E+00        -0.41293E-02         0.00000E+00
    0.24680E+00        -0.20647E-02         0.00000E+00
    0.24680E+00         0.00000E+00         0.00000E+00
    0.25006E+00        -0.30970E-01         0.00000E+00
    0.25006E+00        -0.28905E-01         0.00000E+00
    0.25006E+00        -0.26841E-01         0.00000E+00
    0.25006E+00        -0.24776E-01         0.00000E+00
    0.25006E+00        -0.22711E-01         0.00000E+00
    0.25006E+00        -0.20647E-01         0.00000E+00
    0.25006E+00        -0.18582E-01         0.00000E+00
    0.25006E+00        -0.16517E-01         0.00000E+00
    0.25006E+00        -0.14453E-01         0.00000E+00
    0.25006E+00        -0.12388E-01         0.00000E+00
    0.25006E+00        -0.10323E-01         0.00000E+00
    0.25006E+00        -0.82587E-02         0.00000E+00
    0.25006E+00        -0.61940E-02         0.00000E+00
    0.25006E+00        -0.41293E-02         0.00000E+00
    0.25006E+00        -0.20647E-02         0.00000E+00
    0.25006E+00         0.00000E+00         0.00000E+00
    0.25329E+00        -0.30970E-01         0.00000E+00
    0.25329E+00        -0.28905E-01         0.00000E+00
    0.25329E+00        -0.26841E-01         0.00000E+00
    0.25329E+00        -0.24776E-01         0.00000E+00
    0.25329E+00        -0.22711E-01         0.00000E+00
    0.25329E+00        -0.20647E-01         0.00000E+00
    0.25329E+00        -0.18582E-01         0.00000E+00
    0.25329E+00        -0.16517E-01         0.00000E+00
    0.25329E+00        -0.14453E-01         0.00000E+00
    0.25329E+00        -0.12388E-01         0.00000E+00
    0.25329E+00        -0.10323E-01         0.00000E+00
    0.25329E+00        -0.82587E-02         0.00000E+00
    0.25329E+00        -0.61940E-02         0.00000E+00
    0.25329E+00        -0.41293E-02         0.00000E+00
    0.25329E+00        -0.20647E-02         0.00000E+00
    0.25329E+00         0.00000E+00         0.00000E+00
    0.25647E+00        -0.30970E-01         0.00000E+00
    0.25647E+00        -0.28905E-01         0.00000E+00
    0.25647E+00        -0.26841E-01         0.00000E+00
    0.25647E+00        -0.24776E-01         0.00000E+00
    0.25647E+00        -0.22711E-01         0.00000E+00
    0.25647E+00        -0.20647E-01         0.00000E+00
    0.25647E+00        -0.18582E-01         0.00000E+00
    0.25647E+00        -0.16517E-01         0.00000E+00
    0.25647E+00        -0.14453E-01         0.00000E+00
    0.25647E+00        -0.12388E-01         0.00000E+00
    0.25647E+00        -0.10323E-01         0.00000E+00
    0.25647E+00        -0.82587E-02         0.00000E+00
    0.25647E+00        -0.61940E-02         0.00000E+00
    0.25647E+00        -0.41293E-02         0.00000E+00
    0.25647E+00        -0.20647E-02         0.00000E+00
    0.25647E+00         0.00000E+00         0.00000E+00
    0.25961E+00        -0.30970E-01         0.00000E+00
    0.25961E+00        -0.28905E-01         0.00000E+00
    0.25961E+00        -0.26841E-01         0.00000E+00
    0.25961E+00        -0.24776E-01         0.00000E+00
    0.25961E+00        -0.22711E-01         0.00000E+00
    0.25961E+00        -0.20647E-01         0.00000E+00
    0.25961E+00        -0.18582E-01         0.00000E+00
    0.25961E+00        -0.16517E-01         0.00000E+00
    0.25961E+00        -0.14453E-01         0.00000E+00
    0.25961E+00        -0.12388E-01         0.00000E+00
    0.25961E+00        -0.10323E-01         0.00000E+00
    0.25961E+00        -0.82587E-02         0.00000E+00
    0.25961E+00        -0.61940E-02         0.00000E+00
    0.25961E+00        -0.41293E-02         0.00000E+00
    0.25961E+00        -0.20647E-02         0.00000E+00
    0.25961E+00         0.00000E+00         0.00000E+00
    0.26270E+00        -0.30970E-01         0.00000E+00
    0.26270E+00        -0.28905E-01         0.00000E+00
    0.26270E+00        -0.26841E-01         0.00000E+00
    0.26270E+00        -0.24776E-01         0.00000E+00
    0.26270E+00        -0.22711E-01         0.00000E+00
    0.26270E+00        -0.20647E-01         0.00000E+00
    0.26270E+00        -0.18582E-01         0.00000E+00
    0.26270E+00        -0.16517E-01         0.00000E+00
    0.26270E+00        -0.14453E-01         0.00000E+00
    0.26270E+00        -0.12388E-01         0.00000E+00
    0.26270E+00        -0.10323E-01         0.00000E+00
    0.26270E+00        -0.82587E-02         0.00000E+00
    0.26270E+00        -0.61940E-02         0.00000E+00
    0.26270E+00        -0.41293E-02         0.00000E+00
    0.26270E+00        -0.20647E-02         0.00000E+00
    0.26270E+00         0.00000E+00         0.00000E+00
    0.26572E+00        -0.30970E-01         0.00000E+00
    0.26572E+00        -0.28905E-01         0.00000E+00
    0.26572E+00        -0.26841E-01         0.00000E+00
    0.26572E+00        -0.24776E-01         0.00000E+00
    0.26572E+00        -0.22711E-01         0.00000E+00
    0.26572E+00        -0.20647E-01         0.00000E+00
    0.26572E+00        -0.18582E-01         0.00000E+00
    0.26572E+00        -0.16517E-01         0.00000E+00
    0.26572E+00        -0.14453E-01         0.00000E+00
    0.26572E+00        -0.12388E-01         0.00000E+00
    0.26572E+00        -0.10323E-01         0.00000E+00
    0.26572E+00        -0.82587E-02         0.00000E+00
    0.26572E+00        -0.61940E-02         0.00000E+00
    0.26572E+00        -0.41293E-02         0.00000E+00
    0.26572E+00        -0.20647E-02         0.00000E+00
    0.26572E+00         0.00000E+00         0.00000E+00
    0.26866E+00        -0.30970E-01         0.00000E+00
    0.26866E+00        -0.28905E-01         0.00000E+00
    0.26866E+00        -0.26841E-01         0.00000E+00
    0.26866E+00        -0.24776E-01         0.00000E+00
    0.26866E+00        -0.22711E-01         0.00000E+00
    0.26866E+00        -0.20647E-01         0.00000E+00
    0.26866E+00        -0.18582E-01         0.00000E+00
    0.26866E+00        -0.16517E-01         0.00000E+00
    0.26866E+00        -0.14453E-01         0.00000E+00
    0.26866E+00        -0.12388E-01         0.00000E+00
    0.26866E+00        -0.10323E-01         0.00000E+00
    0.26866E+00        -0.82587E-02         0.00000E+00
    0.26866E+00        -0.61940E-02         0.00000E+00
    0.26866E+00        -0.41293E-02         0.00000E+00
    0.26866E+00        -0.20647E-02         0.00000E+00
    0.26866E+00         0.00000E+00         0.00000E+00
    0.27152E+00        -0.30970E-01         0.00000E+00
    0.27152E+00        -0.28905E-01         0.00000E+00
    0.27152E+00        -0.26841E-01         0.00000E+00
    0.27152E+00        -0.24776E-01         0.00000E+00
    0.27152E+00        -0.22711E-01         0.00000E+00
    0.27152E+00        -0.20647E-01         0.00000E+00
    0.27152E+00        -0.18582E-01         0.00000E+00
    0.27152E+00        -0.16517E-01         0.00000E+00
    0.27152E+00        -0.14453E-01         0.00000E+00
    0.27152E+00        -0.12388E-01         0.00000E+00
    0.27152E+00        -0.10323E-01         0.00000E+00
    0.27152E+00        -0.82587E-02         0.00000E+00
    0.27152E+00        -0.61940E-02         0.00000E+00
    0.27152E+00        -0.41293E-02         0.00000E+00
    0.27152E+00        -0.20647E-02         0.00000E+00
    0.27152E+00         0.00000E+00         0.00000E+00
    0.27428E+00        -0.30970E-01         0.00000E+00
    0.27428E+00        -0.28905E-01         0.00000E+00
    0.27428E+00        -0.26841E-01         0.00000E+00
    0.27428E+00        -0.24776E-01         0.00000E+00
    0.27428E+00        -0.22711E-01         0.00000E+00
    0.27428E+00        -0.20647E-01         0.00000E+00
    0.27428E+00        -0.18582E-01         0.00000E+00
    0.27428E+00        -0.16517E-01         0.00000E+00
    0.27428E+00        -0.14453E-01         0.00000E+00
    0.27428E+00        -0.12388E-01         0.00000E+00
    0.27428E+00        -0.10323E-01         0.00000E+00
    0.27428E+00        -0.82587E-02         0.00000E+00
    0.27428E+00        -0.61940E-02         0.00000E+00
    0.27428E+00        -0.41293E-02         0.00000E+00
    0.27428E+00        -0.20647E-02         0.00000E+00
    0.27428E+00         0.00000E+00         0.00000E+00
    0.27692E+00        -0.30970E-01         0.00000E+00
    0.27692E+00        -0.28905E-01         0.00000E+00
    0.27692E+00        -0.26841E-01         0.00000E+00
    0.27692E+00        -0.24776E-01         0.00000E+00
    0.27692E+00        -0.22711E-01         0.00000E+00
    0.27692E+00        -0.20647E-01         0.00000E+00
    0.27692E+00        -0.18582E-01         0.00000E+00
    0.27692E+00        -0.16517E-01         0.00000E+00
    0.27692E+00        -0.14453E-01         0.00000E+00
    0.27692E+00        -0.12388E-01         0.00000E+00
    0.27692E+00        -0.10323E-01         0.00000E+00
    0.27692E+00        -0.82587E-02         0.00000E+00
    0.27692E+00        -0.61940E-02         0.00000E+00
    0.27692E+00        -0.41293E-02         0.00000E+00
    0.27692E+00        -0.20647E-02         0.00000E+00
    0.27692E+00         0.00000E+00         0.00000E+00
    0.27943E+00        -0.30970E-01         0.00000E+00
    0.27943E+00        -0.28905E-01         0.00000E+00
    0.27943E+00        -0.26841E-01         0.00000E+00
    0.27943E+00        -0.24776E-01         0.00000E+00
    0.27943E+00        -0.22711E-01         0.00000E+00
    0.27943E+00        -0.20647E-01         0.00000E+00
    0.27943E+00        -0.18582E-01         0.00000E+00
    0.27943E+00        -0.16517E-01         0.00000E+00
    0.27943E+00        -0.14453E-01         0.00000E+00
    0.27943E+00        -0.12388E-01         0.00000E+00
    0.27943E+00        -0.10323E-01         0.00000E+00
    0.27943E+00        -0.82587E-02         0.00000E+00
    0.27943E+00        -0.61940E-02         0.00000E+00
    0.27943E+00        -0.41293E-02         0.00000E+00
    0.27943E+00        -0.20647E-02         0.00000E+00
    0.27943E+00         0.00000E+00         0.00000E+00
    0.28178E+00        -0.30970E-01         0.00000E+00
    0.28178E+00        -0.28905E-01         0.00000E+00
    0.28178E+00        -0.26841E-01         0.00000E+00
    0.28178E+00        -0.24776E-01         0.00000E+00
    0.28178E+00        -0.22711E-01         0.00000E+00
    0.28178E+00        -0.20647E-01         0.00000E+00
    0.28178E+00        -0.18582E-01         0.00000E+00
    0.28178E+00        -0.16517E-01         0.00000E+00
    0.28178E+00        -0.14453E-01         0.00000E+00
    0.28178E+00        -0.12388E-01         0.00000E+00
    0.28178E+00        -0.10323E-01         0.00000E+00
    0.28178E+00        -0.82587E-02         0.00000E+00
    0.28178E+00        -0.61940E-02         0.00000E+00
    0.28178E+00        -0.41293E-02         0.00000E+00
    0.28178E+00        -0.20647E-02         0.00000E+00
    0.28178E+00         0.00000E+00         0.00000E+00
    0.28397E+00        -0.30970E-01         0.00000E+00
    0.28397E+00        -0.28905E-01         0.00000E+00
    0.28397E+00        -0.26841E-01         0.00000E+00
    0.28397E+00        -0.24776E-01         0.00000E+00
    0.28397E+00        -0.22711E-01         0.00000E+00
    0.28397E+00        -0.20647E-01         0.00000E+00
    0.28397E+00        -0.18582E-01         0.00000E+00
    0.28397E+00        -0.16517E-01         0.00000E+00
    0.28397E+00        -0.14453E-01         0.00000E+00
    0.28397E+00        -0.12388E-01         0.00000E+00
    0.28397E+00        -0.10323E-01         0.00000E+00
    0.28397E+00        -0.82587E-02         0.00000E+00
    0.28397E+00        -0.61940E-02         0.00000E+00
    0.28397E+00        -0.41293E-02         0.00000E+00
    0.28397E+00        -0.20647E-02         0.00000E+00
    0.28397E+00         0.00000E+00         0.00000E+00
    0.28595E+00        -0.30970E-01         0.00000E+00
    0.28595E+00        -0.28905E-01         0.00000E+00
    0.28595E+00        -0.26841E-01         0.00000E+00
    0.28595E+00        -0.24776E-01         0.00000E+00
    0.28595E+00        -0.22711E-01         0.00000E+00
    0.28595E+00        -0.20647E-01         0.00000E+00
    0.28595E+00        -0.18582E-01         0.00000E+00
    0.28595E+00        -0.16517E-01         0.00000E+00
    0.28595E+00        -0.14453E-01         0.00000E+00
    0.28595E+00        -0.12388E-01         0.00000E+00
    0.28595E+00        -0.10323E-01         0.00000E+00
    0.28595E+00        -0.82587E-02         0.00000E+00
    0.28595E+00        -0.61940E-02         0.00000E+00
    0.28595E+00        -0.41293E-02         0.00000E+00
    0.28595E+00        -0.20647E-02         0.00000E+00
    0.28595E+00         0.00000E+00         0.00000E+00
    0.28772E+00        -0.30970E-01         0.00000E+00
    0.28772E+00        -0.28905E-01         0.00000E+00
    0.28772E+00        -0.26841E-01         0.00000E+00
    0.28772E+00        -0.24776E-01         0.00000E+00
    0.28772E+00        -0.22711E-01         0.00000E+00
    0.28772E+00        -0.20647E-01         0.00000E+00
    0.28772E+00        -0.18582E-01         0.00000E+00
    0.28772E+00        -0.16517E-01         0.00000E+00
    0.28772E+00        -0.14453E-01         0.00000E+00
    0.28772E+00        -0.12388E-01         0.00000E+00
    0.28772E+00        -0.10323E-01         0.00000E+00
    0.28772E+00        -0.82587E-02         0.00000E+00
    0.28772E+00        -0.61940E-02         0.00000E+00
    0.28772E+00        -0.41293E-02         0.00000E+00
    0.28772E+00        -0.20647E-02         0.00000E+00
    0.28772E+00         0.00000E+00         0.00000E+00
    0.28925E+00        -0.30970E-01         0.00000E+00
    0.28925E+00        -0.28905E-01         0.00000E+00
    0.28925E+00        -0.26841E-01         0.00000E+00
    0.28925E+00        -0.24776E-01         0.00000E+00
    0.28925E+00        -0.22711E-01         0.00000E+00
    0.28925E+00        -0.20647E-01         0.00000E+00
    0.28925E+00        -0.18582E-01         0.00000E+00
    0.28925E+00        -0.16517E-01         0.00000E+00
    0.28925E+00        -0.14453E-01         0.00000E+00
    0.28925E+00        -0.12388E-01         0.00000E+00
    0.28925E+00        -0.10323E-01         0.00000E+00
    0.28925E+00        -0.82587E-02         0.00000E+00
    0.28925E+00        -0.61940E-02         0.00000E+00
    0.28925E+00        -0.41293E-02         0.00000E+00
    0.28925E+00        -0.20647E-02         0.00000E+00
    0.28925E+00         0.00000E+00         0.00000E+00
    0.29052E+00        -0.30970E-01         0.00000E+00
    0.29052E+00        -0.28905E-01         0.00000E+00
    0.29052E+00        -0.26841E-01         0.00000E+00
    0.29052E+00        -0.24776E-01         0.00000E+00
    0.29052E+00        -0.22711E-01         0.00000E+00
    0.29052E+00        -0.20647E-01         0.00000E+00
    0.29052E+00        -0.18582E-01         0.00000E+00
    0.29052E+00        -0.16517E-01         0.00000E+00
    0.29052E+00        -0.14453E-01         0.00000E+00
    0.29052E+00        -0.12388E-01         0.00000E+00
    0.29052E+00        -0.10323E-01         0.00000E+00
    0.29052E+00        -0.82587E-02         0.00000E+00
    0.29052E+00        -0.61940E-02         0.00000E+00
    0.29052E+00        -0.41293E-02         0.00000E+00
    0.29052E+00        -0.20647E-02         0.00000E+00
    0.29052E+00         0.00000E+00         0.00000E+00
    0.29152E+00        -0.30970E-01         0.00000E+00
    0.29152E+00        -0.28905E-01         0.00000E+00
    0.29152E+00        -0.26841E-01         0.00000E+00
    0.29152E+00        -0.24776E-01         0.00000E+00
    0.29152E+00        -0.22711E-01         0.00000E+00
    0.29152E+00        -0.20647E-01         0.00000E+00
    0.29152E+00        -0.18582E-01         0.00000E+00
    0.29152E+00        -0.16517E-01         0.00000E+00
    0.29152E+00        -0.14453E-01         0.00000E+00
    0.29152E+00        -0.12388E-01         0.00000E+00
    0.29152E+00        -0.10323E-01         0.00000E+00
    0.29152E+00        -0.82587E-02         0.00000E+00
    0.29152E+00        -0.61940E-02         0.00000E+00
    0.29152E+00        -0.41293E-02         0.00000E+00
    0.29152E+00        -0.20647E-02         0.00000E+00
    0.29152E+00         0.00000E+00         0.00000E+00
CELL_DATA       1350
VECTORS vDarcy double 
    0.13450E-12         0.10186E-19         0.00000E+00
    0.13450E-12         0.10186E-19         0.00000E+00
    0.13450E-12        -0.29104E-20         0.00000E+00
    0.13450E-12        -0.16007E-19         0.00000E+00
    0.13450E-12        -0.13097E-19         0.00000E+00
    0.13450E-12         0.00000E+00         0.00000E+00
    0.13450E-12        -0.21100E-19         0.00000E+00
    0.13450E-12        -0.15280E-19         0.00000E+00
    0.13450E-12        -0.18917E-19         0.00000E+00
    0.13450E-12        -0.28376E-19         0.00000E+00
    0.13450E-12        -0.24738E-19         0.00000E+00
    0.13450E-12        -0.94587E-20         0.00000E+00
    0.13450E-12        -0.18917E-19         0.00000E+00
    0.13450E-12         0.72760E-21         0.00000E+00
    0.13450E-12        -0.72760E-21         0.00000E+00
    0.40779E-12         0.14552E-20         0.00000E+00
    0.40779E-12         0.87311E-20         0.00000E+00
    0.40779E-12        -0.29104E-20         0.00000E+00
    0.40779E-12        -0.36380E-20         0.00000E+00
    0.40779E-12         0.14552E-20         0.00000E+00
    0.40779E-12        -0.80036E-20         0.00000E+00
    0.40779E-12        -0.24011E-19         0.00000E+00
    0.40779E-12        -0.94587E-20         0.00000E+00
    0.40779E-12        -0.13097E-19         0.00000E+00
    0.40779E-12        -0.18190E-19         0.00000E+00
    0.40779E-12        -0.38563E-19         0.00000E+00
    0.40779E-12        -0.43656E-20         0.00000E+00
    0.40779E-12        -0.16007E-19         0.00000E+00
    0.40779E-12        -0.10914E-19         0.00000E+00
    0.40779E-12         0.00000E+00         0.00000E+00
    0.69413E-12         0.50932E-20         0.00000E+00
    0.69413E-12         0.36380E-20         0.00000E+00
    0.69413E-12        -0.36380E-20         0.00000E+00
    0.69413E-12        -0.36380E-20         0.00000E+00
    0.69413E-12        -0.87311E-20         0.00000E+00
    0.69413E-12        -0.50932E-20         0.00000E+00
    0.69413E-12        -0.21100E-19         0.00000E+00
    0.69413E-12        -0.12369E-19         0.00000E+00
    0.69413E-12        -0.80036E-20         0.00000E+00
    0.69413E-12        -0.10186E-19         0.00000E+00
    0.69413E-12        -0.30923E-19         0.00000E+00
    0.69413E-12        -0.87311E-20         0.00000E+00
    0.69413E-12         0.72760E-21         0.00000E+00
    0.69413E-12        -0.19645E-19         0.00000E+00
    0.69413E-12        -0.36380E-20         0.00000E+00
    0.10027E-11         0.36380E-20         0.00000E+00
    0.10027E-11         0.36380E-20         0.00000E+00
    0.10027E-11         0.29104E-20         0.00000E+00
    0.10027E-11        -0.13097E-19         0.00000E+00
    0.10027E-11        -0.21100E-19         0.00000E+00
    0.10027E-11        -0.80036E-20         0.00000E+00
    0.10027E-11        -0.30559E-19         0.00000E+00
    0.10027E-11        -0.13097E-19         0.00000E+00
    0.10027E-11        -0.10186E-19         0.00000E+00
    0.10027E-11        -0.65484E-20         0.00000E+00
    0.10027E-11        -0.17462E-19         0.00000E+00
    0.10027E-11        -0.50932E-20         0.00000E+00
    0.10027E-11         0.16735E-19         0.00000E+00
    0.10027E-11        -0.87311E-20         0.00000E+00
    0.10027E-11        -0.65484E-20         0.00000E+00
    0.13433E-11        -0.21828E-20         0.00000E+00
    0.13433E-11        -0.14552E-20         0.00000E+00
    0.13433E-11        -0.76172E-35         0.00000E+00
    0.13433E-11        -0.26193E-19         0.00000E+00
    0.13433E-11        -0.13824E-19         0.00000E+00
    0.13433E-11        -0.11642E-19         0.00000E+00
    0.13433E-11        -0.18190E-19         0.00000E+00
    0.13433E-11        -0.17462E-19         0.00000E+00
    0.13433E-11        -0.13097E-19         0.00000E+00
    0.13433E-11        -0.12369E-19         0.00000E+00
    0.13433E-11        -0.14552E-20         0.00000E+00
    0.13433E-11        -0.29104E-20         0.00000E+00
    0.13433E-11         0.13824E-19         0.00000E+00
    0.13433E-11         0.43656E-20         0.00000E+00
    0.13433E-11         0.72760E-21         0.00000E+00
    0.17269E-11         0.65484E-20         0.00000E+00
    0.17269E-11        -0.10186E-19         0.00000E+00
    0.17269E-11        -0.10186E-19         0.00000E+00
    0.17269E-11        -0.26193E-19         0.00000E+00
    0.17269E-11         0.14552E-20         0.00000E+00
    0.17269E-11        -0.72760E-20         0.00000E+00
    0.17269E-11        -0.15280E-19         0.00000E+00
    0.17269E-11        -0.20373E-19         0.00000E+00
    0.17269E-11        -0.50932E-20         0.00000E+00
    0.17269E-11        -0.36380E-20         0.00000E+00
    0.17269E-11         0.12733E-19         0.00000E+00
    0.17269E-11         0.16007E-19         0.00000E+00
    0.17269E-11         0.12733E-19         0.00000E+00
    0.17269E-11         0.14552E-20         0.00000E+00
    0.17269E-11        -0.80036E-20         0.00000E+00
    0.21657E-11         0.12005E-19         0.00000E+00
    0.21657E-11        -0.18190E-19         0.00000E+00
    0.21657E-11        -0.11642E-19         0.00000E+00
    0.21657E-11        -0.94587E-20         0.00000E+00
    0.21657E-11        -0.58208E-20         0.00000E+00
    0.21657E-11        -0.14552E-20         0.00000E+00
    0.21657E-11        -0.90949E-20         0.00000E+00
    0.21657E-11         0.14552E-20         0.00000E+00
    0.21657E-11        -0.14552E-20         0.00000E+00
    0.21657E-11        -0.43656E-20         0.00000E+00
    0.21657E-11         0.13461E-19         0.00000E+00
    0.21657E-11         0.28376E-19         0.00000E+00
    0.21657E-11         0.72760E-21         0.00000E+00
    0.21657E-11        -0.10186E-19         0.00000E+00
    0.21657E-11        -0.72760E-20         0.00000E+00
    0.26739E-11         0.29104E-20         0.00000E+00
    0.26739E-11        -0.90949E-20         0.00000E+00
    0.26739E-11        -0.16007E-19         0.00000E+00
    0.26739E-11        -0.80036E-20         0.00000E+00
    0.26739E-11         0.11172E-34         0.00000E+00
    0.26739E-11         0.65484E-20         0.00000E+00
    0.26739E-11        -0.72760E-20         0.00000E+00
    0.26739E-11        -0.72760E-21         0.00000E+00
    0.26739E-11        -0.65484E-20         0.00000E+00
    0.26739E-11        -0.36380E-20         0.00000E+00
    0.26739E-11        -0.13824E-19         0.00000E+00
    0.26739E-11         0.20373E-19         0.00000E+00
    0.26739E-11        -0.13097E-19         0.00000E+00
    0.26739E-11        -0.18190E-20         0.00000E+00
    0.26739E-11        -0.36380E-20         0.00000E+00
    0.32675E-11        -0.14552E-20         0.00000E+00
    0.32675E-11        -0.18917E-19         0.00000E+00
    0.32675E-11        -0.43656E-20         0.00000E+00
    0.32675E-11        -0.11642E-19         0.00000E+00
    0.32675E-11         0.43656E-20         0.00000E+00
    0.32675E-11        -0.43656E-20         0.00000E+00
    0.32675E-11        -0.87311E-20         0.00000E+00
    0.32675E-11        -0.18917E-19         0.00000E+00
    0.32675E-11        -0.19645E-19         0.00000E+00
    0.32675E-11        -0.32742E-20         0.00000E+00
    0.32675E-11        -0.26193E-19         0.00000E+00
    0.32675E-11        -0.43656E-20         0.00000E+00
    0.32675E-11        -0.16007E-19         0.00000E+00
    0.32675E-11         0.16007E-19         0.00000E+00
    0.32675E-11         0.21828E-20         0.00000E+00
    0.39657E-11         0.43656E-20         0.00000E+00
    0.39657E-11        -0.19645E-19         0.00000E+00
    0.39657E-11        -0.54570E-20         0.00000E+00
    0.39657E-11         0.36380E-21         0.00000E+00
    0.39657E-11        -0.14552E-19         0.00000E+00
    0.39657E-11        -0.16735E-19         0.00000E+00
    0.39657E-11        -0.72760E-20         0.00000E+00
    0.39657E-11        -0.43656E-20         0.00000E+00
    0.39657E-11        -0.26193E-19         0.00000E+00
    0.39657E-11        -0.29104E-19         0.00000E+00
    0.39657E-11        -0.24738E-19         0.00000E+00
    0.39657E-11        -0.87311E-20         0.00000E+00
    0.39657E-11        -0.20313E-35         0.00000E+00
    0.39657E-11         0.13824E-19         0.00000E+00
    0.39657E-11        -0.25466E-20         0.00000E+00
    0.47907E-11         0.72760E-20         0.00000E+00
    0.47907E-11         0.13097E-19         0.00000E+00
    0.47907E-11         0.58208E-20         0.00000E+00
    0.47907E-11        -0.15643E-19         0.00000E+00
    0.47907E-11        -0.32742E-20         0.00000E+00
    0.47907E-11        -0.16007E-19         0.00000E+00
    0.47907E-11        -0.20373E-19         0.00000E+00
    0.47907E-11        -0.15280E-19         0.00000E+00
    0.47907E-11        -0.33469E-19         0.00000E+00
    0.47907E-11        -0.72760E-20         0.00000E+00
    0.47907E-11        -0.16735E-19         0.00000E+00
    0.47907E-11         0.72760E-21         0.00000E+00
    0.47907E-11        -0.29104E-20         0.00000E+00
    0.47907E-11         0.40018E-20         0.00000E+00
    0.47907E-11        -0.29104E-20         0.00000E+00
    0.57690E-11         0.10914E-19         0.00000E+00
    0.57690E-11         0.29104E-20         0.00000E+00
    0.57690E-11         0.43656E-20         0.00000E+00
    0.57690E-11        -0.13461E-19         0.00000E+00
    0.57690E-11         0.65484E-20         0.00000E+00
    0.57690E-11        -0.65484E-20         0.00000E+00
    0.57690E-11        -0.20373E-19         0.00000E+00
    0.57690E-11        -0.18190E-19         0.00000E+00
    0.57690E-11        -0.29104E-19         0.00000E+00
    0.57690E-11         0.50932E-20         0.00000E+00
    0.57690E-11         0.72760E-20         0.00000E+00
    0.57690E-11         0.72760E-20         0.00000E+00
    0.57690E-11        -0.10914E-19         0.00000E+00
    0.57690E-11        -0.13097E-19         0.00000E+00
    0.57690E-11         0.10550E-19         0.00000E+00
    0.69317E-11         0.00000E+00         0.00000E+00
    0.69317E-11        -0.13097E-19         0.00000E+00
    0.69317E-11        -0.14552E-19         0.00000E+00
    0.69317E-11         0.14552E-20         0.00000E+00
    0.69317E-11         0.87311E-20         0.00000E+00
    0.69317E-11        -0.14552E-19         0.00000E+00
    0.69317E-11        -0.98225E-20         0.00000E+00
    0.69317E-11         0.36380E-20         0.00000E+00
    0.69317E-11        -0.21464E-19         0.00000E+00
    0.69317E-11         0.80036E-20         0.00000E+00
    0.69317E-11        -0.47294E-20         0.00000E+00
    0.69317E-11         0.12005E-19         0.00000E+00
    0.69317E-11        -0.29104E-20         0.00000E+00
    0.69317E-11        -0.19645E-19         0.00000E+00
    0.69317E-11        -0.11642E-19         0.00000E+00
    0.83162E-11        -0.83674E-20         0.00000E+00
    0.83162E-11        -0.69122E-20         0.00000E+00
    0.83162E-11         0.12733E-19         0.00000E+00
    0.83162E-11         0.00000E+00         0.00000E+00
    0.83162E-11         0.65484E-20         0.00000E+00
    0.83162E-11        -0.16735E-19         0.00000E+00
    0.83162E-11        -0.72760E-20         0.00000E+00
    0.83162E-11        -0.21828E-20         0.00000E+00
    0.83162E-11        -0.87311E-20         0.00000E+00
    0.83162E-11         0.15280E-19         0.00000E+00
    0.83162E-11        -0.40018E-20         0.00000E+00
    0.83162E-11        -0.18190E-20         0.00000E+00
    0.83162E-11        -0.43656E-20         0.00000E+00
    0.83162E-11        -0.90949E-20         0.00000E+00
    0.83162E-11        -0.13097E-19         0.00000E+00
    0.99666E-11        -0.12369E-19         0.00000E+00
    0.99666E-11         0.43656E-20         0.00000E+00
    0.99666E-11         0.10186E-19         0.00000E+00
    0.99666E-11         0.00000E+00         0.00000E+00
    0.99666E-11         0.72760E-20         0.00000E+00
    0.99666E-11         0.72760E-21         0.00000E+00
    0.99666E-11        -0.87311E-20         0.00000E+00
    0.99666E-11        -0.25466E-20         0.00000E+00
    0.99666E-11        -0.32742E-20         0.00000E+00
    0.99666E-11        -0.11642E-19         0.00000E+00
    0.99666E-11         0.25466E-19         0.00000E+00
    0.99666E-11        -0.18554E-19         0.00000E+00
    0.99666E-11        -0.80036E-20         0.00000E+00
    0.99666E-11         0.58208E-20         0.00000E+00
    0.99666E-11        -0.94587E-20         0.00000E+00
    0.11936E-10        -0.40018E-20         0.00000E+00
    0.11936E-10        -0.80036E-20         0.00000E+00
    0.11936E-10        -0.65484E-20         0.00000E+00
    0.11936E-10         0.80036E-20         0.00000E+00
    0.11936E-10         0.58208E-20         0.00000E+00
    0.11936E-10        -0.72760E-21         0.00000E+00
    0.11936E-10        -0.65484E-20         0.00000E+00
    0.11936E-10         0.21828E-20         0.00000E+00
    0.11936E-10         0.36380E-20         0.00000E+00
    0.11936E-10        -0.11278E-19         0.00000E+00
    0.11936E-10         0.12369E-19         0.00000E+00
    0.11936E-10        -0.21100E-19         0.00000E+00
    0.11936E-10        -0.14552E-20         0.00000E+00
    0.11936E-10         0.87311E-20         0.00000E+00
    0.11936E-10        -0.18190E-20         0.00000E+00
    0.14287E-10         0.36380E-20         0.00000E+00
    0.14287E-10        -0.65484E-20         0.00000E+00
    0.14287E-10         0.72760E-21         0.00000E+00
    0.14287E-10         0.16007E-19         0.00000E+00
    0.14287E-10         0.00000E+00         0.00000E+00
    0.14287E-10        -0.18190E-20         0.00000E+00
    0.14287E-10        -0.29104E-20         0.00000E+00
    0.14287E-10         0.36380E-20         0.00000E+00
    0.14287E-10         0.19281E-19         0.00000E+00
    0.14287E-10        -0.61846E-20         0.00000E+00
    0.14287E-10        -0.58208E-20         0.00000E+00
    0.14287E-10        -0.28376E-19         0.00000E+00
    0.14287E-10         0.10914E-20         0.00000E+00
    0.14287E-10         0.12005E-19         0.00000E+00
    0.14287E-10        -0.72760E-21         0.00000E+00
    0.17094E-10        -0.65484E-20         0.00000E+00
    0.17094E-10        -0.12005E-19         0.00000E+00
    0.17094E-10         0.10914E-19         0.00000E+00
    0.17094E-10         0.87311E-20         0.00000E+00
    0.17094E-10         0.00000E+00         0.00000E+00
    0.17094E-10         0.43656E-20         0.00000E+00
    0.17094E-10         0.18190E-19         0.00000E+00
    0.17094E-10         0.43656E-20         0.00000E+00
    0.17094E-10         0.50932E-20         0.00000E+00
    0.17094E-10        -0.29104E-20         0.00000E+00
    0.17094E-10        -0.15280E-19         0.00000E+00
    0.17094E-10        -0.14552E-19         0.00000E+00
    0.17094E-10        -0.47294E-20         0.00000E+00
    0.17094E-10         0.22555E-19         0.00000E+00
    0.17094E-10         0.43656E-20         0.00000E+00
    0.20448E-10         0.29104E-20         0.00000E+00
    0.20448E-10        -0.29104E-19         0.00000E+00
    0.20448E-10         0.32742E-20         0.00000E+00
    0.20448E-10         0.72760E-20         0.00000E+00
    0.20448E-10         0.43656E-20         0.00000E+00
    0.20448E-10         0.13824E-19         0.00000E+00
    0.20448E-10         0.10186E-19         0.00000E+00
    0.20448E-10         0.72760E-20         0.00000E+00
    0.20448E-10        -0.58208E-20         0.00000E+00
    0.20448E-10         0.58208E-20         0.00000E+00
    0.20448E-10        -0.13097E-19         0.00000E+00
    0.20448E-10         0.25466E-20         0.00000E+00
    0.20448E-10        -0.10914E-20         0.00000E+00
    0.20448E-10         0.18190E-19         0.00000E+00
    0.20448E-10        -0.50781E-36         0.00000E+00
    0.24456E-10        -0.29104E-20         0.00000E+00
    0.24456E-10        -0.11642E-19         0.00000E+00
    0.24456E-10        -0.14552E-19         0.00000E+00
    0.24456E-10        -0.72760E-21         0.00000E+00
    0.24456E-10         0.20009E-19         0.00000E+00
    0.24456E-10         0.23283E-19         0.00000E+00
    0.24456E-10         0.21828E-20         0.00000E+00
    0.24456E-10         0.25466E-20         0.00000E+00
    0.24456E-10        -0.10914E-20         0.00000E+00
    0.24456E-10        -0.72760E-20         0.00000E+00
    0.24456E-10         0.43656E-20         0.00000E+00
    0.24456E-10         0.40018E-20         0.00000E+00
    0.24456E-10         0.94587E-20         0.00000E+00
    0.24456E-10        -0.25391E-35         0.00000E+00
    0.24456E-10         0.50781E-36         0.00000E+00
    0.29246E-10         0.50932E-20         0.00000E+00
    0.29246E-10        -0.36380E-20         0.00000E+00
    0.29246E-10        -0.33469E-19         0.00000E+00
    0.29246E-10        -0.11642E-19         0.00000E+00
    0.29246E-10         0.17099E-19         0.00000E+00
    0.29246E-10         0.18917E-19         0.00000E+00
    0.29246E-10         0.17462E-19         0.00000E+00
    0.29246E-10         0.25466E-20         0.00000E+00
    0.29246E-10        -0.72760E-21         0.00000E+00
    0.29246E-10        -0.13097E-19         0.00000E+00
    0.29246E-10        -0.17462E-19         0.00000E+00
    0.29246E-10         0.27285E-19         0.00000E+00
    0.29246E-10        -0.18190E-20         0.00000E+00
    0.29246E-10         0.98225E-20         0.00000E+00
    0.29246E-10         0.29104E-20         0.00000E+00
    0.34970E-10         0.87311E-20         0.00000E+00
    0.34970E-10        -0.65484E-20         0.00000E+00
    0.34970E-10        -0.24011E-19         0.00000E+00
    0.34970E-10         0.00000E+00         0.00000E+00
    0.34970E-10         0.12369E-19         0.00000E+00
    0.34970E-10         0.10186E-19         0.00000E+00
    0.34970E-10        -0.29104E-20         0.00000E+00
    0.34970E-10         0.21100E-19         0.00000E+00
    0.34970E-10        -0.12733E-19         0.00000E+00
    0.34970E-10        -0.14552E-20         0.00000E+00
    0.34970E-10        -0.19645E-19         0.00000E+00
    0.34970E-10         0.16735E-19         0.00000E+00
    0.34970E-10         0.12369E-19         0.00000E+00
    0.34970E-10         0.10914E-19         0.00000E+00
    0.34970E-10        -0.40018E-20         0.00000E+00
    0.41812E-10        -0.29104E-20         0.00000E+00
    0.41812E-10         0.14188E-19         0.00000E+00
    0.41812E-10         0.80036E-20         0.00000E+00
    0.41812E-10        -0.36380E-20         0.00000E+00
    0.41812E-10        -0.14552E-20         0.00000E+00
    0.41812E-10         0.16735E-19         0.00000E+00
    0.41812E-10        -0.36380E-20         0.00000E+00
    0.41812E-10         0.17462E-19         0.00000E+00
    0.41812E-10         0.14552E-20         0.00000E+00
    0.41812E-10         0.13097E-19         0.00000E+00
    0.41812E-10         0.36380E-21         0.00000E+00
    0.41812E-10        -0.21828E-20         0.00000E+00
    0.41812E-10         0.60938E-35         0.00000E+00
    0.41812E-10         0.83674E-20         0.00000E+00
    0.41812E-10        -0.54570E-20         0.00000E+00
    0.49990E-10        -0.50932E-20         0.00000E+00
    0.49990E-10         0.61846E-20         0.00000E+00
    0.49990E-10         0.16007E-19         0.00000E+00
    0.49990E-10         0.50932E-20         0.00000E+00
    0.49990E-10        -0.12369E-19         0.00000E+00
    0.49990E-10         0.11642E-19         0.00000E+00
    0.49990E-10         0.72760E-20         0.00000E+00
    0.49990E-10         0.29104E-20         0.00000E+00
    0.49990E-10         0.10186E-19         0.00000E+00
    0.49990E-10         0.16735E-19         0.00000E+00
    0.49990E-10         0.21464E-19         0.00000E+00
    0.49990E-10         0.47294E-20         0.00000E+00
    0.49990E-10        -0.98225E-20         0.00000E+00
    0.49990E-10         0.10186E-19         0.00000E+00
    0.49990E-10        -0.21828E-20         0.00000E+00
    0.59765E-10        -0.32742E-20         0.00000E+00
    0.59765E-10        -0.36380E-20         0.00000E+00
    0.59765E-10        -0.72760E-21         0.00000E+00
    0.59765E-10         0.50932E-20         0.00000E+00
    0.59765E-10         0.72760E-21         0.00000E+00
    0.59765E-10        -0.10914E-19         0.00000E+00
    0.59765E-10         0.87311E-20         0.00000E+00
    0.59765E-10         0.13824E-19         0.00000E+00
    0.59765E-10        -0.18190E-20         0.00000E+00
    0.59765E-10         0.87311E-20         0.00000E+00
    0.59765E-10         0.12369E-19         0.00000E+00
    0.59765E-10         0.18917E-19         0.00000E+00
    0.59765E-10         0.10550E-19         0.00000E+00
    0.59765E-10         0.29831E-19         0.00000E+00
    0.59765E-10         0.11278E-19         0.00000E+00
    0.71449E-10         0.36380E-20         0.00000E+00
    0.71449E-10         0.87311E-20         0.00000E+00
    0.71449E-10        -0.17462E-19         0.00000E+00
    0.71449E-10         0.00000E+00         0.00000E+00
    0.71449E-10        -0.14552E-20         0.00000E+00
    0.71449E-10        -0.72760E-20         0.00000E+00
    0.71449E-10        -0.12005E-19         0.00000E+00
    0.71449E-10         0.16735E-19         0.00000E+00
    0.71449E-10         0.58208E-20         0.00000E+00
    0.71449E-10         0.87311E-20         0.00000E+00
    0.71449E-10         0.65484E-20         0.00000E+00
    0.71449E-10         0.20736E-19         0.00000E+00
    0.71449E-10         0.12005E-19         0.00000E+00
    0.71449E-10         0.40745E-19         0.00000E+00
    0.71449E-10        -0.47294E-20         0.00000E+00
    0.85415E-10         0.54570E-20         0.00000E+00
    0.85415E-10         0.43656E-20         0.00000E+00
    0.85415E-10        -0.22555E-19         0.00000E+00
    0.85415E-10         0.16007E-19         0.00000E+00
    0.85415E-10         0.36380E-20         0.00000E+00
    0.85415E-10        -0.80036E-20         0.00000E+00
    0.85415E-10        -0.94587E-20         0.00000E+00
    0.85415E-10         0.10914E-20         0.00000E+00
    0.85415E-10         0.36380E-20         0.00000E+00
    0.85415E-10         0.27649E-19         0.00000E+00
    0.85415E-10         0.10914E-19         0.00000E+00
    0.85415E-10         0.13097E-19         0.00000E+00
    0.85415E-10         0.14188E-19         0.00000E+00
    0.85415E-10         0.26557E-19         0.00000E+00
    0.85415E-10        -0.19281E-19         0.00000E+00
    0.10211E-09         0.11642E-19         0.00000E+00
    0.10211E-09        -0.18554E-19         0.00000E+00
    0.10211E-09        -0.94587E-20         0.00000E+00
    0.10211E-09         0.18190E-19         0.00000E+00
    0.10211E-09        -0.72760E-21         0.00000E+00
    0.10211E-09        -0.50932E-20         0.00000E+00
    0.10211E-09        -0.17462E-19         0.00000E+00
    0.10211E-09        -0.13824E-19         0.00000E+00
    0.10211E-09         0.10186E-19         0.00000E+00
    0.10211E-09         0.30195E-19         0.00000E+00
    0.10211E-09         0.29468E-19         0.00000E+00
    0.10211E-09         0.50932E-20         0.00000E+00
    0.10211E-09         0.36380E-20         0.00000E+00
    0.10211E-09         0.14188E-19         0.00000E+00
    0.10211E-09        -0.12005E-19         0.00000E+00
    0.12206E-09        -0.54570E-20         0.00000E+00
    0.12206E-09        -0.61846E-20         0.00000E+00
    0.12206E-09        -0.29104E-20         0.00000E+00
    0.12206E-09        -0.65484E-20         0.00000E+00
    0.12206E-09         0.72760E-21         0.00000E+00
    0.12206E-09         0.14552E-20         0.00000E+00
    0.12206E-09        -0.21828E-19         0.00000E+00
    0.12206E-09        -0.11642E-19         0.00000E+00
    0.12206E-09         0.72760E-20         0.00000E+00
    0.12206E-09         0.23283E-19         0.00000E+00
    0.12206E-09         0.10186E-19         0.00000E+00
    0.12206E-09         0.13824E-19         0.00000E+00
    0.12206E-09         0.47294E-20         0.00000E+00
    0.12206E-09        -0.36380E-21         0.00000E+00
    0.12206E-09         0.12005E-19         0.00000E+00
    0.14591E-09        -0.15280E-19         0.00000E+00
    0.14591E-09         0.43656E-20         0.00000E+00
    0.14591E-09        -0.36380E-20         0.00000E+00
    0.14591E-09        -0.90949E-20         0.00000E+00
    0.14591E-09        -0.72760E-21         0.00000E+00
    0.14591E-09        -0.21828E-20         0.00000E+00
    0.14591E-09        -0.11642E-19         0.00000E+00
    0.14591E-09        -0.17826E-19         0.00000E+00
    0.14591E-09         0.29104E-20         0.00000E+00
    0.14591E-09         0.11642E-19         0.00000E+00
    0.14591E-09         0.29104E-20         0.00000E+00
    0.14591E-09         0.11642E-19         0.00000E+00
    0.14591E-09         0.10550E-19         0.00000E+00
    0.14591E-09        -0.16007E-19         0.00000E+00
    0.14591E-09         0.14552E-19         0.00000E+00
    0.17442E-09        -0.29104E-20         0.00000E+00
    0.17442E-09         0.36380E-20         0.00000E+00
    0.17442E-09         0.43656E-20         0.00000E+00
    0.17442E-09        -0.36380E-20         0.00000E+00
    0.17442E-09        -0.72760E-20         0.00000E+00
    0.17442E-09        -0.18190E-19         0.00000E+00
    0.17442E-09        -0.13824E-19         0.00000E+00
    0.17442E-09        -0.69122E-20         0.00000E+00
    0.17442E-09        -0.43656E-20         0.00000E+00
    0.17442E-09        -0.65484E-20         0.00000E+00
    0.17442E-09         0.15280E-19         0.00000E+00
    0.17442E-09         0.21828E-19         0.00000E+00
    0.17442E-09        -0.10914E-19         0.00000E+00
    0.17442E-09         0.72760E-21         0.00000E+00
    0.17442E-09        -0.61846E-20         0.00000E+00
    0.20849E-09        -0.29104E-20         0.00000E+00
    0.20849E-09         0.94587E-20         0.00000E+00
    0.20849E-09         0.80036E-20         0.00000E+00
    0.20849E-09        -0.50932E-20         0.00000E+00
    0.20849E-09        -0.94587E-20         0.00000E+00
    0.20849E-09        -0.13824E-19         0.00000E+00
    0.20849E-09        -0.29831E-19         0.00000E+00
    0.20849E-09        -0.36380E-20         0.00000E+00
    0.20849E-09        -0.15280E-19         0.00000E+00
    0.20849E-09        -0.17462E-19         0.00000E+00
    0.20849E-09         0.61846E-20         0.00000E+00
    0.20849E-09         0.26193E-19         0.00000E+00
    0.20849E-09        -0.11642E-19         0.00000E+00
    0.20849E-09        -0.40018E-20         0.00000E+00
    0.20849E-09        -0.10186E-19         0.00000E+00
    0.24921E-09         0.43656E-20         0.00000E+00
    0.24921E-09        -0.72760E-21         0.00000E+00
    0.24921E-09         0.16735E-19         0.00000E+00
    0.24921E-09        -0.14552E-19         0.00000E+00
    0.24921E-09        -0.29104E-20         0.00000E+00
    0.24921E-09        -0.72760E-21         0.00000E+00
    0.24921E-09        -0.32014E-19         0.00000E+00
    0.24921E-09        -0.14552E-20         0.00000E+00
    0.24921E-09        -0.11642E-19         0.00000E+00
    0.24921E-09        -0.20009E-19         0.00000E+00
    0.24921E-09         0.36380E-20         0.00000E+00
    0.24921E-09        -0.25466E-20         0.00000E+00
    0.24921E-09        -0.50932E-20         0.00000E+00
    0.24921E-09        -0.19645E-19         0.00000E+00
    0.24921E-09        -0.58208E-20         0.00000E+00
    0.29787E-09         0.14552E-20         0.00000E+00
    0.29787E-09         0.43656E-20         0.00000E+00
    0.29787E-09         0.80036E-20         0.00000E+00
    0.29787E-09        -0.11642E-19         0.00000E+00
    0.29787E-09        -0.80036E-20         0.00000E+00
    0.29787E-09         0.14552E-20         0.00000E+00
    0.29787E-09        -0.22555E-19         0.00000E+00
    0.29787E-09        -0.40018E-20         0.00000E+00
    0.29787E-09         0.15280E-19         0.00000E+00
    0.29787E-09        -0.13824E-19         0.00000E+00
    0.29787E-09        -0.21100E-19         0.00000E+00
    0.29787E-09        -0.24738E-19         0.00000E+00
    0.29787E-09        -0.80036E-20         0.00000E+00
    0.29787E-09        -0.17462E-19         0.00000E+00
    0.29787E-09        -0.13097E-19         0.00000E+00
    0.35603E-09        -0.12369E-19         0.00000E+00
    0.35603E-09         0.14552E-20         0.00000E+00
    0.35603E-09        -0.29104E-20         0.00000E+00
    0.35603E-09         0.72760E-20         0.00000E+00
    0.35603E-09        -0.43656E-20         0.00000E+00
    0.35603E-09        -0.80036E-20         0.00000E+00
    0.35603E-09        -0.20373E-19         0.00000E+00
    0.35603E-09        -0.29104E-20         0.00000E+00
    0.35603E-09         0.11278E-19         0.00000E+00
    0.35603E-09        -0.72760E-20         0.00000E+00
    0.35603E-09        -0.36380E-19         0.00000E+00
    0.35603E-09        -0.37835E-19         0.00000E+00
    0.35603E-09         0.72760E-21         0.00000E+00
    0.35603E-09        -0.16007E-19         0.00000E+00
    0.35603E-09        -0.58208E-20         0.00000E+00
    0.42553E-09        -0.36380E-20         0.00000E+00
    0.42553E-09        -0.25466E-20         0.00000E+00
    0.42553E-09        -0.50932E-20         0.00000E+00
    0.42553E-09         0.94587E-20         0.00000E+00
    0.42553E-09        -0.87311E-20         0.00000E+00
    0.42553E-09        -0.80036E-20         0.00000E+00
    0.42553E-09        -0.40018E-20         0.00000E+00
    0.42553E-09         0.10914E-20         0.00000E+00
    0.42553E-09        -0.58208E-20         0.00000E+00
    0.42553E-09        -0.50932E-20         0.00000E+00
    0.42553E-09        -0.24738E-19         0.00000E+00
    0.42553E-09        -0.26921E-19         0.00000E+00
    0.42553E-09         0.72760E-21         0.00000E+00
    0.42553E-09        -0.58208E-20         0.00000E+00
    0.42553E-09        -0.21828E-20         0.00000E+00
    0.50858E-09         0.72760E-20         0.00000E+00
    0.50858E-09         0.72760E-21         0.00000E+00
    0.50858E-09        -0.13097E-19         0.00000E+00
    0.50858E-09         0.10914E-19         0.00000E+00
    0.50858E-09        -0.18917E-19         0.00000E+00
    0.50858E-09        -0.80036E-20         0.00000E+00
    0.50858E-09         0.15280E-19         0.00000E+00
    0.50858E-09        -0.87311E-20         0.00000E+00
    0.50858E-09         0.24374E-19         0.00000E+00
    0.50858E-09        -0.15643E-19         0.00000E+00
    0.50858E-09        -0.80036E-20         0.00000E+00
    0.50858E-09        -0.17462E-19         0.00000E+00
    0.50858E-09        -0.10914E-20         0.00000E+00
    0.50858E-09        -0.54570E-20         0.00000E+00
    0.50858E-09         0.29104E-20         0.00000E+00
    0.60781E-09        -0.54570E-20         0.00000E+00
    0.60781E-09        -0.72760E-20         0.00000E+00
    0.60781E-09        -0.13824E-19         0.00000E+00
    0.60781E-09         0.72760E-20         0.00000E+00
    0.60781E-09        -0.21828E-20         0.00000E+00
    0.60781E-09        -0.36380E-20         0.00000E+00
    0.60781E-09         0.36380E-20         0.00000E+00
    0.60781E-09         0.72760E-20         0.00000E+00
    0.60781E-09         0.23283E-19         0.00000E+00
    0.60781E-09        -0.72760E-21         0.00000E+00
    0.60781E-09        -0.17462E-19         0.00000E+00
    0.60781E-09        -0.10186E-19         0.00000E+00
    0.60781E-09         0.72760E-21         0.00000E+00
    0.60781E-09        -0.50932E-20         0.00000E+00
    0.60781E-09        -0.80036E-20         0.00000E+00
    0.72638E-09        -0.80036E-20         0.00000E+00
    0.72638E-09        -0.18190E-19         0.00000E+00
    0.72638E-09         0.12005E-19         0.00000E+00
    0.72638E-09        -0.21828E-20         0.00000E+00
    0.72638E-09         0.13824E-19         0.00000E+00
    0.72638E-09         0.58208E-20         0.00000E+00
    0.72638E-09         0.14552E-19         0.00000E+00
    0.72638E-09         0.13097E-19         0.00000E+00
    0.72638E-09        -0.13824E-19         0.00000E+00
    0.72638E-09         0.11642E-19         0.00000E+00
    0.72638E-09         0.60938E-35         0.00000E+00
    0.72638E-09        -0.72760E-20         0.00000E+00
    0.72638E-09         0.43656E-20         0.00000E+00
    0.72638E-09        -0.87311E-20         0.00000E+00
    0.72638E-09        -0.61846E-20         0.00000E+00
    0.86803E-09         0.65484E-20         0.00000E+00
    0.86803E-09        -0.21828E-20         0.00000E+00
    0.86803E-09         0.37835E-19         0.00000E+00
    0.86803E-09         0.18190E-19         0.00000E+00
    0.86803E-09         0.23283E-19         0.00000E+00
    0.86803E-09         0.65484E-20         0.00000E+00
    0.86803E-09         0.16007E-19         0.00000E+00
    0.86803E-09         0.87311E-20         0.00000E+00
    0.86803E-09         0.21828E-20         0.00000E+00
    0.86803E-09        -0.10186E-19         0.00000E+00
    0.86803E-09         0.14552E-19         0.00000E+00
    0.86803E-09        -0.14552E-20         0.00000E+00
    0.86803E-09        -0.72760E-21         0.00000E+00
    0.86803E-09        -0.13461E-19         0.00000E+00
    0.86803E-09         0.40018E-20         0.00000E+00
    0.10373E-08        -0.72760E-21         0.00000E+00
    0.10373E-08         0.13824E-19         0.00000E+00
    0.10373E-08         0.41473E-19         0.00000E+00
    0.10373E-08         0.30923E-19         0.00000E+00
    0.10373E-08         0.20373E-19         0.00000E+00
    0.10373E-08         0.20373E-19         0.00000E+00
    0.10373E-08         0.24011E-19         0.00000E+00
    0.10373E-08         0.50932E-20         0.00000E+00
    0.10373E-08         0.72760E-20         0.00000E+00
    0.10373E-08        -0.36380E-20         0.00000E+00
    0.10373E-08         0.36380E-20         0.00000E+00
    0.10373E-08         0.87311E-20         0.00000E+00
    0.10373E-08        -0.94587E-20         0.00000E+00
    0.10373E-08        -0.14552E-20         0.00000E+00
    0.10373E-08        -0.13097E-19         0.00000E+00
    0.12394E-08         0.43656E-20         0.00000E+00
    0.12394E-08         0.17099E-19         0.00000E+00
    0.12394E-08         0.29104E-19         0.00000E+00
    0.12394E-08         0.30195E-19         0.00000E+00
    0.12394E-08         0.16371E-19         0.00000E+00
    0.12394E-08         0.25466E-19         0.00000E+00
    0.12394E-08         0.21828E-19         0.00000E+00
    0.12394E-08         0.17462E-19         0.00000E+00
    0.12394E-08        -0.87311E-20         0.00000E+00
    0.12394E-08        -0.72760E-21         0.00000E+00
    0.12394E-08         0.10186E-19         0.00000E+00
    0.12394E-08         0.00000E+00         0.00000E+00
    0.12394E-08         0.50781E-36         0.00000E+00
    0.12394E-08         0.14552E-20         0.00000E+00
    0.12394E-08        -0.13097E-19         0.00000E+00
    0.14809E-08         0.58208E-20         0.00000E+00
    0.14809E-08         0.18554E-19         0.00000E+00
    0.14809E-08         0.25466E-19         0.00000E+00
    0.14809E-08         0.25466E-19         0.00000E+00
    0.14809E-08         0.29831E-19         0.00000E+00
    0.14809E-08         0.18917E-19         0.00000E+00
    0.14809E-08         0.24738E-19         0.00000E+00
    0.14809E-08         0.58208E-20         0.00000E+00
    0.14809E-08        -0.36380E-20         0.00000E+00
    0.14809E-08         0.43656E-20         0.00000E+00
    0.14809E-08         0.12005E-19         0.00000E+00
    0.14809E-08         0.72760E-21         0.00000E+00
    0.14809E-08         0.29104E-20         0.00000E+00
    0.14809E-08         0.10186E-19         0.00000E+00
    0.14809E-08         0.14552E-20         0.00000E+00
    0.17693E-08         0.00000E+00         0.00000E+00
    0.17693E-08         0.13097E-19         0.00000E+00
    0.17693E-08         0.12369E-19         0.00000E+00
    0.17693E-08         0.33469E-19         0.00000E+00
    0.17693E-08         0.28376E-19         0.00000E+00
    0.17693E-08         0.17462E-19         0.00000E+00
    0.17693E-08         0.17462E-19         0.00000E+00
    0.17693E-08         0.14552E-19         0.00000E+00
    0.17693E-08         0.40625E-35         0.00000E+00
    0.17693E-08        -0.25391E-36         0.00000E+00
    0.17693E-08         0.10914E-19         0.00000E+00
    0.17693E-08         0.36380E-20         0.00000E+00
    0.17693E-08        -0.36380E-20         0.00000E+00
    0.17693E-08         0.12733E-19         0.00000E+00
    0.17693E-08         0.18190E-20         0.00000E+00
    0.21137E-08         0.10914E-20         0.00000E+00
    0.21137E-08         0.25466E-20         0.00000E+00
    0.21137E-08        -0.72760E-20         0.00000E+00
    0.21137E-08         0.34197E-19         0.00000E+00
    0.21137E-08         0.33469E-19         0.00000E+00
    0.21137E-08         0.80036E-20         0.00000E+00
    0.21137E-08         0.12733E-19         0.00000E+00
    0.21137E-08        -0.65484E-20         0.00000E+00
    0.21137E-08         0.16735E-19         0.00000E+00
    0.21137E-08        -0.21828E-20         0.00000E+00
    0.21137E-08         0.14552E-20         0.00000E+00
    0.21137E-08        -0.10914E-19         0.00000E+00
    0.21137E-08         0.80036E-20         0.00000E+00
    0.21137E-08         0.58208E-20         0.00000E+00
    0.21137E-08         0.90949E-20         0.00000E+00
    0.25250E-08        -0.12733E-19         0.00000E+00
    0.25250E-08         0.90949E-20         0.00000E+00
    0.25250E-08         0.43656E-20         0.00000E+00
    0.25250E-08         0.18190E-19         0.00000E+00
    0.25250E-08         0.32014E-19         0.00000E+00
    0.25250E-08         0.69122E-20         0.00000E+00
    0.25250E-08         0.29104E-20         0.00000E+00
    0.25250E-08        -0.11642E-19         0.00000E+00
    0.25250E-08         0.10914E-19         0.00000E+00
    0.25250E-08         0.65484E-20         0.00000E+00
    0.25250E-08        -0.12733E-19         0.00000E+00
    0.25250E-08        -0.15280E-19         0.00000E+00
    0.25250E-08         0.98225E-20         0.00000E+00
    0.25250E-08        -0.36380E-20         0.00000E+00
    0.25250E-08         0.16007E-19         0.00000E+00
    0.30160E-08        -0.80036E-20         0.00000E+00
    0.30160E-08         0.21828E-20         0.00000E+00
    0.30160E-08         0.18917E-19         0.00000E+00
    0.30160E-08         0.28740E-19         0.00000E+00
    0.30160E-08         0.10550E-19         0.00000E+00
    0.30160E-08         0.10914E-19         0.00000E+00
    0.30160E-08        -0.14552E-19         0.00000E+00
    0.30160E-08        -0.36380E-20         0.00000E+00
    0.30160E-08        -0.76398E-20         0.00000E+00
    0.30160E-08         0.43656E-20         0.00000E+00
    0.30160E-08        -0.72760E-21         0.00000E+00
    0.30160E-08        -0.25466E-20         0.00000E+00
    0.30160E-08        -0.36380E-20         0.00000E+00
    0.30160E-08         0.00000E+00         0.00000E+00
    0.30160E-08         0.29104E-20         0.00000E+00
    0.36021E-08         0.21828E-20         0.00000E+00
    0.36021E-08         0.87311E-20         0.00000E+00
    0.36021E-08         0.47294E-20         0.00000E+00
    0.36021E-08         0.16735E-19         0.00000E+00
    0.36021E-08         0.65484E-20         0.00000E+00
    0.36021E-08         0.80036E-20         0.00000E+00
    0.36021E-08         0.72760E-20         0.00000E+00
    0.36021E-08        -0.10186E-19         0.00000E+00
    0.36021E-08        -0.12005E-19         0.00000E+00
    0.36021E-08         0.72760E-20         0.00000E+00
    0.36021E-08         0.21828E-20         0.00000E+00
    0.36021E-08         0.69122E-20         0.00000E+00
    0.36021E-08        -0.65484E-20         0.00000E+00
    0.36021E-08        -0.47294E-20         0.00000E+00
    0.36021E-08         0.11642E-19         0.00000E+00
    0.43017E-08         0.21828E-20         0.00000E+00
    0.43017E-08         0.54570E-20         0.00000E+00
    0.43017E-08         0.36380E-21         0.00000E+00
    0.43017E-08         0.11642E-19         0.00000E+00
    0.43017E-08         0.13824E-19         0.00000E+00
    0.43017E-08         0.16007E-19         0.00000E+00
    0.43017E-08         0.80036E-20         0.00000E+00
    0.43017E-08         0.36380E-20         0.00000E+00
    0.43017E-08        -0.80036E-20         0.00000E+00
    0.43017E-08         0.36380E-20         0.00000E+00
    0.43017E-08        -0.65484E-20         0.00000E+00
    0.43017E-08         0.00000E+00         0.00000E+00
    0.43017E-08         0.14916E-19         0.00000E+00
    0.43017E-08        -0.21828E-20         0.00000E+00
    0.43017E-08         0.43656E-20         0.00000E+00
    0.51366E-08         0.76398E-20         0.00000E+00
    0.51366E-08         0.32742E-20         0.00000E+00
    0.51366E-08         0.80036E-20         0.00000E+00
    0.51366E-08         0.23283E-19         0.00000E+00
    0.51366E-08         0.17462E-19         0.00000E+00
    0.51366E-08         0.72760E-21         0.00000E+00
    0.51366E-08         0.80036E-20         0.00000E+00
    0.51366E-08         0.21828E-20         0.00000E+00
    0.51366E-08         0.72760E-21         0.00000E+00
    0.51366E-08        -0.21828E-20         0.00000E+00
    0.51366E-08         0.72760E-21         0.00000E+00
    0.51366E-08         0.14552E-19         0.00000E+00
    0.51366E-08         0.24011E-19         0.00000E+00
    0.51366E-08         0.72760E-20         0.00000E+00
    0.51366E-08        -0.16371E-19         0.00000E+00
    0.61327E-08        -0.29104E-20         0.00000E+00
    0.61327E-08         0.22555E-19         0.00000E+00
    0.61327E-08         0.10550E-19         0.00000E+00
    0.61327E-08         0.12369E-19         0.00000E+00
    0.61327E-08         0.83674E-20         0.00000E+00
    0.61327E-08        -0.21828E-20         0.00000E+00
    0.61327E-08         0.54570E-20         0.00000E+00
    0.61327E-08         0.65484E-20         0.00000E+00
    0.61327E-08         0.76398E-20         0.00000E+00
    0.61327E-08         0.11642E-19         0.00000E+00
    0.61327E-08         0.65484E-20         0.00000E+00
    0.61327E-08         0.14552E-19         0.00000E+00
    0.61327E-08         0.47294E-20         0.00000E+00
    0.61327E-08         0.40018E-20         0.00000E+00
    0.61327E-08         0.21828E-20         0.00000E+00
    0.73210E-08        -0.14552E-20         0.00000E+00
    0.73210E-08         0.94587E-20         0.00000E+00
    0.73210E-08         0.36380E-21         0.00000E+00
    0.73210E-08         0.18190E-19         0.00000E+00
    0.73210E-08         0.10186E-19         0.00000E+00
    0.73210E-08         0.72760E-21         0.00000E+00
    0.73210E-08        -0.72760E-21         0.00000E+00
    0.73210E-08         0.69122E-20         0.00000E+00
    0.73210E-08         0.24374E-19         0.00000E+00
    0.73210E-08         0.18190E-19         0.00000E+00
    0.73210E-08         0.43656E-20         0.00000E+00
    0.73210E-08         0.00000E+00         0.00000E+00
    0.73210E-08        -0.87311E-20         0.00000E+00
    0.73210E-08         0.10914E-19         0.00000E+00
    0.73210E-08         0.14916E-19         0.00000E+00
    0.87382E-08         0.50932E-20         0.00000E+00
    0.87382E-08        -0.29104E-20         0.00000E+00
    0.87382E-08         0.76398E-20         0.00000E+00
    0.87382E-08         0.26193E-19         0.00000E+00
    0.87382E-08         0.11278E-19         0.00000E+00
    0.87382E-08        -0.12005E-19         0.00000E+00
    0.87382E-08         0.40018E-20         0.00000E+00
    0.87382E-08         0.25830E-19         0.00000E+00
    0.87382E-08         0.16371E-19         0.00000E+00
    0.87382E-08         0.20736E-19         0.00000E+00
    0.87382E-08         0.40018E-20         0.00000E+00
    0.87382E-08        -0.25466E-20         0.00000E+00
    0.87382E-08        -0.25391E-35         0.00000E+00
    0.87382E-08         0.65484E-20         0.00000E+00
    0.87382E-08         0.14552E-20         0.00000E+00
    0.10428E-07        -0.36380E-20         0.00000E+00
    0.10428E-07        -0.29104E-20         0.00000E+00
    0.10428E-07         0.15280E-19         0.00000E+00
    0.10428E-07         0.19281E-19         0.00000E+00
    0.10428E-07         0.13461E-19         0.00000E+00
    0.10428E-07        -0.16371E-19         0.00000E+00
    0.10428E-07         0.18917E-19         0.00000E+00
    0.10428E-07         0.34925E-19         0.00000E+00
    0.10428E-07         0.27649E-19         0.00000E+00
    0.10428E-07         0.11642E-19         0.00000E+00
    0.10428E-07         0.21828E-20         0.00000E+00
    0.10428E-07         0.22555E-19         0.00000E+00
    0.10428E-07         0.21828E-20         0.00000E+00
    0.10428E-07        -0.10186E-19         0.00000E+00
    0.10428E-07        -0.94587E-20         0.00000E+00
    0.12442E-07        -0.72760E-20         0.00000E+00
    0.12442E-07        -0.65484E-20         0.00000E+00
    0.12442E-07         0.36380E-20         0.00000E+00
    0.12442E-07         0.87311E-20         0.00000E+00
    0.12442E-07         0.14188E-19         0.00000E+00
    0.12442E-07         0.87311E-20         0.00000E+00
    0.12442E-07         0.34925E-19         0.00000E+00
    0.12442E-07         0.22555E-19         0.00000E+00
    0.12442E-07         0.32742E-19         0.00000E+00
    0.12442E-07         0.13824E-19         0.00000E+00
    0.12442E-07         0.80036E-20         0.00000E+00
    0.12442E-07         0.37107E-19         0.00000E+00
    0.12442E-07        -0.21828E-20         0.00000E+00
    0.12442E-07        -0.10914E-19         0.00000E+00
    0.12442E-07        -0.29104E-20         0.00000E+00
    0.14842E-07         0.21828E-20         0.00000E+00
    0.14842E-07         0.14552E-20         0.00000E+00
    0.14842E-07        -0.14552E-19         0.00000E+00
    0.14842E-07         0.36380E-20         0.00000E+00
    0.14842E-07         0.31287E-19         0.00000E+00
    0.14842E-07         0.10914E-19         0.00000E+00
    0.14842E-07         0.30559E-19         0.00000E+00
    0.14842E-07         0.28376E-19         0.00000E+00
    0.14842E-07         0.33469E-19         0.00000E+00
    0.14842E-07         0.32742E-19         0.00000E+00
    0.14842E-07         0.29831E-19         0.00000E+00
    0.14842E-07         0.11278E-19         0.00000E+00
    0.14842E-07         0.72760E-20         0.00000E+00
    0.14842E-07         0.21828E-20         0.00000E+00
    0.14842E-07         0.83674E-20         0.00000E+00
    0.17700E-07         0.12369E-19         0.00000E+00
    0.17700E-07        -0.11642E-19         0.00000E+00
    0.17700E-07        -0.13461E-19         0.00000E+00
    0.17700E-07         0.10914E-19         0.00000E+00
    0.17700E-07         0.27649E-19         0.00000E+00
    0.17700E-07         0.50932E-20         0.00000E+00
    0.17700E-07         0.24011E-19         0.00000E+00
    0.17700E-07         0.34925E-19         0.00000E+00
    0.17700E-07         0.50204E-19         0.00000E+00
    0.17700E-07         0.42564E-19         0.00000E+00
    0.17700E-07         0.32014E-19         0.00000E+00
    0.17700E-07         0.11642E-19         0.00000E+00
    0.17700E-07         0.72760E-20         0.00000E+00
    0.17700E-07         0.16371E-19         0.00000E+00
    0.17700E-07         0.29104E-20         0.00000E+00
    0.21104E-07        -0.14552E-20         0.00000E+00
    0.21104E-07        -0.10914E-19         0.00000E+00
    0.21104E-07         0.29104E-20         0.00000E+00
    0.21104E-07         0.11642E-19         0.00000E+00
    0.21104E-07         0.10914E-19         0.00000E+00
    0.21104E-07         0.18917E-19         0.00000E+00
    0.21104E-07         0.33469E-19         0.00000E+00
    0.21104E-07         0.40018E-19         0.00000E+00
    0.21104E-07         0.49477E-19         0.00000E+00
    0.21104E-07         0.47294E-19         0.00000E+00
    0.21104E-07         0.33469E-19         0.00000E+00
    0.21104E-07         0.21100E-19         0.00000E+00
    0.21104E-07        -0.14552E-20         0.00000E+00
    0.21104E-07         0.94587E-20         0.00000E+00
    0.21104E-07        -0.29104E-20         0.00000E+00
    0.25155E-07         0.69122E-20         0.00000E+00
    0.25155E-07         0.65484E-20         0.00000E+00
    0.25155E-07         0.00000E+00         0.00000E+00
    0.25155E-07         0.11642E-19         0.00000E+00
    0.25155E-07         0.26193E-19         0.00000E+00
    0.25155E-07         0.32378E-19         0.00000E+00
    0.25155E-07         0.42928E-19         0.00000E+00
    0.25155E-07         0.51659E-19         0.00000E+00
    0.25155E-07         0.46202E-19         0.00000E+00
    0.25155E-07         0.45111E-19         0.00000E+00
    0.25155E-07         0.32742E-19         0.00000E+00
    0.25155E-07         0.80036E-20         0.00000E+00
    0.25155E-07         0.80036E-20         0.00000E+00
    0.25155E-07         0.10914E-20         0.00000E+00
    0.25155E-07        -0.72760E-20         0.00000E+00
    0.29975E-07         0.69122E-20         0.00000E+00
    0.29975E-07         0.14552E-19         0.00000E+00
    0.29975E-07         0.87311E-20         0.00000E+00
    0.29975E-07         0.16735E-19         0.00000E+00
    0.29975E-07         0.36016E-19         0.00000E+00
    0.29975E-07         0.27285E-19         0.00000E+00
    0.29975E-07         0.59299E-19         0.00000E+00
    0.29975E-07         0.51659E-19         0.00000E+00
    0.29975E-07         0.52387E-19         0.00000E+00
    0.29975E-07         0.56752E-19         0.00000E+00
    0.29975E-07         0.22555E-19         0.00000E+00
    0.29975E-07         0.10914E-19         0.00000E+00
    0.29975E-07         0.43656E-20         0.00000E+00
    0.29975E-07         0.14552E-20         0.00000E+00
    0.29975E-07        -0.10186E-19         0.00000E+00
    0.35705E-07        -0.21828E-20         0.00000E+00
    0.35705E-07         0.15280E-19         0.00000E+00
    0.35705E-07         0.12369E-19         0.00000E+00
    0.35705E-07         0.26921E-19         0.00000E+00
    0.35705E-07         0.30559E-19         0.00000E+00
    0.35705E-07         0.38563E-19         0.00000E+00
    0.35705E-07         0.54570E-19         0.00000E+00
    0.35705E-07         0.48749E-19         0.00000E+00
    0.35705E-07         0.51659E-19         0.00000E+00
    0.35705E-07         0.60390E-19         0.00000E+00
    0.35705E-07         0.34197E-19         0.00000E+00
    0.35705E-07         0.87311E-20         0.00000E+00
    0.35705E-07        -0.94587E-20         0.00000E+00
    0.35705E-07        -0.32742E-20         0.00000E+00
    0.35705E-07         0.10914E-20         0.00000E+00
    0.42514E-07         0.72760E-20         0.00000E+00
    0.42514E-07         0.29104E-20         0.00000E+00
    0.42514E-07         0.65484E-20         0.00000E+00
    0.42514E-07         0.18190E-19         0.00000E+00
    0.42514E-07         0.34197E-19         0.00000E+00
    0.42514E-07         0.50204E-19         0.00000E+00
    0.42514E-07         0.48749E-19         0.00000E+00
    0.42514E-07         0.45839E-19         0.00000E+00
    0.42514E-07         0.38563E-19         0.00000E+00
    0.42514E-07         0.48021E-19         0.00000E+00
    0.42514E-07         0.37835E-19         0.00000E+00
    0.42514E-07         0.10914E-19         0.00000E+00
    0.42514E-07        -0.72760E-21         0.00000E+00
    0.42514E-07         0.14552E-20         0.00000E+00
    0.42514E-07         0.50932E-20         0.00000E+00
    0.50600E-07         0.76398E-20         0.00000E+00
    0.50600E-07         0.36380E-20         0.00000E+00
    0.50600E-07         0.13097E-19         0.00000E+00
    0.50600E-07         0.13097E-19         0.00000E+00
    0.50600E-07         0.52387E-19         0.00000E+00
    0.50600E-07         0.29104E-19         0.00000E+00
    0.50600E-07         0.44383E-19         0.00000E+00
    0.50600E-07         0.45111E-19         0.00000E+00
    0.50600E-07         0.48385E-19         0.00000E+00
    0.50600E-07         0.37471E-19         0.00000E+00
    0.50600E-07         0.17826E-19         0.00000E+00
    0.50600E-07         0.31650E-19         0.00000E+00
    0.50600E-07        -0.43656E-20         0.00000E+00
    0.50600E-07        -0.21828E-20         0.00000E+00
    0.50600E-07         0.50932E-20         0.00000E+00
    0.60195E-07        -0.80036E-20         0.00000E+00
    0.60195E-07         0.10550E-19         0.00000E+00
    0.60195E-07         0.54570E-20         0.00000E+00
    0.60195E-07         0.28376E-19         0.00000E+00
    0.60195E-07         0.39654E-19         0.00000E+00
    0.60195E-07         0.23283E-19         0.00000E+00
    0.60195E-07         0.36380E-19         0.00000E+00
    0.60195E-07         0.49477E-19         0.00000E+00
    0.60195E-07         0.43292E-19         0.00000E+00
    0.60195E-07         0.35652E-19         0.00000E+00
    0.60195E-07         0.23283E-19         0.00000E+00
    0.60195E-07         0.25830E-19         0.00000E+00
    0.60195E-07         0.72760E-21         0.00000E+00
    0.60195E-07         0.69122E-20         0.00000E+00
    0.60195E-07        -0.14552E-20         0.00000E+00
    0.71572E-07        -0.36380E-20         0.00000E+00
    0.71572E-07        -0.72760E-21         0.00000E+00
    0.71572E-07         0.65484E-20         0.00000E+00
    0.71572E-07         0.18190E-19         0.00000E+00
    0.71572E-07         0.39290E-19         0.00000E+00
    0.71572E-07         0.29831E-19         0.00000E+00
    0.71572E-07         0.35652E-19         0.00000E+00
    0.71572E-07         0.41473E-19         0.00000E+00
    0.71572E-07         0.29104E-19         0.00000E+00
    0.71572E-07         0.36380E-19         0.00000E+00
    0.71572E-07         0.28376E-19         0.00000E+00
    0.71572E-07         0.20373E-19         0.00000E+00
    0.71572E-07        -0.43656E-20         0.00000E+00
    0.71572E-07         0.87311E-20         0.00000E+00
    0.71572E-07        -0.10914E-19         0.00000E+00
    0.85049E-07         0.80036E-20         0.00000E+00
    0.85049E-07        -0.72760E-21         0.00000E+00
    0.85049E-07        -0.21828E-20         0.00000E+00
    0.85049E-07         0.58208E-20         0.00000E+00
    0.85049E-07         0.38563E-19         0.00000E+00
    0.85049E-07         0.39290E-19         0.00000E+00
    0.85049E-07         0.42928E-19         0.00000E+00
    0.85049E-07         0.33469E-19         0.00000E+00
    0.85049E-07         0.29831E-19         0.00000E+00
    0.85049E-07         0.24738E-19         0.00000E+00
    0.85049E-07         0.25830E-19         0.00000E+00
    0.85049E-07         0.14552E-19         0.00000E+00
    0.85049E-07        -0.58208E-20         0.00000E+00
    0.85049E-07        -0.87311E-20         0.00000E+00
    0.85049E-07         0.29104E-20         0.00000E+00
    0.10100E-06         0.43656E-20         0.00000E+00
    0.10100E-06         0.14552E-20         0.00000E+00
    0.10100E-06        -0.94587E-20         0.00000E+00
    0.10100E-06         0.17462E-19         0.00000E+00
    0.10100E-06         0.22555E-19         0.00000E+00
    0.10100E-06         0.34925E-19         0.00000E+00
    0.10100E-06         0.40745E-19         0.00000E+00
    0.10100E-06         0.41473E-19         0.00000E+00
    0.10100E-06         0.25830E-19         0.00000E+00
    0.10100E-06         0.15280E-19         0.00000E+00
    0.10100E-06         0.14552E-19         0.00000E+00
    0.10100E-06         0.17462E-19         0.00000E+00
    0.10100E-06         0.00000E+00         0.00000E+00
    0.10100E-06        -0.72760E-20         0.00000E+00
    0.10100E-06         0.21828E-20         0.00000E+00
    0.11985E-06         0.00000E+00         0.00000E+00
    0.11985E-06         0.36380E-20         0.00000E+00
    0.11985E-06        -0.50932E-20         0.00000E+00
    0.11985E-06         0.10914E-19         0.00000E+00
    0.11985E-06         0.16735E-19         0.00000E+00
    0.11985E-06         0.29831E-19         0.00000E+00
    0.11985E-06         0.29104E-19         0.00000E+00
    0.11985E-06         0.38563E-19         0.00000E+00
    0.11985E-06         0.28376E-19         0.00000E+00
    0.11985E-06         0.22555E-19         0.00000E+00
    0.11985E-06         0.80036E-20         0.00000E+00
    0.11985E-06         0.10914E-19         0.00000E+00
    0.11985E-06         0.36380E-20         0.00000E+00
    0.11985E-06         0.11642E-19         0.00000E+00
    0.11985E-06        -0.43656E-20         0.00000E+00
    0.14211E-06        -0.36380E-20         0.00000E+00
    0.14211E-06         0.65484E-20         0.00000E+00
    0.14211E-06         0.29104E-20         0.00000E+00
    0.14211E-06         0.72760E-21         0.00000E+00
    0.14211E-06         0.13097E-19         0.00000E+00
    0.14211E-06         0.29104E-19         0.00000E+00
    0.14211E-06         0.37107E-19         0.00000E+00
    0.14211E-06         0.33469E-19         0.00000E+00
    0.14211E-06         0.25466E-19         0.00000E+00
    0.14211E-06         0.21100E-19         0.00000E+00
    0.14211E-06         0.90949E-20         0.00000E+00
    0.14211E-06        -0.21828E-20         0.00000E+00
    0.14211E-06         0.12733E-19         0.00000E+00
    0.14211E-06         0.12005E-19         0.00000E+00
    0.14211E-06        -0.12369E-19         0.00000E+00
    0.16834E-06         0.50932E-20         0.00000E+00
    0.16834E-06         0.65484E-20         0.00000E+00
    0.16834E-06         0.29104E-20         0.00000E+00
    0.16834E-06         0.58208E-20         0.00000E+00
    0.16834E-06         0.21100E-19         0.00000E+00
    0.16834E-06         0.24011E-19         0.00000E+00
    0.16834E-06         0.45839E-19         0.00000E+00
    0.16834E-06         0.38563E-19         0.00000E+00
    0.16834E-06         0.22555E-19         0.00000E+00
    0.16834E-06         0.22555E-19         0.00000E+00
    0.16834E-06         0.43656E-20         0.00000E+00
    0.16834E-06        -0.36380E-20         0.00000E+00
    0.16834E-06         0.14552E-20         0.00000E+00
    0.16834E-06         0.43656E-20         0.00000E+00
    0.16834E-06        -0.43656E-20         0.00000E+00
    0.19921E-06         0.11642E-19         0.00000E+00
    0.19921E-06         0.12369E-19         0.00000E+00
    0.19921E-06         0.36380E-20         0.00000E+00
    0.19921E-06         0.36380E-21         0.00000E+00
    0.19921E-06         0.32014E-19         0.00000E+00
    0.19921E-06         0.20736E-19         0.00000E+00
    0.19921E-06         0.38563E-19         0.00000E+00
    0.19921E-06         0.35652E-19         0.00000E+00
    0.19921E-06         0.19645E-19         0.00000E+00
    0.19921E-06         0.40018E-20         0.00000E+00
    0.19921E-06         0.18190E-20         0.00000E+00
    0.19921E-06         0.40018E-20         0.00000E+00
    0.19921E-06        -0.72760E-21         0.00000E+00
    0.19921E-06         0.50932E-20         0.00000E+00
    0.19921E-06        -0.21828E-20         0.00000E+00
    0.23548E-06         0.50932E-20         0.00000E+00
    0.23548E-06         0.21100E-19         0.00000E+00
    0.23548E-06         0.21828E-20         0.00000E+00
    0.23548E-06        -0.25466E-20         0.00000E+00
    0.23548E-06         0.18190E-19         0.00000E+00
    0.23548E-06         0.26921E-19         0.00000E+00
    0.23548E-06         0.39290E-19         0.00000E+00
    0.23548E-06         0.21100E-19         0.00000E+00
    0.23548E-06         0.24011E-19         0.00000E+00
    0.23548E-06        -0.36380E-20         0.00000E+00
    0.23548E-06         0.94587E-20         0.00000E+00
    0.23548E-06         0.10186E-19         0.00000E+00
    0.23548E-06         0.50781E-36         0.00000E+00
    0.23548E-06        -0.29104E-20         0.00000E+00
    0.23548E-06         0.29104E-20         0.00000E+00
    0.27798E-06         0.50932E-20         0.00000E+00
    0.27798E-06         0.29104E-20         0.00000E+00
    0.27798E-06        -0.58208E-20         0.00000E+00
    0.27798E-06         0.36380E-20         0.00000E+00
    0.27798E-06         0.10914E-19         0.00000E+00
    0.27798E-06         0.32742E-19         0.00000E+00
    0.27798E-06         0.42201E-19         0.00000E+00
    0.27798E-06         0.10914E-19         0.00000E+00
    0.27798E-06         0.29468E-19         0.00000E+00
    0.27798E-06         0.10914E-19         0.00000E+00
    0.27798E-06         0.80036E-20         0.00000E+00
    0.27798E-06         0.25466E-20         0.00000E+00
    0.27798E-06         0.65484E-20         0.00000E+00
    0.27798E-06        -0.43656E-20         0.00000E+00
    0.27798E-06         0.00000E+00         0.00000E+00
    0.32769E-06         0.00000E+00         0.00000E+00
    0.32769E-06        -0.11642E-19         0.00000E+00
    0.32769E-06        -0.65484E-20         0.00000E+00
    0.32769E-06         0.13097E-19         0.00000E+00
    0.32769E-06         0.16007E-19         0.00000E+00
    0.32769E-06         0.32742E-19         0.00000E+00
    0.32769E-06         0.35652E-19         0.00000E+00
    0.32769E-06         0.25466E-19         0.00000E+00
    0.32769E-06         0.34197E-19         0.00000E+00
    0.32769E-06         0.11642E-19         0.00000E+00
    0.32769E-06         0.80036E-20         0.00000E+00
    0.32769E-06         0.50932E-20         0.00000E+00
    0.32769E-06         0.43656E-20         0.00000E+00
    0.32769E-06        -0.11642E-19         0.00000E+00
    0.32769E-06        -0.96485E-35         0.00000E+00
    0.38564E-06        -0.36380E-20         0.00000E+00
    0.38564E-06        -0.36380E-20         0.00000E+00
    0.38564E-06        -0.72760E-20         0.00000E+00
    0.38564E-06         0.13097E-19         0.00000E+00
    0.38564E-06         0.34197E-19         0.00000E+00
    0.38564E-06         0.32742E-19         0.00000E+00
    0.38564E-06         0.33469E-19         0.00000E+00
    0.38564E-06         0.38563E-19         0.00000E+00
    0.38564E-06         0.27649E-19         0.00000E+00
    0.38564E-06         0.10186E-19         0.00000E+00
    0.38564E-06         0.87311E-20         0.00000E+00
    0.38564E-06         0.72760E-20         0.00000E+00
    0.38564E-06        -0.12733E-19         0.00000E+00
    0.38564E-06        -0.72760E-21         0.00000E+00
    0.38564E-06         0.10914E-20         0.00000E+00
    0.45299E-06         0.43656E-20         0.00000E+00
    0.45299E-06        -0.94587E-20         0.00000E+00
    0.45299E-06        -0.65484E-20         0.00000E+00
    0.45299E-06         0.20373E-19         0.00000E+00
    0.45299E-06         0.44383E-19         0.00000E+00
    0.45299E-06         0.36380E-19         0.00000E+00
    0.45299E-06         0.38563E-19         0.00000E+00
    0.45299E-06         0.24738E-19         0.00000E+00
    0.45299E-06         0.26193E-19         0.00000E+00
    0.45299E-06         0.22555E-19         0.00000E+00
    0.45299E-06         0.10186E-19         0.00000E+00
    0.45299E-06         0.12369E-19         0.00000E+00
    0.45299E-06        -0.12369E-19         0.00000E+00
    0.45299E-06        -0.14552E-20         0.00000E+00
    0.45299E-06         0.14552E-20         0.00000E+00
    0.53098E-06         0.11642E-19         0.00000E+00
    0.53098E-06        -0.58208E-20         0.00000E+00
    0.53098E-06         0.12369E-19         0.00000E+00
    0.53098E-06         0.14552E-19         0.00000E+00
    0.53098E-06         0.34925E-19         0.00000E+00
    0.53098E-06         0.35652E-19         0.00000E+00
    0.53098E-06         0.38563E-19         0.00000E+00
    0.53098E-06         0.15280E-19         0.00000E+00
    0.53098E-06         0.37835E-19         0.00000E+00
    0.53098E-06         0.28376E-19         0.00000E+00
    0.53098E-06         0.13824E-19         0.00000E+00
    0.53098E-06         0.87311E-20         0.00000E+00
    0.53098E-06        -0.58208E-20         0.00000E+00
    0.53098E-06        -0.87311E-20         0.00000E+00
    0.53098E-06        -0.14552E-20         0.00000E+00
    0.62087E-06         0.54570E-20         0.00000E+00
    0.62087E-06         0.80036E-20         0.00000E+00
    0.62087E-06         0.13824E-19         0.00000E+00
    0.62087E-06         0.18190E-19         0.00000E+00
    0.62087E-06         0.28376E-19         0.00000E+00
    0.62087E-06         0.32742E-19         0.00000E+00
    0.62087E-06         0.32014E-19         0.00000E+00
    0.62087E-06         0.30559E-19         0.00000E+00
    0.62087E-06         0.28376E-19         0.00000E+00
    0.62087E-06         0.24011E-19         0.00000E+00
    0.62087E-06         0.12369E-19         0.00000E+00
    0.62087E-06         0.58208E-20         0.00000E+00
    0.62087E-06         0.00000E+00         0.00000E+00
    0.62087E-06        -0.87311E-20         0.00000E+00
    0.62087E-06        -0.29104E-20         0.00000E+00
    0.72394E-06         0.36380E-21         0.00000E+00
    0.72394E-06         0.47294E-20         0.00000E+00
    0.72394E-06         0.80036E-20         0.00000E+00
    0.72394E-06         0.22555E-19         0.00000E+00
    0.72394E-06         0.13097E-19         0.00000E+00
    0.72394E-06         0.36380E-19         0.00000E+00
    0.72394E-06         0.38199E-19         0.00000E+00
    0.72394E-06         0.25284E-19         0.00000E+00
    0.72394E-06         0.18190E-19         0.00000E+00
    0.72394E-06         0.22192E-19         0.00000E+00
    0.72394E-06         0.14188E-19         0.00000E+00
    0.72394E-06         0.18190E-20         0.00000E+00
    0.72394E-06        -0.21828E-20         0.00000E+00
    0.72394E-06        -0.14552E-20         0.00000E+00
    0.72394E-06         0.38199E-20         0.00000E+00
    0.84138E-06         0.49113E-20         0.00000E+00
    0.84138E-06         0.32742E-20         0.00000E+00
    0.84138E-06        -0.90949E-21         0.00000E+00
    0.84138E-06         0.24011E-19         0.00000E+00
    0.84138E-06         0.10186E-19         0.00000E+00
    0.84138E-06         0.39654E-19         0.00000E+00
    0.84138E-06         0.33288E-19         0.00000E+00
    0.84138E-06         0.25830E-19         0.00000E+00
    0.84138E-06         0.24738E-19         0.00000E+00
    0.84138E-06         0.17099E-19         0.00000E+00
    0.84138E-06         0.69122E-20         0.00000E+00
    0.84138E-06         0.69122E-20         0.00000E+00
    0.84138E-06         0.25466E-20         0.00000E+00
    0.84138E-06        -0.25466E-20         0.00000E+00
    0.84138E-06         0.36380E-21         0.00000E+00
    0.97419E-06         0.43656E-20         0.00000E+00
    0.97419E-06         0.10004E-19         0.00000E+00
    0.97419E-06        -0.18190E-20         0.00000E+00
    0.97419E-06         0.83674E-20         0.00000E+00
    0.97419E-06         0.29286E-19         0.00000E+00
    0.97419E-06         0.28740E-19         0.00000E+00
    0.97419E-06         0.26557E-19         0.00000E+00
    0.97419E-06         0.22192E-19         0.00000E+00
    0.97419E-06         0.35288E-19         0.00000E+00
    0.97419E-06         0.98225E-20         0.00000E+00
    0.97419E-06         0.87311E-20         0.00000E+00
    0.97419E-06         0.43656E-20         0.00000E+00
    0.97419E-06         0.49113E-20         0.00000E+00
    0.97419E-06        -0.10550E-19         0.00000E+00
    0.97419E-06        -0.10186E-19         0.00000E+00
    0.11230E-05         0.00000E+00         0.00000E+00
    0.11230E-05         0.40018E-20         0.00000E+00
    0.11230E-05         0.76398E-20         0.00000E+00
    0.11230E-05         0.15280E-19         0.00000E+00
    0.11230E-05         0.18190E-19         0.00000E+00
    0.11230E-05         0.27649E-19         0.00000E+00
    0.11230E-05         0.25830E-19         0.00000E+00
    0.11230E-05         0.23647E-19         0.00000E+00
    0.11230E-05         0.22919E-19         0.00000E+00
    0.11230E-05         0.94587E-20         0.00000E+00
    0.11230E-05         0.90949E-20         0.00000E+00
    0.11230E-05         0.32742E-20         0.00000E+00
    0.11230E-05         0.74579E-20         0.00000E+00
    0.11230E-05        -0.13461E-19         0.00000E+00
    0.11230E-05        -0.14916E-19         0.00000E+00
    0.12877E-05        -0.36380E-21         0.00000E+00
    0.12877E-05         0.87311E-20         0.00000E+00
    0.12877E-05         0.14552E-20         0.00000E+00
    0.12877E-05         0.14916E-19         0.00000E+00
    0.12877E-05         0.20736E-19         0.00000E+00
    0.12877E-05         0.21464E-19         0.00000E+00
    0.12877E-05         0.19645E-19         0.00000E+00
    0.12877E-05         0.26193E-19         0.00000E+00
    0.12877E-05         0.14916E-19         0.00000E+00
    0.12877E-05         0.13642E-19         0.00000E+00
    0.12877E-05         0.72760E-21         0.00000E+00
    0.12877E-05         0.90949E-20         0.00000E+00
    0.12877E-05         0.36380E-20         0.00000E+00
    0.12877E-05        -0.10550E-19         0.00000E+00
    0.12877E-05        -0.49113E-20         0.00000E+00
    0.14673E-05         0.49113E-20         0.00000E+00
    0.14673E-05         0.40018E-20         0.00000E+00
    0.14673E-05         0.40018E-20         0.00000E+00
    0.14673E-05         0.45475E-20         0.00000E+00
    0.14673E-05         0.17826E-19         0.00000E+00
    0.14673E-05         0.19827E-19         0.00000E+00
    0.14673E-05         0.22010E-19         0.00000E+00
    0.14673E-05         0.14552E-19         0.00000E+00
    0.14673E-05         0.15280E-19         0.00000E+00
    0.14673E-05         0.13824E-19         0.00000E+00
    0.14673E-05         0.36380E-20         0.00000E+00
    0.14673E-05         0.30923E-20         0.00000E+00
    0.14673E-05        -0.36380E-20         0.00000E+00
    0.14673E-05        -0.32742E-20         0.00000E+00
    0.14673E-05        -0.18190E-20         0.00000E+00
    0.16593E-05         0.65484E-20         0.00000E+00
    0.16593E-05         0.72760E-21         0.00000E+00
    0.16593E-05         0.25466E-20         0.00000E+00
    0.16593E-05        -0.90949E-21         0.00000E+00
    0.16593E-05         0.94587E-20         0.00000E+00
    0.16593E-05         0.24011E-19         0.00000E+00
    0.16593E-05         0.27649E-19         0.00000E+00
    0.16593E-05         0.65484E-20         0.00000E+00
    0.16593E-05         0.12005E-19         0.00000E+00
    0.16593E-05         0.76398E-20         0.00000E+00
    0.16593E-05         0.69122E-20         0.00000E+00
    0.16593E-05         0.14552E-20         0.00000E+00
    0.16593E-05        -0.50932E-20         0.00000E+00
    0.16593E-05        -0.60027E-20         0.00000E+00
    0.16593E-05        -0.74579E-20         0.00000E+00
    0.18590E-05        -0.65484E-20         0.00000E+00
    0.18590E-05         0.32742E-20         0.00000E+00
    0.18590E-05        -0.12005E-19         0.00000E+00
    0.18590E-05         0.21828E-20         0.00000E+00
    0.18590E-05         0.60027E-20         0.00000E+00
    0.18590E-05         0.19099E-19         0.00000E+00
    0.18590E-05         0.22374E-19         0.00000E+00
    0.18590E-05         0.12915E-19         0.00000E+00
    0.18590E-05         0.65484E-20         0.00000E+00
    0.18590E-05         0.21828E-20         0.00000E+00
    0.18590E-05         0.36380E-20         0.00000E+00
    0.18590E-05         0.25466E-20         0.00000E+00
    0.18590E-05        -0.52751E-20         0.00000E+00
    0.18590E-05        -0.23647E-20         0.00000E+00
    0.18590E-05        -0.52751E-20         0.00000E+00
    0.20583E-05        -0.49113E-20         0.00000E+00
    0.20583E-05        -0.29104E-20         0.00000E+00
    0.20583E-05        -0.91859E-20         0.00000E+00
    0.20583E-05        -0.18190E-20         0.00000E+00
    0.20583E-05         0.43656E-20         0.00000E+00
    0.20583E-05         0.12551E-19         0.00000E+00
    0.20583E-05         0.15280E-19         0.00000E+00
    0.20583E-05         0.13824E-19         0.00000E+00
    0.20583E-05         0.94587E-20         0.00000E+00
    0.20583E-05         0.16371E-20         0.00000E+00
    0.20583E-05        -0.13642E-20         0.00000E+00
    0.20583E-05         0.50932E-20         0.00000E+00
    0.20583E-05        -0.56389E-20         0.00000E+00
    0.20583E-05        -0.81855E-20         0.00000E+00
    0.20583E-05        -0.81855E-21         0.00000E+00
    0.22449E-05         0.54570E-20         0.00000E+00
    0.22449E-05        -0.43656E-20         0.00000E+00
    0.22449E-05        -0.29104E-20         0.00000E+00
    0.22449E-05        -0.50932E-20         0.00000E+00
    0.22449E-05        -0.14552E-20         0.00000E+00
    0.22449E-05         0.25466E-20         0.00000E+00
    0.22449E-05         0.10732E-19         0.00000E+00
    0.22449E-05         0.92768E-20         0.00000E+00
    0.22449E-05         0.64574E-20         0.00000E+00
    0.22449E-05         0.34561E-20         0.00000E+00
    0.22449E-05        -0.14552E-20         0.00000E+00
    0.22449E-05        -0.38199E-20         0.00000E+00
    0.22449E-05        -0.63665E-20         0.00000E+00
    0.22449E-05        -0.21828E-20         0.00000E+00
    0.22449E-05        -0.61846E-20         0.00000E+00
    0.23999E-05        -0.76398E-20         0.00000E+00
    0.23999E-05         0.63665E-21         0.00000E+00
    0.23999E-05        -0.11096E-19         0.00000E+00
    0.23999E-05        -0.54570E-21         0.00000E+00
    0.23999E-05        -0.87311E-20         0.00000E+00
    0.23999E-05         0.60027E-20         0.00000E+00
    0.23999E-05        -0.56389E-20         0.00000E+00
    0.23999E-05         0.66848E-20         0.00000E+00
    0.23999E-05         0.40927E-20         0.00000E+00
    0.23999E-05         0.59117E-21         0.00000E+00
    0.23999E-05         0.11823E-20         0.00000E+00
    0.23999E-05         0.42746E-20         0.00000E+00
    0.23999E-05        -0.57298E-20         0.00000E+00
    0.23999E-05         0.22737E-21         0.00000E+00
    0.23999E-05        -0.28194E-20         0.00000E+00
    0.24957E-05         0.24829E-19         0.00000E+00
    0.24957E-05        -0.61846E-19         0.00000E+00
    0.24957E-05         0.23874E-19         0.00000E+00
    0.24957E-05         0.27285E-20         0.00000E+00
    0.24957E-05         0.26421E-19         0.00000E+00
    0.24957E-05        -0.58390E-19         0.00000E+00
    0.24957E-05         0.22010E-19         0.00000E+00
    0.24957E-05        -0.23465E-19         0.00000E+00
    0.24957E-05        -0.45475E-20         0.00000E+00
    0.24957E-05         0.36789E-19         0.00000E+00
    0.24957E-05         0.54570E-21         0.00000E+00
    0.24957E-05        -0.28058E-19         0.00000E+00
    0.24957E-05         0.31287E-19         0.00000E+00
    0.24957E-05        -0.13642E-20         0.00000E+00
    0.24957E-05         0.54570E-20         0.00000E+00
POINT_DATA       1456
VECTORS vDarcyNodal double 
    0.13450E-12         0.58208E-20         0.00000E+00
    0.13450E-12         0.58208E-20         0.00000E+00
    0.13450E-12         0.00000E+00         0.00000E+00
    0.13450E-12        -0.14552E-19         0.00000E+00
    0.13450E-12        -0.20373E-19         0.00000E+00
    0.13450E-12        -0.87311E-20         0.00000E+00
    0.13450E-12        -0.58208E-20         0.00000E+00
    0.13450E-12        -0.14552E-19         0.00000E+00
    0.13450E-12        -0.23283E-19         0.00000E+00
    0.13450E-12        -0.26193E-19         0.00000E+00
    0.13450E-12        -0.17462E-19         0.00000E+00
    0.13450E-12        -0.14552E-19         0.00000E+00
    0.13450E-12        -0.17462E-19         0.00000E+00
    0.13450E-12        -0.87311E-20         0.00000E+00
    0.13450E-12         0.00000E+00         0.00000E+00
    0.13450E-12         0.00000E+00         0.00000E+00
    0.27114E-12         0.17462E-19         0.00000E+00
    0.27114E-12         0.14552E-19         0.00000E+00
    0.27114E-12         0.58208E-20         0.00000E+00
    0.27114E-12        -0.87311E-20         0.00000E+00
    0.27114E-12        -0.14552E-19         0.00000E+00
    0.27114E-12        -0.58208E-20         0.00000E+00
    0.27114E-12        -0.17462E-19         0.00000E+00
    0.27114E-12        -0.20373E-19         0.00000E+00
    0.27114E-12        -0.11642E-19         0.00000E+00
    0.27114E-12        -0.22804E-19         0.00000E+00
    0.27114E-12        -0.34446E-19         0.00000E+00
    0.27114E-12        -0.20852E-19         0.00000E+00
    0.27114E-12        -0.62997E-20         0.00000E+00
    0.27114E-12        -0.29104E-20         0.00000E+00
    0.27114E-12         0.00000E+00         0.00000E+00
    0.27114E-12        -0.58208E-20         0.00000E+00
    0.55096E-12        -0.17462E-19         0.00000E+00
    0.55096E-12        -0.58208E-20         0.00000E+00
    0.55096E-12         0.00000E+00         0.00000E+00
    0.55096E-12        -0.58208E-20         0.00000E+00
    0.55096E-12         0.29104E-20         0.00000E+00
    0.55096E-12        -0.29104E-20         0.00000E+00
    0.55096E-12        -0.14552E-19         0.00000E+00
    0.55096E-12        -0.11642E-19         0.00000E+00
    0.55096E-12        -0.14552E-19         0.00000E+00
    0.55096E-12        -0.13594E-19         0.00000E+00
    0.55096E-12        -0.20870E-19         0.00000E+00
    0.55096E-12        -0.22786E-19         0.00000E+00
    0.55096E-12        -0.14055E-19         0.00000E+00
    0.55096E-12        -0.18917E-19         0.00000E+00
    0.55096E-12        -0.87311E-20         0.00000E+00
    0.55096E-12         0.00000E+00         0.00000E+00
    0.84841E-12         0.28109E-19         0.00000E+00
    0.84841E-12         0.14552E-19         0.00000E+00
    0.84841E-12         0.10344E-34         0.00000E+00
    0.84841E-12        -0.29104E-20         0.00000E+00
    0.84841E-12        -0.14055E-19         0.00000E+00
    0.84841E-12        -0.11642E-19         0.00000E+00
    0.84841E-12        -0.12139E-19         0.00000E+00
    0.84841E-12        -0.15049E-19         0.00000E+00
    0.84841E-12        -0.24130E-20         0.00000E+00
    0.84841E-12        -0.82337E-20         0.00000E+00
    0.84841E-12        -0.18457E-19         0.00000E+00
    0.84841E-12        -0.13594E-19         0.00000E+00
    0.84841E-12         0.34078E-20         0.00000E+00
    0.84841E-12        -0.29104E-20         0.00000E+00
    0.84841E-12        -0.11642E-19         0.00000E+00
    0.84841E-12        -0.58208E-20         0.00000E+00
    0.11730E-11        -0.11642E-19         0.00000E+00
    0.11730E-11        -0.29104E-20         0.00000E+00
    0.11730E-11         0.58208E-20         0.00000E+00
    0.11730E-11        -0.58208E-20         0.00000E+00
    0.11730E-11        -0.11642E-19         0.00000E+00
    0.11730E-11        -0.11642E-19         0.00000E+00
    0.11730E-11        -0.23283E-19         0.00000E+00
    0.11730E-11        -0.23283E-19         0.00000E+00
    0.11730E-11        -0.17462E-19         0.00000E+00
    0.11730E-11        -0.97260E-20         0.00000E+00
    0.11730E-11        -0.53604E-20         0.00000E+00
    0.11730E-11        -0.62811E-20         0.00000E+00
    0.11730E-11         0.82708E-20         0.00000E+00
    0.11730E-11         0.87311E-20         0.00000E+00
    0.11730E-11        -0.29104E-20         0.00000E+00
    0.11730E-11        -0.58208E-20         0.00000E+00
    0.15351E-11         0.11642E-19         0.00000E+00
    0.15351E-11        -0.29104E-20         0.00000E+00
    0.15351E-11        -0.11642E-19         0.00000E+00
    0.15351E-11        -0.18457E-19         0.00000E+00
    0.15351E-11        -0.23743E-19         0.00000E+00
    0.15351E-11        -0.67415E-20         0.00000E+00
    0.15351E-11         0.00000E+00         0.00000E+00
    0.15351E-11        -0.15086E-19         0.00000E+00
    0.15351E-11        -0.18457E-19         0.00000E+00
    0.15351E-11        -0.15012E-19         0.00000E+00
    0.15351E-11        -0.24500E-20         0.00000E+00
    0.15351E-11         0.58208E-20         0.00000E+00
    0.15351E-11         0.58208E-20         0.00000E+00
    0.15351E-11         0.87311E-20         0.00000E+00
    0.15351E-11         0.53604E-20         0.00000E+00
    0.15351E-11         0.58208E-20         0.00000E+00
    0.19463E-11         0.67415E-20         0.00000E+00
    0.19463E-11        -0.29104E-20         0.00000E+00
    0.19463E-11        -0.11642E-19         0.00000E+00
    0.19463E-11        -0.20373E-19         0.00000E+00
    0.19463E-11        -0.62811E-20         0.00000E+00
    0.19463E-11         0.00000E+00         0.00000E+00
    0.19463E-11        -0.15547E-19         0.00000E+00
    0.19463E-11        -0.18457E-19         0.00000E+00
    0.19463E-11        -0.77363E-20         0.00000E+00
    0.19463E-11         0.68156E-20         0.00000E+00
    0.19463E-11         0.12562E-19         0.00000E+00
    0.19463E-11         0.19378E-19         0.00000E+00
    0.19463E-11         0.22823E-19         0.00000E+00
    0.19463E-11         0.87311E-20         0.00000E+00
    0.19463E-11        -0.87311E-20         0.00000E+00
    0.19463E-11        -0.17462E-19         0.00000E+00
    0.24198E-11         0.12562E-19         0.00000E+00
    0.24198E-11        -0.14552E-20         0.00000E+00
    0.24198E-11        -0.15012E-19         0.00000E+00
    0.24198E-11         0.00000E+00         0.00000E+00
    0.24198E-11        -0.58208E-20         0.00000E+00
    0.24198E-11        -0.87311E-20         0.00000E+00
    0.24198E-11         0.29104E-20         0.00000E+00
    0.24198E-11         0.87311E-20         0.00000E+00
    0.24198E-11         0.10647E-19         0.00000E+00
    0.24198E-11        -0.97260E-20         0.00000E+00
    0.24198E-11        -0.48260E-20         0.00000E+00
    0.24198E-11         0.23283E-19         0.00000E+00
    0.24198E-11         0.12102E-19         0.00000E+00
    0.24198E-11        -0.16467E-19         0.00000E+00
    0.24198E-11        -0.87311E-20         0.00000E+00
    0.24198E-11         0.67415E-20         0.00000E+00
    0.29707E-11        -0.58208E-20         0.00000E+00
    0.29707E-11         0.00000E+00         0.00000E+00
    0.29707E-11        -0.58208E-20         0.00000E+00
    0.29707E-11        -0.17462E-19         0.00000E+00
    0.29707E-11         0.29104E-20         0.00000E+00
    0.29707E-11         0.14552E-19         0.00000E+00
    0.29707E-11        -0.29104E-20         0.00000E+00
    0.29707E-11        -0.14552E-19         0.00000E+00
    0.29707E-11        -0.17462E-19         0.00000E+00
    0.29707E-11        -0.19896E-20         0.00000E+00
    0.29707E-11        -0.78104E-20         0.00000E+00
    0.29707E-11        -0.18383E-19         0.00000E+00
    0.29707E-11        -0.67415E-20         0.00000E+00
    0.29707E-11         0.29104E-20         0.00000E+00
    0.29707E-11         0.29104E-20         0.00000E+00
    0.29707E-11        -0.17462E-19         0.00000E+00
    0.36166E-11         0.98000E-20         0.00000E+00
    0.36166E-11        -0.14017E-19         0.00000E+00
    0.36166E-11        -0.19452E-19         0.00000E+00
    0.36166E-11         0.23759E-20         0.00000E+00
    0.36166E-11        -0.58208E-20         0.00000E+00
    0.36166E-11        -0.11642E-19         0.00000E+00
    0.36166E-11        -0.58208E-20         0.00000E+00
    0.36166E-11        -0.58208E-20         0.00000E+00
    0.36166E-11        -0.14552E-19         0.00000E+00
    0.36166E-11        -0.20373E-19         0.00000E+00
    0.36166E-11        -0.23283E-19         0.00000E+00
    0.36166E-11        -0.14552E-19         0.00000E+00
    0.36166E-11        -0.87311E-20         0.00000E+00
    0.36166E-11        -0.14552E-20         0.00000E+00
    0.36166E-11         0.14552E-19         0.00000E+00
    0.36166E-11         0.23283E-19         0.00000E+00
    0.43782E-11         0.00000E+00         0.00000E+00
    0.43782E-11         0.29104E-20         0.00000E+00
    0.43782E-11        -0.29104E-20         0.00000E+00
    0.43782E-11        -0.63552E-20         0.00000E+00
    0.43782E-11        -0.67415E-20         0.00000E+00
    0.43782E-11        -0.19304E-19         0.00000E+00
    0.43782E-11        -0.17462E-19         0.00000E+00
    0.43782E-11        -0.10689E-20         0.00000E+00
    0.43782E-11        -0.16542E-19         0.00000E+00
    0.43782E-11        -0.30025E-19         0.00000E+00
    0.43782E-11        -0.26728E-19         0.00000E+00
    0.43782E-11        -0.14552E-19         0.00000E+00
    0.43782E-11         0.00000E+00         0.00000E+00
    0.43782E-11         0.11642E-19         0.00000E+00
    0.43782E-11        -0.23759E-20         0.00000E+00
    0.43782E-11        -0.23283E-19         0.00000E+00
    0.52798E-11         0.17462E-19         0.00000E+00
    0.52798E-11         0.14552E-19         0.00000E+00
    0.52798E-11         0.20373E-19         0.00000E+00
    0.52798E-11         0.29104E-20         0.00000E+00
    0.52798E-11        -0.11642E-19         0.00000E+00
    0.52798E-11        -0.29104E-20         0.00000E+00
    0.52798E-11        -0.14552E-19         0.00000E+00
    0.52798E-11        -0.23283E-19         0.00000E+00
    0.52798E-11        -0.29104E-19         0.00000E+00
    0.52798E-11        -0.11642E-19         0.00000E+00
    0.52798E-11         0.00000E+00         0.00000E+00
    0.52798E-11         0.00000E+00         0.00000E+00
    0.52798E-11        -0.29104E-20         0.00000E+00
    0.52798E-11        -0.14017E-19         0.00000E+00
    0.52798E-11         0.58208E-20         0.00000E+00
    0.52798E-11         0.22214E-19         0.00000E+00
    0.63504E-11         0.47519E-20         0.00000E+00
    0.63504E-11        -0.29104E-20         0.00000E+00
    0.63504E-11        -0.13097E-19         0.00000E+00
    0.63504E-11        -0.87311E-20         0.00000E+00
    0.63504E-11         0.49000E-20         0.00000E+00
    0.63504E-11        -0.29104E-20         0.00000E+00
    0.63504E-11        -0.13631E-19         0.00000E+00
    0.63504E-11        -0.13631E-19         0.00000E+00
    0.63504E-11        -0.11107E-19         0.00000E+00
    0.63504E-11        -0.14017E-19         0.00000E+00
    0.63504E-11         0.18415E-20         0.00000E+00
    0.63504E-11         0.12562E-19         0.00000E+00
    0.63504E-11         0.19896E-20         0.00000E+00
    0.63504E-11        -0.72760E-20         0.00000E+00
    0.63504E-11        -0.10186E-19         0.00000E+00
    0.63504E-11         0.00000E+00         0.00000E+00
    0.76240E-11        -0.12710E-19         0.00000E+00
    0.76240E-11        -0.16542E-19         0.00000E+00
    0.76240E-11        -0.14017E-19         0.00000E+00
    0.76240E-11        -0.23759E-20         0.00000E+00
    0.76240E-11         0.29104E-20         0.00000E+00
    0.76240E-11        -0.92656E-20         0.00000E+00
    0.76240E-11        -0.92656E-20         0.00000E+00
    0.76240E-11         0.87311E-20         0.00000E+00
    0.76240E-11        -0.29104E-20         0.00000E+00
    0.76240E-11         0.00000E+00         0.00000E+00
    0.76240E-11         0.00000E+00         0.00000E+00
    0.76240E-11         0.00000E+00         0.00000E+00
    0.76240E-11         0.49000E-20         0.00000E+00
    0.76240E-11        -0.87311E-20         0.00000E+00
    0.76240E-11        -0.17997E-19         0.00000E+00
    0.76240E-11        -0.23283E-19         0.00000E+00
    0.91414E-11        -0.68897E-20         0.00000E+00
    0.91414E-11         0.14552E-20         0.00000E+00
    0.91414E-11         0.15086E-19         0.00000E+00
    0.91414E-11         0.11642E-19         0.00000E+00
    0.91414E-11         0.58208E-20         0.00000E+00
    0.91414E-11         0.29104E-20         0.00000E+00
    0.91414E-11        -0.87311E-20         0.00000E+00
    0.91414E-11        -0.14552E-19         0.00000E+00
    0.91414E-11        -0.63552E-20         0.00000E+00
    0.91414E-11         0.52863E-20         0.00000E+00
    0.91414E-11         0.78104E-20         0.00000E+00
    0.91414E-11        -0.87311E-20         0.00000E+00
    0.91414E-11        -0.92656E-20         0.00000E+00
    0.91414E-11        -0.23759E-20         0.00000E+00
    0.91414E-11        -0.58208E-20         0.00000E+00
    0.91414E-11        -0.10689E-20         0.00000E+00
    0.10951E-10        -0.18235E-19         0.00000E+00
    0.10951E-10        -0.91174E-20         0.00000E+00
    0.10951E-10        -0.58208E-20         0.00000E+00
    0.10951E-10        -0.58208E-20         0.00000E+00
    0.10951E-10         0.58208E-20         0.00000E+00
    0.10951E-10         0.87311E-20         0.00000E+00
    0.10951E-10         0.00000E+00         0.00000E+00
    0.10951E-10         0.38624E-21         0.00000E+00
    0.10951E-10        -0.10690E-20         0.00000E+00
    0.10951E-10        -0.17462E-19         0.00000E+00
    0.10951E-10         0.58208E-20         0.00000E+00
    0.10951E-10         0.14552E-19         0.00000E+00
    0.10951E-10        -0.14552E-19         0.00000E+00
    0.10951E-10         0.00000E+00         0.00000E+00
    0.10951E-10        -0.38624E-21         0.00000E+00
    0.10951E-10        -0.18235E-19         0.00000E+00
    0.13111E-10         0.58208E-20         0.00000E+00
    0.13111E-10        -0.58208E-20         0.00000E+00
    0.13111E-10        -0.11642E-19         0.00000E+00
    0.13111E-10         0.58208E-20         0.00000E+00
    0.13111E-10         0.87311E-20         0.00000E+00
    0.13111E-10        -0.29104E-20         0.00000E+00
    0.13111E-10        -0.58208E-20         0.00000E+00
    0.13111E-10         0.00000E+00         0.00000E+00
    0.13111E-10         0.11642E-19         0.00000E+00
    0.13111E-10         0.13483E-19         0.00000E+00
    0.13111E-10        -0.25242E-20         0.00000E+00
    0.13111E-10        -0.23669E-19         0.00000E+00
    0.13111E-10        -0.76622E-20         0.00000E+00
    0.13111E-10         0.29104E-20         0.00000E+00
    0.13111E-10         0.29104E-20         0.00000E+00
    0.13111E-10         0.11642E-19         0.00000E+00
    0.15690E-10        -0.21380E-20         0.00000E+00
    0.15690E-10         0.00000E+00         0.00000E+00
    0.15690E-10         0.39794E-20         0.00000E+00
    0.15690E-10         0.87311E-20         0.00000E+00
    0.15690E-10         0.87311E-20         0.00000E+00
    0.15690E-10         0.18414E-20         0.00000E+00
    0.15690E-10         0.18414E-20         0.00000E+00
    0.15690E-10         0.58208E-20         0.00000E+00
    0.15690E-10         0.14552E-19         0.00000E+00
    0.15690E-10         0.00000E+00         0.00000E+00
    0.15690E-10        -0.58208E-20         0.00000E+00
    0.15690E-10        -0.11642E-19         0.00000E+00
    0.15690E-10        -0.20759E-19         0.00000E+00
    0.15690E-10         0.29104E-20         0.00000E+00
    0.15690E-10         0.76622E-20         0.00000E+00
    0.15690E-10        -0.58208E-20         0.00000E+00
    0.18771E-10        -0.65931E-20         0.00000E+00
    0.18771E-10        -0.16393E-19         0.00000E+00
    0.18771E-10        -0.98002E-20         0.00000E+00
    0.18771E-10         0.47517E-20         0.00000E+00
    0.18771E-10         0.00000E+00         0.00000E+00
    0.18771E-10         0.58208E-20         0.00000E+00
    0.18771E-10         0.23283E-19         0.00000E+00
    0.18771E-10         0.17462E-19         0.00000E+00
    0.18771E-10        -0.29104E-20         0.00000E+00
    0.18771E-10         0.58208E-20         0.00000E+00
    0.18771E-10        -0.87311E-20         0.00000E+00
    0.18771E-10        -0.17462E-19         0.00000E+00
    0.18771E-10         0.00000E+00         0.00000E+00
    0.18771E-10         0.14552E-19         0.00000E+00
    0.18771E-10         0.20373E-19         0.00000E+00
    0.18771E-10         0.11642E-19         0.00000E+00
    0.22452E-10         0.36827E-20         0.00000E+00
    0.22452E-10        -0.10186E-19         0.00000E+00
    0.22452E-10        -0.12028E-19         0.00000E+00
    0.22452E-10         0.58208E-20         0.00000E+00
    0.22452E-10         0.87311E-20         0.00000E+00
    0.22452E-10         0.11642E-19         0.00000E+00
    0.22452E-10         0.29104E-20         0.00000E+00
    0.22452E-10         0.29104E-20         0.00000E+00
    0.22452E-10         0.87311E-20         0.00000E+00
    0.22452E-10         0.00000E+00         0.00000E+00
    0.22452E-10         0.29104E-20         0.00000E+00
    0.22452E-10         0.36827E-20         0.00000E+00
    0.22452E-10        -0.10691E-20         0.00000E+00
    0.22452E-10         0.68898E-20         0.00000E+00
    0.22452E-10        -0.29104E-20         0.00000E+00
    0.22452E-10        -0.11642E-19         0.00000E+00
    0.26851E-10        -0.58208E-20         0.00000E+00
    0.26851E-10         0.00000E+00         0.00000E+00
    0.26851E-10        -0.87311E-20         0.00000E+00
    0.26851E-10        -0.21442E-19         0.00000E+00
    0.26851E-10         0.68899E-20         0.00000E+00
    0.26851E-10         0.23966E-19         0.00000E+00
    0.26851E-10         0.23283E-19         0.00000E+00
    0.26851E-10         0.80482E-20         0.00000E+00
    0.26851E-10        -0.54347E-20         0.00000E+00
    0.26851E-10        -0.47517E-20         0.00000E+00
    0.26851E-10        -0.11255E-19         0.00000E+00
    0.26851E-10         0.00000E+00         0.00000E+00
    0.26851E-10         0.87311E-20         0.00000E+00
    0.26851E-10         0.29104E-20         0.00000E+00
    0.26851E-10         0.98002E-20         0.00000E+00
    0.26851E-10         0.17462E-19         0.00000E+00
    0.32108E-10         0.17462E-19         0.00000E+00
    0.32108E-10         0.58208E-20         0.00000E+00
    0.32108E-10        -0.20373E-19         0.00000E+00
    0.32108E-10        -0.20373E-19         0.00000E+00
    0.32108E-10         0.58208E-20         0.00000E+00
    0.32108E-10         0.14552E-19         0.00000E+00
    0.32108E-10         0.10572E-19         0.00000E+00
    0.32108E-10         0.76620E-20         0.00000E+00
    0.32108E-10         0.11255E-19         0.00000E+00
    0.32108E-10         0.10691E-20         0.00000E+00
    0.32108E-10        -0.14166E-19         0.00000E+00
    0.32108E-10         0.10572E-19         0.00000E+00
    0.32108E-10         0.17462E-19         0.00000E+00
    0.32108E-10         0.00000E+00         0.00000E+00
    0.32108E-10         0.14552E-20         0.00000E+00
    0.32108E-10        -0.11642E-19         0.00000E+00
    0.38391E-10         0.00000E+00         0.00000E+00
    0.38391E-10        -0.29104E-20         0.00000E+00
    0.38391E-10        -0.58208E-20         0.00000E+00
    0.38391E-10        -0.29104E-20         0.00000E+00
    0.38391E-10         0.58208E-20         0.00000E+00
    0.38391E-10         0.11642E-19         0.00000E+00
    0.38391E-10         0.58208E-20         0.00000E+00
    0.38391E-10         0.17462E-19         0.00000E+00
    0.38391E-10         0.00000E+00         0.00000E+00
    0.38391E-10        -0.11642E-19         0.00000E+00
    0.38391E-10         0.00000E+00         0.00000E+00
    0.38391E-10        -0.87311E-20         0.00000E+00
    0.38391E-10         0.11642E-19         0.00000E+00
    0.38391E-10         0.21442E-19         0.00000E+00
    0.38391E-10         0.58208E-20         0.00000E+00
    0.38391E-10        -0.79592E-20         0.00000E+00
    0.45901E-10        -0.36822E-20         0.00000E+00
    0.45901E-10         0.14552E-19         0.00000E+00
    0.45901E-10         0.23669E-19         0.00000E+00
    0.45901E-10         0.58208E-20         0.00000E+00
    0.45901E-10        -0.87311E-20         0.00000E+00
    0.45901E-10         0.29104E-20         0.00000E+00
    0.45901E-10         0.58208E-20         0.00000E+00
    0.45901E-10        -0.29104E-20         0.00000E+00
    0.45901E-10         0.20373E-19         0.00000E+00
    0.45901E-10         0.26193E-19         0.00000E+00
    0.45901E-10         0.11256E-19         0.00000E+00
    0.45901E-10         0.87311E-20         0.00000E+00
    0.45901E-10        -0.12711E-19         0.00000E+00
    0.45901E-10        -0.11642E-19         0.00000E+00
    0.45901E-10         0.00000E+00         0.00000E+00
    0.45901E-10         0.00000E+00         0.00000E+00
    0.54877E-10        -0.79594E-20         0.00000E+00
    0.54877E-10        -0.87311E-20         0.00000E+00
    0.54877E-10        -0.38585E-21         0.00000E+00
    0.54877E-10         0.11642E-19         0.00000E+00
    0.54877E-10         0.58208E-20         0.00000E+00
    0.54877E-10        -0.29104E-20         0.00000E+00
    0.54877E-10         0.58208E-20         0.00000E+00
    0.54877E-10         0.87311E-20         0.00000E+00
    0.54877E-10        -0.58208E-20         0.00000E+00
    0.54877E-10         0.29104E-20         0.00000E+00
    0.54877E-10         0.25124E-19         0.00000E+00
    0.54877E-10         0.19303E-19         0.00000E+00
    0.54877E-10         0.12711E-19         0.00000E+00
    0.54877E-10         0.15621E-19         0.00000E+00
    0.54877E-10         0.47514E-20         0.00000E+00
    0.54877E-10        -0.79594E-20         0.00000E+00
    0.65607E-10         0.58208E-20         0.00000E+00
    0.65607E-10         0.29104E-20         0.00000E+00
    0.65607E-10        -0.39798E-20         0.00000E+00
    0.65607E-10        -0.58208E-20         0.00000E+00
    0.65607E-10         0.10694E-20         0.00000E+00
    0.65607E-10        -0.87311E-20         0.00000E+00
    0.65607E-10        -0.11642E-19         0.00000E+00
    0.65607E-10         0.11642E-19         0.00000E+00
    0.65607E-10         0.18234E-19         0.00000E+00
    0.65607E-10         0.47513E-20         0.00000E+00
    0.65607E-10         0.10694E-20         0.00000E+00
    0.65607E-10         0.12711E-19         0.00000E+00
    0.65607E-10         0.20373E-19         0.00000E+00
    0.65607E-10         0.22214E-19         0.00000E+00
    0.65607E-10         0.34925E-19         0.00000E+00
    0.65607E-10         0.34925E-19         0.00000E+00
    0.78432E-10         0.11642E-19         0.00000E+00
    0.78432E-10         0.13482E-19         0.00000E+00
    0.78432E-10        -0.43656E-20         0.00000E+00
    0.78432E-10        -0.14552E-19         0.00000E+00
    0.78432E-10         0.00000E+00         0.00000E+00
    0.78432E-10         0.29104E-20         0.00000E+00
    0.78432E-10        -0.87311E-20         0.00000E+00
    0.78432E-10         0.18408E-20         0.00000E+00
    0.78432E-10         0.65921E-20         0.00000E+00
    0.78432E-10         0.50495E-20         0.00000E+00
    0.78432E-10         0.65047E-20         0.00000E+00
    0.78432E-10         0.95024E-20         0.00000E+00
    0.78432E-10         0.17848E-19         0.00000E+00
    0.78432E-10         0.29104E-19         0.00000E+00
    0.78432E-10         0.58208E-20         0.00000E+00
    0.78432E-10        -0.35696E-19         0.00000E+00
    0.93762E-10         0.77101E-21         0.00000E+00
    0.93762E-10        -0.25249E-20         0.00000E+00
    0.93762E-10        -0.11642E-19         0.00000E+00
    0.93762E-10         0.39801E-20         0.00000E+00
    0.93762E-10         0.17077E-19         0.00000E+00
    0.93762E-10        -0.98008E-20         0.00000E+00
    0.93762E-10        -0.14552E-19         0.00000E+00
    0.93762E-10        -0.91167E-20         0.00000E+00
    0.93762E-10        -0.58208E-20         0.00000E+00
    0.93762E-10         0.26964E-19         0.00000E+00
    0.93762E-10         0.30945E-19         0.00000E+00
    0.93762E-10         0.11642E-19         0.00000E+00
    0.93762E-10         0.11642E-19         0.00000E+00
    0.93762E-10         0.12711E-19         0.00000E+00
    0.93762E-10         0.00000E+00         0.00000E+00
    0.93762E-10        -0.11642E-19         0.00000E+00
    0.11209E-09         0.21143E-19         0.00000E+00
    0.11209E-09        -0.91165E-20         0.00000E+00
    0.11209E-09        -0.17848E-19         0.00000E+00
    0.11209E-09         0.18405E-20         0.00000E+00
    0.11209E-09         0.00000E+00         0.00000E+00
    0.11209E-09         0.38534E-21         0.00000E+00
    0.11209E-09        -0.10572E-19         0.00000E+00
    0.11209E-09        -0.23283E-19         0.00000E+00
    0.11209E-09         0.22259E-20         0.00000E+00
    0.11209E-09         0.17462E-19         0.00000E+00
    0.11209E-09         0.26193E-19         0.00000E+00
    0.11209E-09         0.20373E-19         0.00000E+00
    0.11209E-09         0.10698E-20         0.00000E+00
    0.11209E-09         0.29104E-20         0.00000E+00
    0.11209E-09         0.29104E-20         0.00000E+00
    0.11209E-09        -0.36811E-20         0.00000E+00
    0.13399E-09        -0.27734E-19         0.00000E+00
    0.13399E-09        -0.58208E-20         0.00000E+00
    0.13399E-09         0.95014E-20         0.00000E+00
    0.13399E-09        -0.80463E-20         0.00000E+00
    0.13399E-09        -0.51359E-20         0.00000E+00
    0.13399E-09         0.77030E-21         0.00000E+00
    0.13399E-09        -0.58208E-20         0.00000E+00
    0.13399E-09        -0.14552E-19         0.00000E+00
    0.13399E-09        -0.94160E-20         0.00000E+00
    0.13399E-09         0.11642E-19         0.00000E+00
    0.13399E-09         0.58208E-20         0.00000E+00
    0.13399E-09         0.58208E-20         0.00000E+00
    0.13399E-09         0.19688E-19         0.00000E+00
    0.13399E-09         0.51910E-34         0.00000E+00
    0.13399E-09         0.42802E-20         0.00000E+00
    0.13399E-09         0.27563E-19         0.00000E+00
    0.16017E-09         0.00000E+00         0.00000E+00
    0.16017E-09        -0.29104E-20         0.00000E+00
    0.16017E-09        -0.58208E-20         0.00000E+00
    0.16017E-09        -0.29104E-20         0.00000E+00
    0.16017E-09        -0.29104E-20         0.00000E+00
    0.16017E-09        -0.29104E-20         0.00000E+00
    0.16017E-09        -0.29104E-20         0.00000E+00
    0.16017E-09        -0.58208E-20         0.00000E+00
    0.16017E-09         0.00000E+00         0.00000E+00
    0.16017E-09         0.00000E+00         0.00000E+00
    0.16017E-09         0.58208E-20         0.00000E+00
    0.16017E-09         0.87311E-20         0.00000E+00
    0.16017E-09         0.00000E+00         0.00000E+00
    0.16017E-09        -0.43656E-20         0.00000E+00
    0.16017E-09         0.68536E-21         0.00000E+00
    0.16017E-09         0.42811E-20         0.00000E+00
    0.19145E-09         0.00000E+00         0.00000E+00
    0.19145E-09         0.29104E-20         0.00000E+00
    0.19145E-09         0.11642E-19         0.00000E+00
    0.19145E-09         0.58208E-20         0.00000E+00
    0.19145E-09        -0.87311E-20         0.00000E+00
    0.19145E-09        -0.23283E-19         0.00000E+00
    0.19145E-09        -0.24052E-19         0.00000E+00
    0.19145E-09        -0.11642E-19         0.00000E+00
    0.19145E-09        -0.79619E-20         0.00000E+00
    0.19145E-09        -0.11642E-19         0.00000E+00
    0.19145E-09         0.00000E+00         0.00000E+00
    0.19145E-09         0.26193E-19         0.00000E+00
    0.19145E-09         0.11642E-19         0.00000E+00
    0.19145E-09        -0.87311E-20         0.00000E+00
    0.19145E-09        -0.65900E-20         0.00000E+00
    0.19145E-09        -0.19001E-19         0.00000E+00
    0.22885E-09         0.00000E+00         0.00000E+00
    0.22885E-09         0.58208E-20         0.00000E+00
    0.22885E-09         0.94177E-20         0.00000E+00
    0.22885E-09        -0.82661E-34         0.00000E+00
    0.22885E-09        -0.94177E-20         0.00000E+00
    0.22885E-09        -0.29104E-20         0.00000E+00
    0.22885E-09        -0.14552E-19         0.00000E+00
    0.22885E-09        -0.21059E-19         0.00000E+00
    0.22885E-09        -0.11642E-19         0.00000E+00
    0.22885E-09        -0.21141E-19         0.00000E+00
    0.22885E-09        -0.65073E-20         0.00000E+00
    0.22885E-09         0.10186E-19         0.00000E+00
    0.22885E-09         0.35970E-20         0.00000E+00
    0.22885E-09        -0.65073E-20         0.00000E+00
    0.22885E-09        -0.58208E-20         0.00000E+00
    0.22885E-09         0.42835E-20         0.00000E+00
    0.27354E-09         0.17462E-19         0.00000E+00
    0.27354E-09         0.58208E-20         0.00000E+00
    0.27354E-09         0.11642E-19         0.00000E+00
    0.27354E-09         0.58208E-20         0.00000E+00
    0.27354E-09        -0.87311E-20         0.00000E+00
    0.27354E-09        -0.29104E-20         0.00000E+00
    0.27354E-09        -0.14552E-19         0.00000E+00
    0.27354E-09        -0.79633E-20         0.00000E+00
    0.27354E-09         0.29104E-20         0.00000E+00
    0.27354E-09        -0.72760E-20         0.00000E+00
    0.27354E-09        -0.10874E-19         0.00000E+00
    0.27354E-09        -0.87311E-20         0.00000E+00
    0.27354E-09        -0.65886E-20         0.00000E+00
    0.27354E-09        -0.14552E-19         0.00000E+00
    0.27354E-09        -0.20373E-19         0.00000E+00
    0.27354E-09        -0.10267E-19         0.00000E+00
    0.32695E-09        -0.11642E-19         0.00000E+00
    0.32695E-09         0.00000E+00         0.00000E+00
    0.32695E-09         0.00000E+00         0.00000E+00
    0.32695E-09        -0.58208E-20         0.00000E+00
    0.32695E-09        -0.87311E-20         0.00000E+00
    0.32695E-09        -0.58208E-20         0.00000E+00
    0.32695E-09        -0.58208E-20         0.00000E+00
    0.32695E-09        -0.17462E-19         0.00000E+00
    0.32695E-09         0.87311E-20         0.00000E+00
    0.32695E-09         0.14552E-19         0.00000E+00
    0.32695E-09        -0.20373E-19         0.00000E+00
    0.32695E-09        -0.37835E-19         0.00000E+00
    0.32695E-09        -0.26193E-19         0.00000E+00
    0.32695E-09        -0.87311E-20         0.00000E+00
    0.32695E-09        -0.94195E-20         0.00000E+00
    0.32695E-09        -0.15929E-19         0.00000E+00
    0.39078E-09        -0.58208E-20         0.00000E+00
    0.39078E-09        -0.87311E-20         0.00000E+00
    0.39078E-09        -0.29104E-20         0.00000E+00
    0.39078E-09         0.87311E-20         0.00000E+00
    0.39078E-09         0.11642E-19         0.00000E+00
    0.39078E-09        -0.29104E-20         0.00000E+00
    0.39078E-09        -0.23283E-19         0.00000E+00
    0.39078E-09        -0.79654E-20         0.00000E+00
    0.39078E-09         0.00000E+00         0.00000E+00
    0.39078E-09        -0.87311E-20         0.00000E+00
    0.39078E-09        -0.19607E-19         0.00000E+00
    0.39078E-09        -0.34925E-19         0.00000E+00
    0.39078E-09        -0.11642E-19         0.00000E+00
    0.39078E-09        -0.80417E-20         0.00000E+00
    0.39078E-09        -0.87311E-20         0.00000E+00
    0.39078E-09         0.44419E-20         0.00000E+00
    0.46705E-09        -0.58208E-20         0.00000E+00
    0.46705E-09        -0.76438E-21         0.00000E+00
    0.46705E-09        -0.36748E-20         0.00000E+00
    0.46705E-09        -0.58208E-20         0.00000E+00
    0.46705E-09        -0.11642E-19         0.00000E+00
    0.46705E-09        -0.11642E-19         0.00000E+00
    0.46705E-09         0.10951E-19         0.00000E+00
    0.46705E-09        -0.69081E-21         0.00000E+00
    0.46705E-09        -0.80403E-20         0.00000E+00
    0.46705E-09        -0.29104E-20         0.00000E+00
    0.46705E-09        -0.79668E-20         0.00000E+00
    0.46705E-09        -0.10951E-19         0.00000E+00
    0.46705E-09        -0.14552E-19         0.00000E+00
    0.46705E-09        -0.13816E-20         0.00000E+00
    0.46705E-09         0.29104E-20         0.00000E+00
    0.46705E-09        -0.15288E-20         0.00000E+00
    0.55819E-09         0.11642E-19         0.00000E+00
    0.55819E-09         0.29104E-20         0.00000E+00
    0.55819E-09        -0.11642E-19         0.00000E+00
    0.55819E-09         0.00000E+00         0.00000E+00
    0.55819E-09         0.00000E+00         0.00000E+00
    0.55819E-09        -0.20373E-19         0.00000E+00
    0.55819E-09        -0.11642E-19         0.00000E+00
    0.55819E-09         0.00000E+00         0.00000E+00
    0.55819E-09         0.26193E-19         0.00000E+00
    0.55819E-09         0.14552E-19         0.00000E+00
    0.55819E-09        -0.17462E-19         0.00000E+00
    0.55819E-09        -0.16700E-19         0.00000E+00
    0.55819E-09        -0.58208E-20         0.00000E+00
    0.55819E-09         0.69243E-21         0.00000E+00
    0.55819E-09        -0.58208E-20         0.00000E+00
    0.55819E-09         0.00000E+00         0.00000E+00
    0.66709E-09        -0.18984E-19         0.00000E+00
    0.66709E-09        -0.18223E-19         0.00000E+00
    0.66709E-09        -0.13791E-19         0.00000E+00
    0.66709E-09        -0.94255E-20         0.00000E+00
    0.66709E-09         0.00000E+00         0.00000E+00
    0.66709E-09         0.94255E-20         0.00000E+00
    0.66709E-09         0.58208E-20         0.00000E+00
    0.66709E-09         0.94920E-20         0.00000E+00
    0.66709E-09         0.58208E-20         0.00000E+00
    0.66709E-09         0.87311E-20         0.00000E+00
    0.66709E-09        -0.29104E-20         0.00000E+00
    0.66709E-09        -0.14552E-19         0.00000E+00
    0.66709E-09        -0.29104E-20         0.00000E+00
    0.66709E-09         0.00000E+00         0.00000E+00
    0.66709E-09        -0.58208E-20         0.00000E+00
    0.66709E-09        -0.17462E-19         0.00000E+00
    0.79720E-09         0.58208E-20         0.00000E+00
    0.79720E-09        -0.29104E-20         0.00000E+00
    0.79720E-09         0.10883E-19         0.00000E+00
    0.79720E-09         0.16007E-19         0.00000E+00
    0.79720E-09         0.94897E-20         0.00000E+00
    0.79720E-09         0.87311E-20         0.00000E+00
    0.79720E-09         0.14552E-19         0.00000E+00
    0.79720E-09         0.20373E-19         0.00000E+00
    0.79720E-09        -0.58208E-20         0.00000E+00
    0.79720E-09        -0.14552E-19         0.00000E+00
    0.79720E-09         0.87311E-20         0.00000E+00
    0.79720E-09         0.58208E-20         0.00000E+00
    0.79720E-09         0.29104E-20         0.00000E+00
    0.79720E-09         0.00000E+00         0.00000E+00
    0.79720E-09        -0.50623E-20         0.00000E+00
    0.79720E-09         0.73378E-20         0.00000E+00
    0.95265E-09         0.58208E-20         0.00000E+00
    0.95265E-09         0.58208E-20         0.00000E+00
    0.95265E-09         0.26193E-19         0.00000E+00
    0.95265E-09         0.38591E-19         0.00000E+00
    0.95265E-09         0.29104E-19         0.00000E+00
    0.95265E-09         0.18162E-19         0.00000E+00
    0.95265E-09         0.87311E-20         0.00000E+00
    0.95265E-09         0.29104E-20         0.00000E+00
    0.95265E-09         0.11642E-19         0.00000E+00
    0.95265E-09         0.29104E-20         0.00000E+00
    0.95265E-09        -0.87311E-20         0.00000E+00
    0.95265E-09         0.87311E-20         0.00000E+00
    0.95265E-09         0.29104E-20         0.00000E+00
    0.95265E-09        -0.10886E-19         0.00000E+00
    0.95265E-09        -0.36098E-20         0.00000E+00
    0.95265E-09        -0.58208E-20         0.00000E+00
    0.11383E-08        -0.11642E-19         0.00000E+00
    0.11383E-08         0.58208E-20         0.00000E+00
    0.11383E-08         0.29104E-19         0.00000E+00
    0.11383E-08         0.32014E-19         0.00000E+00
    0.11383E-08         0.20373E-19         0.00000E+00
    0.11383E-08         0.14552E-19         0.00000E+00
    0.11383E-08         0.26193E-19         0.00000E+00
    0.11383E-08         0.24036E-19         0.00000E+00
    0.11383E-08         0.75245E-21         0.00000E+00
    0.11383E-08        -0.58208E-20         0.00000E+00
    0.11383E-08         0.58208E-20         0.00000E+00
    0.11383E-08         0.29104E-20         0.00000E+00
    0.11383E-08        -0.29104E-20         0.00000E+00
    0.11383E-08        -0.29104E-20         0.00000E+00
    0.11383E-08        -0.87311E-20         0.00000E+00
    0.11383E-08        -0.17462E-19         0.00000E+00
    0.13602E-08         0.17462E-19         0.00000E+00
    0.13602E-08         0.12390E-19         0.00000E+00
    0.13602E-08         0.19666E-19         0.00000E+00
    0.13602E-08         0.28355E-19         0.00000E+00
    0.13602E-08         0.26193E-19         0.00000E+00
    0.13602E-08         0.24032E-19         0.00000E+00
    0.13602E-08         0.14552E-19         0.00000E+00
    0.13602E-08         0.87311E-20         0.00000E+00
    0.13602E-08         0.58208E-20         0.00000E+00
    0.13602E-08        -0.29104E-20         0.00000E+00
    0.13602E-08         0.29104E-20         0.00000E+00
    0.13602E-08         0.58208E-20         0.00000E+00
    0.13602E-08         0.29104E-20         0.00000E+00
    0.13602E-08         0.36171E-20         0.00000E+00
    0.13602E-08         0.00000E+00         0.00000E+00
    0.13602E-08        -0.14134E-20         0.00000E+00
    0.16251E-08         0.00000E+00         0.00000E+00
    0.16251E-08         0.15263E-19         0.00000E+00
    0.16251E-08         0.26193E-19         0.00000E+00
    0.16251E-08         0.26937E-19         0.00000E+00
    0.16251E-08         0.29104E-19         0.00000E+00
    0.16251E-08         0.23283E-19         0.00000E+00
    0.16251E-08         0.23283E-19         0.00000E+00
    0.16251E-08         0.17462E-19         0.00000E+00
    0.16251E-08         0.00000E+00         0.00000E+00
    0.16251E-08         0.58208E-20         0.00000E+00
    0.16251E-08         0.94426E-20         0.00000E+00
    0.16251E-08         0.29104E-20         0.00000E+00
    0.16251E-08         0.74379E-21         0.00000E+00
    0.16251E-08         0.79874E-20         0.00000E+00
    0.16251E-08         0.58208E-20         0.00000E+00
    0.16251E-08        -0.14228E-20         0.00000E+00
    0.19415E-08         0.00000E+00         0.00000E+00
    0.19415E-08         0.00000E+00         0.00000E+00
    0.19415E-08        -0.58208E-20         0.00000E+00
    0.19415E-08         0.14552E-19         0.00000E+00
    0.19415E-08         0.34925E-19         0.00000E+00
    0.19415E-08         0.26193E-19         0.00000E+00
    0.19415E-08         0.87311E-20         0.00000E+00
    0.19415E-08         0.87311E-20         0.00000E+00
    0.19415E-08         0.11642E-19         0.00000E+00
    0.19415E-08        -0.58208E-20         0.00000E+00
    0.19415E-08         0.58208E-20         0.00000E+00
    0.19415E-08         0.11642E-19         0.00000E+00
    0.19415E-08        -0.29104E-20         0.00000E+00
    0.19415E-08         0.21933E-20         0.00000E+00
    0.19415E-08         0.58208E-20         0.00000E+00
    0.19415E-08         0.43445E-20         0.00000E+00
    0.23193E-08         0.43579E-20         0.00000E+00
    0.23193E-08         0.50970E-20         0.00000E+00
    0.23193E-08         0.73143E-21         0.00000E+00
    0.23193E-08         0.10910E-19         0.00000E+00
    0.23193E-08         0.35648E-19         0.00000E+00
    0.23193E-08         0.24014E-19         0.00000E+00
    0.23193E-08         0.12373E-19         0.00000E+00
    0.23193E-08        -0.58208E-20         0.00000E+00
    0.23193E-08        -0.36341E-20         0.00000E+00
    0.23193E-08         0.19641E-19         0.00000E+00
    0.23193E-08        -0.50970E-20         0.00000E+00
    0.23193E-08        -0.21096E-19         0.00000E+00
    0.23193E-08         0.00000E+00         0.00000E+00
    0.23193E-08         0.12365E-19         0.00000E+00
    0.23193E-08         0.87311E-20         0.00000E+00
    0.23193E-08         0.17462E-19         0.00000E+00
    0.27705E-08        -0.23283E-19         0.00000E+00
    0.27705E-08        -0.65526E-20         0.00000E+00
    0.27705E-08         0.17462E-19         0.00000E+00
    0.27705E-08         0.14552E-19         0.00000E+00
    0.27705E-08         0.17462E-19         0.00000E+00
    0.27705E-08         0.20373E-19         0.00000E+00
    0.27705E-08        -0.58208E-20         0.00000E+00
    0.27705E-08        -0.87311E-20         0.00000E+00
    0.27705E-08         0.50890E-20         0.00000E+00
    0.27705E-08         0.58208E-20         0.00000E+00
    0.27705E-08         0.73180E-21         0.00000E+00
    0.27705E-08        -0.87311E-20         0.00000E+00
    0.27705E-08        -0.36422E-20         0.00000E+00
    0.27705E-08        -0.21786E-20         0.00000E+00
    0.27705E-08         0.29104E-20         0.00000E+00
    0.27705E-08         0.13088E-19         0.00000E+00
    0.33090E-08         0.11642E-19         0.00000E+00
    0.33090E-08        -0.74140E-21         0.00000E+00
    0.33090E-08         0.58208E-20         0.00000E+00
    0.33090E-08         0.31300E-19         0.00000E+00
    0.33090E-08         0.23283E-19         0.00000E+00
    0.33090E-08         0.58208E-20         0.00000E+00
    0.33090E-08         0.71379E-21         0.00000E+00
    0.33090E-08        -0.10186E-19         0.00000E+00
    0.33090E-08        -0.10186E-19         0.00000E+00
    0.33090E-08        -0.36518E-20         0.00000E+00
    0.33090E-08         0.29104E-20         0.00000E+00
    0.33090E-08         0.80174E-20         0.00000E+00
    0.33090E-08         0.36518E-20         0.00000E+00
    0.33090E-08        -0.14828E-20         0.00000E+00
    0.33090E-08         0.71379E-21         0.00000E+00
    0.33090E-08        -0.14276E-20         0.00000E+00
    0.39519E-08        -0.58208E-20         0.00000E+00
    0.39519E-08         0.11642E-19         0.00000E+00
    0.39519E-08         0.11642E-19         0.00000E+00
    0.39519E-08        -0.58208E-20         0.00000E+00
    0.39519E-08         0.29104E-20         0.00000E+00
    0.39519E-08         0.13799E-19         0.00000E+00
    0.39519E-08         0.17462E-19         0.00000E+00
    0.39519E-08         0.94840E-20         0.00000E+00
    0.39519E-08        -0.87311E-20         0.00000E+00
    0.39519E-08         0.00000E+00         0.00000E+00
    0.39519E-08         0.58208E-20         0.00000E+00
    0.39519E-08         0.70233E-21         0.00000E+00
    0.39519E-08         0.70233E-21         0.00000E+00
    0.39519E-08        -0.11642E-19         0.00000E+00
    0.39519E-08         0.29104E-20         0.00000E+00
    0.39519E-08         0.23283E-19         0.00000E+00
    0.47192E-08         0.44435E-20         0.00000E+00
    0.47192E-08         0.29104E-20         0.00000E+00
    0.47192E-08         0.21438E-20         0.00000E+00
    0.47192E-08         0.17462E-19         0.00000E+00
    0.47192E-08         0.23283E-19         0.00000E+00
    0.47192E-08         0.17462E-19         0.00000E+00
    0.47192E-08         0.58208E-20         0.00000E+00
    0.47192E-08         0.00000E+00         0.00000E+00
    0.47192E-08         0.58208E-20         0.00000E+00
    0.47192E-08         0.00000E+00         0.00000E+00
    0.47192E-08        -0.87311E-20         0.00000E+00
    0.47192E-08        -0.58208E-20         0.00000E+00
    0.47192E-08         0.15318E-19         0.00000E+00
    0.47192E-08         0.22594E-19         0.00000E+00
    0.47192E-08        -0.36769E-20         0.00000E+00
    0.47192E-08        -0.16085E-19         0.00000E+00
    0.56347E-08         0.71654E-20         0.00000E+00
    0.56347E-08         0.12424E-19         0.00000E+00
    0.56347E-08         0.12424E-19         0.00000E+00
    0.56347E-08         0.15224E-19         0.00000E+00
    0.56347E-08         0.18245E-19         0.00000E+00
    0.56347E-08        -0.35827E-20         0.00000E+00
    0.56347E-08         0.29104E-20         0.00000E+00
    0.56347E-08         0.15897E-19         0.00000E+00
    0.56347E-08         0.00000E+00         0.00000E+00
    0.56347E-08        -0.29104E-20         0.00000E+00
    0.56347E-08         0.71654E-20         0.00000E+00
    0.56347E-08         0.17462E-19         0.00000E+00
    0.56347E-08         0.15335E-19         0.00000E+00
    0.56347E-08         0.10969E-19         0.00000E+00
    0.56347E-08        -0.43656E-20         0.00000E+00
    0.56347E-08        -0.17462E-19         0.00000E+00
    0.67269E-08        -0.11642E-19         0.00000E+00
    0.67269E-08         0.66232E-20         0.00000E+00
    0.67269E-08         0.21828E-19         0.00000E+00
    0.67269E-08         0.10839E-19         0.00000E+00
    0.67269E-08         0.87311E-20         0.00000E+00
    0.67269E-08         0.95335E-20         0.00000E+00
    0.67269E-08         0.14552E-20         0.00000E+00
    0.67269E-08        -0.80239E-21         0.00000E+00
    0.67269E-08         0.10839E-19         0.00000E+00
    0.67269E-08         0.20373E-19         0.00000E+00
    0.67269E-08         0.10989E-19         0.00000E+00
    0.67269E-08         0.29104E-20         0.00000E+00
    0.67269E-08        -0.80239E-21         0.00000E+00
    0.67269E-08        -0.43656E-20         0.00000E+00
    0.67269E-08         0.80784E-20         0.00000E+00
    0.67269E-08         0.23283E-19         0.00000E+00
    0.80296E-08         0.17462E-19         0.00000E+00
    0.80296E-08         0.51913E-20         0.00000E+00
    0.80296E-08        -0.58208E-20         0.00000E+00
    0.80296E-08         0.12271E-19         0.00000E+00
    0.80296E-08         0.23283E-19         0.00000E+00
    0.80296E-08         0.22809E-20         0.00000E+00
    0.80296E-08        -0.93005E-34         0.00000E+00
    0.80296E-08         0.41694E-20         0.00000E+00
    0.80296E-08         0.15181E-19         0.00000E+00
    0.80296E-08         0.21198E-19         0.00000E+00
    0.80296E-08         0.87311E-20         0.00000E+00
    0.80296E-08         0.20847E-20         0.00000E+00
    0.80296E-08        -0.87311E-20         0.00000E+00
    0.80296E-08         0.22809E-20         0.00000E+00
    0.80296E-08         0.17462E-19         0.00000E+00
    0.80296E-08         0.12901E-19         0.00000E+00
    0.95830E-08        -0.58208E-20         0.00000E+00
    0.95830E-08        -0.29104E-20         0.00000E+00
    0.95830E-08         0.15154E-19         0.00000E+00
    0.95830E-08         0.20373E-19         0.00000E+00
    0.95830E-08         0.14552E-19         0.00000E+00
    0.95830E-08        -0.29104E-20         0.00000E+00
    0.95830E-08        -0.35121E-20         0.00000E+00
    0.95830E-08         0.25340E-19         0.00000E+00
    0.95830E-08         0.24487E-19         0.00000E+00
    0.95830E-08         0.21226E-19         0.00000E+00
    0.95830E-08         0.12495E-19         0.00000E+00
    0.95830E-08         0.29104E-20         0.00000E+00
    0.95830E-08         0.29104E-20         0.00000E+00
    0.95830E-08         0.49673E-20         0.00000E+00
    0.95830E-08        -0.87311E-20         0.00000E+00
    0.95830E-08        -0.11642E-19         0.00000E+00
    0.11435E-07        -0.58208E-20         0.00000E+00
    0.11435E-07        -0.29104E-20         0.00000E+00
    0.11435E-07         0.29104E-20         0.00000E+00
    0.11435E-07         0.11073E-19         0.00000E+00
    0.11435E-07         0.18917E-19         0.00000E+00
    0.11435E-07        -0.29104E-20         0.00000E+00
    0.11435E-07         0.58208E-20         0.00000E+00
    0.11435E-07         0.26762E-19         0.00000E+00
    0.11435E-07         0.34038E-19         0.00000E+00
    0.11435E-07         0.20373E-19         0.00000E+00
    0.11435E-07        -0.63893E-20         0.00000E+00
    0.11435E-07         0.20373E-19         0.00000E+00
    0.11435E-07         0.23283E-19         0.00000E+00
    0.11435E-07        -0.11642E-19         0.00000E+00
    0.11435E-07        -0.11642E-19         0.00000E+00
    0.11435E-07        -0.58208E-20         0.00000E+00
    0.13642E-07        -0.12700E-19         0.00000E+00
    0.13642E-07        -0.92602E-20         0.00000E+00
    0.13642E-07         0.00000E+00         0.00000E+00
    0.13642E-07         0.29104E-20         0.00000E+00
    0.13642E-07         0.78050E-20         0.00000E+00
    0.13642E-07         0.28178E-19         0.00000E+00
    0.13642E-07         0.40745E-19         0.00000E+00
    0.13642E-07         0.22754E-19         0.00000E+00
    0.13642E-07         0.12568E-19         0.00000E+00
    0.13642E-07         0.21431E-19         0.00000E+00
    0.13642E-07         0.21431E-19         0.00000E+00
    0.13642E-07         0.18388E-19         0.00000E+00
    0.13642E-07         0.14023E-19         0.00000E+00
    0.13642E-07        -0.29104E-20         0.00000E+00
    0.13642E-07        -0.58208E-20         0.00000E+00
    0.13642E-07         0.00000E+00         0.00000E+00
    0.16271E-07         0.17462E-19         0.00000E+00
    0.16271E-07         0.14552E-19         0.00000E+00
    0.16271E-07        -0.58208E-20         0.00000E+00
    0.16271E-07        -0.87311E-20         0.00000E+00
    0.16271E-07         0.29104E-19         0.00000E+00
    0.16271E-07         0.20373E-19         0.00000E+00
    0.16271E-07         0.00000E+00         0.00000E+00
    0.16271E-07         0.32014E-19         0.00000E+00
    0.16271E-07         0.49477E-19         0.00000E+00
    0.16271E-07         0.43656E-19         0.00000E+00
    0.16271E-07         0.37835E-19         0.00000E+00
    0.16271E-07         0.14552E-19         0.00000E+00
    0.16271E-07         0.29104E-20         0.00000E+00
    0.16271E-07         0.15034E-19         0.00000E+00
    0.16271E-07         0.14552E-19         0.00000E+00
    0.16271E-07         0.10678E-19         0.00000E+00
    0.19402E-07         0.11642E-19         0.00000E+00
    0.19402E-07        -0.58208E-20         0.00000E+00
    0.19402E-07        -0.12067E-19         0.00000E+00
    0.19402E-07         0.77016E-20         0.00000E+00
    0.19402E-07         0.77016E-20         0.00000E+00
    0.19402E-07         0.83055E-20         0.00000E+00
    0.19402E-07         0.26193E-19         0.00000E+00
    0.19402E-07         0.32440E-19         0.00000E+00
    0.19402E-07         0.42626E-19         0.00000E+00
    0.19402E-07         0.49051E-19         0.00000E+00
    0.19402E-07         0.35954E-19         0.00000E+00
    0.19402E-07         0.26193E-19         0.00000E+00
    0.19402E-07         0.11216E-19         0.00000E+00
    0.19402E-07         0.58208E-20         0.00000E+00
    0.19402E-07         0.10612E-19         0.00000E+00
    0.19402E-07         0.00000E+00         0.00000E+00
    0.23130E-07        -0.11642E-19         0.00000E+00
    0.23130E-07        -0.29104E-20         0.00000E+00
    0.23130E-07         0.29104E-20         0.00000E+00
    0.23130E-07         0.29104E-20         0.00000E+00
    0.23130E-07         0.17462E-19         0.00000E+00
    0.23130E-07         0.20373E-19         0.00000E+00
    0.23130E-07         0.26193E-19         0.00000E+00
    0.23130E-07         0.46566E-19         0.00000E+00
    0.23130E-07         0.48739E-19         0.00000E+00
    0.23130E-07         0.47283E-19         0.00000E+00
    0.23130E-07         0.46566E-19         0.00000E+00
    0.23130E-07         0.25476E-19         0.00000E+00
    0.23130E-07         0.36484E-20         0.00000E+00
    0.23130E-07        -0.29104E-20         0.00000E+00
    0.23130E-07         0.29104E-20         0.00000E+00
    0.23130E-07         0.58208E-20         0.00000E+00
    0.27565E-07         0.25078E-19         0.00000E+00
    0.27565E-07         0.15450E-19         0.00000E+00
    0.27565E-07         0.20127E-20         0.00000E+00
    0.27565E-07         0.87311E-20         0.00000E+00
    0.27565E-07         0.23283E-19         0.00000E+00
    0.27565E-07         0.36380E-19         0.00000E+00
    0.27565E-07         0.49477E-19         0.00000E+00
    0.27565E-07         0.51489E-19         0.00000E+00
    0.27565E-07         0.49477E-19         0.00000E+00
    0.27565E-07         0.43656E-19         0.00000E+00
    0.27565E-07         0.37835E-19         0.00000E+00
    0.27565E-07         0.23283E-19         0.00000E+00
    0.27565E-07         0.14552E-19         0.00000E+00
    0.27565E-07         0.81737E-20         0.00000E+00
    0.27565E-07        -0.34679E-20         0.00000E+00
    0.27565E-07        -0.11642E-19         0.00000E+00
    0.32840E-07        -0.58208E-20         0.00000E+00
    0.32840E-07         0.58208E-20         0.00000E+00
    0.32840E-07         0.17462E-19         0.00000E+00
    0.32840E-07         0.20373E-19         0.00000E+00
    0.32840E-07         0.32014E-19         0.00000E+00
    0.32840E-07         0.29104E-19         0.00000E+00
    0.32840E-07         0.37835E-19         0.00000E+00
    0.32840E-07         0.52387E-19         0.00000E+00
    0.32840E-07         0.52387E-19         0.00000E+00
    0.32840E-07         0.61118E-19         0.00000E+00
    0.32840E-07         0.43656E-19         0.00000E+00
    0.32840E-07         0.20373E-19         0.00000E+00
    0.32840E-07         0.29104E-20         0.00000E+00
    0.32840E-07        -0.39984E-20         0.00000E+00
    0.32840E-07        -0.58208E-20         0.00000E+00
    0.32840E-07        -0.12376E-19         0.00000E+00
    0.39109E-07         0.00000E+00         0.00000E+00
    0.39109E-07         0.58208E-20         0.00000E+00
    0.39109E-07         0.11642E-19         0.00000E+00
    0.39109E-07         0.23283E-19         0.00000E+00
    0.39109E-07         0.26193E-19         0.00000E+00
    0.39109E-07         0.37835E-19         0.00000E+00
    0.39109E-07         0.49477E-19         0.00000E+00
    0.39109E-07         0.43656E-19         0.00000E+00
    0.39109E-07         0.46566E-19         0.00000E+00
    0.39109E-07         0.46566E-19         0.00000E+00
    0.39109E-07         0.49477E-19         0.00000E+00
    0.39109E-07         0.26193E-19         0.00000E+00
    0.39109E-07        -0.58208E-20         0.00000E+00
    0.39109E-07        -0.87311E-20         0.00000E+00
    0.39109E-07         0.29104E-20         0.00000E+00
    0.39109E-07         0.11642E-19         0.00000E+00
    0.46557E-07         0.58208E-20         0.00000E+00
    0.46557E-07         0.29104E-20         0.00000E+00
    0.46557E-07         0.29104E-20         0.00000E+00
    0.46557E-07         0.58208E-20         0.00000E+00
    0.46557E-07         0.29104E-19         0.00000E+00
    0.46557E-07         0.43656E-19         0.00000E+00
    0.46557E-07         0.43656E-19         0.00000E+00
    0.46557E-07         0.49477E-19         0.00000E+00
    0.46557E-07         0.37835E-19         0.00000E+00
    0.46557E-07         0.37835E-19         0.00000E+00
    0.46557E-07         0.39161E-19         0.00000E+00
    0.46557E-07         0.26064E-19         0.00000E+00
    0.46557E-07         0.13226E-19         0.00000E+00
    0.46557E-07         0.44946E-20         0.00000E+00
    0.46557E-07         0.14552E-20         0.00000E+00
    0.46557E-07        -0.58208E-20         0.00000E+00
    0.55398E-07         0.38100E-20         0.00000E+00
    0.55398E-07         0.29104E-20         0.00000E+00
    0.55398E-07         0.12647E-19         0.00000E+00
    0.55398E-07         0.17462E-19         0.00000E+00
    0.55398E-07         0.34925E-19         0.00000E+00
    0.55398E-07         0.37835E-19         0.00000E+00
    0.55398E-07         0.29104E-19         0.00000E+00
    0.55398E-07         0.40745E-19         0.00000E+00
    0.55398E-07         0.51381E-19         0.00000E+00
    0.55398E-07         0.49477E-19         0.00000E+00
    0.55398E-07         0.25294E-19         0.00000E+00
    0.55398E-07         0.20373E-19         0.00000E+00
    0.55398E-07         0.10636E-19         0.00000E+00
    0.55398E-07        -0.13547E-19         0.00000E+00
    0.55398E-07         0.41377E-34         0.00000E+00
    0.55398E-07         0.38100E-20         0.00000E+00
    0.65884E-07        -0.13304E-19         0.00000E+00
    0.65884E-07        -0.14552E-20         0.00000E+00
    0.65884E-07         0.58208E-20         0.00000E+00
    0.65884E-07         0.18917E-19         0.00000E+00
    0.65884E-07         0.33469E-19         0.00000E+00
    0.65884E-07         0.28273E-19         0.00000E+00
    0.65884E-07         0.32014E-19         0.00000E+00
    0.65884E-07         0.46566E-19         0.00000E+00
    0.65884E-07         0.40745E-19         0.00000E+00
    0.65884E-07         0.29104E-19         0.00000E+00
    0.65884E-07         0.32014E-19         0.00000E+00
    0.65884E-07         0.26193E-19         0.00000E+00
    0.65884E-07         0.11642E-19         0.00000E+00
    0.65884E-07         0.87311E-20         0.00000E+00
    0.65884E-07        -0.62399E-21         0.00000E+00
    0.65884E-07        -0.70688E-20         0.00000E+00
    0.78311E-07         0.58208E-20         0.00000E+00
    0.78311E-07         0.00000E+00         0.00000E+00
    0.78311E-07         0.00000E+00         0.00000E+00
    0.78311E-07         0.58208E-20         0.00000E+00
    0.78311E-07         0.26193E-19         0.00000E+00
    0.78311E-07         0.40745E-19         0.00000E+00
    0.78311E-07         0.34925E-19         0.00000E+00
    0.78311E-07         0.34925E-19         0.00000E+00
    0.78311E-07         0.32014E-19         0.00000E+00
    0.78311E-07         0.37835E-19         0.00000E+00
    0.78311E-07         0.34925E-19         0.00000E+00
    0.78311E-07         0.23283E-19         0.00000E+00
    0.78311E-07         0.58208E-20         0.00000E+00
    0.78311E-07        -0.87311E-20         0.00000E+00
    0.78311E-07        -0.58208E-20         0.00000E+00
    0.78311E-07        -0.58208E-20         0.00000E+00
    0.93024E-07         0.50858E-20         0.00000E+00
    0.93024E-07         0.29104E-20         0.00000E+00
    0.93024E-07        -0.14552E-20         0.00000E+00
    0.93024E-07        -0.32779E-20         0.00000E+00
    0.93024E-07         0.14552E-19         0.00000E+00
    0.93024E-07         0.37835E-19         0.00000E+00
    0.93024E-07         0.49477E-19         0.00000E+00
    0.93024E-07         0.43656E-19         0.00000E+00
    0.93024E-07         0.34925E-19         0.00000E+00
    0.93024E-07         0.20373E-19         0.00000E+00
    0.93024E-07         0.14552E-19         0.00000E+00
    0.93024E-07         0.11642E-19         0.00000E+00
    0.93024E-07         0.00000E+00         0.00000E+00
    0.93024E-07        -0.87311E-20         0.00000E+00
    0.93024E-07        -0.54533E-20         0.00000E+00
    0.93024E-07         0.65557E-20         0.00000E+00
    0.11042E-06         0.00000E+00         0.00000E+00
    0.11042E-06         0.00000E+00         0.00000E+00
    0.11042E-06        -0.87311E-20         0.00000E+00
    0.11042E-06         0.58208E-20         0.00000E+00
    0.11042E-06         0.23283E-19         0.00000E+00
    0.11042E-06         0.20373E-19         0.00000E+00
    0.11042E-06         0.26193E-19         0.00000E+00
    0.11042E-06         0.37835E-19         0.00000E+00
    0.11042E-06         0.37835E-19         0.00000E+00
    0.11042E-06         0.26193E-19         0.00000E+00
    0.11042E-06         0.11642E-19         0.00000E+00
    0.11042E-06         0.14552E-19         0.00000E+00
    0.11042E-06         0.14552E-19         0.00000E+00
    0.11042E-06         0.00000E+00         0.00000E+00
    0.11042E-06         0.29104E-20         0.00000E+00
    0.11042E-06         0.58208E-20         0.00000E+00
    0.13098E-06         0.00000E+00         0.00000E+00
    0.13098E-06         0.58208E-20         0.00000E+00
    0.13098E-06         0.87311E-20         0.00000E+00
    0.13098E-06        -0.29104E-20         0.00000E+00
    0.13098E-06         0.29104E-20         0.00000E+00
    0.13098E-06         0.26193E-19         0.00000E+00
    0.13098E-06         0.32014E-19         0.00000E+00
    0.13098E-06         0.29104E-19         0.00000E+00
    0.13098E-06         0.26193E-19         0.00000E+00
    0.13098E-06         0.23283E-19         0.00000E+00
    0.13098E-06         0.20373E-19         0.00000E+00
    0.13098E-06         0.58208E-20         0.00000E+00
    0.13098E-06         0.00000E+00         0.00000E+00
    0.13098E-06         0.14552E-19         0.00000E+00
    0.13098E-06         0.58208E-20         0.00000E+00
    0.13098E-06        -0.11642E-19         0.00000E+00
    0.15522E-06        -0.58208E-20         0.00000E+00
    0.15522E-06         0.00000E+00         0.00000E+00
    0.15522E-06         0.58208E-20         0.00000E+00
    0.15522E-06         0.87311E-20         0.00000E+00
    0.15522E-06         0.87311E-20         0.00000E+00
    0.15522E-06         0.14552E-19         0.00000E+00
    0.15522E-06         0.34925E-19         0.00000E+00
    0.15522E-06         0.43656E-19         0.00000E+00
    0.15522E-06         0.29104E-19         0.00000E+00
    0.15522E-06         0.17462E-19         0.00000E+00
    0.15522E-06         0.11891E-19         0.00000E+00
    0.15522E-06         0.46154E-20         0.00000E+00
    0.15522E-06         0.55709E-20         0.00000E+00
    0.15522E-06         0.87311E-20         0.00000E+00
    0.15522E-06         0.24985E-21         0.00000E+00
    0.15522E-06        -0.58208E-20         0.00000E+00
    0.18378E-06         0.16175E-19         0.00000E+00
    0.18378E-06         0.14552E-19         0.00000E+00
    0.18378E-06         0.64642E-20         0.00000E+00
    0.18378E-06        -0.20986E-20         0.00000E+00
    0.18378E-06         0.13908E-19         0.00000E+00
    0.18378E-06         0.29747E-19         0.00000E+00
    0.18378E-06         0.32658E-19         0.00000E+00
    0.18378E-06         0.37835E-19         0.00000E+00
    0.18378E-06         0.26193E-19         0.00000E+00
    0.18378E-06         0.17462E-19         0.00000E+00
    0.18378E-06         0.11642E-19         0.00000E+00
    0.18378E-06         0.00000E+00         0.00000E+00
    0.18378E-06        -0.58208E-20         0.00000E+00
    0.18378E-06         0.35538E-20         0.00000E+00
    0.18378E-06         0.29104E-20         0.00000E+00
    0.18378E-06        -0.41972E-20         0.00000E+00
    0.21734E-06         0.58208E-20         0.00000E+00
    0.21734E-06         0.11642E-19         0.00000E+00
    0.21734E-06         0.11642E-19         0.00000E+00
    0.21734E-06         0.37541E-20         0.00000E+00
    0.21734E-06         0.15396E-19         0.00000E+00
    0.21734E-06         0.25350E-19         0.00000E+00
    0.21734E-06         0.28260E-19         0.00000E+00
    0.21734E-06         0.34925E-19         0.00000E+00
    0.21734E-06         0.26193E-19         0.00000E+00
    0.21734E-06         0.52093E-20         0.00000E+00
    0.21734E-06        -0.58208E-20         0.00000E+00
    0.21734E-06         0.58208E-20         0.00000E+00
    0.21734E-06         0.12485E-19         0.00000E+00
    0.21734E-06         0.00000E+00         0.00000E+00
    0.21734E-06         0.00000E+00         0.00000E+00
    0.21734E-06         0.58208E-20         0.00000E+00
    0.25673E-06         0.10366E-19         0.00000E+00
    0.25673E-06         0.11642E-19         0.00000E+00
    0.25673E-06         0.50032E-20         0.00000E+00
    0.25673E-06        -0.58208E-20         0.00000E+00
    0.25673E-06         0.00000E+00         0.00000E+00
    0.25673E-06         0.20373E-19         0.00000E+00
    0.25673E-06         0.37835E-19         0.00000E+00
    0.25673E-06         0.26193E-19         0.00000E+00
    0.25673E-06         0.23283E-19         0.00000E+00
    0.25673E-06         0.17462E-19         0.00000E+00
    0.25673E-06         0.14552E-19         0.00000E+00
    0.25673E-06         0.11642E-19         0.00000E+00
    0.25673E-06        -0.58208E-20         0.00000E+00
    0.25673E-06        -0.63766E-21         0.00000E+00
    0.25673E-06         0.37279E-20         0.00000E+00
    0.25673E-06         0.00000E+00         0.00000E+00
    0.30284E-06         0.00000E+00         0.00000E+00
    0.30284E-06        -0.92576E-20         0.00000E+00
    0.30284E-06        -0.10713E-19         0.00000E+00
    0.30284E-06         0.29104E-20         0.00000E+00
    0.30284E-06         0.14552E-19         0.00000E+00
    0.30284E-06         0.26193E-19         0.00000E+00
    0.30284E-06         0.40745E-19         0.00000E+00
    0.30284E-06         0.32014E-19         0.00000E+00
    0.30284E-06         0.19444E-19         0.00000E+00
    0.30284E-06         0.19444E-19         0.00000E+00
    0.30284E-06         0.58208E-20         0.00000E+00
    0.30284E-06         0.92873E-21         0.00000E+00
    0.30284E-06         0.14552E-19         0.00000E+00
    0.30284E-06         0.34368E-20         0.00000E+00
    0.30284E-06        -0.87311E-20         0.00000E+00
    0.30284E-06         0.00000E+00         0.00000E+00
    0.35666E-06         0.00000E+00         0.00000E+00
    0.35666E-06         0.00000E+00         0.00000E+00
    0.35666E-06        -0.29104E-20         0.00000E+00
    0.35666E-06         0.29104E-20         0.00000E+00
    0.35666E-06         0.14552E-19         0.00000E+00
    0.35666E-06         0.26193E-19         0.00000E+00
    0.35666E-06         0.34925E-19         0.00000E+00
    0.35666E-06         0.36306E-19         0.00000E+00
    0.35666E-06         0.39217E-19         0.00000E+00
    0.35666E-06         0.20373E-19         0.00000E+00
    0.35666E-06         0.87311E-20         0.00000E+00
    0.35666E-06         0.73494E-20         0.00000E+00
    0.35666E-06        -0.11642E-19         0.00000E+00
    0.35666E-06        -0.14552E-19         0.00000E+00
    0.35666E-06        -0.29104E-20         0.00000E+00
    0.35666E-06         0.27635E-20         0.00000E+00
    0.41932E-06        -0.11642E-19         0.00000E+00
    0.41932E-06        -0.87311E-20         0.00000E+00
    0.41932E-06        -0.91540E-20         0.00000E+00
    0.41932E-06         0.29104E-20         0.00000E+00
    0.41932E-06         0.38258E-19         0.00000E+00
    0.41932E-06         0.43656E-19         0.00000E+00
    0.41932E-06         0.34925E-19         0.00000E+00
    0.41932E-06         0.34925E-19         0.00000E+00
    0.41932E-06         0.29527E-19         0.00000E+00
    0.41932E-06         0.20373E-19         0.00000E+00
    0.41932E-06         0.24875E-20         0.00000E+00
    0.41932E-06         0.87311E-20         0.00000E+00
    0.41932E-06         0.29104E-20         0.00000E+00
    0.41932E-06        -0.29104E-20         0.00000E+00
    0.41932E-06         0.29104E-20         0.00000E+00
    0.41932E-06         0.00000E+00         0.00000E+00
    0.49198E-06         0.28096E-19         0.00000E+00
    0.49198E-06         0.82275E-20         0.00000E+00
    0.49198E-06        -0.58208E-20         0.00000E+00
    0.49198E-06         0.34140E-20         0.00000E+00
    0.49198E-06         0.20876E-19         0.00000E+00
    0.49198E-06         0.46062E-19         0.00000E+00
    0.49198E-06         0.46062E-19         0.00000E+00
    0.49198E-06         0.23283E-19         0.00000E+00
    0.49198E-06         0.18470E-19         0.00000E+00
    0.49198E-06         0.33469E-19         0.00000E+00
    0.49198E-06         0.21324E-19         0.00000E+00
    0.49198E-06         0.11642E-19         0.00000E+00
    0.49198E-06         0.00000E+00         0.00000E+00
    0.49198E-06        -0.11138E-19         0.00000E+00
    0.49198E-06         0.29104E-20         0.00000E+00
    0.49198E-06         0.11642E-19         0.00000E+00
    0.57592E-06        -0.21081E-21         0.00000E+00
    0.57592E-06         0.29104E-20         0.00000E+00
    0.57592E-06         0.17568E-19         0.00000E+00
    0.57592E-06         0.17568E-19         0.00000E+00
    0.57592E-06         0.20373E-19         0.00000E+00
    0.57592E-06         0.29104E-19         0.00000E+00
    0.57592E-06         0.34925E-19         0.00000E+00
    0.57592E-06         0.32014E-19         0.00000E+00
    0.57592E-06         0.32014E-19         0.00000E+00
    0.57592E-06         0.32014E-19         0.00000E+00
    0.57592E-06         0.16007E-19         0.00000E+00
    0.57592E-06         0.14447E-19         0.00000E+00
    0.57592E-06         0.10541E-21         0.00000E+00
    0.57592E-06        -0.58208E-20         0.00000E+00
    0.57592E-06        -0.87311E-20         0.00000E+00
    0.57592E-06        -0.17251E-19         0.00000E+00
    0.67240E-06         0.11642E-19         0.00000E+00
    0.67240E-06         0.16849E-19         0.00000E+00
    0.67240E-06         0.87311E-20         0.00000E+00
    0.67240E-06         0.64338E-20         0.00000E+00
    0.67240E-06         0.29946E-19         0.00000E+00
    0.67240E-06         0.30559E-19         0.00000E+00
    0.67240E-06         0.22441E-19         0.00000E+00
    0.67240E-06         0.29104E-19         0.00000E+00
    0.67240E-06         0.26193E-19         0.00000E+00
    0.67240E-06         0.20373E-19         0.00000E+00
    0.67240E-06         0.23283E-19         0.00000E+00
    0.67240E-06         0.11642E-19         0.00000E+00
    0.67240E-06         0.00000E+00         0.00000E+00
    0.67240E-06        -0.29104E-20         0.00000E+00
    0.67240E-06        -0.14552E-20         0.00000E+00
    0.67240E-06         0.00000E+00         0.00000E+00
    0.78266E-06        -0.19207E-20         0.00000E+00
    0.78266E-06         0.14552E-20         0.00000E+00
    0.78266E-06         0.24155E-20         0.00000E+00
    0.78266E-06         0.20868E-19         0.00000E+00
    0.78266E-06         0.14552E-19         0.00000E+00
    0.78266E-06         0.17462E-19         0.00000E+00
    0.78266E-06         0.43656E-19         0.00000E+00
    0.78266E-06         0.32014E-19         0.00000E+00
    0.78266E-06         0.22323E-19         0.00000E+00
    0.78266E-06         0.23283E-19         0.00000E+00
    0.78266E-06         0.14552E-19         0.00000E+00
    0.78266E-06         0.29104E-20         0.00000E+00
    0.78266E-06         0.00000E+00         0.00000E+00
    0.78266E-06         0.00000E+00         0.00000E+00
    0.78266E-06         0.29104E-20         0.00000E+00
    0.78266E-06         0.58208E-20         0.00000E+00
    0.90779E-06         0.11642E-19         0.00000E+00
    0.90779E-06         0.14221E-19         0.00000E+00
    0.90779E-06        -0.14552E-20         0.00000E+00
    0.90779E-06        -0.11241E-20         0.00000E+00
    0.90779E-06         0.22952E-19         0.00000E+00
    0.90779E-06         0.32014E-19         0.00000E+00
    0.90779E-06         0.23614E-19         0.00000E+00
    0.90779E-06         0.23283E-19         0.00000E+00
    0.90779E-06         0.31683E-19         0.00000E+00
    0.90779E-06         0.20042E-19         0.00000E+00
    0.90779E-06         0.32415E-20         0.00000E+00
    0.90779E-06         0.32415E-20         0.00000E+00
    0.90779E-06         0.32415E-20         0.00000E+00
    0.90779E-06        -0.33113E-21         0.00000E+00
    0.90779E-06        -0.64830E-20         0.00000E+00
    0.90779E-06        -0.11642E-19         0.00000E+00
    0.10486E-05         0.00000E+00         0.00000E+00
    0.10486E-05         0.34051E-20         0.00000E+00
    0.10486E-05         0.87311E-20         0.00000E+00
    0.10486E-05         0.58208E-20         0.00000E+00
    0.10486E-05         0.14552E-19         0.00000E+00
    0.10486E-05         0.25699E-19         0.00000E+00
    0.10486E-05         0.26193E-19         0.00000E+00
    0.10486E-05         0.23283E-19         0.00000E+00
    0.10486E-05         0.26193E-19         0.00000E+00
    0.10486E-05         0.20373E-19         0.00000E+00
    0.10486E-05         0.11642E-19         0.00000E+00
    0.10486E-05         0.87311E-20         0.00000E+00
    0.10486E-05         0.58208E-20         0.00000E+00
    0.10486E-05        -0.43656E-20         0.00000E+00
    0.10486E-05        -0.14552E-19         0.00000E+00
    0.10486E-05        -0.11642E-19         0.00000E+00
    0.12053E-05         0.00000E+00         0.00000E+00
    0.12053E-05         0.14552E-20         0.00000E+00
    0.12053E-05         0.43656E-20         0.00000E+00
    0.12053E-05         0.16007E-19         0.00000E+00
    0.12053E-05         0.18917E-19         0.00000E+00
    0.12053E-05         0.21828E-19         0.00000E+00
    0.12053E-05         0.27649E-19         0.00000E+00
    0.12053E-05         0.26193E-19         0.00000E+00
    0.12053E-05         0.21828E-19         0.00000E+00
    0.12053E-05         0.11642E-19         0.00000E+00
    0.12053E-05         0.58208E-20         0.00000E+00
    0.12053E-05         0.43656E-20         0.00000E+00
    0.12053E-05         0.93778E-20         0.00000E+00
    0.12053E-05         0.28294E-20         0.00000E+00
    0.12053E-05        -0.13097E-19         0.00000E+00
    0.12053E-05        -0.17462E-19         0.00000E+00
    0.13775E-05        -0.16614E-20         0.00000E+00
    0.13775E-05         0.58208E-20         0.00000E+00
    0.13775E-05         0.81067E-20         0.00000E+00
    0.13775E-05         0.29104E-20         0.00000E+00
    0.13775E-05         0.17462E-19         0.00000E+00
    0.13775E-05         0.19542E-19         0.00000E+00
    0.13775E-05         0.16007E-19         0.00000E+00
    0.13775E-05         0.19748E-19         0.00000E+00
    0.13775E-05         0.18917E-19         0.00000E+00
    0.13775E-05         0.17462E-19         0.00000E+00
    0.13775E-05         0.11017E-19         0.00000E+00
    0.13775E-05         0.43656E-20         0.00000E+00
    0.13775E-05        -0.22859E-20         0.00000E+00
    0.13775E-05        -0.87311E-20         0.00000E+00
    0.13775E-05         0.00000E+00         0.00000E+00
    0.13775E-05         0.87311E-20         0.00000E+00
    0.15633E-05         0.87311E-20         0.00000E+00
    0.15633E-05        -0.10922E-19         0.00000E+00
    0.15633E-05        -0.10195E-19         0.00000E+00
    0.15633E-05         0.19653E-19         0.00000E+00
    0.15633E-05         0.43656E-20         0.00000E+00
    0.15633E-05         0.29020E-20         0.00000E+00
    0.15633E-05         0.26193E-19         0.00000E+00
    0.15633E-05         0.17462E-19         0.00000E+00
    0.15633E-05         0.11642E-19         0.00000E+00
    0.15633E-05         0.11642E-19         0.00000E+00
    0.15633E-05         0.58208E-20         0.00000E+00
    0.15633E-05         0.43656E-20         0.00000E+00
    0.15633E-05         0.29104E-20         0.00000E+00
    0.15633E-05         0.13105E-19         0.00000E+00
    0.15633E-05        -0.72760E-20         0.00000E+00
    0.15633E-05        -0.39307E-19         0.00000E+00
    0.17591E-05         0.13640E-19         0.00000E+00
    0.17591E-05         0.14552E-20         0.00000E+00
    0.17591E-05        -0.82749E-20         0.00000E+00
    0.17591E-05         0.00000E+00         0.00000E+00
    0.17591E-05         0.29104E-20         0.00000E+00
    0.17591E-05         0.13097E-19         0.00000E+00
    0.17591E-05         0.24738E-19         0.00000E+00
    0.17591E-05         0.21372E-19         0.00000E+00
    0.17591E-05         0.58208E-20         0.00000E+00
    0.17591E-05         0.33666E-20         0.00000E+00
    0.17591E-05         0.87311E-20         0.00000E+00
    0.17591E-05         0.58208E-20         0.00000E+00
    0.17591E-05        -0.45621E-21         0.00000E+00
    0.17591E-05        -0.72760E-20         0.00000E+00
    0.17591E-05        -0.50932E-20         0.00000E+00
    0.17591E-05        -0.91242E-21         0.00000E+00
    0.19586E-05        -0.59230E-19         0.00000E+00
    0.19586E-05        -0.58208E-20         0.00000E+00
    0.19586E-05         0.12153E-19         0.00000E+00
    0.19586E-05        -0.11642E-19         0.00000E+00
    0.19586E-05         0.43656E-20         0.00000E+00
    0.19586E-05         0.11642E-19         0.00000E+00
    0.19586E-05         0.17462E-19         0.00000E+00
    0.19586E-05         0.16007E-19         0.00000E+00
    0.19586E-05         0.13097E-19         0.00000E+00
    0.19586E-05         0.72760E-20         0.00000E+00
    0.19586E-05        -0.16518E-19         0.00000E+00
    0.19586E-05        -0.13608E-19         0.00000E+00
    0.19586E-05         0.00000E+00         0.00000E+00
    0.19586E-05        -0.72760E-21         0.00000E+00
    0.19586E-05        -0.21828E-20         0.00000E+00
    0.19586E-05        -0.87311E-20         0.00000E+00
    0.21516E-05         0.87311E-20         0.00000E+00
    0.21516E-05        -0.19022E-19         0.00000E+00
    0.21516E-05        -0.18190E-20         0.00000E+00
    0.21516E-05         0.18659E-19         0.00000E+00
    0.21516E-05        -0.21828E-20         0.00000E+00
    0.21516E-05         0.43656E-20         0.00000E+00
    0.21516E-05         0.10186E-19         0.00000E+00
    0.21516E-05         0.12369E-19         0.00000E+00
    0.21516E-05         0.94587E-20         0.00000E+00
    0.21516E-05         0.43656E-20         0.00000E+00
    0.21516E-05        -0.23024E-19         0.00000E+00
    0.21516E-05        -0.43656E-20         0.00000E+00
    0.21516E-05         0.17567E-19         0.00000E+00
    0.21516E-05        -0.29936E-19         0.00000E+00
    0.21516E-05        -0.24479E-19         0.00000E+00
    0.21516E-05         0.58208E-20         0.00000E+00
    0.23224E-05         0.29104E-20         0.00000E+00
    0.23224E-05        -0.29104E-20         0.00000E+00
    0.23224E-05        -0.58208E-20         0.00000E+00
    0.23224E-05        -0.50932E-20         0.00000E+00
    0.23224E-05        -0.50932E-20         0.00000E+00
    0.23224E-05        -0.29104E-20         0.00000E+00
    0.23224E-05         0.43656E-20         0.00000E+00
    0.23224E-05         0.87311E-20         0.00000E+00
    0.23224E-05         0.65484E-20         0.00000E+00
    0.23224E-05         0.65484E-20         0.00000E+00
    0.23224E-05         0.29104E-20         0.00000E+00
    0.23224E-05        -0.36380E-21         0.00000E+00
    0.23224E-05        -0.43656E-20         0.00000E+00
    0.23224E-05        -0.19800E-20         0.00000E+00
    0.23224E-05        -0.65484E-20         0.00000E+00
    0.23224E-05        -0.16413E-19         0.00000E+00
    0.24478E-05        -0.17462E-19         0.00000E+00
    0.24478E-05        -0.40018E-20         0.00000E+00
    0.24478E-05        -0.47294E-20         0.00000E+00
    0.24478E-05        -0.69122E-20         0.00000E+00
    0.24478E-05        -0.47294E-20         0.00000E+00
    0.24478E-05         0.72760E-21         0.00000E+00
    0.24478E-05        -0.32742E-20         0.00000E+00
    0.24478E-05        -0.10914E-20         0.00000E+00
    0.24478E-05         0.52751E-20         0.00000E+00
    0.24478E-05        -0.10914E-20         0.00000E+00
    0.24478E-05         0.45475E-20         0.00000E+00
    0.24478E-05         0.58208E-20         0.00000E+00
    0.24478E-05         0.32742E-20         0.00000E+00
    0.24478E-05        -0.29104E-20         0.00000E+00
    0.24478E-05         0.47294E-20         0.00000E+00
    0.24478E-05         0.10914E-19         0.00000E+00
    0.24957E-05         0.53198E-19         0.00000E+00
    0.24957E-05        -0.26599E-19         0.00000E+00
    0.24957E-05        -0.26599E-19         0.00000E+00
    0.24957E-05         0.26599E-19         0.00000E+00
    0.24957E-05         0.26599E-19         0.00000E+00
    0.24957E-05        -0.26599E-19         0.00000E+00
    0.24957E-05        -0.26599E-19         0.00000E+00
    0.24957E-05        -0.42130E-34         0.00000E+00
    0.24957E-05        -0.26599E-19         0.00000E+00
    0.24957E-05         0.26599E-19         0.00000E+00
    0.24957E-05         0.26599E-19         0.00000E+00
    0.24957E-05        -0.26599E-19         0.00000E+00
    0.24957E-05        -0.30093E-34         0.00000E+00
    0.24957E-05         0.26599E-19         0.00000E+00
    0.24957E-05         0.00000E+00         0.00000E+00
    0.24957E-05         0.00000E+00         0.00000E+00
CELL_DATA       1350
TENSORS stressef double 
    0.25808E+06         0.90350E-11         0.00000E+00
    0.90350E-11        -0.25808E+06         0.00000E+00
    0.00000E+00         0.00000E+00        -0.23539E-01
 
    0.25808E+06         0.63245E-10         0.00000E+00
    0.63245E-10        -0.25808E+06         0.00000E+00
    0.00000E+00         0.00000E+00        -0.23539E-01
 
    0.25808E+06         0.63245E-10         0.00000E+00
    0.63245E-10        -0.25808E+06         0.00000E+00
    0.00000E+00         0.00000E+00        -0.23539E-01
 
    0.25808E+06        -0.90350E-11         0.00000E+00
   -0.90350E-11        -0.25808E+06         0.00000E+00
    0.00000E+00         0.00000E+00        -0.23539E-01
 
    0.25808E+06         0.31623E-10         0.00000E+00
    0.31623E-10        -0.25808E+06         0.00000E+00
    0.00000E+00         0.00000E+00        -0.23539E-01
 
    0.25808E+06        -0.85833E-10         0.00000E+00
   -0.85833E-10        -0.25808E+06         0.00000E+00
    0.00000E+00         0.00000E+00        -0.23539E-01
 
    0.25808E+06        -0.90350E-10         0.00000E+00
   -0.90350E-10        -0.25808E+06         0.00000E+00
    0.00000E+00         0.00000E+00        -0.23539E-01
 
    0.25808E+06        -0.90350E-11         0.00000E+00
   -0.90350E-11        -0.25808E+06         0.00000E+00
    0.00000E+00         0.00000E+00        -0.23539E-01
 
    0.25808E+06        -0.24846E-10         0.00000E+00
   -0.24846E-10        -0.25808E+06         0.00000E+00
    0.00000E+00         0.00000E+00        -0.23539E-01
 
    0.25808E+06        -0.67763E-10         0.00000E+00
   -0.67763E-10        -0.25808E+06         0.00000E+00
    0.00000E+00         0.00000E+00        -0.23539E-01
 
    0.25808E+06        -0.11294E-10         0.00000E+00
   -0.11294E-10        -0.25808E+06         0.00000E+00
    0.00000E+00         0.00000E+00        -0.23539E-01
 
    0.25808E+06         0.33881E-10         0.00000E+00
    0.33881E-10        -0.25808E+06         0.00000E+00
    0.00000E+00         0.00000E+00        -0.23539E-01
 
    0.25808E+06         0.00000E+00         0.00000E+00
    0.00000E+00        -0.25808E+06         0.00000E+00
    0.00000E+00         0.00000E+00        -0.23539E-01
 
    0.25808E+06         0.67763E-11         0.00000E+00
    0.67763E-11        -0.25808E+06         0.00000E+00
    0.00000E+00         0.00000E+00        -0.23539E-01
 
    0.25808E+06         0.12423E-10         0.00000E+00
    0.12423E-10        -0.25808E+06         0.00000E+00
    0.00000E+00         0.00000E+00        -0.23539E-01
 
    0.25808E+06        -0.72280E-10         0.00000E+00
   -0.72280E-10        -0.25808E+06         0.00000E+00
    0.00000E+00         0.00000E+00        -0.24293E-01
 
    0.25808E+06        -0.94868E-10         0.00000E+00
   -0.94868E-10        -0.25808E+06         0.00000E+00
    0.00000E+00         0.00000E+00        -0.24293E-01
 
    0.25808E+06         0.14908E-09         0.00000E+00
    0.14908E-09        -0.25808E+06         0.00000E+00
    0.00000E+00         0.00000E+00        -0.24293E-01
 
    0.25808E+06        -0.18070E-10         0.00000E+00
   -0.18070E-10        -0.25808E+06         0.00000E+00
    0.00000E+00         0.00000E+00        -0.24293E-01
 
    0.25808E+06         0.10390E-09         0.00000E+00
    0.10390E-09        -0.25808E+06         0.00000E+00
    0.00000E+00         0.00000E+00        -0.24293E-01
 
    0.25808E+06        -0.90350E-10         0.00000E+00
   -0.90350E-10        -0.25808E+06         0.00000E+00
    0.00000E+00         0.00000E+00        -0.24293E-01
 
    0.25808E+06         0.54210E-10         0.00000E+00
    0.54210E-10        -0.25808E+06         0.00000E+00
    0.00000E+00         0.00000E+00        -0.24293E-01
 
    0.25808E+06         0.22588E-10         0.00000E+00
    0.22588E-10        -0.25808E+06         0.00000E+00
    0.00000E+00         0.00000E+00        -0.24293E-01
 
    0.25808E+06         0.13553E-09         0.00000E+00
    0.13553E-09        -0.25808E+06         0.00000E+00
    0.00000E+00         0.00000E+00        -0.24293E-01
 
    0.25808E+06         0.11746E-09         0.00000E+00
    0.11746E-09        -0.25808E+06         0.00000E+00
    0.00000E+00         0.00000E+00        -0.24293E-01
 
    0.25808E+06         0.81315E-10         0.00000E+00
    0.81315E-10        -0.25808E+06         0.00000E+00
    0.00000E+00         0.00000E+00        -0.24293E-01
 
    0.25808E+06        -0.13553E-10         0.00000E+00
   -0.13553E-10        -0.25808E+06         0.00000E+00
    0.00000E+00         0.00000E+00        -0.24293E-01
 
    0.25808E+06         0.29364E-10         0.00000E+00
    0.29364E-10        -0.25808E+06         0.00000E+00
    0.00000E+00         0.00000E+00        -0.24293E-01
 
    0.25808E+06         0.00000E+00         0.00000E+00
    0.00000E+00        -0.25808E+06         0.00000E+00
    0.00000E+00         0.00000E+00        -0.24293E-01
 
    0.25808E+06         0.00000E+00         0.00000E+00
    0.00000E+00        -0.25808E+06         0.00000E+00
    0.00000E+00         0.00000E+00        -0.24293E-01
 
    0.25808E+06        -0.45175E-11         0.00000E+00
   -0.45175E-11        -0.25808E+06         0.00000E+00
    0.00000E+00         0.00000E+00        -0.25823E-01
 
    0.25808E+06         0.27105E-09         0.00000E+00
    0.27105E-09        -0.25808E+06         0.00000E+00
    0.00000E+00         0.00000E+00        -0.25823E-01
 
    0.25808E+06         0.54210E-10         0.00000E+00
    0.54210E-10        -0.25808E+06         0.00000E+00
    0.00000E+00         0.00000E+00        -0.25823E-01
 
    0.25808E+06         0.31623E-10         0.00000E+00
    0.31623E-10        -0.25808E+06         0.00000E+00
    0.00000E+00         0.00000E+00        -0.25823E-01
 
    0.25808E+06         0.11746E-09         0.00000E+00
    0.11746E-09        -0.25808E+06         0.00000E+00
    0.00000E+00         0.00000E+00        -0.25823E-01
 
    0.25808E+06        -0.22588E-10         0.00000E+00
   -0.22588E-10        -0.25808E+06         0.00000E+00
    0.00000E+00         0.00000E+00        -0.25823E-01
 
    0.25808E+06        -0.13553E-10         0.00000E+00
   -0.13553E-10        -0.25808E+06         0.00000E+00
    0.00000E+00         0.00000E+00        -0.25823E-01
 
    0.25808E+06         0.14456E-09         0.00000E+00
    0.14456E-09        -0.25808E+06         0.00000E+00
    0.00000E+00         0.00000E+00        -0.25823E-01
 
    0.25808E+06         0.81315E-10         0.00000E+00
    0.81315E-10        -0.25808E+06         0.00000E+00
    0.00000E+00         0.00000E+00        -0.25823E-01
 
    0.25808E+06         0.76798E-10         0.00000E+00
    0.76798E-10        -0.25808E+06         0.00000E+00
    0.00000E+00         0.00000E+00        -0.25823E-01
 
    0.25808E+06         0.17167E-09         0.00000E+00
    0.17167E-09        -0.25808E+06         0.00000E+00
    0.00000E+00         0.00000E+00        -0.25823E-01
 
    0.25808E+06         0.16263E-09         0.00000E+00
    0.16263E-09        -0.25808E+06         0.00000E+00
    0.00000E+00         0.00000E+00        -0.25823E-01
 
    0.25808E+06         0.81315E-10         0.00000E+00
    0.81315E-10        -0.25808E+06         0.00000E+00
    0.00000E+00         0.00000E+00        -0.25823E-01
 
    0.25808E+06         0.67763E-10         0.00000E+00
    0.67763E-10        -0.25808E+06         0.00000E+00
    0.00000E+00         0.00000E+00        -0.25823E-01
 
    0.25808E+06         0.22588E-11         0.00000E+00
    0.22588E-11        -0.25808E+06         0.00000E+00
    0.00000E+00         0.00000E+00        -0.25823E-01
 
    0.25808E+06        -0.54210E-10         0.00000E+00
   -0.54210E-10        -0.25808E+06         0.00000E+00
    0.00000E+00         0.00000E+00        -0.28180E-01
 
    0.25808E+06        -0.25298E-09         0.00000E+00
   -0.25298E-09        -0.25808E+06         0.00000E+00
    0.00000E+00         0.00000E+00        -0.28180E-01
 
    0.25808E+06        -0.18070E-10         0.00000E+00
   -0.18070E-10        -0.25808E+06         0.00000E+00
    0.00000E+00         0.00000E+00        -0.28180E-01
 
    0.25808E+06        -0.36140E-10         0.00000E+00
   -0.36140E-10        -0.25808E+06         0.00000E+00
    0.00000E+00         0.00000E+00        -0.28180E-01
 
    0.25808E+06         0.90350E-11         0.00000E+00
    0.90350E-11        -0.25808E+06         0.00000E+00
    0.00000E+00         0.00000E+00        -0.28180E-01
 
    0.25808E+06         0.27105E-10         0.00000E+00
    0.27105E-10        -0.25808E+06         0.00000E+00
    0.00000E+00         0.00000E+00        -0.28180E-01
 
    0.25808E+06        -0.10842E-09         0.00000E+00
   -0.10842E-09        -0.25808E+06         0.00000E+00
    0.00000E+00         0.00000E+00        -0.28180E-01
 
    0.25808E+06         0.10390E-09         0.00000E+00
    0.10390E-09        -0.25808E+06         0.00000E+00
    0.00000E+00         0.00000E+00        -0.28180E-01
 
    0.25808E+06         0.45175E-10         0.00000E+00
    0.45175E-10        -0.25808E+06         0.00000E+00
    0.00000E+00         0.00000E+00        -0.28180E-01
 
    0.25808E+06         0.45175E-11         0.00000E+00
    0.45175E-11        -0.25808E+06         0.00000E+00
    0.00000E+00         0.00000E+00        -0.28180E-01
 
    0.25808E+06         0.14456E-09         0.00000E+00
    0.14456E-09        -0.25808E+06         0.00000E+00
    0.00000E+00         0.00000E+00        -0.28180E-01
 
    0.25808E+06         0.36140E-10         0.00000E+00
    0.36140E-10        -0.25808E+06         0.00000E+00
    0.00000E+00         0.00000E+00        -0.28180E-01
 
    0.25808E+06         0.13553E-09         0.00000E+00
    0.13553E-09        -0.25808E+06         0.00000E+00
    0.00000E+00         0.00000E+00        -0.28180E-01
 
    0.25808E+06         0.99385E-10         0.00000E+00
    0.99385E-10        -0.25808E+06         0.00000E+00
    0.00000E+00         0.00000E+00        -0.28180E-01
 
    0.25808E+06         0.18070E-10         0.00000E+00
    0.18070E-10        -0.25808E+06         0.00000E+00
    0.00000E+00         0.00000E+00        -0.28180E-01
 
    0.25808E+06         0.99385E-10         0.00000E+00
    0.99385E-10        -0.25808E+06         0.00000E+00
    0.00000E+00         0.00000E+00        -0.31438E-01
 
    0.25808E+06         0.27105E-10         0.00000E+00
    0.27105E-10        -0.25808E+06         0.00000E+00
    0.00000E+00         0.00000E+00        -0.31438E-01
 
    0.25808E+06         0.12649E-09         0.00000E+00
    0.12649E-09        -0.25808E+06         0.00000E+00
    0.00000E+00         0.00000E+00        -0.31438E-01
 
    0.25808E+06         0.10842E-09         0.00000E+00
    0.10842E-09        -0.25808E+06         0.00000E+00
    0.00000E+00         0.00000E+00        -0.31438E-01
 
    0.25808E+06         0.54210E-10         0.00000E+00
    0.54210E-10        -0.25808E+06         0.00000E+00
    0.00000E+00         0.00000E+00        -0.31438E-01
 
    0.25808E+06         0.90350E-11         0.00000E+00
    0.90350E-11        -0.25808E+06         0.00000E+00
    0.00000E+00         0.00000E+00        -0.31438E-01
 
    0.25808E+06         0.36140E-10         0.00000E+00
    0.36140E-10        -0.25808E+06         0.00000E+00
    0.00000E+00         0.00000E+00        -0.31438E-01
 
    0.25808E+06         0.85833E-10         0.00000E+00
    0.85833E-10        -0.25808E+06         0.00000E+00
    0.00000E+00         0.00000E+00        -0.31438E-01
 
    0.25808E+06         0.49693E-10         0.00000E+00
    0.49693E-10        -0.25808E+06         0.00000E+00
    0.00000E+00         0.00000E+00        -0.31438E-01
 
    0.25808E+06         0.90350E-11         0.00000E+00
    0.90350E-11        -0.25808E+06         0.00000E+00
    0.00000E+00         0.00000E+00        -0.31438E-01
 
    0.25808E+06         0.29364E-09         0.00000E+00
    0.29364E-09        -0.25808E+06         0.00000E+00
    0.00000E+00         0.00000E+00        -0.31438E-01
 
    0.25808E+06        -0.22588E-10         0.00000E+00
   -0.22588E-10        -0.25808E+06         0.00000E+00
    0.00000E+00         0.00000E+00        -0.31438E-01
 
    0.25808E+06         0.19877E-09         0.00000E+00
    0.19877E-09        -0.25808E+06         0.00000E+00
    0.00000E+00         0.00000E+00        -0.31438E-01
 
    0.25808E+06        -0.13553E-10         0.00000E+00
   -0.13553E-10        -0.25808E+06         0.00000E+00
    0.00000E+00         0.00000E+00        -0.31438E-01
 
    0.25808E+06         0.27105E-10         0.00000E+00
    0.27105E-10        -0.25808E+06         0.00000E+00
    0.00000E+00         0.00000E+00        -0.31438E-01
 
    0.25808E+06        -0.36140E-10         0.00000E+00
   -0.36140E-10        -0.25808E+06         0.00000E+00
    0.00000E+00         0.00000E+00        -0.35702E-01
 
    0.25808E+06        -0.16263E-09         0.00000E+00
   -0.16263E-09        -0.25808E+06         0.00000E+00
    0.00000E+00         0.00000E+00        -0.35702E-01
 
    0.25808E+06        -0.81315E-10         0.00000E+00
   -0.81315E-10        -0.25808E+06         0.00000E+00
    0.00000E+00         0.00000E+00        -0.35702E-01
 
    0.25808E+06        -0.15360E-09         0.00000E+00
   -0.15360E-09        -0.25808E+06         0.00000E+00
    0.00000E+00         0.00000E+00        -0.35702E-01
 
    0.25808E+06         0.13553E-09         0.00000E+00
    0.13553E-09        -0.25808E+06         0.00000E+00
    0.00000E+00         0.00000E+00        -0.35702E-01
 
    0.25808E+06        -0.90350E-10         0.00000E+00
   -0.90350E-10        -0.25808E+06         0.00000E+00
    0.00000E+00         0.00000E+00        -0.35702E-01
 
    0.25808E+06         0.17618E-09         0.00000E+00
    0.17618E-09        -0.25808E+06         0.00000E+00
    0.00000E+00         0.00000E+00        -0.35702E-01
 
    0.25808E+06        -0.90350E-10         0.00000E+00
   -0.90350E-10        -0.25808E+06         0.00000E+00
    0.00000E+00         0.00000E+00        -0.35702E-01
 
    0.25808E+06         0.11746E-09         0.00000E+00
    0.11746E-09        -0.25808E+06         0.00000E+00
    0.00000E+00         0.00000E+00        -0.35702E-01
 
    0.25808E+06         0.18070E-10         0.00000E+00
    0.18070E-10        -0.25808E+06         0.00000E+00
    0.00000E+00         0.00000E+00        -0.35702E-01
 
    0.25808E+06         0.13553E-09         0.00000E+00
    0.13553E-09        -0.25808E+06         0.00000E+00
    0.00000E+00         0.00000E+00        -0.35702E-01
 
    0.25808E+06         0.99385E-10         0.00000E+00
    0.99385E-10        -0.25808E+06         0.00000E+00
    0.00000E+00         0.00000E+00        -0.35702E-01
 
    0.25808E+06        -0.90350E-11         0.00000E+00
   -0.90350E-11        -0.25808E+06         0.00000E+00
    0.00000E+00         0.00000E+00        -0.35702E-01
 
    0.25808E+06         0.99385E-10         0.00000E+00
    0.99385E-10        -0.25808E+06         0.00000E+00
    0.00000E+00         0.00000E+00        -0.35702E-01
 
    0.25808E+06         0.36140E-10         0.00000E+00
    0.36140E-10        -0.25808E+06         0.00000E+00
    0.00000E+00         0.00000E+00        -0.35702E-01
 
    0.25808E+06         0.29816E-09         0.00000E+00
    0.29816E-09        -0.25808E+06         0.00000E+00
    0.00000E+00         0.00000E+00        -0.41109E-01
 
    0.25808E+06        -0.23491E-09         0.00000E+00
   -0.23491E-09        -0.25808E+06         0.00000E+00
    0.00000E+00         0.00000E+00        -0.41109E-01
 
    0.25808E+06        -0.81315E-10         0.00000E+00
   -0.81315E-10        -0.25808E+06         0.00000E+00
    0.00000E+00         0.00000E+00        -0.41109E-01
 
    0.25808E+06        -0.14456E-09         0.00000E+00
   -0.14456E-09        -0.25808E+06         0.00000E+00
    0.00000E+00         0.00000E+00        -0.41109E-01
 
    0.25808E+06         0.81315E-10         0.00000E+00
    0.81315E-10        -0.25808E+06         0.00000E+00
    0.00000E+00         0.00000E+00        -0.41109E-01
 
    0.25808E+06        -0.14456E-09         0.00000E+00
   -0.14456E-09        -0.25808E+06         0.00000E+00
    0.00000E+00         0.00000E+00        -0.41109E-01
 
    0.25808E+06         0.99385E-10         0.00000E+00
    0.99385E-10        -0.25808E+06         0.00000E+00
    0.00000E+00         0.00000E+00        -0.41109E-01
 
    0.25808E+06         0.27105E-10         0.00000E+00
    0.27105E-10        -0.25808E+06         0.00000E+00
    0.00000E+00         0.00000E+00        -0.41109E-01
 
    0.25808E+06         0.90350E-11         0.00000E+00
    0.90350E-11        -0.25808E+06         0.00000E+00
    0.00000E+00         0.00000E+00        -0.41109E-01
 
    0.25808E+06        -0.27105E-10         0.00000E+00
   -0.27105E-10        -0.25808E+06         0.00000E+00
    0.00000E+00         0.00000E+00        -0.41109E-01
 
    0.25808E+06        -0.72280E-10         0.00000E+00
   -0.72280E-10        -0.25808E+06         0.00000E+00
    0.00000E+00         0.00000E+00        -0.41109E-01
 
    0.25808E+06        -0.36140E-10         0.00000E+00
   -0.36140E-10        -0.25808E+06         0.00000E+00
    0.00000E+00         0.00000E+00        -0.41109E-01
 
    0.25808E+06        -0.72280E-10         0.00000E+00
   -0.72280E-10        -0.25808E+06         0.00000E+00
    0.00000E+00         0.00000E+00        -0.41109E-01
 
    0.25808E+06         0.90350E-11         0.00000E+00
    0.90350E-11        -0.25808E+06         0.00000E+00
    0.00000E+00         0.00000E+00        -0.41109E-01
 
    0.25808E+06         0.45175E-10         0.00000E+00
    0.45175E-10        -0.25808E+06         0.00000E+00
    0.00000E+00         0.00000E+00        -0.41109E-01
 
    0.25808E+06        -0.22588E-09         0.00000E+00
   -0.22588E-09        -0.25808E+06         0.00000E+00
    0.00000E+00         0.00000E+00        -0.47830E-01
 
    0.25808E+06        -0.12649E-09         0.00000E+00
   -0.12649E-09        -0.25808E+06         0.00000E+00
    0.00000E+00         0.00000E+00        -0.47830E-01
 
    0.25808E+06         0.72280E-10         0.00000E+00
    0.72280E-10        -0.25808E+06         0.00000E+00
    0.00000E+00         0.00000E+00        -0.47830E-01
 
    0.25808E+06         0.17167E-09         0.00000E+00
    0.17167E-09        -0.25808E+06         0.00000E+00
    0.00000E+00         0.00000E+00        -0.47830E-01
 
    0.25808E+06         0.20781E-09         0.00000E+00
    0.20781E-09        -0.25808E+06         0.00000E+00
    0.00000E+00         0.00000E+00        -0.47830E-01
 
    0.25808E+06        -0.18070E-10         0.00000E+00
   -0.18070E-10        -0.25808E+06         0.00000E+00
    0.00000E+00         0.00000E+00        -0.47830E-01
 
    0.25808E+06        -0.18070E-09         0.00000E+00
   -0.18070E-09        -0.25808E+06         0.00000E+00
    0.00000E+00         0.00000E+00        -0.47830E-01
 
    0.25808E+06        -0.99385E-10         0.00000E+00
   -0.99385E-10        -0.25808E+06         0.00000E+00
    0.00000E+00         0.00000E+00        -0.47830E-01
 
    0.25808E+06        -0.12649E-09         0.00000E+00
   -0.12649E-09        -0.25808E+06         0.00000E+00
    0.00000E+00         0.00000E+00        -0.47830E-01
 
    0.25808E+06         0.54210E-10         0.00000E+00
    0.54210E-10        -0.25808E+06         0.00000E+00
    0.00000E+00         0.00000E+00        -0.47830E-01
 
    0.25808E+06         0.54210E-10         0.00000E+00
    0.54210E-10        -0.25808E+06         0.00000E+00
    0.00000E+00         0.00000E+00        -0.47830E-01
 
    0.25808E+06        -0.11746E-09         0.00000E+00
   -0.11746E-09        -0.25808E+06         0.00000E+00
    0.00000E+00         0.00000E+00        -0.47830E-01
 
    0.25808E+06         0.99385E-10         0.00000E+00
    0.99385E-10        -0.25808E+06         0.00000E+00
    0.00000E+00         0.00000E+00        -0.47830E-01
 
    0.25808E+06        -0.54210E-10         0.00000E+00
   -0.54210E-10        -0.25808E+06         0.00000E+00
    0.00000E+00         0.00000E+00        -0.47830E-01
 
    0.25808E+06         0.12649E-09         0.00000E+00
    0.12649E-09        -0.25808E+06         0.00000E+00
    0.00000E+00         0.00000E+00        -0.47830E-01
 
    0.25808E+06         0.90350E-10         0.00000E+00
    0.90350E-10        -0.25808E+06         0.00000E+00
    0.00000E+00         0.00000E+00        -0.56082E-01
 
    0.25808E+06         0.26202E-09         0.00000E+00
    0.26202E-09        -0.25808E+06         0.00000E+00
    0.00000E+00         0.00000E+00        -0.56082E-01
 
    0.25808E+06        -0.54210E-10         0.00000E+00
   -0.54210E-10        -0.25808E+06         0.00000E+00
    0.00000E+00         0.00000E+00        -0.56082E-01
 
    0.25808E+06         0.63245E-10         0.00000E+00
    0.63245E-10        -0.25808E+06         0.00000E+00
    0.00000E+00         0.00000E+00        -0.56082E-01
 
    0.25808E+06         0.21684E-09         0.00000E+00
    0.21684E-09        -0.25808E+06         0.00000E+00
    0.00000E+00         0.00000E+00        -0.56082E-01
 
    0.25808E+06        -0.27105E-10         0.00000E+00
   -0.27105E-10        -0.25808E+06         0.00000E+00
    0.00000E+00         0.00000E+00        -0.56082E-01
 
    0.25808E+06        -0.12649E-09         0.00000E+00
   -0.12649E-09        -0.25808E+06         0.00000E+00
    0.00000E+00         0.00000E+00        -0.56082E-01
 
    0.25808E+06         0.90350E-11         0.00000E+00
    0.90350E-11        -0.25808E+06         0.00000E+00
    0.00000E+00         0.00000E+00        -0.56082E-01
 
    0.25808E+06        -0.17167E-09         0.00000E+00
   -0.17167E-09        -0.25808E+06         0.00000E+00
    0.00000E+00         0.00000E+00        -0.56082E-01
 
    0.25808E+06         0.36140E-10         0.00000E+00
    0.36140E-10        -0.25808E+06         0.00000E+00
    0.00000E+00         0.00000E+00        -0.56082E-01
 
    0.25808E+06        -0.18974E-09         0.00000E+00
   -0.18974E-09        -0.25808E+06         0.00000E+00
    0.00000E+00         0.00000E+00        -0.56082E-01
 
    0.25808E+06         0.12649E-09         0.00000E+00
    0.12649E-09        -0.25808E+06         0.00000E+00
    0.00000E+00         0.00000E+00        -0.56082E-01
 
    0.25808E+06         0.26202E-09         0.00000E+00
    0.26202E-09        -0.25808E+06         0.00000E+00
    0.00000E+00         0.00000E+00        -0.56082E-01
 
    0.25808E+06        -0.30719E-09         0.00000E+00
   -0.30719E-09        -0.25808E+06         0.00000E+00
    0.00000E+00         0.00000E+00        -0.56082E-01
 
    0.25808E+06         0.10842E-09         0.00000E+00
    0.10842E-09        -0.25808E+06         0.00000E+00
    0.00000E+00         0.00000E+00        -0.56082E-01
 
    0.25808E+06        -0.18974E-09         0.00000E+00
   -0.18974E-09        -0.25808E+06         0.00000E+00
    0.00000E+00         0.00000E+00        -0.66129E-01
 
    0.25808E+06        -0.90350E-11         0.00000E+00
   -0.90350E-11        -0.25808E+06         0.00000E+00
    0.00000E+00         0.00000E+00        -0.66129E-01
 
    0.25808E+06        -0.13553E-09         0.00000E+00
   -0.13553E-09        -0.25808E+06         0.00000E+00
    0.00000E+00         0.00000E+00        -0.66129E-01
 
    0.25808E+06        -0.18070E-10         0.00000E+00
   -0.18070E-10        -0.25808E+06         0.00000E+00
    0.00000E+00         0.00000E+00        -0.66129E-01
 
    0.25808E+06        -0.90350E-11         0.00000E+00
   -0.90350E-11        -0.25808E+06         0.00000E+00
    0.00000E+00         0.00000E+00        -0.66129E-01
 
    0.25808E+06         0.28912E-09         0.00000E+00
    0.28912E-09        -0.25808E+06         0.00000E+00
    0.00000E+00         0.00000E+00        -0.66129E-01
 
    0.25808E+06        -0.99385E-10         0.00000E+00
   -0.99385E-10        -0.25808E+06         0.00000E+00
    0.00000E+00         0.00000E+00        -0.66129E-01
 
    0.25808E+06        -0.18070E-10         0.00000E+00
   -0.18070E-10        -0.25808E+06         0.00000E+00
    0.00000E+00         0.00000E+00        -0.66129E-01
 
    0.25808E+06        -0.21684E-09         0.00000E+00
   -0.21684E-09        -0.25808E+06         0.00000E+00
    0.00000E+00         0.00000E+00        -0.66129E-01
 
    0.25808E+06         0.16263E-09         0.00000E+00
    0.16263E-09        -0.25808E+06         0.00000E+00
    0.00000E+00         0.00000E+00        -0.66129E-01
 
    0.25808E+06        -0.13553E-09         0.00000E+00
   -0.13553E-09        -0.25808E+06         0.00000E+00
    0.00000E+00         0.00000E+00        -0.66129E-01
 
    0.25808E+06        -0.36140E-10         0.00000E+00
   -0.36140E-10        -0.25808E+06         0.00000E+00
    0.00000E+00         0.00000E+00        -0.66129E-01
 
    0.25808E+06         0.27105E-09         0.00000E+00
    0.27105E-09        -0.25808E+06         0.00000E+00
    0.00000E+00         0.00000E+00        -0.66129E-01
 
    0.25808E+06        -0.21684E-09         0.00000E+00
   -0.21684E-09        -0.25808E+06         0.00000E+00
    0.00000E+00         0.00000E+00        -0.66129E-01
 
    0.25808E+06        -0.18070E-09         0.00000E+00
   -0.18070E-09        -0.25808E+06         0.00000E+00
    0.00000E+00         0.00000E+00        -0.66129E-01
 
    0.25808E+06         0.14456E-09         0.00000E+00
    0.14456E-09        -0.25808E+06         0.00000E+00
    0.00000E+00         0.00000E+00        -0.78290E-01
 
    0.25808E+06        -0.36140E-10         0.00000E+00
   -0.36140E-10        -0.25808E+06         0.00000E+00
    0.00000E+00         0.00000E+00        -0.78290E-01
 
    0.25808E+06        -0.27105E-09         0.00000E+00
   -0.27105E-09        -0.25808E+06         0.00000E+00
    0.00000E+00         0.00000E+00        -0.78290E-01
 
    0.25808E+06         0.23491E-09         0.00000E+00
    0.23491E-09        -0.25808E+06         0.00000E+00
    0.00000E+00         0.00000E+00        -0.78290E-01
 
    0.25808E+06        -0.50596E-09         0.00000E+00
   -0.50596E-09        -0.25808E+06         0.00000E+00
    0.00000E+00         0.00000E+00        -0.78290E-01
 
    0.25808E+06         0.21684E-09         0.00000E+00
    0.21684E-09        -0.25808E+06         0.00000E+00
    0.00000E+00         0.00000E+00        -0.78290E-01
 
    0.25808E+06        -0.16263E-09         0.00000E+00
   -0.16263E-09        -0.25808E+06         0.00000E+00
    0.00000E+00         0.00000E+00        -0.78290E-01
 
    0.25808E+06         0.57824E-09         0.00000E+00
    0.57824E-09        -0.25808E+06         0.00000E+00
    0.00000E+00         0.00000E+00        -0.78290E-01
 
    0.25808E+06         0.00000E+00         0.00000E+00
    0.00000E+00        -0.25808E+06         0.00000E+00
    0.00000E+00         0.00000E+00        -0.78290E-01
 
    0.25808E+06        -0.18070E-10         0.00000E+00
   -0.18070E-10        -0.25808E+06         0.00000E+00
    0.00000E+00         0.00000E+00        -0.78290E-01
 
    0.25808E+06         0.12649E-09         0.00000E+00
    0.12649E-09        -0.25808E+06         0.00000E+00
    0.00000E+00         0.00000E+00        -0.78290E-01
 
    0.25808E+06        -0.17167E-09         0.00000E+00
   -0.17167E-09        -0.25808E+06         0.00000E+00
    0.00000E+00         0.00000E+00        -0.78290E-01
 
    0.25808E+06         0.28009E-09         0.00000E+00
    0.28009E-09        -0.25808E+06         0.00000E+00
    0.00000E+00         0.00000E+00        -0.78290E-01
 
    0.25808E+06        -0.19877E-09         0.00000E+00
   -0.19877E-09        -0.25808E+06         0.00000E+00
    0.00000E+00         0.00000E+00        -0.78290E-01
 
    0.25808E+06        -0.32526E-09         0.00000E+00
   -0.32526E-09        -0.25808E+06         0.00000E+00
    0.00000E+00         0.00000E+00        -0.78290E-01
 
    0.25808E+06        -0.15360E-09         0.00000E+00
   -0.15360E-09        -0.25808E+06         0.00000E+00
    0.00000E+00         0.00000E+00        -0.92956E-01
 
    0.25808E+06         0.63245E-10         0.00000E+00
    0.63245E-10        -0.25808E+06         0.00000E+00
    0.00000E+00         0.00000E+00        -0.92956E-01
 
    0.25808E+06         0.14456E-09         0.00000E+00
    0.14456E-09        -0.25808E+06         0.00000E+00
    0.00000E+00         0.00000E+00        -0.92956E-01
 
    0.25808E+06         0.54210E-10         0.00000E+00
    0.54210E-10        -0.25808E+06         0.00000E+00
    0.00000E+00         0.00000E+00        -0.92956E-01
 
    0.25808E+06         0.21684E-09         0.00000E+00
    0.21684E-09        -0.25808E+06         0.00000E+00
    0.00000E+00         0.00000E+00        -0.92956E-01
 
    0.25808E+06         0.18070E-10         0.00000E+00
    0.18070E-10        -0.25808E+06         0.00000E+00
    0.00000E+00         0.00000E+00        -0.92956E-01
 
    0.25808E+06         0.54210E-10         0.00000E+00
    0.54210E-10        -0.25808E+06         0.00000E+00
    0.00000E+00         0.00000E+00        -0.92956E-01
 
    0.25808E+06         0.39754E-09         0.00000E+00
    0.39754E-09        -0.25808E+06         0.00000E+00
    0.00000E+00         0.00000E+00        -0.92956E-01
 
    0.25808E+06         0.23491E-09         0.00000E+00
    0.23491E-09        -0.25808E+06         0.00000E+00
    0.00000E+00         0.00000E+00        -0.92956E-01
 
    0.25808E+06         0.54210E-10         0.00000E+00
    0.54210E-10        -0.25808E+06         0.00000E+00
    0.00000E+00         0.00000E+00        -0.92956E-01
 
    0.25808E+06        -0.10842E-09         0.00000E+00
   -0.10842E-09        -0.25808E+06         0.00000E+00
    0.00000E+00         0.00000E+00        -0.92956E-01
 
    0.25808E+06         0.21684E-09         0.00000E+00
    0.21684E-09        -0.25808E+06         0.00000E+00
    0.00000E+00         0.00000E+00        -0.92956E-01
 
    0.25808E+06         0.54210E-10         0.00000E+00
    0.54210E-10        -0.25808E+06         0.00000E+00
    0.00000E+00         0.00000E+00        -0.92956E-01
 
    0.25808E+06        -0.16263E-09         0.00000E+00
   -0.16263E-09        -0.25808E+06         0.00000E+00
    0.00000E+00         0.00000E+00        -0.92956E-01
 
    0.25808E+06         0.90350E-10         0.00000E+00
    0.90350E-10        -0.25808E+06         0.00000E+00
    0.00000E+00         0.00000E+00        -0.92956E-01
 
    0.25808E+06         0.21684E-09         0.00000E+00
    0.21684E-09        -0.25808E+06         0.00000E+00
    0.00000E+00         0.00000E+00        -0.11060E+00
 
    0.25808E+06        -0.90350E-10         0.00000E+00
   -0.90350E-10        -0.25808E+06         0.00000E+00
    0.00000E+00         0.00000E+00        -0.11060E+00
 
    0.25808E+06         0.19877E-09         0.00000E+00
    0.19877E-09        -0.25808E+06         0.00000E+00
    0.00000E+00         0.00000E+00        -0.11060E+00
 
    0.25808E+06         0.72280E-10         0.00000E+00
    0.72280E-10        -0.25808E+06         0.00000E+00
    0.00000E+00         0.00000E+00        -0.11060E+00
 
    0.25808E+06        -0.90350E-10         0.00000E+00
   -0.90350E-10        -0.25808E+06         0.00000E+00
    0.00000E+00         0.00000E+00        -0.11060E+00
 
    0.25808E+06         0.00000E+00         0.00000E+00
    0.00000E+00        -0.25808E+06         0.00000E+00
    0.00000E+00         0.00000E+00        -0.11060E+00
 
    0.25808E+06         0.28912E-09         0.00000E+00
    0.28912E-09        -0.25808E+06         0.00000E+00
    0.00000E+00         0.00000E+00        -0.11060E+00
 
    0.25808E+06        -0.36140E-10         0.00000E+00
   -0.36140E-10        -0.25808E+06         0.00000E+00
    0.00000E+00         0.00000E+00        -0.11060E+00
 
    0.25808E+06         0.16263E-09         0.00000E+00
    0.16263E-09        -0.25808E+06         0.00000E+00
    0.00000E+00         0.00000E+00        -0.11060E+00
 
    0.25808E+06         0.36140E-10         0.00000E+00
    0.36140E-10        -0.25808E+06         0.00000E+00
    0.00000E+00         0.00000E+00        -0.11060E+00
 
    0.25808E+06         0.31623E-09         0.00000E+00
    0.31623E-09        -0.25808E+06         0.00000E+00
    0.00000E+00         0.00000E+00        -0.11060E+00
 
    0.25808E+06         0.90350E-10         0.00000E+00
    0.90350E-10        -0.25808E+06         0.00000E+00
    0.00000E+00         0.00000E+00        -0.11060E+00
 
    0.25808E+06         0.36140E-10         0.00000E+00
    0.36140E-10        -0.25808E+06         0.00000E+00
    0.00000E+00         0.00000E+00        -0.11060E+00
 
    0.25808E+06        -0.54210E-10         0.00000E+00
   -0.54210E-10        -0.25808E+06         0.00000E+00
    0.00000E+00         0.00000E+00        -0.11060E+00
 
    0.25808E+06        -0.18070E-10         0.00000E+00
   -0.18070E-10        -0.25808E+06         0.00000E+00
    0.00000E+00         0.00000E+00        -0.11060E+00
 
    0.25808E+06         0.34333E-09         0.00000E+00
    0.34333E-09        -0.25808E+06         0.00000E+00
    0.00000E+00         0.00000E+00        -0.13177E+00
 
    0.25808E+06         0.72280E-10         0.00000E+00
    0.72280E-10        -0.25808E+06         0.00000E+00
    0.00000E+00         0.00000E+00        -0.13177E+00
 
    0.25808E+06        -0.16263E-09         0.00000E+00
   -0.16263E-09        -0.25808E+06         0.00000E+00
    0.00000E+00         0.00000E+00        -0.13177E+00
 
    0.25808E+06        -0.72280E-10         0.00000E+00
   -0.72280E-10        -0.25808E+06         0.00000E+00
    0.00000E+00         0.00000E+00        -0.13177E+00
 
    0.25808E+06         0.19877E-09         0.00000E+00
    0.19877E-09        -0.25808E+06         0.00000E+00
    0.00000E+00         0.00000E+00        -0.13177E+00
 
    0.25808E+06         0.28912E-09         0.00000E+00
    0.28912E-09        -0.25808E+06         0.00000E+00
    0.00000E+00         0.00000E+00        -0.13177E+00
 
    0.25808E+06         0.36140E-09         0.00000E+00
    0.36140E-09        -0.25808E+06         0.00000E+00
    0.00000E+00         0.00000E+00        -0.13177E+00
 
    0.25808E+06         0.90350E-10         0.00000E+00
    0.90350E-10        -0.25808E+06         0.00000E+00
    0.00000E+00         0.00000E+00        -0.13177E+00
 
    0.25808E+06         0.21684E-09         0.00000E+00
    0.21684E-09        -0.25808E+06         0.00000E+00
    0.00000E+00         0.00000E+00        -0.13177E+00
 
    0.25808E+06         0.18070E-10         0.00000E+00
    0.18070E-10        -0.25808E+06         0.00000E+00
    0.00000E+00         0.00000E+00        -0.13177E+00
 
    0.25808E+06         0.19877E-09         0.00000E+00
    0.19877E-09        -0.25808E+06         0.00000E+00
    0.00000E+00         0.00000E+00        -0.13177E+00
 
    0.25808E+06         0.28912E-09         0.00000E+00
    0.28912E-09        -0.25808E+06         0.00000E+00
    0.00000E+00         0.00000E+00        -0.13177E+00
 
    0.25808E+06         0.54210E-10         0.00000E+00
    0.54210E-10        -0.25808E+06         0.00000E+00
    0.00000E+00         0.00000E+00        -0.13177E+00
 
    0.25808E+06        -0.21684E-09         0.00000E+00
   -0.21684E-09        -0.25808E+06         0.00000E+00
    0.00000E+00         0.00000E+00        -0.13177E+00
 
    0.25808E+06         0.16263E-09         0.00000E+00
    0.16263E-09        -0.25808E+06         0.00000E+00
    0.00000E+00         0.00000E+00        -0.13177E+00
 
    0.25808E+06         0.12649E-09         0.00000E+00
    0.12649E-09        -0.25808E+06         0.00000E+00
    0.00000E+00         0.00000E+00        -0.15717E+00
 
    0.25808E+06         0.10842E-09         0.00000E+00
    0.10842E-09        -0.25808E+06         0.00000E+00
    0.00000E+00         0.00000E+00        -0.15717E+00
 
    0.25808E+06         0.32526E-09         0.00000E+00
    0.32526E-09        -0.25808E+06         0.00000E+00
    0.00000E+00         0.00000E+00        -0.15717E+00
 
    0.25808E+06        -0.72280E-10         0.00000E+00
   -0.72280E-10        -0.25808E+06         0.00000E+00
    0.00000E+00         0.00000E+00        -0.15717E+00
 
    0.25808E+06        -0.72280E-10         0.00000E+00
   -0.72280E-10        -0.25808E+06         0.00000E+00
    0.00000E+00         0.00000E+00        -0.15717E+00
 
    0.25808E+06         0.72280E-10         0.00000E+00
    0.72280E-10        -0.25808E+06         0.00000E+00
    0.00000E+00         0.00000E+00        -0.15717E+00
 
    0.25808E+06         0.21684E-09         0.00000E+00
    0.21684E-09        -0.25808E+06         0.00000E+00
    0.00000E+00         0.00000E+00        -0.15717E+00
 
    0.25808E+06        -0.21684E-09         0.00000E+00
   -0.21684E-09        -0.25808E+06         0.00000E+00
    0.00000E+00         0.00000E+00        -0.15717E+00
 
    0.25808E+06         0.90350E-10         0.00000E+00
    0.90350E-10        -0.25808E+06         0.00000E+00
    0.00000E+00         0.00000E+00        -0.15717E+00
 
    0.25808E+06         0.54210E-10         0.00000E+00
    0.54210E-10        -0.25808E+06         0.00000E+00
    0.00000E+00         0.00000E+00        -0.15717E+00
 
    0.25808E+06         0.90350E-10         0.00000E+00
    0.90350E-10        -0.25808E+06         0.00000E+00
    0.00000E+00         0.00000E+00        -0.15717E+00
 
    0.25808E+06         0.18070E-09         0.00000E+00
    0.18070E-09        -0.25808E+06         0.00000E+00
    0.00000E+00         0.00000E+00        -0.15717E+00
 
    0.25808E+06        -0.18070E-10         0.00000E+00
   -0.18070E-10        -0.25808E+06         0.00000E+00
    0.00000E+00         0.00000E+00        -0.15717E+00
 
    0.25808E+06        -0.21684E-09         0.00000E+00
   -0.21684E-09        -0.25808E+06         0.00000E+00
    0.00000E+00         0.00000E+00        -0.15717E+00
 
    0.25808E+06         0.28912E-09         0.00000E+00
    0.28912E-09        -0.25808E+06         0.00000E+00
    0.00000E+00         0.00000E+00        -0.15717E+00
 
    0.25808E+06        -0.10842E-09         0.00000E+00
   -0.10842E-09        -0.25808E+06         0.00000E+00
    0.00000E+00         0.00000E+00        -0.18759E+00
 
    0.25808E+06         0.00000E+00         0.00000E+00
    0.00000E+00        -0.25808E+06         0.00000E+00
    0.00000E+00         0.00000E+00        -0.18759E+00
 
    0.25808E+06        -0.18070E-10         0.00000E+00
   -0.18070E-10        -0.25808E+06         0.00000E+00
    0.00000E+00         0.00000E+00        -0.18759E+00
 
    0.25808E+06         0.36140E-10         0.00000E+00
    0.36140E-10        -0.25808E+06         0.00000E+00
    0.00000E+00         0.00000E+00        -0.18759E+00
 
    0.25808E+06         0.36140E-09         0.00000E+00
    0.36140E-09        -0.25808E+06         0.00000E+00
    0.00000E+00         0.00000E+00        -0.18759E+00
 
    0.25808E+06        -0.18070E-10         0.00000E+00
   -0.18070E-10        -0.25808E+06         0.00000E+00
    0.00000E+00         0.00000E+00        -0.18759E+00
 
    0.25808E+06         0.72280E-10         0.00000E+00
    0.72280E-10        -0.25808E+06         0.00000E+00
    0.00000E+00         0.00000E+00        -0.18759E+00
 
    0.25808E+06         0.23491E-09         0.00000E+00
    0.23491E-09        -0.25808E+06         0.00000E+00
    0.00000E+00         0.00000E+00        -0.18759E+00
 
    0.25808E+06         0.10842E-09         0.00000E+00
    0.10842E-09        -0.25808E+06         0.00000E+00
    0.00000E+00         0.00000E+00        -0.18759E+00
 
    0.25808E+06         0.18070E-10         0.00000E+00
    0.18070E-10        -0.25808E+06         0.00000E+00
    0.00000E+00         0.00000E+00        -0.18759E+00
 
    0.25808E+06        -0.36140E-10         0.00000E+00
   -0.36140E-10        -0.25808E+06         0.00000E+00
    0.00000E+00         0.00000E+00        -0.18759E+00
 
    0.25808E+06         0.72280E-10         0.00000E+00
    0.72280E-10        -0.25808E+06         0.00000E+00
    0.00000E+00         0.00000E+00        -0.18759E+00
 
    0.25808E+06         0.00000E+00         0.00000E+00
    0.00000E+00        -0.25808E+06         0.00000E+00
    0.00000E+00         0.00000E+00        -0.18759E+00
 
    0.25808E+06         0.72280E-10         0.00000E+00
    0.72280E-10        -0.25808E+06         0.00000E+00
    0.00000E+00         0.00000E+00        -0.18759E+00
 
    0.25808E+06        -0.72280E-10         0.00000E+00
   -0.72280E-10        -0.25808E+06         0.00000E+00
    0.00000E+00         0.00000E+00        -0.18759E+00
 
    0.25808E+06         0.10842E-09         0.00000E+00
    0.10842E-09        -0.25808E+06         0.00000E+00
    0.00000E+00         0.00000E+00        -0.22401E+00
 
    0.25808E+06        -0.14456E-09         0.00000E+00
   -0.14456E-09        -0.25808E+06         0.00000E+00
    0.00000E+00         0.00000E+00        -0.22401E+00
 
    0.25808E+06        -0.16263E-09         0.00000E+00
   -0.16263E-09        -0.25808E+06         0.00000E+00
    0.00000E+00         0.00000E+00        -0.22401E+00
 
    0.25808E+06        -0.36140E-10         0.00000E+00
   -0.36140E-10        -0.25808E+06         0.00000E+00
    0.00000E+00         0.00000E+00        -0.22401E+00
 
    0.25808E+06        -0.54210E-10         0.00000E+00
   -0.54210E-10        -0.25808E+06         0.00000E+00
    0.00000E+00         0.00000E+00        -0.22401E+00
 
    0.25808E+06         0.90350E-10         0.00000E+00
    0.90350E-10        -0.25808E+06         0.00000E+00
    0.00000E+00         0.00000E+00        -0.22401E+00
 
    0.25808E+06        -0.18070E-10         0.00000E+00
   -0.18070E-10        -0.25808E+06         0.00000E+00
    0.00000E+00         0.00000E+00        -0.22401E+00
 
    0.25808E+06         0.45175E-09         0.00000E+00
    0.45175E-09        -0.25808E+06         0.00000E+00
    0.00000E+00         0.00000E+00        -0.22401E+00
 
    0.25808E+06        -0.27105E-09         0.00000E+00
   -0.27105E-09        -0.25808E+06         0.00000E+00
    0.00000E+00         0.00000E+00        -0.22401E+00
 
    0.25808E+06        -0.72280E-10         0.00000E+00
   -0.72280E-10        -0.25808E+06         0.00000E+00
    0.00000E+00         0.00000E+00        -0.22401E+00
 
    0.25808E+06        -0.72280E-10         0.00000E+00
   -0.72280E-10        -0.25808E+06         0.00000E+00
    0.00000E+00         0.00000E+00        -0.22401E+00
 
    0.25808E+06         0.34333E-09         0.00000E+00
    0.34333E-09        -0.25808E+06         0.00000E+00
    0.00000E+00         0.00000E+00        -0.22401E+00
 
    0.25808E+06         0.72280E-10         0.00000E+00
    0.72280E-10        -0.25808E+06         0.00000E+00
    0.00000E+00         0.00000E+00        -0.22401E+00
 
    0.25808E+06        -0.28912E-09         0.00000E+00
   -0.28912E-09        -0.25808E+06         0.00000E+00
    0.00000E+00         0.00000E+00        -0.22401E+00
 
    0.25808E+06        -0.32526E-09         0.00000E+00
   -0.32526E-09        -0.25808E+06         0.00000E+00
    0.00000E+00         0.00000E+00        -0.22401E+00
 
    0.25808E+06         0.36140E-09         0.00000E+00
    0.36140E-09        -0.25808E+06         0.00000E+00
    0.00000E+00         0.00000E+00        -0.26759E+00
 
    0.25808E+06        -0.54210E-10         0.00000E+00
   -0.54210E-10        -0.25808E+06         0.00000E+00
    0.00000E+00         0.00000E+00        -0.26759E+00
 
    0.25808E+06        -0.18070E-09         0.00000E+00
   -0.18070E-09        -0.25808E+06         0.00000E+00
    0.00000E+00         0.00000E+00        -0.26759E+00
 
    0.25808E+06         0.00000E+00         0.00000E+00
    0.00000E+00        -0.25808E+06         0.00000E+00
    0.00000E+00         0.00000E+00        -0.26759E+00
 
    0.25808E+06         0.36140E-10         0.00000E+00
    0.36140E-10        -0.25808E+06         0.00000E+00
    0.00000E+00         0.00000E+00        -0.26759E+00
 
    0.25808E+06        -0.23491E-09         0.00000E+00
   -0.23491E-09        -0.25808E+06         0.00000E+00
    0.00000E+00         0.00000E+00        -0.26759E+00
 
    0.25808E+06         0.25298E-09         0.00000E+00
    0.25298E-09        -0.25808E+06         0.00000E+00
    0.00000E+00         0.00000E+00        -0.26759E+00
 
    0.25808E+06        -0.34333E-09         0.00000E+00
   -0.34333E-09        -0.25808E+06         0.00000E+00
    0.00000E+00         0.00000E+00        -0.26759E+00
 
    0.25808E+06         0.19877E-09         0.00000E+00
    0.19877E-09        -0.25808E+06         0.00000E+00
    0.00000E+00         0.00000E+00        -0.26759E+00
 
    0.25808E+06         0.21684E-09         0.00000E+00
    0.21684E-09        -0.25808E+06         0.00000E+00
    0.00000E+00         0.00000E+00        -0.26759E+00
 
    0.25808E+06         0.00000E+00         0.00000E+00
    0.00000E+00        -0.25808E+06         0.00000E+00
    0.00000E+00         0.00000E+00        -0.26759E+00
 
    0.25808E+06         0.43368E-09         0.00000E+00
    0.43368E-09        -0.25808E+06         0.00000E+00
    0.00000E+00         0.00000E+00        -0.26759E+00
 
    0.25808E+06        -0.34333E-09         0.00000E+00
   -0.34333E-09        -0.25808E+06         0.00000E+00
    0.00000E+00         0.00000E+00        -0.26759E+00
 
    0.25808E+06         0.36140E-09         0.00000E+00
    0.36140E-09        -0.25808E+06         0.00000E+00
    0.00000E+00         0.00000E+00        -0.26759E+00
 
    0.25808E+06        -0.36140E-09         0.00000E+00
   -0.36140E-09        -0.25808E+06         0.00000E+00
    0.00000E+00         0.00000E+00        -0.26759E+00
 
    0.25808E+06        -0.36140E-09         0.00000E+00
   -0.36140E-09        -0.25808E+06         0.00000E+00
    0.00000E+00         0.00000E+00        -0.31973E+00
 
    0.25808E+06         0.10842E-09         0.00000E+00
    0.10842E-09        -0.25808E+06         0.00000E+00
    0.00000E+00         0.00000E+00        -0.31973E+00
 
    0.25808E+06         0.19877E-09         0.00000E+00
    0.19877E-09        -0.25808E+06         0.00000E+00
    0.00000E+00         0.00000E+00        -0.31973E+00
 
    0.25808E+06         0.00000E+00         0.00000E+00
    0.00000E+00        -0.25808E+06         0.00000E+00
    0.00000E+00         0.00000E+00        -0.31973E+00
 
    0.25808E+06         0.14456E-09         0.00000E+00
    0.14456E-09        -0.25808E+06         0.00000E+00
    0.00000E+00         0.00000E+00        -0.31973E+00
 
    0.25808E+06         0.45175E-09         0.00000E+00
    0.45175E-09        -0.25808E+06         0.00000E+00
    0.00000E+00         0.00000E+00        -0.31973E+00
 
    0.25808E+06         0.39754E-09         0.00000E+00
    0.39754E-09        -0.25808E+06         0.00000E+00
    0.00000E+00         0.00000E+00        -0.31973E+00
 
    0.25808E+06        -0.39754E-09         0.00000E+00
   -0.39754E-09        -0.25808E+06         0.00000E+00
    0.00000E+00         0.00000E+00        -0.31973E+00
 
    0.25808E+06        -0.27105E-09         0.00000E+00
   -0.27105E-09        -0.25808E+06         0.00000E+00
    0.00000E+00         0.00000E+00        -0.31973E+00
 
    0.25808E+06         0.28912E-09         0.00000E+00
    0.28912E-09        -0.25808E+06         0.00000E+00
    0.00000E+00         0.00000E+00        -0.31973E+00
 
    0.25808E+06         0.72280E-10         0.00000E+00
    0.72280E-10        -0.25808E+06         0.00000E+00
    0.00000E+00         0.00000E+00        -0.31973E+00
 
    0.25808E+06        -0.32526E-09         0.00000E+00
   -0.32526E-09        -0.25808E+06         0.00000E+00
    0.00000E+00         0.00000E+00        -0.31973E+00
 
    0.25808E+06        -0.36140E-10         0.00000E+00
   -0.36140E-10        -0.25808E+06         0.00000E+00
    0.00000E+00         0.00000E+00        -0.31973E+00
 
    0.25808E+06        -0.36140E-10         0.00000E+00
   -0.36140E-10        -0.25808E+06         0.00000E+00
    0.00000E+00         0.00000E+00        -0.31973E+00
 
    0.25808E+06         0.36140E-10         0.00000E+00
    0.36140E-10        -0.25808E+06         0.00000E+00
    0.00000E+00         0.00000E+00        -0.31973E+00
 
    0.25808E+06        -0.10842E-09         0.00000E+00
   -0.10842E-09        -0.25808E+06         0.00000E+00
    0.00000E+00         0.00000E+00        -0.38210E+00
 
    0.25808E+06         0.72280E-10         0.00000E+00
    0.72280E-10        -0.25808E+06         0.00000E+00
    0.00000E+00         0.00000E+00        -0.38210E+00
 
    0.25808E+06         0.18070E-09         0.00000E+00
    0.18070E-09        -0.25808E+06         0.00000E+00
    0.00000E+00         0.00000E+00        -0.38210E+00
 
    0.25808E+06        -0.28912E-09         0.00000E+00
   -0.28912E-09        -0.25808E+06         0.00000E+00
    0.00000E+00         0.00000E+00        -0.38210E+00
 
    0.25808E+06        -0.18070E-09         0.00000E+00
   -0.18070E-09        -0.25808E+06         0.00000E+00
    0.00000E+00         0.00000E+00        -0.38210E+00
 
    0.25808E+06         0.16263E-09         0.00000E+00
    0.16263E-09        -0.25808E+06         0.00000E+00
    0.00000E+00         0.00000E+00        -0.38210E+00
 
    0.25808E+06         0.54210E-10         0.00000E+00
    0.54210E-10        -0.25808E+06         0.00000E+00
    0.00000E+00         0.00000E+00        -0.38210E+00
 
    0.25808E+06        -0.37947E-09         0.00000E+00
   -0.37947E-09        -0.25808E+06         0.00000E+00
    0.00000E+00         0.00000E+00        -0.38210E+00
 
    0.25808E+06         0.12649E-09         0.00000E+00
    0.12649E-09        -0.25808E+06         0.00000E+00
    0.00000E+00         0.00000E+00        -0.38210E+00
 
    0.25808E+06        -0.54210E-10         0.00000E+00
   -0.54210E-10        -0.25808E+06         0.00000E+00
    0.00000E+00         0.00000E+00        -0.38210E+00
 
    0.25808E+06         0.54210E-10         0.00000E+00
    0.54210E-10        -0.25808E+06         0.00000E+00
    0.00000E+00         0.00000E+00        -0.38210E+00
 
    0.25808E+06        -0.32526E-09         0.00000E+00
   -0.32526E-09        -0.25808E+06         0.00000E+00
    0.00000E+00         0.00000E+00        -0.38210E+00
 
    0.25808E+06        -0.32526E-09         0.00000E+00
   -0.32526E-09        -0.25808E+06         0.00000E+00
    0.00000E+00         0.00000E+00        -0.38210E+00
 
    0.25808E+06         0.79508E-09         0.00000E+00
    0.79508E-09        -0.25808E+06         0.00000E+00
    0.00000E+00         0.00000E+00        -0.38210E+00
 
    0.25808E+06        -0.72280E-09         0.00000E+00
   -0.72280E-09        -0.25808E+06         0.00000E+00
    0.00000E+00         0.00000E+00        -0.38210E+00
 
    0.25808E+06        -0.13372E-08         0.00000E+00
   -0.13372E-08        -0.25808E+06         0.00000E+00
    0.00000E+00         0.00000E+00        -0.45669E+00
 
    0.25808E+06         0.86736E-09         0.00000E+00
    0.86736E-09        -0.25808E+06         0.00000E+00
    0.00000E+00         0.00000E+00        -0.45669E+00
 
    0.25808E+06        -0.46982E-09         0.00000E+00
   -0.46982E-09        -0.25808E+06         0.00000E+00
    0.00000E+00         0.00000E+00        -0.45669E+00
 
    0.25808E+06        -0.14456E-09         0.00000E+00
   -0.14456E-09        -0.25808E+06         0.00000E+00
    0.00000E+00         0.00000E+00        -0.45669E+00
 
    0.25808E+06         0.10842E-09         0.00000E+00
    0.10842E-09        -0.25808E+06         0.00000E+00
    0.00000E+00         0.00000E+00        -0.45669E+00
 
    0.25808E+06         0.16263E-09         0.00000E+00
    0.16263E-09        -0.25808E+06         0.00000E+00
    0.00000E+00         0.00000E+00        -0.45669E+00
 
    0.25808E+06         0.28912E-09         0.00000E+00
    0.28912E-09        -0.25808E+06         0.00000E+00
    0.00000E+00         0.00000E+00        -0.45669E+00
 
    0.25808E+06        -0.10842E-09         0.00000E+00
   -0.10842E-09        -0.25808E+06         0.00000E+00
    0.00000E+00         0.00000E+00        -0.45669E+00
 
    0.25808E+06         0.90350E-10         0.00000E+00
    0.90350E-10        -0.25808E+06         0.00000E+00
    0.00000E+00         0.00000E+00        -0.45669E+00
 
    0.25808E+06        -0.36140E-10         0.00000E+00
   -0.36140E-10        -0.25808E+06         0.00000E+00
    0.00000E+00         0.00000E+00        -0.45669E+00
 
    0.25808E+06         0.50596E-09         0.00000E+00
    0.50596E-09        -0.25808E+06         0.00000E+00
    0.00000E+00         0.00000E+00        -0.45669E+00
 
    0.25808E+06        -0.65052E-09         0.00000E+00
   -0.65052E-09        -0.25808E+06         0.00000E+00
    0.00000E+00         0.00000E+00        -0.45669E+00
 
    0.25808E+06         0.21684E-09         0.00000E+00
    0.21684E-09        -0.25808E+06         0.00000E+00
    0.00000E+00         0.00000E+00        -0.45669E+00
 
    0.25808E+06         0.25298E-09         0.00000E+00
    0.25298E-09        -0.25808E+06         0.00000E+00
    0.00000E+00         0.00000E+00        -0.45669E+00
 
    0.25808E+06        -0.57824E-09         0.00000E+00
   -0.57824E-09        -0.25808E+06         0.00000E+00
    0.00000E+00         0.00000E+00        -0.45669E+00
 
    0.25808E+06        -0.75894E-09         0.00000E+00
   -0.75894E-09        -0.25808E+06         0.00000E+00
    0.00000E+00         0.00000E+00        -0.54587E+00
 
    0.25808E+06         0.61438E-09         0.00000E+00
    0.61438E-09        -0.25808E+06         0.00000E+00
    0.00000E+00         0.00000E+00        -0.54587E+00
 
    0.25808E+06        -0.21684E-09         0.00000E+00
   -0.21684E-09        -0.25808E+06         0.00000E+00
    0.00000E+00         0.00000E+00        -0.54587E+00
 
    0.25808E+06        -0.10842E-09         0.00000E+00
   -0.10842E-09        -0.25808E+06         0.00000E+00
    0.00000E+00         0.00000E+00        -0.54587E+00
 
    0.25808E+06         0.14456E-09         0.00000E+00
    0.14456E-09        -0.25808E+06         0.00000E+00
    0.00000E+00         0.00000E+00        -0.54587E+00
 
    0.25808E+06         0.00000E+00         0.00000E+00
    0.00000E+00        -0.25808E+06         0.00000E+00
    0.00000E+00         0.00000E+00        -0.54587E+00
 
    0.25808E+06         0.46982E-09         0.00000E+00
    0.46982E-09        -0.25808E+06         0.00000E+00
    0.00000E+00         0.00000E+00        -0.54587E+00
 
    0.25808E+06        -0.12649E-09         0.00000E+00
   -0.12649E-09        -0.25808E+06         0.00000E+00
    0.00000E+00         0.00000E+00        -0.54587E+00
 
    0.25808E+06        -0.16263E-09         0.00000E+00
   -0.16263E-09        -0.25808E+06         0.00000E+00
    0.00000E+00         0.00000E+00        -0.54587E+00
 
    0.25808E+06         0.72280E-10         0.00000E+00
    0.72280E-10        -0.25808E+06         0.00000E+00
    0.00000E+00         0.00000E+00        -0.54587E+00
 
    0.25808E+06         0.39754E-09         0.00000E+00
    0.39754E-09        -0.25808E+06         0.00000E+00
    0.00000E+00         0.00000E+00        -0.54587E+00
 
    0.25808E+06         0.21684E-09         0.00000E+00
    0.21684E-09        -0.25808E+06         0.00000E+00
    0.00000E+00         0.00000E+00        -0.54587E+00
 
    0.25808E+06         0.00000E+00         0.00000E+00
    0.00000E+00        -0.25808E+06         0.00000E+00
    0.00000E+00         0.00000E+00        -0.54587E+00
 
    0.25808E+06         0.39754E-09         0.00000E+00
    0.39754E-09        -0.25808E+06         0.00000E+00
    0.00000E+00         0.00000E+00        -0.54587E+00
 
    0.25808E+06        -0.32526E-09         0.00000E+00
   -0.32526E-09        -0.25808E+06         0.00000E+00
    0.00000E+00         0.00000E+00        -0.54587E+00
 
    0.25808E+06        -0.36140E-10         0.00000E+00
   -0.36140E-10        -0.25808E+06         0.00000E+00
    0.00000E+00         0.00000E+00        -0.65252E+00
 
    0.25808E+06        -0.18070E-09         0.00000E+00
   -0.18070E-09        -0.25808E+06         0.00000E+00
    0.00000E+00         0.00000E+00        -0.65252E+00
 
    0.25808E+06         0.14456E-09         0.00000E+00
    0.14456E-09        -0.25808E+06         0.00000E+00
    0.00000E+00         0.00000E+00        -0.65252E+00
 
    0.25808E+06         0.18070E-09         0.00000E+00
    0.18070E-09        -0.25808E+06         0.00000E+00
    0.00000E+00         0.00000E+00        -0.65252E+00
 
    0.25808E+06         0.25298E-09         0.00000E+00
    0.25298E-09        -0.25808E+06         0.00000E+00
    0.00000E+00         0.00000E+00        -0.65252E+00
 
    0.25808E+06        -0.90350E-10         0.00000E+00
   -0.90350E-10        -0.25808E+06         0.00000E+00
    0.00000E+00         0.00000E+00        -0.65252E+00
 
    0.25808E+06        -0.30719E-09         0.00000E+00
   -0.30719E-09        -0.25808E+06         0.00000E+00
    0.00000E+00         0.00000E+00        -0.65252E+00
 
    0.25808E+06        -0.18070E-10         0.00000E+00
   -0.18070E-10        -0.25808E+06         0.00000E+00
    0.00000E+00         0.00000E+00        -0.65252E+00
 
    0.25808E+06        -0.10842E-09         0.00000E+00
   -0.10842E-09        -0.25808E+06         0.00000E+00
    0.00000E+00         0.00000E+00        -0.65252E+00
 
    0.25808E+06         0.39754E-09         0.00000E+00
    0.39754E-09        -0.25808E+06         0.00000E+00
    0.00000E+00         0.00000E+00        -0.65252E+00
 
    0.25808E+06         0.46982E-09         0.00000E+00
    0.46982E-09        -0.25808E+06         0.00000E+00
    0.00000E+00         0.00000E+00        -0.65252E+00
 
    0.25808E+06        -0.32526E-09         0.00000E+00
   -0.32526E-09        -0.25808E+06         0.00000E+00
    0.00000E+00         0.00000E+00        -0.65252E+00
 
    0.25808E+06        -0.46982E-09         0.00000E+00
   -0.46982E-09        -0.25808E+06         0.00000E+00
    0.00000E+00         0.00000E+00        -0.65252E+00
 
    0.25808E+06        -0.14456E-09         0.00000E+00
   -0.14456E-09        -0.25808E+06         0.00000E+00
    0.00000E+00         0.00000E+00        -0.65252E+00
 
    0.25808E+06         0.65052E-09         0.00000E+00
    0.65052E-09        -0.25808E+06         0.00000E+00
    0.00000E+00         0.00000E+00        -0.65252E+00
 
    0.25808E+06         0.14456E-09         0.00000E+00
    0.14456E-09        -0.25809E+06         0.00000E+00
    0.00000E+00         0.00000E+00        -0.78002E+00
 
    0.25808E+06        -0.14456E-09         0.00000E+00
   -0.14456E-09        -0.25809E+06         0.00000E+00
    0.00000E+00         0.00000E+00        -0.78002E+00
 
    0.25808E+06         0.25298E-09         0.00000E+00
    0.25298E-09        -0.25809E+06         0.00000E+00
    0.00000E+00         0.00000E+00        -0.78002E+00
 
    0.25808E+06        -0.36140E-10         0.00000E+00
   -0.36140E-10        -0.25809E+06         0.00000E+00
    0.00000E+00         0.00000E+00        -0.78002E+00
 
    0.25808E+06        -0.28912E-09         0.00000E+00
   -0.28912E-09        -0.25809E+06         0.00000E+00
    0.00000E+00         0.00000E+00        -0.78002E+00
 
    0.25808E+06        -0.12649E-09         0.00000E+00
   -0.12649E-09        -0.25809E+06         0.00000E+00
    0.00000E+00         0.00000E+00        -0.78002E+00
 
    0.25808E+06        -0.61438E-09         0.00000E+00
   -0.61438E-09        -0.25809E+06         0.00000E+00
    0.00000E+00         0.00000E+00        -0.78002E+00
 
    0.25808E+06        -0.36140E-10         0.00000E+00
   -0.36140E-10        -0.25809E+06         0.00000E+00
    0.00000E+00         0.00000E+00        -0.78002E+00
 
    0.25808E+06         0.36140E-10         0.00000E+00
    0.36140E-10        -0.25809E+06         0.00000E+00
    0.00000E+00         0.00000E+00        -0.78002E+00
 
    0.25808E+06         0.79508E-09         0.00000E+00
    0.79508E-09        -0.25809E+06         0.00000E+00
    0.00000E+00         0.00000E+00        -0.78002E+00
 
    0.25808E+06         0.46982E-09         0.00000E+00
    0.46982E-09        -0.25809E+06         0.00000E+00
    0.00000E+00         0.00000E+00        -0.78002E+00
 
    0.25808E+06         0.36140E-10         0.00000E+00
    0.36140E-10        -0.25809E+06         0.00000E+00
    0.00000E+00         0.00000E+00        -0.78002E+00
 
    0.25808E+06        -0.10842E-09         0.00000E+00
   -0.10842E-09        -0.25809E+06         0.00000E+00
    0.00000E+00         0.00000E+00        -0.78002E+00
 
    0.25808E+06         0.00000E+00         0.00000E+00
    0.00000E+00        -0.25809E+06         0.00000E+00
    0.00000E+00         0.00000E+00        -0.78002E+00
 
    0.25808E+06         0.72280E-10         0.00000E+00
    0.72280E-10        -0.25809E+06         0.00000E+00
    0.00000E+00         0.00000E+00        -0.78002E+00
 
    0.25808E+06         0.00000E+00         0.00000E+00
    0.00000E+00        -0.25809E+06         0.00000E+00
    0.00000E+00         0.00000E+00        -0.93245E+00
 
    0.25808E+06        -0.50596E-09         0.00000E+00
   -0.50596E-09        -0.25809E+06         0.00000E+00
    0.00000E+00         0.00000E+00        -0.93245E+00
 
    0.25808E+06         0.97578E-09         0.00000E+00
    0.97578E-09        -0.25809E+06         0.00000E+00
    0.00000E+00         0.00000E+00        -0.93245E+00
 
    0.25808E+06        -0.18070E-09         0.00000E+00
   -0.18070E-09        -0.25809E+06         0.00000E+00
    0.00000E+00         0.00000E+00        -0.93245E+00
 
    0.25808E+06        -0.46982E-09         0.00000E+00
   -0.46982E-09        -0.25809E+06         0.00000E+00
    0.00000E+00         0.00000E+00        -0.93245E+00
 
    0.25808E+06        -0.23491E-09         0.00000E+00
   -0.23491E-09        -0.25809E+06         0.00000E+00
    0.00000E+00         0.00000E+00        -0.93245E+00
 
    0.25808E+06         0.54210E-10         0.00000E+00
    0.54210E-10        -0.25809E+06         0.00000E+00
    0.00000E+00         0.00000E+00        -0.93245E+00
 
    0.25808E+06        -0.12649E-09         0.00000E+00
   -0.12649E-09        -0.25809E+06         0.00000E+00
    0.00000E+00         0.00000E+00        -0.93245E+00
 
    0.25808E+06         0.00000E+00         0.00000E+00
    0.00000E+00        -0.25809E+06         0.00000E+00
    0.00000E+00         0.00000E+00        -0.93245E+00
 
    0.25808E+06         0.14456E-09         0.00000E+00
    0.14456E-09        -0.25809E+06         0.00000E+00
    0.00000E+00         0.00000E+00        -0.93245E+00
 
    0.25808E+06         0.54210E-09         0.00000E+00
    0.54210E-09        -0.25809E+06         0.00000E+00
    0.00000E+00         0.00000E+00        -0.93245E+00
 
    0.25808E+06        -0.28912E-09         0.00000E+00
   -0.28912E-09        -0.25809E+06         0.00000E+00
    0.00000E+00         0.00000E+00        -0.93245E+00
 
    0.25808E+06        -0.54210E-09         0.00000E+00
   -0.54210E-09        -0.25809E+06         0.00000E+00
    0.00000E+00         0.00000E+00        -0.93245E+00
 
    0.25808E+06         0.21684E-09         0.00000E+00
    0.21684E-09        -0.25809E+06         0.00000E+00
    0.00000E+00         0.00000E+00        -0.93245E+00
 
    0.25808E+06         0.21684E-09         0.00000E+00
    0.21684E-09        -0.25809E+06         0.00000E+00
    0.00000E+00         0.00000E+00        -0.93245E+00
 
    0.25808E+06        -0.32526E-09         0.00000E+00
   -0.32526E-09        -0.25809E+06         0.00000E+00
    0.00000E+00         0.00000E+00        -0.11147E+01
 
    0.25808E+06        -0.54210E-09         0.00000E+00
   -0.54210E-09        -0.25809E+06         0.00000E+00
    0.00000E+00         0.00000E+00        -0.11147E+01
 
    0.25808E+06         0.54210E-09         0.00000E+00
    0.54210E-09        -0.25809E+06         0.00000E+00
    0.00000E+00         0.00000E+00        -0.11147E+01
 
    0.25808E+06        -0.68666E-09         0.00000E+00
   -0.68666E-09        -0.25809E+06         0.00000E+00
    0.00000E+00         0.00000E+00        -0.11147E+01
 
    0.25808E+06         0.28912E-09         0.00000E+00
    0.28912E-09        -0.25809E+06         0.00000E+00
    0.00000E+00         0.00000E+00        -0.11147E+01
 
    0.25808E+06        -0.72280E-10         0.00000E+00
   -0.72280E-10        -0.25809E+06         0.00000E+00
    0.00000E+00         0.00000E+00        -0.11147E+01
 
    0.25808E+06        -0.72280E-10         0.00000E+00
   -0.72280E-10        -0.25809E+06         0.00000E+00
    0.00000E+00         0.00000E+00        -0.11147E+01
 
    0.25808E+06        -0.72280E-10         0.00000E+00
   -0.72280E-10        -0.25809E+06         0.00000E+00
    0.00000E+00         0.00000E+00        -0.11147E+01
 
    0.25808E+06        -0.36140E-10         0.00000E+00
   -0.36140E-10        -0.25809E+06         0.00000E+00
    0.00000E+00         0.00000E+00        -0.11147E+01
 
    0.25808E+06        -0.39754E-09         0.00000E+00
   -0.39754E-09        -0.25809E+06         0.00000E+00
    0.00000E+00         0.00000E+00        -0.11147E+01
 
    0.25808E+06        -0.10842E-09         0.00000E+00
   -0.10842E-09        -0.25809E+06         0.00000E+00
    0.00000E+00         0.00000E+00        -0.11147E+01
 
    0.25808E+06         0.68666E-09         0.00000E+00
    0.68666E-09        -0.25809E+06         0.00000E+00
    0.00000E+00         0.00000E+00        -0.11147E+01
 
    0.25808E+06         0.18070E-09         0.00000E+00
    0.18070E-09        -0.25809E+06         0.00000E+00
    0.00000E+00         0.00000E+00        -0.11147E+01
 
    0.25808E+06         0.39754E-09         0.00000E+00
    0.39754E-09        -0.25809E+06         0.00000E+00
    0.00000E+00         0.00000E+00        -0.11147E+01
 
    0.25808E+06         0.61438E-09         0.00000E+00
    0.61438E-09        -0.25809E+06         0.00000E+00
    0.00000E+00         0.00000E+00        -0.11147E+01
 
    0.25808E+06         0.72280E-09         0.00000E+00
    0.72280E-09        -0.25809E+06         0.00000E+00
    0.00000E+00         0.00000E+00        -0.13326E+01
 
    0.25808E+06         0.25298E-09         0.00000E+00
    0.25298E-09        -0.25809E+06         0.00000E+00
    0.00000E+00         0.00000E+00        -0.13326E+01
 
    0.25808E+06        -0.36140E-09         0.00000E+00
   -0.36140E-09        -0.25809E+06         0.00000E+00
    0.00000E+00         0.00000E+00        -0.13326E+01
 
    0.25808E+06         0.00000E+00         0.00000E+00
    0.00000E+00        -0.25809E+06         0.00000E+00
    0.00000E+00         0.00000E+00        -0.13326E+01
 
    0.25808E+06        -0.43368E-09         0.00000E+00
   -0.43368E-09        -0.25809E+06         0.00000E+00
    0.00000E+00         0.00000E+00        -0.13326E+01
 
    0.25808E+06        -0.21684E-09         0.00000E+00
   -0.21684E-09        -0.25809E+06         0.00000E+00
    0.00000E+00         0.00000E+00        -0.13326E+01
 
    0.25808E+06        -0.32526E-09         0.00000E+00
   -0.32526E-09        -0.25809E+06         0.00000E+00
    0.00000E+00         0.00000E+00        -0.13326E+01
 
    0.25808E+06         0.36140E-10         0.00000E+00
    0.36140E-10        -0.25809E+06         0.00000E+00
    0.00000E+00         0.00000E+00        -0.13326E+01
 
    0.25808E+06         0.93964E-09         0.00000E+00
    0.93964E-09        -0.25809E+06         0.00000E+00
    0.00000E+00         0.00000E+00        -0.13326E+01
 
    0.25808E+06        -0.14456E-09         0.00000E+00
   -0.14456E-09        -0.25809E+06         0.00000E+00
    0.00000E+00         0.00000E+00        -0.13326E+01
 
    0.25808E+06         0.28912E-09         0.00000E+00
    0.28912E-09        -0.25809E+06         0.00000E+00
    0.00000E+00         0.00000E+00        -0.13326E+01
 
    0.25808E+06         0.36140E-10         0.00000E+00
    0.36140E-10        -0.25809E+06         0.00000E+00
    0.00000E+00         0.00000E+00        -0.13326E+01
 
    0.25808E+06        -0.86736E-09         0.00000E+00
   -0.86736E-09        -0.25809E+06         0.00000E+00
    0.00000E+00         0.00000E+00        -0.13326E+01
 
    0.25808E+06         0.46982E-09         0.00000E+00
    0.46982E-09        -0.25809E+06         0.00000E+00
    0.00000E+00         0.00000E+00        -0.13326E+01
 
    0.25808E+06        -0.61438E-09         0.00000E+00
   -0.61438E-09        -0.25809E+06         0.00000E+00
    0.00000E+00         0.00000E+00        -0.13326E+01
 
    0.25808E+06         0.18070E-09         0.00000E+00
    0.18070E-09        -0.25809E+06         0.00000E+00
    0.00000E+00         0.00000E+00        -0.15930E+01
 
    0.25808E+06        -0.25298E-09         0.00000E+00
   -0.25298E-09        -0.25809E+06         0.00000E+00
    0.00000E+00         0.00000E+00        -0.15930E+01
 
    0.25808E+06        -0.14456E-09         0.00000E+00
   -0.14456E-09        -0.25809E+06         0.00000E+00
    0.00000E+00         0.00000E+00        -0.15930E+01
 
    0.25808E+06        -0.21684E-09         0.00000E+00
   -0.21684E-09        -0.25809E+06         0.00000E+00
    0.00000E+00         0.00000E+00        -0.15930E+01
 
    0.25808E+06         0.10842E-09         0.00000E+00
    0.10842E-09        -0.25809E+06         0.00000E+00
    0.00000E+00         0.00000E+00        -0.15930E+01
 
    0.25808E+06        -0.50596E-09         0.00000E+00
   -0.50596E-09        -0.25809E+06         0.00000E+00
    0.00000E+00         0.00000E+00        -0.15930E+01
 
    0.25808E+06        -0.14456E-09         0.00000E+00
   -0.14456E-09        -0.25809E+06         0.00000E+00
    0.00000E+00         0.00000E+00        -0.15930E+01
 
    0.25808E+06        -0.50596E-09         0.00000E+00
   -0.50596E-09        -0.25809E+06         0.00000E+00
    0.00000E+00         0.00000E+00        -0.15930E+01
 
    0.25808E+06         0.46982E-09         0.00000E+00
    0.46982E-09        -0.25809E+06         0.00000E+00
    0.00000E+00         0.00000E+00        -0.15930E+01
 
    0.25808E+06         0.25298E-09         0.00000E+00
    0.25298E-09        -0.25809E+06         0.00000E+00
    0.00000E+00         0.00000E+00        -0.15930E+01
 
    0.25808E+06        -0.21684E-09         0.00000E+00
   -0.21684E-09        -0.25809E+06         0.00000E+00
    0.00000E+00         0.00000E+00        -0.15930E+01
 
    0.25808E+06         0.61438E-09         0.00000E+00
    0.61438E-09        -0.25809E+06         0.00000E+00
    0.00000E+00         0.00000E+00        -0.15930E+01
 
    0.25808E+06        -0.14456E-09         0.00000E+00
   -0.14456E-09        -0.25809E+06         0.00000E+00
    0.00000E+00         0.00000E+00        -0.15930E+01
 
    0.25808E+06         0.21684E-09         0.00000E+00
    0.21684E-09        -0.25809E+06         0.00000E+00
    0.00000E+00         0.00000E+00        -0.15930E+01
 
    0.25808E+06         0.10842E-09         0.00000E+00
    0.10842E-09        -0.25809E+06         0.00000E+00
    0.00000E+00         0.00000E+00        -0.15930E+01
 
    0.25808E+06         0.43368E-09         0.00000E+00
    0.43368E-09        -0.25809E+06         0.00000E+00
    0.00000E+00         0.00000E+00        -0.19044E+01
 
    0.25808E+06        -0.90350E-09         0.00000E+00
   -0.90350E-09        -0.25809E+06         0.00000E+00
    0.00000E+00         0.00000E+00        -0.19044E+01
 
    0.25808E+06        -0.32526E-09         0.00000E+00
   -0.32526E-09        -0.25809E+06         0.00000E+00
    0.00000E+00         0.00000E+00        -0.19044E+01
 
    0.25808E+06         0.86736E-09         0.00000E+00
    0.86736E-09        -0.25809E+06         0.00000E+00
    0.00000E+00         0.00000E+00        -0.19044E+01
 
    0.25808E+06         0.72280E-10         0.00000E+00
    0.72280E-10        -0.25809E+06         0.00000E+00
    0.00000E+00         0.00000E+00        -0.19044E+01
 
    0.25808E+06         0.36140E-09         0.00000E+00
    0.36140E-09        -0.25809E+06         0.00000E+00
    0.00000E+00         0.00000E+00        -0.19044E+01
 
    0.25808E+06         0.32526E-09         0.00000E+00
    0.32526E-09        -0.25809E+06         0.00000E+00
    0.00000E+00         0.00000E+00        -0.19044E+01
 
    0.25808E+06        -0.10842E-09         0.00000E+00
   -0.10842E-09        -0.25809E+06         0.00000E+00
    0.00000E+00         0.00000E+00        -0.19044E+01
 
    0.25808E+06        -0.36140E-10         0.00000E+00
   -0.36140E-10        -0.25809E+06         0.00000E+00
    0.00000E+00         0.00000E+00        -0.19044E+01
 
    0.25808E+06         0.10842E-09         0.00000E+00
    0.10842E-09        -0.25809E+06         0.00000E+00
    0.00000E+00         0.00000E+00        -0.19044E+01
 
    0.25808E+06        -0.18070E-09         0.00000E+00
   -0.18070E-09        -0.25809E+06         0.00000E+00
    0.00000E+00         0.00000E+00        -0.19044E+01
 
    0.25808E+06        -0.39754E-09         0.00000E+00
   -0.39754E-09        -0.25809E+06         0.00000E+00
    0.00000E+00         0.00000E+00        -0.19044E+01
 
    0.25808E+06         0.14456E-09         0.00000E+00
    0.14456E-09        -0.25809E+06         0.00000E+00
    0.00000E+00         0.00000E+00        -0.19044E+01
 
    0.25808E+06         0.61438E-09         0.00000E+00
    0.61438E-09        -0.25809E+06         0.00000E+00
    0.00000E+00         0.00000E+00        -0.19044E+01
 
    0.25808E+06        -0.21684E-09         0.00000E+00
   -0.21684E-09        -0.25809E+06         0.00000E+00
    0.00000E+00         0.00000E+00        -0.19044E+01
 
    0.25808E+06         0.25298E-09         0.00000E+00
    0.25298E-09        -0.25809E+06         0.00000E+00
    0.00000E+00         0.00000E+00        -0.22766E+01
 
    0.25808E+06        -0.36140E-09         0.00000E+00
   -0.36140E-09        -0.25809E+06         0.00000E+00
    0.00000E+00         0.00000E+00        -0.22766E+01
 
    0.25808E+06         0.43368E-09         0.00000E+00
    0.43368E-09        -0.25809E+06         0.00000E+00
    0.00000E+00         0.00000E+00        -0.22766E+01
 
    0.25808E+06         0.10842E-09         0.00000E+00
    0.10842E-09        -0.25809E+06         0.00000E+00
    0.00000E+00         0.00000E+00        -0.22766E+01
 
    0.25808E+06         0.10842E-09         0.00000E+00
    0.10842E-09        -0.25809E+06         0.00000E+00
    0.00000E+00         0.00000E+00        -0.22766E+01
 
    0.25808E+06        -0.36140E-09         0.00000E+00
   -0.36140E-09        -0.25809E+06         0.00000E+00
    0.00000E+00         0.00000E+00        -0.22766E+01
 
    0.25808E+06         0.25298E-09         0.00000E+00
    0.25298E-09        -0.25809E+06         0.00000E+00
    0.00000E+00         0.00000E+00        -0.22766E+01
 
    0.25808E+06        -0.25298E-09         0.00000E+00
   -0.25298E-09        -0.25809E+06         0.00000E+00
    0.00000E+00         0.00000E+00        -0.22766E+01
 
    0.25808E+06        -0.14456E-09         0.00000E+00
   -0.14456E-09        -0.25809E+06         0.00000E+00
    0.00000E+00         0.00000E+00        -0.22766E+01
 
    0.25808E+06        -0.72280E-10         0.00000E+00
   -0.72280E-10        -0.25809E+06         0.00000E+00
    0.00000E+00         0.00000E+00        -0.22766E+01
 
    0.25808E+06         0.72280E-10         0.00000E+00
    0.72280E-10        -0.25809E+06         0.00000E+00
    0.00000E+00         0.00000E+00        -0.22766E+01
 
    0.25808E+06        -0.36140E-09         0.00000E+00
   -0.36140E-09        -0.25809E+06         0.00000E+00
    0.00000E+00         0.00000E+00        -0.22766E+01
 
    0.25808E+06         0.00000E+00         0.00000E+00
    0.00000E+00        -0.25809E+06         0.00000E+00
    0.00000E+00         0.00000E+00        -0.22766E+01
 
    0.25808E+06        -0.10842E-09         0.00000E+00
   -0.10842E-09        -0.25809E+06         0.00000E+00
    0.00000E+00         0.00000E+00        -0.22766E+01
 
    0.25808E+06        -0.72280E-10         0.00000E+00
   -0.72280E-10        -0.25809E+06         0.00000E+00
    0.00000E+00         0.00000E+00        -0.22766E+01
 
    0.25807E+06         0.72280E-10         0.00000E+00
    0.72280E-10        -0.25809E+06         0.00000E+00
    0.00000E+00         0.00000E+00        -0.27215E+01
 
    0.25807E+06        -0.32526E-09         0.00000E+00
   -0.32526E-09        -0.25809E+06         0.00000E+00
    0.00000E+00         0.00000E+00        -0.27215E+01
 
    0.25807E+06        -0.28912E-09         0.00000E+00
   -0.28912E-09        -0.25809E+06         0.00000E+00
    0.00000E+00         0.00000E+00        -0.27215E+01
 
    0.25807E+06         0.86736E-09         0.00000E+00
    0.86736E-09        -0.25809E+06         0.00000E+00
    0.00000E+00         0.00000E+00        -0.27215E+01
 
    0.25807E+06        -0.39754E-09         0.00000E+00
   -0.39754E-09        -0.25809E+06         0.00000E+00
    0.00000E+00         0.00000E+00        -0.27215E+01
 
    0.25807E+06        -0.10119E-08         0.00000E+00
   -0.10119E-08        -0.25809E+06         0.00000E+00
    0.00000E+00         0.00000E+00        -0.27215E+01
 
    0.25807E+06         0.93964E-09         0.00000E+00
    0.93964E-09        -0.25809E+06         0.00000E+00
    0.00000E+00         0.00000E+00        -0.27215E+01
 
    0.25807E+06        -0.43368E-09         0.00000E+00
   -0.43368E-09        -0.25809E+06         0.00000E+00
    0.00000E+00         0.00000E+00        -0.27215E+01
 
    0.25807E+06         0.00000E+00         0.00000E+00
    0.00000E+00        -0.25809E+06         0.00000E+00
    0.00000E+00         0.00000E+00        -0.27215E+01
 
    0.25807E+06        -0.14456E-09         0.00000E+00
   -0.14456E-09        -0.25809E+06         0.00000E+00
    0.00000E+00         0.00000E+00        -0.27215E+01
 
    0.25807E+06         0.39754E-09         0.00000E+00
    0.39754E-09        -0.25809E+06         0.00000E+00
    0.00000E+00         0.00000E+00        -0.27215E+01
 
    0.25807E+06         0.14456E-09         0.00000E+00
    0.14456E-09        -0.25809E+06         0.00000E+00
    0.00000E+00         0.00000E+00        -0.27215E+01
 
    0.25807E+06        -0.72280E-10         0.00000E+00
   -0.72280E-10        -0.25809E+06         0.00000E+00
    0.00000E+00         0.00000E+00        -0.27215E+01
 
    0.25807E+06        -0.21684E-09         0.00000E+00
   -0.21684E-09        -0.25809E+06         0.00000E+00
    0.00000E+00         0.00000E+00        -0.27215E+01
 
    0.25807E+06        -0.28912E-09         0.00000E+00
   -0.28912E-09        -0.25809E+06         0.00000E+00
    0.00000E+00         0.00000E+00        -0.27215E+01
 
    0.25807E+06         0.54210E-09         0.00000E+00
    0.54210E-09        -0.25809E+06         0.00000E+00
    0.00000E+00         0.00000E+00        -0.32533E+01
 
    0.25807E+06        -0.14456E-09         0.00000E+00
   -0.14456E-09        -0.25809E+06         0.00000E+00
    0.00000E+00         0.00000E+00        -0.32533E+01
 
    0.25807E+06        -0.18070E-09         0.00000E+00
   -0.18070E-09        -0.25809E+06         0.00000E+00
    0.00000E+00         0.00000E+00        -0.32533E+01
 
    0.25807E+06         0.21684E-09         0.00000E+00
    0.21684E-09        -0.25809E+06         0.00000E+00
    0.00000E+00         0.00000E+00        -0.32533E+01
 
    0.25807E+06        -0.14095E-08         0.00000E+00
   -0.14095E-08        -0.25809E+06         0.00000E+00
    0.00000E+00         0.00000E+00        -0.32533E+01
 
    0.25807E+06         0.28912E-09         0.00000E+00
    0.28912E-09        -0.25809E+06         0.00000E+00
    0.00000E+00         0.00000E+00        -0.32533E+01
 
    0.25807E+06         0.10842E-08         0.00000E+00
    0.10842E-08        -0.25809E+06         0.00000E+00
    0.00000E+00         0.00000E+00        -0.32533E+01
 
    0.25807E+06        -0.83122E-09         0.00000E+00
   -0.83122E-09        -0.25809E+06         0.00000E+00
    0.00000E+00         0.00000E+00        -0.32533E+01
 
    0.25807E+06         0.36140E-09         0.00000E+00
    0.36140E-09        -0.25809E+06         0.00000E+00
    0.00000E+00         0.00000E+00        -0.32533E+01
 
    0.25807E+06         0.36140E-09         0.00000E+00
    0.36140E-09        -0.25809E+06         0.00000E+00
    0.00000E+00         0.00000E+00        -0.32533E+01
 
    0.25807E+06        -0.72280E-10         0.00000E+00
   -0.72280E-10        -0.25809E+06         0.00000E+00
    0.00000E+00         0.00000E+00        -0.32533E+01
 
    0.25807E+06         0.21684E-09         0.00000E+00
    0.21684E-09        -0.25809E+06         0.00000E+00
    0.00000E+00         0.00000E+00        -0.32533E+01
 
    0.25807E+06        -0.36140E-09         0.00000E+00
   -0.36140E-09        -0.25809E+06         0.00000E+00
    0.00000E+00         0.00000E+00        -0.32533E+01
 
    0.25807E+06        -0.50596E-09         0.00000E+00
   -0.50596E-09        -0.25809E+06         0.00000E+00
    0.00000E+00         0.00000E+00        -0.32533E+01
 
    0.25807E+06        -0.28912E-09         0.00000E+00
   -0.28912E-09        -0.25809E+06         0.00000E+00
    0.00000E+00         0.00000E+00        -0.32533E+01
 
    0.25807E+06        -0.65052E-09         0.00000E+00
   -0.65052E-09        -0.25809E+06         0.00000E+00
    0.00000E+00         0.00000E+00        -0.38890E+01
 
    0.25807E+06         0.39754E-09         0.00000E+00
    0.39754E-09        -0.25809E+06         0.00000E+00
    0.00000E+00         0.00000E+00        -0.38890E+01
 
    0.25807E+06        -0.13733E-08         0.00000E+00
   -0.13733E-08        -0.25809E+06         0.00000E+00
    0.00000E+00         0.00000E+00        -0.38890E+01
 
    0.25807E+06         0.43368E-09         0.00000E+00
    0.43368E-09        -0.25809E+06         0.00000E+00
    0.00000E+00         0.00000E+00        -0.38890E+01
 
    0.25807E+06        -0.13010E-08         0.00000E+00
   -0.13010E-08        -0.25809E+06         0.00000E+00
    0.00000E+00         0.00000E+00        -0.38890E+01
 
    0.25807E+06         0.00000E+00         0.00000E+00
    0.00000E+00        -0.25809E+06         0.00000E+00
    0.00000E+00         0.00000E+00        -0.38890E+01
 
    0.25807E+06        -0.83122E-09         0.00000E+00
   -0.83122E-09        -0.25809E+06         0.00000E+00
    0.00000E+00         0.00000E+00        -0.38890E+01
 
    0.25807E+06        -0.57824E-09         0.00000E+00
   -0.57824E-09        -0.25809E+06         0.00000E+00
    0.00000E+00         0.00000E+00        -0.38890E+01
 
    0.25807E+06        -0.61438E-09         0.00000E+00
   -0.61438E-09        -0.25809E+06         0.00000E+00
    0.00000E+00         0.00000E+00        -0.38890E+01
 
    0.25807E+06         0.14456E-09         0.00000E+00
    0.14456E-09        -0.25809E+06         0.00000E+00
    0.00000E+00         0.00000E+00        -0.38890E+01
 
    0.25807E+06        -0.61438E-09         0.00000E+00
   -0.61438E-09        -0.25809E+06         0.00000E+00
    0.00000E+00         0.00000E+00        -0.38890E+01
 
    0.25807E+06         0.43368E-09         0.00000E+00
    0.43368E-09        -0.25809E+06         0.00000E+00
    0.00000E+00         0.00000E+00        -0.38890E+01
 
    0.25807E+06         0.36140E-09         0.00000E+00
    0.36140E-09        -0.25809E+06         0.00000E+00
    0.00000E+00         0.00000E+00        -0.38890E+01
 
    0.25807E+06        -0.65052E-09         0.00000E+00
   -0.65052E-09        -0.25809E+06         0.00000E+00
    0.00000E+00         0.00000E+00        -0.38890E+01
 
    0.25807E+06        -0.28912E-09         0.00000E+00
   -0.28912E-09        -0.25809E+06         0.00000E+00
    0.00000E+00         0.00000E+00        -0.38890E+01
 
    0.25807E+06         0.14456E-09         0.00000E+00
    0.14456E-09        -0.25809E+06         0.00000E+00
    0.00000E+00         0.00000E+00        -0.46488E+01
 
    0.25807E+06        -0.14456E-09         0.00000E+00
   -0.14456E-09        -0.25809E+06         0.00000E+00
    0.00000E+00         0.00000E+00        -0.46488E+01
 
    0.25807E+06        -0.32526E-09         0.00000E+00
   -0.32526E-09        -0.25809E+06         0.00000E+00
    0.00000E+00         0.00000E+00        -0.46488E+01
 
    0.25807E+06        -0.14456E-09         0.00000E+00
   -0.14456E-09        -0.25809E+06         0.00000E+00
    0.00000E+00         0.00000E+00        -0.46488E+01
 
    0.25807E+06        -0.36140E-10         0.00000E+00
   -0.36140E-10        -0.25809E+06         0.00000E+00
    0.00000E+00         0.00000E+00        -0.46488E+01
 
    0.25807E+06         0.43368E-09         0.00000E+00
    0.43368E-09        -0.25809E+06         0.00000E+00
    0.00000E+00         0.00000E+00        -0.46488E+01
 
    0.25807E+06        -0.72280E-10         0.00000E+00
   -0.72280E-10        -0.25809E+06         0.00000E+00
    0.00000E+00         0.00000E+00        -0.46488E+01
 
    0.25807E+06        -0.36140E-09         0.00000E+00
   -0.36140E-09        -0.25809E+06         0.00000E+00
    0.00000E+00         0.00000E+00        -0.46488E+01
 
    0.25807E+06         0.36140E-09         0.00000E+00
    0.36140E-09        -0.25809E+06         0.00000E+00
    0.00000E+00         0.00000E+00        -0.46488E+01
 
    0.25807E+06         0.86736E-09         0.00000E+00
    0.86736E-09        -0.25809E+06         0.00000E+00
    0.00000E+00         0.00000E+00        -0.46488E+01
 
    0.25807E+06         0.61438E-09         0.00000E+00
    0.61438E-09        -0.25809E+06         0.00000E+00
    0.00000E+00         0.00000E+00        -0.46488E+01
 
    0.25807E+06        -0.10119E-08         0.00000E+00
   -0.10119E-08        -0.25809E+06         0.00000E+00
    0.00000E+00         0.00000E+00        -0.46488E+01
 
    0.25807E+06         0.36140E-09         0.00000E+00
    0.36140E-09        -0.25809E+06         0.00000E+00
    0.00000E+00         0.00000E+00        -0.46488E+01
 
    0.25807E+06         0.21684E-09         0.00000E+00
    0.21684E-09        -0.25809E+06         0.00000E+00
    0.00000E+00         0.00000E+00        -0.46488E+01
 
    0.25807E+06         0.72280E-10         0.00000E+00
    0.72280E-10        -0.25809E+06         0.00000E+00
    0.00000E+00         0.00000E+00        -0.46488E+01
 
    0.25806E+06        -0.36140E-10         0.00000E+00
   -0.36140E-10        -0.25809E+06         0.00000E+00
    0.00000E+00         0.00000E+00        -0.55570E+01
 
    0.25806E+06         0.25298E-09         0.00000E+00
    0.25298E-09        -0.25809E+06         0.00000E+00
    0.00000E+00         0.00000E+00        -0.55570E+01
 
    0.25806E+06         0.21684E-09         0.00000E+00
    0.21684E-09        -0.25809E+06         0.00000E+00
    0.00000E+00         0.00000E+00        -0.55570E+01
 
    0.25806E+06         0.36140E-10         0.00000E+00
    0.36140E-10        -0.25809E+06         0.00000E+00
    0.00000E+00         0.00000E+00        -0.55570E+01
 
    0.25806E+06        -0.10842E-09         0.00000E+00
   -0.10842E-09        -0.25809E+06         0.00000E+00
    0.00000E+00         0.00000E+00        -0.55570E+01
 
    0.25806E+06        -0.32526E-09         0.00000E+00
   -0.32526E-09        -0.25809E+06         0.00000E+00
    0.00000E+00         0.00000E+00        -0.55570E+01
 
    0.25806E+06        -0.61438E-09         0.00000E+00
   -0.61438E-09        -0.25809E+06         0.00000E+00
    0.00000E+00         0.00000E+00        -0.55570E+01
 
    0.25806E+06        -0.21684E-09         0.00000E+00
   -0.21684E-09        -0.25809E+06         0.00000E+00
    0.00000E+00         0.00000E+00        -0.55570E+01
 
    0.25806E+06        -0.72280E-10         0.00000E+00
   -0.72280E-10        -0.25809E+06         0.00000E+00
    0.00000E+00         0.00000E+00        -0.55570E+01
 
    0.25806E+06        -0.72280E-10         0.00000E+00
   -0.72280E-10        -0.25809E+06         0.00000E+00
    0.00000E+00         0.00000E+00        -0.55570E+01
 
    0.25806E+06         0.32526E-09         0.00000E+00
    0.32526E-09        -0.25809E+06         0.00000E+00
    0.00000E+00         0.00000E+00        -0.55570E+01
 
    0.25806E+06        -0.50596E-09         0.00000E+00
   -0.50596E-09        -0.25809E+06         0.00000E+00
    0.00000E+00         0.00000E+00        -0.55570E+01
 
    0.25806E+06        -0.72280E-10         0.00000E+00
   -0.72280E-10        -0.25809E+06         0.00000E+00
    0.00000E+00         0.00000E+00        -0.55570E+01
 
    0.25806E+06         0.28912E-09         0.00000E+00
    0.28912E-09        -0.25809E+06         0.00000E+00
    0.00000E+00         0.00000E+00        -0.55570E+01
 
    0.25806E+06         0.14456E-09         0.00000E+00
    0.14456E-09        -0.25809E+06         0.00000E+00
    0.00000E+00         0.00000E+00        -0.55570E+01
 
    0.25806E+06        -0.72280E-10         0.00000E+00
   -0.72280E-10        -0.25809E+06         0.00000E+00
    0.00000E+00         0.00000E+00        -0.66425E+01
 
    0.25806E+06        -0.36140E-09         0.00000E+00
   -0.36140E-09        -0.25809E+06         0.00000E+00
    0.00000E+00         0.00000E+00        -0.66425E+01
 
    0.25806E+06        -0.28912E-09         0.00000E+00
   -0.28912E-09        -0.25809E+06         0.00000E+00
    0.00000E+00         0.00000E+00        -0.66425E+01
 
    0.25806E+06        -0.72280E-10         0.00000E+00
   -0.72280E-10        -0.25809E+06         0.00000E+00
    0.00000E+00         0.00000E+00        -0.66425E+01
 
    0.25806E+06         0.72280E-10         0.00000E+00
    0.72280E-10        -0.25809E+06         0.00000E+00
    0.00000E+00         0.00000E+00        -0.66425E+01
 
    0.25806E+06        -0.10842E-08         0.00000E+00
   -0.10842E-08        -0.25809E+06         0.00000E+00
    0.00000E+00         0.00000E+00        -0.66425E+01
 
    0.25806E+06         0.57824E-09         0.00000E+00
    0.57824E-09        -0.25809E+06         0.00000E+00
    0.00000E+00         0.00000E+00        -0.66425E+01
 
    0.25806E+06        -0.83122E-09         0.00000E+00
   -0.83122E-09        -0.25809E+06         0.00000E+00
    0.00000E+00         0.00000E+00        -0.66425E+01
 
    0.25806E+06         0.90350E-09         0.00000E+00
    0.90350E-09        -0.25809E+06         0.00000E+00
    0.00000E+00         0.00000E+00        -0.66425E+01
 
    0.25806E+06        -0.50596E-09         0.00000E+00
   -0.50596E-09        -0.25809E+06         0.00000E+00
    0.00000E+00         0.00000E+00        -0.66425E+01
 
    0.25806E+06        -0.72280E-10         0.00000E+00
   -0.72280E-10        -0.25809E+06         0.00000E+00
    0.00000E+00         0.00000E+00        -0.66425E+01
 
    0.25806E+06        -0.72280E-10         0.00000E+00
   -0.72280E-10        -0.25809E+06         0.00000E+00
    0.00000E+00         0.00000E+00        -0.66425E+01
 
    0.25806E+06         0.65052E-09         0.00000E+00
    0.65052E-09        -0.25809E+06         0.00000E+00
    0.00000E+00         0.00000E+00        -0.66425E+01
 
    0.25806E+06        -0.93964E-09         0.00000E+00
   -0.93964E-09        -0.25809E+06         0.00000E+00
    0.00000E+00         0.00000E+00        -0.66425E+01
 
    0.25806E+06         0.21684E-09         0.00000E+00
    0.21684E-09        -0.25809E+06         0.00000E+00
    0.00000E+00         0.00000E+00        -0.66425E+01
 
    0.25805E+06        -0.39754E-09         0.00000E+00
   -0.39754E-09        -0.25809E+06         0.00000E+00
    0.00000E+00         0.00000E+00        -0.79399E+01
 
    0.25805E+06         0.65052E-09         0.00000E+00
    0.65052E-09        -0.25809E+06         0.00000E+00
    0.00000E+00         0.00000E+00        -0.79399E+01
 
    0.25805E+06        -0.18431E-08         0.00000E+00
   -0.18431E-08        -0.25809E+06         0.00000E+00
    0.00000E+00         0.00000E+00        -0.79399E+01
 
    0.25805E+06         0.72280E-10         0.00000E+00
    0.72280E-10        -0.25809E+06         0.00000E+00
    0.00000E+00         0.00000E+00        -0.79399E+01
 
    0.25805E+06         0.17347E-08         0.00000E+00
    0.17347E-08        -0.25809E+06         0.00000E+00
    0.00000E+00         0.00000E+00        -0.79399E+01
 
    0.25805E+06        -0.93964E-09         0.00000E+00
   -0.93964E-09        -0.25809E+06         0.00000E+00
    0.00000E+00         0.00000E+00        -0.79399E+01
 
    0.25805E+06         0.65052E-09         0.00000E+00
    0.65052E-09        -0.25809E+06         0.00000E+00
    0.00000E+00         0.00000E+00        -0.79399E+01
 
    0.25805E+06         0.21684E-09         0.00000E+00
    0.21684E-09        -0.25809E+06         0.00000E+00
    0.00000E+00         0.00000E+00        -0.79399E+01
 
    0.25805E+06         0.57824E-09         0.00000E+00
    0.57824E-09        -0.25809E+06         0.00000E+00
    0.00000E+00         0.00000E+00        -0.79399E+01
 
    0.25805E+06         0.28912E-09         0.00000E+00
    0.28912E-09        -0.25809E+06         0.00000E+00
    0.00000E+00         0.00000E+00        -0.79399E+01
 
    0.25805E+06        -0.14456E-09         0.00000E+00
   -0.14456E-09        -0.25809E+06         0.00000E+00
    0.00000E+00         0.00000E+00        -0.79399E+01
 
    0.25805E+06        -0.10842E-08         0.00000E+00
   -0.10842E-08        -0.25809E+06         0.00000E+00
    0.00000E+00         0.00000E+00        -0.79399E+01
 
    0.25805E+06         0.15902E-08         0.00000E+00
    0.15902E-08        -0.25809E+06         0.00000E+00
    0.00000E+00         0.00000E+00        -0.79399E+01
 
    0.25805E+06         0.14456E-09         0.00000E+00
    0.14456E-09        -0.25809E+06         0.00000E+00
    0.00000E+00         0.00000E+00        -0.79399E+01
 
    0.25805E+06         0.43368E-09         0.00000E+00
    0.43368E-09        -0.25809E+06         0.00000E+00
    0.00000E+00         0.00000E+00        -0.79399E+01
 
    0.25805E+06        -0.54210E-09         0.00000E+00
   -0.54210E-09        -0.25809E+06         0.00000E+00
    0.00000E+00         0.00000E+00        -0.94904E+01
 
    0.25805E+06        -0.18070E-09         0.00000E+00
   -0.18070E-09        -0.25809E+06         0.00000E+00
    0.00000E+00         0.00000E+00        -0.94904E+01
 
    0.25805E+06        -0.72280E-09         0.00000E+00
   -0.72280E-09        -0.25809E+06         0.00000E+00
    0.00000E+00         0.00000E+00        -0.94904E+01
 
    0.25805E+06        -0.18070E-09         0.00000E+00
   -0.18070E-09        -0.25809E+06         0.00000E+00
    0.00000E+00         0.00000E+00        -0.94904E+01
 
    0.25805E+06         0.93964E-09         0.00000E+00
    0.93964E-09        -0.25809E+06         0.00000E+00
    0.00000E+00         0.00000E+00        -0.94904E+01
 
    0.25805E+06        -0.14456E-09         0.00000E+00
   -0.14456E-09        -0.25809E+06         0.00000E+00
    0.00000E+00         0.00000E+00        -0.94904E+01
 
    0.25805E+06        -0.36140E-10         0.00000E+00
   -0.36140E-10        -0.25809E+06         0.00000E+00
    0.00000E+00         0.00000E+00        -0.94904E+01
 
    0.25805E+06        -0.25298E-09         0.00000E+00
   -0.25298E-09        -0.25809E+06         0.00000E+00
    0.00000E+00         0.00000E+00        -0.94904E+01
 
    0.25805E+06         0.21684E-09         0.00000E+00
    0.21684E-09        -0.25809E+06         0.00000E+00
    0.00000E+00         0.00000E+00        -0.94904E+01
 
    0.25805E+06        -0.28912E-09         0.00000E+00
   -0.28912E-09        -0.25809E+06         0.00000E+00
    0.00000E+00         0.00000E+00        -0.94904E+01
 
    0.25805E+06         0.72280E-10         0.00000E+00
    0.72280E-10        -0.25809E+06         0.00000E+00
    0.00000E+00         0.00000E+00        -0.94904E+01
 
    0.25805E+06         0.00000E+00         0.00000E+00
    0.00000E+00        -0.25809E+06         0.00000E+00
    0.00000E+00         0.00000E+00        -0.94904E+01
 
    0.25805E+06         0.00000E+00         0.00000E+00
    0.00000E+00        -0.25809E+06         0.00000E+00
    0.00000E+00         0.00000E+00        -0.94904E+01
 
    0.25805E+06         0.00000E+00         0.00000E+00
    0.00000E+00        -0.25809E+06         0.00000E+00
    0.00000E+00         0.00000E+00        -0.94904E+01
 
    0.25805E+06        -0.21684E-09         0.00000E+00
   -0.21684E-09        -0.25809E+06         0.00000E+00
    0.00000E+00         0.00000E+00        -0.94904E+01
 
    0.25804E+06         0.36140E-10         0.00000E+00
    0.36140E-10        -0.25810E+06         0.00000E+00
    0.00000E+00         0.00000E+00        -0.11343E+02
 
    0.25804E+06         0.43368E-09         0.00000E+00
    0.43368E-09        -0.25810E+06         0.00000E+00
    0.00000E+00         0.00000E+00        -0.11343E+02
 
    0.25804E+06        -0.10842E-09         0.00000E+00
   -0.10842E-09        -0.25810E+06         0.00000E+00
    0.00000E+00         0.00000E+00        -0.11343E+02
 
    0.25804E+06         0.18070E-09         0.00000E+00
    0.18070E-09        -0.25810E+06         0.00000E+00
    0.00000E+00         0.00000E+00        -0.11343E+02
 
    0.25804E+06         0.36140E-10         0.00000E+00
    0.36140E-10        -0.25810E+06         0.00000E+00
    0.00000E+00         0.00000E+00        -0.11343E+02
 
    0.25804E+06        -0.54210E-09         0.00000E+00
   -0.54210E-09        -0.25810E+06         0.00000E+00
    0.00000E+00         0.00000E+00        -0.11343E+02
 
    0.25804E+06         0.14456E-09         0.00000E+00
    0.14456E-09        -0.25810E+06         0.00000E+00
    0.00000E+00         0.00000E+00        -0.11343E+02
 
    0.25804E+06         0.72280E-10         0.00000E+00
    0.72280E-10        -0.25810E+06         0.00000E+00
    0.00000E+00         0.00000E+00        -0.11343E+02
 
    0.25804E+06         0.65052E-09         0.00000E+00
    0.65052E-09        -0.25810E+06         0.00000E+00
    0.00000E+00         0.00000E+00        -0.11343E+02
 
    0.25804E+06         0.36140E-09         0.00000E+00
    0.36140E-09        -0.25810E+06         0.00000E+00
    0.00000E+00         0.00000E+00        -0.11343E+02
 
    0.25804E+06         0.72280E-10         0.00000E+00
    0.72280E-10        -0.25810E+06         0.00000E+00
    0.00000E+00         0.00000E+00        -0.11343E+02
 
    0.25804E+06        -0.72280E-10         0.00000E+00
   -0.72280E-10        -0.25810E+06         0.00000E+00
    0.00000E+00         0.00000E+00        -0.11343E+02
 
    0.25804E+06         0.72280E-10         0.00000E+00
    0.72280E-10        -0.25810E+06         0.00000E+00
    0.00000E+00         0.00000E+00        -0.11343E+02
 
    0.25804E+06        -0.65052E-09         0.00000E+00
   -0.65052E-09        -0.25810E+06         0.00000E+00
    0.00000E+00         0.00000E+00        -0.11343E+02
 
    0.25804E+06         0.50596E-09         0.00000E+00
    0.50596E-09        -0.25810E+06         0.00000E+00
    0.00000E+00         0.00000E+00        -0.11343E+02
 
    0.25803E+06         0.25298E-09         0.00000E+00
    0.25298E-09        -0.25810E+06         0.00000E+00
    0.00000E+00         0.00000E+00        -0.13558E+02
 
    0.25803E+06         0.25298E-09         0.00000E+00
    0.25298E-09        -0.25810E+06         0.00000E+00
    0.00000E+00         0.00000E+00        -0.13558E+02
 
    0.25803E+06         0.14456E-09         0.00000E+00
    0.14456E-09        -0.25810E+06         0.00000E+00
    0.00000E+00         0.00000E+00        -0.13558E+02
 
    0.25803E+06         0.43368E-09         0.00000E+00
    0.43368E-09        -0.25810E+06         0.00000E+00
    0.00000E+00         0.00000E+00        -0.13558E+02
 
    0.25803E+06         0.32526E-09         0.00000E+00
    0.32526E-09        -0.25810E+06         0.00000E+00
    0.00000E+00         0.00000E+00        -0.13558E+02
 
    0.25803E+06        -0.14456E-09         0.00000E+00
   -0.14456E-09        -0.25810E+06         0.00000E+00
    0.00000E+00         0.00000E+00        -0.13558E+02
 
    0.25803E+06         0.57824E-09         0.00000E+00
    0.57824E-09        -0.25810E+06         0.00000E+00
    0.00000E+00         0.00000E+00        -0.13558E+02
 
    0.25803E+06         0.21684E-09         0.00000E+00
    0.21684E-09        -0.25810E+06         0.00000E+00
    0.00000E+00         0.00000E+00        -0.13558E+02
 
    0.25803E+06         0.11565E-08         0.00000E+00
    0.11565E-08        -0.25810E+06         0.00000E+00
    0.00000E+00         0.00000E+00        -0.13558E+02
 
    0.25803E+06         0.21684E-09         0.00000E+00
    0.21684E-09        -0.25810E+06         0.00000E+00
    0.00000E+00         0.00000E+00        -0.13558E+02
 
    0.25803E+06         0.00000E+00         0.00000E+00
    0.00000E+00        -0.25810E+06         0.00000E+00
    0.00000E+00         0.00000E+00        -0.13558E+02
 
    0.25803E+06         0.00000E+00         0.00000E+00
    0.00000E+00        -0.25810E+06         0.00000E+00
    0.00000E+00         0.00000E+00        -0.13558E+02
 
    0.25803E+06         0.21684E-09         0.00000E+00
    0.21684E-09        -0.25810E+06         0.00000E+00
    0.00000E+00         0.00000E+00        -0.13558E+02
 
    0.25803E+06        -0.14456E-09         0.00000E+00
   -0.14456E-09        -0.25810E+06         0.00000E+00
    0.00000E+00         0.00000E+00        -0.13558E+02
 
    0.25803E+06         0.21684E-09         0.00000E+00
    0.21684E-09        -0.25810E+06         0.00000E+00
    0.00000E+00         0.00000E+00        -0.13558E+02
 
    0.25802E+06         0.83122E-09         0.00000E+00
    0.83122E-09        -0.25810E+06         0.00000E+00
    0.00000E+00         0.00000E+00        -0.16204E+02
 
    0.25802E+06        -0.36140E-10         0.00000E+00
   -0.36140E-10        -0.25810E+06         0.00000E+00
    0.00000E+00         0.00000E+00        -0.16204E+02
 
    0.25802E+06         0.46982E-09         0.00000E+00
    0.46982E-09        -0.25810E+06         0.00000E+00
    0.00000E+00         0.00000E+00        -0.16204E+02
 
    0.25802E+06         0.10842E-09         0.00000E+00
    0.10842E-09        -0.25810E+06         0.00000E+00
    0.00000E+00         0.00000E+00        -0.16204E+02
 
    0.25802E+06         0.14456E-09         0.00000E+00
    0.14456E-09        -0.25810E+06         0.00000E+00
    0.00000E+00         0.00000E+00        -0.16204E+02
 
    0.25802E+06        -0.72280E-10         0.00000E+00
   -0.72280E-10        -0.25810E+06         0.00000E+00
    0.00000E+00         0.00000E+00        -0.16204E+02
 
    0.25802E+06        -0.43368E-09         0.00000E+00
   -0.43368E-09        -0.25810E+06         0.00000E+00
    0.00000E+00         0.00000E+00        -0.16204E+02
 
    0.25802E+06         0.86736E-09         0.00000E+00
    0.86736E-09        -0.25810E+06         0.00000E+00
    0.00000E+00         0.00000E+00        -0.16204E+02
 
    0.25802E+06         0.14456E-09         0.00000E+00
    0.14456E-09        -0.25810E+06         0.00000E+00
    0.00000E+00         0.00000E+00        -0.16204E+02
 
    0.25802E+06         0.43368E-09         0.00000E+00
    0.43368E-09        -0.25810E+06         0.00000E+00
    0.00000E+00         0.00000E+00        -0.16204E+02
 
    0.25802E+06         0.14456E-09         0.00000E+00
    0.14456E-09        -0.25810E+06         0.00000E+00
    0.00000E+00         0.00000E+00        -0.16204E+02
 
    0.25802E+06         0.72280E-10         0.00000E+00
    0.72280E-10        -0.25810E+06         0.00000E+00
    0.00000E+00         0.00000E+00        -0.16204E+02
 
    0.25802E+06         0.36140E-09         0.00000E+00
    0.36140E-09        -0.25810E+06         0.00000E+00
    0.00000E+00         0.00000E+00        -0.16204E+02
 
    0.25802E+06         0.21684E-09         0.00000E+00
    0.21684E-09        -0.25810E+06         0.00000E+00
    0.00000E+00         0.00000E+00        -0.16204E+02
 
    0.25802E+06         0.72280E-10         0.00000E+00
    0.72280E-10        -0.25810E+06         0.00000E+00
    0.00000E+00         0.00000E+00        -0.16204E+02
 
    0.25801E+06        -0.57824E-09         0.00000E+00
   -0.57824E-09        -0.25810E+06         0.00000E+00
    0.00000E+00         0.00000E+00        -0.19366E+02
 
    0.25801E+06        -0.50596E-09         0.00000E+00
   -0.50596E-09        -0.25810E+06         0.00000E+00
    0.00000E+00         0.00000E+00        -0.19366E+02
 
    0.25801E+06         0.25298E-09         0.00000E+00
    0.25298E-09        -0.25810E+06         0.00000E+00
    0.00000E+00         0.00000E+00        -0.19366E+02
 
    0.25801E+06         0.14456E-09         0.00000E+00
    0.14456E-09        -0.25810E+06         0.00000E+00
    0.00000E+00         0.00000E+00        -0.19366E+02
 
    0.25801E+06        -0.36140E-10         0.00000E+00
   -0.36140E-10        -0.25810E+06         0.00000E+00
    0.00000E+00         0.00000E+00        -0.19366E+02
 
    0.25801E+06         0.36140E-09         0.00000E+00
    0.36140E-09        -0.25810E+06         0.00000E+00
    0.00000E+00         0.00000E+00        -0.19366E+02
 
    0.25801E+06         0.36140E-09         0.00000E+00
    0.36140E-09        -0.25810E+06         0.00000E+00
    0.00000E+00         0.00000E+00        -0.19366E+02
 
    0.25801E+06        -0.14456E-09         0.00000E+00
   -0.14456E-09        -0.25810E+06         0.00000E+00
    0.00000E+00         0.00000E+00        -0.19366E+02
 
    0.25801E+06         0.57824E-09         0.00000E+00
    0.57824E-09        -0.25810E+06         0.00000E+00
    0.00000E+00         0.00000E+00        -0.19366E+02
 
    0.25801E+06         0.00000E+00         0.00000E+00
    0.00000E+00        -0.25810E+06         0.00000E+00
    0.00000E+00         0.00000E+00        -0.19366E+02
 
    0.25801E+06         0.21684E-09         0.00000E+00
    0.21684E-09        -0.25810E+06         0.00000E+00
    0.00000E+00         0.00000E+00        -0.19366E+02
 
    0.25801E+06         0.21684E-09         0.00000E+00
    0.21684E-09        -0.25810E+06         0.00000E+00
    0.00000E+00         0.00000E+00        -0.19366E+02
 
    0.25801E+06         0.50596E-09         0.00000E+00
    0.50596E-09        -0.25810E+06         0.00000E+00
    0.00000E+00         0.00000E+00        -0.19366E+02
 
    0.25801E+06         0.21684E-09         0.00000E+00
    0.21684E-09        -0.25810E+06         0.00000E+00
    0.00000E+00         0.00000E+00        -0.19366E+02
 
    0.25801E+06         0.00000E+00         0.00000E+00
    0.00000E+00        -0.25810E+06         0.00000E+00
    0.00000E+00         0.00000E+00        -0.19366E+02
 
    0.25799E+06        -0.54210E-09         0.00000E+00
   -0.54210E-09        -0.25811E+06         0.00000E+00
    0.00000E+00         0.00000E+00        -0.23144E+02
 
    0.25799E+06         0.86736E-09         0.00000E+00
    0.86736E-09        -0.25811E+06         0.00000E+00
    0.00000E+00         0.00000E+00        -0.23144E+02
 
    0.25799E+06         0.00000E+00         0.00000E+00
    0.00000E+00        -0.25811E+06         0.00000E+00
    0.00000E+00         0.00000E+00        -0.23144E+02
 
    0.25799E+06        -0.36140E-10         0.00000E+00
   -0.36140E-10        -0.25811E+06         0.00000E+00
    0.00000E+00         0.00000E+00        -0.23144E+02
 
    0.25799E+06         0.21684E-09         0.00000E+00
    0.21684E-09        -0.25811E+06         0.00000E+00
    0.00000E+00         0.00000E+00        -0.23144E+02
 
    0.25799E+06         0.28912E-09         0.00000E+00
    0.28912E-09        -0.25811E+06         0.00000E+00
    0.00000E+00         0.00000E+00        -0.23144E+02
 
    0.25799E+06         0.00000E+00         0.00000E+00
    0.00000E+00        -0.25811E+06         0.00000E+00
    0.00000E+00         0.00000E+00        -0.23144E+02
 
    0.25799E+06         0.21684E-09         0.00000E+00
    0.21684E-09        -0.25811E+06         0.00000E+00
    0.00000E+00         0.00000E+00        -0.23144E+02
 
    0.25799E+06         0.28912E-09         0.00000E+00
    0.28912E-09        -0.25811E+06         0.00000E+00
    0.00000E+00         0.00000E+00        -0.23144E+02
 
    0.25799E+06         0.00000E+00         0.00000E+00
    0.00000E+00        -0.25811E+06         0.00000E+00
    0.00000E+00         0.00000E+00        -0.23144E+02
 
    0.25799E+06        -0.86736E-09         0.00000E+00
   -0.86736E-09        -0.25811E+06         0.00000E+00
    0.00000E+00         0.00000E+00        -0.23144E+02
 
    0.25799E+06        -0.72280E-10         0.00000E+00
   -0.72280E-10        -0.25811E+06         0.00000E+00
    0.00000E+00         0.00000E+00        -0.23144E+02
 
    0.25799E+06        -0.14456E-09         0.00000E+00
   -0.14456E-09        -0.25811E+06         0.00000E+00
    0.00000E+00         0.00000E+00        -0.23144E+02
 
    0.25799E+06        -0.14456E-09         0.00000E+00
   -0.14456E-09        -0.25811E+06         0.00000E+00
    0.00000E+00         0.00000E+00        -0.23144E+02
 
    0.25799E+06        -0.14456E-09         0.00000E+00
   -0.14456E-09        -0.25811E+06         0.00000E+00
    0.00000E+00         0.00000E+00        -0.23144E+02
 
    0.25797E+06        -0.54210E-09         0.00000E+00
   -0.54210E-09        -0.25811E+06         0.00000E+00
    0.00000E+00         0.00000E+00        -0.27659E+02
 
    0.25797E+06        -0.25298E-09         0.00000E+00
   -0.25298E-09        -0.25811E+06         0.00000E+00
    0.00000E+00         0.00000E+00        -0.27659E+02
 
    0.25797E+06        -0.36140E-09         0.00000E+00
   -0.36140E-09        -0.25811E+06         0.00000E+00
    0.00000E+00         0.00000E+00        -0.27659E+02
 
    0.25797E+06        -0.36140E-10         0.00000E+00
   -0.36140E-10        -0.25811E+06         0.00000E+00
    0.00000E+00         0.00000E+00        -0.27659E+02
 
    0.25797E+06         0.16624E-08         0.00000E+00
    0.16624E-08        -0.25811E+06         0.00000E+00
    0.00000E+00         0.00000E+00        -0.27659E+02
 
    0.25797E+06        -0.50596E-09         0.00000E+00
   -0.50596E-09        -0.25811E+06         0.00000E+00
    0.00000E+00         0.00000E+00        -0.27659E+02
 
    0.25797E+06         0.57824E-09         0.00000E+00
    0.57824E-09        -0.25811E+06         0.00000E+00
    0.00000E+00         0.00000E+00        -0.27659E+02
 
    0.25797E+06        -0.14456E-08         0.00000E+00
   -0.14456E-08        -0.25811E+06         0.00000E+00
    0.00000E+00         0.00000E+00        -0.27659E+02
 
    0.25797E+06         0.28912E-09         0.00000E+00
    0.28912E-09        -0.25811E+06         0.00000E+00
    0.00000E+00         0.00000E+00        -0.27659E+02
 
    0.25797E+06        -0.21684E-09         0.00000E+00
   -0.21684E-09        -0.25811E+06         0.00000E+00
    0.00000E+00         0.00000E+00        -0.27659E+02
 
    0.25797E+06         0.14456E-09         0.00000E+00
    0.14456E-09        -0.25811E+06         0.00000E+00
    0.00000E+00         0.00000E+00        -0.27659E+02
 
    0.25797E+06        -0.21684E-09         0.00000E+00
   -0.21684E-09        -0.25811E+06         0.00000E+00
    0.00000E+00         0.00000E+00        -0.27659E+02
 
    0.25797E+06         0.72280E-10         0.00000E+00
    0.72280E-10        -0.25811E+06         0.00000E+00
    0.00000E+00         0.00000E+00        -0.27659E+02
 
    0.25797E+06         0.36140E-09         0.00000E+00
    0.36140E-09        -0.25811E+06         0.00000E+00
    0.00000E+00         0.00000E+00        -0.27659E+02
 
    0.25797E+06        -0.36140E-09         0.00000E+00
   -0.36140E-09        -0.25811E+06         0.00000E+00
    0.00000E+00         0.00000E+00        -0.27659E+02
 
    0.25795E+06        -0.18070E-09         0.00000E+00
   -0.18070E-09        -0.25812E+06         0.00000E+00
    0.00000E+00         0.00000E+00        -0.33052E+02
 
    0.25795E+06         0.00000E+00         0.00000E+00
    0.00000E+00        -0.25812E+06         0.00000E+00
    0.00000E+00         0.00000E+00        -0.33052E+02
 
    0.25795E+06        -0.83122E-09         0.00000E+00
   -0.83122E-09        -0.25812E+06         0.00000E+00
    0.00000E+00         0.00000E+00        -0.33052E+02
 
    0.25795E+06        -0.72280E-10         0.00000E+00
   -0.72280E-10        -0.25812E+06         0.00000E+00
    0.00000E+00         0.00000E+00        -0.33052E+02
 
    0.25795E+06         0.11565E-08         0.00000E+00
    0.11565E-08        -0.25812E+06         0.00000E+00
    0.00000E+00         0.00000E+00        -0.33052E+02
 
    0.25795E+06        -0.93964E-09         0.00000E+00
   -0.93964E-09        -0.25812E+06         0.00000E+00
    0.00000E+00         0.00000E+00        -0.33052E+02
 
    0.25795E+06         0.28912E-09         0.00000E+00
    0.28912E-09        -0.25812E+06         0.00000E+00
    0.00000E+00         0.00000E+00        -0.33052E+02
 
    0.25795E+06         0.79508E-09         0.00000E+00
    0.79508E-09        -0.25812E+06         0.00000E+00
    0.00000E+00         0.00000E+00        -0.33052E+02
 
    0.25795E+06        -0.43368E-09         0.00000E+00
   -0.43368E-09        -0.25812E+06         0.00000E+00
    0.00000E+00         0.00000E+00        -0.33052E+02
 
    0.25795E+06        -0.50596E-09         0.00000E+00
   -0.50596E-09        -0.25812E+06         0.00000E+00
    0.00000E+00         0.00000E+00        -0.33052E+02
 
    0.25795E+06         0.13010E-08         0.00000E+00
    0.13010E-08        -0.25812E+06         0.00000E+00
    0.00000E+00         0.00000E+00        -0.33052E+02
 
    0.25795E+06        -0.93964E-09         0.00000E+00
   -0.93964E-09        -0.25812E+06         0.00000E+00
    0.00000E+00         0.00000E+00        -0.33052E+02
 
    0.25795E+06        -0.72280E-10         0.00000E+00
   -0.72280E-10        -0.25812E+06         0.00000E+00
    0.00000E+00         0.00000E+00        -0.33052E+02
 
    0.25795E+06        -0.72280E-10         0.00000E+00
   -0.72280E-10        -0.25812E+06         0.00000E+00
    0.00000E+00         0.00000E+00        -0.33052E+02
 
    0.25795E+06         0.10119E-08         0.00000E+00
    0.10119E-08        -0.25812E+06         0.00000E+00
    0.00000E+00         0.00000E+00        -0.33052E+02
 
    0.25793E+06        -0.65052E-09         0.00000E+00
   -0.65052E-09        -0.25812E+06         0.00000E+00
    0.00000E+00         0.00000E+00        -0.39494E+02
 
    0.25793E+06         0.39754E-09         0.00000E+00
    0.39754E-09        -0.25812E+06         0.00000E+00
    0.00000E+00         0.00000E+00        -0.39494E+02
 
    0.25793E+06        -0.21684E-09         0.00000E+00
   -0.21684E-09        -0.25812E+06         0.00000E+00
    0.00000E+00         0.00000E+00        -0.39494E+02
 
    0.25793E+06         0.21684E-09         0.00000E+00
    0.21684E-09        -0.25812E+06         0.00000E+00
    0.00000E+00         0.00000E+00        -0.39494E+02
 
    0.25793E+06        -0.36140E-09         0.00000E+00
   -0.36140E-09        -0.25812E+06         0.00000E+00
    0.00000E+00         0.00000E+00        -0.39494E+02
 
    0.25793E+06        -0.72280E-10         0.00000E+00
   -0.72280E-10        -0.25812E+06         0.00000E+00
    0.00000E+00         0.00000E+00        -0.39494E+02
 
    0.25793E+06        -0.21684E-09         0.00000E+00
   -0.21684E-09        -0.25812E+06         0.00000E+00
    0.00000E+00         0.00000E+00        -0.39494E+02
 
    0.25793E+06         0.15902E-08         0.00000E+00
    0.15902E-08        -0.25812E+06         0.00000E+00
    0.00000E+00         0.00000E+00        -0.39494E+02
 
    0.25793E+06        -0.36140E-09         0.00000E+00
   -0.36140E-09        -0.25812E+06         0.00000E+00
    0.00000E+00         0.00000E+00        -0.39494E+02
 
    0.25793E+06        -0.79508E-09         0.00000E+00
   -0.79508E-09        -0.25812E+06         0.00000E+00
    0.00000E+00         0.00000E+00        -0.39494E+02
 
    0.25793E+06         0.21684E-09         0.00000E+00
    0.21684E-09        -0.25812E+06         0.00000E+00
    0.00000E+00         0.00000E+00        -0.39494E+02
 
    0.25793E+06        -0.65052E-09         0.00000E+00
   -0.65052E-09        -0.25812E+06         0.00000E+00
    0.00000E+00         0.00000E+00        -0.39494E+02
 
    0.25793E+06        -0.36140E-09         0.00000E+00
   -0.36140E-09        -0.25812E+06         0.00000E+00
    0.00000E+00         0.00000E+00        -0.39494E+02
 
    0.25793E+06        -0.79508E-09         0.00000E+00
   -0.79508E-09        -0.25812E+06         0.00000E+00
    0.00000E+00         0.00000E+00        -0.39494E+02
 
    0.25793E+06         0.65052E-09         0.00000E+00
    0.65052E-09        -0.25812E+06         0.00000E+00
    0.00000E+00         0.00000E+00        -0.39494E+02
 
    0.25790E+06         0.36140E-10         0.00000E+00
    0.36140E-10        -0.25813E+06         0.00000E+00
    0.00000E+00         0.00000E+00        -0.47190E+02
 
    0.25790E+06         0.36140E-10         0.00000E+00
    0.36140E-10        -0.25813E+06         0.00000E+00
    0.00000E+00         0.00000E+00        -0.47190E+02
 
    0.25790E+06        -0.72280E-10         0.00000E+00
   -0.72280E-10        -0.25813E+06         0.00000E+00
    0.00000E+00         0.00000E+00        -0.47190E+02
 
    0.25790E+06        -0.72280E-10         0.00000E+00
   -0.72280E-10        -0.25813E+06         0.00000E+00
    0.00000E+00         0.00000E+00        -0.47190E+02
 
    0.25790E+06         0.50596E-09         0.00000E+00
    0.50596E-09        -0.25813E+06         0.00000E+00
    0.00000E+00         0.00000E+00        -0.47190E+02
 
    0.25790E+06         0.36140E-09         0.00000E+00
    0.36140E-09        -0.25813E+06         0.00000E+00
    0.00000E+00         0.00000E+00        -0.47190E+02
 
    0.25790E+06        -0.14456E-09         0.00000E+00
   -0.14456E-09        -0.25813E+06         0.00000E+00
    0.00000E+00         0.00000E+00        -0.47190E+02
 
    0.25790E+06         0.14456E-09         0.00000E+00
    0.14456E-09        -0.25813E+06         0.00000E+00
    0.00000E+00         0.00000E+00        -0.47190E+02
 
    0.25790E+06         0.10119E-08         0.00000E+00
    0.10119E-08        -0.25813E+06         0.00000E+00
    0.00000E+00         0.00000E+00        -0.47190E+02
 
    0.25790E+06        -0.21684E-09         0.00000E+00
   -0.21684E-09        -0.25813E+06         0.00000E+00
    0.00000E+00         0.00000E+00        -0.47190E+02
 
    0.25790E+06        -0.65052E-09         0.00000E+00
   -0.65052E-09        -0.25813E+06         0.00000E+00
    0.00000E+00         0.00000E+00        -0.47190E+02
 
    0.25790E+06         0.10119E-08         0.00000E+00
    0.10119E-08        -0.25813E+06         0.00000E+00
    0.00000E+00         0.00000E+00        -0.47190E+02
 
    0.25790E+06         0.00000E+00         0.00000E+00
    0.00000E+00        -0.25813E+06         0.00000E+00
    0.00000E+00         0.00000E+00        -0.47190E+02
 
    0.25790E+06        -0.28912E-09         0.00000E+00
   -0.28912E-09        -0.25813E+06         0.00000E+00
    0.00000E+00         0.00000E+00        -0.47190E+02
 
    0.25790E+06         0.50596E-09         0.00000E+00
    0.50596E-09        -0.25813E+06         0.00000E+00
    0.00000E+00         0.00000E+00        -0.47190E+02
 
    0.25786E+06         0.21684E-09         0.00000E+00
    0.21684E-09        -0.25814E+06         0.00000E+00
    0.00000E+00         0.00000E+00        -0.56382E+02
 
    0.25786E+06        -0.72280E-09         0.00000E+00
   -0.72280E-09        -0.25814E+06         0.00000E+00
    0.00000E+00         0.00000E+00        -0.56382E+02
 
    0.25786E+06         0.11565E-08         0.00000E+00
    0.11565E-08        -0.25814E+06         0.00000E+00
    0.00000E+00         0.00000E+00        -0.56382E+02
 
    0.25786E+06        -0.72280E-10         0.00000E+00
   -0.72280E-10        -0.25814E+06         0.00000E+00
    0.00000E+00         0.00000E+00        -0.56382E+02
 
    0.25786E+06        -0.14456E-09         0.00000E+00
   -0.14456E-09        -0.25814E+06         0.00000E+00
    0.00000E+00         0.00000E+00        -0.56382E+02
 
    0.25786E+06        -0.21684E-09         0.00000E+00
   -0.21684E-09        -0.25814E+06         0.00000E+00
    0.00000E+00         0.00000E+00        -0.56382E+02
 
    0.25786E+06         0.13733E-08         0.00000E+00
    0.13733E-08        -0.25814E+06         0.00000E+00
    0.00000E+00         0.00000E+00        -0.56382E+02
 
    0.25786E+06        -0.13010E-08         0.00000E+00
   -0.13010E-08        -0.25814E+06         0.00000E+00
    0.00000E+00         0.00000E+00        -0.56382E+02
 
    0.25786E+06         0.28912E-09         0.00000E+00
    0.28912E-09        -0.25814E+06         0.00000E+00
    0.00000E+00         0.00000E+00        -0.56382E+02
 
    0.25786E+06        -0.28912E-09         0.00000E+00
   -0.28912E-09        -0.25814E+06         0.00000E+00
    0.00000E+00         0.00000E+00        -0.56382E+02
 
    0.25786E+06        -0.11565E-08         0.00000E+00
   -0.11565E-08        -0.25814E+06         0.00000E+00
    0.00000E+00         0.00000E+00        -0.56382E+02
 
    0.25786E+06         0.57824E-09         0.00000E+00
    0.57824E-09        -0.25814E+06         0.00000E+00
    0.00000E+00         0.00000E+00        -0.56382E+02
 
    0.25786E+06         0.00000E+00         0.00000E+00
    0.00000E+00        -0.25814E+06         0.00000E+00
    0.00000E+00         0.00000E+00        -0.56382E+02
 
    0.25786E+06         0.28912E-09         0.00000E+00
    0.28912E-09        -0.25814E+06         0.00000E+00
    0.00000E+00         0.00000E+00        -0.56382E+02
 
    0.25786E+06        -0.14456E-09         0.00000E+00
   -0.14456E-09        -0.25814E+06         0.00000E+00
    0.00000E+00         0.00000E+00        -0.56382E+02
 
    0.25781E+06        -0.43368E-09         0.00000E+00
   -0.43368E-09        -0.25815E+06         0.00000E+00
    0.00000E+00         0.00000E+00        -0.67359E+02
 
    0.25781E+06        -0.57824E-09         0.00000E+00
   -0.57824E-09        -0.25815E+06         0.00000E+00
    0.00000E+00         0.00000E+00        -0.67359E+02
 
    0.25781E+06         0.10119E-08         0.00000E+00
    0.10119E-08        -0.25815E+06         0.00000E+00
    0.00000E+00         0.00000E+00        -0.67359E+02
 
    0.25781E+06         0.14456E-09         0.00000E+00
    0.14456E-09        -0.25815E+06         0.00000E+00
    0.00000E+00         0.00000E+00        -0.67359E+02
 
    0.25781E+06         0.28912E-09         0.00000E+00
    0.28912E-09        -0.25815E+06         0.00000E+00
    0.00000E+00         0.00000E+00        -0.67359E+02
 
    0.25781E+06        -0.57824E-09         0.00000E+00
   -0.57824E-09        -0.25815E+06         0.00000E+00
    0.00000E+00         0.00000E+00        -0.67359E+02
 
    0.25781E+06        -0.72280E-10         0.00000E+00
   -0.72280E-10        -0.25815E+06         0.00000E+00
    0.00000E+00         0.00000E+00        -0.67359E+02
 
    0.25781E+06         0.50596E-09         0.00000E+00
    0.50596E-09        -0.25815E+06         0.00000E+00
    0.00000E+00         0.00000E+00        -0.67359E+02
 
    0.25781E+06        -0.13733E-08         0.00000E+00
   -0.13733E-08        -0.25815E+06         0.00000E+00
    0.00000E+00         0.00000E+00        -0.67359E+02
 
    0.25781E+06         0.21684E-09         0.00000E+00
    0.21684E-09        -0.25815E+06         0.00000E+00
    0.00000E+00         0.00000E+00        -0.67359E+02
 
    0.25781E+06         0.28912E-09         0.00000E+00
    0.28912E-09        -0.25815E+06         0.00000E+00
    0.00000E+00         0.00000E+00        -0.67359E+02
 
    0.25781E+06         0.11565E-08         0.00000E+00
    0.11565E-08        -0.25815E+06         0.00000E+00
    0.00000E+00         0.00000E+00        -0.67359E+02
 
    0.25781E+06        -0.50596E-09         0.00000E+00
   -0.50596E-09        -0.25815E+06         0.00000E+00
    0.00000E+00         0.00000E+00        -0.67359E+02
 
    0.25781E+06        -0.21684E-09         0.00000E+00
   -0.21684E-09        -0.25815E+06         0.00000E+00
    0.00000E+00         0.00000E+00        -0.67359E+02
 
    0.25781E+06         0.57824E-09         0.00000E+00
    0.57824E-09        -0.25815E+06         0.00000E+00
    0.00000E+00         0.00000E+00        -0.67359E+02
 
    0.25776E+06        -0.36140E-09         0.00000E+00
   -0.36140E-09        -0.25816E+06         0.00000E+00
    0.00000E+00         0.00000E+00        -0.80468E+02
 
    0.25776E+06         0.14456E-08         0.00000E+00
    0.14456E-08        -0.25816E+06         0.00000E+00
    0.00000E+00         0.00000E+00        -0.80468E+02
 
    0.25776E+06         0.28912E-09         0.00000E+00
    0.28912E-09        -0.25816E+06         0.00000E+00
    0.00000E+00         0.00000E+00        -0.80468E+02
 
    0.25776E+06         0.13010E-08         0.00000E+00
    0.13010E-08        -0.25816E+06         0.00000E+00
    0.00000E+00         0.00000E+00        -0.80468E+02
 
    0.25776E+06        -0.93964E-09         0.00000E+00
   -0.93964E-09        -0.25816E+06         0.00000E+00
    0.00000E+00         0.00000E+00        -0.80468E+02
 
    0.25776E+06         0.57824E-09         0.00000E+00
    0.57824E-09        -0.25816E+06         0.00000E+00
    0.00000E+00         0.00000E+00        -0.80468E+02
 
    0.25776E+06         0.00000E+00         0.00000E+00
    0.00000E+00        -0.25816E+06         0.00000E+00
    0.00000E+00         0.00000E+00        -0.80468E+02
 
    0.25776E+06        -0.50596E-09         0.00000E+00
   -0.50596E-09        -0.25816E+06         0.00000E+00
    0.00000E+00         0.00000E+00        -0.80468E+02
 
    0.25776E+06         0.65052E-09         0.00000E+00
    0.65052E-09        -0.25816E+06         0.00000E+00
    0.00000E+00         0.00000E+00        -0.80468E+02
 
    0.25776E+06        -0.65052E-09         0.00000E+00
   -0.65052E-09        -0.25816E+06         0.00000E+00
    0.00000E+00         0.00000E+00        -0.80468E+02
 
    0.25776E+06         0.72280E-10         0.00000E+00
    0.72280E-10        -0.25816E+06         0.00000E+00
    0.00000E+00         0.00000E+00        -0.80468E+02
 
    0.25776E+06        -0.21684E-09         0.00000E+00
   -0.21684E-09        -0.25816E+06         0.00000E+00
    0.00000E+00         0.00000E+00        -0.80468E+02
 
    0.25776E+06        -0.50596E-09         0.00000E+00
   -0.50596E-09        -0.25816E+06         0.00000E+00
    0.00000E+00         0.00000E+00        -0.80468E+02
 
    0.25776E+06         0.72280E-09         0.00000E+00
    0.72280E-09        -0.25816E+06         0.00000E+00
    0.00000E+00         0.00000E+00        -0.80468E+02
 
    0.25776E+06         0.14456E-09         0.00000E+00
    0.14456E-09        -0.25816E+06         0.00000E+00
    0.00000E+00         0.00000E+00        -0.80468E+02
 
    0.25770E+06         0.11565E-08         0.00000E+00
    0.11565E-08        -0.25818E+06         0.00000E+00
    0.00000E+00         0.00000E+00        -0.96120E+02
 
    0.25770E+06        -0.28912E-09         0.00000E+00
   -0.28912E-09        -0.25818E+06         0.00000E+00
    0.00000E+00         0.00000E+00        -0.96120E+02
 
    0.25770E+06         0.21684E-09         0.00000E+00
    0.21684E-09        -0.25818E+06         0.00000E+00
    0.00000E+00         0.00000E+00        -0.96120E+02
 
    0.25770E+06         0.13733E-08         0.00000E+00
    0.13733E-08        -0.25818E+06         0.00000E+00
    0.00000E+00         0.00000E+00        -0.96120E+02
 
    0.25770E+06        -0.65052E-09         0.00000E+00
   -0.65052E-09        -0.25818E+06         0.00000E+00
    0.00000E+00         0.00000E+00        -0.96120E+02
 
    0.25770E+06         0.93964E-09         0.00000E+00
    0.93964E-09        -0.25818E+06         0.00000E+00
    0.00000E+00         0.00000E+00        -0.96120E+02
 
    0.25770E+06         0.86736E-09         0.00000E+00
    0.86736E-09        -0.25818E+06         0.00000E+00
    0.00000E+00         0.00000E+00        -0.96120E+02
 
    0.25770E+06        -0.79508E-09         0.00000E+00
   -0.79508E-09        -0.25818E+06         0.00000E+00
    0.00000E+00         0.00000E+00        -0.96120E+02
 
    0.25770E+06         0.86736E-09         0.00000E+00
    0.86736E-09        -0.25818E+06         0.00000E+00
    0.00000E+00         0.00000E+00        -0.96120E+02
 
    0.25770E+06         0.36140E-09         0.00000E+00
    0.36140E-09        -0.25818E+06         0.00000E+00
    0.00000E+00         0.00000E+00        -0.96120E+02
 
    0.25770E+06         0.57824E-09         0.00000E+00
    0.57824E-09        -0.25818E+06         0.00000E+00
    0.00000E+00         0.00000E+00        -0.96120E+02
 
    0.25770E+06        -0.57824E-09         0.00000E+00
   -0.57824E-09        -0.25818E+06         0.00000E+00
    0.00000E+00         0.00000E+00        -0.96120E+02
 
    0.25770E+06        -0.72280E-10         0.00000E+00
   -0.72280E-10        -0.25818E+06         0.00000E+00
    0.00000E+00         0.00000E+00        -0.96120E+02
 
    0.25770E+06         0.28912E-09         0.00000E+00
    0.28912E-09        -0.25818E+06         0.00000E+00
    0.00000E+00         0.00000E+00        -0.96120E+02
 
    0.25770E+06         0.00000E+00         0.00000E+00
    0.00000E+00        -0.25818E+06         0.00000E+00
    0.00000E+00         0.00000E+00        -0.96120E+02
 
    0.25763E+06         0.13733E-08         0.00000E+00
    0.13733E-08        -0.25820E+06         0.00000E+00
    0.00000E+00         0.00000E+00        -0.11481E+03
 
    0.25763E+06        -0.65052E-09         0.00000E+00
   -0.65052E-09        -0.25820E+06         0.00000E+00
    0.00000E+00         0.00000E+00        -0.11481E+03
 
    0.25763E+06         0.36140E-09         0.00000E+00
    0.36140E-09        -0.25820E+06         0.00000E+00
    0.00000E+00         0.00000E+00        -0.11481E+03
 
    0.25763E+06         0.72280E-10         0.00000E+00
    0.72280E-10        -0.25820E+06         0.00000E+00
    0.00000E+00         0.00000E+00        -0.11481E+03
 
    0.25763E+06         0.72280E-10         0.00000E+00
    0.72280E-10        -0.25820E+06         0.00000E+00
    0.00000E+00         0.00000E+00        -0.11481E+03
 
    0.25763E+06         0.12288E-08         0.00000E+00
    0.12288E-08        -0.25820E+06         0.00000E+00
    0.00000E+00         0.00000E+00        -0.11481E+03
 
    0.25763E+06         0.72280E-10         0.00000E+00
    0.72280E-10        -0.25820E+06         0.00000E+00
    0.00000E+00         0.00000E+00        -0.11481E+03
 
    0.25763E+06         0.50596E-09         0.00000E+00
    0.50596E-09        -0.25820E+06         0.00000E+00
    0.00000E+00         0.00000E+00        -0.11481E+03
 
    0.25763E+06         0.72280E-09         0.00000E+00
    0.72280E-09        -0.25820E+06         0.00000E+00
    0.00000E+00         0.00000E+00        -0.11481E+03
 
    0.25763E+06        -0.50596E-09         0.00000E+00
   -0.50596E-09        -0.25820E+06         0.00000E+00
    0.00000E+00         0.00000E+00        -0.11481E+03
 
    0.25763E+06         0.28912E-09         0.00000E+00
    0.28912E-09        -0.25820E+06         0.00000E+00
    0.00000E+00         0.00000E+00        -0.11481E+03
 
    0.25763E+06        -0.57824E-09         0.00000E+00
   -0.57824E-09        -0.25820E+06         0.00000E+00
    0.00000E+00         0.00000E+00        -0.11481E+03
 
    0.25763E+06         0.72280E-09         0.00000E+00
    0.72280E-09        -0.25820E+06         0.00000E+00
    0.00000E+00         0.00000E+00        -0.11481E+03
 
    0.25763E+06        -0.50596E-09         0.00000E+00
   -0.50596E-09        -0.25820E+06         0.00000E+00
    0.00000E+00         0.00000E+00        -0.11481E+03
 
    0.25763E+06        -0.72280E-10         0.00000E+00
   -0.72280E-10        -0.25820E+06         0.00000E+00
    0.00000E+00         0.00000E+00        -0.11481E+03
 
    0.25754E+06         0.57824E-09         0.00000E+00
    0.57824E-09        -0.25822E+06         0.00000E+00
    0.00000E+00         0.00000E+00        -0.13711E+03
 
    0.25754E+06        -0.79508E-09         0.00000E+00
   -0.79508E-09        -0.25822E+06         0.00000E+00
    0.00000E+00         0.00000E+00        -0.13711E+03
 
    0.25754E+06         0.86736E-09         0.00000E+00
    0.86736E-09        -0.25822E+06         0.00000E+00
    0.00000E+00         0.00000E+00        -0.13711E+03
 
    0.25754E+06         0.00000E+00         0.00000E+00
    0.00000E+00        -0.25822E+06         0.00000E+00
    0.00000E+00         0.00000E+00        -0.13711E+03
 
    0.25754E+06        -0.72280E-10         0.00000E+00
   -0.72280E-10        -0.25822E+06         0.00000E+00
    0.00000E+00         0.00000E+00        -0.13711E+03
 
    0.25754E+06         0.36140E-09         0.00000E+00
    0.36140E-09        -0.25822E+06         0.00000E+00
    0.00000E+00         0.00000E+00        -0.13711E+03
 
    0.25754E+06        -0.72280E-10         0.00000E+00
   -0.72280E-10        -0.25822E+06         0.00000E+00
    0.00000E+00         0.00000E+00        -0.13711E+03
 
    0.25754E+06         0.50596E-09         0.00000E+00
    0.50596E-09        -0.25822E+06         0.00000E+00
    0.00000E+00         0.00000E+00        -0.13711E+03
 
    0.25754E+06         0.21684E-09         0.00000E+00
    0.21684E-09        -0.25822E+06         0.00000E+00
    0.00000E+00         0.00000E+00        -0.13711E+03
 
    0.25754E+06        -0.57824E-09         0.00000E+00
   -0.57824E-09        -0.25822E+06         0.00000E+00
    0.00000E+00         0.00000E+00        -0.13711E+03
 
    0.25754E+06         0.72280E-09         0.00000E+00
    0.72280E-09        -0.25822E+06         0.00000E+00
    0.00000E+00         0.00000E+00        -0.13711E+03
 
    0.25754E+06         0.14456E-09         0.00000E+00
    0.14456E-09        -0.25822E+06         0.00000E+00
    0.00000E+00         0.00000E+00        -0.13711E+03
 
    0.25754E+06         0.00000E+00         0.00000E+00
    0.00000E+00        -0.25822E+06         0.00000E+00
    0.00000E+00         0.00000E+00        -0.13711E+03
 
    0.25754E+06         0.12288E-08         0.00000E+00
    0.12288E-08        -0.25822E+06         0.00000E+00
    0.00000E+00         0.00000E+00        -0.13711E+03
 
    0.25754E+06        -0.21684E-09         0.00000E+00
   -0.21684E-09        -0.25822E+06         0.00000E+00
    0.00000E+00         0.00000E+00        -0.13711E+03
 
    0.25743E+06         0.00000E+00         0.00000E+00
    0.00000E+00        -0.25825E+06         0.00000E+00
    0.00000E+00         0.00000E+00        -0.16373E+03
 
    0.25743E+06         0.00000E+00         0.00000E+00
    0.00000E+00        -0.25825E+06         0.00000E+00
    0.00000E+00         0.00000E+00        -0.16373E+03
 
    0.25743E+06         0.00000E+00         0.00000E+00
    0.00000E+00        -0.25825E+06         0.00000E+00
    0.00000E+00         0.00000E+00        -0.16373E+03
 
    0.25743E+06        -0.72280E-10         0.00000E+00
   -0.72280E-10        -0.25825E+06         0.00000E+00
    0.00000E+00         0.00000E+00        -0.16373E+03
 
    0.25743E+06        -0.43368E-09         0.00000E+00
   -0.43368E-09        -0.25825E+06         0.00000E+00
    0.00000E+00         0.00000E+00        -0.16373E+03
 
    0.25743E+06        -0.10119E-08         0.00000E+00
   -0.10119E-08        -0.25825E+06         0.00000E+00
    0.00000E+00         0.00000E+00        -0.16373E+03
 
    0.25743E+06        -0.72280E-10         0.00000E+00
   -0.72280E-10        -0.25825E+06         0.00000E+00
    0.00000E+00         0.00000E+00        -0.16373E+03
 
    0.25743E+06         0.72280E-09         0.00000E+00
    0.72280E-09        -0.25825E+06         0.00000E+00
    0.00000E+00         0.00000E+00        -0.16373E+03
 
    0.25743E+06        -0.14456E-09         0.00000E+00
   -0.14456E-09        -0.25825E+06         0.00000E+00
    0.00000E+00         0.00000E+00        -0.16373E+03
 
    0.25743E+06         0.28912E-09         0.00000E+00
    0.28912E-09        -0.25825E+06         0.00000E+00
    0.00000E+00         0.00000E+00        -0.16373E+03
 
    0.25743E+06         0.57824E-09         0.00000E+00
    0.57824E-09        -0.25825E+06         0.00000E+00
    0.00000E+00         0.00000E+00        -0.16373E+03
 
    0.25743E+06         0.13733E-08         0.00000E+00
    0.13733E-08        -0.25825E+06         0.00000E+00
    0.00000E+00         0.00000E+00        -0.16373E+03
 
    0.25743E+06         0.36140E-09         0.00000E+00
    0.36140E-09        -0.25825E+06         0.00000E+00
    0.00000E+00         0.00000E+00        -0.16373E+03
 
    0.25743E+06         0.93964E-09         0.00000E+00
    0.93964E-09        -0.25825E+06         0.00000E+00
    0.00000E+00         0.00000E+00        -0.16373E+03
 
    0.25743E+06         0.72280E-10         0.00000E+00
    0.72280E-10        -0.25825E+06         0.00000E+00
    0.00000E+00         0.00000E+00        -0.16373E+03
 
    0.25730E+06        -0.50596E-09         0.00000E+00
   -0.50596E-09        -0.25828E+06         0.00000E+00
    0.00000E+00         0.00000E+00        -0.19549E+03
 
    0.25730E+06         0.36140E-09         0.00000E+00
    0.36140E-09        -0.25828E+06         0.00000E+00
    0.00000E+00         0.00000E+00        -0.19549E+03
 
    0.25730E+06        -0.21684E-09         0.00000E+00
   -0.21684E-09        -0.25828E+06         0.00000E+00
    0.00000E+00         0.00000E+00        -0.19549E+03
 
    0.25730E+06         0.00000E+00         0.00000E+00
    0.00000E+00        -0.25828E+06         0.00000E+00
    0.00000E+00         0.00000E+00        -0.19549E+03
 
    0.25730E+06         0.14456E-09         0.00000E+00
    0.14456E-09        -0.25828E+06         0.00000E+00
    0.00000E+00         0.00000E+00        -0.19549E+03
 
    0.25730E+06         0.72280E-10         0.00000E+00
    0.72280E-10        -0.25828E+06         0.00000E+00
    0.00000E+00         0.00000E+00        -0.19549E+03
 
    0.25730E+06         0.72280E-10         0.00000E+00
    0.72280E-10        -0.25828E+06         0.00000E+00
    0.00000E+00         0.00000E+00        -0.19549E+03
 
    0.25730E+06        -0.43368E-09         0.00000E+00
   -0.43368E-09        -0.25828E+06         0.00000E+00
    0.00000E+00         0.00000E+00        -0.19549E+03
 
    0.25730E+06        -0.10842E-08         0.00000E+00
   -0.10842E-08        -0.25828E+06         0.00000E+00
    0.00000E+00         0.00000E+00        -0.19549E+03
 
    0.25730E+06         0.65052E-09         0.00000E+00
    0.65052E-09        -0.25828E+06         0.00000E+00
    0.00000E+00         0.00000E+00        -0.19549E+03
 
    0.25730E+06        -0.72280E-10         0.00000E+00
   -0.72280E-10        -0.25828E+06         0.00000E+00
    0.00000E+00         0.00000E+00        -0.19549E+03
 
    0.25730E+06         0.36140E-09         0.00000E+00
    0.36140E-09        -0.25828E+06         0.00000E+00
    0.00000E+00         0.00000E+00        -0.19549E+03
 
    0.25730E+06        -0.72280E-10         0.00000E+00
   -0.72280E-10        -0.25828E+06         0.00000E+00
    0.00000E+00         0.00000E+00        -0.19549E+03
 
    0.25730E+06        -0.50596E-09         0.00000E+00
   -0.50596E-09        -0.25828E+06         0.00000E+00
    0.00000E+00         0.00000E+00        -0.19549E+03
 
    0.25730E+06         0.72280E-10         0.00000E+00
    0.72280E-10        -0.25828E+06         0.00000E+00
    0.00000E+00         0.00000E+00        -0.19549E+03
 
    0.25715E+06         0.72280E-10         0.00000E+00
    0.72280E-10        -0.25832E+06         0.00000E+00
    0.00000E+00         0.00000E+00        -0.23339E+03
 
    0.25715E+06         0.36140E-09         0.00000E+00
    0.36140E-09        -0.25832E+06         0.00000E+00
    0.00000E+00         0.00000E+00        -0.23339E+03
 
    0.25715E+06        -0.14456E-09         0.00000E+00
   -0.14456E-09        -0.25832E+06         0.00000E+00
    0.00000E+00         0.00000E+00        -0.23339E+03
 
    0.25715E+06         0.14456E-09         0.00000E+00
    0.14456E-09        -0.25832E+06         0.00000E+00
    0.00000E+00         0.00000E+00        -0.23339E+03
 
    0.25715E+06        -0.21684E-09         0.00000E+00
   -0.21684E-09        -0.25832E+06         0.00000E+00
    0.00000E+00         0.00000E+00        -0.23339E+03
 
    0.25715E+06         0.00000E+00         0.00000E+00
    0.00000E+00        -0.25832E+06         0.00000E+00
    0.00000E+00         0.00000E+00        -0.23339E+03
 
    0.25715E+06         0.00000E+00         0.00000E+00
    0.00000E+00        -0.25832E+06         0.00000E+00
    0.00000E+00         0.00000E+00        -0.23339E+03
 
    0.25715E+06        -0.21684E-09         0.00000E+00
   -0.21684E-09        -0.25832E+06         0.00000E+00
    0.00000E+00         0.00000E+00        -0.23339E+03
 
    0.25715E+06        -0.72280E-10         0.00000E+00
   -0.72280E-10        -0.25832E+06         0.00000E+00
    0.00000E+00         0.00000E+00        -0.23339E+03
 
    0.25715E+06         0.57824E-09         0.00000E+00
    0.57824E-09        -0.25832E+06         0.00000E+00
    0.00000E+00         0.00000E+00        -0.23339E+03
 
    0.25715E+06        -0.72280E-10         0.00000E+00
   -0.72280E-10        -0.25832E+06         0.00000E+00
    0.00000E+00         0.00000E+00        -0.23339E+03
 
    0.25715E+06        -0.14456E-09         0.00000E+00
   -0.14456E-09        -0.25832E+06         0.00000E+00
    0.00000E+00         0.00000E+00        -0.23339E+03
 
    0.25715E+06         0.72280E-10         0.00000E+00
    0.72280E-10        -0.25832E+06         0.00000E+00
    0.00000E+00         0.00000E+00        -0.23339E+03
 
    0.25715E+06         0.57824E-09         0.00000E+00
    0.57824E-09        -0.25832E+06         0.00000E+00
    0.00000E+00         0.00000E+00        -0.23339E+03
 
    0.25715E+06        -0.50596E-09         0.00000E+00
   -0.50596E-09        -0.25832E+06         0.00000E+00
    0.00000E+00         0.00000E+00        -0.23339E+03
 
    0.25697E+06        -0.14456E-09         0.00000E+00
   -0.14456E-09        -0.25836E+06         0.00000E+00
    0.00000E+00         0.00000E+00        -0.27858E+03
 
    0.25697E+06         0.12288E-08         0.00000E+00
    0.12288E-08        -0.25836E+06         0.00000E+00
    0.00000E+00         0.00000E+00        -0.27858E+03
 
    0.25697E+06        -0.79508E-09         0.00000E+00
   -0.79508E-09        -0.25836E+06         0.00000E+00
    0.00000E+00         0.00000E+00        -0.27858E+03
 
    0.25697E+06         0.21684E-08         0.00000E+00
    0.21684E-08        -0.25836E+06         0.00000E+00
    0.00000E+00         0.00000E+00        -0.27858E+03
 
    0.25697E+06        -0.28912E-09         0.00000E+00
   -0.28912E-09        -0.25836E+06         0.00000E+00
    0.00000E+00         0.00000E+00        -0.27858E+03
 
    0.25697E+06         0.36140E-09         0.00000E+00
    0.36140E-09        -0.25836E+06         0.00000E+00
    0.00000E+00         0.00000E+00        -0.27858E+03
 
    0.25697E+06        -0.36140E-09         0.00000E+00
   -0.36140E-09        -0.25836E+06         0.00000E+00
    0.00000E+00         0.00000E+00        -0.27858E+03
 
    0.25697E+06        -0.72280E-10         0.00000E+00
   -0.72280E-10        -0.25836E+06         0.00000E+00
    0.00000E+00         0.00000E+00        -0.27858E+03
 
    0.25697E+06         0.14456E-09         0.00000E+00
    0.14456E-09        -0.25836E+06         0.00000E+00
    0.00000E+00         0.00000E+00        -0.27858E+03
 
    0.25697E+06         0.50596E-09         0.00000E+00
    0.50596E-09        -0.25836E+06         0.00000E+00
    0.00000E+00         0.00000E+00        -0.27858E+03
 
    0.25697E+06         0.65052E-09         0.00000E+00
    0.65052E-09        -0.25836E+06         0.00000E+00
    0.00000E+00         0.00000E+00        -0.27858E+03
 
    0.25697E+06        -0.28912E-09         0.00000E+00
   -0.28912E-09        -0.25836E+06         0.00000E+00
    0.00000E+00         0.00000E+00        -0.27858E+03
 
    0.25697E+06        -0.28912E-09         0.00000E+00
   -0.28912E-09        -0.25836E+06         0.00000E+00
    0.00000E+00         0.00000E+00        -0.27858E+03
 
    0.25697E+06         0.93964E-09         0.00000E+00
    0.93964E-09        -0.25836E+06         0.00000E+00
    0.00000E+00         0.00000E+00        -0.27858E+03
 
    0.25697E+06        -0.28912E-09         0.00000E+00
   -0.28912E-09        -0.25836E+06         0.00000E+00
    0.00000E+00         0.00000E+00        -0.27858E+03
 
    0.25675E+06         0.43368E-09         0.00000E+00
    0.43368E-09        -0.25842E+06         0.00000E+00
    0.00000E+00         0.00000E+00        -0.33248E+03
 
    0.25675E+06         0.10119E-08         0.00000E+00
    0.10119E-08        -0.25842E+06         0.00000E+00
    0.00000E+00         0.00000E+00        -0.33248E+03
 
    0.25675E+06        -0.16624E-08         0.00000E+00
   -0.16624E-08        -0.25842E+06         0.00000E+00
    0.00000E+00         0.00000E+00        -0.33248E+03
 
    0.25675E+06        -0.79508E-09         0.00000E+00
   -0.79508E-09        -0.25842E+06         0.00000E+00
    0.00000E+00         0.00000E+00        -0.33248E+03
 
    0.25675E+06        -0.86736E-09         0.00000E+00
   -0.86736E-09        -0.25842E+06         0.00000E+00
    0.00000E+00         0.00000E+00        -0.33248E+03
 
    0.25675E+06        -0.21684E-09         0.00000E+00
   -0.21684E-09        -0.25842E+06         0.00000E+00
    0.00000E+00         0.00000E+00        -0.33248E+03
 
    0.25675E+06         0.21684E-09         0.00000E+00
    0.21684E-09        -0.25842E+06         0.00000E+00
    0.00000E+00         0.00000E+00        -0.33248E+03
 
    0.25675E+06        -0.14456E-09         0.00000E+00
   -0.14456E-09        -0.25842E+06         0.00000E+00
    0.00000E+00         0.00000E+00        -0.33248E+03
 
    0.25675E+06         0.86736E-09         0.00000E+00
    0.86736E-09        -0.25842E+06         0.00000E+00
    0.00000E+00         0.00000E+00        -0.33248E+03
 
    0.25675E+06         0.50596E-09         0.00000E+00
    0.50596E-09        -0.25842E+06         0.00000E+00
    0.00000E+00         0.00000E+00        -0.33248E+03
 
    0.25675E+06        -0.10842E-08         0.00000E+00
   -0.10842E-08        -0.25842E+06         0.00000E+00
    0.00000E+00         0.00000E+00        -0.33248E+03
 
    0.25675E+06         0.72280E-09         0.00000E+00
    0.72280E-09        -0.25842E+06         0.00000E+00
    0.00000E+00         0.00000E+00        -0.33248E+03
 
    0.25675E+06         0.36140E-09         0.00000E+00
    0.36140E-09        -0.25842E+06         0.00000E+00
    0.00000E+00         0.00000E+00        -0.33248E+03
 
    0.25675E+06        -0.14456E-09         0.00000E+00
   -0.14456E-09        -0.25842E+06         0.00000E+00
    0.00000E+00         0.00000E+00        -0.33248E+03
 
    0.25675E+06         0.00000E+00         0.00000E+00
    0.00000E+00        -0.25842E+06         0.00000E+00
    0.00000E+00         0.00000E+00        -0.33248E+03
 
    0.25650E+06         0.28912E-09         0.00000E+00
    0.28912E-09        -0.25848E+06         0.00000E+00
    0.00000E+00         0.00000E+00        -0.39673E+03
 
    0.25650E+06        -0.10119E-08         0.00000E+00
   -0.10119E-08        -0.25848E+06         0.00000E+00
    0.00000E+00         0.00000E+00        -0.39673E+03
 
    0.25650E+06         0.50596E-09         0.00000E+00
    0.50596E-09        -0.25848E+06         0.00000E+00
    0.00000E+00         0.00000E+00        -0.39673E+03
 
    0.25650E+06        -0.28912E-09         0.00000E+00
   -0.28912E-09        -0.25848E+06         0.00000E+00
    0.00000E+00         0.00000E+00        -0.39673E+03
 
    0.25650E+06         0.28912E-09         0.00000E+00
    0.28912E-09        -0.25848E+06         0.00000E+00
    0.00000E+00         0.00000E+00        -0.39673E+03
 
    0.25650E+06        -0.43368E-09         0.00000E+00
   -0.43368E-09        -0.25848E+06         0.00000E+00
    0.00000E+00         0.00000E+00        -0.39673E+03
 
    0.25650E+06         0.36140E-09         0.00000E+00
    0.36140E-09        -0.25848E+06         0.00000E+00
    0.00000E+00         0.00000E+00        -0.39673E+03
 
    0.25650E+06         0.21684E-09         0.00000E+00
    0.21684E-09        -0.25848E+06         0.00000E+00
    0.00000E+00         0.00000E+00        -0.39673E+03
 
    0.25650E+06        -0.18793E-08         0.00000E+00
   -0.18793E-08        -0.25848E+06         0.00000E+00
    0.00000E+00         0.00000E+00        -0.39673E+03
 
    0.25650E+06         0.72280E-10         0.00000E+00
    0.72280E-10        -0.25848E+06         0.00000E+00
    0.00000E+00         0.00000E+00        -0.39673E+03
 
    0.25650E+06        -0.72280E-09         0.00000E+00
   -0.72280E-09        -0.25848E+06         0.00000E+00
    0.00000E+00         0.00000E+00        -0.39673E+03
 
    0.25650E+06         0.17347E-08         0.00000E+00
    0.17347E-08        -0.25848E+06         0.00000E+00
    0.00000E+00         0.00000E+00        -0.39673E+03
 
    0.25650E+06        -0.72280E-10         0.00000E+00
   -0.72280E-10        -0.25848E+06         0.00000E+00
    0.00000E+00         0.00000E+00        -0.39673E+03
 
    0.25650E+06        -0.50596E-09         0.00000E+00
   -0.50596E-09        -0.25848E+06         0.00000E+00
    0.00000E+00         0.00000E+00        -0.39673E+03
 
    0.25650E+06         0.14456E-09         0.00000E+00
    0.14456E-09        -0.25848E+06         0.00000E+00
    0.00000E+00         0.00000E+00        -0.39673E+03
 
    0.25619E+06         0.65052E-09         0.00000E+00
    0.65052E-09        -0.25856E+06         0.00000E+00
    0.00000E+00         0.00000E+00        -0.47330E+03
 
    0.25619E+06         0.50596E-09         0.00000E+00
    0.50596E-09        -0.25856E+06         0.00000E+00
    0.00000E+00         0.00000E+00        -0.47330E+03
 
    0.25619E+06        -0.65052E-09         0.00000E+00
   -0.65052E-09        -0.25856E+06         0.00000E+00
    0.00000E+00         0.00000E+00        -0.47330E+03
 
    0.25619E+06         0.43368E-09         0.00000E+00
    0.43368E-09        -0.25856E+06         0.00000E+00
    0.00000E+00         0.00000E+00        -0.47330E+03
 
    0.25619E+06         0.50596E-09         0.00000E+00
    0.50596E-09        -0.25856E+06         0.00000E+00
    0.00000E+00         0.00000E+00        -0.47330E+03
 
    0.25619E+06         0.14456E-08         0.00000E+00
    0.14456E-08        -0.25856E+06         0.00000E+00
    0.00000E+00         0.00000E+00        -0.47330E+03
 
    0.25619E+06         0.72280E-09         0.00000E+00
    0.72280E-09        -0.25856E+06         0.00000E+00
    0.00000E+00         0.00000E+00        -0.47330E+03
 
    0.25619E+06         0.13010E-08         0.00000E+00
    0.13010E-08        -0.25856E+06         0.00000E+00
    0.00000E+00         0.00000E+00        -0.47330E+03
 
    0.25619E+06        -0.43368E-09         0.00000E+00
   -0.43368E-09        -0.25856E+06         0.00000E+00
    0.00000E+00         0.00000E+00        -0.47330E+03
 
    0.25619E+06        -0.72280E-10         0.00000E+00
   -0.72280E-10        -0.25856E+06         0.00000E+00
    0.00000E+00         0.00000E+00        -0.47330E+03
 
    0.25619E+06         0.00000E+00         0.00000E+00
    0.00000E+00        -0.25856E+06         0.00000E+00
    0.00000E+00         0.00000E+00        -0.47330E+03
 
    0.25619E+06         0.72280E-10         0.00000E+00
    0.72280E-10        -0.25856E+06         0.00000E+00
    0.00000E+00         0.00000E+00        -0.47330E+03
 
    0.25619E+06        -0.21684E-09         0.00000E+00
   -0.21684E-09        -0.25856E+06         0.00000E+00
    0.00000E+00         0.00000E+00        -0.47330E+03
 
    0.25619E+06         0.00000E+00         0.00000E+00
    0.00000E+00        -0.25856E+06         0.00000E+00
    0.00000E+00         0.00000E+00        -0.47330E+03
 
    0.25619E+06        -0.13010E-08         0.00000E+00
   -0.13010E-08        -0.25856E+06         0.00000E+00
    0.00000E+00         0.00000E+00        -0.47330E+03
 
    0.25583E+06         0.13010E-08         0.00000E+00
    0.13010E-08        -0.25865E+06         0.00000E+00
    0.00000E+00         0.00000E+00        -0.56452E+03
 
    0.25583E+06         0.14456E-09         0.00000E+00
    0.14456E-09        -0.25865E+06         0.00000E+00
    0.00000E+00         0.00000E+00        -0.56452E+03
 
    0.25583E+06        -0.21684E-09         0.00000E+00
   -0.21684E-09        -0.25865E+06         0.00000E+00
    0.00000E+00         0.00000E+00        -0.56452E+03
 
    0.25583E+06        -0.12288E-08         0.00000E+00
   -0.12288E-08        -0.25865E+06         0.00000E+00
    0.00000E+00         0.00000E+00        -0.56452E+03
 
    0.25583E+06         0.21684E-09         0.00000E+00
    0.21684E-09        -0.25865E+06         0.00000E+00
    0.00000E+00         0.00000E+00        -0.56452E+03
 
    0.25583E+06         0.50596E-09         0.00000E+00
    0.50596E-09        -0.25865E+06         0.00000E+00
    0.00000E+00         0.00000E+00        -0.56452E+03
 
    0.25583E+06        -0.14456E-09         0.00000E+00
   -0.14456E-09        -0.25865E+06         0.00000E+00
    0.00000E+00         0.00000E+00        -0.56452E+03
 
    0.25583E+06         0.00000E+00         0.00000E+00
    0.00000E+00        -0.25865E+06         0.00000E+00
    0.00000E+00         0.00000E+00        -0.56452E+03
 
    0.25583E+06         0.57824E-09         0.00000E+00
    0.57824E-09        -0.25865E+06         0.00000E+00
    0.00000E+00         0.00000E+00        -0.56452E+03
 
    0.25583E+06         0.50596E-09         0.00000E+00
    0.50596E-09        -0.25865E+06         0.00000E+00
    0.00000E+00         0.00000E+00        -0.56452E+03
 
    0.25583E+06        -0.72280E-10         0.00000E+00
   -0.72280E-10        -0.25865E+06         0.00000E+00
    0.00000E+00         0.00000E+00        -0.56452E+03
 
    0.25583E+06        -0.86736E-09         0.00000E+00
   -0.86736E-09        -0.25865E+06         0.00000E+00
    0.00000E+00         0.00000E+00        -0.56452E+03
 
    0.25583E+06        -0.72280E-10         0.00000E+00
   -0.72280E-10        -0.25865E+06         0.00000E+00
    0.00000E+00         0.00000E+00        -0.56452E+03
 
    0.25583E+06        -0.86736E-09         0.00000E+00
   -0.86736E-09        -0.25865E+06         0.00000E+00
    0.00000E+00         0.00000E+00        -0.56452E+03
 
    0.25583E+06        -0.43368E-09         0.00000E+00
   -0.43368E-09        -0.25865E+06         0.00000E+00
    0.00000E+00         0.00000E+00        -0.56452E+03
 
    0.25539E+06         0.28912E-09         0.00000E+00
    0.28912E-09        -0.25876E+06         0.00000E+00
    0.00000E+00         0.00000E+00        -0.67315E+03
 
    0.25539E+06         0.93964E-09         0.00000E+00
    0.93964E-09        -0.25876E+06         0.00000E+00
    0.00000E+00         0.00000E+00        -0.67315E+03
 
    0.25539E+06        -0.72280E-09         0.00000E+00
   -0.72280E-09        -0.25876E+06         0.00000E+00
    0.00000E+00         0.00000E+00        -0.67315E+03
 
    0.25539E+06        -0.14456E-09         0.00000E+00
   -0.14456E-09        -0.25876E+06         0.00000E+00
    0.00000E+00         0.00000E+00        -0.67315E+03
 
    0.25539E+06         0.28912E-09         0.00000E+00
    0.28912E-09        -0.25876E+06         0.00000E+00
    0.00000E+00         0.00000E+00        -0.67315E+03
 
    0.25539E+06        -0.36140E-09         0.00000E+00
   -0.36140E-09        -0.25876E+06         0.00000E+00
    0.00000E+00         0.00000E+00        -0.67315E+03
 
    0.25539E+06         0.36140E-09         0.00000E+00
    0.36140E-09        -0.25876E+06         0.00000E+00
    0.00000E+00         0.00000E+00        -0.67315E+03
 
    0.25539E+06         0.28912E-09         0.00000E+00
    0.28912E-09        -0.25876E+06         0.00000E+00
    0.00000E+00         0.00000E+00        -0.67315E+03
 
    0.25539E+06        -0.28912E-09         0.00000E+00
   -0.28912E-09        -0.25876E+06         0.00000E+00
    0.00000E+00         0.00000E+00        -0.67315E+03
 
    0.25539E+06        -0.86736E-09         0.00000E+00
   -0.86736E-09        -0.25876E+06         0.00000E+00
    0.00000E+00         0.00000E+00        -0.67315E+03
 
    0.25539E+06        -0.86736E-09         0.00000E+00
   -0.86736E-09        -0.25876E+06         0.00000E+00
    0.00000E+00         0.00000E+00        -0.67315E+03
 
    0.25539E+06        -0.57824E-09         0.00000E+00
   -0.57824E-09        -0.25876E+06         0.00000E+00
    0.00000E+00         0.00000E+00        -0.67315E+03
 
    0.25539E+06        -0.43368E-09         0.00000E+00
   -0.43368E-09        -0.25876E+06         0.00000E+00
    0.00000E+00         0.00000E+00        -0.67315E+03
 
    0.25539E+06         0.14456E-09         0.00000E+00
    0.14456E-09        -0.25876E+06         0.00000E+00
    0.00000E+00         0.00000E+00        -0.67315E+03
 
    0.25539E+06         0.86736E-09         0.00000E+00
    0.86736E-09        -0.25876E+06         0.00000E+00
    0.00000E+00         0.00000E+00        -0.67315E+03
 
    0.25487E+06        -0.72280E-09         0.00000E+00
   -0.72280E-09        -0.25889E+06         0.00000E+00
    0.00000E+00         0.00000E+00        -0.80248E+03
 
    0.25487E+06         0.18070E-08         0.00000E+00
    0.18070E-08        -0.25889E+06         0.00000E+00
    0.00000E+00         0.00000E+00        -0.80248E+03
 
    0.25487E+06        -0.14456E-08         0.00000E+00
   -0.14456E-08        -0.25889E+06         0.00000E+00
    0.00000E+00         0.00000E+00        -0.80248E+03
 
    0.25487E+06         0.14456E-08         0.00000E+00
    0.14456E-08        -0.25889E+06         0.00000E+00
    0.00000E+00         0.00000E+00        -0.80248E+03
 
    0.25487E+06         0.14456E-09         0.00000E+00
    0.14456E-09        -0.25889E+06         0.00000E+00
    0.00000E+00         0.00000E+00        -0.80248E+03
 
    0.25487E+06        -0.21684E-09         0.00000E+00
   -0.21684E-09        -0.25889E+06         0.00000E+00
    0.00000E+00         0.00000E+00        -0.80248E+03
 
    0.25487E+06         0.14456E-09         0.00000E+00
    0.14456E-09        -0.25889E+06         0.00000E+00
    0.00000E+00         0.00000E+00        -0.80248E+03
 
    0.25487E+06         0.72280E-10         0.00000E+00
    0.72280E-10        -0.25889E+06         0.00000E+00
    0.00000E+00         0.00000E+00        -0.80248E+03
 
    0.25487E+06        -0.79508E-09         0.00000E+00
   -0.79508E-09        -0.25889E+06         0.00000E+00
    0.00000E+00         0.00000E+00        -0.80248E+03
 
    0.25487E+06         0.36140E-09         0.00000E+00
    0.36140E-09        -0.25889E+06         0.00000E+00
    0.00000E+00         0.00000E+00        -0.80248E+03
 
    0.25487E+06        -0.28912E-09         0.00000E+00
   -0.28912E-09        -0.25889E+06         0.00000E+00
    0.00000E+00         0.00000E+00        -0.80248E+03
 
    0.25487E+06        -0.20238E-08         0.00000E+00
   -0.20238E-08        -0.25889E+06         0.00000E+00
    0.00000E+00         0.00000E+00        -0.80248E+03
 
    0.25487E+06         0.13010E-08         0.00000E+00
    0.13010E-08        -0.25889E+06         0.00000E+00
    0.00000E+00         0.00000E+00        -0.80248E+03
 
    0.25487E+06         0.43368E-09         0.00000E+00
    0.43368E-09        -0.25889E+06         0.00000E+00
    0.00000E+00         0.00000E+00        -0.80248E+03
 
    0.25487E+06        -0.28912E-09         0.00000E+00
   -0.28912E-09        -0.25889E+06         0.00000E+00
    0.00000E+00         0.00000E+00        -0.80248E+03
 
    0.25426E+06        -0.14456E-09         0.00000E+00
   -0.14456E-09        -0.25904E+06         0.00000E+00
    0.00000E+00         0.00000E+00        -0.95636E+03
 
    0.25426E+06        -0.11565E-08         0.00000E+00
   -0.11565E-08        -0.25904E+06         0.00000E+00
    0.00000E+00         0.00000E+00        -0.95636E+03
 
    0.25426E+06        -0.57824E-09         0.00000E+00
   -0.57824E-09        -0.25904E+06         0.00000E+00
    0.00000E+00         0.00000E+00        -0.95636E+03
 
    0.25426E+06        -0.15902E-08         0.00000E+00
   -0.15902E-08        -0.25904E+06         0.00000E+00
    0.00000E+00         0.00000E+00        -0.95636E+03
 
    0.25426E+06         0.65052E-09         0.00000E+00
    0.65052E-09        -0.25904E+06         0.00000E+00
    0.00000E+00         0.00000E+00        -0.95636E+03
 
    0.25426E+06         0.93964E-09         0.00000E+00
    0.93964E-09        -0.25904E+06         0.00000E+00
    0.00000E+00         0.00000E+00        -0.95636E+03
 
    0.25426E+06        -0.43368E-09         0.00000E+00
   -0.43368E-09        -0.25904E+06         0.00000E+00
    0.00000E+00         0.00000E+00        -0.95636E+03
 
    0.25426E+06        -0.14456E-09         0.00000E+00
   -0.14456E-09        -0.25904E+06         0.00000E+00
    0.00000E+00         0.00000E+00        -0.95636E+03
 
    0.25426E+06         0.14456E-09         0.00000E+00
    0.14456E-09        -0.25904E+06         0.00000E+00
    0.00000E+00         0.00000E+00        -0.95636E+03
 
    0.25426E+06         0.00000E+00         0.00000E+00
    0.00000E+00        -0.25904E+06         0.00000E+00
    0.00000E+00         0.00000E+00        -0.95636E+03
 
    0.25426E+06        -0.28912E-09         0.00000E+00
   -0.28912E-09        -0.25904E+06         0.00000E+00
    0.00000E+00         0.00000E+00        -0.95636E+03
 
    0.25426E+06        -0.28912E-09         0.00000E+00
   -0.28912E-09        -0.25904E+06         0.00000E+00
    0.00000E+00         0.00000E+00        -0.95636E+03
 
    0.25426E+06         0.10119E-08         0.00000E+00
    0.10119E-08        -0.25904E+06         0.00000E+00
    0.00000E+00         0.00000E+00        -0.95636E+03
 
    0.25426E+06        -0.28912E-09         0.00000E+00
   -0.28912E-09        -0.25904E+06         0.00000E+00
    0.00000E+00         0.00000E+00        -0.95636E+03
 
    0.25426E+06        -0.72280E-09         0.00000E+00
   -0.72280E-09        -0.25904E+06         0.00000E+00
    0.00000E+00         0.00000E+00        -0.95636E+03
 
    0.25353E+06         0.14456E-09         0.00000E+00
    0.14456E-09        -0.25922E+06         0.00000E+00
    0.00000E+00         0.00000E+00        -0.11394E+04
 
    0.25353E+06         0.11565E-08         0.00000E+00
    0.11565E-08        -0.25922E+06         0.00000E+00
    0.00000E+00         0.00000E+00        -0.11394E+04
 
    0.25353E+06        -0.23852E-08         0.00000E+00
   -0.23852E-08        -0.25922E+06         0.00000E+00
    0.00000E+00         0.00000E+00        -0.11394E+04
 
    0.25353E+06         0.10119E-08         0.00000E+00
    0.10119E-08        -0.25922E+06         0.00000E+00
    0.00000E+00         0.00000E+00        -0.11394E+04
 
    0.25353E+06        -0.14456E-08         0.00000E+00
   -0.14456E-08        -0.25922E+06         0.00000E+00
    0.00000E+00         0.00000E+00        -0.11394E+04
 
    0.25353E+06         0.10119E-08         0.00000E+00
    0.10119E-08        -0.25922E+06         0.00000E+00
    0.00000E+00         0.00000E+00        -0.11394E+04
 
    0.25353E+06        -0.11565E-08         0.00000E+00
   -0.11565E-08        -0.25922E+06         0.00000E+00
    0.00000E+00         0.00000E+00        -0.11394E+04
 
    0.25353E+06         0.72280E-10         0.00000E+00
    0.72280E-10        -0.25922E+06         0.00000E+00
    0.00000E+00         0.00000E+00        -0.11394E+04
 
    0.25353E+06         0.00000E+00         0.00000E+00
    0.00000E+00        -0.25922E+06         0.00000E+00
    0.00000E+00         0.00000E+00        -0.11394E+04
 
    0.25353E+06        -0.72280E-09         0.00000E+00
   -0.72280E-09        -0.25922E+06         0.00000E+00
    0.00000E+00         0.00000E+00        -0.11394E+04
 
    0.25353E+06        -0.13010E-08         0.00000E+00
   -0.13010E-08        -0.25922E+06         0.00000E+00
    0.00000E+00         0.00000E+00        -0.11394E+04
 
    0.25353E+06        -0.14456E-09         0.00000E+00
   -0.14456E-09        -0.25922E+06         0.00000E+00
    0.00000E+00         0.00000E+00        -0.11394E+04
 
    0.25353E+06        -0.14456E-09         0.00000E+00
   -0.14456E-09        -0.25922E+06         0.00000E+00
    0.00000E+00         0.00000E+00        -0.11394E+04
 
    0.25353E+06         0.28912E-09         0.00000E+00
    0.28912E-09        -0.25922E+06         0.00000E+00
    0.00000E+00         0.00000E+00        -0.11394E+04
 
    0.25353E+06         0.14456E-08         0.00000E+00
    0.14456E-08        -0.25922E+06         0.00000E+00
    0.00000E+00         0.00000E+00        -0.11394E+04
 
    0.25266E+06         0.13733E-08         0.00000E+00
    0.13733E-08        -0.25944E+06         0.00000E+00
    0.00000E+00         0.00000E+00        -0.13569E+04
 
    0.25266E+06         0.14456E-09         0.00000E+00
    0.14456E-09        -0.25944E+06         0.00000E+00
    0.00000E+00         0.00000E+00        -0.13569E+04
 
    0.25266E+06        -0.23130E-08         0.00000E+00
   -0.23130E-08        -0.25944E+06         0.00000E+00
    0.00000E+00         0.00000E+00        -0.13569E+04
 
    0.25266E+06         0.20961E-08         0.00000E+00
    0.20961E-08        -0.25944E+06         0.00000E+00
    0.00000E+00         0.00000E+00        -0.13569E+04
 
    0.25266E+06        -0.10119E-08         0.00000E+00
   -0.10119E-08        -0.25944E+06         0.00000E+00
    0.00000E+00         0.00000E+00        -0.13569E+04
 
    0.25266E+06         0.50596E-09         0.00000E+00
    0.50596E-09        -0.25944E+06         0.00000E+00
    0.00000E+00         0.00000E+00        -0.13569E+04
 
    0.25266E+06         0.10119E-08         0.00000E+00
    0.10119E-08        -0.25944E+06         0.00000E+00
    0.00000E+00         0.00000E+00        -0.13569E+04
 
    0.25266E+06        -0.50596E-09         0.00000E+00
   -0.50596E-09        -0.25944E+06         0.00000E+00
    0.00000E+00         0.00000E+00        -0.13569E+04
 
    0.25266E+06        -0.79508E-09         0.00000E+00
   -0.79508E-09        -0.25944E+06         0.00000E+00
    0.00000E+00         0.00000E+00        -0.13569E+04
 
    0.25266E+06        -0.14456E-09         0.00000E+00
   -0.14456E-09        -0.25944E+06         0.00000E+00
    0.00000E+00         0.00000E+00        -0.13569E+04
 
    0.25266E+06        -0.14456E-08         0.00000E+00
   -0.14456E-08        -0.25944E+06         0.00000E+00
    0.00000E+00         0.00000E+00        -0.13569E+04
 
    0.25266E+06         0.28912E-09         0.00000E+00
    0.28912E-09        -0.25944E+06         0.00000E+00
    0.00000E+00         0.00000E+00        -0.13569E+04
 
    0.25266E+06         0.14456E-09         0.00000E+00
    0.14456E-09        -0.25944E+06         0.00000E+00
    0.00000E+00         0.00000E+00        -0.13569E+04
 
    0.25266E+06        -0.28912E-09         0.00000E+00
   -0.28912E-09        -0.25944E+06         0.00000E+00
    0.00000E+00         0.00000E+00        -0.13569E+04
 
    0.25266E+06         0.14456E-09         0.00000E+00
    0.14456E-09        -0.25944E+06         0.00000E+00
    0.00000E+00         0.00000E+00        -0.13569E+04
 
    0.25162E+06        -0.13010E-08         0.00000E+00
   -0.13010E-08        -0.25970E+06         0.00000E+00
    0.00000E+00         0.00000E+00        -0.16153E+04
 
    0.25162E+06        -0.50596E-09         0.00000E+00
   -0.50596E-09        -0.25970E+06         0.00000E+00
    0.00000E+00         0.00000E+00        -0.16153E+04
 
    0.25162E+06        -0.93964E-09         0.00000E+00
   -0.93964E-09        -0.25970E+06         0.00000E+00
    0.00000E+00         0.00000E+00        -0.16153E+04
 
    0.25162E+06         0.14456E-09         0.00000E+00
    0.14456E-09        -0.25970E+06         0.00000E+00
    0.00000E+00         0.00000E+00        -0.16153E+04
 
    0.25162E+06         0.00000E+00         0.00000E+00
    0.00000E+00        -0.25970E+06         0.00000E+00
    0.00000E+00         0.00000E+00        -0.16153E+04
 
    0.25162E+06         0.28912E-09         0.00000E+00
    0.28912E-09        -0.25970E+06         0.00000E+00
    0.00000E+00         0.00000E+00        -0.16153E+04
 
    0.25162E+06         0.11565E-08         0.00000E+00
    0.11565E-08        -0.25970E+06         0.00000E+00
    0.00000E+00         0.00000E+00        -0.16153E+04
 
    0.25162E+06        -0.24575E-08         0.00000E+00
   -0.24575E-08        -0.25970E+06         0.00000E+00
    0.00000E+00         0.00000E+00        -0.16153E+04
 
    0.25162E+06        -0.13010E-08         0.00000E+00
   -0.13010E-08        -0.25970E+06         0.00000E+00
    0.00000E+00         0.00000E+00        -0.16153E+04
 
    0.25162E+06         0.00000E+00         0.00000E+00
    0.00000E+00        -0.25970E+06         0.00000E+00
    0.00000E+00         0.00000E+00        -0.16153E+04
 
    0.25162E+06        -0.14456E-09         0.00000E+00
   -0.14456E-09        -0.25970E+06         0.00000E+00
    0.00000E+00         0.00000E+00        -0.16153E+04
 
    0.25162E+06         0.00000E+00         0.00000E+00
    0.00000E+00        -0.25970E+06         0.00000E+00
    0.00000E+00         0.00000E+00        -0.16153E+04
 
    0.25162E+06        -0.28912E-09         0.00000E+00
   -0.28912E-09        -0.25970E+06         0.00000E+00
    0.00000E+00         0.00000E+00        -0.16153E+04
 
    0.25162E+06         0.00000E+00         0.00000E+00
    0.00000E+00        -0.25970E+06         0.00000E+00
    0.00000E+00         0.00000E+00        -0.16153E+04
 
    0.25162E+06        -0.11565E-08         0.00000E+00
   -0.11565E-08        -0.25970E+06         0.00000E+00
    0.00000E+00         0.00000E+00        -0.16153E+04
 
    0.25040E+06        -0.11565E-08         0.00000E+00
   -0.11565E-08        -0.26001E+06         0.00000E+00
    0.00000E+00         0.00000E+00        -0.19220E+04
 
    0.25040E+06        -0.14456E-09         0.00000E+00
   -0.14456E-09        -0.26001E+06         0.00000E+00
    0.00000E+00         0.00000E+00        -0.19220E+04
 
    0.25040E+06        -0.57824E-09         0.00000E+00
   -0.57824E-09        -0.26001E+06         0.00000E+00
    0.00000E+00         0.00000E+00        -0.19220E+04
 
    0.25040E+06        -0.43368E-09         0.00000E+00
   -0.43368E-09        -0.26001E+06         0.00000E+00
    0.00000E+00         0.00000E+00        -0.19220E+04
 
    0.25040E+06        -0.72280E-10         0.00000E+00
   -0.72280E-10        -0.26001E+06         0.00000E+00
    0.00000E+00         0.00000E+00        -0.19220E+04
 
    0.25040E+06        -0.86736E-09         0.00000E+00
   -0.86736E-09        -0.26001E+06         0.00000E+00
    0.00000E+00         0.00000E+00        -0.19220E+04
 
    0.25040E+06         0.28912E-09         0.00000E+00
    0.28912E-09        -0.26001E+06         0.00000E+00
    0.00000E+00         0.00000E+00        -0.19220E+04
 
    0.25040E+06         0.21684E-09         0.00000E+00
    0.21684E-09        -0.26001E+06         0.00000E+00
    0.00000E+00         0.00000E+00        -0.19220E+04
 
    0.25040E+06        -0.13010E-08         0.00000E+00
   -0.13010E-08        -0.26001E+06         0.00000E+00
    0.00000E+00         0.00000E+00        -0.19220E+04
 
    0.25040E+06        -0.57824E-09         0.00000E+00
   -0.57824E-09        -0.26001E+06         0.00000E+00
    0.00000E+00         0.00000E+00        -0.19220E+04
 
    0.25040E+06        -0.28912E-09         0.00000E+00
   -0.28912E-09        -0.26001E+06         0.00000E+00
    0.00000E+00         0.00000E+00        -0.19220E+04
 
    0.25040E+06        -0.72280E-09         0.00000E+00
   -0.72280E-09        -0.26001E+06         0.00000E+00
    0.00000E+00         0.00000E+00        -0.19220E+04
 
    0.25040E+06        -0.14456E-09         0.00000E+00
   -0.14456E-09        -0.26001E+06         0.00000E+00
    0.00000E+00         0.00000E+00        -0.19220E+04
 
    0.25040E+06         0.28912E-09         0.00000E+00
    0.28912E-09        -0.26001E+06         0.00000E+00
    0.00000E+00         0.00000E+00        -0.19220E+04
 
    0.25040E+06        -0.86736E-09         0.00000E+00
   -0.86736E-09        -0.26001E+06         0.00000E+00
    0.00000E+00         0.00000E+00        -0.19220E+04
 
    0.24894E+06         0.00000E+00         0.00000E+00
    0.00000E+00        -0.26037E+06         0.00000E+00
    0.00000E+00         0.00000E+00        -0.22859E+04
 
    0.24894E+06         0.28912E-09         0.00000E+00
    0.28912E-09        -0.26037E+06         0.00000E+00
    0.00000E+00         0.00000E+00        -0.22859E+04
 
    0.24894E+06         0.65052E-09         0.00000E+00
    0.65052E-09        -0.26037E+06         0.00000E+00
    0.00000E+00         0.00000E+00        -0.22859E+04
 
    0.24894E+06        -0.10119E-08         0.00000E+00
   -0.10119E-08        -0.26037E+06         0.00000E+00
    0.00000E+00         0.00000E+00        -0.22859E+04
 
    0.24894E+06         0.10119E-08         0.00000E+00
    0.10119E-08        -0.26037E+06         0.00000E+00
    0.00000E+00         0.00000E+00        -0.22859E+04
 
    0.24894E+06        -0.43368E-09         0.00000E+00
   -0.43368E-09        -0.26037E+06         0.00000E+00
    0.00000E+00         0.00000E+00        -0.22859E+04
 
    0.24894E+06         0.28912E-09         0.00000E+00
    0.28912E-09        -0.26037E+06         0.00000E+00
    0.00000E+00         0.00000E+00        -0.22859E+04
 
    0.24894E+06        -0.14456E-09         0.00000E+00
   -0.14456E-09        -0.26037E+06         0.00000E+00
    0.00000E+00         0.00000E+00        -0.22859E+04
 
    0.24894E+06        -0.14456E-09         0.00000E+00
   -0.14456E-09        -0.26037E+06         0.00000E+00
    0.00000E+00         0.00000E+00        -0.22859E+04
 
    0.24894E+06        -0.14456E-09         0.00000E+00
   -0.14456E-09        -0.26037E+06         0.00000E+00
    0.00000E+00         0.00000E+00        -0.22859E+04
 
    0.24894E+06         0.13010E-08         0.00000E+00
    0.13010E-08        -0.26037E+06         0.00000E+00
    0.00000E+00         0.00000E+00        -0.22859E+04
 
    0.24894E+06        -0.14456E-09         0.00000E+00
   -0.14456E-09        -0.26037E+06         0.00000E+00
    0.00000E+00         0.00000E+00        -0.22859E+04
 
    0.24894E+06        -0.11565E-08         0.00000E+00
   -0.11565E-08        -0.26037E+06         0.00000E+00
    0.00000E+00         0.00000E+00        -0.22859E+04
 
    0.24894E+06         0.86736E-09         0.00000E+00
    0.86736E-09        -0.26037E+06         0.00000E+00
    0.00000E+00         0.00000E+00        -0.22859E+04
 
    0.24894E+06         0.14456E-09         0.00000E+00
    0.14456E-09        -0.26037E+06         0.00000E+00
    0.00000E+00         0.00000E+00        -0.22859E+04
 
    0.24722E+06        -0.72280E-09         0.00000E+00
   -0.72280E-09        -0.26080E+06         0.00000E+00
    0.00000E+00         0.00000E+00        -0.27170E+04
 
    0.24722E+06        -0.79508E-09         0.00000E+00
   -0.79508E-09        -0.26080E+06         0.00000E+00
    0.00000E+00         0.00000E+00        -0.27170E+04
 
    0.24722E+06        -0.13010E-08         0.00000E+00
   -0.13010E-08        -0.26080E+06         0.00000E+00
    0.00000E+00         0.00000E+00        -0.27170E+04
 
    0.24722E+06        -0.18793E-08         0.00000E+00
   -0.18793E-08        -0.26080E+06         0.00000E+00
    0.00000E+00         0.00000E+00        -0.27170E+04
 
    0.24722E+06        -0.28912E-09         0.00000E+00
   -0.28912E-09        -0.26080E+06         0.00000E+00
    0.00000E+00         0.00000E+00        -0.27170E+04
 
    0.24722E+06        -0.16624E-08         0.00000E+00
   -0.16624E-08        -0.26080E+06         0.00000E+00
    0.00000E+00         0.00000E+00        -0.27170E+04
 
    0.24722E+06        -0.43368E-09         0.00000E+00
   -0.43368E-09        -0.26080E+06         0.00000E+00
    0.00000E+00         0.00000E+00        -0.27170E+04
 
    0.24722E+06         0.57824E-09         0.00000E+00
    0.57824E-09        -0.26080E+06         0.00000E+00
    0.00000E+00         0.00000E+00        -0.27170E+04
 
    0.24722E+06         0.14456E-09         0.00000E+00
    0.14456E-09        -0.26080E+06         0.00000E+00
    0.00000E+00         0.00000E+00        -0.27170E+04
 
    0.24722E+06        -0.14456E-09         0.00000E+00
   -0.14456E-09        -0.26080E+06         0.00000E+00
    0.00000E+00         0.00000E+00        -0.27170E+04
 
    0.24722E+06        -0.86736E-09         0.00000E+00
   -0.86736E-09        -0.26080E+06         0.00000E+00
    0.00000E+00         0.00000E+00        -0.27170E+04
 
    0.24722E+06        -0.43368E-09         0.00000E+00
   -0.43368E-09        -0.26080E+06         0.00000E+00
    0.00000E+00         0.00000E+00        -0.27170E+04
 
    0.24722E+06         0.28912E-09         0.00000E+00
    0.28912E-09        -0.26080E+06         0.00000E+00
    0.00000E+00         0.00000E+00        -0.27170E+04
 
    0.24722E+06         0.00000E+00         0.00000E+00
    0.00000E+00        -0.26080E+06         0.00000E+00
    0.00000E+00         0.00000E+00        -0.27170E+04
 
    0.24722E+06        -0.10119E-08         0.00000E+00
   -0.10119E-08        -0.26080E+06         0.00000E+00
    0.00000E+00         0.00000E+00        -0.27170E+04
 
    0.24517E+06         0.12288E-08         0.00000E+00
    0.12288E-08        -0.26131E+06         0.00000E+00
    0.00000E+00         0.00000E+00        -0.32275E+04
 
    0.24517E+06         0.36140E-09         0.00000E+00
    0.36140E-09        -0.26131E+06         0.00000E+00
    0.00000E+00         0.00000E+00        -0.32275E+04
 
    0.24517E+06         0.79508E-09         0.00000E+00
    0.79508E-09        -0.26131E+06         0.00000E+00
    0.00000E+00         0.00000E+00        -0.32275E+04
 
    0.24517E+06        -0.93964E-09         0.00000E+00
   -0.93964E-09        -0.26131E+06         0.00000E+00
    0.00000E+00         0.00000E+00        -0.32275E+04
 
    0.24517E+06         0.23130E-08         0.00000E+00
    0.23130E-08        -0.26131E+06         0.00000E+00
    0.00000E+00         0.00000E+00        -0.32275E+04
 
    0.24517E+06        -0.72280E-09         0.00000E+00
   -0.72280E-09        -0.26131E+06         0.00000E+00
    0.00000E+00         0.00000E+00        -0.32275E+04
 
    0.24517E+06         0.72280E-09         0.00000E+00
    0.72280E-09        -0.26131E+06         0.00000E+00
    0.00000E+00         0.00000E+00        -0.32275E+04
 
    0.24517E+06         0.13010E-08         0.00000E+00
    0.13010E-08        -0.26131E+06         0.00000E+00
    0.00000E+00         0.00000E+00        -0.32275E+04
 
    0.24517E+06        -0.20238E-08         0.00000E+00
   -0.20238E-08        -0.26131E+06         0.00000E+00
    0.00000E+00         0.00000E+00        -0.32275E+04
 
    0.24517E+06         0.11565E-08         0.00000E+00
    0.11565E-08        -0.26131E+06         0.00000E+00
    0.00000E+00         0.00000E+00        -0.32275E+04
 
    0.24517E+06        -0.14456E-09         0.00000E+00
   -0.14456E-09        -0.26131E+06         0.00000E+00
    0.00000E+00         0.00000E+00        -0.32275E+04
 
    0.24517E+06         0.00000E+00         0.00000E+00
    0.00000E+00        -0.26131E+06         0.00000E+00
    0.00000E+00         0.00000E+00        -0.32275E+04
 
    0.24517E+06        -0.20238E-08         0.00000E+00
   -0.20238E-08        -0.26131E+06         0.00000E+00
    0.00000E+00         0.00000E+00        -0.32275E+04
 
    0.24517E+06        -0.14456E-09         0.00000E+00
   -0.14456E-09        -0.26131E+06         0.00000E+00
    0.00000E+00         0.00000E+00        -0.32275E+04
 
    0.24517E+06         0.43368E-09         0.00000E+00
    0.43368E-09        -0.26131E+06         0.00000E+00
    0.00000E+00         0.00000E+00        -0.32275E+04
 
    0.24276E+06         0.18793E-08         0.00000E+00
    0.18793E-08        -0.26192E+06         0.00000E+00
    0.00000E+00         0.00000E+00        -0.38313E+04
 
    0.24276E+06        -0.86736E-09         0.00000E+00
   -0.86736E-09        -0.26192E+06         0.00000E+00
    0.00000E+00         0.00000E+00        -0.38313E+04
 
    0.24276E+06         0.00000E+00         0.00000E+00
    0.00000E+00        -0.26192E+06         0.00000E+00
    0.00000E+00         0.00000E+00        -0.38313E+04
 
    0.24276E+06         0.14456E-09         0.00000E+00
    0.14456E-09        -0.26192E+06         0.00000E+00
    0.00000E+00         0.00000E+00        -0.38313E+04
 
    0.24276E+06         0.18793E-08         0.00000E+00
    0.18793E-08        -0.26192E+06         0.00000E+00
    0.00000E+00         0.00000E+00        -0.38313E+04
 
    0.24276E+06        -0.72280E-09         0.00000E+00
   -0.72280E-09        -0.26192E+06         0.00000E+00
    0.00000E+00         0.00000E+00        -0.38313E+04
 
    0.24276E+06        -0.14456E-09         0.00000E+00
   -0.14456E-09        -0.26192E+06         0.00000E+00
    0.00000E+00         0.00000E+00        -0.38313E+04
 
    0.24276E+06         0.15902E-08         0.00000E+00
    0.15902E-08        -0.26192E+06         0.00000E+00
    0.00000E+00         0.00000E+00        -0.38313E+04
 
    0.24276E+06        -0.14456E-08         0.00000E+00
   -0.14456E-08        -0.26192E+06         0.00000E+00
    0.00000E+00         0.00000E+00        -0.38313E+04
 
    0.24276E+06         0.37586E-08         0.00000E+00
    0.37586E-08        -0.26192E+06         0.00000E+00
    0.00000E+00         0.00000E+00        -0.38313E+04
 
    0.24276E+06        -0.10119E-08         0.00000E+00
   -0.10119E-08        -0.26192E+06         0.00000E+00
    0.00000E+00         0.00000E+00        -0.38313E+04
 
    0.24276E+06        -0.43368E-09         0.00000E+00
   -0.43368E-09        -0.26192E+06         0.00000E+00
    0.00000E+00         0.00000E+00        -0.38313E+04
 
    0.24276E+06        -0.13010E-08         0.00000E+00
   -0.13010E-08        -0.26192E+06         0.00000E+00
    0.00000E+00         0.00000E+00        -0.38313E+04
 
    0.24276E+06         0.20238E-08         0.00000E+00
    0.20238E-08        -0.26192E+06         0.00000E+00
    0.00000E+00         0.00000E+00        -0.38313E+04
 
    0.24276E+06         0.14456E-09         0.00000E+00
    0.14456E-09        -0.26192E+06         0.00000E+00
    0.00000E+00         0.00000E+00        -0.38313E+04
 
    0.23991E+06         0.00000E+00         0.00000E+00
    0.00000E+00        -0.26263E+06         0.00000E+00
    0.00000E+00         0.00000E+00        -0.45444E+04
 
    0.23991E+06        -0.13010E-08         0.00000E+00
   -0.13010E-08        -0.26263E+06         0.00000E+00
    0.00000E+00         0.00000E+00        -0.45444E+04
 
    0.23991E+06         0.28912E-09         0.00000E+00
    0.28912E-09        -0.26263E+06         0.00000E+00
    0.00000E+00         0.00000E+00        -0.45444E+04
 
    0.23991E+06        -0.72280E-09         0.00000E+00
   -0.72280E-09        -0.26263E+06         0.00000E+00
    0.00000E+00         0.00000E+00        -0.45444E+04
 
    0.23991E+06        -0.10119E-08         0.00000E+00
   -0.10119E-08        -0.26263E+06         0.00000E+00
    0.00000E+00         0.00000E+00        -0.45444E+04
 
    0.23991E+06         0.00000E+00         0.00000E+00
    0.00000E+00        -0.26263E+06         0.00000E+00
    0.00000E+00         0.00000E+00        -0.45444E+04
 
    0.23991E+06         0.14456E-08         0.00000E+00
    0.14456E-08        -0.26263E+06         0.00000E+00
    0.00000E+00         0.00000E+00        -0.45444E+04
 
    0.23991E+06        -0.11565E-08         0.00000E+00
   -0.11565E-08        -0.26263E+06         0.00000E+00
    0.00000E+00         0.00000E+00        -0.45444E+04
 
    0.23991E+06        -0.43368E-09         0.00000E+00
   -0.43368E-09        -0.26263E+06         0.00000E+00
    0.00000E+00         0.00000E+00        -0.45444E+04
 
    0.23991E+06         0.21684E-08         0.00000E+00
    0.21684E-08        -0.26263E+06         0.00000E+00
    0.00000E+00         0.00000E+00        -0.45444E+04
 
    0.23991E+06        -0.11565E-08         0.00000E+00
   -0.11565E-08        -0.26263E+06         0.00000E+00
    0.00000E+00         0.00000E+00        -0.45444E+04
 
    0.23991E+06        -0.10119E-08         0.00000E+00
   -0.10119E-08        -0.26263E+06         0.00000E+00
    0.00000E+00         0.00000E+00        -0.45444E+04
 
    0.23991E+06        -0.28912E-09         0.00000E+00
   -0.28912E-09        -0.26263E+06         0.00000E+00
    0.00000E+00         0.00000E+00        -0.45444E+04
 
    0.23991E+06         0.14456E-09         0.00000E+00
    0.14456E-09        -0.26263E+06         0.00000E+00
    0.00000E+00         0.00000E+00        -0.45444E+04
 
    0.23991E+06        -0.14456E-09         0.00000E+00
   -0.14456E-09        -0.26263E+06         0.00000E+00
    0.00000E+00         0.00000E+00        -0.45444E+04
 
    0.23654E+06         0.00000E+00         0.00000E+00
    0.00000E+00        -0.26347E+06         0.00000E+00
    0.00000E+00         0.00000E+00        -0.53856E+04
 
    0.23654E+06         0.50596E-09         0.00000E+00
    0.50596E-09        -0.26347E+06         0.00000E+00
    0.00000E+00         0.00000E+00        -0.53856E+04
 
    0.23654E+06         0.10119E-08         0.00000E+00
    0.10119E-08        -0.26347E+06         0.00000E+00
    0.00000E+00         0.00000E+00        -0.53856E+04
 
    0.23654E+06        -0.17347E-08         0.00000E+00
   -0.17347E-08        -0.26347E+06         0.00000E+00
    0.00000E+00         0.00000E+00        -0.53856E+04
 
    0.23654E+06         0.14456E-09         0.00000E+00
    0.14456E-09        -0.26347E+06         0.00000E+00
    0.00000E+00         0.00000E+00        -0.53856E+04
 
    0.23654E+06         0.14456E-08         0.00000E+00
    0.14456E-08        -0.26347E+06         0.00000E+00
    0.00000E+00         0.00000E+00        -0.53856E+04
 
    0.23654E+06        -0.13010E-08         0.00000E+00
   -0.13010E-08        -0.26347E+06         0.00000E+00
    0.00000E+00         0.00000E+00        -0.53856E+04
 
    0.23654E+06         0.23130E-08         0.00000E+00
    0.23130E-08        -0.26347E+06         0.00000E+00
    0.00000E+00         0.00000E+00        -0.53856E+04
 
    0.23654E+06        -0.11565E-08         0.00000E+00
   -0.11565E-08        -0.26347E+06         0.00000E+00
    0.00000E+00         0.00000E+00        -0.53856E+04
 
    0.23654E+06         0.86736E-09         0.00000E+00
    0.86736E-09        -0.26347E+06         0.00000E+00
    0.00000E+00         0.00000E+00        -0.53856E+04
 
    0.23654E+06        -0.28912E-09         0.00000E+00
   -0.28912E-09        -0.26347E+06         0.00000E+00
    0.00000E+00         0.00000E+00        -0.53856E+04
 
    0.23654E+06         0.86736E-09         0.00000E+00
    0.86736E-09        -0.26347E+06         0.00000E+00
    0.00000E+00         0.00000E+00        -0.53856E+04
 
    0.23654E+06        -0.86736E-09         0.00000E+00
   -0.86736E-09        -0.26347E+06         0.00000E+00
    0.00000E+00         0.00000E+00        -0.53856E+04
 
    0.23654E+06        -0.72280E-09         0.00000E+00
   -0.72280E-09        -0.26347E+06         0.00000E+00
    0.00000E+00         0.00000E+00        -0.53856E+04
 
    0.23654E+06         0.11565E-08         0.00000E+00
    0.11565E-08        -0.26347E+06         0.00000E+00
    0.00000E+00         0.00000E+00        -0.53856E+04
 
    0.23258E+06        -0.14456E-09         0.00000E+00
   -0.14456E-09        -0.26446E+06         0.00000E+00
    0.00000E+00         0.00000E+00        -0.63763E+04
 
    0.23258E+06         0.18793E-08         0.00000E+00
    0.18793E-08        -0.26446E+06         0.00000E+00
    0.00000E+00         0.00000E+00        -0.63763E+04
 
    0.23258E+06         0.57824E-09         0.00000E+00
    0.57824E-09        -0.26446E+06         0.00000E+00
    0.00000E+00         0.00000E+00        -0.63763E+04
 
    0.23258E+06        -0.26021E-08         0.00000E+00
   -0.26021E-08        -0.26446E+06         0.00000E+00
    0.00000E+00         0.00000E+00        -0.63763E+04
 
    0.23258E+06         0.14456E-09         0.00000E+00
    0.14456E-09        -0.26446E+06         0.00000E+00
    0.00000E+00         0.00000E+00        -0.63763E+04
 
    0.23258E+06         0.11565E-08         0.00000E+00
    0.11565E-08        -0.26446E+06         0.00000E+00
    0.00000E+00         0.00000E+00        -0.63763E+04
 
    0.23258E+06        -0.72280E-09         0.00000E+00
   -0.72280E-09        -0.26446E+06         0.00000E+00
    0.00000E+00         0.00000E+00        -0.63763E+04
 
    0.23258E+06         0.43368E-09         0.00000E+00
    0.43368E-09        -0.26446E+06         0.00000E+00
    0.00000E+00         0.00000E+00        -0.63763E+04
 
    0.23258E+06         0.17347E-08         0.00000E+00
    0.17347E-08        -0.26446E+06         0.00000E+00
    0.00000E+00         0.00000E+00        -0.63763E+04
 
    0.23258E+06        -0.11565E-08         0.00000E+00
   -0.11565E-08        -0.26446E+06         0.00000E+00
    0.00000E+00         0.00000E+00        -0.63763E+04
 
    0.23258E+06         0.00000E+00         0.00000E+00
    0.00000E+00        -0.26446E+06         0.00000E+00
    0.00000E+00         0.00000E+00        -0.63763E+04
 
    0.23258E+06         0.26021E-08         0.00000E+00
    0.26021E-08        -0.26446E+06         0.00000E+00
    0.00000E+00         0.00000E+00        -0.63763E+04
 
    0.23258E+06        -0.27466E-08         0.00000E+00
   -0.27466E-08        -0.26446E+06         0.00000E+00
    0.00000E+00         0.00000E+00        -0.63763E+04
 
    0.23258E+06         0.57824E-09         0.00000E+00
    0.57824E-09        -0.26446E+06         0.00000E+00
    0.00000E+00         0.00000E+00        -0.63763E+04
 
    0.23258E+06         0.14456E-09         0.00000E+00
    0.14456E-09        -0.26446E+06         0.00000E+00
    0.00000E+00         0.00000E+00        -0.63763E+04
 
    0.22792E+06         0.72280E-09         0.00000E+00
    0.72280E-09        -0.26563E+06         0.00000E+00
    0.00000E+00         0.00000E+00        -0.75411E+04
 
    0.22792E+06        -0.72280E-10         0.00000E+00
   -0.72280E-10        -0.26563E+06         0.00000E+00
    0.00000E+00         0.00000E+00        -0.75411E+04
 
    0.22792E+06         0.14456E-08         0.00000E+00
    0.14456E-08        -0.26563E+06         0.00000E+00
    0.00000E+00         0.00000E+00        -0.75411E+04
 
    0.22792E+06        -0.57824E-09         0.00000E+00
   -0.57824E-09        -0.26563E+06         0.00000E+00
    0.00000E+00         0.00000E+00        -0.75411E+04
 
    0.22792E+06         0.43368E-09         0.00000E+00
    0.43368E-09        -0.26563E+06         0.00000E+00
    0.00000E+00         0.00000E+00        -0.75411E+04
 
    0.22792E+06         0.14456E-09         0.00000E+00
    0.14456E-09        -0.26563E+06         0.00000E+00
    0.00000E+00         0.00000E+00        -0.75411E+04
 
    0.22792E+06         0.43368E-09         0.00000E+00
    0.43368E-09        -0.26563E+06         0.00000E+00
    0.00000E+00         0.00000E+00        -0.75411E+04
 
    0.22792E+06         0.18793E-08         0.00000E+00
    0.18793E-08        -0.26563E+06         0.00000E+00
    0.00000E+00         0.00000E+00        -0.75411E+04
 
    0.22792E+06        -0.15902E-08         0.00000E+00
   -0.15902E-08        -0.26563E+06         0.00000E+00
    0.00000E+00         0.00000E+00        -0.75411E+04
 
    0.22792E+06         0.43368E-09         0.00000E+00
    0.43368E-09        -0.26563E+06         0.00000E+00
    0.00000E+00         0.00000E+00        -0.75411E+04
 
    0.22792E+06         0.28912E-09         0.00000E+00
    0.28912E-09        -0.26563E+06         0.00000E+00
    0.00000E+00         0.00000E+00        -0.75411E+04
 
    0.22792E+06         0.28912E-09         0.00000E+00
    0.28912E-09        -0.26563E+06         0.00000E+00
    0.00000E+00         0.00000E+00        -0.75411E+04
 
    0.22792E+06        -0.14456E-09         0.00000E+00
   -0.14456E-09        -0.26563E+06         0.00000E+00
    0.00000E+00         0.00000E+00        -0.75411E+04
 
    0.22792E+06         0.14456E-08         0.00000E+00
    0.14456E-08        -0.26563E+06         0.00000E+00
    0.00000E+00         0.00000E+00        -0.75411E+04
 
    0.22792E+06         0.43368E-09         0.00000E+00
    0.43368E-09        -0.26563E+06         0.00000E+00
    0.00000E+00         0.00000E+00        -0.75411E+04
 
    0.22245E+06        -0.18793E-08         0.00000E+00
   -0.18793E-08        -0.26699E+06         0.00000E+00
    0.00000E+00         0.00000E+00        -0.89077E+04
 
    0.22245E+06         0.17347E-08         0.00000E+00
    0.17347E-08        -0.26699E+06         0.00000E+00
    0.00000E+00         0.00000E+00        -0.89077E+04
 
    0.22245E+06         0.28912E-08         0.00000E+00
    0.28912E-08        -0.26699E+06         0.00000E+00
    0.00000E+00         0.00000E+00        -0.89077E+04
 
    0.22245E+06         0.14456E-09         0.00000E+00
    0.14456E-09        -0.26699E+06         0.00000E+00
    0.00000E+00         0.00000E+00        -0.89077E+04
 
    0.22245E+06         0.14456E-09         0.00000E+00
    0.14456E-09        -0.26699E+06         0.00000E+00
    0.00000E+00         0.00000E+00        -0.89077E+04
 
    0.22245E+06         0.43368E-09         0.00000E+00
    0.43368E-09        -0.26699E+06         0.00000E+00
    0.00000E+00         0.00000E+00        -0.89077E+04
 
    0.22245E+06        -0.43368E-09         0.00000E+00
   -0.43368E-09        -0.26699E+06         0.00000E+00
    0.00000E+00         0.00000E+00        -0.89077E+04
 
    0.22245E+06         0.57824E-09         0.00000E+00
    0.57824E-09        -0.26699E+06         0.00000E+00
    0.00000E+00         0.00000E+00        -0.89077E+04
 
    0.22245E+06        -0.21684E-08         0.00000E+00
   -0.21684E-08        -0.26699E+06         0.00000E+00
    0.00000E+00         0.00000E+00        -0.89077E+04
 
    0.22245E+06         0.21684E-08         0.00000E+00
    0.21684E-08        -0.26699E+06         0.00000E+00
    0.00000E+00         0.00000E+00        -0.89077E+04
 
    0.22245E+06        -0.14456E-09         0.00000E+00
   -0.14456E-09        -0.26699E+06         0.00000E+00
    0.00000E+00         0.00000E+00        -0.89077E+04
 
    0.22245E+06         0.28912E-09         0.00000E+00
    0.28912E-09        -0.26699E+06         0.00000E+00
    0.00000E+00         0.00000E+00        -0.89077E+04
 
    0.22245E+06         0.72280E-09         0.00000E+00
    0.72280E-09        -0.26699E+06         0.00000E+00
    0.00000E+00         0.00000E+00        -0.89077E+04
 
    0.22245E+06         0.43368E-09         0.00000E+00
    0.43368E-09        -0.26699E+06         0.00000E+00
    0.00000E+00         0.00000E+00        -0.89077E+04
 
    0.22245E+06         0.28912E-09         0.00000E+00
    0.28912E-09        -0.26699E+06         0.00000E+00
    0.00000E+00         0.00000E+00        -0.89077E+04
 
    0.21605E+06         0.43368E-09         0.00000E+00
    0.43368E-09        -0.26859E+06         0.00000E+00
    0.00000E+00         0.00000E+00        -0.10508E+05
 
    0.21605E+06         0.26021E-08         0.00000E+00
    0.26021E-08        -0.26859E+06         0.00000E+00
    0.00000E+00         0.00000E+00        -0.10508E+05
 
    0.21605E+06        -0.14456E-09         0.00000E+00
   -0.14456E-09        -0.26859E+06         0.00000E+00
    0.00000E+00         0.00000E+00        -0.10508E+05
 
    0.21605E+06         0.72280E-09         0.00000E+00
    0.72280E-09        -0.26859E+06         0.00000E+00
    0.00000E+00         0.00000E+00        -0.10508E+05
 
    0.21605E+06        -0.28912E-09         0.00000E+00
   -0.28912E-09        -0.26859E+06         0.00000E+00
    0.00000E+00         0.00000E+00        -0.10508E+05
 
    0.21605E+06         0.00000E+00         0.00000E+00
    0.00000E+00        -0.26859E+06         0.00000E+00
    0.00000E+00         0.00000E+00        -0.10508E+05
 
    0.21605E+06         0.14456E-09         0.00000E+00
    0.14456E-09        -0.26859E+06         0.00000E+00
    0.00000E+00         0.00000E+00        -0.10508E+05
 
    0.21605E+06        -0.57824E-09         0.00000E+00
   -0.57824E-09        -0.26859E+06         0.00000E+00
    0.00000E+00         0.00000E+00        -0.10508E+05
 
    0.21605E+06        -0.17347E-08         0.00000E+00
   -0.17347E-08        -0.26859E+06         0.00000E+00
    0.00000E+00         0.00000E+00        -0.10508E+05
 
    0.21605E+06         0.27466E-08         0.00000E+00
    0.27466E-08        -0.26859E+06         0.00000E+00
    0.00000E+00         0.00000E+00        -0.10508E+05
 
    0.21605E+06         0.28912E-09         0.00000E+00
    0.28912E-09        -0.26859E+06         0.00000E+00
    0.00000E+00         0.00000E+00        -0.10508E+05
 
    0.21605E+06         0.14456E-09         0.00000E+00
    0.14456E-09        -0.26859E+06         0.00000E+00
    0.00000E+00         0.00000E+00        -0.10508E+05
 
    0.21605E+06         0.14456E-09         0.00000E+00
    0.14456E-09        -0.26859E+06         0.00000E+00
    0.00000E+00         0.00000E+00        -0.10508E+05
 
    0.21605E+06         0.14456E-09         0.00000E+00
    0.14456E-09        -0.26859E+06         0.00000E+00
    0.00000E+00         0.00000E+00        -0.10508E+05
 
    0.21605E+06        -0.43368E-09         0.00000E+00
   -0.43368E-09        -0.26859E+06         0.00000E+00
    0.00000E+00         0.00000E+00        -0.10508E+05
 
    0.20858E+06        -0.14456E-09         0.00000E+00
   -0.14456E-09        -0.27046E+06         0.00000E+00
    0.00000E+00         0.00000E+00        -0.12375E+05
 
    0.20858E+06        -0.27466E-08         0.00000E+00
   -0.27466E-08        -0.27046E+06         0.00000E+00
    0.00000E+00         0.00000E+00        -0.12375E+05
 
    0.20858E+06         0.28912E-09         0.00000E+00
    0.28912E-09        -0.27046E+06         0.00000E+00
    0.00000E+00         0.00000E+00        -0.12375E+05
 
    0.20858E+06         0.86736E-09         0.00000E+00
    0.86736E-09        -0.27046E+06         0.00000E+00
    0.00000E+00         0.00000E+00        -0.12375E+05
 
    0.20858E+06        -0.43368E-09         0.00000E+00
   -0.43368E-09        -0.27046E+06         0.00000E+00
    0.00000E+00         0.00000E+00        -0.12375E+05
 
    0.20858E+06         0.86736E-09         0.00000E+00
    0.86736E-09        -0.27046E+06         0.00000E+00
    0.00000E+00         0.00000E+00        -0.12375E+05
 
    0.20858E+06         0.10119E-08         0.00000E+00
    0.10119E-08        -0.27046E+06         0.00000E+00
    0.00000E+00         0.00000E+00        -0.12375E+05
 
    0.20858E+06        -0.43368E-09         0.00000E+00
   -0.43368E-09        -0.27046E+06         0.00000E+00
    0.00000E+00         0.00000E+00        -0.12375E+05
 
    0.20858E+06        -0.57824E-09         0.00000E+00
   -0.57824E-09        -0.27046E+06         0.00000E+00
    0.00000E+00         0.00000E+00        -0.12375E+05
 
    0.20858E+06        -0.86736E-09         0.00000E+00
   -0.86736E-09        -0.27046E+06         0.00000E+00
    0.00000E+00         0.00000E+00        -0.12375E+05
 
    0.20858E+06         0.14456E-09         0.00000E+00
    0.14456E-09        -0.27046E+06         0.00000E+00
    0.00000E+00         0.00000E+00        -0.12375E+05
 
    0.20858E+06         0.14456E-09         0.00000E+00
    0.14456E-09        -0.27046E+06         0.00000E+00
    0.00000E+00         0.00000E+00        -0.12375E+05
 
    0.20858E+06        -0.14456E-09         0.00000E+00
   -0.14456E-09        -0.27046E+06         0.00000E+00
    0.00000E+00         0.00000E+00        -0.12375E+05
 
    0.20858E+06        -0.14456E-09         0.00000E+00
   -0.14456E-09        -0.27046E+06         0.00000E+00
    0.00000E+00         0.00000E+00        -0.12375E+05
 
    0.20858E+06         0.28912E-09         0.00000E+00
    0.28912E-09        -0.27046E+06         0.00000E+00
    0.00000E+00         0.00000E+00        -0.12375E+05
 
    0.19989E+06        -0.14456E-08         0.00000E+00
   -0.14456E-08        -0.27263E+06         0.00000E+00
    0.00000E+00         0.00000E+00        -0.14549E+05
 
    0.19989E+06         0.14456E-08         0.00000E+00
    0.14456E-08        -0.27263E+06         0.00000E+00
    0.00000E+00         0.00000E+00        -0.14549E+05
 
    0.19989E+06         0.21684E-08         0.00000E+00
    0.21684E-08        -0.27263E+06         0.00000E+00
    0.00000E+00         0.00000E+00        -0.14549E+05
 
    0.19989E+06        -0.15902E-08         0.00000E+00
   -0.15902E-08        -0.27263E+06         0.00000E+00
    0.00000E+00         0.00000E+00        -0.14549E+05
 
    0.19989E+06         0.10119E-08         0.00000E+00
    0.10119E-08        -0.27263E+06         0.00000E+00
    0.00000E+00         0.00000E+00        -0.14549E+05
 
    0.19989E+06         0.28912E-09         0.00000E+00
    0.28912E-09        -0.27263E+06         0.00000E+00
    0.00000E+00         0.00000E+00        -0.14549E+05
 
    0.19989E+06         0.15902E-08         0.00000E+00
    0.15902E-08        -0.27263E+06         0.00000E+00
    0.00000E+00         0.00000E+00        -0.14549E+05
 
    0.19989E+06        -0.34694E-08         0.00000E+00
   -0.34694E-08        -0.27263E+06         0.00000E+00
    0.00000E+00         0.00000E+00        -0.14549E+05
 
    0.19989E+06        -0.43368E-09         0.00000E+00
   -0.43368E-09        -0.27263E+06         0.00000E+00
    0.00000E+00         0.00000E+00        -0.14549E+05
 
    0.19989E+06         0.14456E-09         0.00000E+00
    0.14456E-09        -0.27263E+06         0.00000E+00
    0.00000E+00         0.00000E+00        -0.14549E+05
 
    0.19989E+06         0.13010E-08         0.00000E+00
    0.13010E-08        -0.27263E+06         0.00000E+00
    0.00000E+00         0.00000E+00        -0.14549E+05
 
    0.19989E+06        -0.28912E-09         0.00000E+00
   -0.28912E-09        -0.27263E+06         0.00000E+00
    0.00000E+00         0.00000E+00        -0.14549E+05
 
    0.19989E+06         0.57824E-09         0.00000E+00
    0.57824E-09        -0.27263E+06         0.00000E+00
    0.00000E+00         0.00000E+00        -0.14549E+05
 
    0.19989E+06        -0.17347E-08         0.00000E+00
   -0.17347E-08        -0.27263E+06         0.00000E+00
    0.00000E+00         0.00000E+00        -0.14549E+05
 
    0.19989E+06        -0.14456E-09         0.00000E+00
   -0.14456E-09        -0.27263E+06         0.00000E+00
    0.00000E+00         0.00000E+00        -0.14549E+05
 
    0.18980E+06         0.00000E+00         0.00000E+00
    0.00000E+00        -0.27516E+06         0.00000E+00
    0.00000E+00         0.00000E+00        -0.17071E+05
 
    0.18980E+06        -0.20238E-08         0.00000E+00
   -0.20238E-08        -0.27516E+06         0.00000E+00
    0.00000E+00         0.00000E+00        -0.17071E+05
 
    0.18980E+06         0.86736E-09         0.00000E+00
    0.86736E-09        -0.27516E+06         0.00000E+00
    0.00000E+00         0.00000E+00        -0.17071E+05
 
    0.18980E+06        -0.26021E-08         0.00000E+00
   -0.26021E-08        -0.27516E+06         0.00000E+00
    0.00000E+00         0.00000E+00        -0.17071E+05
 
    0.18980E+06        -0.20238E-08         0.00000E+00
   -0.20238E-08        -0.27516E+06         0.00000E+00
    0.00000E+00         0.00000E+00        -0.17071E+05
 
    0.18980E+06         0.72280E-09         0.00000E+00
    0.72280E-09        -0.27516E+06         0.00000E+00
    0.00000E+00         0.00000E+00        -0.17071E+05
 
    0.18980E+06        -0.14456E-09         0.00000E+00
   -0.14456E-09        -0.27516E+06         0.00000E+00
    0.00000E+00         0.00000E+00        -0.17071E+05
 
    0.18980E+06         0.14456E-09         0.00000E+00
    0.14456E-09        -0.27516E+06         0.00000E+00
    0.00000E+00         0.00000E+00        -0.17071E+05
 
    0.18980E+06        -0.10119E-08         0.00000E+00
   -0.10119E-08        -0.27516E+06         0.00000E+00
    0.00000E+00         0.00000E+00        -0.17071E+05
 
    0.18980E+06        -0.57824E-09         0.00000E+00
   -0.57824E-09        -0.27516E+06         0.00000E+00
    0.00000E+00         0.00000E+00        -0.17071E+05
 
    0.18980E+06         0.15902E-08         0.00000E+00
    0.15902E-08        -0.27516E+06         0.00000E+00
    0.00000E+00         0.00000E+00        -0.17071E+05
 
    0.18980E+06        -0.21684E-08         0.00000E+00
   -0.21684E-08        -0.27516E+06         0.00000E+00
    0.00000E+00         0.00000E+00        -0.17071E+05
 
    0.18980E+06         0.15902E-08         0.00000E+00
    0.15902E-08        -0.27516E+06         0.00000E+00
    0.00000E+00         0.00000E+00        -0.17071E+05
 
    0.18980E+06        -0.86736E-09         0.00000E+00
   -0.86736E-09        -0.27516E+06         0.00000E+00
    0.00000E+00         0.00000E+00        -0.17071E+05
 
    0.18980E+06        -0.14456E-09         0.00000E+00
   -0.14456E-09        -0.27516E+06         0.00000E+00
    0.00000E+00         0.00000E+00        -0.17071E+05
 
    0.17815E+06         0.00000E+00         0.00000E+00
    0.00000E+00        -0.27807E+06         0.00000E+00
    0.00000E+00         0.00000E+00        -0.19984E+05
 
    0.17815E+06         0.14456E-09         0.00000E+00
    0.14456E-09        -0.27807E+06         0.00000E+00
    0.00000E+00         0.00000E+00        -0.19984E+05
 
    0.17815E+06         0.28912E-09         0.00000E+00
    0.28912E-09        -0.27807E+06         0.00000E+00
    0.00000E+00         0.00000E+00        -0.19984E+05
 
    0.17815E+06         0.11565E-08         0.00000E+00
    0.11565E-08        -0.27807E+06         0.00000E+00
    0.00000E+00         0.00000E+00        -0.19984E+05
 
    0.17815E+06        -0.43368E-09         0.00000E+00
   -0.43368E-09        -0.27807E+06         0.00000E+00
    0.00000E+00         0.00000E+00        -0.19984E+05
 
    0.17815E+06         0.43368E-09         0.00000E+00
    0.43368E-09        -0.27807E+06         0.00000E+00
    0.00000E+00         0.00000E+00        -0.19984E+05
 
    0.17815E+06         0.10119E-08         0.00000E+00
    0.10119E-08        -0.27807E+06         0.00000E+00
    0.00000E+00         0.00000E+00        -0.19984E+05
 
    0.17815E+06         0.72280E-09         0.00000E+00
    0.72280E-09        -0.27807E+06         0.00000E+00
    0.00000E+00         0.00000E+00        -0.19984E+05
 
    0.17815E+06        -0.28912E-09         0.00000E+00
   -0.28912E-09        -0.27807E+06         0.00000E+00
    0.00000E+00         0.00000E+00        -0.19984E+05
 
    0.17815E+06         0.28912E-09         0.00000E+00
    0.28912E-09        -0.27807E+06         0.00000E+00
    0.00000E+00         0.00000E+00        -0.19984E+05
 
    0.17815E+06         0.43368E-09         0.00000E+00
    0.43368E-09        -0.27807E+06         0.00000E+00
    0.00000E+00         0.00000E+00        -0.19984E+05
 
    0.17815E+06        -0.14456E-09         0.00000E+00
   -0.14456E-09        -0.27807E+06         0.00000E+00
    0.00000E+00         0.00000E+00        -0.19984E+05
 
    0.17815E+06         0.13010E-08         0.00000E+00
    0.13010E-08        -0.27807E+06         0.00000E+00
    0.00000E+00         0.00000E+00        -0.19984E+05
 
    0.17815E+06         0.14456E-09         0.00000E+00
    0.14456E-09        -0.27807E+06         0.00000E+00
    0.00000E+00         0.00000E+00        -0.19984E+05
 
    0.17815E+06         0.00000E+00         0.00000E+00
    0.00000E+00        -0.27807E+06         0.00000E+00
    0.00000E+00         0.00000E+00        -0.19984E+05
 
    0.16476E+06        -0.21684E-08         0.00000E+00
   -0.21684E-08        -0.28142E+06         0.00000E+00
    0.00000E+00         0.00000E+00        -0.23332E+05
 
    0.16476E+06         0.30358E-08         0.00000E+00
    0.30358E-08        -0.28142E+06         0.00000E+00
    0.00000E+00         0.00000E+00        -0.23332E+05
 
    0.16476E+06        -0.72280E-09         0.00000E+00
   -0.72280E-09        -0.28142E+06         0.00000E+00
    0.00000E+00         0.00000E+00        -0.23332E+05
 
    0.16476E+06        -0.20238E-08         0.00000E+00
   -0.20238E-08        -0.28142E+06         0.00000E+00
    0.00000E+00         0.00000E+00        -0.23332E+05
 
    0.16476E+06        -0.43368E-09         0.00000E+00
   -0.43368E-09        -0.28142E+06         0.00000E+00
    0.00000E+00         0.00000E+00        -0.23332E+05
 
    0.16476E+06         0.57824E-09         0.00000E+00
    0.57824E-09        -0.28142E+06         0.00000E+00
    0.00000E+00         0.00000E+00        -0.23332E+05
 
    0.16476E+06         0.11565E-08         0.00000E+00
    0.11565E-08        -0.28142E+06         0.00000E+00
    0.00000E+00         0.00000E+00        -0.23332E+05
 
    0.16476E+06        -0.27466E-08         0.00000E+00
   -0.27466E-08        -0.28142E+06         0.00000E+00
    0.00000E+00         0.00000E+00        -0.23332E+05
 
    0.16476E+06        -0.15902E-08         0.00000E+00
   -0.15902E-08        -0.28142E+06         0.00000E+00
    0.00000E+00         0.00000E+00        -0.23332E+05
 
    0.16476E+06         0.17347E-08         0.00000E+00
    0.17347E-08        -0.28142E+06         0.00000E+00
    0.00000E+00         0.00000E+00        -0.23332E+05
 
    0.16476E+06        -0.57824E-09         0.00000E+00
   -0.57824E-09        -0.28142E+06         0.00000E+00
    0.00000E+00         0.00000E+00        -0.23332E+05
 
    0.16476E+06        -0.11565E-08         0.00000E+00
   -0.11565E-08        -0.28142E+06         0.00000E+00
    0.00000E+00         0.00000E+00        -0.23332E+05
 
    0.16476E+06         0.14456E-09         0.00000E+00
    0.14456E-09        -0.28142E+06         0.00000E+00
    0.00000E+00         0.00000E+00        -0.23332E+05
 
    0.16476E+06         0.28912E-09         0.00000E+00
    0.28912E-09        -0.28142E+06         0.00000E+00
    0.00000E+00         0.00000E+00        -0.23332E+05
 
    0.16476E+06         0.72280E-09         0.00000E+00
    0.72280E-09        -0.28142E+06         0.00000E+00
    0.00000E+00         0.00000E+00        -0.23332E+05
 
    0.14945E+06        -0.11565E-08         0.00000E+00
   -0.11565E-08        -0.28524E+06         0.00000E+00
    0.00000E+00         0.00000E+00        -0.27158E+05
 
    0.14945E+06         0.43368E-09         0.00000E+00
    0.43368E-09        -0.28524E+06         0.00000E+00
    0.00000E+00         0.00000E+00        -0.27158E+05
 
    0.14945E+06         0.43368E-09         0.00000E+00
    0.43368E-09        -0.28524E+06         0.00000E+00
    0.00000E+00         0.00000E+00        -0.27158E+05
 
    0.14945E+06        -0.10119E-08         0.00000E+00
   -0.10119E-08        -0.28524E+06         0.00000E+00
    0.00000E+00         0.00000E+00        -0.27158E+05
 
    0.14945E+06        -0.15902E-08         0.00000E+00
   -0.15902E-08        -0.28524E+06         0.00000E+00
    0.00000E+00         0.00000E+00        -0.27158E+05
 
    0.14945E+06         0.14456E-08         0.00000E+00
    0.14456E-08        -0.28524E+06         0.00000E+00
    0.00000E+00         0.00000E+00        -0.27158E+05
 
    0.14945E+06         0.24575E-08         0.00000E+00
    0.24575E-08        -0.28524E+06         0.00000E+00
    0.00000E+00         0.00000E+00        -0.27158E+05
 
    0.14945E+06        -0.18793E-08         0.00000E+00
   -0.18793E-08        -0.28524E+06         0.00000E+00
    0.00000E+00         0.00000E+00        -0.27158E+05
 
    0.14945E+06         0.57824E-09         0.00000E+00
    0.57824E-09        -0.28524E+06         0.00000E+00
    0.00000E+00         0.00000E+00        -0.27158E+05
 
    0.14945E+06         0.14456E-08         0.00000E+00
    0.14456E-08        -0.28524E+06         0.00000E+00
    0.00000E+00         0.00000E+00        -0.27158E+05
 
    0.14945E+06        -0.31803E-08         0.00000E+00
   -0.31803E-08        -0.28524E+06         0.00000E+00
    0.00000E+00         0.00000E+00        -0.27158E+05
 
    0.14945E+06         0.33249E-08         0.00000E+00
    0.33249E-08        -0.28524E+06         0.00000E+00
    0.00000E+00         0.00000E+00        -0.27158E+05
 
    0.14945E+06        -0.14456E-08         0.00000E+00
   -0.14456E-08        -0.28524E+06         0.00000E+00
    0.00000E+00         0.00000E+00        -0.27158E+05
 
    0.14945E+06         0.14456E-09         0.00000E+00
    0.14456E-09        -0.28524E+06         0.00000E+00
    0.00000E+00         0.00000E+00        -0.27158E+05
 
    0.14945E+06         0.14456E-09         0.00000E+00
    0.14456E-09        -0.28524E+06         0.00000E+00
    0.00000E+00         0.00000E+00        -0.27158E+05
 
    0.13208E+06        -0.86736E-09         0.00000E+00
   -0.86736E-09        -0.28959E+06         0.00000E+00
    0.00000E+00         0.00000E+00        -0.31501E+05
 
    0.13208E+06         0.72280E-09         0.00000E+00
    0.72280E-09        -0.28959E+06         0.00000E+00
    0.00000E+00         0.00000E+00        -0.31501E+05
 
    0.13208E+06         0.28912E-09         0.00000E+00
    0.28912E-09        -0.28959E+06         0.00000E+00
    0.00000E+00         0.00000E+00        -0.31501E+05
 
    0.13208E+06         0.28912E-09         0.00000E+00
    0.28912E-09        -0.28959E+06         0.00000E+00
    0.00000E+00         0.00000E+00        -0.31501E+05
 
    0.13208E+06        -0.26021E-08         0.00000E+00
   -0.26021E-08        -0.28959E+06         0.00000E+00
    0.00000E+00         0.00000E+00        -0.31501E+05
 
    0.13208E+06         0.14456E-09         0.00000E+00
    0.14456E-09        -0.28959E+06         0.00000E+00
    0.00000E+00         0.00000E+00        -0.31501E+05
 
    0.13208E+06         0.86736E-09         0.00000E+00
    0.86736E-09        -0.28959E+06         0.00000E+00
    0.00000E+00         0.00000E+00        -0.31501E+05
 
    0.13208E+06         0.11565E-08         0.00000E+00
    0.11565E-08        -0.28959E+06         0.00000E+00
    0.00000E+00         0.00000E+00        -0.31501E+05
 
    0.13208E+06        -0.14456E-09         0.00000E+00
   -0.14456E-09        -0.28959E+06         0.00000E+00
    0.00000E+00         0.00000E+00        -0.31501E+05
 
    0.13208E+06         0.72280E-09         0.00000E+00
    0.72280E-09        -0.28959E+06         0.00000E+00
    0.00000E+00         0.00000E+00        -0.31501E+05
 
    0.13208E+06        -0.36140E-08         0.00000E+00
   -0.36140E-08        -0.28959E+06         0.00000E+00
    0.00000E+00         0.00000E+00        -0.31501E+05
 
    0.13208E+06         0.20238E-08         0.00000E+00
    0.20238E-08        -0.28959E+06         0.00000E+00
    0.00000E+00         0.00000E+00        -0.31501E+05
 
    0.13208E+06        -0.28912E-09         0.00000E+00
   -0.28912E-09        -0.28959E+06         0.00000E+00
    0.00000E+00         0.00000E+00        -0.31501E+05
 
    0.13208E+06        -0.23130E-08         0.00000E+00
   -0.23130E-08        -0.28959E+06         0.00000E+00
    0.00000E+00         0.00000E+00        -0.31501E+05
 
    0.13208E+06         0.26021E-08         0.00000E+00
    0.26021E-08        -0.28959E+06         0.00000E+00
    0.00000E+00         0.00000E+00        -0.31501E+05
 
    0.11253E+06        -0.28912E-08         0.00000E+00
   -0.28912E-08        -0.29447E+06         0.00000E+00
    0.00000E+00         0.00000E+00        -0.36387E+05
 
    0.11253E+06         0.15902E-08         0.00000E+00
    0.15902E-08        -0.29447E+06         0.00000E+00
    0.00000E+00         0.00000E+00        -0.36387E+05
 
    0.11253E+06        -0.28912E-09         0.00000E+00
   -0.28912E-09        -0.29447E+06         0.00000E+00
    0.00000E+00         0.00000E+00        -0.36387E+05
 
    0.11253E+06         0.00000E+00         0.00000E+00
    0.00000E+00        -0.29447E+06         0.00000E+00
    0.00000E+00         0.00000E+00        -0.36387E+05
 
    0.11253E+06        -0.17347E-08         0.00000E+00
   -0.17347E-08        -0.29447E+06         0.00000E+00
    0.00000E+00         0.00000E+00        -0.36387E+05
 
    0.11253E+06         0.28912E-09         0.00000E+00
    0.28912E-09        -0.29447E+06         0.00000E+00
    0.00000E+00         0.00000E+00        -0.36387E+05
 
    0.11253E+06        -0.14456E-09         0.00000E+00
   -0.14456E-09        -0.29447E+06         0.00000E+00
    0.00000E+00         0.00000E+00        -0.36387E+05
 
    0.11253E+06         0.13010E-08         0.00000E+00
    0.13010E-08        -0.29447E+06         0.00000E+00
    0.00000E+00         0.00000E+00        -0.36387E+05
 
    0.11253E+06         0.13010E-08         0.00000E+00
    0.13010E-08        -0.29447E+06         0.00000E+00
    0.00000E+00         0.00000E+00        -0.36387E+05
 
    0.11253E+06        -0.14456E-09         0.00000E+00
   -0.14456E-09        -0.29447E+06         0.00000E+00
    0.00000E+00         0.00000E+00        -0.36387E+05
 
    0.11253E+06        -0.14456E-09         0.00000E+00
   -0.14456E-09        -0.29447E+06         0.00000E+00
    0.00000E+00         0.00000E+00        -0.36387E+05
 
    0.11253E+06        -0.28912E-09         0.00000E+00
   -0.28912E-09        -0.29447E+06         0.00000E+00
    0.00000E+00         0.00000E+00        -0.36387E+05
 
    0.11253E+06         0.43368E-09         0.00000E+00
    0.43368E-09        -0.29447E+06         0.00000E+00
    0.00000E+00         0.00000E+00        -0.36387E+05
 
    0.11253E+06        -0.14456E-09         0.00000E+00
   -0.14456E-09        -0.29447E+06         0.00000E+00
    0.00000E+00         0.00000E+00        -0.36387E+05
 
    0.11253E+06        -0.28912E-09         0.00000E+00
   -0.28912E-09        -0.29447E+06         0.00000E+00
    0.00000E+00         0.00000E+00        -0.36387E+05
 
    0.90772E+05        -0.23130E-08         0.00000E+00
   -0.23130E-08        -0.29991E+06         0.00000E+00
    0.00000E+00         0.00000E+00        -0.41828E+05
 
    0.90772E+05         0.28912E-09         0.00000E+00
    0.28912E-09        -0.29991E+06         0.00000E+00
    0.00000E+00         0.00000E+00        -0.41828E+05
 
    0.90772E+05        -0.28912E-09         0.00000E+00
   -0.28912E-09        -0.29991E+06         0.00000E+00
    0.00000E+00         0.00000E+00        -0.41828E+05
 
    0.90772E+05         0.00000E+00         0.00000E+00
    0.00000E+00        -0.29991E+06         0.00000E+00
    0.00000E+00         0.00000E+00        -0.41828E+05
 
    0.90772E+05        -0.10119E-08         0.00000E+00
   -0.10119E-08        -0.29991E+06         0.00000E+00
    0.00000E+00         0.00000E+00        -0.41828E+05
 
    0.90772E+05         0.43368E-09         0.00000E+00
    0.43368E-09        -0.29991E+06         0.00000E+00
    0.00000E+00         0.00000E+00        -0.41828E+05
 
    0.90772E+05        -0.28912E-09         0.00000E+00
   -0.28912E-09        -0.29991E+06         0.00000E+00
    0.00000E+00         0.00000E+00        -0.41828E+05
 
    0.90772E+05        -0.57824E-09         0.00000E+00
   -0.57824E-09        -0.29991E+06         0.00000E+00
    0.00000E+00         0.00000E+00        -0.41828E+05
 
    0.90772E+05        -0.13010E-08         0.00000E+00
   -0.13010E-08        -0.29991E+06         0.00000E+00
    0.00000E+00         0.00000E+00        -0.41828E+05
 
    0.90772E+05        -0.43368E-09         0.00000E+00
   -0.43368E-09        -0.29991E+06         0.00000E+00
    0.00000E+00         0.00000E+00        -0.41828E+05
 
    0.90772E+05         0.43368E-09         0.00000E+00
    0.43368E-09        -0.29991E+06         0.00000E+00
    0.00000E+00         0.00000E+00        -0.41828E+05
 
    0.90772E+05         0.14456E-09         0.00000E+00
    0.14456E-09        -0.29991E+06         0.00000E+00
    0.00000E+00         0.00000E+00        -0.41828E+05
 
    0.90772E+05        -0.28912E-09         0.00000E+00
   -0.28912E-09        -0.29991E+06         0.00000E+00
    0.00000E+00         0.00000E+00        -0.41828E+05
 
    0.90772E+05        -0.14456E-09         0.00000E+00
   -0.14456E-09        -0.29991E+06         0.00000E+00
    0.00000E+00         0.00000E+00        -0.41828E+05
 
    0.90772E+05         0.00000E+00         0.00000E+00
    0.00000E+00        -0.29991E+06         0.00000E+00
    0.00000E+00         0.00000E+00        -0.41828E+05
 
    0.66866E+05         0.28912E-09         0.00000E+00
    0.28912E-09        -0.30589E+06         0.00000E+00
    0.00000E+00         0.00000E+00        -0.47805E+05
 
    0.66866E+05         0.14456E-09         0.00000E+00
    0.14456E-09        -0.30589E+06         0.00000E+00
    0.00000E+00         0.00000E+00        -0.47805E+05
 
    0.66866E+05        -0.14456E-09         0.00000E+00
   -0.14456E-09        -0.30589E+06         0.00000E+00
    0.00000E+00         0.00000E+00        -0.47805E+05
 
    0.66866E+05         0.00000E+00         0.00000E+00
    0.00000E+00        -0.30589E+06         0.00000E+00
    0.00000E+00         0.00000E+00        -0.47805E+05
 
    0.66866E+05        -0.14456E-08         0.00000E+00
   -0.14456E-08        -0.30589E+06         0.00000E+00
    0.00000E+00         0.00000E+00        -0.47805E+05
 
    0.66866E+05         0.20238E-08         0.00000E+00
    0.20238E-08        -0.30589E+06         0.00000E+00
    0.00000E+00         0.00000E+00        -0.47805E+05
 
    0.66866E+05         0.00000E+00         0.00000E+00
    0.00000E+00        -0.30589E+06         0.00000E+00
    0.00000E+00         0.00000E+00        -0.47805E+05
 
    0.66866E+05         0.00000E+00         0.00000E+00
    0.00000E+00        -0.30589E+06         0.00000E+00
    0.00000E+00         0.00000E+00        -0.47805E+05
 
    0.66866E+05        -0.72280E-09         0.00000E+00
   -0.72280E-09        -0.30589E+06         0.00000E+00
    0.00000E+00         0.00000E+00        -0.47805E+05
 
    0.66866E+05        -0.57824E-09         0.00000E+00
   -0.57824E-09        -0.30589E+06         0.00000E+00
    0.00000E+00         0.00000E+00        -0.47805E+05
 
    0.66866E+05        -0.57824E-09         0.00000E+00
   -0.57824E-09        -0.30589E+06         0.00000E+00
    0.00000E+00         0.00000E+00        -0.47805E+05
 
    0.66866E+05        -0.14456E-09         0.00000E+00
   -0.14456E-09        -0.30589E+06         0.00000E+00
    0.00000E+00         0.00000E+00        -0.47805E+05
 
    0.66866E+05        -0.43368E-09         0.00000E+00
   -0.43368E-09        -0.30589E+06         0.00000E+00
    0.00000E+00         0.00000E+00        -0.47805E+05
 
    0.66866E+05        -0.28912E-09         0.00000E+00
   -0.28912E-09        -0.30589E+06         0.00000E+00
    0.00000E+00         0.00000E+00        -0.47805E+05
 
    0.66866E+05         0.28912E-09         0.00000E+00
    0.28912E-09        -0.30589E+06         0.00000E+00
    0.00000E+00         0.00000E+00        -0.47805E+05
 
    0.41062E+05         0.00000E+00         0.00000E+00
    0.00000E+00        -0.31234E+06         0.00000E+00
    0.00000E+00         0.00000E+00        -0.54256E+05
 
    0.41062E+05        -0.28912E-09         0.00000E+00
   -0.28912E-09        -0.31234E+06         0.00000E+00
    0.00000E+00         0.00000E+00        -0.54256E+05
 
    0.41062E+05        -0.13010E-08         0.00000E+00
   -0.13010E-08        -0.31234E+06         0.00000E+00
    0.00000E+00         0.00000E+00        -0.54256E+05
 
    0.41062E+05        -0.11565E-08         0.00000E+00
   -0.11565E-08        -0.31234E+06         0.00000E+00
    0.00000E+00         0.00000E+00        -0.54256E+05
 
    0.41062E+05        -0.57824E-09         0.00000E+00
   -0.57824E-09        -0.31234E+06         0.00000E+00
    0.00000E+00         0.00000E+00        -0.54256E+05
 
    0.41062E+05         0.57824E-09         0.00000E+00
    0.57824E-09        -0.31234E+06         0.00000E+00
    0.00000E+00         0.00000E+00        -0.54256E+05
 
    0.41062E+05        -0.14456E-08         0.00000E+00
   -0.14456E-08        -0.31234E+06         0.00000E+00
    0.00000E+00         0.00000E+00        -0.54256E+05
 
    0.41062E+05        -0.86736E-09         0.00000E+00
   -0.86736E-09        -0.31234E+06         0.00000E+00
    0.00000E+00         0.00000E+00        -0.54256E+05
 
    0.41062E+05        -0.57824E-09         0.00000E+00
   -0.57824E-09        -0.31234E+06         0.00000E+00
    0.00000E+00         0.00000E+00        -0.54256E+05
 
    0.41062E+05         0.57824E-09         0.00000E+00
    0.57824E-09        -0.31234E+06         0.00000E+00
    0.00000E+00         0.00000E+00        -0.54256E+05
 
    0.41062E+05         0.57824E-09         0.00000E+00
    0.57824E-09        -0.31234E+06         0.00000E+00
    0.00000E+00         0.00000E+00        -0.54256E+05
 
    0.41062E+05        -0.15902E-08         0.00000E+00
   -0.15902E-08        -0.31234E+06         0.00000E+00
    0.00000E+00         0.00000E+00        -0.54256E+05
 
    0.41062E+05         0.13010E-08         0.00000E+00
    0.13010E-08        -0.31234E+06         0.00000E+00
    0.00000E+00         0.00000E+00        -0.54256E+05
 
    0.41062E+05        -0.15902E-08         0.00000E+00
   -0.15902E-08        -0.31234E+06         0.00000E+00
    0.00000E+00         0.00000E+00        -0.54256E+05
 
    0.41062E+05         0.86736E-09         0.00000E+00
    0.86736E-09        -0.31234E+06         0.00000E+00
    0.00000E+00         0.00000E+00        -0.54256E+05
 
    0.13865E+05        -0.31803E-08         0.00000E+00
   -0.31803E-08        -0.31914E+06         0.00000E+00
    0.00000E+00         0.00000E+00        -0.61055E+05
 
    0.13865E+05         0.00000E+00         0.00000E+00
    0.00000E+00        -0.31914E+06         0.00000E+00
    0.00000E+00         0.00000E+00        -0.61055E+05
 
    0.13865E+05        -0.14456E-08         0.00000E+00
   -0.14456E-08        -0.31914E+06         0.00000E+00
    0.00000E+00         0.00000E+00        -0.61055E+05
 
    0.13865E+05         0.27466E-08         0.00000E+00
    0.27466E-08        -0.31914E+06         0.00000E+00
    0.00000E+00         0.00000E+00        -0.61055E+05
 
    0.13865E+05        -0.57824E-09         0.00000E+00
   -0.57824E-09        -0.31914E+06         0.00000E+00
    0.00000E+00         0.00000E+00        -0.61055E+05
 
    0.13865E+05         0.21684E-08         0.00000E+00
    0.21684E-08        -0.31914E+06         0.00000E+00
    0.00000E+00         0.00000E+00        -0.61055E+05
 
    0.13865E+05        -0.15902E-08         0.00000E+00
   -0.15902E-08        -0.31914E+06         0.00000E+00
    0.00000E+00         0.00000E+00        -0.61055E+05
 
    0.13865E+05        -0.30358E-08         0.00000E+00
   -0.30358E-08        -0.31914E+06         0.00000E+00
    0.00000E+00         0.00000E+00        -0.61055E+05
 
    0.13865E+05         0.23130E-08         0.00000E+00
    0.23130E-08        -0.31914E+06         0.00000E+00
    0.00000E+00         0.00000E+00        -0.61055E+05
 
    0.13865E+05         0.14456E-09         0.00000E+00
    0.14456E-09        -0.31914E+06         0.00000E+00
    0.00000E+00         0.00000E+00        -0.61055E+05
 
    0.13865E+05         0.13010E-08         0.00000E+00
    0.13010E-08        -0.31914E+06         0.00000E+00
    0.00000E+00         0.00000E+00        -0.61055E+05
 
    0.13865E+05        -0.14456E-08         0.00000E+00
   -0.14456E-08        -0.31914E+06         0.00000E+00
    0.00000E+00         0.00000E+00        -0.61055E+05
 
    0.13865E+05         0.11565E-08         0.00000E+00
    0.11565E-08        -0.31914E+06         0.00000E+00
    0.00000E+00         0.00000E+00        -0.61055E+05
 
    0.13865E+05         0.43368E-09         0.00000E+00
    0.43368E-09        -0.31914E+06         0.00000E+00
    0.00000E+00         0.00000E+00        -0.61055E+05
 
    0.13865E+05        -0.14456E-09         0.00000E+00
   -0.14456E-09        -0.31914E+06         0.00000E+00
    0.00000E+00         0.00000E+00        -0.61055E+05
 
TENSORS stresstot double 
   -0.32742E-09         0.90350E-11         0.00000E+00
    0.90350E-11        -0.51617E+06         0.00000E+00
    0.00000E+00         0.00000E+00        -0.25808E+06
 
   -0.14552E-09         0.63245E-10         0.00000E+00
    0.63245E-10        -0.51617E+06         0.00000E+00
    0.00000E+00         0.00000E+00        -0.25808E+06
 
   -0.19645E-09         0.63245E-10         0.00000E+00
    0.63245E-10        -0.51617E+06         0.00000E+00
    0.00000E+00         0.00000E+00        -0.25808E+06
 
   -0.13097E-09        -0.90350E-11         0.00000E+00
   -0.90350E-11        -0.51617E+06         0.00000E+00
    0.00000E+00         0.00000E+00        -0.25808E+06
 
   -0.24011E-09         0.31623E-10         0.00000E+00
    0.31623E-10        -0.51617E+06         0.00000E+00
    0.00000E+00         0.00000E+00        -0.25808E+06
 
   -0.17462E-09        -0.85833E-10         0.00000E+00
   -0.85833E-10        -0.51617E+06         0.00000E+00
    0.00000E+00         0.00000E+00        -0.25808E+06
 
   -0.58208E-10        -0.90350E-10         0.00000E+00
   -0.90350E-10        -0.51617E+06         0.00000E+00
    0.00000E+00         0.00000E+00        -0.25808E+06
 
    0.14552E-10        -0.90350E-11         0.00000E+00
   -0.90350E-11        -0.51617E+06         0.00000E+00
    0.00000E+00         0.00000E+00        -0.25808E+06
 
    0.80036E-10        -0.24846E-10         0.00000E+00
   -0.24846E-10        -0.51617E+06         0.00000E+00
    0.00000E+00         0.00000E+00        -0.25808E+06
 
    0.36380E-10        -0.67763E-10         0.00000E+00
   -0.67763E-10        -0.51617E+06         0.00000E+00
    0.00000E+00         0.00000E+00        -0.25808E+06
 
    0.24011E-09        -0.11294E-10         0.00000E+00
   -0.11294E-10        -0.51617E+06         0.00000E+00
    0.00000E+00         0.00000E+00        -0.25808E+06
 
    0.24011E-09         0.33881E-10         0.00000E+00
    0.33881E-10        -0.51617E+06         0.00000E+00
    0.00000E+00         0.00000E+00        -0.25808E+06
 
    0.40018E-09         0.00000E+00         0.00000E+00
    0.00000E+00        -0.51617E+06         0.00000E+00
    0.00000E+00         0.00000E+00        -0.25808E+06
 
    0.37107E-09         0.67763E-11         0.00000E+00
    0.67763E-11        -0.51617E+06         0.00000E+00
    0.00000E+00         0.00000E+00        -0.25808E+06
 
    0.37107E-09         0.12423E-10         0.00000E+00
    0.12423E-10        -0.51617E+06         0.00000E+00
    0.00000E+00         0.00000E+00        -0.25808E+06
 
   -0.20373E-09        -0.72280E-10         0.00000E+00
   -0.72280E-10        -0.51617E+06         0.00000E+00
    0.00000E+00         0.00000E+00        -0.25808E+06
 
   -0.21828E-09        -0.94868E-10         0.00000E+00
   -0.94868E-10        -0.51617E+06         0.00000E+00
    0.00000E+00         0.00000E+00        -0.25808E+06
 
   -0.30559E-09         0.14908E-09         0.00000E+00
    0.14908E-09        -0.51617E+06         0.00000E+00
    0.00000E+00         0.00000E+00        -0.25808E+06
 
   -0.11642E-09        -0.18070E-10         0.00000E+00
   -0.18070E-10        -0.51617E+06         0.00000E+00
    0.00000E+00         0.00000E+00        -0.25808E+06
 
   -0.29831E-09         0.10390E-09         0.00000E+00
    0.10390E-09        -0.51617E+06         0.00000E+00
    0.00000E+00         0.00000E+00        -0.25808E+06
 
   -0.94587E-10        -0.90350E-10         0.00000E+00
   -0.90350E-10        -0.51617E+06         0.00000E+00
    0.00000E+00         0.00000E+00        -0.25808E+06
 
    0.14552E-10         0.54210E-10         0.00000E+00
    0.54210E-10        -0.51617E+06         0.00000E+00
    0.00000E+00         0.00000E+00        -0.25808E+06
 
    0.29104E-10         0.22588E-10         0.00000E+00
    0.22588E-10        -0.51617E+06         0.00000E+00
    0.00000E+00         0.00000E+00        -0.25808E+06
 
    0.65484E-10         0.13553E-09         0.00000E+00
    0.13553E-09        -0.51617E+06         0.00000E+00
    0.00000E+00         0.00000E+00        -0.25808E+06
 
    0.16735E-09         0.11746E-09         0.00000E+00
    0.11746E-09        -0.51617E+06         0.00000E+00
    0.00000E+00         0.00000E+00        -0.25808E+06
 
    0.14552E-09         0.81315E-10         0.00000E+00
    0.81315E-10        -0.51617E+06         0.00000E+00
    0.00000E+00         0.00000E+00        -0.25808E+06
 
    0.21100E-09        -0.13553E-10         0.00000E+00
   -0.13553E-10        -0.51617E+06         0.00000E+00
    0.00000E+00         0.00000E+00        -0.25808E+06
 
    0.31287E-09         0.29364E-10         0.00000E+00
    0.29364E-10        -0.51617E+06         0.00000E+00
    0.00000E+00         0.00000E+00        -0.25808E+06
 
    0.36380E-09         0.00000E+00         0.00000E+00
    0.00000E+00        -0.51617E+06         0.00000E+00
    0.00000E+00         0.00000E+00        -0.25808E+06
 
    0.34197E-09         0.00000E+00         0.00000E+00
    0.00000E+00        -0.51617E+06         0.00000E+00
    0.00000E+00         0.00000E+00        -0.25808E+06
 
   -0.25466E-09        -0.45175E-11         0.00000E+00
   -0.45175E-11        -0.51617E+06         0.00000E+00
    0.00000E+00         0.00000E+00        -0.25808E+06
 
   -0.10186E-09         0.27105E-09         0.00000E+00
    0.27105E-09        -0.51617E+06         0.00000E+00
    0.00000E+00         0.00000E+00        -0.25808E+06
 
   -0.26193E-09         0.54210E-10         0.00000E+00
    0.54210E-10        -0.51617E+06         0.00000E+00
    0.00000E+00         0.00000E+00        -0.25808E+06
 
   -0.15280E-09         0.31623E-10         0.00000E+00
    0.31623E-10        -0.51617E+06         0.00000E+00
    0.00000E+00         0.00000E+00        -0.25808E+06
 
   -0.72760E-10         0.11746E-09         0.00000E+00
    0.11746E-09        -0.51617E+06         0.00000E+00
    0.00000E+00         0.00000E+00        -0.25808E+06
 
   -0.14552E-09        -0.22588E-10         0.00000E+00
   -0.22588E-10        -0.51617E+06         0.00000E+00
    0.00000E+00         0.00000E+00        -0.25808E+06
 
   -0.29104E-10        -0.13553E-10         0.00000E+00
   -0.13553E-10        -0.51617E+06         0.00000E+00
    0.00000E+00         0.00000E+00        -0.25808E+06
 
    0.00000E+00         0.14456E-09         0.00000E+00
    0.14456E-09        -0.51617E+06         0.00000E+00
    0.00000E+00         0.00000E+00        -0.25808E+06
 
    0.58208E-10         0.81315E-10         0.00000E+00
    0.81315E-10        -0.51617E+06         0.00000E+00
    0.00000E+00         0.00000E+00        -0.25808E+06
 
    0.21828E-09         0.76798E-10         0.00000E+00
    0.76798E-10        -0.51617E+06         0.00000E+00
    0.00000E+00         0.00000E+00        -0.25808E+06
 
    0.26921E-09         0.17167E-09         0.00000E+00
    0.17167E-09        -0.51617E+06         0.00000E+00
    0.00000E+00         0.00000E+00        -0.25808E+06
 
    0.23283E-09         0.16263E-09         0.00000E+00
    0.16263E-09        -0.51617E+06         0.00000E+00
    0.00000E+00         0.00000E+00        -0.25808E+06
 
    0.29104E-09         0.81315E-10         0.00000E+00
    0.81315E-10        -0.51617E+06         0.00000E+00
    0.00000E+00         0.00000E+00        -0.25808E+06
 
    0.21828E-09         0.67763E-10         0.00000E+00
    0.67763E-10        -0.51617E+06         0.00000E+00
    0.00000E+00         0.00000E+00        -0.25808E+06
 
    0.26921E-09         0.22588E-11         0.00000E+00
    0.22588E-11        -0.51617E+06         0.00000E+00
    0.00000E+00         0.00000E+00        -0.25808E+06
 
   -0.45111E-09        -0.54210E-10         0.00000E+00
   -0.54210E-10        -0.51617E+06         0.00000E+00
    0.00000E+00         0.00000E+00        -0.25808E+06
 
   -0.26921E-09        -0.25298E-09         0.00000E+00
   -0.25298E-09        -0.51617E+06         0.00000E+00
    0.00000E+00         0.00000E+00        -0.25808E+06
 
   -0.13824E-09        -0.18070E-10         0.00000E+00
   -0.18070E-10        -0.51617E+06         0.00000E+00
    0.00000E+00         0.00000E+00        -0.25808E+06
 
   -0.32742E-09        -0.36140E-10         0.00000E+00
   -0.36140E-10        -0.51617E+06         0.00000E+00
    0.00000E+00         0.00000E+00        -0.25808E+06
 
   -0.13824E-09         0.90350E-11         0.00000E+00
    0.90350E-11        -0.51617E+06         0.00000E+00
    0.00000E+00         0.00000E+00        -0.25808E+06
 
   -0.13097E-09         0.27105E-10         0.00000E+00
    0.27105E-10        -0.51617E+06         0.00000E+00
    0.00000E+00         0.00000E+00        -0.25808E+06
 
   -0.21828E-10        -0.10842E-09         0.00000E+00
   -0.10842E-09        -0.51617E+06         0.00000E+00
    0.00000E+00         0.00000E+00        -0.25808E+06
 
    0.43656E-10         0.10390E-09         0.00000E+00
    0.10390E-09        -0.51617E+06         0.00000E+00
    0.00000E+00         0.00000E+00        -0.25808E+06
 
    0.65484E-10         0.45175E-10         0.00000E+00
    0.45175E-10        -0.51617E+06         0.00000E+00
    0.00000E+00         0.00000E+00        -0.25808E+06
 
    0.58208E-10         0.45175E-11         0.00000E+00
    0.45175E-11        -0.51617E+06         0.00000E+00
    0.00000E+00         0.00000E+00        -0.25808E+06
 
    0.26193E-09         0.14456E-09         0.00000E+00
    0.14456E-09        -0.51617E+06         0.00000E+00
    0.00000E+00         0.00000E+00        -0.25808E+06
 
    0.39290E-09         0.36140E-10         0.00000E+00
    0.36140E-10        -0.51617E+06         0.00000E+00
    0.00000E+00         0.00000E+00        -0.25808E+06
 
    0.40745E-09         0.13553E-09         0.00000E+00
    0.13553E-09        -0.51617E+06         0.00000E+00
    0.00000E+00         0.00000E+00        -0.25808E+06
 
    0.21100E-09         0.99385E-10         0.00000E+00
    0.99385E-10        -0.51617E+06         0.00000E+00
    0.00000E+00         0.00000E+00        -0.25808E+06
 
    0.35652E-09         0.18070E-10         0.00000E+00
    0.18070E-10        -0.51617E+06         0.00000E+00
    0.00000E+00         0.00000E+00        -0.25808E+06
 
   -0.23283E-09         0.99385E-10         0.00000E+00
    0.99385E-10        -0.51617E+06         0.00000E+00
    0.00000E+00         0.00000E+00        -0.25808E+06
 
   -0.32742E-09         0.27105E-10         0.00000E+00
    0.27105E-10        -0.51617E+06         0.00000E+00
    0.00000E+00         0.00000E+00        -0.25808E+06
 
   -0.32742E-09         0.12649E-09         0.00000E+00
    0.12649E-09        -0.51617E+06         0.00000E+00
    0.00000E+00         0.00000E+00        -0.25808E+06
 
   -0.29104E-09         0.10842E-09         0.00000E+00
    0.10842E-09        -0.51617E+06         0.00000E+00
    0.00000E+00         0.00000E+00        -0.25808E+06
 
   -0.22555E-09         0.54210E-10         0.00000E+00
    0.54210E-10        -0.51617E+06         0.00000E+00
    0.00000E+00         0.00000E+00        -0.25808E+06
 
   -0.23283E-09         0.90350E-11         0.00000E+00
    0.90350E-11        -0.51617E+06         0.00000E+00
    0.00000E+00         0.00000E+00        -0.25808E+06
 
   -0.14552E-10         0.36140E-10         0.00000E+00
    0.36140E-10        -0.51617E+06         0.00000E+00
    0.00000E+00         0.00000E+00        -0.25808E+06
 
    0.10914E-09         0.85833E-10         0.00000E+00
    0.85833E-10        -0.51617E+06         0.00000E+00
    0.00000E+00         0.00000E+00        -0.25808E+06
 
    0.18190E-09         0.49693E-10         0.00000E+00
    0.49693E-10        -0.51617E+06         0.00000E+00
    0.00000E+00         0.00000E+00        -0.25808E+06
 
    0.27649E-09         0.90350E-11         0.00000E+00
    0.90350E-11        -0.51617E+06         0.00000E+00
    0.00000E+00         0.00000E+00        -0.25808E+06
 
    0.13097E-09         0.29364E-09         0.00000E+00
    0.29364E-09        -0.51617E+06         0.00000E+00
    0.00000E+00         0.00000E+00        -0.25808E+06
 
    0.23283E-09        -0.22588E-10         0.00000E+00
   -0.22588E-10        -0.51617E+06         0.00000E+00
    0.00000E+00         0.00000E+00        -0.25808E+06
 
    0.22555E-09         0.19877E-09         0.00000E+00
    0.19877E-09        -0.51617E+06         0.00000E+00
    0.00000E+00         0.00000E+00        -0.25808E+06
 
    0.34925E-09        -0.13553E-10         0.00000E+00
   -0.13553E-10        -0.51617E+06         0.00000E+00
    0.00000E+00         0.00000E+00        -0.25808E+06
 
    0.29104E-09         0.27105E-10         0.00000E+00
    0.27105E-10        -0.51617E+06         0.00000E+00
    0.00000E+00         0.00000E+00        -0.25808E+06
 
   -0.13824E-09        -0.36140E-10         0.00000E+00
   -0.36140E-10        -0.51617E+06         0.00000E+00
    0.00000E+00         0.00000E+00        -0.25808E+06
 
   -0.29831E-09        -0.16263E-09         0.00000E+00
   -0.16263E-09        -0.51617E+06         0.00000E+00
    0.00000E+00         0.00000E+00        -0.25808E+06
 
   -0.35652E-09        -0.81315E-10         0.00000E+00
   -0.81315E-10        -0.51617E+06         0.00000E+00
    0.00000E+00         0.00000E+00        -0.25808E+06
 
   -0.72760E-11        -0.15360E-09         0.00000E+00
   -0.15360E-09        -0.51617E+06         0.00000E+00
    0.00000E+00         0.00000E+00        -0.25808E+06
 
   -0.29104E-10         0.13553E-09         0.00000E+00
    0.13553E-09        -0.51617E+06         0.00000E+00
    0.00000E+00         0.00000E+00        -0.25808E+06
 
    0.36380E-10        -0.90350E-10         0.00000E+00
   -0.90350E-10        -0.51617E+06         0.00000E+00
    0.00000E+00         0.00000E+00        -0.25808E+06
 
   -0.72760E-10         0.17618E-09         0.00000E+00
    0.17618E-09        -0.51617E+06         0.00000E+00
    0.00000E+00         0.00000E+00        -0.25808E+06
 
    0.94587E-10        -0.90350E-10         0.00000E+00
   -0.90350E-10        -0.51617E+06         0.00000E+00
    0.00000E+00         0.00000E+00        -0.25808E+06
 
    0.16007E-09         0.11746E-09         0.00000E+00
    0.11746E-09        -0.51617E+06         0.00000E+00
    0.00000E+00         0.00000E+00        -0.25808E+06
 
    0.58208E-10         0.18070E-10         0.00000E+00
    0.18070E-10        -0.51617E+06         0.00000E+00
    0.00000E+00         0.00000E+00        -0.25808E+06
 
    0.43656E-10         0.13553E-09         0.00000E+00
    0.13553E-09        -0.51617E+06         0.00000E+00
    0.00000E+00         0.00000E+00        -0.25808E+06
 
    0.24011E-09         0.99385E-10         0.00000E+00
    0.99385E-10        -0.51617E+06         0.00000E+00
    0.00000E+00         0.00000E+00        -0.25808E+06
 
    0.13097E-09        -0.90350E-11         0.00000E+00
   -0.90350E-11        -0.51617E+06         0.00000E+00
    0.00000E+00         0.00000E+00        -0.25808E+06
 
    0.72760E-11         0.99385E-10         0.00000E+00
    0.99385E-10        -0.51617E+06         0.00000E+00
    0.00000E+00         0.00000E+00        -0.25808E+06
 
    0.72760E-11         0.36140E-10         0.00000E+00
    0.36140E-10        -0.51617E+06         0.00000E+00
    0.00000E+00         0.00000E+00        -0.25808E+06
 
   -0.43656E-09         0.29816E-09         0.00000E+00
    0.29816E-09        -0.51617E+06         0.00000E+00
    0.00000E+00         0.00000E+00        -0.25808E+06
 
   -0.65484E-10        -0.23491E-09         0.00000E+00
   -0.23491E-09        -0.51617E+06         0.00000E+00
    0.00000E+00         0.00000E+00        -0.25808E+06
 
    0.39290E-09        -0.81315E-10         0.00000E+00
   -0.81315E-10        -0.51617E+06         0.00000E+00
    0.00000E+00         0.00000E+00        -0.25808E+06
 
   -0.36380E-10        -0.14456E-09         0.00000E+00
   -0.14456E-09        -0.51617E+06         0.00000E+00
    0.00000E+00         0.00000E+00        -0.25808E+06
 
    0.14552E-10         0.81315E-10         0.00000E+00
    0.81315E-10        -0.51617E+06         0.00000E+00
    0.00000E+00         0.00000E+00        -0.25808E+06
 
   -0.13097E-09        -0.14456E-09         0.00000E+00
   -0.14456E-09        -0.51617E+06         0.00000E+00
    0.00000E+00         0.00000E+00        -0.25808E+06
 
   -0.14552E-10         0.99385E-10         0.00000E+00
    0.99385E-10        -0.51617E+06         0.00000E+00
    0.00000E+00         0.00000E+00        -0.25808E+06
 
    0.32014E-09         0.27105E-10         0.00000E+00
    0.27105E-10        -0.51617E+06         0.00000E+00
    0.00000E+00         0.00000E+00        -0.25808E+06
 
    0.12369E-09         0.90350E-11         0.00000E+00
    0.90350E-11        -0.51617E+06         0.00000E+00
    0.00000E+00         0.00000E+00        -0.25808E+06
 
    0.18190E-09        -0.27105E-10         0.00000E+00
   -0.27105E-10        -0.51617E+06         0.00000E+00
    0.00000E+00         0.00000E+00        -0.25808E+06
 
    0.21100E-09        -0.72280E-10         0.00000E+00
   -0.72280E-10        -0.51617E+06         0.00000E+00
    0.00000E+00         0.00000E+00        -0.25808E+06
 
    0.43656E-10        -0.36140E-10         0.00000E+00
   -0.36140E-10        -0.51617E+06         0.00000E+00
    0.00000E+00         0.00000E+00        -0.25808E+06
 
   -0.29104E-10        -0.72280E-10         0.00000E+00
   -0.72280E-10        -0.51617E+06         0.00000E+00
    0.00000E+00         0.00000E+00        -0.25808E+06
 
   -0.72760E-11         0.90350E-11         0.00000E+00
    0.90350E-11        -0.51617E+06         0.00000E+00
    0.00000E+00         0.00000E+00        -0.25808E+06
 
    0.65484E-10         0.45175E-10         0.00000E+00
    0.45175E-10        -0.51617E+06         0.00000E+00
    0.00000E+00         0.00000E+00        -0.25808E+06
 
   -0.50932E-10        -0.22588E-09         0.00000E+00
   -0.22588E-09        -0.51617E+06         0.00000E+00
    0.00000E+00         0.00000E+00        -0.25808E+06
 
   -0.25466E-09        -0.12649E-09         0.00000E+00
   -0.12649E-09        -0.51617E+06         0.00000E+00
    0.00000E+00         0.00000E+00        -0.25808E+06
 
   -0.20373E-09         0.72280E-10         0.00000E+00
    0.72280E-10        -0.51617E+06         0.00000E+00
    0.00000E+00         0.00000E+00        -0.25808E+06
 
    0.18190E-09         0.17167E-09         0.00000E+00
    0.17167E-09        -0.51617E+06         0.00000E+00
    0.00000E+00         0.00000E+00        -0.25808E+06
 
   -0.10914E-09         0.20781E-09         0.00000E+00
    0.20781E-09        -0.51617E+06         0.00000E+00
    0.00000E+00         0.00000E+00        -0.25808E+06
 
   -0.13097E-09        -0.18070E-10         0.00000E+00
   -0.18070E-10        -0.51617E+06         0.00000E+00
    0.00000E+00         0.00000E+00        -0.25808E+06
 
    0.22555E-09        -0.18070E-09         0.00000E+00
   -0.18070E-09        -0.51617E+06         0.00000E+00
    0.00000E+00         0.00000E+00        -0.25808E+06
 
   -0.13824E-09        -0.99385E-10         0.00000E+00
   -0.99385E-10        -0.51617E+06         0.00000E+00
    0.00000E+00         0.00000E+00        -0.25808E+06
 
    0.37835E-09        -0.12649E-09         0.00000E+00
   -0.12649E-09        -0.51617E+06         0.00000E+00
    0.00000E+00         0.00000E+00        -0.25808E+06
 
    0.65484E-10         0.54210E-10         0.00000E+00
    0.54210E-10        -0.51617E+06         0.00000E+00
    0.00000E+00         0.00000E+00        -0.25808E+06
 
    0.32742E-09         0.54210E-10         0.00000E+00
    0.54210E-10        -0.51617E+06         0.00000E+00
    0.00000E+00         0.00000E+00        -0.25808E+06
 
    0.14552E-09        -0.11746E-09         0.00000E+00
   -0.11746E-09        -0.51617E+06         0.00000E+00
    0.00000E+00         0.00000E+00        -0.25808E+06
 
    0.12369E-09         0.99385E-10         0.00000E+00
    0.99385E-10        -0.51617E+06         0.00000E+00
    0.00000E+00         0.00000E+00        -0.25808E+06
 
   -0.11642E-09        -0.54210E-10         0.00000E+00
   -0.54210E-10        -0.51617E+06         0.00000E+00
    0.00000E+00         0.00000E+00        -0.25808E+06
 
   -0.65484E-10         0.12649E-09         0.00000E+00
    0.12649E-09        -0.51617E+06         0.00000E+00
    0.00000E+00         0.00000E+00        -0.25808E+06
 
   -0.32014E-09         0.90350E-10         0.00000E+00
    0.90350E-10        -0.51617E+06         0.00000E+00
    0.00000E+00         0.00000E+00        -0.25808E+06
 
   -0.34925E-09         0.26202E-09         0.00000E+00
    0.26202E-09        -0.51617E+06         0.00000E+00
    0.00000E+00         0.00000E+00        -0.25808E+06
 
   -0.13824E-09        -0.54210E-10         0.00000E+00
   -0.54210E-10        -0.51617E+06         0.00000E+00
    0.00000E+00         0.00000E+00        -0.25808E+06
 
   -0.30559E-09         0.63245E-10         0.00000E+00
    0.63245E-10        -0.51617E+06         0.00000E+00
    0.00000E+00         0.00000E+00        -0.25808E+06
 
   -0.28376E-09         0.21684E-09         0.00000E+00
    0.21684E-09        -0.51617E+06         0.00000E+00
    0.00000E+00         0.00000E+00        -0.25808E+06
 
    0.72760E-11        -0.27105E-10         0.00000E+00
   -0.27105E-10        -0.51617E+06         0.00000E+00
    0.00000E+00         0.00000E+00        -0.25808E+06
 
    0.00000E+00        -0.12649E-09         0.00000E+00
   -0.12649E-09        -0.51617E+06         0.00000E+00
    0.00000E+00         0.00000E+00        -0.25808E+06
 
    0.94587E-10         0.90350E-11         0.00000E+00
    0.90350E-11        -0.51617E+06         0.00000E+00
    0.00000E+00         0.00000E+00        -0.25808E+06
 
    0.17462E-09        -0.17167E-09         0.00000E+00
   -0.17167E-09        -0.51617E+06         0.00000E+00
    0.00000E+00         0.00000E+00        -0.25808E+06
 
   -0.34925E-09         0.36140E-10         0.00000E+00
    0.36140E-10        -0.51617E+06         0.00000E+00
    0.00000E+00         0.00000E+00        -0.25808E+06
 
    0.27649E-09        -0.18974E-09         0.00000E+00
   -0.18974E-09        -0.51617E+06         0.00000E+00
    0.00000E+00         0.00000E+00        -0.25808E+06
 
    0.48021E-09         0.12649E-09         0.00000E+00
    0.12649E-09        -0.51617E+06         0.00000E+00
    0.00000E+00         0.00000E+00        -0.25808E+06
 
    0.58208E-10         0.26202E-09         0.00000E+00
    0.26202E-09        -0.51617E+06         0.00000E+00
    0.00000E+00         0.00000E+00        -0.25808E+06
 
    0.62573E-09        -0.30719E-09         0.00000E+00
   -0.30719E-09        -0.51617E+06         0.00000E+00
    0.00000E+00         0.00000E+00        -0.25808E+06
 
    0.53842E-09         0.10842E-09         0.00000E+00
    0.10842E-09        -0.51617E+06         0.00000E+00
    0.00000E+00         0.00000E+00        -0.25808E+06
 
   -0.72760E-10        -0.18974E-09         0.00000E+00
   -0.18974E-09        -0.51617E+06         0.00000E+00
    0.00000E+00         0.00000E+00        -0.25808E+06
 
   -0.87311E-09        -0.90350E-11         0.00000E+00
   -0.90350E-11        -0.51617E+06         0.00000E+00
    0.00000E+00         0.00000E+00        -0.25808E+06
 
    0.80036E-10        -0.13553E-09         0.00000E+00
   -0.13553E-09        -0.51617E+06         0.00000E+00
    0.00000E+00         0.00000E+00        -0.25808E+06
 
   -0.43656E-10        -0.18070E-10         0.00000E+00
   -0.18070E-10        -0.51617E+06         0.00000E+00
    0.00000E+00         0.00000E+00        -0.25808E+06
 
    0.48749E-09        -0.90350E-11         0.00000E+00
   -0.90350E-11        -0.51617E+06         0.00000E+00
    0.00000E+00         0.00000E+00        -0.25808E+06
 
   -0.13097E-09         0.28912E-09         0.00000E+00
    0.28912E-09        -0.51617E+06         0.00000E+00
    0.00000E+00         0.00000E+00        -0.25808E+06
 
    0.12369E-09        -0.99385E-10         0.00000E+00
   -0.99385E-10        -0.51617E+06         0.00000E+00
    0.00000E+00         0.00000E+00        -0.25808E+06
 
    0.13097E-09        -0.18070E-10         0.00000E+00
   -0.18070E-10        -0.51617E+06         0.00000E+00
    0.00000E+00         0.00000E+00        -0.25808E+06
 
   -0.56025E-09        -0.21684E-09         0.00000E+00
   -0.21684E-09        -0.51617E+06         0.00000E+00
    0.00000E+00         0.00000E+00        -0.25808E+06
 
   -0.32742E-09         0.16263E-09         0.00000E+00
    0.16263E-09        -0.51617E+06         0.00000E+00
    0.00000E+00         0.00000E+00        -0.25808E+06
 
   -0.20373E-09        -0.13553E-09         0.00000E+00
   -0.13553E-09        -0.51617E+06         0.00000E+00
    0.00000E+00         0.00000E+00        -0.25808E+06
 
    0.14552E-09        -0.36140E-10         0.00000E+00
   -0.36140E-10        -0.51617E+06         0.00000E+00
    0.00000E+00         0.00000E+00        -0.25808E+06
 
    0.42201E-09         0.27105E-09         0.00000E+00
    0.27105E-09        -0.51617E+06         0.00000E+00
    0.00000E+00         0.00000E+00        -0.25808E+06
 
   -0.29831E-09        -0.21684E-09         0.00000E+00
   -0.21684E-09        -0.51617E+06         0.00000E+00
    0.00000E+00         0.00000E+00        -0.25808E+06
 
   -0.87311E-10        -0.18070E-09         0.00000E+00
   -0.18070E-09        -0.51617E+06         0.00000E+00
    0.00000E+00         0.00000E+00        -0.25808E+06
 
   -0.87311E-10         0.14456E-09         0.00000E+00
    0.14456E-09        -0.51617E+06         0.00000E+00
    0.00000E+00         0.00000E+00        -0.25808E+06
 
    0.25466E-09        -0.36140E-10         0.00000E+00
   -0.36140E-10        -0.51617E+06         0.00000E+00
    0.00000E+00         0.00000E+00        -0.25808E+06
 
    0.00000E+00        -0.27105E-09         0.00000E+00
   -0.27105E-09        -0.51617E+06         0.00000E+00
    0.00000E+00         0.00000E+00        -0.25808E+06
 
   -0.87311E-10         0.23491E-09         0.00000E+00
    0.23491E-09        -0.51617E+06         0.00000E+00
    0.00000E+00         0.00000E+00        -0.25808E+06
 
   -0.50932E-10        -0.50596E-09         0.00000E+00
   -0.50596E-09        -0.51617E+06         0.00000E+00
    0.00000E+00         0.00000E+00        -0.25808E+06
 
    0.29104E-10         0.21684E-09         0.00000E+00
    0.21684E-09        -0.51617E+06         0.00000E+00
    0.00000E+00         0.00000E+00        -0.25808E+06
 
    0.23283E-09        -0.16263E-09         0.00000E+00
   -0.16263E-09        -0.51617E+06         0.00000E+00
    0.00000E+00         0.00000E+00        -0.25808E+06
 
   -0.50932E-10         0.57824E-09         0.00000E+00
    0.57824E-09        -0.51617E+06         0.00000E+00
    0.00000E+00         0.00000E+00        -0.25808E+06
 
    0.11642E-09         0.00000E+00         0.00000E+00
    0.00000E+00        -0.51617E+06         0.00000E+00
    0.00000E+00         0.00000E+00        -0.25808E+06
 
    0.40018E-09        -0.18070E-10         0.00000E+00
   -0.18070E-10        -0.51617E+06         0.00000E+00
    0.00000E+00         0.00000E+00        -0.25808E+06
 
    0.26921E-09         0.12649E-09         0.00000E+00
    0.12649E-09        -0.51617E+06         0.00000E+00
    0.00000E+00         0.00000E+00        -0.25808E+06
 
   -0.18190E-09        -0.17167E-09         0.00000E+00
   -0.17167E-09        -0.51617E+06         0.00000E+00
    0.00000E+00         0.00000E+00        -0.25808E+06
 
   -0.31287E-09         0.28009E-09         0.00000E+00
    0.28009E-09        -0.51617E+06         0.00000E+00
    0.00000E+00         0.00000E+00        -0.25808E+06
 
    0.66211E-09        -0.19877E-09         0.00000E+00
   -0.19877E-09        -0.51617E+06         0.00000E+00
    0.00000E+00         0.00000E+00        -0.25808E+06
 
   -0.50932E-10        -0.32526E-09         0.00000E+00
   -0.32526E-09        -0.51617E+06         0.00000E+00
    0.00000E+00         0.00000E+00        -0.25808E+06
 
    0.66939E-09        -0.15360E-09         0.00000E+00
   -0.15360E-09        -0.51617E+06         0.00000E+00
    0.00000E+00         0.00000E+00        -0.25808E+06
 
   -0.23283E-09         0.63245E-10         0.00000E+00
    0.63245E-10        -0.51617E+06         0.00000E+00
    0.00000E+00         0.00000E+00        -0.25808E+06
 
    0.15280E-09         0.14456E-09         0.00000E+00
    0.14456E-09        -0.51617E+06         0.00000E+00
    0.00000E+00         0.00000E+00        -0.25808E+06
 
    0.72760E-10         0.54210E-10         0.00000E+00
    0.54210E-10        -0.51617E+06         0.00000E+00
    0.00000E+00         0.00000E+00        -0.25808E+06
 
   -0.72760E-10         0.21684E-09         0.00000E+00
    0.21684E-09        -0.51617E+06         0.00000E+00
    0.00000E+00         0.00000E+00        -0.25808E+06
 
   -0.58208E-10         0.18070E-10         0.00000E+00
    0.18070E-10        -0.51617E+06         0.00000E+00
    0.00000E+00         0.00000E+00        -0.25808E+06
 
   -0.18190E-09         0.54210E-10         0.00000E+00
    0.54210E-10        -0.51617E+06         0.00000E+00
    0.00000E+00         0.00000E+00        -0.25808E+06
 
    0.29104E-09         0.39754E-09         0.00000E+00
    0.39754E-09        -0.51617E+06         0.00000E+00
    0.00000E+00         0.00000E+00        -0.25808E+06
 
    0.32014E-09         0.23491E-09         0.00000E+00
    0.23491E-09        -0.51617E+06         0.00000E+00
    0.00000E+00         0.00000E+00        -0.25808E+06
 
    0.20373E-09         0.54210E-10         0.00000E+00
    0.54210E-10        -0.51617E+06         0.00000E+00
    0.00000E+00         0.00000E+00        -0.25808E+06
 
   -0.65484E-10        -0.10842E-09         0.00000E+00
   -0.10842E-09        -0.51617E+06         0.00000E+00
    0.00000E+00         0.00000E+00        -0.25808E+06
 
    0.29831E-09         0.21684E-09         0.00000E+00
    0.21684E-09        -0.51617E+06         0.00000E+00
    0.00000E+00         0.00000E+00        -0.25808E+06
 
   -0.94587E-10         0.54210E-10         0.00000E+00
    0.54210E-10        -0.51617E+06         0.00000E+00
    0.00000E+00         0.00000E+00        -0.25808E+06
 
    0.20373E-09        -0.16263E-09         0.00000E+00
   -0.16263E-09        -0.51617E+06         0.00000E+00
    0.00000E+00         0.00000E+00        -0.25808E+06
 
    0.21828E-09         0.90350E-10         0.00000E+00
    0.90350E-10        -0.51617E+06         0.00000E+00
    0.00000E+00         0.00000E+00        -0.25808E+06
 
   -0.65484E-09         0.21684E-09         0.00000E+00
    0.21684E-09        -0.51617E+06         0.00000E+00
    0.00000E+00         0.00000E+00        -0.25808E+06
 
   -0.34925E-09        -0.90350E-10         0.00000E+00
   -0.90350E-10        -0.51617E+06         0.00000E+00
    0.00000E+00         0.00000E+00        -0.25808E+06
 
    0.32014E-09         0.19877E-09         0.00000E+00
    0.19877E-09        -0.51617E+06         0.00000E+00
    0.00000E+00         0.00000E+00        -0.25808E+06
 
    0.14552E-09         0.72280E-10         0.00000E+00
    0.72280E-10        -0.51617E+06         0.00000E+00
    0.00000E+00         0.00000E+00        -0.25808E+06
 
    0.39290E-09        -0.90350E-10         0.00000E+00
   -0.90350E-10        -0.51617E+06         0.00000E+00
    0.00000E+00         0.00000E+00        -0.25808E+06
 
    0.10186E-09         0.00000E+00         0.00000E+00
    0.00000E+00        -0.51617E+06         0.00000E+00
    0.00000E+00         0.00000E+00        -0.25808E+06
 
    0.21100E-09         0.28912E-09         0.00000E+00
    0.28912E-09        -0.51617E+06         0.00000E+00
    0.00000E+00         0.00000E+00        -0.25808E+06
 
   -0.29831E-09        -0.36140E-10         0.00000E+00
   -0.36140E-10        -0.51617E+06         0.00000E+00
    0.00000E+00         0.00000E+00        -0.25808E+06
 
    0.18190E-09         0.16263E-09         0.00000E+00
    0.16263E-09        -0.51617E+06         0.00000E+00
    0.00000E+00         0.00000E+00        -0.25808E+06
 
    0.20373E-09         0.36140E-10         0.00000E+00
    0.36140E-10        -0.51617E+06         0.00000E+00
    0.00000E+00         0.00000E+00        -0.25808E+06
 
    0.23283E-09         0.31623E-09         0.00000E+00
    0.31623E-09        -0.51617E+06         0.00000E+00
    0.00000E+00         0.00000E+00        -0.25808E+06
 
    0.42201E-09         0.90350E-10         0.00000E+00
    0.90350E-10        -0.51617E+06         0.00000E+00
    0.00000E+00         0.00000E+00        -0.25808E+06
 
   -0.17462E-09         0.36140E-10         0.00000E+00
    0.36140E-10        -0.51617E+06         0.00000E+00
    0.00000E+00         0.00000E+00        -0.25808E+06
 
    0.16735E-09        -0.54210E-10         0.00000E+00
   -0.54210E-10        -0.51617E+06         0.00000E+00
    0.00000E+00         0.00000E+00        -0.25808E+06
 
    0.45839E-09        -0.18070E-10         0.00000E+00
   -0.18070E-10        -0.51617E+06         0.00000E+00
    0.00000E+00         0.00000E+00        -0.25808E+06
 
   -0.31287E-09         0.34333E-09         0.00000E+00
    0.34333E-09        -0.51617E+06         0.00000E+00
    0.00000E+00         0.00000E+00        -0.25808E+06
 
   -0.40745E-09         0.72280E-10         0.00000E+00
    0.72280E-10        -0.51617E+06         0.00000E+00
    0.00000E+00         0.00000E+00        -0.25808E+06
 
   -0.11642E-09        -0.16263E-09         0.00000E+00
   -0.16263E-09        -0.51617E+06         0.00000E+00
    0.00000E+00         0.00000E+00        -0.25808E+06
 
   -0.32742E-09        -0.72280E-10         0.00000E+00
   -0.72280E-10        -0.51617E+06         0.00000E+00
    0.00000E+00         0.00000E+00        -0.25808E+06
 
   -0.57480E-09         0.19877E-09         0.00000E+00
    0.19877E-09        -0.51617E+06         0.00000E+00
    0.00000E+00         0.00000E+00        -0.25808E+06
 
    0.26921E-09         0.28912E-09         0.00000E+00
    0.28912E-09        -0.51617E+06         0.00000E+00
    0.00000E+00         0.00000E+00        -0.25808E+06
 
   -0.11642E-09         0.36140E-09         0.00000E+00
    0.36140E-09        -0.51617E+06         0.00000E+00
    0.00000E+00         0.00000E+00        -0.25808E+06
 
   -0.78580E-09         0.90350E-10         0.00000E+00
    0.90350E-10        -0.51617E+06         0.00000E+00
    0.00000E+00         0.00000E+00        -0.25808E+06
 
   -0.17462E-09         0.21684E-09         0.00000E+00
    0.21684E-09        -0.51617E+06         0.00000E+00
    0.00000E+00         0.00000E+00        -0.25808E+06
 
   -0.82946E-09         0.18070E-10         0.00000E+00
    0.18070E-10        -0.51617E+06         0.00000E+00
    0.00000E+00         0.00000E+00        -0.25808E+06
 
   -0.37107E-09         0.19877E-09         0.00000E+00
    0.19877E-09        -0.51617E+06         0.00000E+00
    0.00000E+00         0.00000E+00        -0.25808E+06
 
    0.19645E-09         0.28912E-09         0.00000E+00
    0.28912E-09        -0.51617E+06         0.00000E+00
    0.00000E+00         0.00000E+00        -0.25808E+06
 
    0.54570E-09         0.54210E-10         0.00000E+00
    0.54210E-10        -0.51617E+06         0.00000E+00
    0.00000E+00         0.00000E+00        -0.25808E+06
 
   -0.36380E-10        -0.21684E-09         0.00000E+00
   -0.21684E-09        -0.51617E+06         0.00000E+00
    0.00000E+00         0.00000E+00        -0.25808E+06
 
   -0.10186E-08         0.16263E-09         0.00000E+00
    0.16263E-09        -0.51617E+06         0.00000E+00
    0.00000E+00         0.00000E+00        -0.25808E+06
 
    0.72760E-10         0.12649E-09         0.00000E+00
    0.12649E-09        -0.51617E+06         0.00000E+00
    0.00000E+00         0.00000E+00        -0.25808E+06
 
    0.16007E-09         0.10842E-09         0.00000E+00
    0.10842E-09        -0.51617E+06         0.00000E+00
    0.00000E+00         0.00000E+00        -0.25808E+06
 
   -0.18917E-09         0.32526E-09         0.00000E+00
    0.32526E-09        -0.51617E+06         0.00000E+00
    0.00000E+00         0.00000E+00        -0.25808E+06
 
   -0.50932E-09        -0.72280E-10         0.00000E+00
   -0.72280E-10        -0.51617E+06         0.00000E+00
    0.00000E+00         0.00000E+00        -0.25808E+06
 
   -0.50204E-09        -0.72280E-10         0.00000E+00
   -0.72280E-10        -0.51617E+06         0.00000E+00
    0.00000E+00         0.00000E+00        -0.25808E+06
 
   -0.36380E-09         0.72280E-10         0.00000E+00
    0.72280E-10        -0.51617E+06         0.00000E+00
    0.00000E+00         0.00000E+00        -0.25808E+06
 
    0.36380E-10         0.21684E-09         0.00000E+00
    0.21684E-09        -0.51617E+06         0.00000E+00
    0.00000E+00         0.00000E+00        -0.25808E+06
 
    0.48021E-09        -0.21684E-09         0.00000E+00
   -0.21684E-09        -0.51617E+06         0.00000E+00
    0.00000E+00         0.00000E+00        -0.25808E+06
 
    0.32014E-09         0.90350E-10         0.00000E+00
    0.90350E-10        -0.51617E+06         0.00000E+00
    0.00000E+00         0.00000E+00        -0.25808E+06
 
    0.15280E-09         0.54210E-10         0.00000E+00
    0.54210E-10        -0.51617E+06         0.00000E+00
    0.00000E+00         0.00000E+00        -0.25808E+06
 
   -0.52387E-09         0.90350E-10         0.00000E+00
    0.90350E-10        -0.51617E+06         0.00000E+00
    0.00000E+00         0.00000E+00        -0.25808E+06
 
    0.21100E-09         0.18070E-09         0.00000E+00
    0.18070E-09        -0.51617E+06         0.00000E+00
    0.00000E+00         0.00000E+00        -0.25808E+06
 
    0.25466E-09        -0.18070E-10         0.00000E+00
   -0.18070E-10        -0.51617E+06         0.00000E+00
    0.00000E+00         0.00000E+00        -0.25808E+06
 
    0.80036E-10        -0.21684E-09         0.00000E+00
   -0.21684E-09        -0.51617E+06         0.00000E+00
    0.00000E+00         0.00000E+00        -0.25808E+06
 
    0.30559E-09         0.28912E-09         0.00000E+00
    0.28912E-09        -0.51617E+06         0.00000E+00
    0.00000E+00         0.00000E+00        -0.25808E+06
 
    0.54570E-09        -0.10842E-09         0.00000E+00
   -0.10842E-09        -0.51617E+06         0.00000E+00
    0.00000E+00         0.00000E+00        -0.25808E+06
 
   -0.30559E-09         0.00000E+00         0.00000E+00
    0.00000E+00        -0.51617E+06         0.00000E+00
    0.00000E+00         0.00000E+00        -0.25808E+06
 
    0.11642E-09        -0.18070E-10         0.00000E+00
   -0.18070E-10        -0.51617E+06         0.00000E+00
    0.00000E+00         0.00000E+00        -0.25808E+06
 
    0.24011E-09         0.36140E-10         0.00000E+00
    0.36140E-10        -0.51617E+06         0.00000E+00
    0.00000E+00         0.00000E+00        -0.25808E+06
 
   -0.53114E-09         0.36140E-09         0.00000E+00
    0.36140E-09        -0.51617E+06         0.00000E+00
    0.00000E+00         0.00000E+00        -0.25808E+06
 
   -0.56025E-09        -0.18070E-10         0.00000E+00
   -0.18070E-10        -0.51617E+06         0.00000E+00
    0.00000E+00         0.00000E+00        -0.25808E+06
 
    0.94587E-10         0.72280E-10         0.00000E+00
    0.72280E-10        -0.51617E+06         0.00000E+00
    0.00000E+00         0.00000E+00        -0.25808E+06
 
   -0.16735E-09         0.23491E-09         0.00000E+00
    0.23491E-09        -0.51617E+06         0.00000E+00
    0.00000E+00         0.00000E+00        -0.25808E+06
 
   -0.21100E-09         0.10842E-09         0.00000E+00
    0.10842E-09        -0.51617E+06         0.00000E+00
    0.00000E+00         0.00000E+00        -0.25808E+06
 
    0.72760E-11         0.18070E-10         0.00000E+00
    0.18070E-10        -0.51617E+06         0.00000E+00
    0.00000E+00         0.00000E+00        -0.25808E+06
 
    0.80036E-10        -0.36140E-10         0.00000E+00
   -0.36140E-10        -0.51617E+06         0.00000E+00
    0.00000E+00         0.00000E+00        -0.25808E+06
 
   -0.28376E-09         0.72280E-10         0.00000E+00
    0.72280E-10        -0.51617E+06         0.00000E+00
    0.00000E+00         0.00000E+00        -0.25808E+06
 
   -0.61118E-09         0.00000E+00         0.00000E+00
    0.00000E+00        -0.51617E+06         0.00000E+00
    0.00000E+00         0.00000E+00        -0.25808E+06
 
   -0.26921E-09         0.72280E-10         0.00000E+00
    0.72280E-10        -0.51617E+06         0.00000E+00
    0.00000E+00         0.00000E+00        -0.25808E+06
 
   -0.26921E-09        -0.72280E-10         0.00000E+00
   -0.72280E-10        -0.51617E+06         0.00000E+00
    0.00000E+00         0.00000E+00        -0.25808E+06
 
   -0.58935E-09         0.10842E-09         0.00000E+00
    0.10842E-09        -0.51617E+06         0.00000E+00
    0.00000E+00         0.00000E+00        -0.25808E+06
 
   -0.50932E-09        -0.14456E-09         0.00000E+00
   -0.14456E-09        -0.51617E+06         0.00000E+00
    0.00000E+00         0.00000E+00        -0.25808E+06
 
   -0.30559E-09        -0.16263E-09         0.00000E+00
   -0.16263E-09        -0.51617E+06         0.00000E+00
    0.00000E+00         0.00000E+00        -0.25808E+06
 
   -0.54570E-09        -0.36140E-10         0.00000E+00
   -0.36140E-10        -0.51617E+06         0.00000E+00
    0.00000E+00         0.00000E+00        -0.25808E+06
 
   -0.24011E-09        -0.54210E-10         0.00000E+00
   -0.54210E-10        -0.51617E+06         0.00000E+00
    0.00000E+00         0.00000E+00        -0.25808E+06
 
    0.51659E-09         0.90350E-10         0.00000E+00
    0.90350E-10        -0.51617E+06         0.00000E+00
    0.00000E+00         0.00000E+00        -0.25808E+06
 
   -0.17462E-09        -0.18070E-10         0.00000E+00
   -0.18070E-10        -0.51617E+06         0.00000E+00
    0.00000E+00         0.00000E+00        -0.25808E+06
 
   -0.16007E-09         0.45175E-09         0.00000E+00
    0.45175E-09        -0.51617E+06         0.00000E+00
    0.00000E+00         0.00000E+00        -0.25808E+06
 
   -0.13097E-09        -0.27105E-09         0.00000E+00
   -0.27105E-09        -0.51617E+06         0.00000E+00
    0.00000E+00         0.00000E+00        -0.25808E+06
 
    0.00000E+00        -0.72280E-10         0.00000E+00
   -0.72280E-10        -0.51617E+06         0.00000E+00
    0.00000E+00         0.00000E+00        -0.25808E+06
 
   -0.72760E-11        -0.72280E-10         0.00000E+00
   -0.72280E-10        -0.51617E+06         0.00000E+00
    0.00000E+00         0.00000E+00        -0.25808E+06
 
   -0.21828E-10         0.34333E-09         0.00000E+00
    0.34333E-09        -0.51617E+06         0.00000E+00
    0.00000E+00         0.00000E+00        -0.25808E+06
 
    0.54570E-09         0.72280E-10         0.00000E+00
    0.72280E-10        -0.51617E+06         0.00000E+00
    0.00000E+00         0.00000E+00        -0.25808E+06
 
    0.26921E-09        -0.28912E-09         0.00000E+00
   -0.28912E-09        -0.51617E+06         0.00000E+00
    0.00000E+00         0.00000E+00        -0.25808E+06
 
    0.15280E-09        -0.32526E-09         0.00000E+00
   -0.32526E-09        -0.51617E+06         0.00000E+00
    0.00000E+00         0.00000E+00        -0.25808E+06
 
   -0.80763E-09         0.36140E-09         0.00000E+00
    0.36140E-09        -0.51617E+06         0.00000E+00
    0.00000E+00         0.00000E+00        -0.25808E+06
 
    0.24738E-09        -0.54210E-10         0.00000E+00
   -0.54210E-10        -0.51617E+06         0.00000E+00
    0.00000E+00         0.00000E+00        -0.25808E+06
 
   -0.45111E-09        -0.18070E-09         0.00000E+00
   -0.18070E-09        -0.51617E+06         0.00000E+00
    0.00000E+00         0.00000E+00        -0.25808E+06
 
   -0.44383E-09         0.00000E+00         0.00000E+00
    0.00000E+00        -0.51617E+06         0.00000E+00
    0.00000E+00         0.00000E+00        -0.25808E+06
 
   -0.42928E-09         0.36140E-10         0.00000E+00
    0.36140E-10        -0.51617E+06         0.00000E+00
    0.00000E+00         0.00000E+00        -0.25808E+06
 
   -0.20373E-09        -0.23491E-09         0.00000E+00
   -0.23491E-09        -0.51617E+06         0.00000E+00
    0.00000E+00         0.00000E+00        -0.25808E+06
 
    0.10914E-09         0.25298E-09         0.00000E+00
    0.25298E-09        -0.51617E+06         0.00000E+00
    0.00000E+00         0.00000E+00        -0.25808E+06
 
    0.51659E-09        -0.34333E-09         0.00000E+00
   -0.34333E-09        -0.51617E+06         0.00000E+00
    0.00000E+00         0.00000E+00        -0.25808E+06
 
    0.94587E-09         0.19877E-09         0.00000E+00
    0.19877E-09        -0.51617E+06         0.00000E+00
    0.00000E+00         0.00000E+00        -0.25808E+06
 
    0.65484E-10         0.21684E-09         0.00000E+00
    0.21684E-09        -0.51617E+06         0.00000E+00
    0.00000E+00         0.00000E+00        -0.25808E+06
 
   -0.26193E-09         0.00000E+00         0.00000E+00
    0.00000E+00        -0.51617E+06         0.00000E+00
    0.00000E+00         0.00000E+00        -0.25808E+06
 
   -0.24011E-09         0.43368E-09         0.00000E+00
    0.43368E-09        -0.51617E+06         0.00000E+00
    0.00000E+00         0.00000E+00        -0.25808E+06
 
    0.38563E-09        -0.34333E-09         0.00000E+00
   -0.34333E-09        -0.51617E+06         0.00000E+00
    0.00000E+00         0.00000E+00        -0.25808E+06
 
    0.45839E-09         0.36140E-09         0.00000E+00
    0.36140E-09        -0.51617E+06         0.00000E+00
    0.00000E+00         0.00000E+00        -0.25808E+06
 
    0.51659E-09        -0.36140E-09         0.00000E+00
   -0.36140E-09        -0.51617E+06         0.00000E+00
    0.00000E+00         0.00000E+00        -0.25808E+06
 
    0.00000E+00        -0.36140E-09         0.00000E+00
   -0.36140E-09        -0.51617E+06         0.00000E+00
    0.00000E+00         0.00000E+00        -0.25808E+06
 
   -0.75670E-09         0.10842E-09         0.00000E+00
    0.10842E-09        -0.51617E+06         0.00000E+00
    0.00000E+00         0.00000E+00        -0.25808E+06
 
    0.35652E-09         0.19877E-09         0.00000E+00
    0.19877E-09        -0.51617E+06         0.00000E+00
    0.00000E+00         0.00000E+00        -0.25808E+06
 
   -0.32742E-09         0.00000E+00         0.00000E+00
    0.00000E+00        -0.51617E+06         0.00000E+00
    0.00000E+00         0.00000E+00        -0.25808E+06
 
   -0.26193E-09         0.14456E-09         0.00000E+00
    0.14456E-09        -0.51617E+06         0.00000E+00
    0.00000E+00         0.00000E+00        -0.25808E+06
 
   -0.39290E-09         0.45175E-09         0.00000E+00
    0.45175E-09        -0.51617E+06         0.00000E+00
    0.00000E+00         0.00000E+00        -0.25808E+06
 
    0.45839E-09         0.39754E-09         0.00000E+00
    0.39754E-09        -0.51617E+06         0.00000E+00
    0.00000E+00         0.00000E+00        -0.25808E+06
 
    0.48749E-09        -0.39754E-09         0.00000E+00
   -0.39754E-09        -0.51617E+06         0.00000E+00
    0.00000E+00         0.00000E+00        -0.25808E+06
 
   -0.29831E-09        -0.27105E-09         0.00000E+00
   -0.27105E-09        -0.51617E+06         0.00000E+00
    0.00000E+00         0.00000E+00        -0.25808E+06
 
   -0.29104E-10         0.28912E-09         0.00000E+00
    0.28912E-09        -0.51617E+06         0.00000E+00
    0.00000E+00         0.00000E+00        -0.25808E+06
 
    0.52387E-09         0.72280E-10         0.00000E+00
    0.72280E-10        -0.51617E+06         0.00000E+00
    0.00000E+00         0.00000E+00        -0.25808E+06
 
    0.93132E-09        -0.32526E-09         0.00000E+00
   -0.32526E-09        -0.51617E+06         0.00000E+00
    0.00000E+00         0.00000E+00        -0.25808E+06
 
    0.50932E-10        -0.36140E-10         0.00000E+00
   -0.36140E-10        -0.51617E+06         0.00000E+00
    0.00000E+00         0.00000E+00        -0.25808E+06
 
   -0.58208E-10        -0.36140E-10         0.00000E+00
   -0.36140E-10        -0.51617E+06         0.00000E+00
    0.00000E+00         0.00000E+00        -0.25808E+06
 
   -0.16007E-09         0.36140E-10         0.00000E+00
    0.36140E-10        -0.51617E+06         0.00000E+00
    0.00000E+00         0.00000E+00        -0.25808E+06
 
    0.33469E-09        -0.10842E-09         0.00000E+00
   -0.10842E-09        -0.51617E+06         0.00000E+00
    0.00000E+00         0.00000E+00        -0.25808E+06
 
    0.46566E-09         0.72280E-10         0.00000E+00
    0.72280E-10        -0.51617E+06         0.00000E+00
    0.00000E+00         0.00000E+00        -0.25808E+06
 
   -0.78580E-09         0.18070E-09         0.00000E+00
    0.18070E-09        -0.51617E+06         0.00000E+00
    0.00000E+00         0.00000E+00        -0.25808E+06
 
    0.14552E-09        -0.28912E-09         0.00000E+00
   -0.28912E-09        -0.51617E+06         0.00000E+00
    0.00000E+00         0.00000E+00        -0.25808E+06
 
    0.58208E-09        -0.18070E-09         0.00000E+00
   -0.18070E-09        -0.51617E+06         0.00000E+00
    0.00000E+00         0.00000E+00        -0.25808E+06
 
    0.47294E-09         0.16263E-09         0.00000E+00
    0.16263E-09        -0.51617E+06         0.00000E+00
    0.00000E+00         0.00000E+00        -0.25808E+06
 
   -0.38563E-09         0.54210E-10         0.00000E+00
    0.54210E-10        -0.51617E+06         0.00000E+00
    0.00000E+00         0.00000E+00        -0.25808E+06
 
   -0.37835E-09        -0.37947E-09         0.00000E+00
   -0.37947E-09        -0.51617E+06         0.00000E+00
    0.00000E+00         0.00000E+00        -0.25808E+06
 
    0.70577E-09         0.12649E-09         0.00000E+00
    0.12649E-09        -0.51617E+06         0.00000E+00
    0.00000E+00         0.00000E+00        -0.25808E+06
 
    0.62573E-09        -0.54210E-10         0.00000E+00
   -0.54210E-10        -0.51617E+06         0.00000E+00
    0.00000E+00         0.00000E+00        -0.25808E+06
 
   -0.80036E-10         0.54210E-10         0.00000E+00
    0.54210E-10        -0.51617E+06         0.00000E+00
    0.00000E+00         0.00000E+00        -0.25808E+06
 
   -0.42201E-09        -0.32526E-09         0.00000E+00
   -0.32526E-09        -0.51617E+06         0.00000E+00
    0.00000E+00         0.00000E+00        -0.25808E+06
 
    0.66939E-09        -0.32526E-09         0.00000E+00
   -0.32526E-09        -0.51617E+06         0.00000E+00
    0.00000E+00         0.00000E+00        -0.25808E+06
 
   -0.29831E-09         0.79508E-09         0.00000E+00
    0.79508E-09        -0.51617E+06         0.00000E+00
    0.00000E+00         0.00000E+00        -0.25808E+06
 
    0.21100E-09        -0.72280E-09         0.00000E+00
   -0.72280E-09        -0.51617E+06         0.00000E+00
    0.00000E+00         0.00000E+00        -0.25808E+06
 
   -0.50204E-09        -0.13372E-08         0.00000E+00
   -0.13372E-08        -0.51617E+06         0.00000E+00
    0.00000E+00         0.00000E+00        -0.25808E+06
 
   -0.55297E-09         0.86736E-09         0.00000E+00
    0.86736E-09        -0.51617E+06         0.00000E+00
    0.00000E+00         0.00000E+00        -0.25808E+06
 
    0.12369E-09        -0.46982E-09         0.00000E+00
   -0.46982E-09        -0.51617E+06         0.00000E+00
    0.00000E+00         0.00000E+00        -0.25808E+06
 
    0.16007E-09        -0.14456E-09         0.00000E+00
   -0.14456E-09        -0.51617E+06         0.00000E+00
    0.00000E+00         0.00000E+00        -0.25808E+06
 
    0.22555E-09         0.10842E-09         0.00000E+00
    0.10842E-09        -0.51617E+06         0.00000E+00
    0.00000E+00         0.00000E+00        -0.25808E+06
 
   -0.64028E-09         0.16263E-09         0.00000E+00
    0.16263E-09        -0.51617E+06         0.00000E+00
    0.00000E+00         0.00000E+00        -0.25808E+06
 
    0.58208E-10         0.28912E-09         0.00000E+00
    0.28912E-09        -0.51617E+06         0.00000E+00
    0.00000E+00         0.00000E+00        -0.25808E+06
 
   -0.52387E-09        -0.10842E-09         0.00000E+00
   -0.10842E-09        -0.51617E+06         0.00000E+00
    0.00000E+00         0.00000E+00        -0.25808E+06
 
   -0.98953E-09         0.90350E-10         0.00000E+00
    0.90350E-10        -0.51617E+06         0.00000E+00
    0.00000E+00         0.00000E+00        -0.25808E+06
 
   -0.28376E-09        -0.36140E-10         0.00000E+00
   -0.36140E-10        -0.51617E+06         0.00000E+00
    0.00000E+00         0.00000E+00        -0.25808E+06
 
    0.10768E-08         0.50596E-09         0.00000E+00
    0.50596E-09        -0.51617E+06         0.00000E+00
    0.00000E+00         0.00000E+00        -0.25808E+06
 
    0.19645E-09        -0.65052E-09         0.00000E+00
   -0.65052E-09        -0.51617E+06         0.00000E+00
    0.00000E+00         0.00000E+00        -0.25808E+06
 
    0.48021E-09         0.21684E-09         0.00000E+00
    0.21684E-09        -0.51617E+06         0.00000E+00
    0.00000E+00         0.00000E+00        -0.25808E+06
 
    0.24738E-09         0.25298E-09         0.00000E+00
    0.25298E-09        -0.51617E+06         0.00000E+00
    0.00000E+00         0.00000E+00        -0.25808E+06
 
    0.41473E-09        -0.57824E-09         0.00000E+00
   -0.57824E-09        -0.51617E+06         0.00000E+00
    0.00000E+00         0.00000E+00        -0.25808E+06
 
   -0.11278E-08        -0.75894E-09         0.00000E+00
   -0.75894E-09        -0.51617E+06         0.00000E+00
    0.00000E+00         0.00000E+00        -0.25808E+06
 
   -0.20373E-09         0.61438E-09         0.00000E+00
    0.61438E-09        -0.51617E+06         0.00000E+00
    0.00000E+00         0.00000E+00        -0.25808E+06
 
    0.32742E-09        -0.21684E-09         0.00000E+00
   -0.21684E-09        -0.51617E+06         0.00000E+00
    0.00000E+00         0.00000E+00        -0.25808E+06
 
   -0.53842E-09        -0.10842E-09         0.00000E+00
   -0.10842E-09        -0.51617E+06         0.00000E+00
    0.00000E+00         0.00000E+00        -0.25808E+06
 
   -0.37107E-09         0.14456E-09         0.00000E+00
    0.14456E-09        -0.51617E+06         0.00000E+00
    0.00000E+00         0.00000E+00        -0.25808E+06
 
   -0.73487E-09         0.00000E+00         0.00000E+00
    0.00000E+00        -0.51617E+06         0.00000E+00
    0.00000E+00         0.00000E+00        -0.25808E+06
 
   -0.15207E-08         0.46982E-09         0.00000E+00
    0.46982E-09        -0.51617E+06         0.00000E+00
    0.00000E+00         0.00000E+00        -0.25808E+06
 
   -0.22555E-09        -0.12649E-09         0.00000E+00
   -0.12649E-09        -0.51617E+06         0.00000E+00
    0.00000E+00         0.00000E+00        -0.25808E+06
 
   -0.14625E-08        -0.16263E-09         0.00000E+00
   -0.16263E-09        -0.51617E+06         0.00000E+00
    0.00000E+00         0.00000E+00        -0.25808E+06
 
   -0.97498E-09         0.72280E-10         0.00000E+00
    0.72280E-10        -0.51617E+06         0.00000E+00
    0.00000E+00         0.00000E+00        -0.25808E+06
 
   -0.10332E-08         0.39754E-09         0.00000E+00
    0.39754E-09        -0.51617E+06         0.00000E+00
    0.00000E+00         0.00000E+00        -0.25808E+06
 
   -0.25466E-09         0.21684E-09         0.00000E+00
    0.21684E-09        -0.51617E+06         0.00000E+00
    0.00000E+00         0.00000E+00        -0.25808E+06
 
   -0.26921E-09         0.00000E+00         0.00000E+00
    0.00000E+00        -0.51617E+06         0.00000E+00
    0.00000E+00         0.00000E+00        -0.25808E+06
 
   -0.72760E-09         0.39754E-09         0.00000E+00
    0.39754E-09        -0.51617E+06         0.00000E+00
    0.00000E+00         0.00000E+00        -0.25808E+06
 
   -0.10114E-08        -0.32526E-09         0.00000E+00
   -0.32526E-09        -0.51617E+06         0.00000E+00
    0.00000E+00         0.00000E+00        -0.25808E+06
 
    0.50932E-09        -0.36140E-10         0.00000E+00
   -0.36140E-10        -0.51617E+06         0.00000E+00
    0.00000E+00         0.00000E+00        -0.25808E+06
 
   -0.52387E-09        -0.18070E-09         0.00000E+00
   -0.18070E-09        -0.51617E+06         0.00000E+00
    0.00000E+00         0.00000E+00        -0.25808E+06
 
   -0.14552E-09         0.14456E-09         0.00000E+00
    0.14456E-09        -0.51617E+06         0.00000E+00
    0.00000E+00         0.00000E+00        -0.25808E+06
 
   -0.58208E-10         0.18070E-09         0.00000E+00
    0.18070E-09        -0.51617E+06         0.00000E+00
    0.00000E+00         0.00000E+00        -0.25808E+06
 
   -0.73487E-09         0.25298E-09         0.00000E+00
    0.25298E-09        -0.51617E+06         0.00000E+00
    0.00000E+00         0.00000E+00        -0.25808E+06
 
   -0.38563E-09        -0.90350E-10         0.00000E+00
   -0.90350E-10        -0.51617E+06         0.00000E+00
    0.00000E+00         0.00000E+00        -0.25808E+06
 
    0.84401E-09        -0.30719E-09         0.00000E+00
   -0.30719E-09        -0.51617E+06         0.00000E+00
    0.00000E+00         0.00000E+00        -0.25808E+06
 
    0.12224E-08        -0.18070E-10         0.00000E+00
   -0.18070E-10        -0.51617E+06         0.00000E+00
    0.00000E+00         0.00000E+00        -0.25808E+06
 
    0.80036E-09        -0.10842E-09         0.00000E+00
   -0.10842E-09        -0.51617E+06         0.00000E+00
    0.00000E+00         0.00000E+00        -0.25808E+06
 
    0.38563E-09         0.39754E-09         0.00000E+00
    0.39754E-09        -0.51617E+06         0.00000E+00
    0.00000E+00         0.00000E+00        -0.25808E+06
 
   -0.85856E-09         0.46982E-09         0.00000E+00
    0.46982E-09        -0.51617E+06         0.00000E+00
    0.00000E+00         0.00000E+00        -0.25808E+06
 
   -0.89494E-09        -0.32526E-09         0.00000E+00
   -0.32526E-09        -0.51617E+06         0.00000E+00
    0.00000E+00         0.00000E+00        -0.25808E+06
 
   -0.23283E-09        -0.46982E-09         0.00000E+00
   -0.46982E-09        -0.51617E+06         0.00000E+00
    0.00000E+00         0.00000E+00        -0.25808E+06
 
    0.77125E-09        -0.14456E-09         0.00000E+00
   -0.14456E-09        -0.51617E+06         0.00000E+00
    0.00000E+00         0.00000E+00        -0.25808E+06
 
   -0.26193E-09         0.65052E-09         0.00000E+00
    0.65052E-09        -0.51617E+06         0.00000E+00
    0.00000E+00         0.00000E+00        -0.25808E+06
 
   -0.33469E-09         0.14456E-09         0.00000E+00
    0.14456E-09        -0.51617E+06         0.00000E+00
    0.00000E+00         0.00000E+00        -0.25808E+06
 
    0.78580E-09        -0.14456E-09         0.00000E+00
   -0.14456E-09        -0.51617E+06         0.00000E+00
    0.00000E+00         0.00000E+00        -0.25808E+06
 
    0.20373E-09         0.25298E-09         0.00000E+00
    0.25298E-09        -0.51617E+06         0.00000E+00
    0.00000E+00         0.00000E+00        -0.25808E+06
 
   -0.43656E-09        -0.36140E-10         0.00000E+00
   -0.36140E-10        -0.51617E+06         0.00000E+00
    0.00000E+00         0.00000E+00        -0.25808E+06
 
    0.69849E-09        -0.28912E-09         0.00000E+00
   -0.28912E-09        -0.51617E+06         0.00000E+00
    0.00000E+00         0.00000E+00        -0.25808E+06
 
    0.14261E-08        -0.12649E-09         0.00000E+00
   -0.12649E-09        -0.51617E+06         0.00000E+00
    0.00000E+00         0.00000E+00        -0.25808E+06
 
    0.50932E-10        -0.61438E-09         0.00000E+00
   -0.61438E-09        -0.51617E+06         0.00000E+00
    0.00000E+00         0.00000E+00        -0.25808E+06
 
   -0.25466E-09        -0.36140E-10         0.00000E+00
   -0.36140E-10        -0.51617E+06         0.00000E+00
    0.00000E+00         0.00000E+00        -0.25808E+06
 
   -0.25466E-09         0.36140E-10         0.00000E+00
    0.36140E-10        -0.51617E+06         0.00000E+00
    0.00000E+00         0.00000E+00        -0.25808E+06
 
    0.80036E-09         0.79508E-09         0.00000E+00
    0.79508E-09        -0.51617E+06         0.00000E+00
    0.00000E+00         0.00000E+00        -0.25808E+06
 
    0.10259E-08         0.46982E-09         0.00000E+00
    0.46982E-09        -0.51617E+06         0.00000E+00
    0.00000E+00         0.00000E+00        -0.25808E+06
 
   -0.48749E-09         0.36140E-10         0.00000E+00
    0.36140E-10        -0.51617E+06         0.00000E+00
    0.00000E+00         0.00000E+00        -0.25808E+06
 
   -0.32742E-09        -0.10842E-09         0.00000E+00
   -0.10842E-09        -0.51617E+06         0.00000E+00
    0.00000E+00         0.00000E+00        -0.25808E+06
 
   -0.12369E-08         0.00000E+00         0.00000E+00
    0.00000E+00        -0.51617E+06         0.00000E+00
    0.00000E+00         0.00000E+00        -0.25808E+06
 
    0.12078E-08         0.72280E-10         0.00000E+00
    0.72280E-10        -0.51617E+06         0.00000E+00
    0.00000E+00         0.00000E+00        -0.25808E+06
 
    0.53114E-09         0.00000E+00         0.00000E+00
    0.00000E+00        -0.51617E+06         0.00000E+00
    0.00000E+00         0.00000E+00        -0.25808E+06
 
    0.56752E-09        -0.50596E-09         0.00000E+00
   -0.50596E-09        -0.51617E+06         0.00000E+00
    0.00000E+00         0.00000E+00        -0.25808E+06
 
   -0.40018E-09         0.97578E-09         0.00000E+00
    0.97578E-09        -0.51617E+06         0.00000E+00
    0.00000E+00         0.00000E+00        -0.25808E+06
 
    0.13169E-08        -0.18070E-09         0.00000E+00
   -0.18070E-09        -0.51617E+06         0.00000E+00
    0.00000E+00         0.00000E+00        -0.25808E+06
 
    0.25466E-09        -0.46982E-09         0.00000E+00
   -0.46982E-09        -0.51617E+06         0.00000E+00
    0.00000E+00         0.00000E+00        -0.25808E+06
 
   -0.21828E-10        -0.23491E-09         0.00000E+00
   -0.23491E-09        -0.51617E+06         0.00000E+00
    0.00000E+00         0.00000E+00        -0.25808E+06
 
   -0.87311E-10         0.54210E-10         0.00000E+00
    0.54210E-10        -0.51617E+06         0.00000E+00
    0.00000E+00         0.00000E+00        -0.25808E+06
 
    0.10914E-09        -0.12649E-09         0.00000E+00
   -0.12649E-09        -0.51617E+06         0.00000E+00
    0.00000E+00         0.00000E+00        -0.25808E+06
 
   -0.31287E-09         0.00000E+00         0.00000E+00
    0.00000E+00        -0.51617E+06         0.00000E+00
    0.00000E+00         0.00000E+00        -0.25808E+06
 
   -0.61118E-09         0.14456E-09         0.00000E+00
    0.14456E-09        -0.51617E+06         0.00000E+00
    0.00000E+00         0.00000E+00        -0.25808E+06
 
    0.83674E-09         0.54210E-09         0.00000E+00
    0.54210E-09        -0.51617E+06         0.00000E+00
    0.00000E+00         0.00000E+00        -0.25808E+06
 
   -0.24738E-09        -0.28912E-09         0.00000E+00
   -0.28912E-09        -0.51617E+06         0.00000E+00
    0.00000E+00         0.00000E+00        -0.25808E+06
 
    0.29104E-10        -0.54210E-09         0.00000E+00
   -0.54210E-09        -0.51617E+06         0.00000E+00
    0.00000E+00         0.00000E+00        -0.25808E+06
 
   -0.41473E-09         0.21684E-09         0.00000E+00
    0.21684E-09        -0.51617E+06         0.00000E+00
    0.00000E+00         0.00000E+00        -0.25808E+06
 
   -0.35652E-09         0.21684E-09         0.00000E+00
    0.21684E-09        -0.51617E+06         0.00000E+00
    0.00000E+00         0.00000E+00        -0.25808E+06
 
    0.18917E-09        -0.32526E-09         0.00000E+00
   -0.32526E-09        -0.51617E+06         0.00000E+00
    0.00000E+00         0.00000E+00        -0.25808E+06
 
   -0.12878E-08        -0.54210E-09         0.00000E+00
   -0.54210E-09        -0.51617E+06         0.00000E+00
    0.00000E+00         0.00000E+00        -0.25808E+06
 
    0.34925E-09         0.54210E-09         0.00000E+00
    0.54210E-09        -0.51617E+06         0.00000E+00
    0.00000E+00         0.00000E+00        -0.25808E+06
 
    0.88767E-09        -0.68666E-09         0.00000E+00
   -0.68666E-09        -0.51617E+06         0.00000E+00
    0.00000E+00         0.00000E+00        -0.25808E+06
 
   -0.16298E-08         0.28912E-09         0.00000E+00
    0.28912E-09        -0.51617E+06         0.00000E+00
    0.00000E+00         0.00000E+00        -0.25808E+06
 
   -0.87311E-10        -0.72280E-10         0.00000E+00
   -0.72280E-10        -0.51617E+06         0.00000E+00
    0.00000E+00         0.00000E+00        -0.25808E+06
 
    0.50932E-10        -0.72280E-10         0.00000E+00
   -0.72280E-10        -0.51617E+06         0.00000E+00
    0.00000E+00         0.00000E+00        -0.25808E+06
 
    0.48749E-09        -0.72280E-10         0.00000E+00
   -0.72280E-10        -0.51617E+06         0.00000E+00
    0.00000E+00         0.00000E+00        -0.25808E+06
 
    0.32742E-09        -0.36140E-10         0.00000E+00
   -0.36140E-10        -0.51617E+06         0.00000E+00
    0.00000E+00         0.00000E+00        -0.25808E+06
 
    0.61118E-09        -0.39754E-09         0.00000E+00
   -0.39754E-09        -0.51617E+06         0.00000E+00
    0.00000E+00         0.00000E+00        -0.25808E+06
 
   -0.52387E-09        -0.10842E-09         0.00000E+00
   -0.10842E-09        -0.51617E+06         0.00000E+00
    0.00000E+00         0.00000E+00        -0.25808E+06
 
   -0.26193E-09         0.68666E-09         0.00000E+00
    0.68666E-09        -0.51617E+06         0.00000E+00
    0.00000E+00         0.00000E+00        -0.25808E+06
 
   -0.65484E-10         0.18070E-09         0.00000E+00
    0.18070E-09        -0.51617E+06         0.00000E+00
    0.00000E+00         0.00000E+00        -0.25808E+06
 
    0.61118E-09         0.39754E-09         0.00000E+00
    0.39754E-09        -0.51617E+06         0.00000E+00
    0.00000E+00         0.00000E+00        -0.25808E+06
 
   -0.98953E-09         0.61438E-09         0.00000E+00
    0.61438E-09        -0.51617E+06         0.00000E+00
    0.00000E+00         0.00000E+00        -0.25808E+06
 
   -0.65484E-10         0.72280E-09         0.00000E+00
    0.72280E-09        -0.51616E+06         0.00000E+00
    0.00000E+00         0.00000E+00        -0.25808E+06
 
   -0.49477E-09         0.25298E-09         0.00000E+00
    0.25298E-09        -0.51616E+06         0.00000E+00
    0.00000E+00         0.00000E+00        -0.25808E+06
 
    0.10914E-09        -0.36140E-09         0.00000E+00
   -0.36140E-09        -0.51616E+06         0.00000E+00
    0.00000E+00         0.00000E+00        -0.25808E+06
 
    0.34197E-09         0.00000E+00         0.00000E+00
    0.00000E+00        -0.51616E+06         0.00000E+00
    0.00000E+00         0.00000E+00        -0.25808E+06
 
    0.37107E-09        -0.43368E-09         0.00000E+00
   -0.43368E-09        -0.51616E+06         0.00000E+00
    0.00000E+00         0.00000E+00        -0.25808E+06
 
    0.65484E-10        -0.21684E-09         0.00000E+00
   -0.21684E-09        -0.51616E+06         0.00000E+00
    0.00000E+00         0.00000E+00        -0.25808E+06
 
   -0.50204E-09        -0.32526E-09         0.00000E+00
   -0.32526E-09        -0.51616E+06         0.00000E+00
    0.00000E+00         0.00000E+00        -0.25808E+06
 
   -0.81491E-09         0.36140E-10         0.00000E+00
    0.36140E-10        -0.51616E+06         0.00000E+00
    0.00000E+00         0.00000E+00        -0.25808E+06
 
   -0.53114E-09         0.93964E-09         0.00000E+00
    0.93964E-09        -0.51616E+06         0.00000E+00
    0.00000E+00         0.00000E+00        -0.25808E+06
 
   -0.13533E-08        -0.14456E-09         0.00000E+00
   -0.14456E-09        -0.51616E+06         0.00000E+00
    0.00000E+00         0.00000E+00        -0.25808E+06
 
   -0.13388E-08         0.28912E-09         0.00000E+00
    0.28912E-09        -0.51616E+06         0.00000E+00
    0.00000E+00         0.00000E+00        -0.25808E+06
 
   -0.15571E-08         0.36140E-10         0.00000E+00
    0.36140E-10        -0.51616E+06         0.00000E+00
    0.00000E+00         0.00000E+00        -0.25808E+06
 
   -0.82946E-09        -0.86736E-09         0.00000E+00
   -0.86736E-09        -0.51616E+06         0.00000E+00
    0.00000E+00         0.00000E+00        -0.25808E+06
 
   -0.36380E-09         0.46982E-09         0.00000E+00
    0.46982E-09        -0.51616E+06         0.00000E+00
    0.00000E+00         0.00000E+00        -0.25808E+06
 
   -0.58208E-09        -0.61438E-09         0.00000E+00
   -0.61438E-09        -0.51616E+06         0.00000E+00
    0.00000E+00         0.00000E+00        -0.25808E+06
 
   -0.66211E-09         0.18070E-09         0.00000E+00
    0.18070E-09        -0.51616E+06         0.00000E+00
    0.00000E+00         0.00000E+00        -0.25808E+06
 
    0.99681E-09        -0.25298E-09         0.00000E+00
   -0.25298E-09        -0.51616E+06         0.00000E+00
    0.00000E+00         0.00000E+00        -0.25808E+06
 
   -0.21828E-10        -0.14456E-09         0.00000E+00
   -0.14456E-09        -0.51616E+06         0.00000E+00
    0.00000E+00         0.00000E+00        -0.25808E+06
 
   -0.40745E-09        -0.21684E-09         0.00000E+00
   -0.21684E-09        -0.51616E+06         0.00000E+00
    0.00000E+00         0.00000E+00        -0.25808E+06
 
    0.19645E-09         0.10842E-09         0.00000E+00
    0.10842E-09        -0.51616E+06         0.00000E+00
    0.00000E+00         0.00000E+00        -0.25808E+06
 
    0.24738E-09        -0.50596E-09         0.00000E+00
   -0.50596E-09        -0.51616E+06         0.00000E+00
    0.00000E+00         0.00000E+00        -0.25808E+06
 
    0.11787E-08        -0.14456E-09         0.00000E+00
   -0.14456E-09        -0.51616E+06         0.00000E+00
    0.00000E+00         0.00000E+00        -0.25808E+06
 
   -0.54570E-09        -0.50596E-09         0.00000E+00
   -0.50596E-09        -0.51616E+06         0.00000E+00
    0.00000E+00         0.00000E+00        -0.25808E+06
 
    0.56025E-09         0.46982E-09         0.00000E+00
    0.46982E-09        -0.51616E+06         0.00000E+00
    0.00000E+00         0.00000E+00        -0.25808E+06
 
    0.18190E-09         0.25298E-09         0.00000E+00
    0.25298E-09        -0.51616E+06         0.00000E+00
    0.00000E+00         0.00000E+00        -0.25808E+06
 
    0.29104E-10        -0.21684E-09         0.00000E+00
   -0.21684E-09        -0.51616E+06         0.00000E+00
    0.00000E+00         0.00000E+00        -0.25808E+06
 
   -0.13897E-08         0.61438E-09         0.00000E+00
    0.61438E-09        -0.51616E+06         0.00000E+00
    0.00000E+00         0.00000E+00        -0.25808E+06
 
   -0.45839E-09        -0.14456E-09         0.00000E+00
   -0.14456E-09        -0.51616E+06         0.00000E+00
    0.00000E+00         0.00000E+00        -0.25808E+06
 
   -0.21828E-10         0.21684E-09         0.00000E+00
    0.21684E-09        -0.51616E+06         0.00000E+00
    0.00000E+00         0.00000E+00        -0.25808E+06
 
    0.30559E-09         0.10842E-09         0.00000E+00
    0.10842E-09        -0.51616E+06         0.00000E+00
    0.00000E+00         0.00000E+00        -0.25808E+06
 
   -0.12951E-08         0.43368E-09         0.00000E+00
    0.43368E-09        -0.51616E+06         0.00000E+00
    0.00000E+00         0.00000E+00        -0.25808E+06
 
   -0.12224E-08        -0.90350E-09         0.00000E+00
   -0.90350E-09        -0.51616E+06         0.00000E+00
    0.00000E+00         0.00000E+00        -0.25808E+06
 
    0.18917E-09        -0.32526E-09         0.00000E+00
   -0.32526E-09        -0.51616E+06         0.00000E+00
    0.00000E+00         0.00000E+00        -0.25808E+06
 
   -0.82218E-09         0.86736E-09         0.00000E+00
    0.86736E-09        -0.51616E+06         0.00000E+00
    0.00000E+00         0.00000E+00        -0.25808E+06
 
   -0.10623E-08         0.72280E-10         0.00000E+00
    0.72280E-10        -0.51616E+06         0.00000E+00
    0.00000E+00         0.00000E+00        -0.25808E+06
 
   -0.43656E-09         0.36140E-09         0.00000E+00
    0.36140E-09        -0.51616E+06         0.00000E+00
    0.00000E+00         0.00000E+00        -0.25808E+06
 
   -0.96770E-09         0.32526E-09         0.00000E+00
    0.32526E-09        -0.51616E+06         0.00000E+00
    0.00000E+00         0.00000E+00        -0.25808E+06
 
    0.37107E-09        -0.10842E-09         0.00000E+00
   -0.10842E-09        -0.51616E+06         0.00000E+00
    0.00000E+00         0.00000E+00        -0.25808E+06
 
   -0.28376E-09        -0.36140E-10         0.00000E+00
   -0.36140E-10        -0.51616E+06         0.00000E+00
    0.00000E+00         0.00000E+00        -0.25808E+06
 
   -0.50932E-10         0.10842E-09         0.00000E+00
    0.10842E-09        -0.51616E+06         0.00000E+00
    0.00000E+00         0.00000E+00        -0.25808E+06
 
   -0.24738E-09        -0.18070E-09         0.00000E+00
   -0.18070E-09        -0.51616E+06         0.00000E+00
    0.00000E+00         0.00000E+00        -0.25808E+06
 
    0.75670E-09        -0.39754E-09         0.00000E+00
   -0.39754E-09        -0.51616E+06         0.00000E+00
    0.00000E+00         0.00000E+00        -0.25808E+06
 
   -0.63301E-09         0.14456E-09         0.00000E+00
    0.14456E-09        -0.51616E+06         0.00000E+00
    0.00000E+00         0.00000E+00        -0.25808E+06
 
   -0.59663E-09         0.61438E-09         0.00000E+00
    0.61438E-09        -0.51616E+06         0.00000E+00
    0.00000E+00         0.00000E+00        -0.25808E+06
 
   -0.10914E-08        -0.21684E-09         0.00000E+00
   -0.21684E-09        -0.51616E+06         0.00000E+00
    0.00000E+00         0.00000E+00        -0.25808E+06
 
    0.19645E-09         0.25298E-09         0.00000E+00
    0.25298E-09        -0.51616E+06         0.00000E+00
    0.00000E+00         0.00000E+00        -0.25808E+06
 
    0.98225E-09        -0.36140E-09         0.00000E+00
   -0.36140E-09        -0.51616E+06         0.00000E+00
    0.00000E+00         0.00000E+00        -0.25808E+06
 
   -0.21100E-09         0.43368E-09         0.00000E+00
    0.43368E-09        -0.51616E+06         0.00000E+00
    0.00000E+00         0.00000E+00        -0.25808E+06
 
    0.40018E-09         0.10842E-09         0.00000E+00
    0.10842E-09        -0.51616E+06         0.00000E+00
    0.00000E+00         0.00000E+00        -0.25808E+06
 
   -0.78580E-09         0.10842E-09         0.00000E+00
    0.10842E-09        -0.51616E+06         0.00000E+00
    0.00000E+00         0.00000E+00        -0.25808E+06
 
    0.78580E-09        -0.36140E-09         0.00000E+00
   -0.36140E-09        -0.51616E+06         0.00000E+00
    0.00000E+00         0.00000E+00        -0.25808E+06
 
    0.80036E-09         0.25298E-09         0.00000E+00
    0.25298E-09        -0.51616E+06         0.00000E+00
    0.00000E+00         0.00000E+00        -0.25808E+06
 
    0.69849E-09        -0.25298E-09         0.00000E+00
   -0.25298E-09        -0.51616E+06         0.00000E+00
    0.00000E+00         0.00000E+00        -0.25808E+06
 
    0.68394E-09        -0.14456E-09         0.00000E+00
   -0.14456E-09        -0.51616E+06         0.00000E+00
    0.00000E+00         0.00000E+00        -0.25808E+06
 
    0.11933E-08        -0.72280E-10         0.00000E+00
   -0.72280E-10        -0.51616E+06         0.00000E+00
    0.00000E+00         0.00000E+00        -0.25808E+06
 
    0.54570E-09         0.72280E-10         0.00000E+00
    0.72280E-10        -0.51616E+06         0.00000E+00
    0.00000E+00         0.00000E+00        -0.25808E+06
 
    0.18917E-09        -0.36140E-09         0.00000E+00
   -0.36140E-09        -0.51616E+06         0.00000E+00
    0.00000E+00         0.00000E+00        -0.25808E+06
 
   -0.66211E-09         0.00000E+00         0.00000E+00
    0.00000E+00        -0.51616E+06         0.00000E+00
    0.00000E+00         0.00000E+00        -0.25808E+06
 
   -0.13097E-09        -0.10842E-09         0.00000E+00
   -0.10842E-09        -0.51616E+06         0.00000E+00
    0.00000E+00         0.00000E+00        -0.25808E+06
 
   -0.65484E-09        -0.72280E-10         0.00000E+00
   -0.72280E-10        -0.51616E+06         0.00000E+00
    0.00000E+00         0.00000E+00        -0.25808E+06
 
    0.22555E-09         0.72280E-10         0.00000E+00
    0.72280E-10        -0.51616E+06         0.00000E+00
    0.00000E+00         0.00000E+00        -0.25808E+06
 
   -0.11569E-08        -0.32526E-09         0.00000E+00
   -0.32526E-09        -0.51616E+06         0.00000E+00
    0.00000E+00         0.00000E+00        -0.25808E+06
 
    0.21828E-09        -0.28912E-09         0.00000E+00
   -0.28912E-09        -0.51616E+06         0.00000E+00
    0.00000E+00         0.00000E+00        -0.25808E+06
 
   -0.34197E-09         0.86736E-09         0.00000E+00
    0.86736E-09        -0.51616E+06         0.00000E+00
    0.00000E+00         0.00000E+00        -0.25808E+06
 
    0.35652E-09        -0.39754E-09         0.00000E+00
   -0.39754E-09        -0.51616E+06         0.00000E+00
    0.00000E+00         0.00000E+00        -0.25808E+06
 
    0.72760E-09        -0.10119E-08         0.00000E+00
   -0.10119E-08        -0.51616E+06         0.00000E+00
    0.00000E+00         0.00000E+00        -0.25808E+06
 
   -0.58935E-09         0.93964E-09         0.00000E+00
    0.93964E-09        -0.51616E+06         0.00000E+00
    0.00000E+00         0.00000E+00        -0.25808E+06
 
    0.72760E-11        -0.43368E-09         0.00000E+00
   -0.43368E-09        -0.51616E+06         0.00000E+00
    0.00000E+00         0.00000E+00        -0.25808E+06
 
    0.16735E-09         0.00000E+00         0.00000E+00
    0.00000E+00        -0.51616E+06         0.00000E+00
    0.00000E+00         0.00000E+00        -0.25808E+06
 
    0.51659E-09        -0.14456E-09         0.00000E+00
   -0.14456E-09        -0.51616E+06         0.00000E+00
    0.00000E+00         0.00000E+00        -0.25808E+06
 
    0.36380E-09         0.39754E-09         0.00000E+00
    0.39754E-09        -0.51616E+06         0.00000E+00
    0.00000E+00         0.00000E+00        -0.25808E+06
 
    0.80036E-10         0.14456E-09         0.00000E+00
    0.14456E-09        -0.51616E+06         0.00000E+00
    0.00000E+00         0.00000E+00        -0.25808E+06
 
    0.81491E-09        -0.72280E-10         0.00000E+00
   -0.72280E-10        -0.51616E+06         0.00000E+00
    0.00000E+00         0.00000E+00        -0.25808E+06
 
    0.14115E-08        -0.21684E-09         0.00000E+00
   -0.21684E-09        -0.51616E+06         0.00000E+00
    0.00000E+00         0.00000E+00        -0.25808E+06
 
   -0.12369E-09        -0.28912E-09         0.00000E+00
   -0.28912E-09        -0.51616E+06         0.00000E+00
    0.00000E+00         0.00000E+00        -0.25808E+06
 
    0.74215E-09         0.54210E-09         0.00000E+00
    0.54210E-09        -0.51616E+06         0.00000E+00
    0.00000E+00         0.00000E+00        -0.25807E+06
 
   -0.57480E-09        -0.14456E-09         0.00000E+00
   -0.14456E-09        -0.51616E+06         0.00000E+00
    0.00000E+00         0.00000E+00        -0.25807E+06
 
   -0.59663E-09        -0.18070E-09         0.00000E+00
   -0.18070E-09        -0.51616E+06         0.00000E+00
    0.00000E+00         0.00000E+00        -0.25807E+06
 
    0.36380E-10         0.21684E-09         0.00000E+00
    0.21684E-09        -0.51616E+06         0.00000E+00
    0.00000E+00         0.00000E+00        -0.25807E+06
 
    0.42201E-09        -0.14095E-08         0.00000E+00
   -0.14095E-08        -0.51616E+06         0.00000E+00
    0.00000E+00         0.00000E+00        -0.25807E+06
 
   -0.93860E-09         0.28912E-09         0.00000E+00
    0.28912E-09        -0.51616E+06         0.00000E+00
    0.00000E+00         0.00000E+00        -0.25807E+06
 
    0.87311E-10         0.10842E-08         0.00000E+00
    0.10842E-08        -0.51616E+06         0.00000E+00
    0.00000E+00         0.00000E+00        -0.25807E+06
 
    0.12442E-08        -0.83122E-09         0.00000E+00
   -0.83122E-09        -0.51616E+06         0.00000E+00
    0.00000E+00         0.00000E+00        -0.25807E+06
 
    0.12151E-08         0.36140E-09         0.00000E+00
    0.36140E-09        -0.51616E+06         0.00000E+00
    0.00000E+00         0.00000E+00        -0.25807E+06
 
   -0.36380E-09         0.36140E-09         0.00000E+00
    0.36140E-09        -0.51616E+06         0.00000E+00
    0.00000E+00         0.00000E+00        -0.25807E+06
 
    0.24738E-09        -0.72280E-10         0.00000E+00
   -0.72280E-10        -0.51616E+06         0.00000E+00
    0.00000E+00         0.00000E+00        -0.25807E+06
 
   -0.50932E-10         0.21684E-09         0.00000E+00
    0.21684E-09        -0.51616E+06         0.00000E+00
    0.00000E+00         0.00000E+00        -0.25807E+06
 
    0.10041E-08        -0.36140E-09         0.00000E+00
   -0.36140E-09        -0.51616E+06         0.00000E+00
    0.00000E+00         0.00000E+00        -0.25807E+06
 
   -0.84401E-09        -0.50596E-09         0.00000E+00
   -0.50596E-09        -0.51616E+06         0.00000E+00
    0.00000E+00         0.00000E+00        -0.25807E+06
 
    0.17171E-08        -0.28912E-09         0.00000E+00
   -0.28912E-09        -0.51616E+06         0.00000E+00
    0.00000E+00         0.00000E+00        -0.25807E+06
 
   -0.29831E-09        -0.65052E-09         0.00000E+00
   -0.65052E-09        -0.51616E+06         0.00000E+00
    0.00000E+00         0.00000E+00        -0.25807E+06
 
    0.42201E-09         0.39754E-09         0.00000E+00
    0.39754E-09        -0.51616E+06         0.00000E+00
    0.00000E+00         0.00000E+00        -0.25807E+06
 
   -0.25466E-09        -0.13733E-08         0.00000E+00
   -0.13733E-08        -0.51616E+06         0.00000E+00
    0.00000E+00         0.00000E+00        -0.25807E+06
 
    0.84401E-09         0.43368E-09         0.00000E+00
    0.43368E-09        -0.51616E+06         0.00000E+00
    0.00000E+00         0.00000E+00        -0.25807E+06
 
   -0.88039E-09        -0.13010E-08         0.00000E+00
   -0.13010E-08        -0.51616E+06         0.00000E+00
    0.00000E+00         0.00000E+00        -0.25807E+06
 
   -0.82946E-09         0.00000E+00         0.00000E+00
    0.00000E+00        -0.51616E+06         0.00000E+00
    0.00000E+00         0.00000E+00        -0.25807E+06
 
   -0.75670E-09        -0.83122E-09         0.00000E+00
   -0.83122E-09        -0.51616E+06         0.00000E+00
    0.00000E+00         0.00000E+00        -0.25807E+06
 
   -0.68394E-09        -0.57824E-09         0.00000E+00
   -0.57824E-09        -0.51616E+06         0.00000E+00
    0.00000E+00         0.00000E+00        -0.25807E+06
 
    0.55297E-09        -0.61438E-09         0.00000E+00
   -0.61438E-09        -0.51616E+06         0.00000E+00
    0.00000E+00         0.00000E+00        -0.25807E+06
 
   -0.11423E-08         0.14456E-09         0.00000E+00
    0.14456E-09        -0.51616E+06         0.00000E+00
    0.00000E+00         0.00000E+00        -0.25807E+06
 
   -0.11642E-08        -0.61438E-09         0.00000E+00
   -0.61438E-09        -0.51616E+06         0.00000E+00
    0.00000E+00         0.00000E+00        -0.25807E+06
 
    0.74942E-09         0.43368E-09         0.00000E+00
    0.43368E-09        -0.51616E+06         0.00000E+00
    0.00000E+00         0.00000E+00        -0.25807E+06
 
   -0.18626E-08         0.36140E-09         0.00000E+00
    0.36140E-09        -0.51616E+06         0.00000E+00
    0.00000E+00         0.00000E+00        -0.25807E+06
 
   -0.72032E-09        -0.65052E-09         0.00000E+00
   -0.65052E-09        -0.51616E+06         0.00000E+00
    0.00000E+00         0.00000E+00        -0.25807E+06
 
    0.90222E-09        -0.28912E-09         0.00000E+00
   -0.28912E-09        -0.51616E+06         0.00000E+00
    0.00000E+00         0.00000E+00        -0.25807E+06
 
   -0.12296E-08         0.14456E-09         0.00000E+00
    0.14456E-09        -0.51615E+06         0.00000E+00
    0.00000E+00         0.00000E+00        -0.25807E+06
 
    0.85856E-09        -0.14456E-09         0.00000E+00
   -0.14456E-09        -0.51615E+06         0.00000E+00
    0.00000E+00         0.00000E+00        -0.25807E+06
 
   -0.25466E-09        -0.32526E-09         0.00000E+00
   -0.32526E-09        -0.51615E+06         0.00000E+00
    0.00000E+00         0.00000E+00        -0.25807E+06
 
   -0.12369E-09        -0.14456E-09         0.00000E+00
   -0.14456E-09        -0.51615E+06         0.00000E+00
    0.00000E+00         0.00000E+00        -0.25807E+06
 
   -0.10186E-09        -0.36140E-10         0.00000E+00
   -0.36140E-10        -0.51615E+06         0.00000E+00
    0.00000E+00         0.00000E+00        -0.25807E+06
 
   -0.30559E-09         0.43368E-09         0.00000E+00
    0.43368E-09        -0.51615E+06         0.00000E+00
    0.00000E+00         0.00000E+00        -0.25807E+06
 
   -0.62573E-09        -0.72280E-10         0.00000E+00
   -0.72280E-10        -0.51615E+06         0.00000E+00
    0.00000E+00         0.00000E+00        -0.25807E+06
 
    0.39290E-09        -0.36140E-09         0.00000E+00
   -0.36140E-09        -0.51615E+06         0.00000E+00
    0.00000E+00         0.00000E+00        -0.25807E+06
 
    0.32742E-09         0.36140E-09         0.00000E+00
    0.36140E-09        -0.51615E+06         0.00000E+00
    0.00000E+00         0.00000E+00        -0.25807E+06
 
   -0.45839E-09         0.86736E-09         0.00000E+00
    0.86736E-09        -0.51615E+06         0.00000E+00
    0.00000E+00         0.00000E+00        -0.25807E+06
 
   -0.80036E-10         0.61438E-09         0.00000E+00
    0.61438E-09        -0.51615E+06         0.00000E+00
    0.00000E+00         0.00000E+00        -0.25807E+06
 
    0.61118E-09        -0.10119E-08         0.00000E+00
   -0.10119E-08        -0.51615E+06         0.00000E+00
    0.00000E+00         0.00000E+00        -0.25807E+06
 
    0.18626E-08         0.36140E-09         0.00000E+00
    0.36140E-09        -0.51615E+06         0.00000E+00
    0.00000E+00         0.00000E+00        -0.25807E+06
 
    0.13242E-08         0.21684E-09         0.00000E+00
    0.21684E-09        -0.51615E+06         0.00000E+00
    0.00000E+00         0.00000E+00        -0.25807E+06
 
   -0.18190E-09         0.72280E-10         0.00000E+00
    0.72280E-10        -0.51615E+06         0.00000E+00
    0.00000E+00         0.00000E+00        -0.25807E+06
 
   -0.47294E-09        -0.36140E-10         0.00000E+00
   -0.36140E-10        -0.51615E+06         0.00000E+00
    0.00000E+00         0.00000E+00        -0.25807E+06
 
    0.50204E-09         0.25298E-09         0.00000E+00
    0.25298E-09        -0.51615E+06         0.00000E+00
    0.00000E+00         0.00000E+00        -0.25807E+06
 
    0.25466E-09         0.21684E-09         0.00000E+00
    0.21684E-09        -0.51615E+06         0.00000E+00
    0.00000E+00         0.00000E+00        -0.25807E+06
 
    0.10186E-08         0.36140E-10         0.00000E+00
    0.36140E-10        -0.51615E+06         0.00000E+00
    0.00000E+00         0.00000E+00        -0.25807E+06
 
    0.77125E-09        -0.10842E-09         0.00000E+00
   -0.10842E-09        -0.51615E+06         0.00000E+00
    0.00000E+00         0.00000E+00        -0.25807E+06
 
    0.29104E-10        -0.32526E-09         0.00000E+00
   -0.32526E-09        -0.51615E+06         0.00000E+00
    0.00000E+00         0.00000E+00        -0.25807E+06
 
    0.77853E-09        -0.61438E-09         0.00000E+00
   -0.61438E-09        -0.51615E+06         0.00000E+00
    0.00000E+00         0.00000E+00        -0.25807E+06
 
   -0.29104E-10        -0.21684E-09         0.00000E+00
   -0.21684E-09        -0.51615E+06         0.00000E+00
    0.00000E+00         0.00000E+00        -0.25807E+06
 
   -0.58208E-10        -0.72280E-10         0.00000E+00
   -0.72280E-10        -0.51615E+06         0.00000E+00
    0.00000E+00         0.00000E+00        -0.25807E+06
 
    0.12369E-09        -0.72280E-10         0.00000E+00
   -0.72280E-10        -0.51615E+06         0.00000E+00
    0.00000E+00         0.00000E+00        -0.25807E+06
 
    0.52387E-09         0.32526E-09         0.00000E+00
    0.32526E-09        -0.51615E+06         0.00000E+00
    0.00000E+00         0.00000E+00        -0.25807E+06
 
    0.14916E-08        -0.50596E-09         0.00000E+00
   -0.50596E-09        -0.51615E+06         0.00000E+00
    0.00000E+00         0.00000E+00        -0.25807E+06
 
    0.58208E-09        -0.72280E-10         0.00000E+00
   -0.72280E-10        -0.51615E+06         0.00000E+00
    0.00000E+00         0.00000E+00        -0.25807E+06
 
    0.10477E-08         0.28912E-09         0.00000E+00
    0.28912E-09        -0.51615E+06         0.00000E+00
    0.00000E+00         0.00000E+00        -0.25807E+06
 
   -0.72760E-09         0.14456E-09         0.00000E+00
    0.14456E-09        -0.51615E+06         0.00000E+00
    0.00000E+00         0.00000E+00        -0.25807E+06
 
   -0.21100E-09        -0.72280E-10         0.00000E+00
   -0.72280E-10        -0.51615E+06         0.00000E+00
    0.00000E+00         0.00000E+00        -0.25806E+06
 
   -0.17462E-09        -0.36140E-09         0.00000E+00
   -0.36140E-09        -0.51615E+06         0.00000E+00
    0.00000E+00         0.00000E+00        -0.25806E+06
 
    0.54570E-09        -0.28912E-09         0.00000E+00
   -0.28912E-09        -0.51615E+06         0.00000E+00
    0.00000E+00         0.00000E+00        -0.25806E+06
 
   -0.15280E-09        -0.72280E-10         0.00000E+00
   -0.72280E-10        -0.51615E+06         0.00000E+00
    0.00000E+00         0.00000E+00        -0.25806E+06
 
    0.74942E-09         0.72280E-10         0.00000E+00
    0.72280E-10        -0.51615E+06         0.00000E+00
    0.00000E+00         0.00000E+00        -0.25806E+06
 
    0.15280E-09        -0.10842E-08         0.00000E+00
   -0.10842E-08        -0.51615E+06         0.00000E+00
    0.00000E+00         0.00000E+00        -0.25806E+06
 
    0.32014E-09         0.57824E-09         0.00000E+00
    0.57824E-09        -0.51615E+06         0.00000E+00
    0.00000E+00         0.00000E+00        -0.25806E+06
 
   -0.30559E-09        -0.83122E-09         0.00000E+00
   -0.83122E-09        -0.51615E+06         0.00000E+00
    0.00000E+00         0.00000E+00        -0.25806E+06
 
   -0.15134E-08         0.90350E-09         0.00000E+00
    0.90350E-09        -0.51615E+06         0.00000E+00
    0.00000E+00         0.00000E+00        -0.25806E+06
 
   -0.59663E-09        -0.50596E-09         0.00000E+00
   -0.50596E-09        -0.51615E+06         0.00000E+00
    0.00000E+00         0.00000E+00        -0.25806E+06
 
    0.50932E-10        -0.72280E-10         0.00000E+00
   -0.72280E-10        -0.51615E+06         0.00000E+00
    0.00000E+00         0.00000E+00        -0.25806E+06
 
   -0.33469E-09        -0.72280E-10         0.00000E+00
   -0.72280E-10        -0.51615E+06         0.00000E+00
    0.00000E+00         0.00000E+00        -0.25806E+06
 
   -0.11860E-08         0.65052E-09         0.00000E+00
    0.65052E-09        -0.51615E+06         0.00000E+00
    0.00000E+00         0.00000E+00        -0.25806E+06
 
   -0.13097E-09        -0.93964E-09         0.00000E+00
   -0.93964E-09        -0.51615E+06         0.00000E+00
    0.00000E+00         0.00000E+00        -0.25806E+06
 
   -0.16225E-08         0.21684E-09         0.00000E+00
    0.21684E-09        -0.51615E+06         0.00000E+00
    0.00000E+00         0.00000E+00        -0.25806E+06
 
   -0.23283E-08        -0.39754E-09         0.00000E+00
   -0.39754E-09        -0.51614E+06         0.00000E+00
    0.00000E+00         0.00000E+00        -0.25806E+06
 
   -0.18772E-08         0.65052E-09         0.00000E+00
    0.65052E-09        -0.51614E+06         0.00000E+00
    0.00000E+00         0.00000E+00        -0.25806E+06
 
   -0.14261E-08        -0.18431E-08         0.00000E+00
   -0.18431E-08        -0.51614E+06         0.00000E+00
    0.00000E+00         0.00000E+00        -0.25806E+06
 
    0.45839E-09         0.72280E-10         0.00000E+00
    0.72280E-10        -0.51614E+06         0.00000E+00
    0.00000E+00         0.00000E+00        -0.25806E+06
 
    0.13097E-09         0.17347E-08         0.00000E+00
    0.17347E-08        -0.51614E+06         0.00000E+00
    0.00000E+00         0.00000E+00        -0.25806E+06
 
   -0.15934E-08        -0.93964E-09         0.00000E+00
   -0.93964E-09        -0.51614E+06         0.00000E+00
    0.00000E+00         0.00000E+00        -0.25806E+06
 
   -0.24302E-08         0.65052E-09         0.00000E+00
    0.65052E-09        -0.51614E+06         0.00000E+00
    0.00000E+00         0.00000E+00        -0.25806E+06
 
   -0.96043E-09         0.21684E-09         0.00000E+00
    0.21684E-09        -0.51614E+06         0.00000E+00
    0.00000E+00         0.00000E+00        -0.25806E+06
 
   -0.51659E-09         0.57824E-09         0.00000E+00
    0.57824E-09        -0.51614E+06         0.00000E+00
    0.00000E+00         0.00000E+00        -0.25806E+06
 
   -0.11787E-08         0.28912E-09         0.00000E+00
    0.28912E-09        -0.51614E+06         0.00000E+00
    0.00000E+00         0.00000E+00        -0.25806E+06
 
   -0.87311E-09        -0.14456E-09         0.00000E+00
   -0.14456E-09        -0.51614E+06         0.00000E+00
    0.00000E+00         0.00000E+00        -0.25806E+06
 
   -0.26921E-08        -0.10842E-08         0.00000E+00
   -0.10842E-08        -0.51614E+06         0.00000E+00
    0.00000E+00         0.00000E+00        -0.25806E+06
 
    0.12369E-09         0.15902E-08         0.00000E+00
    0.15902E-08        -0.51614E+06         0.00000E+00
    0.00000E+00         0.00000E+00        -0.25806E+06
 
    0.66939E-09         0.14456E-09         0.00000E+00
    0.14456E-09        -0.51614E+06         0.00000E+00
    0.00000E+00         0.00000E+00        -0.25806E+06
 
    0.15280E-09         0.43368E-09         0.00000E+00
    0.43368E-09        -0.51614E+06         0.00000E+00
    0.00000E+00         0.00000E+00        -0.25806E+06
 
    0.16007E-09        -0.54210E-09         0.00000E+00
   -0.54210E-09        -0.51614E+06         0.00000E+00
    0.00000E+00         0.00000E+00        -0.25806E+06
 
   -0.69122E-09        -0.18070E-09         0.00000E+00
   -0.18070E-09        -0.51614E+06         0.00000E+00
    0.00000E+00         0.00000E+00        -0.25806E+06
 
   -0.10332E-08        -0.72280E-09         0.00000E+00
   -0.72280E-09        -0.51614E+06         0.00000E+00
    0.00000E+00         0.00000E+00        -0.25806E+06
 
   -0.16007E-08        -0.18070E-09         0.00000E+00
   -0.18070E-09        -0.51614E+06         0.00000E+00
    0.00000E+00         0.00000E+00        -0.25806E+06
 
   -0.89494E-09         0.93964E-09         0.00000E+00
    0.93964E-09        -0.51614E+06         0.00000E+00
    0.00000E+00         0.00000E+00        -0.25806E+06
 
    0.12224E-08        -0.14456E-09         0.00000E+00
   -0.14456E-09        -0.51614E+06         0.00000E+00
    0.00000E+00         0.00000E+00        -0.25806E+06
 
    0.64028E-09        -0.36140E-10         0.00000E+00
   -0.36140E-10        -0.51614E+06         0.00000E+00
    0.00000E+00         0.00000E+00        -0.25806E+06
 
    0.20373E-09        -0.25298E-09         0.00000E+00
   -0.25298E-09        -0.51614E+06         0.00000E+00
    0.00000E+00         0.00000E+00        -0.25806E+06
 
    0.26921E-09         0.21684E-09         0.00000E+00
    0.21684E-09        -0.51614E+06         0.00000E+00
    0.00000E+00         0.00000E+00        -0.25806E+06
 
   -0.94587E-10        -0.28912E-09         0.00000E+00
   -0.28912E-09        -0.51614E+06         0.00000E+00
    0.00000E+00         0.00000E+00        -0.25806E+06
 
    0.20373E-09         0.72280E-10         0.00000E+00
    0.72280E-10        -0.51614E+06         0.00000E+00
    0.00000E+00         0.00000E+00        -0.25806E+06
 
    0.16735E-09         0.00000E+00         0.00000E+00
    0.00000E+00        -0.51614E+06         0.00000E+00
    0.00000E+00         0.00000E+00        -0.25806E+06
 
    0.18917E-08         0.00000E+00         0.00000E+00
    0.00000E+00        -0.51614E+06         0.00000E+00
    0.00000E+00         0.00000E+00        -0.25806E+06
 
    0.56025E-09         0.00000E+00         0.00000E+00
    0.00000E+00        -0.51614E+06         0.00000E+00
    0.00000E+00         0.00000E+00        -0.25806E+06
 
   -0.12369E-09        -0.21684E-09         0.00000E+00
   -0.21684E-09        -0.51614E+06         0.00000E+00
    0.00000E+00         0.00000E+00        -0.25806E+06
 
    0.57480E-09         0.36140E-10         0.00000E+00
    0.36140E-10        -0.51613E+06         0.00000E+00
    0.00000E+00         0.00000E+00        -0.25805E+06
 
    0.11933E-08         0.43368E-09         0.00000E+00
    0.43368E-09        -0.51613E+06         0.00000E+00
    0.00000E+00         0.00000E+00        -0.25805E+06
 
   -0.49477E-09        -0.10842E-09         0.00000E+00
   -0.10842E-09        -0.51613E+06         0.00000E+00
    0.00000E+00         0.00000E+00        -0.25805E+06
 
    0.13533E-08         0.18070E-09         0.00000E+00
    0.18070E-09        -0.51613E+06         0.00000E+00
    0.00000E+00         0.00000E+00        -0.25805E+06
 
    0.15352E-08         0.36140E-10         0.00000E+00
    0.36140E-10        -0.51613E+06         0.00000E+00
    0.00000E+00         0.00000E+00        -0.25805E+06
 
    0.18190E-09        -0.54210E-09         0.00000E+00
   -0.54210E-09        -0.51613E+06         0.00000E+00
    0.00000E+00         0.00000E+00        -0.25805E+06
 
    0.66211E-09         0.14456E-09         0.00000E+00
    0.14456E-09        -0.51613E+06         0.00000E+00
    0.00000E+00         0.00000E+00        -0.25805E+06
 
    0.54570E-09         0.72280E-10         0.00000E+00
    0.72280E-10        -0.51613E+06         0.00000E+00
    0.00000E+00         0.00000E+00        -0.25805E+06
 
   -0.63301E-09         0.65052E-09         0.00000E+00
    0.65052E-09        -0.51613E+06         0.00000E+00
    0.00000E+00         0.00000E+00        -0.25805E+06
 
   -0.17390E-08         0.36140E-09         0.00000E+00
    0.36140E-09        -0.51613E+06         0.00000E+00
    0.00000E+00         0.00000E+00        -0.25805E+06
 
   -0.18335E-08         0.72280E-10         0.00000E+00
    0.72280E-10        -0.51613E+06         0.00000E+00
    0.00000E+00         0.00000E+00        -0.25805E+06
 
   -0.21464E-08        -0.72280E-10         0.00000E+00
   -0.72280E-10        -0.51613E+06         0.00000E+00
    0.00000E+00         0.00000E+00        -0.25805E+06
 
   -0.22264E-08         0.72280E-10         0.00000E+00
    0.72280E-10        -0.51613E+06         0.00000E+00
    0.00000E+00         0.00000E+00        -0.25805E+06
 
   -0.93132E-09        -0.65052E-09         0.00000E+00
   -0.65052E-09        -0.51613E+06         0.00000E+00
    0.00000E+00         0.00000E+00        -0.25805E+06
 
    0.90222E-09         0.50596E-09         0.00000E+00
    0.50596E-09        -0.51613E+06         0.00000E+00
    0.00000E+00         0.00000E+00        -0.25805E+06
 
   -0.13679E-08         0.25298E-09         0.00000E+00
    0.25298E-09        -0.51613E+06         0.00000E+00
    0.00000E+00         0.00000E+00        -0.25804E+06
 
   -0.16225E-08         0.25298E-09         0.00000E+00
    0.25298E-09        -0.51613E+06         0.00000E+00
    0.00000E+00         0.00000E+00        -0.25804E+06
 
   -0.11132E-08         0.14456E-09         0.00000E+00
    0.14456E-09        -0.51613E+06         0.00000E+00
    0.00000E+00         0.00000E+00        -0.25804E+06
 
   -0.81491E-09         0.43368E-09         0.00000E+00
    0.43368E-09        -0.51613E+06         0.00000E+00
    0.00000E+00         0.00000E+00        -0.25804E+06
 
   -0.12442E-08         0.32526E-09         0.00000E+00
    0.32526E-09        -0.51613E+06         0.00000E+00
    0.00000E+00         0.00000E+00        -0.25804E+06
 
   -0.16298E-08        -0.14456E-09         0.00000E+00
   -0.14456E-09        -0.51613E+06         0.00000E+00
    0.00000E+00         0.00000E+00        -0.25804E+06
 
   -0.87311E-09         0.57824E-09         0.00000E+00
    0.57824E-09        -0.51613E+06         0.00000E+00
    0.00000E+00         0.00000E+00        -0.25804E+06
 
   -0.55297E-09         0.21684E-09         0.00000E+00
    0.21684E-09        -0.51613E+06         0.00000E+00
    0.00000E+00         0.00000E+00        -0.25804E+06
 
   -0.29104E-09         0.11565E-08         0.00000E+00
    0.11565E-08        -0.51613E+06         0.00000E+00
    0.00000E+00         0.00000E+00        -0.25804E+06
 
    0.23356E-08         0.21684E-09         0.00000E+00
    0.21684E-09        -0.51613E+06         0.00000E+00
    0.00000E+00         0.00000E+00        -0.25804E+06
 
    0.21246E-08         0.00000E+00         0.00000E+00
    0.00000E+00        -0.51613E+06         0.00000E+00
    0.00000E+00         0.00000E+00        -0.25804E+06
 
    0.22192E-08         0.00000E+00         0.00000E+00
    0.00000E+00        -0.51613E+06         0.00000E+00
    0.00000E+00         0.00000E+00        -0.25804E+06
 
    0.30632E-08         0.21684E-09         0.00000E+00
    0.21684E-09        -0.51613E+06         0.00000E+00
    0.00000E+00         0.00000E+00        -0.25804E+06
 
    0.43656E-10        -0.14456E-09         0.00000E+00
   -0.14456E-09        -0.51613E+06         0.00000E+00
    0.00000E+00         0.00000E+00        -0.25804E+06
 
   -0.56752E-09         0.21684E-09         0.00000E+00
    0.21684E-09        -0.51613E+06         0.00000E+00
    0.00000E+00         0.00000E+00        -0.25804E+06
 
    0.80036E-09         0.83122E-09         0.00000E+00
    0.83122E-09        -0.51612E+06         0.00000E+00
    0.00000E+00         0.00000E+00        -0.25804E+06
 
    0.15134E-08        -0.36140E-10         0.00000E+00
   -0.36140E-10        -0.51612E+06         0.00000E+00
    0.00000E+00         0.00000E+00        -0.25804E+06
 
    0.14115E-08         0.46982E-09         0.00000E+00
    0.46982E-09        -0.51612E+06         0.00000E+00
    0.00000E+00         0.00000E+00        -0.25804E+06
 
    0.17681E-08         0.10842E-09         0.00000E+00
    0.10842E-09        -0.51612E+06         0.00000E+00
    0.00000E+00         0.00000E+00        -0.25804E+06
 
   -0.34925E-09         0.14456E-09         0.00000E+00
    0.14456E-09        -0.51612E+06         0.00000E+00
    0.00000E+00         0.00000E+00        -0.25804E+06
 
    0.14552E-09        -0.72280E-10         0.00000E+00
   -0.72280E-10        -0.51612E+06         0.00000E+00
    0.00000E+00         0.00000E+00        -0.25804E+06
 
   -0.43656E-09        -0.43368E-09         0.00000E+00
   -0.43368E-09        -0.51612E+06         0.00000E+00
    0.00000E+00         0.00000E+00        -0.25804E+06
 
   -0.79308E-09         0.86736E-09         0.00000E+00
    0.86736E-09        -0.51612E+06         0.00000E+00
    0.00000E+00         0.00000E+00        -0.25804E+06
 
   -0.88039E-09         0.14456E-09         0.00000E+00
    0.14456E-09        -0.51612E+06         0.00000E+00
    0.00000E+00         0.00000E+00        -0.25804E+06
 
   -0.10041E-08         0.43368E-09         0.00000E+00
    0.43368E-09        -0.51612E+06         0.00000E+00
    0.00000E+00         0.00000E+00        -0.25804E+06
 
   -0.12587E-08         0.14456E-09         0.00000E+00
    0.14456E-09        -0.51612E+06         0.00000E+00
    0.00000E+00         0.00000E+00        -0.25804E+06
 
   -0.12296E-08         0.72280E-10         0.00000E+00
    0.72280E-10        -0.51612E+06         0.00000E+00
    0.00000E+00         0.00000E+00        -0.25804E+06
 
   -0.10768E-08         0.36140E-09         0.00000E+00
    0.36140E-09        -0.51612E+06         0.00000E+00
    0.00000E+00         0.00000E+00        -0.25804E+06
 
   -0.50932E-10         0.21684E-09         0.00000E+00
    0.21684E-09        -0.51612E+06         0.00000E+00
    0.00000E+00         0.00000E+00        -0.25804E+06
 
   -0.98953E-09         0.72280E-10         0.00000E+00
    0.72280E-10        -0.51612E+06         0.00000E+00
    0.00000E+00         0.00000E+00        -0.25804E+06
 
    0.14261E-08        -0.57824E-09         0.00000E+00
   -0.57824E-09        -0.51611E+06         0.00000E+00
    0.00000E+00         0.00000E+00        -0.25803E+06
 
    0.15352E-08        -0.50596E-09         0.00000E+00
   -0.50596E-09        -0.51611E+06         0.00000E+00
    0.00000E+00         0.00000E+00        -0.25803E+06
 
    0.15061E-08         0.25298E-09         0.00000E+00
    0.25298E-09        -0.51611E+06         0.00000E+00
    0.00000E+00         0.00000E+00        -0.25803E+06
 
    0.13970E-08         0.14456E-09         0.00000E+00
    0.14456E-09        -0.51611E+06         0.00000E+00
    0.00000E+00         0.00000E+00        -0.25803E+06
 
    0.20664E-08        -0.36140E-10         0.00000E+00
   -0.36140E-10        -0.51611E+06         0.00000E+00
    0.00000E+00         0.00000E+00        -0.25803E+06
 
    0.29104E-09         0.36140E-09         0.00000E+00
    0.36140E-09        -0.51611E+06         0.00000E+00
    0.00000E+00         0.00000E+00        -0.25803E+06
 
    0.85856E-09         0.36140E-09         0.00000E+00
    0.36140E-09        -0.51611E+06         0.00000E+00
    0.00000E+00         0.00000E+00        -0.25803E+06
 
    0.17099E-08        -0.14456E-09         0.00000E+00
   -0.14456E-09        -0.51611E+06         0.00000E+00
    0.00000E+00         0.00000E+00        -0.25803E+06
 
    0.52387E-09         0.57824E-09         0.00000E+00
    0.57824E-09        -0.51611E+06         0.00000E+00
    0.00000E+00         0.00000E+00        -0.25803E+06
 
    0.80036E-10         0.00000E+00         0.00000E+00
    0.00000E+00        -0.51611E+06         0.00000E+00
    0.00000E+00         0.00000E+00        -0.25803E+06
 
   -0.26921E-09         0.21684E-09         0.00000E+00
    0.21684E-09        -0.51611E+06         0.00000E+00
    0.00000E+00         0.00000E+00        -0.25803E+06
 
   -0.45111E-09         0.21684E-09         0.00000E+00
    0.21684E-09        -0.51611E+06         0.00000E+00
    0.00000E+00         0.00000E+00        -0.25803E+06
 
    0.10186E-09         0.50596E-09         0.00000E+00
    0.50596E-09        -0.51611E+06         0.00000E+00
    0.00000E+00         0.00000E+00        -0.25803E+06
 
    0.29104E-09         0.21684E-09         0.00000E+00
    0.21684E-09        -0.51611E+06         0.00000E+00
    0.00000E+00         0.00000E+00        -0.25803E+06
 
   -0.49477E-09         0.00000E+00         0.00000E+00
    0.00000E+00        -0.51611E+06         0.00000E+00
    0.00000E+00         0.00000E+00        -0.25803E+06
 
   -0.13606E-08        -0.54210E-09         0.00000E+00
   -0.54210E-09        -0.51610E+06         0.00000E+00
    0.00000E+00         0.00000E+00        -0.25801E+06
 
   -0.10841E-08         0.86736E-09         0.00000E+00
    0.86736E-09        -0.51610E+06         0.00000E+00
    0.00000E+00         0.00000E+00        -0.25801E+06
 
   -0.10768E-08         0.00000E+00         0.00000E+00
    0.00000E+00        -0.51610E+06         0.00000E+00
    0.00000E+00         0.00000E+00        -0.25801E+06
 
    0.85856E-09        -0.36140E-10         0.00000E+00
   -0.36140E-10        -0.51610E+06         0.00000E+00
    0.00000E+00         0.00000E+00        -0.25801E+06
 
    0.13824E-09         0.21684E-09         0.00000E+00
    0.21684E-09        -0.51610E+06         0.00000E+00
    0.00000E+00         0.00000E+00        -0.25801E+06
 
    0.24738E-09         0.28912E-09         0.00000E+00
    0.28912E-09        -0.51610E+06         0.00000E+00
    0.00000E+00         0.00000E+00        -0.25801E+06
 
   -0.80036E-09         0.00000E+00         0.00000E+00
    0.00000E+00        -0.51610E+06         0.00000E+00
    0.00000E+00         0.00000E+00        -0.25801E+06
 
    0.72032E-09         0.21684E-09         0.00000E+00
    0.21684E-09        -0.51610E+06         0.00000E+00
    0.00000E+00         0.00000E+00        -0.25801E+06
 
   -0.50932E-10         0.28912E-09         0.00000E+00
    0.28912E-09        -0.51610E+06         0.00000E+00
    0.00000E+00         0.00000E+00        -0.25801E+06
 
   -0.34197E-09         0.00000E+00         0.00000E+00
    0.00000E+00        -0.51610E+06         0.00000E+00
    0.00000E+00         0.00000E+00        -0.25801E+06
 
   -0.82218E-09        -0.86736E-09         0.00000E+00
   -0.86736E-09        -0.51610E+06         0.00000E+00
    0.00000E+00         0.00000E+00        -0.25801E+06
 
   -0.64756E-09        -0.72280E-10         0.00000E+00
   -0.72280E-10        -0.51610E+06         0.00000E+00
    0.00000E+00         0.00000E+00        -0.25801E+06
 
   -0.10987E-08        -0.14456E-09         0.00000E+00
   -0.14456E-09        -0.51610E+06         0.00000E+00
    0.00000E+00         0.00000E+00        -0.25801E+06
 
   -0.40018E-09        -0.14456E-09         0.00000E+00
   -0.14456E-09        -0.51610E+06         0.00000E+00
    0.00000E+00         0.00000E+00        -0.25801E+06
 
   -0.95315E-09        -0.14456E-09         0.00000E+00
   -0.14456E-09        -0.51610E+06         0.00000E+00
    0.00000E+00         0.00000E+00        -0.25801E+06
 
    0.14843E-08        -0.54210E-09         0.00000E+00
   -0.54210E-09        -0.51609E+06         0.00000E+00
    0.00000E+00         0.00000E+00        -0.25800E+06
 
    0.29104E-10        -0.25298E-09         0.00000E+00
   -0.25298E-09        -0.51609E+06         0.00000E+00
    0.00000E+00         0.00000E+00        -0.25800E+06
 
    0.36016E-08        -0.36140E-09         0.00000E+00
   -0.36140E-09        -0.51609E+06         0.00000E+00
    0.00000E+00         0.00000E+00        -0.25800E+06
 
    0.22410E-08        -0.36140E-10         0.00000E+00
   -0.36140E-10        -0.51609E+06         0.00000E+00
    0.00000E+00         0.00000E+00        -0.25800E+06
 
    0.58208E-10         0.16624E-08         0.00000E+00
    0.16624E-08        -0.51609E+06         0.00000E+00
    0.00000E+00         0.00000E+00        -0.25800E+06
 
   -0.24738E-09        -0.50596E-09         0.00000E+00
   -0.50596E-09        -0.51609E+06         0.00000E+00
    0.00000E+00         0.00000E+00        -0.25800E+06
 
   -0.10405E-08         0.57824E-09         0.00000E+00
    0.57824E-09        -0.51609E+06         0.00000E+00
    0.00000E+00         0.00000E+00        -0.25800E+06
 
   -0.13606E-08        -0.14456E-08         0.00000E+00
   -0.14456E-08        -0.51609E+06         0.00000E+00
    0.00000E+00         0.00000E+00        -0.25800E+06
 
    0.61846E-09         0.28912E-09         0.00000E+00
    0.28912E-09        -0.51609E+06         0.00000E+00
    0.00000E+00         0.00000E+00        -0.25800E+06
 
   -0.50932E-09        -0.21684E-09         0.00000E+00
   -0.21684E-09        -0.51609E+06         0.00000E+00
    0.00000E+00         0.00000E+00        -0.25800E+06
 
   -0.69122E-09         0.14456E-09         0.00000E+00
    0.14456E-09        -0.51609E+06         0.00000E+00
    0.00000E+00         0.00000E+00        -0.25800E+06
 
   -0.12369E-09        -0.21684E-09         0.00000E+00
   -0.21684E-09        -0.51609E+06         0.00000E+00
    0.00000E+00         0.00000E+00        -0.25800E+06
 
    0.17390E-08         0.72280E-10         0.00000E+00
    0.72280E-10        -0.51609E+06         0.00000E+00
    0.00000E+00         0.00000E+00        -0.25800E+06
 
    0.63301E-09         0.36140E-09         0.00000E+00
    0.36140E-09        -0.51609E+06         0.00000E+00
    0.00000E+00         0.00000E+00        -0.25800E+06
 
   -0.12806E-08        -0.36140E-09         0.00000E+00
   -0.36140E-09        -0.51609E+06         0.00000E+00
    0.00000E+00         0.00000E+00        -0.25800E+06
 
   -0.14552E-10        -0.18070E-09         0.00000E+00
   -0.18070E-09        -0.51607E+06         0.00000E+00
    0.00000E+00         0.00000E+00        -0.25799E+06
 
   -0.64028E-09         0.00000E+00         0.00000E+00
    0.00000E+00        -0.51607E+06         0.00000E+00
    0.00000E+00         0.00000E+00        -0.25799E+06
 
   -0.16735E-08        -0.83122E-09         0.00000E+00
   -0.83122E-09        -0.51607E+06         0.00000E+00
    0.00000E+00         0.00000E+00        -0.25799E+06
 
   -0.10477E-08        -0.72280E-10         0.00000E+00
   -0.72280E-10        -0.51607E+06         0.00000E+00
    0.00000E+00         0.00000E+00        -0.25799E+06
 
   -0.26193E-09         0.11565E-08         0.00000E+00
    0.11565E-08        -0.51607E+06         0.00000E+00
    0.00000E+00         0.00000E+00        -0.25799E+06
 
    0.48749E-09        -0.93964E-09         0.00000E+00
   -0.93964E-09        -0.51607E+06         0.00000E+00
    0.00000E+00         0.00000E+00        -0.25799E+06
 
    0.22046E-08         0.28912E-09         0.00000E+00
    0.28912E-09        -0.51607E+06         0.00000E+00
    0.00000E+00         0.00000E+00        -0.25799E+06
 
   -0.15280E-09         0.79508E-09         0.00000E+00
    0.79508E-09        -0.51607E+06         0.00000E+00
    0.00000E+00         0.00000E+00        -0.25799E+06
 
   -0.15352E-08        -0.43368E-09         0.00000E+00
   -0.43368E-09        -0.51607E+06         0.00000E+00
    0.00000E+00         0.00000E+00        -0.25799E+06
 
    0.96770E-09        -0.50596E-09         0.00000E+00
   -0.50596E-09        -0.51607E+06         0.00000E+00
    0.00000E+00         0.00000E+00        -0.25799E+06
 
    0.27649E-09         0.13010E-08         0.00000E+00
    0.13010E-08        -0.51607E+06         0.00000E+00
    0.00000E+00         0.00000E+00        -0.25799E+06
 
   -0.49477E-09        -0.93964E-09         0.00000E+00
   -0.93964E-09        -0.51607E+06         0.00000E+00
    0.00000E+00         0.00000E+00        -0.25799E+06
 
    0.29104E-09        -0.72280E-10         0.00000E+00
   -0.72280E-10        -0.51607E+06         0.00000E+00
    0.00000E+00         0.00000E+00        -0.25799E+06
 
    0.84401E-09        -0.72280E-10         0.00000E+00
   -0.72280E-10        -0.51607E+06         0.00000E+00
    0.00000E+00         0.00000E+00        -0.25799E+06
 
   -0.18917E-09         0.10119E-08         0.00000E+00
    0.10119E-08        -0.51607E+06         0.00000E+00
    0.00000E+00         0.00000E+00        -0.25799E+06
 
   -0.12369E-09        -0.65052E-09         0.00000E+00
   -0.65052E-09        -0.51605E+06         0.00000E+00
    0.00000E+00         0.00000E+00        -0.25797E+06
 
   -0.58935E-09         0.39754E-09         0.00000E+00
    0.39754E-09        -0.51605E+06         0.00000E+00
    0.00000E+00         0.00000E+00        -0.25797E+06
 
    0.85856E-09        -0.21684E-09         0.00000E+00
   -0.21684E-09        -0.51605E+06         0.00000E+00
    0.00000E+00         0.00000E+00        -0.25797E+06
 
   -0.72760E-11         0.21684E-09         0.00000E+00
    0.21684E-09        -0.51605E+06         0.00000E+00
    0.00000E+00         0.00000E+00        -0.25797E+06
 
    0.13388E-08        -0.36140E-09         0.00000E+00
   -0.36140E-09        -0.51605E+06         0.00000E+00
    0.00000E+00         0.00000E+00        -0.25797E+06
 
   -0.21100E-09        -0.72280E-10         0.00000E+00
   -0.72280E-10        -0.51605E+06         0.00000E+00
    0.00000E+00         0.00000E+00        -0.25797E+06
 
   -0.32160E-08        -0.21684E-09         0.00000E+00
   -0.21684E-09        -0.51605E+06         0.00000E+00
    0.00000E+00         0.00000E+00        -0.25797E+06
 
   -0.43656E-10         0.15902E-08         0.00000E+00
    0.15902E-08        -0.51605E+06         0.00000E+00
    0.00000E+00         0.00000E+00        -0.25797E+06
 
    0.13533E-08        -0.36140E-09         0.00000E+00
   -0.36140E-09        -0.51605E+06         0.00000E+00
    0.00000E+00         0.00000E+00        -0.25797E+06
 
   -0.12806E-08        -0.79508E-09         0.00000E+00
   -0.79508E-09        -0.51605E+06         0.00000E+00
    0.00000E+00         0.00000E+00        -0.25797E+06
 
    0.15280E-08         0.21684E-09         0.00000E+00
    0.21684E-09        -0.51605E+06         0.00000E+00
    0.00000E+00         0.00000E+00        -0.25797E+06
 
    0.91677E-09        -0.65052E-09         0.00000E+00
   -0.65052E-09        -0.51605E+06         0.00000E+00
    0.00000E+00         0.00000E+00        -0.25797E+06
 
    0.56752E-09        -0.36140E-09         0.00000E+00
   -0.36140E-09        -0.51605E+06         0.00000E+00
    0.00000E+00         0.00000E+00        -0.25797E+06
 
   -0.18481E-08        -0.79508E-09         0.00000E+00
   -0.79508E-09        -0.51605E+06         0.00000E+00
    0.00000E+00         0.00000E+00        -0.25797E+06
 
   -0.10114E-08         0.65052E-09         0.00000E+00
    0.65052E-09        -0.51605E+06         0.00000E+00
    0.00000E+00         0.00000E+00        -0.25797E+06
 
    0.45839E-09         0.36140E-10         0.00000E+00
    0.36140E-10        -0.51603E+06         0.00000E+00
    0.00000E+00         0.00000E+00        -0.25794E+06
 
    0.90222E-09         0.36140E-10         0.00000E+00
    0.36140E-10        -0.51603E+06         0.00000E+00
    0.00000E+00         0.00000E+00        -0.25794E+06
 
    0.80036E-10        -0.72280E-10         0.00000E+00
   -0.72280E-10        -0.51603E+06         0.00000E+00
    0.00000E+00         0.00000E+00        -0.25794E+06
 
   -0.13097E-09        -0.72280E-10         0.00000E+00
   -0.72280E-10        -0.51603E+06         0.00000E+00
    0.00000E+00         0.00000E+00        -0.25794E+06
 
   -0.35652E-09         0.50596E-09         0.00000E+00
    0.50596E-09        -0.51603E+06         0.00000E+00
    0.00000E+00         0.00000E+00        -0.25794E+06
 
   -0.32014E-09         0.36140E-09         0.00000E+00
    0.36140E-09        -0.51603E+06         0.00000E+00
    0.00000E+00         0.00000E+00        -0.25794E+06
 
    0.35652E-09        -0.14456E-09         0.00000E+00
   -0.14456E-09        -0.51603E+06         0.00000E+00
    0.00000E+00         0.00000E+00        -0.25794E+06
 
    0.20227E-08         0.14456E-09         0.00000E+00
    0.14456E-09        -0.51603E+06         0.00000E+00
    0.00000E+00         0.00000E+00        -0.25794E+06
 
   -0.45111E-09         0.10119E-08         0.00000E+00
    0.10119E-08        -0.51603E+06         0.00000E+00
    0.00000E+00         0.00000E+00        -0.25794E+06
 
   -0.20809E-08        -0.21684E-09         0.00000E+00
   -0.21684E-09        -0.51603E+06         0.00000E+00
    0.00000E+00         0.00000E+00        -0.25794E+06
 
    0.14843E-08        -0.65052E-09         0.00000E+00
   -0.65052E-09        -0.51603E+06         0.00000E+00
    0.00000E+00         0.00000E+00        -0.25794E+06
 
    0.20227E-08         0.10119E-08         0.00000E+00
    0.10119E-08        -0.51603E+06         0.00000E+00
    0.00000E+00         0.00000E+00        -0.25794E+06
 
   -0.74215E-09         0.00000E+00         0.00000E+00
    0.00000E+00        -0.51603E+06         0.00000E+00
    0.00000E+00         0.00000E+00        -0.25794E+06
 
    0.23283E-09        -0.28912E-09         0.00000E+00
   -0.28912E-09        -0.51603E+06         0.00000E+00
    0.00000E+00         0.00000E+00        -0.25794E+06
 
    0.17462E-09         0.50596E-09         0.00000E+00
    0.50596E-09        -0.51603E+06         0.00000E+00
    0.00000E+00         0.00000E+00        -0.25794E+06
 
    0.72760E-10         0.21684E-09         0.00000E+00
    0.21684E-09        -0.51600E+06         0.00000E+00
    0.00000E+00         0.00000E+00        -0.25792E+06
 
    0.85129E-09        -0.72280E-09         0.00000E+00
   -0.72280E-09        -0.51600E+06         0.00000E+00
    0.00000E+00         0.00000E+00        -0.25792E+06
 
    0.13533E-08         0.11565E-08         0.00000E+00
    0.11565E-08        -0.51600E+06         0.00000E+00
    0.00000E+00         0.00000E+00        -0.25792E+06
 
   -0.22555E-09        -0.72280E-10         0.00000E+00
   -0.72280E-10        -0.51600E+06         0.00000E+00
    0.00000E+00         0.00000E+00        -0.25792E+06
 
   -0.13824E-09        -0.14456E-09         0.00000E+00
   -0.14456E-09        -0.51600E+06         0.00000E+00
    0.00000E+00         0.00000E+00        -0.25792E+06
 
    0.17826E-08        -0.21684E-09         0.00000E+00
   -0.21684E-09        -0.51600E+06         0.00000E+00
    0.00000E+00         0.00000E+00        -0.25792E+06
 
   -0.12587E-08         0.13733E-08         0.00000E+00
    0.13733E-08        -0.51600E+06         0.00000E+00
    0.00000E+00         0.00000E+00        -0.25792E+06
 
   -0.20082E-08        -0.13010E-08         0.00000E+00
   -0.13010E-08        -0.51600E+06         0.00000E+00
    0.00000E+00         0.00000E+00        -0.25792E+06
 
    0.41473E-09         0.28912E-09         0.00000E+00
    0.28912E-09        -0.51600E+06         0.00000E+00
    0.00000E+00         0.00000E+00        -0.25792E+06
 
    0.25320E-08        -0.28912E-09         0.00000E+00
   -0.28912E-09        -0.51600E+06         0.00000E+00
    0.00000E+00         0.00000E+00        -0.25792E+06
 
   -0.37107E-09        -0.11565E-08         0.00000E+00
   -0.11565E-08        -0.51600E+06         0.00000E+00
    0.00000E+00         0.00000E+00        -0.25792E+06
 
   -0.96770E-09         0.57824E-09         0.00000E+00
    0.57824E-09        -0.51600E+06         0.00000E+00
    0.00000E+00         0.00000E+00        -0.25792E+06
 
    0.48021E-09         0.00000E+00         0.00000E+00
    0.00000E+00        -0.51600E+06         0.00000E+00
    0.00000E+00         0.00000E+00        -0.25792E+06
 
    0.10914E-08         0.28912E-09         0.00000E+00
    0.28912E-09        -0.51600E+06         0.00000E+00
    0.00000E+00         0.00000E+00        -0.25792E+06
 
    0.16662E-08        -0.14456E-09         0.00000E+00
   -0.14456E-09        -0.51600E+06         0.00000E+00
    0.00000E+00         0.00000E+00        -0.25792E+06
 
    0.26484E-08        -0.43368E-09         0.00000E+00
   -0.43368E-09        -0.51597E+06         0.00000E+00
    0.00000E+00         0.00000E+00        -0.25788E+06
 
    0.98953E-09        -0.57824E-09         0.00000E+00
   -0.57824E-09        -0.51597E+06         0.00000E+00
    0.00000E+00         0.00000E+00        -0.25788E+06
 
    0.81491E-09         0.10119E-08         0.00000E+00
    0.10119E-08        -0.51597E+06         0.00000E+00
    0.00000E+00         0.00000E+00        -0.25788E+06
 
    0.15352E-08         0.14456E-09         0.00000E+00
    0.14456E-09        -0.51597E+06         0.00000E+00
    0.00000E+00         0.00000E+00        -0.25788E+06
 
    0.18117E-08         0.28912E-09         0.00000E+00
    0.28912E-09        -0.51597E+06         0.00000E+00
    0.00000E+00         0.00000E+00        -0.25788E+06
 
   -0.13824E-09        -0.57824E-09         0.00000E+00
   -0.57824E-09        -0.51597E+06         0.00000E+00
    0.00000E+00         0.00000E+00        -0.25788E+06
 
    0.90949E-09        -0.72280E-10         0.00000E+00
   -0.72280E-10        -0.51597E+06         0.00000E+00
    0.00000E+00         0.00000E+00        -0.25788E+06
 
    0.24156E-08         0.50596E-09         0.00000E+00
    0.50596E-09        -0.51597E+06         0.00000E+00
    0.00000E+00         0.00000E+00        -0.25788E+06
 
    0.27430E-08        -0.13733E-08         0.00000E+00
   -0.13733E-08        -0.51597E+06         0.00000E+00
    0.00000E+00         0.00000E+00        -0.25788E+06
 
   -0.13461E-08         0.21684E-09         0.00000E+00
    0.21684E-09        -0.51597E+06         0.00000E+00
    0.00000E+00         0.00000E+00        -0.25788E+06
 
   -0.10186E-09         0.28912E-09         0.00000E+00
    0.28912E-09        -0.51597E+06         0.00000E+00
    0.00000E+00         0.00000E+00        -0.25788E+06
 
   -0.16807E-08         0.11565E-08         0.00000E+00
    0.11565E-08        -0.51597E+06         0.00000E+00
    0.00000E+00         0.00000E+00        -0.25788E+06
 
    0.14552E-09        -0.50596E-09         0.00000E+00
   -0.50596E-09        -0.51597E+06         0.00000E+00
    0.00000E+00         0.00000E+00        -0.25788E+06
 
   -0.19863E-08        -0.21684E-09         0.00000E+00
   -0.21684E-09        -0.51597E+06         0.00000E+00
    0.00000E+00         0.00000E+00        -0.25788E+06
 
   -0.20955E-08         0.57824E-09         0.00000E+00
    0.57824E-09        -0.51597E+06         0.00000E+00
    0.00000E+00         0.00000E+00        -0.25788E+06
 
    0.21828E-10        -0.36140E-09         0.00000E+00
   -0.36140E-09        -0.51593E+06         0.00000E+00
    0.00000E+00         0.00000E+00        -0.25784E+06
 
    0.87311E-10         0.14456E-08         0.00000E+00
    0.14456E-08        -0.51593E+06         0.00000E+00
    0.00000E+00         0.00000E+00        -0.25784E+06
 
   -0.21828E-10         0.28912E-09         0.00000E+00
    0.28912E-09        -0.51593E+06         0.00000E+00
    0.00000E+00         0.00000E+00        -0.25784E+06
 
   -0.45839E-09         0.13010E-08         0.00000E+00
    0.13010E-08        -0.51593E+06         0.00000E+00
    0.00000E+00         0.00000E+00        -0.25784E+06
 
    0.74942E-09        -0.93964E-09         0.00000E+00
   -0.93964E-09        -0.51593E+06         0.00000E+00
    0.00000E+00         0.00000E+00        -0.25784E+06
 
   -0.32742E-09         0.57824E-09         0.00000E+00
    0.57824E-09        -0.51593E+06         0.00000E+00
    0.00000E+00         0.00000E+00        -0.25784E+06
 
   -0.18408E-08         0.00000E+00         0.00000E+00
    0.00000E+00        -0.51593E+06         0.00000E+00
    0.00000E+00         0.00000E+00        -0.25784E+06
 
   -0.77853E-09        -0.50596E-09         0.00000E+00
   -0.50596E-09        -0.51593E+06         0.00000E+00
    0.00000E+00         0.00000E+00        -0.25784E+06
 
   -0.21828E-09         0.65052E-09         0.00000E+00
    0.65052E-09        -0.51593E+06         0.00000E+00
    0.00000E+00         0.00000E+00        -0.25784E+06
 
   -0.16007E-08        -0.65052E-09         0.00000E+00
   -0.65052E-09        -0.51593E+06         0.00000E+00
    0.00000E+00         0.00000E+00        -0.25784E+06
 
   -0.72760E-11         0.72280E-10         0.00000E+00
    0.72280E-10        -0.51593E+06         0.00000E+00
    0.00000E+00         0.00000E+00        -0.25784E+06
 
    0.10186E-09        -0.21684E-09         0.00000E+00
   -0.21684E-09        -0.51593E+06         0.00000E+00
    0.00000E+00         0.00000E+00        -0.25784E+06
 
    0.17244E-08        -0.50596E-09         0.00000E+00
   -0.50596E-09        -0.51593E+06         0.00000E+00
    0.00000E+00         0.00000E+00        -0.25784E+06
 
   -0.64028E-09         0.72280E-09         0.00000E+00
    0.72280E-09        -0.51593E+06         0.00000E+00
    0.00000E+00         0.00000E+00        -0.25784E+06
 
   -0.21391E-08         0.14456E-09         0.00000E+00
    0.14456E-09        -0.51593E+06         0.00000E+00
    0.00000E+00         0.00000E+00        -0.25784E+06
 
    0.92405E-09         0.11565E-08         0.00000E+00
    0.11565E-08        -0.51588E+06         0.00000E+00
    0.00000E+00         0.00000E+00        -0.25780E+06
 
    0.10841E-08        -0.28912E-09         0.00000E+00
   -0.28912E-09        -0.51588E+06         0.00000E+00
    0.00000E+00         0.00000E+00        -0.25780E+06
 
   -0.69849E-09         0.21684E-09         0.00000E+00
    0.21684E-09        -0.51588E+06         0.00000E+00
    0.00000E+00         0.00000E+00        -0.25780E+06
 
   -0.44383E-09         0.13733E-08         0.00000E+00
    0.13733E-08        -0.51588E+06         0.00000E+00
    0.00000E+00         0.00000E+00        -0.25780E+06
 
   -0.13606E-08        -0.65052E-09         0.00000E+00
   -0.65052E-09        -0.51588E+06         0.00000E+00
    0.00000E+00         0.00000E+00        -0.25780E+06
 
   -0.74942E-09         0.93964E-09         0.00000E+00
    0.93964E-09        -0.51588E+06         0.00000E+00
    0.00000E+00         0.00000E+00        -0.25780E+06
 
   -0.31287E-09         0.86736E-09         0.00000E+00
    0.86736E-09        -0.51588E+06         0.00000E+00
    0.00000E+00         0.00000E+00        -0.25780E+06
 
   -0.10259E-08        -0.79508E-09         0.00000E+00
   -0.79508E-09        -0.51588E+06         0.00000E+00
    0.00000E+00         0.00000E+00        -0.25780E+06
 
   -0.48021E-09         0.86736E-09         0.00000E+00
    0.86736E-09        -0.51588E+06         0.00000E+00
    0.00000E+00         0.00000E+00        -0.25780E+06
 
   -0.63301E-09         0.36140E-09         0.00000E+00
    0.36140E-09        -0.51588E+06         0.00000E+00
    0.00000E+00         0.00000E+00        -0.25780E+06
 
   -0.18481E-08         0.57824E-09         0.00000E+00
    0.57824E-09        -0.51588E+06         0.00000E+00
    0.00000E+00         0.00000E+00        -0.25780E+06
 
   -0.34925E-09        -0.57824E-09         0.00000E+00
   -0.57824E-09        -0.51588E+06         0.00000E+00
    0.00000E+00         0.00000E+00        -0.25780E+06
 
   -0.21100E-08        -0.72280E-10         0.00000E+00
   -0.72280E-10        -0.51588E+06         0.00000E+00
    0.00000E+00         0.00000E+00        -0.25780E+06
 
    0.63301E-09         0.28912E-09         0.00000E+00
    0.28912E-09        -0.51588E+06         0.00000E+00
    0.00000E+00         0.00000E+00        -0.25780E+06
 
    0.69849E-09         0.00000E+00         0.00000E+00
    0.00000E+00        -0.51588E+06         0.00000E+00
    0.00000E+00         0.00000E+00        -0.25780E+06
 
    0.16371E-08         0.13733E-08         0.00000E+00
    0.13733E-08        -0.51582E+06         0.00000E+00
    0.00000E+00         0.00000E+00        -0.25774E+06
 
   -0.98953E-09        -0.65052E-09         0.00000E+00
   -0.65052E-09        -0.51582E+06         0.00000E+00
    0.00000E+00         0.00000E+00        -0.25774E+06
 
    0.14843E-08         0.36140E-09         0.00000E+00
    0.36140E-09        -0.51582E+06         0.00000E+00
    0.00000E+00         0.00000E+00        -0.25774E+06
 
    0.45184E-08         0.72280E-10         0.00000E+00
    0.72280E-10        -0.51582E+06         0.00000E+00
    0.00000E+00         0.00000E+00        -0.25774E+06
 
    0.44965E-08         0.72280E-10         0.00000E+00
    0.72280E-10        -0.51582E+06         0.00000E+00
    0.00000E+00         0.00000E+00        -0.25774E+06
 
   -0.14625E-08         0.12288E-08         0.00000E+00
    0.12288E-08        -0.51582E+06         0.00000E+00
    0.00000E+00         0.00000E+00        -0.25774E+06
 
   -0.12442E-08         0.72280E-10         0.00000E+00
    0.72280E-10        -0.51582E+06         0.00000E+00
    0.00000E+00         0.00000E+00        -0.25774E+06
 
    0.14625E-08         0.50596E-09         0.00000E+00
    0.50596E-09        -0.51582E+06         0.00000E+00
    0.00000E+00         0.00000E+00        -0.25774E+06
 
    0.15498E-08         0.72280E-09         0.00000E+00
    0.72280E-09        -0.51582E+06         0.00000E+00
    0.00000E+00         0.00000E+00        -0.25774E+06
 
   -0.21973E-08        -0.50596E-09         0.00000E+00
   -0.50596E-09        -0.51582E+06         0.00000E+00
    0.00000E+00         0.00000E+00        -0.25774E+06
 
    0.26193E-09         0.28912E-09         0.00000E+00
    0.28912E-09        -0.51582E+06         0.00000E+00
    0.00000E+00         0.00000E+00        -0.25774E+06
 
   -0.22410E-08        -0.57824E-09         0.00000E+00
   -0.57824E-09        -0.51582E+06         0.00000E+00
    0.00000E+00         0.00000E+00        -0.25774E+06
 
   -0.64756E-09         0.72280E-09         0.00000E+00
    0.72280E-09        -0.51582E+06         0.00000E+00
    0.00000E+00         0.00000E+00        -0.25774E+06
 
    0.57480E-09        -0.50596E-09         0.00000E+00
   -0.50596E-09        -0.51582E+06         0.00000E+00
    0.00000E+00         0.00000E+00        -0.25774E+06
 
    0.11496E-08        -0.72280E-10         0.00000E+00
   -0.72280E-10        -0.51582E+06         0.00000E+00
    0.00000E+00         0.00000E+00        -0.25774E+06
 
    0.54570E-09         0.57824E-09         0.00000E+00
    0.57824E-09        -0.51576E+06         0.00000E+00
    0.00000E+00         0.00000E+00        -0.25767E+06
 
    0.53114E-09        -0.79508E-09         0.00000E+00
   -0.79508E-09        -0.51576E+06         0.00000E+00
    0.00000E+00         0.00000E+00        -0.25767E+06
 
   -0.22119E-08         0.86736E-09         0.00000E+00
    0.86736E-09        -0.51576E+06         0.00000E+00
    0.00000E+00         0.00000E+00        -0.25767E+06
 
   -0.26484E-08         0.00000E+00         0.00000E+00
    0.00000E+00        -0.51576E+06         0.00000E+00
    0.00000E+00         0.00000E+00        -0.25767E+06
 
   -0.25975E-08        -0.72280E-10         0.00000E+00
   -0.72280E-10        -0.51576E+06         0.00000E+00
    0.00000E+00         0.00000E+00        -0.25767E+06
 
    0.27940E-08         0.36140E-09         0.00000E+00
    0.36140E-09        -0.51576E+06         0.00000E+00
    0.00000E+00         0.00000E+00        -0.25767E+06
 
    0.28376E-08        -0.72280E-10         0.00000E+00
   -0.72280E-10        -0.51576E+06         0.00000E+00
    0.00000E+00         0.00000E+00        -0.25767E+06
 
    0.66211E-09         0.50596E-09         0.00000E+00
    0.50596E-09        -0.51576E+06         0.00000E+00
    0.00000E+00         0.00000E+00        -0.25767E+06
 
    0.14115E-08         0.21684E-09         0.00000E+00
    0.21684E-09        -0.51576E+06         0.00000E+00
    0.00000E+00         0.00000E+00        -0.25767E+06
 
    0.12369E-09        -0.57824E-09         0.00000E+00
   -0.57824E-09        -0.51576E+06         0.00000E+00
    0.00000E+00         0.00000E+00        -0.25767E+06
 
   -0.71304E-09         0.72280E-09         0.00000E+00
    0.72280E-09        -0.51576E+06         0.00000E+00
    0.00000E+00         0.00000E+00        -0.25767E+06
 
    0.40745E-09         0.14456E-09         0.00000E+00
    0.14456E-09        -0.51576E+06         0.00000E+00
    0.00000E+00         0.00000E+00        -0.25767E+06
 
   -0.15425E-08         0.00000E+00         0.00000E+00
    0.00000E+00        -0.51576E+06         0.00000E+00
    0.00000E+00         0.00000E+00        -0.25767E+06
 
   -0.13024E-08         0.12288E-08         0.00000E+00
    0.12288E-08        -0.51576E+06         0.00000E+00
    0.00000E+00         0.00000E+00        -0.25767E+06
 
   -0.12806E-08        -0.21684E-09         0.00000E+00
   -0.21684E-09        -0.51576E+06         0.00000E+00
    0.00000E+00         0.00000E+00        -0.25767E+06
 
    0.28303E-08         0.00000E+00         0.00000E+00
    0.00000E+00        -0.51568E+06         0.00000E+00
    0.00000E+00         0.00000E+00        -0.25759E+06
 
    0.24083E-08         0.00000E+00         0.00000E+00
    0.00000E+00        -0.51568E+06         0.00000E+00
    0.00000E+00         0.00000E+00        -0.25759E+06
 
    0.11714E-08         0.00000E+00         0.00000E+00
    0.00000E+00        -0.51568E+06         0.00000E+00
    0.00000E+00         0.00000E+00        -0.25759E+06
 
    0.24593E-08        -0.72280E-10         0.00000E+00
   -0.72280E-10        -0.51568E+06         0.00000E+00
    0.00000E+00         0.00000E+00        -0.25759E+06
 
    0.61846E-09        -0.43368E-09         0.00000E+00
   -0.43368E-09        -0.51568E+06         0.00000E+00
    0.00000E+00         0.00000E+00        -0.25759E+06
 
    0.39799E-08        -0.10119E-08         0.00000E+00
   -0.10119E-08        -0.51568E+06         0.00000E+00
    0.00000E+00         0.00000E+00        -0.25759E+06
 
    0.12005E-08        -0.72280E-10         0.00000E+00
   -0.72280E-10        -0.51568E+06         0.00000E+00
    0.00000E+00         0.00000E+00        -0.25759E+06
 
    0.47294E-09         0.72280E-09         0.00000E+00
    0.72280E-09        -0.51568E+06         0.00000E+00
    0.00000E+00         0.00000E+00        -0.25759E+06
 
   -0.22919E-08        -0.14456E-09         0.00000E+00
   -0.14456E-09        -0.51568E+06         0.00000E+00
    0.00000E+00         0.00000E+00        -0.25759E+06
 
    0.62573E-09         0.28912E-09         0.00000E+00
    0.28912E-09        -0.51568E+06         0.00000E+00
    0.00000E+00         0.00000E+00        -0.25759E+06
 
    0.96043E-09         0.57824E-09         0.00000E+00
    0.57824E-09        -0.51568E+06         0.00000E+00
    0.00000E+00         0.00000E+00        -0.25759E+06
 
   -0.87311E-09         0.13733E-08         0.00000E+00
    0.13733E-08        -0.51568E+06         0.00000E+00
    0.00000E+00         0.00000E+00        -0.25759E+06
 
   -0.79308E-09         0.36140E-09         0.00000E+00
    0.36140E-09        -0.51568E+06         0.00000E+00
    0.00000E+00         0.00000E+00        -0.25759E+06
 
   -0.24520E-08         0.93964E-09         0.00000E+00
    0.93964E-09        -0.51568E+06         0.00000E+00
    0.00000E+00         0.00000E+00        -0.25759E+06
 
    0.10914E-09         0.72280E-10         0.00000E+00
    0.72280E-10        -0.51568E+06         0.00000E+00
    0.00000E+00         0.00000E+00        -0.25759E+06
 
    0.00000E+00        -0.50596E-09         0.00000E+00
   -0.50596E-09        -0.51558E+06         0.00000E+00
    0.00000E+00         0.00000E+00        -0.25750E+06
 
    0.18845E-08         0.36140E-09         0.00000E+00
    0.36140E-09        -0.51558E+06         0.00000E+00
    0.00000E+00         0.00000E+00        -0.25750E+06
 
    0.19572E-08        -0.21684E-09         0.00000E+00
   -0.21684E-09        -0.51558E+06         0.00000E+00
    0.00000E+00         0.00000E+00        -0.25750E+06
 
   -0.21828E-10         0.00000E+00         0.00000E+00
    0.00000E+00        -0.51558E+06         0.00000E+00
    0.00000E+00         0.00000E+00        -0.25750E+06
 
   -0.26921E-09         0.14456E-09         0.00000E+00
    0.14456E-09        -0.51558E+06         0.00000E+00
    0.00000E+00         0.00000E+00        -0.25750E+06
 
    0.58208E-09         0.72280E-10         0.00000E+00
    0.72280E-10        -0.51558E+06         0.00000E+00
    0.00000E+00         0.00000E+00        -0.25750E+06
 
   -0.70577E-09         0.72280E-10         0.00000E+00
    0.72280E-10        -0.51558E+06         0.00000E+00
    0.00000E+00         0.00000E+00        -0.25750E+06
 
    0.44383E-09        -0.43368E-09         0.00000E+00
   -0.43368E-09        -0.51558E+06         0.00000E+00
    0.00000E+00         0.00000E+00        -0.25750E+06
 
    0.41109E-08        -0.10842E-08         0.00000E+00
   -0.10842E-08        -0.51558E+06         0.00000E+00
    0.00000E+00         0.00000E+00        -0.25750E+06
 
   -0.13461E-08         0.65052E-09         0.00000E+00
    0.65052E-09        -0.51558E+06         0.00000E+00
    0.00000E+00         0.00000E+00        -0.25750E+06
 
   -0.34634E-08        -0.72280E-10         0.00000E+00
   -0.72280E-10        -0.51558E+06         0.00000E+00
    0.00000E+00         0.00000E+00        -0.25750E+06
 
   -0.31287E-08         0.36140E-09         0.00000E+00
    0.36140E-09        -0.51558E+06         0.00000E+00
    0.00000E+00         0.00000E+00        -0.25750E+06
 
   -0.10186E-09        -0.72280E-10         0.00000E+00
   -0.72280E-10        -0.51558E+06         0.00000E+00
    0.00000E+00         0.00000E+00        -0.25750E+06
 
    0.30559E-09        -0.50596E-09         0.00000E+00
   -0.50596E-09        -0.51558E+06         0.00000E+00
    0.00000E+00         0.00000E+00        -0.25750E+06
 
   -0.26921E-09         0.72280E-10         0.00000E+00
    0.72280E-10        -0.51558E+06         0.00000E+00
    0.00000E+00         0.00000E+00        -0.25750E+06
 
   -0.65484E-10         0.72280E-10         0.00000E+00
    0.72280E-10        -0.51547E+06         0.00000E+00
    0.00000E+00         0.00000E+00        -0.25738E+06
 
   -0.13169E-08         0.36140E-09         0.00000E+00
    0.36140E-09        -0.51547E+06         0.00000E+00
    0.00000E+00         0.00000E+00        -0.25738E+06
 
   -0.40745E-09        -0.14456E-09         0.00000E+00
   -0.14456E-09        -0.51547E+06         0.00000E+00
    0.00000E+00         0.00000E+00        -0.25738E+06
 
   -0.12369E-09         0.14456E-09         0.00000E+00
    0.14456E-09        -0.51547E+06         0.00000E+00
    0.00000E+00         0.00000E+00        -0.25738E+06
 
   -0.12442E-08        -0.21684E-09         0.00000E+00
   -0.21684E-09        -0.51547E+06         0.00000E+00
    0.00000E+00         0.00000E+00        -0.25738E+06
 
   -0.31723E-08         0.00000E+00         0.00000E+00
    0.00000E+00        -0.51547E+06         0.00000E+00
    0.00000E+00         0.00000E+00        -0.25738E+06
 
   -0.26266E-08         0.00000E+00         0.00000E+00
    0.00000E+00        -0.51547E+06         0.00000E+00
    0.00000E+00         0.00000E+00        -0.25738E+06
 
   -0.20664E-08        -0.21684E-09         0.00000E+00
   -0.21684E-09        -0.51547E+06         0.00000E+00
    0.00000E+00         0.00000E+00        -0.25738E+06
 
   -0.21537E-08        -0.72280E-10         0.00000E+00
   -0.72280E-10        -0.51547E+06         0.00000E+00
    0.00000E+00         0.00000E+00        -0.25738E+06
 
    0.48021E-09         0.57824E-09         0.00000E+00
    0.57824E-09        -0.51547E+06         0.00000E+00
    0.00000E+00         0.00000E+00        -0.25738E+06
 
   -0.10914E-08        -0.72280E-10         0.00000E+00
   -0.72280E-10        -0.51547E+06         0.00000E+00
    0.00000E+00         0.00000E+00        -0.25738E+06
 
   -0.13533E-08        -0.14456E-09         0.00000E+00
   -0.14456E-09        -0.51547E+06         0.00000E+00
    0.00000E+00         0.00000E+00        -0.25738E+06
 
   -0.83674E-09         0.72280E-10         0.00000E+00
    0.72280E-10        -0.51547E+06         0.00000E+00
    0.00000E+00         0.00000E+00        -0.25738E+06
 
   -0.14552E-09         0.57824E-09         0.00000E+00
    0.57824E-09        -0.51547E+06         0.00000E+00
    0.00000E+00         0.00000E+00        -0.25738E+06
 
    0.21973E-08        -0.50596E-09         0.00000E+00
   -0.50596E-09        -0.51547E+06         0.00000E+00
    0.00000E+00         0.00000E+00        -0.25738E+06
 
   -0.81491E-09        -0.14456E-09         0.00000E+00
   -0.14456E-09        -0.51533E+06         0.00000E+00
    0.00000E+00         0.00000E+00        -0.25725E+06
 
    0.14406E-08         0.12288E-08         0.00000E+00
    0.12288E-08        -0.51533E+06         0.00000E+00
    0.00000E+00         0.00000E+00        -0.25725E+06
 
    0.31068E-08        -0.79508E-09         0.00000E+00
   -0.79508E-09        -0.51533E+06         0.00000E+00
    0.00000E+00         0.00000E+00        -0.25725E+06
 
    0.16080E-08         0.21684E-08         0.00000E+00
    0.21684E-08        -0.51533E+06         0.00000E+00
    0.00000E+00         0.00000E+00        -0.25725E+06
 
   -0.91677E-09        -0.28912E-09         0.00000E+00
   -0.28912E-09        -0.51533E+06         0.00000E+00
    0.00000E+00         0.00000E+00        -0.25725E+06
 
   -0.29104E-10         0.36140E-09         0.00000E+00
    0.36140E-09        -0.51533E+06         0.00000E+00
    0.00000E+00         0.00000E+00        -0.25725E+06
 
   -0.52387E-09        -0.36140E-09         0.00000E+00
   -0.36140E-09        -0.51533E+06         0.00000E+00
    0.00000E+00         0.00000E+00        -0.25725E+06
 
   -0.50932E-10        -0.72280E-10         0.00000E+00
   -0.72280E-10        -0.51533E+06         0.00000E+00
    0.00000E+00         0.00000E+00        -0.25725E+06
 
   -0.23574E-08         0.14456E-09         0.00000E+00
    0.14456E-09        -0.51533E+06         0.00000E+00
    0.00000E+00         0.00000E+00        -0.25725E+06
 
   -0.23283E-08         0.50596E-09         0.00000E+00
    0.50596E-09        -0.51533E+06         0.00000E+00
    0.00000E+00         0.00000E+00        -0.25725E+06
 
   -0.16007E-08         0.65052E-09         0.00000E+00
    0.65052E-09        -0.51533E+06         0.00000E+00
    0.00000E+00         0.00000E+00        -0.25725E+06
 
   -0.36089E-08        -0.28912E-09         0.00000E+00
   -0.28912E-09        -0.51533E+06         0.00000E+00
    0.00000E+00         0.00000E+00        -0.25725E+06
 
   -0.18699E-08        -0.28912E-09         0.00000E+00
   -0.28912E-09        -0.51533E+06         0.00000E+00
    0.00000E+00         0.00000E+00        -0.25725E+06
 
   -0.18190E-08         0.93964E-09         0.00000E+00
    0.93964E-09        -0.51533E+06         0.00000E+00
    0.00000E+00         0.00000E+00        -0.25725E+06
 
   -0.20445E-08        -0.28912E-09         0.00000E+00
   -0.28912E-09        -0.51533E+06         0.00000E+00
    0.00000E+00         0.00000E+00        -0.25725E+06
 
    0.13606E-08         0.43368E-09         0.00000E+00
    0.43368E-09        -0.51517E+06         0.00000E+00
    0.00000E+00         0.00000E+00        -0.25709E+06
 
   -0.81491E-09         0.10119E-08         0.00000E+00
    0.10119E-08        -0.51517E+06         0.00000E+00
    0.00000E+00         0.00000E+00        -0.25709E+06
 
   -0.21828E-10        -0.16624E-08         0.00000E+00
   -0.16624E-08        -0.51517E+06         0.00000E+00
    0.00000E+00         0.00000E+00        -0.25709E+06
 
   -0.14552E-08        -0.79508E-09         0.00000E+00
   -0.79508E-09        -0.51517E+06         0.00000E+00
    0.00000E+00         0.00000E+00        -0.25709E+06
 
    0.24593E-08        -0.86736E-09         0.00000E+00
   -0.86736E-09        -0.51517E+06         0.00000E+00
    0.00000E+00         0.00000E+00        -0.25709E+06
 
    0.15643E-08        -0.21684E-09         0.00000E+00
   -0.21684E-09        -0.51517E+06         0.00000E+00
    0.00000E+00         0.00000E+00        -0.25709E+06
 
    0.11642E-08         0.21684E-09         0.00000E+00
    0.21684E-09        -0.51517E+06         0.00000E+00
    0.00000E+00         0.00000E+00        -0.25709E+06
 
    0.75670E-09        -0.14456E-09         0.00000E+00
   -0.14456E-09        -0.51517E+06         0.00000E+00
    0.00000E+00         0.00000E+00        -0.25709E+06
 
    0.90949E-09         0.86736E-09         0.00000E+00
    0.86736E-09        -0.51517E+06         0.00000E+00
    0.00000E+00         0.00000E+00        -0.25709E+06
 
   -0.28376E-09         0.50596E-09         0.00000E+00
    0.50596E-09        -0.51517E+06         0.00000E+00
    0.00000E+00         0.00000E+00        -0.25709E+06
 
    0.23283E-08        -0.10842E-08         0.00000E+00
   -0.10842E-08        -0.51517E+06         0.00000E+00
    0.00000E+00         0.00000E+00        -0.25709E+06
 
    0.19063E-08         0.72280E-09         0.00000E+00
    0.72280E-09        -0.51517E+06         0.00000E+00
    0.00000E+00         0.00000E+00        -0.25709E+06
 
    0.21173E-08         0.36140E-09         0.00000E+00
    0.36140E-09        -0.51517E+06         0.00000E+00
    0.00000E+00         0.00000E+00        -0.25709E+06
 
   -0.11714E-08        -0.14456E-09         0.00000E+00
   -0.14456E-09        -0.51517E+06         0.00000E+00
    0.00000E+00         0.00000E+00        -0.25709E+06
 
    0.30050E-08         0.00000E+00         0.00000E+00
    0.00000E+00        -0.51517E+06         0.00000E+00
    0.00000E+00         0.00000E+00        -0.25709E+06
 
   -0.55297E-09         0.28912E-09         0.00000E+00
    0.28912E-09        -0.51498E+06         0.00000E+00
    0.00000E+00         0.00000E+00        -0.25689E+06
 
    0.14916E-08        -0.10119E-08         0.00000E+00
   -0.10119E-08        -0.51498E+06         0.00000E+00
    0.00000E+00         0.00000E+00        -0.25689E+06
 
    0.28303E-08         0.50596E-09         0.00000E+00
    0.50596E-09        -0.51498E+06         0.00000E+00
    0.00000E+00         0.00000E+00        -0.25689E+06
 
    0.13824E-08        -0.28912E-09         0.00000E+00
   -0.28912E-09        -0.51498E+06         0.00000E+00
    0.00000E+00         0.00000E+00        -0.25689E+06
 
    0.16298E-08         0.28912E-09         0.00000E+00
    0.28912E-09        -0.51498E+06         0.00000E+00
    0.00000E+00         0.00000E+00        -0.25689E+06
 
    0.88767E-09        -0.43368E-09         0.00000E+00
   -0.43368E-09        -0.51498E+06         0.00000E+00
    0.00000E+00         0.00000E+00        -0.25689E+06
 
    0.18335E-08         0.36140E-09         0.00000E+00
    0.36140E-09        -0.51498E+06         0.00000E+00
    0.00000E+00         0.00000E+00        -0.25689E+06
 
   -0.29104E-10         0.21684E-09         0.00000E+00
    0.21684E-09        -0.51498E+06         0.00000E+00
    0.00000E+00         0.00000E+00        -0.25689E+06
 
   -0.68394E-09        -0.18793E-08         0.00000E+00
   -0.18793E-08        -0.51498E+06         0.00000E+00
    0.00000E+00         0.00000E+00        -0.25689E+06
 
    0.46566E-09         0.72280E-10         0.00000E+00
    0.72280E-10        -0.51498E+06         0.00000E+00
    0.00000E+00         0.00000E+00        -0.25689E+06
 
    0.36380E-10        -0.72280E-09         0.00000E+00
   -0.72280E-09        -0.51498E+06         0.00000E+00
    0.00000E+00         0.00000E+00        -0.25689E+06
 
    0.16007E-09         0.17347E-08         0.00000E+00
    0.17347E-08        -0.51498E+06         0.00000E+00
    0.00000E+00         0.00000E+00        -0.25689E+06
 
    0.91677E-09        -0.72280E-10         0.00000E+00
   -0.72280E-10        -0.51498E+06         0.00000E+00
    0.00000E+00         0.00000E+00        -0.25689E+06
 
   -0.42201E-09        -0.50596E-09         0.00000E+00
   -0.50596E-09        -0.51498E+06         0.00000E+00
    0.00000E+00         0.00000E+00        -0.25689E+06
 
   -0.95315E-09         0.14456E-09         0.00000E+00
    0.14456E-09        -0.51498E+06         0.00000E+00
    0.00000E+00         0.00000E+00        -0.25689E+06
 
    0.18190E-08         0.65052E-09         0.00000E+00
    0.65052E-09        -0.51475E+06         0.00000E+00
    0.00000E+00         0.00000E+00        -0.25666E+06
 
    0.24738E-09         0.50596E-09         0.00000E+00
    0.50596E-09        -0.51475E+06         0.00000E+00
    0.00000E+00         0.00000E+00        -0.25666E+06
 
    0.26193E-09        -0.65052E-09         0.00000E+00
   -0.65052E-09        -0.51475E+06         0.00000E+00
    0.00000E+00         0.00000E+00        -0.25666E+06
 
    0.21828E-09         0.43368E-09         0.00000E+00
    0.43368E-09        -0.51475E+06         0.00000E+00
    0.00000E+00         0.00000E+00        -0.25666E+06
 
    0.12878E-08         0.50596E-09         0.00000E+00
    0.50596E-09        -0.51475E+06         0.00000E+00
    0.00000E+00         0.00000E+00        -0.25666E+06
 
    0.16953E-08         0.14456E-08         0.00000E+00
    0.14456E-08        -0.51475E+06         0.00000E+00
    0.00000E+00         0.00000E+00        -0.25666E+06
 
   -0.23283E-08         0.72280E-09         0.00000E+00
    0.72280E-09        -0.51475E+06         0.00000E+00
    0.00000E+00         0.00000E+00        -0.25666E+06
 
   -0.12224E-08         0.13010E-08         0.00000E+00
    0.13010E-08        -0.51475E+06         0.00000E+00
    0.00000E+00         0.00000E+00        -0.25666E+06
 
   -0.11350E-08        -0.43368E-09         0.00000E+00
   -0.43368E-09        -0.51475E+06         0.00000E+00
    0.00000E+00         0.00000E+00        -0.25666E+06
 
   -0.43074E-08        -0.72280E-10         0.00000E+00
   -0.72280E-10        -0.51475E+06         0.00000E+00
    0.00000E+00         0.00000E+00        -0.25666E+06
 
   -0.31214E-08         0.00000E+00         0.00000E+00
    0.00000E+00        -0.51475E+06         0.00000E+00
    0.00000E+00         0.00000E+00        -0.25666E+06
 
   -0.30777E-08         0.72280E-10         0.00000E+00
    0.72280E-10        -0.51475E+06         0.00000E+00
    0.00000E+00         0.00000E+00        -0.25666E+06
 
   -0.30996E-08        -0.21684E-09         0.00000E+00
   -0.21684E-09        -0.51475E+06         0.00000E+00
    0.00000E+00         0.00000E+00        -0.25666E+06
 
   -0.58208E-09         0.00000E+00         0.00000E+00
    0.00000E+00        -0.51475E+06         0.00000E+00
    0.00000E+00         0.00000E+00        -0.25666E+06
 
    0.58208E-09        -0.13010E-08         0.00000E+00
   -0.13010E-08        -0.51475E+06         0.00000E+00
    0.00000E+00         0.00000E+00        -0.25666E+06
 
   -0.76398E-09         0.13010E-08         0.00000E+00
    0.13010E-08        -0.51448E+06         0.00000E+00
    0.00000E+00         0.00000E+00        -0.25639E+06
 
    0.61118E-09         0.14456E-09         0.00000E+00
    0.14456E-09        -0.51448E+06         0.00000E+00
    0.00000E+00         0.00000E+00        -0.25639E+06
 
    0.45839E-09        -0.21684E-09         0.00000E+00
   -0.21684E-09        -0.51448E+06         0.00000E+00
    0.00000E+00         0.00000E+00        -0.25639E+06
 
   -0.16225E-08        -0.12288E-08         0.00000E+00
   -0.12288E-08        -0.51448E+06         0.00000E+00
    0.00000E+00         0.00000E+00        -0.25639E+06
 
    0.27503E-08         0.21684E-09         0.00000E+00
    0.21684E-09        -0.51448E+06         0.00000E+00
    0.00000E+00         0.00000E+00        -0.25639E+06
 
    0.27139E-08         0.50596E-09         0.00000E+00
    0.50596E-09        -0.51448E+06         0.00000E+00
    0.00000E+00         0.00000E+00        -0.25639E+06
 
    0.18845E-08        -0.14456E-09         0.00000E+00
   -0.14456E-09        -0.51448E+06         0.00000E+00
    0.00000E+00         0.00000E+00        -0.25639E+06
 
    0.20373E-09         0.00000E+00         0.00000E+00
    0.00000E+00        -0.51448E+06         0.00000E+00
    0.00000E+00         0.00000E+00        -0.25639E+06
 
   -0.82946E-09         0.57824E-09         0.00000E+00
    0.57824E-09        -0.51448E+06         0.00000E+00
    0.00000E+00         0.00000E+00        -0.25639E+06
 
    0.61118E-09         0.50596E-09         0.00000E+00
    0.50596E-09        -0.51448E+06         0.00000E+00
    0.00000E+00         0.00000E+00        -0.25639E+06
 
   -0.69122E-09        -0.72280E-10         0.00000E+00
   -0.72280E-10        -0.51448E+06         0.00000E+00
    0.00000E+00         0.00000E+00        -0.25639E+06
 
   -0.80036E-09        -0.86736E-09         0.00000E+00
   -0.86736E-09        -0.51448E+06         0.00000E+00
    0.00000E+00         0.00000E+00        -0.25639E+06
 
    0.91677E-09        -0.72280E-10         0.00000E+00
   -0.72280E-10        -0.51448E+06         0.00000E+00
    0.00000E+00         0.00000E+00        -0.25639E+06
 
    0.62573E-09        -0.86736E-09         0.00000E+00
   -0.86736E-09        -0.51448E+06         0.00000E+00
    0.00000E+00         0.00000E+00        -0.25639E+06
 
   -0.28376E-09        -0.43368E-09         0.00000E+00
   -0.43368E-09        -0.51448E+06         0.00000E+00
    0.00000E+00         0.00000E+00        -0.25639E+06
 
    0.29977E-08         0.28912E-09         0.00000E+00
    0.28912E-09        -0.51415E+06         0.00000E+00
    0.00000E+00         0.00000E+00        -0.25606E+06
 
   -0.10550E-08         0.93964E-09         0.00000E+00
    0.93964E-09        -0.51415E+06         0.00000E+00
    0.00000E+00         0.00000E+00        -0.25606E+06
 
    0.19572E-08        -0.72280E-09         0.00000E+00
   -0.72280E-09        -0.51415E+06         0.00000E+00
    0.00000E+00         0.00000E+00        -0.25606E+06
 
   -0.12515E-08        -0.14456E-09         0.00000E+00
   -0.14456E-09        -0.51415E+06         0.00000E+00
    0.00000E+00         0.00000E+00        -0.25606E+06
 
   -0.43583E-08         0.28912E-09         0.00000E+00
    0.28912E-09        -0.51415E+06         0.00000E+00
    0.00000E+00         0.00000E+00        -0.25606E+06
 
   -0.58208E-10        -0.36140E-09         0.00000E+00
   -0.36140E-09        -0.51415E+06         0.00000E+00
    0.00000E+00         0.00000E+00        -0.25606E+06
 
    0.20736E-08         0.36140E-09         0.00000E+00
    0.36140E-09        -0.51415E+06         0.00000E+00
    0.00000E+00         0.00000E+00        -0.25606E+06
 
    0.13970E-08         0.28912E-09         0.00000E+00
    0.28912E-09        -0.51415E+06         0.00000E+00
    0.00000E+00         0.00000E+00        -0.25606E+06
 
    0.15934E-08        -0.28912E-09         0.00000E+00
   -0.28912E-09        -0.51415E+06         0.00000E+00
    0.00000E+00         0.00000E+00        -0.25606E+06
 
    0.27649E-08        -0.86736E-09         0.00000E+00
   -0.86736E-09        -0.51415E+06         0.00000E+00
    0.00000E+00         0.00000E+00        -0.25606E+06
 
    0.14552E-08        -0.86736E-09         0.00000E+00
   -0.86736E-09        -0.51415E+06         0.00000E+00
    0.00000E+00         0.00000E+00        -0.25606E+06
 
   -0.16080E-08        -0.57824E-09         0.00000E+00
   -0.57824E-09        -0.51415E+06         0.00000E+00
    0.00000E+00         0.00000E+00        -0.25606E+06
 
   -0.90949E-09        -0.43368E-09         0.00000E+00
   -0.43368E-09        -0.51415E+06         0.00000E+00
    0.00000E+00         0.00000E+00        -0.25606E+06
 
   -0.22555E-08         0.14456E-09         0.00000E+00
    0.14456E-09        -0.51415E+06         0.00000E+00
    0.00000E+00         0.00000E+00        -0.25606E+06
 
   -0.23138E-08         0.86736E-09         0.00000E+00
    0.86736E-09        -0.51415E+06         0.00000E+00
    0.00000E+00         0.00000E+00        -0.25606E+06
 
   -0.18190E-09        -0.72280E-09         0.00000E+00
   -0.72280E-09        -0.51376E+06         0.00000E+00
    0.00000E+00         0.00000E+00        -0.25568E+06
 
   -0.72032E-09         0.18070E-08         0.00000E+00
    0.18070E-08        -0.51376E+06         0.00000E+00
    0.00000E+00         0.00000E+00        -0.25568E+06
 
    0.85856E-09        -0.14456E-08         0.00000E+00
   -0.14456E-08        -0.51376E+06         0.00000E+00
    0.00000E+00         0.00000E+00        -0.25568E+06
 
   -0.42928E-09         0.14456E-08         0.00000E+00
    0.14456E-08        -0.51376E+06         0.00000E+00
    0.00000E+00         0.00000E+00        -0.25568E+06
 
    0.27940E-08         0.14456E-09         0.00000E+00
    0.14456E-09        -0.51376E+06         0.00000E+00
    0.00000E+00         0.00000E+00        -0.25568E+06
 
    0.16953E-08        -0.21684E-09         0.00000E+00
   -0.21684E-09        -0.51376E+06         0.00000E+00
    0.00000E+00         0.00000E+00        -0.25568E+06
 
    0.35652E-09         0.14456E-09         0.00000E+00
    0.14456E-09        -0.51376E+06         0.00000E+00
    0.00000E+00         0.00000E+00        -0.25568E+06
 
    0.11569E-08         0.72280E-10         0.00000E+00
    0.72280E-10        -0.51376E+06         0.00000E+00
    0.00000E+00         0.00000E+00        -0.25568E+06
 
    0.14552E-10        -0.79508E-09         0.00000E+00
   -0.79508E-09        -0.51376E+06         0.00000E+00
    0.00000E+00         0.00000E+00        -0.25568E+06
 
    0.61118E-09         0.36140E-09         0.00000E+00
    0.36140E-09        -0.51376E+06         0.00000E+00
    0.00000E+00         0.00000E+00        -0.25568E+06
 
   -0.18626E-08        -0.28912E-09         0.00000E+00
   -0.28912E-09        -0.51376E+06         0.00000E+00
    0.00000E+00         0.00000E+00        -0.25568E+06
 
   -0.19936E-08        -0.20238E-08         0.00000E+00
   -0.20238E-08        -0.51376E+06         0.00000E+00
    0.00000E+00         0.00000E+00        -0.25568E+06
 
    0.95315E-09         0.13010E-08         0.00000E+00
    0.13010E-08        -0.51376E+06         0.00000E+00
    0.00000E+00         0.00000E+00        -0.25568E+06
 
   -0.17972E-08         0.43368E-09         0.00000E+00
    0.43368E-09        -0.51376E+06         0.00000E+00
    0.00000E+00         0.00000E+00        -0.25568E+06
 
    0.72760E-11        -0.28912E-09         0.00000E+00
   -0.28912E-09        -0.51376E+06         0.00000E+00
    0.00000E+00         0.00000E+00        -0.25568E+06
 
   -0.15280E-09        -0.14456E-09         0.00000E+00
   -0.14456E-09        -0.51330E+06         0.00000E+00
    0.00000E+00         0.00000E+00        -0.25522E+06
 
    0.10259E-08        -0.11565E-08         0.00000E+00
   -0.11565E-08        -0.51330E+06         0.00000E+00
    0.00000E+00         0.00000E+00        -0.25522E+06
 
    0.38563E-09        -0.57824E-09         0.00000E+00
   -0.57824E-09        -0.51330E+06         0.00000E+00
    0.00000E+00         0.00000E+00        -0.25522E+06
 
    0.37544E-08        -0.15902E-08         0.00000E+00
   -0.15902E-08        -0.51330E+06         0.00000E+00
    0.00000E+00         0.00000E+00        -0.25522E+06
 
    0.19863E-08         0.65052E-09         0.00000E+00
    0.65052E-09        -0.51330E+06         0.00000E+00
    0.00000E+00         0.00000E+00        -0.25522E+06
 
    0.59663E-09         0.93964E-09         0.00000E+00
    0.93964E-09        -0.51330E+06         0.00000E+00
    0.00000E+00         0.00000E+00        -0.25522E+06
 
   -0.12151E-08        -0.43368E-09         0.00000E+00
   -0.43368E-09        -0.51330E+06         0.00000E+00
    0.00000E+00         0.00000E+00        -0.25522E+06
 
   -0.14115E-08        -0.14456E-09         0.00000E+00
   -0.14456E-09        -0.51330E+06         0.00000E+00
    0.00000E+00         0.00000E+00        -0.25522E+06
 
   -0.10914E-09         0.14456E-09         0.00000E+00
    0.14456E-09        -0.51330E+06         0.00000E+00
    0.00000E+00         0.00000E+00        -0.25522E+06
 
   -0.26921E-09         0.00000E+00         0.00000E+00
    0.00000E+00        -0.51330E+06         0.00000E+00
    0.00000E+00         0.00000E+00        -0.25522E+06
 
   -0.72760E-09        -0.28912E-09         0.00000E+00
   -0.28912E-09        -0.51330E+06         0.00000E+00
    0.00000E+00         0.00000E+00        -0.25522E+06
 
   -0.24011E-08        -0.28912E-09         0.00000E+00
   -0.28912E-09        -0.51330E+06         0.00000E+00
    0.00000E+00         0.00000E+00        -0.25522E+06
 
   -0.64756E-09         0.10119E-08         0.00000E+00
    0.10119E-08        -0.51330E+06         0.00000E+00
    0.00000E+00         0.00000E+00        -0.25522E+06
 
   -0.30559E-09        -0.28912E-09         0.00000E+00
   -0.28912E-09        -0.51330E+06         0.00000E+00
    0.00000E+00         0.00000E+00        -0.25522E+06
 
   -0.83674E-09        -0.72280E-09         0.00000E+00
   -0.72280E-09        -0.51330E+06         0.00000E+00
    0.00000E+00         0.00000E+00        -0.25522E+06
 
    0.34197E-08         0.14456E-09         0.00000E+00
    0.14456E-09        -0.51275E+06         0.00000E+00
    0.00000E+00         0.00000E+00        -0.25467E+06
 
    0.11350E-08         0.11565E-08         0.00000E+00
    0.11565E-08        -0.51275E+06         0.00000E+00
    0.00000E+00         0.00000E+00        -0.25467E+06
 
    0.10186E-08        -0.23852E-08         0.00000E+00
   -0.23852E-08        -0.51275E+06         0.00000E+00
    0.00000E+00         0.00000E+00        -0.25467E+06
 
    0.72760E-10         0.10119E-08         0.00000E+00
    0.10119E-08        -0.51275E+06         0.00000E+00
    0.00000E+00         0.00000E+00        -0.25467E+06
 
    0.21828E-10        -0.14456E-08         0.00000E+00
   -0.14456E-08        -0.51275E+06         0.00000E+00
    0.00000E+00         0.00000E+00        -0.25467E+06
 
    0.93860E-09         0.10119E-08         0.00000E+00
    0.10119E-08        -0.51275E+06         0.00000E+00
    0.00000E+00         0.00000E+00        -0.25467E+06
 
    0.25757E-08        -0.11565E-08         0.00000E+00
   -0.11565E-08        -0.51275E+06         0.00000E+00
    0.00000E+00         0.00000E+00        -0.25467E+06
 
   -0.31287E-09         0.72280E-10         0.00000E+00
    0.72280E-10        -0.51275E+06         0.00000E+00
    0.00000E+00         0.00000E+00        -0.25467E+06
 
   -0.45111E-09         0.00000E+00         0.00000E+00
    0.00000E+00        -0.51275E+06         0.00000E+00
    0.00000E+00         0.00000E+00        -0.25467E+06
 
   -0.12515E-08        -0.72280E-09         0.00000E+00
   -0.72280E-09        -0.51275E+06         0.00000E+00
    0.00000E+00         0.00000E+00        -0.25467E+06
 
   -0.50204E-09        -0.13010E-08         0.00000E+00
   -0.13010E-08        -0.51275E+06         0.00000E+00
    0.00000E+00         0.00000E+00        -0.25467E+06
 
    0.19063E-08        -0.14456E-09         0.00000E+00
   -0.14456E-09        -0.51275E+06         0.00000E+00
    0.00000E+00         0.00000E+00        -0.25467E+06
 
    0.16589E-08        -0.14456E-09         0.00000E+00
   -0.14456E-09        -0.51275E+06         0.00000E+00
    0.00000E+00         0.00000E+00        -0.25467E+06
 
    0.36380E-10         0.28912E-09         0.00000E+00
    0.28912E-09        -0.51275E+06         0.00000E+00
    0.00000E+00         0.00000E+00        -0.25467E+06
 
    0.32742E-09         0.14456E-08         0.00000E+00
    0.14456E-08        -0.51275E+06         0.00000E+00
    0.00000E+00         0.00000E+00        -0.25467E+06
 
   -0.10114E-08         0.13733E-08         0.00000E+00
    0.13733E-08        -0.51210E+06         0.00000E+00
    0.00000E+00         0.00000E+00        -0.25401E+06
 
   -0.14843E-08         0.14456E-09         0.00000E+00
    0.14456E-09        -0.51210E+06         0.00000E+00
    0.00000E+00         0.00000E+00        -0.25401E+06
 
   -0.36380E-10        -0.23130E-08         0.00000E+00
   -0.23130E-08        -0.51210E+06         0.00000E+00
    0.00000E+00         0.00000E+00        -0.25401E+06
 
    0.30632E-08         0.20961E-08         0.00000E+00
    0.20961E-08        -0.51210E+06         0.00000E+00
    0.00000E+00         0.00000E+00        -0.25401E+06
 
    0.21755E-08        -0.10119E-08         0.00000E+00
   -0.10119E-08        -0.51210E+06         0.00000E+00
    0.00000E+00         0.00000E+00        -0.25401E+06
 
    0.88767E-09         0.50596E-09         0.00000E+00
    0.50596E-09        -0.51210E+06         0.00000E+00
    0.00000E+00         0.00000E+00        -0.25401E+06
 
    0.20373E-09         0.10119E-08         0.00000E+00
    0.10119E-08        -0.51210E+06         0.00000E+00
    0.00000E+00         0.00000E+00        -0.25401E+06
 
   -0.58208E-09        -0.50596E-09         0.00000E+00
   -0.50596E-09        -0.51210E+06         0.00000E+00
    0.00000E+00         0.00000E+00        -0.25401E+06
 
   -0.21828E-09        -0.79508E-09         0.00000E+00
   -0.79508E-09        -0.51210E+06         0.00000E+00
    0.00000E+00         0.00000E+00        -0.25401E+06
 
    0.33469E-09        -0.14456E-09         0.00000E+00
   -0.14456E-09        -0.51210E+06         0.00000E+00
    0.00000E+00         0.00000E+00        -0.25401E+06
 
   -0.17171E-08        -0.14456E-08         0.00000E+00
   -0.14456E-08        -0.51210E+06         0.00000E+00
    0.00000E+00         0.00000E+00        -0.25401E+06
 
   -0.10841E-08         0.28912E-09         0.00000E+00
    0.28912E-09        -0.51210E+06         0.00000E+00
    0.00000E+00         0.00000E+00        -0.25401E+06
 
   -0.18845E-08         0.14456E-09         0.00000E+00
    0.14456E-09        -0.51210E+06         0.00000E+00
    0.00000E+00         0.00000E+00        -0.25401E+06
 
   -0.13169E-08        -0.28912E-09         0.00000E+00
   -0.28912E-09        -0.51210E+06         0.00000E+00
    0.00000E+00         0.00000E+00        -0.25401E+06
 
   -0.71304E-09         0.14456E-09         0.00000E+00
    0.14456E-09        -0.51210E+06         0.00000E+00
    0.00000E+00         0.00000E+00        -0.25401E+06
 
    0.27649E-09        -0.13010E-08         0.00000E+00
   -0.13010E-08        -0.51132E+06         0.00000E+00
    0.00000E+00         0.00000E+00        -0.25324E+06
 
    0.14770E-08        -0.50596E-09         0.00000E+00
   -0.50596E-09        -0.51132E+06         0.00000E+00
    0.00000E+00         0.00000E+00        -0.25324E+06
 
   -0.30559E-09        -0.93964E-09         0.00000E+00
   -0.93964E-09        -0.51132E+06         0.00000E+00
    0.00000E+00         0.00000E+00        -0.25324E+06
 
   -0.18917E-08         0.14456E-09         0.00000E+00
    0.14456E-09        -0.51132E+06         0.00000E+00
    0.00000E+00         0.00000E+00        -0.25324E+06
 
   -0.86584E-09         0.00000E+00         0.00000E+00
    0.00000E+00        -0.51132E+06         0.00000E+00
    0.00000E+00         0.00000E+00        -0.25324E+06
 
   -0.36453E-08         0.28912E-09         0.00000E+00
    0.28912E-09        -0.51132E+06         0.00000E+00
    0.00000E+00         0.00000E+00        -0.25324E+06
 
    0.16007E-09         0.11565E-08         0.00000E+00
    0.11565E-08        -0.51132E+06         0.00000E+00
    0.00000E+00         0.00000E+00        -0.25324E+06
 
   -0.17390E-08        -0.24575E-08         0.00000E+00
   -0.24575E-08        -0.51132E+06         0.00000E+00
    0.00000E+00         0.00000E+00        -0.25324E+06
 
   -0.16298E-08        -0.13010E-08         0.00000E+00
   -0.13010E-08        -0.51132E+06         0.00000E+00
    0.00000E+00         0.00000E+00        -0.25324E+06
 
   -0.26921E-09         0.00000E+00         0.00000E+00
    0.00000E+00        -0.51132E+06         0.00000E+00
    0.00000E+00         0.00000E+00        -0.25324E+06
 
    0.13970E-08        -0.14456E-09         0.00000E+00
   -0.14456E-09        -0.51132E+06         0.00000E+00
    0.00000E+00         0.00000E+00        -0.25324E+06
 
   -0.30559E-08         0.00000E+00         0.00000E+00
    0.00000E+00        -0.51132E+06         0.00000E+00
    0.00000E+00         0.00000E+00        -0.25324E+06
 
    0.16225E-08        -0.28912E-09         0.00000E+00
   -0.28912E-09        -0.51132E+06         0.00000E+00
    0.00000E+00         0.00000E+00        -0.25324E+06
 
   -0.64756E-09         0.00000E+00         0.00000E+00
    0.00000E+00        -0.51132E+06         0.00000E+00
    0.00000E+00         0.00000E+00        -0.25324E+06
 
    0.74215E-09        -0.11565E-08         0.00000E+00
   -0.11565E-08        -0.51132E+06         0.00000E+00
    0.00000E+00         0.00000E+00        -0.25324E+06
 
   -0.33469E-09        -0.11565E-08         0.00000E+00
   -0.11565E-08        -0.51040E+06         0.00000E+00
    0.00000E+00         0.00000E+00        -0.25232E+06
 
   -0.90949E-09        -0.14456E-09         0.00000E+00
   -0.14456E-09        -0.51040E+06         0.00000E+00
    0.00000E+00         0.00000E+00        -0.25232E+06
 
    0.11496E-08        -0.57824E-09         0.00000E+00
   -0.57824E-09        -0.51040E+06         0.00000E+00
    0.00000E+00         0.00000E+00        -0.25232E+06
 
   -0.14261E-08        -0.43368E-09         0.00000E+00
   -0.43368E-09        -0.51040E+06         0.00000E+00
    0.00000E+00         0.00000E+00        -0.25232E+06
 
    0.94587E-10        -0.72280E-10         0.00000E+00
   -0.72280E-10        -0.51040E+06         0.00000E+00
    0.00000E+00         0.00000E+00        -0.25232E+06
 
    0.11787E-08        -0.86736E-09         0.00000E+00
   -0.86736E-09        -0.51040E+06         0.00000E+00
    0.00000E+00         0.00000E+00        -0.25232E+06
 
    0.12515E-08         0.28912E-09         0.00000E+00
    0.28912E-09        -0.51040E+06         0.00000E+00
    0.00000E+00         0.00000E+00        -0.25232E+06
 
    0.99681E-09         0.21684E-09         0.00000E+00
    0.21684E-09        -0.51040E+06         0.00000E+00
    0.00000E+00         0.00000E+00        -0.25232E+06
 
   -0.23138E-08        -0.13010E-08         0.00000E+00
   -0.13010E-08        -0.51040E+06         0.00000E+00
    0.00000E+00         0.00000E+00        -0.25232E+06
 
   -0.40018E-09        -0.57824E-09         0.00000E+00
   -0.57824E-09        -0.51040E+06         0.00000E+00
    0.00000E+00         0.00000E+00        -0.25232E+06
 
   -0.30486E-08        -0.28912E-09         0.00000E+00
   -0.28912E-09        -0.51040E+06         0.00000E+00
    0.00000E+00         0.00000E+00        -0.25232E+06
 
   -0.17899E-08        -0.72280E-09         0.00000E+00
   -0.72280E-09        -0.51040E+06         0.00000E+00
    0.00000E+00         0.00000E+00        -0.25232E+06
 
   -0.48749E-09        -0.14456E-09         0.00000E+00
   -0.14456E-09        -0.51040E+06         0.00000E+00
    0.00000E+00         0.00000E+00        -0.25232E+06
 
   -0.96043E-09         0.28912E-09         0.00000E+00
    0.28912E-09        -0.51040E+06         0.00000E+00
    0.00000E+00         0.00000E+00        -0.25232E+06
 
   -0.26339E-08        -0.86736E-09         0.00000E+00
   -0.86736E-09        -0.51040E+06         0.00000E+00
    0.00000E+00         0.00000E+00        -0.25232E+06
 
   -0.12078E-08         0.00000E+00         0.00000E+00
    0.00000E+00        -0.50931E+06         0.00000E+00
    0.00000E+00         0.00000E+00        -0.25123E+06
 
    0.28376E-09         0.28912E-09         0.00000E+00
    0.28912E-09        -0.50931E+06         0.00000E+00
    0.00000E+00         0.00000E+00        -0.25123E+06
 
   -0.88039E-09         0.65052E-09         0.00000E+00
    0.65052E-09        -0.50931E+06         0.00000E+00
    0.00000E+00         0.00000E+00        -0.25123E+06
 
   -0.22555E-09        -0.10119E-08         0.00000E+00
   -0.10119E-08        -0.50931E+06         0.00000E+00
    0.00000E+00         0.00000E+00        -0.25123E+06
 
   -0.24738E-09         0.10119E-08         0.00000E+00
    0.10119E-08        -0.50931E+06         0.00000E+00
    0.00000E+00         0.00000E+00        -0.25123E+06
 
   -0.16225E-08        -0.43368E-09         0.00000E+00
   -0.43368E-09        -0.50931E+06         0.00000E+00
    0.00000E+00         0.00000E+00        -0.25123E+06
 
   -0.25029E-08         0.28912E-09         0.00000E+00
    0.28912E-09        -0.50931E+06         0.00000E+00
    0.00000E+00         0.00000E+00        -0.25123E+06
 
   -0.26412E-08        -0.14456E-09         0.00000E+00
   -0.14456E-09        -0.50931E+06         0.00000E+00
    0.00000E+00         0.00000E+00        -0.25123E+06
 
   -0.90949E-09        -0.14456E-09         0.00000E+00
   -0.14456E-09        -0.50931E+06         0.00000E+00
    0.00000E+00         0.00000E+00        -0.25123E+06
 
   -0.56752E-09        -0.14456E-09         0.00000E+00
   -0.14456E-09        -0.50931E+06         0.00000E+00
    0.00000E+00         0.00000E+00        -0.25123E+06
 
   -0.16589E-08         0.13010E-08         0.00000E+00
    0.13010E-08        -0.50931E+06         0.00000E+00
    0.00000E+00         0.00000E+00        -0.25123E+06
 
   -0.16953E-08        -0.14456E-09         0.00000E+00
   -0.14456E-09        -0.50931E+06         0.00000E+00
    0.00000E+00         0.00000E+00        -0.25123E+06
 
   -0.26994E-08        -0.11565E-08         0.00000E+00
   -0.11565E-08        -0.50931E+06         0.00000E+00
    0.00000E+00         0.00000E+00        -0.25123E+06
 
   -0.15643E-08         0.86736E-09         0.00000E+00
    0.86736E-09        -0.50931E+06         0.00000E+00
    0.00000E+00         0.00000E+00        -0.25123E+06
 
   -0.35652E-09         0.14456E-09         0.00000E+00
    0.14456E-09        -0.50931E+06         0.00000E+00
    0.00000E+00         0.00000E+00        -0.25123E+06
 
    0.12005E-08        -0.72280E-09         0.00000E+00
   -0.72280E-09        -0.50802E+06         0.00000E+00
    0.00000E+00         0.00000E+00        -0.24993E+06
 
   -0.10186E-08        -0.79508E-09         0.00000E+00
   -0.79508E-09        -0.50802E+06         0.00000E+00
    0.00000E+00         0.00000E+00        -0.24993E+06
 
   -0.30850E-08        -0.13010E-08         0.00000E+00
   -0.13010E-08        -0.50802E+06         0.00000E+00
    0.00000E+00         0.00000E+00        -0.24993E+06
 
    0.26921E-09        -0.18793E-08         0.00000E+00
   -0.18793E-08        -0.50802E+06         0.00000E+00
    0.00000E+00         0.00000E+00        -0.24993E+06
 
    0.16153E-08        -0.28912E-09         0.00000E+00
   -0.28912E-09        -0.50802E+06         0.00000E+00
    0.00000E+00         0.00000E+00        -0.24993E+06
 
    0.72760E-09        -0.16624E-08         0.00000E+00
   -0.16624E-08        -0.50802E+06         0.00000E+00
    0.00000E+00         0.00000E+00        -0.24993E+06
 
    0.26339E-08        -0.43368E-09         0.00000E+00
   -0.43368E-09        -0.50802E+06         0.00000E+00
    0.00000E+00         0.00000E+00        -0.24993E+06
 
   -0.46566E-09         0.57824E-09         0.00000E+00
    0.57824E-09        -0.50802E+06         0.00000E+00
    0.00000E+00         0.00000E+00        -0.24993E+06
 
   -0.29540E-08         0.14456E-09         0.00000E+00
    0.14456E-09        -0.50802E+06         0.00000E+00
    0.00000E+00         0.00000E+00        -0.24993E+06
 
   -0.10987E-08        -0.14456E-09         0.00000E+00
   -0.14456E-09        -0.50802E+06         0.00000E+00
    0.00000E+00         0.00000E+00        -0.24993E+06
 
   -0.11132E-08        -0.86736E-09         0.00000E+00
   -0.86736E-09        -0.50802E+06         0.00000E+00
    0.00000E+00         0.00000E+00        -0.24993E+06
 
    0.30559E-09        -0.43368E-09         0.00000E+00
   -0.43368E-09        -0.50802E+06         0.00000E+00
    0.00000E+00         0.00000E+00        -0.24993E+06
 
   -0.42273E-08         0.28912E-09         0.00000E+00
    0.28912E-09        -0.50802E+06         0.00000E+00
    0.00000E+00         0.00000E+00        -0.24993E+06
 
    0.66211E-09         0.00000E+00         0.00000E+00
    0.00000E+00        -0.50802E+06         0.00000E+00
    0.00000E+00         0.00000E+00        -0.24993E+06
 
    0.20882E-08        -0.10119E-08         0.00000E+00
   -0.10119E-08        -0.50802E+06         0.00000E+00
    0.00000E+00         0.00000E+00        -0.24993E+06
 
   -0.90222E-09         0.12288E-08         0.00000E+00
    0.12288E-08        -0.50649E+06         0.00000E+00
    0.00000E+00         0.00000E+00        -0.24840E+06
 
   -0.58208E-09         0.36140E-09         0.00000E+00
    0.36140E-09        -0.50649E+06         0.00000E+00
    0.00000E+00         0.00000E+00        -0.24840E+06
 
    0.11423E-08         0.79508E-09         0.00000E+00
    0.79508E-09        -0.50649E+06         0.00000E+00
    0.00000E+00         0.00000E+00        -0.24840E+06
 
   -0.61118E-09        -0.93964E-09         0.00000E+00
   -0.93964E-09        -0.50649E+06         0.00000E+00
    0.00000E+00         0.00000E+00        -0.24840E+06
 
   -0.12151E-08         0.23130E-08         0.00000E+00
    0.23130E-08        -0.50649E+06         0.00000E+00
    0.00000E+00         0.00000E+00        -0.24840E+06
 
   -0.19354E-08        -0.72280E-09         0.00000E+00
   -0.72280E-09        -0.50649E+06         0.00000E+00
    0.00000E+00         0.00000E+00        -0.24840E+06
 
   -0.33469E-09         0.72280E-09         0.00000E+00
    0.72280E-09        -0.50649E+06         0.00000E+00
    0.00000E+00         0.00000E+00        -0.24840E+06
 
    0.41473E-09         0.13010E-08         0.00000E+00
    0.13010E-08        -0.50649E+06         0.00000E+00
    0.00000E+00         0.00000E+00        -0.24840E+06
 
    0.21319E-08        -0.20238E-08         0.00000E+00
   -0.20238E-08        -0.50649E+06         0.00000E+00
    0.00000E+00         0.00000E+00        -0.24840E+06
 
    0.96043E-09         0.11565E-08         0.00000E+00
    0.11565E-08        -0.50649E+06         0.00000E+00
    0.00000E+00         0.00000E+00        -0.24840E+06
 
    0.18917E-09        -0.14456E-09         0.00000E+00
   -0.14456E-09        -0.50649E+06         0.00000E+00
    0.00000E+00         0.00000E+00        -0.24840E+06
 
   -0.20009E-08         0.00000E+00         0.00000E+00
    0.00000E+00        -0.50649E+06         0.00000E+00
    0.00000E+00         0.00000E+00        -0.24840E+06
 
   -0.11496E-08        -0.20238E-08         0.00000E+00
   -0.20238E-08        -0.50649E+06         0.00000E+00
    0.00000E+00         0.00000E+00        -0.24840E+06
 
   -0.29249E-08        -0.14456E-09         0.00000E+00
   -0.14456E-09        -0.50649E+06         0.00000E+00
    0.00000E+00         0.00000E+00        -0.24840E+06
 
   -0.15061E-08         0.43368E-09         0.00000E+00
    0.43368E-09        -0.50649E+06         0.00000E+00
    0.00000E+00         0.00000E+00        -0.24840E+06
 
    0.76398E-09         0.18793E-08         0.00000E+00
    0.18793E-08        -0.50467E+06         0.00000E+00
    0.00000E+00         0.00000E+00        -0.24659E+06
 
    0.18117E-08        -0.86736E-09         0.00000E+00
   -0.86736E-09        -0.50467E+06         0.00000E+00
    0.00000E+00         0.00000E+00        -0.24659E+06
 
    0.20373E-08         0.00000E+00         0.00000E+00
    0.00000E+00        -0.50467E+06         0.00000E+00
    0.00000E+00         0.00000E+00        -0.24659E+06
 
    0.15498E-08         0.14456E-09         0.00000E+00
    0.14456E-09        -0.50467E+06         0.00000E+00
    0.00000E+00         0.00000E+00        -0.24659E+06
 
   -0.20009E-08         0.18793E-08         0.00000E+00
    0.18793E-08        -0.50467E+06         0.00000E+00
    0.00000E+00         0.00000E+00        -0.24659E+06
 
    0.21901E-08        -0.72280E-09         0.00000E+00
   -0.72280E-09        -0.50467E+06         0.00000E+00
    0.00000E+00         0.00000E+00        -0.24659E+06
 
   -0.42928E-09        -0.14456E-09         0.00000E+00
   -0.14456E-09        -0.50467E+06         0.00000E+00
    0.00000E+00         0.00000E+00        -0.24659E+06
 
   -0.40018E-09         0.15902E-08         0.00000E+00
    0.15902E-08        -0.50467E+06         0.00000E+00
    0.00000E+00         0.00000E+00        -0.24659E+06
 
   -0.25684E-08        -0.14456E-08         0.00000E+00
   -0.14456E-08        -0.50467E+06         0.00000E+00
    0.00000E+00         0.00000E+00        -0.24659E+06
 
   -0.14552E-09         0.37586E-08         0.00000E+00
    0.37586E-08        -0.50467E+06         0.00000E+00
    0.00000E+00         0.00000E+00        -0.24659E+06
 
   -0.10623E-08        -0.10119E-08         0.00000E+00
   -0.10119E-08        -0.50467E+06         0.00000E+00
    0.00000E+00         0.00000E+00        -0.24659E+06
 
    0.78580E-09        -0.43368E-09         0.00000E+00
   -0.43368E-09        -0.50467E+06         0.00000E+00
    0.00000E+00         0.00000E+00        -0.24659E+06
 
   -0.62573E-09        -0.13010E-08         0.00000E+00
   -0.13010E-08        -0.50467E+06         0.00000E+00
    0.00000E+00         0.00000E+00        -0.24659E+06
 
    0.77125E-09         0.20238E-08         0.00000E+00
    0.20238E-08        -0.50467E+06         0.00000E+00
    0.00000E+00         0.00000E+00        -0.24659E+06
 
   -0.92405E-09         0.14456E-09         0.00000E+00
    0.14456E-09        -0.50467E+06         0.00000E+00
    0.00000E+00         0.00000E+00        -0.24659E+06
 
    0.98953E-09         0.00000E+00         0.00000E+00
    0.00000E+00        -0.50254E+06         0.00000E+00
    0.00000E+00         0.00000E+00        -0.24445E+06
 
   -0.10114E-08        -0.13010E-08         0.00000E+00
   -0.13010E-08        -0.50254E+06         0.00000E+00
    0.00000E+00         0.00000E+00        -0.24445E+06
 
   -0.50932E-10         0.28912E-09         0.00000E+00
    0.28912E-09        -0.50254E+06         0.00000E+00
    0.00000E+00         0.00000E+00        -0.24445E+06
 
    0.21828E-09        -0.72280E-09         0.00000E+00
   -0.72280E-09        -0.50254E+06         0.00000E+00
    0.00000E+00         0.00000E+00        -0.24445E+06
 
    0.54570E-09        -0.10119E-08         0.00000E+00
   -0.10119E-08        -0.50254E+06         0.00000E+00
    0.00000E+00         0.00000E+00        -0.24445E+06
 
   -0.70577E-09         0.00000E+00         0.00000E+00
    0.00000E+00        -0.50254E+06         0.00000E+00
    0.00000E+00         0.00000E+00        -0.24445E+06
 
    0.56752E-09         0.14456E-08         0.00000E+00
    0.14456E-08        -0.50254E+06         0.00000E+00
    0.00000E+00         0.00000E+00        -0.24445E+06
 
    0.61846E-09        -0.11565E-08         0.00000E+00
   -0.11565E-08        -0.50254E+06         0.00000E+00
    0.00000E+00         0.00000E+00        -0.24445E+06
 
    0.80036E-09        -0.43368E-09         0.00000E+00
   -0.43368E-09        -0.50254E+06         0.00000E+00
    0.00000E+00         0.00000E+00        -0.24445E+06
 
   -0.23283E-08         0.21684E-08         0.00000E+00
    0.21684E-08        -0.50254E+06         0.00000E+00
    0.00000E+00         0.00000E+00        -0.24445E+06
 
    0.21901E-08        -0.11565E-08         0.00000E+00
   -0.11565E-08        -0.50254E+06         0.00000E+00
    0.00000E+00         0.00000E+00        -0.24445E+06
 
   -0.64028E-09        -0.10119E-08         0.00000E+00
   -0.10119E-08        -0.50254E+06         0.00000E+00
    0.00000E+00         0.00000E+00        -0.24445E+06
 
   -0.96770E-09        -0.28912E-09         0.00000E+00
   -0.28912E-09        -0.50254E+06         0.00000E+00
    0.00000E+00         0.00000E+00        -0.24445E+06
 
   -0.46566E-09         0.14456E-09         0.00000E+00
    0.14456E-09        -0.50254E+06         0.00000E+00
    0.00000E+00         0.00000E+00        -0.24445E+06
 
   -0.64028E-09        -0.14456E-09         0.00000E+00
   -0.14456E-09        -0.50254E+06         0.00000E+00
    0.00000E+00         0.00000E+00        -0.24445E+06
 
    0.17244E-08         0.00000E+00         0.00000E+00
    0.00000E+00        -0.50001E+06         0.00000E+00
    0.00000E+00         0.00000E+00        -0.24193E+06
 
    0.21901E-08         0.50596E-09         0.00000E+00
    0.50596E-09        -0.50001E+06         0.00000E+00
    0.00000E+00         0.00000E+00        -0.24193E+06
 
    0.14916E-08         0.10119E-08         0.00000E+00
    0.10119E-08        -0.50001E+06         0.00000E+00
    0.00000E+00         0.00000E+00        -0.24193E+06
 
    0.16371E-08        -0.17347E-08         0.00000E+00
   -0.17347E-08        -0.50001E+06         0.00000E+00
    0.00000E+00         0.00000E+00        -0.24193E+06
 
    0.53333E-08         0.14456E-09         0.00000E+00
    0.14456E-09        -0.50001E+06         0.00000E+00
    0.00000E+00         0.00000E+00        -0.24193E+06
 
    0.48021E-09         0.14456E-08         0.00000E+00
    0.14456E-08        -0.50001E+06         0.00000E+00
    0.00000E+00         0.00000E+00        -0.24193E+06
 
    0.10841E-08        -0.13010E-08         0.00000E+00
   -0.13010E-08        -0.50001E+06         0.00000E+00
    0.00000E+00         0.00000E+00        -0.24193E+06
 
    0.28958E-08         0.23130E-08         0.00000E+00
    0.23130E-08        -0.50001E+06         0.00000E+00
    0.00000E+00         0.00000E+00        -0.24193E+06
 
    0.20227E-08        -0.11565E-08         0.00000E+00
   -0.11565E-08        -0.50001E+06         0.00000E+00
    0.00000E+00         0.00000E+00        -0.24193E+06
 
    0.34197E-09         0.86736E-09         0.00000E+00
    0.86736E-09        -0.50001E+06         0.00000E+00
    0.00000E+00         0.00000E+00        -0.24193E+06
 
   -0.95315E-09        -0.28912E-09         0.00000E+00
   -0.28912E-09        -0.50001E+06         0.00000E+00
    0.00000E+00         0.00000E+00        -0.24193E+06
 
   -0.28158E-08         0.86736E-09         0.00000E+00
    0.86736E-09        -0.50001E+06         0.00000E+00
    0.00000E+00         0.00000E+00        -0.24193E+06
 
   -0.17171E-08        -0.86736E-09         0.00000E+00
   -0.86736E-09        -0.50001E+06         0.00000E+00
    0.00000E+00         0.00000E+00        -0.24193E+06
 
    0.72760E-09        -0.72280E-09         0.00000E+00
   -0.72280E-09        -0.50001E+06         0.00000E+00
    0.00000E+00         0.00000E+00        -0.24193E+06
 
    0.58208E-09         0.11565E-08         0.00000E+00
    0.11565E-08        -0.50001E+06         0.00000E+00
    0.00000E+00         0.00000E+00        -0.24193E+06
 
    0.14552E-09        -0.14456E-09         0.00000E+00
   -0.14456E-09        -0.49704E+06         0.00000E+00
    0.00000E+00         0.00000E+00        -0.23896E+06
 
   -0.19718E-08         0.18793E-08         0.00000E+00
    0.18793E-08        -0.49704E+06         0.00000E+00
    0.00000E+00         0.00000E+00        -0.23896E+06
 
   -0.12224E-08         0.57824E-09         0.00000E+00
    0.57824E-09        -0.49704E+06         0.00000E+00
    0.00000E+00         0.00000E+00        -0.23896E+06
 
   -0.74215E-09        -0.26021E-08         0.00000E+00
   -0.26021E-08        -0.49704E+06         0.00000E+00
    0.00000E+00         0.00000E+00        -0.23896E+06
 
   -0.59663E-09         0.14456E-09         0.00000E+00
    0.14456E-09        -0.49704E+06         0.00000E+00
    0.00000E+00         0.00000E+00        -0.23896E+06
 
    0.31359E-08         0.11565E-08         0.00000E+00
    0.11565E-08        -0.49704E+06         0.00000E+00
    0.00000E+00         0.00000E+00        -0.23896E+06
 
    0.34197E-08        -0.72280E-09         0.00000E+00
   -0.72280E-09        -0.49704E+06         0.00000E+00
    0.00000E+00         0.00000E+00        -0.23896E+06
 
    0.11059E-08         0.43368E-09         0.00000E+00
    0.43368E-09        -0.49704E+06         0.00000E+00
    0.00000E+00         0.00000E+00        -0.23896E+06
 
    0.77853E-09         0.17347E-08         0.00000E+00
    0.17347E-08        -0.49704E+06         0.00000E+00
    0.00000E+00         0.00000E+00        -0.23896E+06
 
   -0.22919E-08        -0.11565E-08         0.00000E+00
   -0.11565E-08        -0.49704E+06         0.00000E+00
    0.00000E+00         0.00000E+00        -0.23896E+06
 
    0.16080E-08         0.00000E+00         0.00000E+00
    0.00000E+00        -0.49704E+06         0.00000E+00
    0.00000E+00         0.00000E+00        -0.23896E+06
 
    0.79308E-09         0.26021E-08         0.00000E+00
    0.26021E-08        -0.49704E+06         0.00000E+00
    0.00000E+00         0.00000E+00        -0.23896E+06
 
    0.20955E-08        -0.27466E-08         0.00000E+00
   -0.27466E-08        -0.49704E+06         0.00000E+00
    0.00000E+00         0.00000E+00        -0.23896E+06
 
   -0.30122E-08         0.57824E-09         0.00000E+00
    0.57824E-09        -0.49704E+06         0.00000E+00
    0.00000E+00         0.00000E+00        -0.23896E+06
 
   -0.66357E-08         0.14456E-09         0.00000E+00
    0.14456E-09        -0.49704E+06         0.00000E+00
    0.00000E+00         0.00000E+00        -0.23896E+06
 
   -0.19572E-08         0.72280E-09         0.00000E+00
    0.72280E-09        -0.49355E+06         0.00000E+00
    0.00000E+00         0.00000E+00        -0.23546E+06
 
   -0.20373E-09        -0.72280E-10         0.00000E+00
   -0.72280E-10        -0.49355E+06         0.00000E+00
    0.00000E+00         0.00000E+00        -0.23546E+06
 
    0.24447E-08         0.14456E-08         0.00000E+00
    0.14456E-08        -0.49355E+06         0.00000E+00
    0.00000E+00         0.00000E+00        -0.23546E+06
 
   -0.75670E-09        -0.57824E-09         0.00000E+00
   -0.57824E-09        -0.49355E+06         0.00000E+00
    0.00000E+00         0.00000E+00        -0.23546E+06
 
   -0.19281E-08         0.43368E-09         0.00000E+00
    0.43368E-09        -0.49355E+06         0.00000E+00
    0.00000E+00         0.00000E+00        -0.23546E+06
 
   -0.30122E-08         0.14456E-09         0.00000E+00
    0.14456E-09        -0.49355E+06         0.00000E+00
    0.00000E+00         0.00000E+00        -0.23546E+06
 
   -0.39508E-08         0.43368E-09         0.00000E+00
    0.43368E-09        -0.49355E+06         0.00000E+00
    0.00000E+00         0.00000E+00        -0.23546E+06
 
   -0.42564E-08         0.18793E-08         0.00000E+00
    0.18793E-08        -0.49355E+06         0.00000E+00
    0.00000E+00         0.00000E+00        -0.23546E+06
 
   -0.17899E-08        -0.15902E-08         0.00000E+00
   -0.15902E-08        -0.49355E+06         0.00000E+00
    0.00000E+00         0.00000E+00        -0.23546E+06
 
   -0.27430E-08         0.43368E-09         0.00000E+00
    0.43368E-09        -0.49355E+06         0.00000E+00
    0.00000E+00         0.00000E+00        -0.23546E+06
 
   -0.51296E-08         0.28912E-09         0.00000E+00
    0.28912E-09        -0.49355E+06         0.00000E+00
    0.00000E+00         0.00000E+00        -0.23546E+06
 
   -0.38417E-08         0.28912E-09         0.00000E+00
    0.28912E-09        -0.49355E+06         0.00000E+00
    0.00000E+00         0.00000E+00        -0.23546E+06
 
   -0.26266E-08        -0.14456E-09         0.00000E+00
   -0.14456E-09        -0.49355E+06         0.00000E+00
    0.00000E+00         0.00000E+00        -0.23546E+06
 
   -0.23283E-08         0.14456E-08         0.00000E+00
    0.14456E-08        -0.49355E+06         0.00000E+00
    0.00000E+00         0.00000E+00        -0.23546E+06
 
    0.15134E-08         0.43368E-09         0.00000E+00
    0.43368E-09        -0.49355E+06         0.00000E+00
    0.00000E+00         0.00000E+00        -0.23546E+06
 
    0.53042E-08        -0.18793E-08         0.00000E+00
   -0.18793E-08        -0.48945E+06         0.00000E+00
    0.00000E+00         0.00000E+00        -0.23136E+06
 
    0.13752E-08         0.17347E-08         0.00000E+00
    0.17347E-08        -0.48945E+06         0.00000E+00
    0.00000E+00         0.00000E+00        -0.23136E+06
 
   -0.26994E-08         0.28912E-08         0.00000E+00
    0.28912E-08        -0.48945E+06         0.00000E+00
    0.00000E+00         0.00000E+00        -0.23136E+06
 
    0.37762E-08         0.14456E-09         0.00000E+00
    0.14456E-09        -0.48945E+06         0.00000E+00
    0.00000E+00         0.00000E+00        -0.23136E+06
 
    0.16371E-08         0.14456E-09         0.00000E+00
    0.14456E-09        -0.48945E+06         0.00000E+00
    0.00000E+00         0.00000E+00        -0.23136E+06
 
    0.20009E-08         0.43368E-09         0.00000E+00
    0.43368E-09        -0.48945E+06         0.00000E+00
    0.00000E+00         0.00000E+00        -0.23136E+06
 
    0.12951E-08        -0.43368E-09         0.00000E+00
   -0.43368E-09        -0.48945E+06         0.00000E+00
    0.00000E+00         0.00000E+00        -0.23136E+06
 
    0.14261E-08         0.57824E-09         0.00000E+00
    0.57824E-09        -0.48945E+06         0.00000E+00
    0.00000E+00         0.00000E+00        -0.23136E+06
 
   -0.15789E-08        -0.21684E-08         0.00000E+00
   -0.21684E-08        -0.48945E+06         0.00000E+00
    0.00000E+00         0.00000E+00        -0.23136E+06
 
   -0.26921E-09         0.21684E-08         0.00000E+00
    0.21684E-08        -0.48945E+06         0.00000E+00
    0.00000E+00         0.00000E+00        -0.23136E+06
 
    0.12878E-08        -0.14456E-09         0.00000E+00
   -0.14456E-09        -0.48945E+06         0.00000E+00
    0.00000E+00         0.00000E+00        -0.23136E+06
 
    0.33833E-08         0.28912E-09         0.00000E+00
    0.28912E-09        -0.48945E+06         0.00000E+00
    0.00000E+00         0.00000E+00        -0.23136E+06
 
   -0.13315E-08         0.72280E-09         0.00000E+00
    0.72280E-09        -0.48945E+06         0.00000E+00
    0.00000E+00         0.00000E+00        -0.23136E+06
 
    0.15425E-08         0.43368E-09         0.00000E+00
    0.43368E-09        -0.48945E+06         0.00000E+00
    0.00000E+00         0.00000E+00        -0.23136E+06
 
    0.58208E-10         0.28912E-09         0.00000E+00
    0.28912E-09        -0.48945E+06         0.00000E+00
    0.00000E+00         0.00000E+00        -0.23136E+06
 
    0.44383E-09         0.43368E-09         0.00000E+00
    0.43368E-09        -0.48465E+06         0.00000E+00
    0.00000E+00         0.00000E+00        -0.22656E+06
 
    0.20373E-08         0.26021E-08         0.00000E+00
    0.26021E-08        -0.48465E+06         0.00000E+00
    0.00000E+00         0.00000E+00        -0.22656E+06
 
    0.34561E-08        -0.14456E-09         0.00000E+00
   -0.14456E-09        -0.48465E+06         0.00000E+00
    0.00000E+00         0.00000E+00        -0.22656E+06
 
    0.32451E-08         0.72280E-09         0.00000E+00
    0.72280E-09        -0.48465E+06         0.00000E+00
    0.00000E+00         0.00000E+00        -0.22656E+06
 
    0.28085E-08        -0.28912E-09         0.00000E+00
   -0.28912E-09        -0.48465E+06         0.00000E+00
    0.00000E+00         0.00000E+00        -0.22656E+06
 
    0.26412E-08         0.00000E+00         0.00000E+00
    0.00000E+00        -0.48465E+06         0.00000E+00
    0.00000E+00         0.00000E+00        -0.22656E+06
 
    0.25902E-08         0.14456E-09         0.00000E+00
    0.14456E-09        -0.48465E+06         0.00000E+00
    0.00000E+00         0.00000E+00        -0.22656E+06
 
    0.15643E-08        -0.57824E-09         0.00000E+00
   -0.57824E-09        -0.48465E+06         0.00000E+00
    0.00000E+00         0.00000E+00        -0.22656E+06
 
    0.94587E-10        -0.17347E-08         0.00000E+00
   -0.17347E-08        -0.48465E+06         0.00000E+00
    0.00000E+00         0.00000E+00        -0.22656E+06
 
   -0.18772E-08         0.27466E-08         0.00000E+00
    0.27466E-08        -0.48465E+06         0.00000E+00
    0.00000E+00         0.00000E+00        -0.22656E+06
 
    0.18554E-08         0.28912E-09         0.00000E+00
    0.28912E-09        -0.48465E+06         0.00000E+00
    0.00000E+00         0.00000E+00        -0.22656E+06
 
    0.20518E-08         0.14456E-09         0.00000E+00
    0.14456E-09        -0.48465E+06         0.00000E+00
    0.00000E+00         0.00000E+00        -0.22656E+06
 
   -0.13097E-09         0.14456E-09         0.00000E+00
    0.14456E-09        -0.48465E+06         0.00000E+00
    0.00000E+00         0.00000E+00        -0.22656E+06
 
    0.24738E-08         0.14456E-09         0.00000E+00
    0.14456E-09        -0.48465E+06         0.00000E+00
    0.00000E+00         0.00000E+00        -0.22656E+06
 
    0.18699E-08        -0.43368E-09         0.00000E+00
   -0.43368E-09        -0.48465E+06         0.00000E+00
    0.00000E+00         0.00000E+00        -0.22656E+06
 
   -0.10041E-08        -0.14456E-09         0.00000E+00
   -0.14456E-09        -0.47904E+06         0.00000E+00
    0.00000E+00         0.00000E+00        -0.22096E+06
 
    0.31141E-08        -0.27466E-08         0.00000E+00
   -0.27466E-08        -0.47904E+06         0.00000E+00
    0.00000E+00         0.00000E+00        -0.22096E+06
 
    0.98225E-09         0.28912E-09         0.00000E+00
    0.28912E-09        -0.47904E+06         0.00000E+00
    0.00000E+00         0.00000E+00        -0.22096E+06
 
   -0.20518E-08         0.86736E-09         0.00000E+00
    0.86736E-09        -0.47904E+06         0.00000E+00
    0.00000E+00         0.00000E+00        -0.22096E+06
 
    0.17826E-08        -0.43368E-09         0.00000E+00
   -0.43368E-09        -0.47904E+06         0.00000E+00
    0.00000E+00         0.00000E+00        -0.22096E+06
 
   -0.82218E-09         0.86736E-09         0.00000E+00
    0.86736E-09        -0.47904E+06         0.00000E+00
    0.00000E+00         0.00000E+00        -0.22096E+06
 
   -0.62573E-09         0.10119E-08         0.00000E+00
    0.10119E-08        -0.47904E+06         0.00000E+00
    0.00000E+00         0.00000E+00        -0.22096E+06
 
   -0.23647E-08        -0.43368E-09         0.00000E+00
   -0.43368E-09        -0.47904E+06         0.00000E+00
    0.00000E+00         0.00000E+00        -0.22096E+06
 
    0.21100E-08        -0.57824E-09         0.00000E+00
   -0.57824E-09        -0.47904E+06         0.00000E+00
    0.00000E+00         0.00000E+00        -0.22096E+06
 
   -0.17462E-09        -0.86736E-09         0.00000E+00
   -0.86736E-09        -0.47904E+06         0.00000E+00
    0.00000E+00         0.00000E+00        -0.22096E+06
 
    0.16007E-09         0.14456E-09         0.00000E+00
    0.14456E-09        -0.47904E+06         0.00000E+00
    0.00000E+00         0.00000E+00        -0.22096E+06
 
    0.13752E-08         0.14456E-09         0.00000E+00
    0.14456E-09        -0.47904E+06         0.00000E+00
    0.00000E+00         0.00000E+00        -0.22096E+06
 
    0.45839E-09        -0.14456E-09         0.00000E+00
   -0.14456E-09        -0.47904E+06         0.00000E+00
    0.00000E+00         0.00000E+00        -0.22096E+06
 
   -0.81491E-09        -0.14456E-09         0.00000E+00
   -0.14456E-09        -0.47904E+06         0.00000E+00
    0.00000E+00         0.00000E+00        -0.22096E+06
 
    0.10987E-08         0.28912E-09         0.00000E+00
    0.28912E-09        -0.47904E+06         0.00000E+00
    0.00000E+00         0.00000E+00        -0.22096E+06
 
   -0.18263E-08        -0.14456E-08         0.00000E+00
   -0.14456E-08        -0.47252E+06         0.00000E+00
    0.00000E+00         0.00000E+00        -0.21444E+06
 
   -0.63665E-08         0.14456E-08         0.00000E+00
    0.14456E-08        -0.47252E+06         0.00000E+00
    0.00000E+00         0.00000E+00        -0.21444E+06
 
   -0.17535E-08         0.21684E-08         0.00000E+00
    0.21684E-08        -0.47252E+06         0.00000E+00
    0.00000E+00         0.00000E+00        -0.21444E+06
 
    0.52387E-09        -0.15902E-08         0.00000E+00
   -0.15902E-08        -0.47252E+06         0.00000E+00
    0.00000E+00         0.00000E+00        -0.21444E+06
 
    0.40018E-09         0.10119E-08         0.00000E+00
    0.10119E-08        -0.47252E+06         0.00000E+00
    0.00000E+00         0.00000E+00        -0.21444E+06
 
    0.24229E-08         0.28912E-09         0.00000E+00
    0.28912E-09        -0.47252E+06         0.00000E+00
    0.00000E+00         0.00000E+00        -0.21444E+06
 
   -0.11860E-08         0.15902E-08         0.00000E+00
    0.15902E-08        -0.47252E+06         0.00000E+00
    0.00000E+00         0.00000E+00        -0.21444E+06
 
   -0.20082E-08        -0.34694E-08         0.00000E+00
   -0.34694E-08        -0.47252E+06         0.00000E+00
    0.00000E+00         0.00000E+00        -0.21444E+06
 
   -0.75670E-09        -0.43368E-09         0.00000E+00
   -0.43368E-09        -0.47252E+06         0.00000E+00
    0.00000E+00         0.00000E+00        -0.21444E+06
 
    0.21901E-08         0.14456E-09         0.00000E+00
    0.14456E-09        -0.47252E+06         0.00000E+00
    0.00000E+00         0.00000E+00        -0.21444E+06
 
   -0.72032E-09         0.13010E-08         0.00000E+00
    0.13010E-08        -0.47252E+06         0.00000E+00
    0.00000E+00         0.00000E+00        -0.21444E+06
 
    0.47294E-09        -0.28912E-09         0.00000E+00
   -0.28912E-09        -0.47252E+06         0.00000E+00
    0.00000E+00         0.00000E+00        -0.21444E+06
 
    0.15134E-08         0.57824E-09         0.00000E+00
    0.57824E-09        -0.47252E+06         0.00000E+00
    0.00000E+00         0.00000E+00        -0.21444E+06
 
    0.96770E-09        -0.17347E-08         0.00000E+00
   -0.17347E-08        -0.47252E+06         0.00000E+00
    0.00000E+00         0.00000E+00        -0.21444E+06
 
    0.20154E-08        -0.14456E-09         0.00000E+00
   -0.14456E-09        -0.47252E+06         0.00000E+00
    0.00000E+00         0.00000E+00        -0.21444E+06
 
    0.23501E-08         0.00000E+00         0.00000E+00
    0.00000E+00        -0.46496E+06         0.00000E+00
    0.00000E+00         0.00000E+00        -0.20687E+06
 
    0.30050E-08        -0.20238E-08         0.00000E+00
   -0.20238E-08        -0.46496E+06         0.00000E+00
    0.00000E+00         0.00000E+00        -0.20687E+06
 
    0.23720E-08         0.86736E-09         0.00000E+00
    0.86736E-09        -0.46496E+06         0.00000E+00
    0.00000E+00         0.00000E+00        -0.20687E+06
 
    0.22919E-08        -0.26021E-08         0.00000E+00
   -0.26021E-08        -0.46496E+06         0.00000E+00
    0.00000E+00         0.00000E+00        -0.20687E+06
 
   -0.90222E-09        -0.20238E-08         0.00000E+00
   -0.20238E-08        -0.46496E+06         0.00000E+00
    0.00000E+00         0.00000E+00        -0.20687E+06
 
   -0.13679E-08         0.72280E-09         0.00000E+00
    0.72280E-09        -0.46496E+06         0.00000E+00
    0.00000E+00         0.00000E+00        -0.20687E+06
 
    0.10987E-08        -0.14456E-09         0.00000E+00
   -0.14456E-09        -0.46496E+06         0.00000E+00
    0.00000E+00         0.00000E+00        -0.20687E+06
 
    0.17171E-08         0.14456E-09         0.00000E+00
    0.14456E-09        -0.46496E+06         0.00000E+00
    0.00000E+00         0.00000E+00        -0.20687E+06
 
   -0.36744E-08        -0.10119E-08         0.00000E+00
   -0.10119E-08        -0.46496E+06         0.00000E+00
    0.00000E+00         0.00000E+00        -0.20687E+06
 
   -0.48676E-08        -0.57824E-09         0.00000E+00
   -0.57824E-09        -0.46496E+06         0.00000E+00
    0.00000E+00         0.00000E+00        -0.20687E+06
 
   -0.27212E-08         0.15902E-08         0.00000E+00
    0.15902E-08        -0.46496E+06         0.00000E+00
    0.00000E+00         0.00000E+00        -0.20687E+06
 
   -0.23138E-08        -0.21684E-08         0.00000E+00
   -0.21684E-08        -0.46496E+06         0.00000E+00
    0.00000E+00         0.00000E+00        -0.20687E+06
 
   -0.16225E-08         0.15902E-08         0.00000E+00
    0.15902E-08        -0.46496E+06         0.00000E+00
    0.00000E+00         0.00000E+00        -0.20687E+06
 
   -0.20518E-08        -0.86736E-09         0.00000E+00
   -0.86736E-09        -0.46496E+06         0.00000E+00
    0.00000E+00         0.00000E+00        -0.20687E+06
 
   -0.50277E-08        -0.14456E-09         0.00000E+00
   -0.14456E-09        -0.46496E+06         0.00000E+00
    0.00000E+00         0.00000E+00        -0.20687E+06
 
    0.22847E-08         0.00000E+00         0.00000E+00
    0.00000E+00        -0.45622E+06         0.00000E+00
    0.00000E+00         0.00000E+00        -0.19813E+06
 
    0.10914E-08         0.14456E-09         0.00000E+00
    0.14456E-09        -0.45622E+06         0.00000E+00
    0.00000E+00         0.00000E+00        -0.19813E+06
 
    0.69849E-09         0.28912E-09         0.00000E+00
    0.28912E-09        -0.45622E+06         0.00000E+00
    0.00000E+00         0.00000E+00        -0.19813E+06
 
   -0.18772E-08         0.11565E-08         0.00000E+00
    0.11565E-08        -0.45622E+06         0.00000E+00
    0.00000E+00         0.00000E+00        -0.19813E+06
 
   -0.22774E-08        -0.43368E-09         0.00000E+00
   -0.43368E-09        -0.45622E+06         0.00000E+00
    0.00000E+00         0.00000E+00        -0.19813E+06
 
    0.23501E-08         0.43368E-09         0.00000E+00
    0.43368E-09        -0.45622E+06         0.00000E+00
    0.00000E+00         0.00000E+00        -0.19813E+06
 
    0.15134E-08         0.10119E-08         0.00000E+00
    0.10119E-08        -0.45622E+06         0.00000E+00
    0.00000E+00         0.00000E+00        -0.19813E+06
 
    0.15280E-08         0.72280E-09         0.00000E+00
    0.72280E-09        -0.45622E+06         0.00000E+00
    0.00000E+00         0.00000E+00        -0.19813E+06
 
    0.24593E-08        -0.28912E-09         0.00000E+00
   -0.28912E-09        -0.45622E+06         0.00000E+00
    0.00000E+00         0.00000E+00        -0.19813E+06
 
    0.14406E-08         0.28912E-09         0.00000E+00
    0.28912E-09        -0.45622E+06         0.00000E+00
    0.00000E+00         0.00000E+00        -0.19813E+06
 
   -0.64028E-09         0.43368E-09         0.00000E+00
    0.43368E-09        -0.45622E+06         0.00000E+00
    0.00000E+00         0.00000E+00        -0.19813E+06
 
    0.30850E-08        -0.14456E-09         0.00000E+00
   -0.14456E-09        -0.45622E+06         0.00000E+00
    0.00000E+00         0.00000E+00        -0.19813E+06
 
   -0.63301E-09         0.13010E-08         0.00000E+00
    0.13010E-08        -0.45622E+06         0.00000E+00
    0.00000E+00         0.00000E+00        -0.19813E+06
 
    0.11132E-08         0.14456E-09         0.00000E+00
    0.14456E-09        -0.45622E+06         0.00000E+00
    0.00000E+00         0.00000E+00        -0.19813E+06
 
    0.61118E-09         0.00000E+00         0.00000E+00
    0.00000E+00        -0.45622E+06         0.00000E+00
    0.00000E+00         0.00000E+00        -0.19813E+06
 
    0.80036E-10        -0.21684E-08         0.00000E+00
   -0.21684E-08        -0.44617E+06         0.00000E+00
    0.00000E+00         0.00000E+00        -0.18809E+06
 
   -0.48531E-08         0.30358E-08         0.00000E+00
    0.30358E-08        -0.44617E+06         0.00000E+00
    0.00000E+00         0.00000E+00        -0.18809E+06
 
   -0.36089E-08        -0.72280E-09         0.00000E+00
   -0.72280E-09        -0.44617E+06         0.00000E+00
    0.00000E+00         0.00000E+00        -0.18809E+06
 
    0.32087E-08        -0.20238E-08         0.00000E+00
   -0.20238E-08        -0.44617E+06         0.00000E+00
    0.00000E+00         0.00000E+00        -0.18809E+06
 
    0.57989E-08        -0.43368E-09         0.00000E+00
   -0.43368E-09        -0.44617E+06         0.00000E+00
    0.00000E+00         0.00000E+00        -0.18809E+06
 
    0.10768E-08         0.57824E-09         0.00000E+00
    0.57824E-09        -0.44617E+06         0.00000E+00
    0.00000E+00         0.00000E+00        -0.18809E+06
 
   -0.57917E-08         0.11565E-08         0.00000E+00
    0.11565E-08        -0.44617E+06         0.00000E+00
    0.00000E+00         0.00000E+00        -0.18809E+06
 
    0.42928E-09        -0.27466E-08         0.00000E+00
   -0.27466E-08        -0.44617E+06         0.00000E+00
    0.00000E+00         0.00000E+00        -0.18809E+06
 
    0.12951E-08        -0.15902E-08         0.00000E+00
   -0.15902E-08        -0.44617E+06         0.00000E+00
    0.00000E+00         0.00000E+00        -0.18809E+06
 
   -0.14770E-08         0.17347E-08         0.00000E+00
    0.17347E-08        -0.44617E+06         0.00000E+00
    0.00000E+00         0.00000E+00        -0.18809E+06
 
   -0.31505E-08        -0.57824E-09         0.00000E+00
   -0.57824E-09        -0.44617E+06         0.00000E+00
    0.00000E+00         0.00000E+00        -0.18809E+06
 
    0.77125E-09        -0.11565E-08         0.00000E+00
   -0.11565E-08        -0.44617E+06         0.00000E+00
    0.00000E+00         0.00000E+00        -0.18809E+06
 
    0.46348E-08         0.14456E-09         0.00000E+00
    0.14456E-09        -0.44617E+06         0.00000E+00
    0.00000E+00         0.00000E+00        -0.18809E+06
 
    0.51368E-08         0.28912E-09         0.00000E+00
    0.28912E-09        -0.44617E+06         0.00000E+00
    0.00000E+00         0.00000E+00        -0.18809E+06
 
    0.20445E-08         0.72280E-09         0.00000E+00
    0.72280E-09        -0.44617E+06         0.00000E+00
    0.00000E+00         0.00000E+00        -0.18809E+06
 
   -0.27794E-08        -0.11565E-08         0.00000E+00
   -0.11565E-08        -0.43469E+06         0.00000E+00
    0.00000E+00         0.00000E+00        -0.17661E+06
 
   -0.20154E-08         0.43368E-09         0.00000E+00
    0.43368E-09        -0.43469E+06         0.00000E+00
    0.00000E+00         0.00000E+00        -0.17661E+06
 
    0.12369E-08         0.43368E-09         0.00000E+00
    0.43368E-09        -0.43469E+06         0.00000E+00
    0.00000E+00         0.00000E+00        -0.17661E+06
 
   -0.34343E-08        -0.10119E-08         0.00000E+00
   -0.10119E-08        -0.43469E+06         0.00000E+00
    0.00000E+00         0.00000E+00        -0.17661E+06
 
   -0.15207E-08        -0.15902E-08         0.00000E+00
   -0.15902E-08        -0.43469E+06         0.00000E+00
    0.00000E+00         0.00000E+00        -0.17661E+06
 
    0.45329E-08         0.14456E-08         0.00000E+00
    0.14456E-08        -0.43469E+06         0.00000E+00
    0.00000E+00         0.00000E+00        -0.17661E+06
 
    0.14843E-08         0.24575E-08         0.00000E+00
    0.24575E-08        -0.43469E+06         0.00000E+00
    0.00000E+00         0.00000E+00        -0.17661E+06
 
   -0.26994E-08        -0.18793E-08         0.00000E+00
   -0.18793E-08        -0.43469E+06         0.00000E+00
    0.00000E+00         0.00000E+00        -0.17661E+06
 
   -0.68394E-08         0.57824E-09         0.00000E+00
    0.57824E-09        -0.43469E+06         0.00000E+00
    0.00000E+00         0.00000E+00        -0.17661E+06
 
   -0.13752E-08         0.14456E-08         0.00000E+00
    0.14456E-08        -0.43469E+06         0.00000E+00
    0.00000E+00         0.00000E+00        -0.17661E+06
 
    0.57480E-09        -0.31803E-08         0.00000E+00
   -0.31803E-08        -0.43469E+06         0.00000E+00
    0.00000E+00         0.00000E+00        -0.17661E+06
 
   -0.40527E-08         0.33249E-08         0.00000E+00
    0.33249E-08        -0.43469E+06         0.00000E+00
    0.00000E+00         0.00000E+00        -0.17661E+06
 
   -0.21755E-08        -0.14456E-08         0.00000E+00
   -0.14456E-08        -0.43469E+06         0.00000E+00
    0.00000E+00         0.00000E+00        -0.17661E+06
 
   -0.89494E-09         0.14456E-09         0.00000E+00
    0.14456E-09        -0.43469E+06         0.00000E+00
    0.00000E+00         0.00000E+00        -0.17661E+06
 
    0.13242E-08         0.14456E-09         0.00000E+00
    0.14456E-09        -0.43469E+06         0.00000E+00
    0.00000E+00         0.00000E+00        -0.17661E+06
 
    0.32742E-08        -0.86736E-09         0.00000E+00
   -0.86736E-09        -0.42167E+06         0.00000E+00
    0.00000E+00         0.00000E+00        -0.16358E+06
 
   -0.88039E-09         0.72280E-09         0.00000E+00
    0.72280E-09        -0.42167E+06         0.00000E+00
    0.00000E+00         0.00000E+00        -0.16358E+06
 
    0.21464E-08         0.28912E-09         0.00000E+00
    0.28912E-09        -0.42167E+06         0.00000E+00
    0.00000E+00         0.00000E+00        -0.16358E+06
 
   -0.21864E-08         0.28912E-09         0.00000E+00
    0.28912E-09        -0.42167E+06         0.00000E+00
    0.00000E+00         0.00000E+00        -0.16358E+06
 
    0.72396E-09        -0.26021E-08         0.00000E+00
   -0.26021E-08        -0.42167E+06         0.00000E+00
    0.00000E+00         0.00000E+00        -0.16358E+06
 
   -0.37107E-08         0.14456E-09         0.00000E+00
    0.14456E-09        -0.42167E+06         0.00000E+00
    0.00000E+00         0.00000E+00        -0.16358E+06
 
   -0.72760E-09         0.86736E-09         0.00000E+00
    0.86736E-09        -0.42167E+06         0.00000E+00
    0.00000E+00         0.00000E+00        -0.16358E+06
 
    0.19645E-08         0.11565E-08         0.00000E+00
    0.11565E-08        -0.42167E+06         0.00000E+00
    0.00000E+00         0.00000E+00        -0.16358E+06
 
   -0.50932E-09        -0.14456E-09         0.00000E+00
   -0.14456E-09        -0.42167E+06         0.00000E+00
    0.00000E+00         0.00000E+00        -0.16358E+06
 
    0.15025E-08         0.72280E-09         0.00000E+00
    0.72280E-09        -0.42167E+06         0.00000E+00
    0.00000E+00         0.00000E+00        -0.16358E+06
 
   -0.19318E-08        -0.36140E-08         0.00000E+00
   -0.36140E-08        -0.42167E+06         0.00000E+00
    0.00000E+00         0.00000E+00        -0.16358E+06
 
    0.19136E-08         0.20238E-08         0.00000E+00
    0.20238E-08        -0.42167E+06         0.00000E+00
    0.00000E+00         0.00000E+00        -0.16358E+06
 
   -0.16516E-08        -0.28912E-09         0.00000E+00
   -0.28912E-09        -0.42167E+06         0.00000E+00
    0.00000E+00         0.00000E+00        -0.16358E+06
 
   -0.19681E-08        -0.23130E-08         0.00000E+00
   -0.23130E-08        -0.42167E+06         0.00000E+00
    0.00000E+00         0.00000E+00        -0.16358E+06
 
   -0.28158E-08         0.26021E-08         0.00000E+00
    0.26021E-08        -0.42167E+06         0.00000E+00
    0.00000E+00         0.00000E+00        -0.16358E+06
 
    0.34815E-08        -0.28912E-08         0.00000E+00
   -0.28912E-08        -0.40701E+06         0.00000E+00
    0.00000E+00         0.00000E+00        -0.14892E+06
 
    0.50713E-08         0.15902E-08         0.00000E+00
    0.15902E-08        -0.40701E+06         0.00000E+00
    0.00000E+00         0.00000E+00        -0.14892E+06
 
    0.21428E-08        -0.28912E-09         0.00000E+00
   -0.28912E-09        -0.40701E+06         0.00000E+00
    0.00000E+00         0.00000E+00        -0.14892E+06
 
    0.51477E-08         0.00000E+00         0.00000E+00
    0.00000E+00        -0.40701E+06         0.00000E+00
    0.00000E+00         0.00000E+00        -0.14892E+06
 
    0.20154E-08        -0.17347E-08         0.00000E+00
   -0.17347E-08        -0.40701E+06         0.00000E+00
    0.00000E+00         0.00000E+00        -0.14892E+06
 
   -0.27503E-08         0.28912E-09         0.00000E+00
    0.28912E-09        -0.40701E+06         0.00000E+00
    0.00000E+00         0.00000E+00        -0.14892E+06
 
   -0.50932E-09        -0.14456E-09         0.00000E+00
   -0.14456E-09        -0.40701E+06         0.00000E+00
    0.00000E+00         0.00000E+00        -0.14892E+06
 
    0.81491E-09         0.13010E-08         0.00000E+00
    0.13010E-08        -0.40701E+06         0.00000E+00
    0.00000E+00         0.00000E+00        -0.14892E+06
 
    0.27649E-08         0.13010E-08         0.00000E+00
    0.13010E-08        -0.40701E+06         0.00000E+00
    0.00000E+00         0.00000E+00        -0.14892E+06
 
    0.25029E-08        -0.14456E-09         0.00000E+00
   -0.14456E-09        -0.40701E+06         0.00000E+00
    0.00000E+00         0.00000E+00        -0.14892E+06
 
   -0.50568E-09        -0.14456E-09         0.00000E+00
   -0.14456E-09        -0.40701E+06         0.00000E+00
    0.00000E+00         0.00000E+00        -0.14892E+06
 
   -0.19027E-08        -0.28912E-09         0.00000E+00
   -0.28912E-09        -0.40701E+06         0.00000E+00
    0.00000E+00         0.00000E+00        -0.14892E+06
 
   -0.76398E-09         0.43368E-09         0.00000E+00
    0.43368E-09        -0.40701E+06         0.00000E+00
    0.00000E+00         0.00000E+00        -0.14892E+06
 
   -0.10477E-08        -0.14456E-09         0.00000E+00
   -0.14456E-09        -0.40701E+06         0.00000E+00
    0.00000E+00         0.00000E+00        -0.14892E+06
 
   -0.11496E-08        -0.28912E-09         0.00000E+00
   -0.28912E-09        -0.40701E+06         0.00000E+00
    0.00000E+00         0.00000E+00        -0.14892E+06
 
    0.26557E-09        -0.23130E-08         0.00000E+00
   -0.23130E-08        -0.39068E+06         0.00000E+00
    0.00000E+00         0.00000E+00        -0.13260E+06
 
    0.69122E-09         0.28912E-09         0.00000E+00
    0.28912E-09        -0.39068E+06         0.00000E+00
    0.00000E+00         0.00000E+00        -0.13260E+06
 
   -0.11823E-08        -0.28912E-09         0.00000E+00
   -0.28912E-09        -0.39068E+06         0.00000E+00
    0.00000E+00         0.00000E+00        -0.13260E+06
 
   -0.24338E-08         0.00000E+00         0.00000E+00
    0.00000E+00        -0.39068E+06         0.00000E+00
    0.00000E+00         0.00000E+00        -0.13260E+06
 
    0.13461E-08        -0.10119E-08         0.00000E+00
   -0.10119E-08        -0.39068E+06         0.00000E+00
    0.00000E+00         0.00000E+00        -0.13260E+06
 
    0.27503E-08         0.43368E-09         0.00000E+00
    0.43368E-09        -0.39068E+06         0.00000E+00
    0.00000E+00         0.00000E+00        -0.13260E+06
 
   -0.38563E-09        -0.28912E-09         0.00000E+00
   -0.28912E-09        -0.39068E+06         0.00000E+00
    0.00000E+00         0.00000E+00        -0.13260E+06
 
   -0.15352E-08        -0.57824E-09         0.00000E+00
   -0.57824E-09        -0.39068E+06         0.00000E+00
    0.00000E+00         0.00000E+00        -0.13260E+06
 
   -0.11823E-08        -0.13010E-08         0.00000E+00
   -0.13010E-08        -0.39068E+06         0.00000E+00
    0.00000E+00         0.00000E+00        -0.13260E+06
 
   -0.27612E-08        -0.43368E-09         0.00000E+00
   -0.43368E-09        -0.39068E+06         0.00000E+00
    0.00000E+00         0.00000E+00        -0.13260E+06
 
   -0.30850E-08         0.43368E-09         0.00000E+00
    0.43368E-09        -0.39068E+06         0.00000E+00
    0.00000E+00         0.00000E+00        -0.13260E+06
 
   -0.31105E-08         0.14456E-09         0.00000E+00
    0.14456E-09        -0.39068E+06         0.00000E+00
    0.00000E+00         0.00000E+00        -0.13260E+06
 
   -0.34779E-08        -0.28912E-09         0.00000E+00
   -0.28912E-09        -0.39068E+06         0.00000E+00
    0.00000E+00         0.00000E+00        -0.13260E+06
 
   -0.18990E-08        -0.14456E-09         0.00000E+00
   -0.14456E-09        -0.39068E+06         0.00000E+00
    0.00000E+00         0.00000E+00        -0.13260E+06
 
   -0.14916E-08         0.00000E+00         0.00000E+00
    0.00000E+00        -0.39068E+06         0.00000E+00
    0.00000E+00         0.00000E+00        -0.13260E+06
 
   -0.73669E-09         0.28912E-09         0.00000E+00
    0.28912E-09        -0.37275E+06         0.00000E+00
    0.00000E+00         0.00000E+00        -0.11467E+06
 
   -0.13879E-08         0.14456E-09         0.00000E+00
    0.14456E-09        -0.37275E+06         0.00000E+00
    0.00000E+00         0.00000E+00        -0.11467E+06
 
   -0.11623E-08        -0.14456E-09         0.00000E+00
   -0.14456E-09        -0.37275E+06         0.00000E+00
    0.00000E+00         0.00000E+00        -0.11467E+06
 
   -0.94042E-09         0.00000E+00         0.00000E+00
    0.00000E+00        -0.37275E+06         0.00000E+00
    0.00000E+00         0.00000E+00        -0.11467E+06
 
   -0.31559E-08        -0.14456E-08         0.00000E+00
   -0.14456E-08        -0.37275E+06         0.00000E+00
    0.00000E+00         0.00000E+00        -0.11467E+06
 
   -0.32014E-09         0.20238E-08         0.00000E+00
    0.20238E-08        -0.37275E+06         0.00000E+00
    0.00000E+00         0.00000E+00        -0.11467E+06
 
    0.26776E-08         0.00000E+00         0.00000E+00
    0.00000E+00        -0.37275E+06         0.00000E+00
    0.00000E+00         0.00000E+00        -0.11467E+06
 
    0.18299E-08         0.00000E+00         0.00000E+00
    0.00000E+00        -0.37275E+06         0.00000E+00
    0.00000E+00         0.00000E+00        -0.11467E+06
 
    0.14861E-08        -0.72280E-09         0.00000E+00
   -0.72280E-09        -0.37275E+06         0.00000E+00
    0.00000E+00         0.00000E+00        -0.11467E+06
 
   -0.15116E-08        -0.57824E-09         0.00000E+00
   -0.57824E-09        -0.37275E+06         0.00000E+00
    0.00000E+00         0.00000E+00        -0.11467E+06
 
   -0.17426E-08        -0.57824E-09         0.00000E+00
   -0.57824E-09        -0.37275E+06         0.00000E+00
    0.00000E+00         0.00000E+00        -0.11467E+06
 
   -0.16535E-08        -0.14456E-09         0.00000E+00
   -0.14456E-09        -0.37275E+06         0.00000E+00
    0.00000E+00         0.00000E+00        -0.11467E+06
 
   -0.40018E-09        -0.43368E-09         0.00000E+00
   -0.43368E-09        -0.37275E+06         0.00000E+00
    0.00000E+00         0.00000E+00        -0.11467E+06
 
    0.18190E-08        -0.28912E-09         0.00000E+00
   -0.28912E-09        -0.37275E+06         0.00000E+00
    0.00000E+00         0.00000E+00        -0.11467E+06
 
    0.15825E-09         0.28912E-09         0.00000E+00
    0.28912E-09        -0.37275E+06         0.00000E+00
    0.00000E+00         0.00000E+00        -0.11467E+06
 
    0.42019E-09         0.00000E+00         0.00000E+00
    0.00000E+00        -0.35340E+06         0.00000E+00
    0.00000E+00         0.00000E+00        -0.95318E+05
 
    0.19445E-08        -0.28912E-09         0.00000E+00
   -0.28912E-09        -0.35340E+06         0.00000E+00
    0.00000E+00         0.00000E+00        -0.95318E+05
 
    0.19736E-08        -0.13010E-08         0.00000E+00
   -0.13010E-08        -0.35340E+06         0.00000E+00
    0.00000E+00         0.00000E+00        -0.95318E+05
 
    0.45384E-08        -0.11565E-08         0.00000E+00
   -0.11565E-08        -0.35340E+06         0.00000E+00
    0.00000E+00         0.00000E+00        -0.95318E+05
 
    0.51296E-09        -0.57824E-09         0.00000E+00
   -0.57824E-09        -0.35340E+06         0.00000E+00
    0.00000E+00         0.00000E+00        -0.95318E+05
 
   -0.11478E-08         0.57824E-09         0.00000E+00
    0.57824E-09        -0.35340E+06         0.00000E+00
    0.00000E+00         0.00000E+00        -0.95318E+05
 
   -0.21464E-08        -0.14456E-08         0.00000E+00
   -0.14456E-08        -0.35340E+06         0.00000E+00
    0.00000E+00         0.00000E+00        -0.95318E+05
 
   -0.32051E-08        -0.86736E-09         0.00000E+00
   -0.86736E-09        -0.35340E+06         0.00000E+00
    0.00000E+00         0.00000E+00        -0.95318E+05
 
   -0.20627E-08        -0.57824E-09         0.00000E+00
   -0.57824E-09        -0.35340E+06         0.00000E+00
    0.00000E+00         0.00000E+00        -0.95318E+05
 
   -0.26066E-08         0.57824E-09         0.00000E+00
    0.57824E-09        -0.35340E+06         0.00000E+00
    0.00000E+00         0.00000E+00        -0.95318E+05
 
   -0.25702E-08         0.57824E-09         0.00000E+00
    0.57824E-09        -0.35340E+06         0.00000E+00
    0.00000E+00         0.00000E+00        -0.95318E+05
 
    0.15807E-08        -0.15902E-08         0.00000E+00
   -0.15902E-08        -0.35340E+06         0.00000E+00
    0.00000E+00         0.00000E+00        -0.95318E+05
 
    0.16917E-08         0.13010E-08         0.00000E+00
    0.13010E-08        -0.35340E+06         0.00000E+00
    0.00000E+00         0.00000E+00        -0.95318E+05
 
   -0.10550E-09        -0.15902E-08         0.00000E+00
   -0.15902E-08        -0.35340E+06         0.00000E+00
    0.00000E+00         0.00000E+00        -0.95318E+05
 
   -0.34743E-09         0.86736E-09         0.00000E+00
    0.86736E-09        -0.35340E+06         0.00000E+00
    0.00000E+00         0.00000E+00        -0.95318E+05
 
   -0.21946E-08        -0.31803E-08         0.00000E+00
   -0.31803E-08        -0.33300E+06         0.00000E+00
    0.00000E+00         0.00000E+00        -0.74920E+05
 
   -0.18326E-08         0.00000E+00         0.00000E+00
    0.00000E+00        -0.33300E+06         0.00000E+00
    0.00000E+00         0.00000E+00        -0.74920E+05
 
    0.15207E-08        -0.14456E-08         0.00000E+00
   -0.14456E-08        -0.33300E+06         0.00000E+00
    0.00000E+00         0.00000E+00        -0.74920E+05
 
    0.33890E-08         0.27466E-08         0.00000E+00
    0.27466E-08        -0.33300E+06         0.00000E+00
    0.00000E+00         0.00000E+00        -0.74920E+05
 
    0.15452E-08        -0.57824E-09         0.00000E+00
   -0.57824E-09        -0.33300E+06         0.00000E+00
    0.00000E+00         0.00000E+00        -0.74920E+05
 
    0.15234E-09         0.21684E-08         0.00000E+00
    0.21684E-08        -0.33300E+06         0.00000E+00
    0.00000E+00         0.00000E+00        -0.74920E+05
 
   -0.58099E-08        -0.15902E-08         0.00000E+00
   -0.15902E-08        -0.33300E+06         0.00000E+00
    0.00000E+00         0.00000E+00        -0.74920E+05
 
   -0.28688E-08        -0.30358E-08         0.00000E+00
   -0.30358E-08        -0.33300E+06         0.00000E+00
    0.00000E+00         0.00000E+00        -0.74920E+05
 
    0.21635E-08         0.23130E-08         0.00000E+00
    0.23130E-08        -0.33300E+06         0.00000E+00
    0.00000E+00         0.00000E+00        -0.74920E+05
 
    0.13961E-09         0.14456E-09         0.00000E+00
    0.14456E-09        -0.33300E+06         0.00000E+00
    0.00000E+00         0.00000E+00        -0.74920E+05
 
    0.16798E-08         0.13010E-08         0.00000E+00
    0.13010E-08        -0.33300E+06         0.00000E+00
    0.00000E+00         0.00000E+00        -0.74920E+05
 
   -0.42523E-08        -0.14456E-08         0.00000E+00
   -0.14456E-08        -0.33300E+06         0.00000E+00
    0.00000E+00         0.00000E+00        -0.74920E+05
 
   -0.15209E-08         0.11565E-08         0.00000E+00
    0.11565E-08        -0.33300E+06         0.00000E+00
    0.00000E+00         0.00000E+00        -0.74920E+05
 
    0.10662E-08         0.43368E-09         0.00000E+00
    0.43368E-09        -0.33300E+06         0.00000E+00
    0.00000E+00         0.00000E+00        -0.74920E+05
 
    0.27126E-09        -0.14456E-09         0.00000E+00
   -0.14456E-09        -0.33300E+06         0.00000E+00
    0.00000E+00         0.00000E+00        -0.74920E+05
 
SCALARS stressS double 
LOOKUP_TABLE default
  -258084.238754388     
  -258084.238754387     
  -258084.238754387     
  -258084.238754387     
  -258084.238754388     
  -258084.238754387     
  -258084.238754387     
  -258084.238754387     
  -258084.238754387     
  -258084.238754387     
  -258084.238754387     
  -258084.238754387     
  -258084.238754387     
  -258084.238754387     
  -258084.238754387     
  -258084.237248029     
  -258084.237248029     
  -258084.237248029     
  -258084.237248029     
  -258084.237248029     
  -258084.237248029     
  -258084.237248029     
  -258084.237248029     
  -258084.237248029     
  -258084.237248029     
  -258084.237248029     
  -258084.237248029     
  -258084.237248028     
  -258084.237248028     
  -258084.237248028     
  -258084.234187121     
  -258084.234187121     
  -258084.234187121     
  -258084.234187121     
  -258084.234187121     
  -258084.234187121     
  -258084.234187121     
  -258084.234187121     
  -258084.234187121     
  -258084.234187120     
  -258084.234187121     
  -258084.234187120     
  -258084.234187120     
  -258084.234187120     
  -258084.234187120     
  -258084.229473740     
  -258084.229473740     
  -258084.229473740     
  -258084.229473740     
  -258084.229473740     
  -258084.229473740     
  -258084.229473740     
  -258084.229473740     
  -258084.229473740     
  -258084.229473740     
  -258084.229473740     
  -258084.229473740     
  -258084.229473740     
  -258084.229473740     
  -258084.229473740     
  -258084.222957101     
  -258084.222957101     
  -258084.222957101     
  -258084.222957101     
  -258084.222957101     
  -258084.222957101     
  -258084.222957101     
  -258084.222957101     
  -258084.222957101     
  -258084.222957101     
  -258084.222957100     
  -258084.222957100     
  -258084.222957100     
  -258084.222957100     
  -258084.222957100     
  -258084.214428730     
  -258084.214428730     
  -258084.214428730     
  -258084.214428730     
  -258084.214428730     
  -258084.214428730     
  -258084.214428730     
  -258084.214428730     
  -258084.214428730     
  -258084.214428730     
  -258084.214428730     
  -258084.214428730     
  -258084.214428730     
  -258084.214428730     
  -258084.214428730     
  -258084.203615804     
  -258084.203615804     
  -258084.203615804     
  -258084.203615804     
  -258084.203615804     
  -258084.203615804     
  -258084.203615804     
  -258084.203615804     
  -258084.203615804     
  -258084.203615804     
  -258084.203615804     
  -258084.203615804     
  -258084.203615804     
  -258084.203615804     
  -258084.203615804     
  -258084.190172422     
  -258084.190172423     
  -258084.190172422     
  -258084.190172422     
  -258084.190172422     
  -258084.190172423     
  -258084.190172422     
  -258084.190172422     
  -258084.190172422     
  -258084.190172422     
  -258084.190172422     
  -258084.190172422     
  -258084.190172422     
  -258084.190172422     
  -258084.190172422     
  -258084.173668548     
  -258084.173668548     
  -258084.173668548     
  -258084.173668547     
  -258084.173668548     
  -258084.173668548     
  -258084.173668548     
  -258084.173668548     
  -258084.173668547     
  -258084.173668548     
  -258084.173668547     
  -258084.173668547     
  -258084.173668547     
  -258084.173668547     
  -258084.173668547     
  -258084.153576256     
  -258084.153576257     
  -258084.153576256     
  -258084.153576256     
  -258084.153576256     
  -258084.153576256     
  -258084.153576256     
  -258084.153576256     
  -258084.153576256     
  -258084.153576256     
  -258084.153576256     
  -258084.153576256     
  -258084.153576256     
  -258084.153576256     
  -258084.153576256     
  -258084.129252861     
  -258084.129252860     
  -258084.129252860     
  -258084.129252861     
  -258084.129252860     
  -258084.129252860     
  -258084.129252860     
  -258084.129252860     
  -258084.129252860     
  -258084.129252860     
  -258084.129252860     
  -258084.129252860     
  -258084.129252860     
  -258084.129252860     
  -258084.129252860     
  -258084.099920361     
  -258084.099920361     
  -258084.099920361     
  -258084.099920361     
  -258084.099920361     
  -258084.099920361     
  -258084.099920361     
  -258084.099920361     
  -258084.099920361     
  -258084.099920361     
  -258084.099920361     
  -258084.099920361     
  -258084.099920361     
  -258084.099920361     
  -258084.099920361     
  -258084.064640580     
  -258084.064640580     
  -258084.064640579     
  -258084.064640579     
  -258084.064640579     
  -258084.064640579     
  -258084.064640579     
  -258084.064640579     
  -258084.064640579     
  -258084.064640579     
  -258084.064640579     
  -258084.064640579     
  -258084.064640579     
  -258084.064640579     
  -258084.064640579     
  -258084.022285169     
  -258084.022285169     
  -258084.022285169     
  -258084.022285169     
  -258084.022285169     
  -258084.022285168     
  -258084.022285169     
  -258084.022285169     
  -258084.022285169     
  -258084.022285169     
  -258084.022285169     
  -258084.022285168     
  -258084.022285168     
  -258084.022285169     
  -258084.022285169     
  -258083.971499554     
  -258083.971499554     
  -258083.971499554     
  -258083.971499554     
  -258083.971499554     
  -258083.971499554     
  -258083.971499554     
  -258083.971499553     
  -258083.971499554     
  -258083.971499554     
  -258083.971499554     
  -258083.971499554     
  -258083.971499554     
  -258083.971499554     
  -258083.971499554     
  -258083.910659645     
  -258083.910659646     
  -258083.910659645     
  -258083.910659645     
  -258083.910659646     
  -258083.910659646     
  -258083.910659645     
  -258083.910659646     
  -258083.910659646     
  -258083.910659646     
  -258083.910659645     
  -258083.910659646     
  -258083.910659646     
  -258083.910659646     
  -258083.910659646     
  -258083.837819948     
  -258083.837819948     
  -258083.837819948     
  -258083.837819948     
  -258083.837819948     
  -258083.837819947     
  -258083.837819948     
  -258083.837819948     
  -258083.837819948     
  -258083.837819948     
  -258083.837819948     
  -258083.837819948     
  -258083.837819947     
  -258083.837819947     
  -258083.837819948     
  -258083.750651406     
  -258083.750651406     
  -258083.750651406     
  -258083.750651406     
  -258083.750651406     
  -258083.750651406     
  -258083.750651406     
  -258083.750651406     
  -258083.750651406     
  -258083.750651406     
  -258083.750651406     
  -258083.750651406     
  -258083.750651406     
  -258083.750651406     
  -258083.750651406     
  -258083.646367016     
  -258083.646367017     
  -258083.646367016     
  -258083.646367016     
  -258083.646367016     
  -258083.646367016     
  -258083.646367016     
  -258083.646367016     
  -258083.646367016     
  -258083.646367016     
  -258083.646367016     
  -258083.646367016     
  -258083.646367016     
  -258083.646367016     
  -258083.646367016     
  -258083.521632819     
  -258083.521632819     
  -258083.521632819     
  -258083.521632819     
  -258083.521632819     
  -258083.521632819     
  -258083.521632819     
  -258083.521632819     
  -258083.521632819     
  -258083.521632819     
  -258083.521632819     
  -258083.521632820     
  -258083.521632819     
  -258083.521632819     
  -258083.521632819     
  -258083.372461452     
  -258083.372461452     
  -258083.372461452     
  -258083.372461452     
  -258083.372461451     
  -258083.372461452     
  -258083.372461451     
  -258083.372461452     
  -258083.372461452     
  -258083.372461452     
  -258083.372461451     
  -258083.372461451     
  -258083.372461451     
  -258083.372461451     
  -258083.372461451     
  -258083.194084863     
  -258083.194084863     
  -258083.194084862     
  -258083.194084863     
  -258083.194084863     
  -258083.194084863     
  -258083.194084863     
  -258083.194084863     
  -258083.194084863     
  -258083.194084863     
  -258083.194084863     
  -258083.194084863     
  -258083.194084863     
  -258083.194084863     
  -258083.194084863     
  -258082.980802145     
  -258082.980802145     
  -258082.980802145     
  -258082.980802145     
  -258082.980802145     
  -258082.980802145     
  -258082.980802144     
  -258082.980802144     
  -258082.980802144     
  -258082.980802145     
  -258082.980802145     
  -258082.980802145     
  -258082.980802145     
  -258082.980802145     
  -258082.980802145     
  -258082.725797647     
  -258082.725797647     
  -258082.725797647     
  -258082.725797647     
  -258082.725797647     
  -258082.725797646     
  -258082.725797647     
  -258082.725797647     
  -258082.725797647     
  -258082.725797647     
  -258082.725797647     
  -258082.725797647     
  -258082.725797647     
  -258082.725797648     
  -258082.725797647     
  -258082.420923580     
  -258082.420923579     
  -258082.420923580     
  -258082.420923579     
  -258082.420923580     
  -258082.420923580     
  -258082.420923580     
  -258082.420923580     
  -258082.420923580     
  -258082.420923580     
  -258082.420923580     
  -258082.420923580     
  -258082.420923580     
  -258082.420923580     
  -258082.420923580     
  -258082.056440220     
  -258082.056440220     
  -258082.056440220     
  -258082.056440219     
  -258082.056440221     
  -258082.056440220     
  -258082.056440220     
  -258082.056440219     
  -258082.056440220     
  -258082.056440220     
  -258082.056440220     
  -258082.056440220     
  -258082.056440220     
  -258082.056440220     
  -258082.056440220     
  -258081.620705464     
  -258081.620705465     
  -258081.620705465     
  -258081.620705465     
  -258081.620705464     
  -258081.620705465     
  -258081.620705465     
  -258081.620705465     
  -258081.620705465     
  -258081.620705465     
  -258081.620705465     
  -258081.620705465     
  -258081.620705465     
  -258081.620705465     
  -258081.620705465     
  -258081.099803899     
  -258081.099803898     
  -258081.099803899     
  -258081.099803899     
  -258081.099803898     
  -258081.099803898     
  -258081.099803898     
  -258081.099803899     
  -258081.099803898     
  -258081.099803899     
  -258081.099803898     
  -258081.099803899     
  -258081.099803899     
  -258081.099803899     
  -258081.099803899     
  -258080.477103619     
  -258080.477103619     
  -258080.477103619     
  -258080.477103619     
  -258080.477103619     
  -258080.477103619     
  -258080.477103619     
  -258080.477103618     
  -258080.477103619     
  -258080.477103619     
  -258080.477103619     
  -258080.477103618     
  -258080.477103619     
  -258080.477103619     
  -258080.477103619     
  -258079.732726803     
  -258079.732726803     
  -258079.732726804     
  -258079.732726803     
  -258079.732726804     
  -258079.732726803     
  -258079.732726803     
  -258079.732726803     
  -258079.732726803     
  -258079.732726803     
  -258079.732726803     
  -258079.732726803     
  -258079.732726804     
  -258079.732726804     
  -258079.732726804     
  -258078.842917289     
  -258078.842917289     
  -258078.842917289     
  -258078.842917289     
  -258078.842917289     
  -258078.842917288     
  -258078.842917289     
  -258078.842917289     
  -258078.842917289     
  -258078.842917289     
  -258078.842917289     
  -258078.842917289     
  -258078.842917288     
  -258078.842917288     
  -258078.842917289     
  -258077.779285193     
  -258077.779285194     
  -258077.779285194     
  -258077.779285194     
  -258077.779285194     
  -258077.779285194     
  -258077.779285193     
  -258077.779285193     
  -258077.779285193     
  -258077.779285194     
  -258077.779285193     
  -258077.779285194     
  -258077.779285193     
  -258077.779285194     
  -258077.779285192     
  -258076.507904784     
  -258076.507904784     
  -258076.507904784     
  -258076.507904784     
  -258076.507904784     
  -258076.507904784     
  -258076.507904784     
  -258076.507904784     
  -258076.507904784     
  -258076.507904784     
  -258076.507904784     
  -258076.507904783     
  -258076.507904784     
  -258076.507904784     
  -258076.507904783     
  -258074.988237190     
  -258074.988237189     
  -258074.988237189     
  -258074.988237189     
  -258074.988237189     
  -258074.988237189     
  -258074.988237189     
  -258074.988237189     
  -258074.988237189     
  -258074.988237189     
  -258074.988237189     
  -258074.988237189     
  -258074.988237188     
  -258074.988237188     
  -258074.988237189     
  -258073.171844126     
  -258073.171844125     
  -258073.171844125     
  -258073.171844124     
  -258073.171844125     
  -258073.171844125     
  -258073.171844125     
  -258073.171844125     
  -258073.171844125     
  -258073.171844125     
  -258073.171844125     
  -258073.171844124     
  -258073.171844125     
  -258073.171844124     
  -258073.171844125     
  -258071.000852289     
  -258071.000852289     
  -258071.000852289     
  -258071.000852289     
  -258071.000852289     
  -258071.000852289     
  -258071.000852289     
  -258071.000852289     
  -258071.000852290     
  -258071.000852289     
  -258071.000852289     
  -258071.000852289     
  -258071.000852290     
  -258071.000852289     
  -258071.000852290     
  -258068.406120380     
  -258068.406120379     
  -258068.406120379     
  -258068.406120378     
  -258068.406120378     
  -258068.406120379     
  -258068.406120380     
  -258068.406120379     
  -258068.406120379     
  -258068.406120379     
  -258068.406120379     
  -258068.406120380     
  -258068.406120379     
  -258068.406120378     
  -258068.406120378     
  -258065.305051507     
  -258065.305051508     
  -258065.305051508     
  -258065.305051509     
  -258065.305051508     
  -258065.305051507     
  -258065.305051507     
  -258065.305051508     
  -258065.305051508     
  -258065.305051508     
  -258065.305051508     
  -258065.305051508     
  -258065.305051507     
  -258065.305051507     
  -258065.305051508     
  -258061.598982903     
  -258061.598982903     
  -258061.598982904     
  -258061.598982903     
  -258061.598982903     
  -258061.598982903     
  -258061.598982903     
  -258061.598982904     
  -258061.598982904     
  -258061.598982905     
  -258061.598982905     
  -258061.598982905     
  -258061.598982905     
  -258061.598982904     
  -258061.598982903     
  -258057.170071822     
  -258057.170071823     
  -258057.170071823     
  -258057.170071822     
  -258057.170071823     
  -258057.170071823     
  -258057.170071823     
  -258057.170071822     
  -258057.170071822     
  -258057.170071821     
  -258057.170071821     
  -258057.170071821     
  -258057.170071821     
  -258057.170071822     
  -258057.170071823     
  -258051.877581295     
  -258051.877581294     
  -258051.877581294     
  -258051.877581294     
  -258051.877581295     
  -258051.877581295     
  -258051.877581296     
  -258051.877581296     
  -258051.877581296     
  -258051.877581296     
  -258051.877581296     
  -258051.877581296     
  -258051.877581296     
  -258051.877581295     
  -258051.877581296     
  -258045.553451127     
  -258045.553451127     
  -258045.553451127     
  -258045.553451127     
  -258045.553451126     
  -258045.553451128     
  -258045.553451127     
  -258045.553451127     
  -258045.553451128     
  -258045.553451128     
  -258045.553451128     
  -258045.553451128     
  -258045.553451128     
  -258045.553451127     
  -258045.553451128     
  -258037.997018046     
  -258037.997018046     
  -258037.997018046     
  -258037.997018046     
  -258037.997018046     
  -258037.997018046     
  -258037.997018046     
  -258037.997018046     
  -258037.997018046     
  -258037.997018046     
  -258037.997018046     
  -258037.997018046     
  -258037.997018047     
  -258037.997018046     
  -258037.997018047     
  -258028.968723446     
  -258028.968723446     
  -258028.968723444     
  -258028.968723446     
  -258028.968723447     
  -258028.968723447     
  -258028.968723447     
  -258028.968723447     
  -258028.968723447     
  -258028.968723447     
  -258028.968723447     
  -258028.968723447     
  -258028.968723446     
  -258028.968723446     
  -258028.968723447     
  -258018.182617126     
  -258018.182617126     
  -258018.182617126     
  -258018.182617126     
  -258018.182617126     
  -258018.182617126     
  -258018.182617125     
  -258018.182617126     
  -258018.182617127     
  -258018.182617126     
  -258018.182617126     
  -258018.182617126     
  -258018.182617126     
  -258018.182617125     
  -258018.182617126     
  -258005.297429907     
  -258005.297429908     
  -258005.297429907     
  -258005.297429907     
  -258005.297429907     
  -258005.297429908     
  -258005.297429909     
  -258005.297429907     
  -258005.297429907     
  -258005.297429908     
  -258005.297429907     
  -258005.297429907     
  -258005.297429907     
  -258005.297429908     
  -258005.297429908     
  -257989.905946329     
  -257989.905946330     
  -257989.905946330     
  -257989.905946330     
  -257989.905946331     
  -257989.905946330     
  -257989.905946330     
  -257989.905946329     
  -257989.905946330     
  -257989.905946331     
  -257989.905946329     
  -257989.905946329     
  -257989.905946330     
  -257989.905946330     
  -257989.905946330     
  -257971.522359453     
  -257971.522359453     
  -257971.522359452     
  -257971.522359453     
  -257971.522359453     
  -257971.522359453     
  -257971.522359454     
  -257971.522359454     
  -257971.522359453     
  -257971.522359452     
  -257971.522359453     
  -257971.522359453     
  -257971.522359453     
  -257971.522359453     
  -257971.522359452     
  -257949.567232243     
  -257949.567232243     
  -257949.567232243     
  -257949.567232243     
  -257949.567232243     
  -257949.567232244     
  -257949.567232243     
  -257949.567232242     
  -257949.567232243     
  -257949.567232244     
  -257949.567232244     
  -257949.567232244     
  -257949.567232244     
  -257949.567232245     
  -257949.567232245     
  -257923.349622592     
  -257923.349622593     
  -257923.349622592     
  -257923.349622593     
  -257923.349622592     
  -257923.349622593     
  -257923.349622593     
  -257923.349622593     
  -257923.349622593     
  -257923.349622593     
  -257923.349622593     
  -257923.349622592     
  -257923.349622591     
  -257923.349622593     
  -257923.349622593     
  -257892.045850294     
  -257892.045850294     
  -257892.045850294     
  -257892.045850295     
  -257892.045850295     
  -257892.045850295     
  -257892.045850294     
  -257892.045850295     
  -257892.045850295     
  -257892.045850295     
  -257892.045850295     
  -257892.045850294     
  -257892.045850295     
  -257892.045850294     
  -257892.045850294     
  -257854.674292739     
  -257854.674292740     
  -257854.674292738     
  -257854.674292738     
  -257854.674292738     
  -257854.674292740     
  -257854.674292740     
  -257854.674292739     
  -257854.674292739     
  -257854.674292740     
  -257854.674292739     
  -257854.674292741     
  -257854.674292740     
  -257854.674292739     
  -257854.674292739     
  -257810.065489828     
  -257810.065489828     
  -257810.065489829     
  -257810.065489829     
  -257810.065489829     
  -257810.065489826     
  -257810.065489826     
  -257810.065489827     
  -257810.065489827     
  -257810.065489827     
  -257810.065489828     
  -257810.065489828     
  -257810.065489828     
  -257810.065489828     
  -257810.065489828     
  -257756.826715941     
  -257756.826715941     
  -257756.826715942     
  -257756.826715941     
  -257756.826715942     
  -257756.826715940     
  -257756.826715942     
  -257756.826715942     
  -257756.826715943     
  -257756.826715942     
  -257756.826715942     
  -257756.826715943     
  -257756.826715943     
  -257756.826715943     
  -257756.826715942     
  -257693.300035831     
  -257693.300035830     
  -257693.300035830     
  -257693.300035831     
  -257693.300035831     
  -257693.300035830     
  -257693.300035831     
  -257693.300035831     
  -257693.300035829     
  -257693.300035831     
  -257693.300035832     
  -257693.300035832     
  -257693.300035831     
  -257693.300035830     
  -257693.300035831     
  -257617.512700150     
  -257617.512700150     
  -257617.512700150     
  -257617.512700149     
  -257617.512700150     
  -257617.512700151     
  -257617.512700151     
  -257617.512700151     
  -257617.512700150     
  -257617.512700149     
  -257617.512700150     
  -257617.512700150     
  -257617.512700150     
  -257617.512700150     
  -257617.512700148     
  -257527.118553667     
  -257527.118553667     
  -257527.118553666     
  -257527.118553666     
  -257527.118553667     
  -257527.118553667     
  -257527.118553667     
  -257527.118553667     
  -257527.118553668     
  -257527.118553668     
  -257527.118553668     
  -257527.118553669     
  -257527.118553668     
  -257527.118553668     
  -257527.118553668     
  -257419.328923542     
  -257419.328923543     
  -257419.328923543     
  -257419.328923543     
  -257419.328923542     
  -257419.328923542     
  -257419.328923542     
  -257419.328923543     
  -257419.328923543     
  -257419.328923543     
  -257419.328923542     
  -257419.328923542     
  -257419.328923542     
  -257419.328923543     
  -257419.328923542     
  -257290.831226314     
  -257290.831226313     
  -257290.831226312     
  -257290.831226313     
  -257290.831226313     
  -257290.831226314     
  -257290.831226313     
  -257290.831226314     
  -257290.831226314     
  -257290.831226314     
  -257290.831226314     
  -257290.831226314     
  -257290.831226314     
  -257290.831226314     
  -257290.831226315     
  -257137.693281048     
  -257137.693281048     
  -257137.693281048     
  -257137.693281049     
  -257137.693281048     
  -257137.693281048     
  -257137.693281050     
  -257137.693281050     
  -257137.693281049     
  -257137.693281051     
  -257137.693281051     
  -257137.693281051     
  -257137.693281050     
  -257137.693281049     
  -257137.693281049     
  -256955.251045248     
  -256955.251045248     
  -256955.251045248     
  -256955.251045249     
  -256955.251045247     
  -256955.251045247     
  -256955.251045247     
  -256955.251045248     
  -256955.251045249     
  -256955.251045248     
  -256955.251045249     
  -256955.251045249     
  -256955.251045248     
  -256955.251045248     
  -256955.251045248     
  -256737.977204860     
  -256737.977204862     
  -256737.977204860     
  -256737.977204862     
  -256737.977204864     
  -256737.977204862     
  -256737.977204861     
  -256737.977204861     
  -256737.977204861     
  -256737.977204861     
  -256737.977204861     
  -256737.977204863     
  -256737.977204863     
  -256737.977204863     
  -256737.977204863     
  -256479.327759672     
  -256479.327759673     
  -256479.327759672     
  -256479.327759673     
  -256479.327759671     
  -256479.327759671     
  -256479.327759672     
  -256479.327759672     
  -256479.327759672     
  -256479.327759672     
  -256479.327759673     
  -256479.327759674     
  -256479.327759672     
  -256479.327759673     
  -256479.327759673     
  -256171.563465302     
  -256171.563465301     
  -256171.563465301     
  -256171.563465300     
  -256171.563465301     
  -256171.563465302     
  -256171.563465302     
  -256171.563465303     
  -256171.563465302     
  -256171.563465302     
  -256171.563465303     
  -256171.563465304     
  -256171.563465302     
  -256171.563465303     
  -256171.563465303     
  -255805.542746286     
  -255805.542746287     
  -255805.542746287     
  -255805.542746288     
  -255805.542746288     
  -255805.542746288     
  -255805.542746287     
  -255805.542746288     
  -255805.542746288     
  -255805.542746289     
  -255805.542746289     
  -255805.542746287     
  -255805.542746288     
  -255805.542746288     
  -255805.542746288     
  -255370.482515250     
  -255370.482515250     
  -255370.482515249     
  -255370.482515248     
  -255370.482515248     
  -255370.482515249     
  -255370.482515249     
  -255370.482515250     
  -255370.482515249     
  -255370.482515249     
  -255370.482515250     
  -255370.482515250     
  -255370.482515251     
  -255370.482515250     
  -255370.482515250     
  -254853.683270742     
  -254853.683270741     
  -254853.683270742     
  -254853.683270742     
  -254853.683270742     
  -254853.683270743     
  -254853.683270741     
  -254853.683270742     
  -254853.683270742     
  -254853.683270742     
  -254853.683270741     
  -254853.683270743     
  -254853.683270741     
  -254853.683270742     
  -254853.683270742     
  -254240.214971773     
  -254240.214971773     
  -254240.214971773     
  -254240.214971774     
  -254240.214971773     
  -254240.214971772     
  -254240.214971772     
  -254240.214971772     
  -254240.214971774     
  -254240.214971773     
  -254240.214971775     
  -254240.214971774     
  -254240.214971773     
  -254240.214971774     
  -254240.214971775     
  -253512.560599877     
  -253512.560599877     
  -253512.560599877     
  -253512.560599877     
  -253512.560599877     
  -253512.560599878     
  -253512.560599878     
  -253512.560599878     
  -253512.560599877     
  -253512.560599877     
  -253512.560599878     
  -253512.560599878     
  -253512.560599878     
  -253512.560599878     
  -253512.560599877     
  -252650.215159205     
  -252650.215159207     
  -252650.215159208     
  -252650.215159206     
  -252650.215159205     
  -252650.215159206     
  -252650.215159205     
  -252650.215159207     
  -252650.215159208     
  -252650.215159207     
  -252650.215159207     
  -252650.215159206     
  -252650.215159208     
  -252650.215159206     
  -252650.215159205     
  -251629.239323767     
  -251629.239323767     
  -251629.239323766     
  -251629.239323767     
  -251629.239323767     
  -251629.239323768     
  -251629.239323766     
  -251629.239323766     
  -251629.239323765     
  -251629.239323766     
  -251629.239323767     
  -251629.239323768     
  -251629.239323767     
  -251629.239323768     
  -251629.239323767     
  -250421.769282990     
  -250421.769282990     
  -250421.769282989     
  -250421.769282990     
  -250421.769282991     
  -250421.769282990     
  -250421.769282991     
  -250421.769282990     
  -250421.769282992     
  -250421.769282991     
  -250421.769282992     
  -250421.769282991     
  -250421.769282991     
  -250421.769282990     
  -250421.769282991     
  -248995.487923663     
  -248995.487923664     
  -248995.487923663     
  -248995.487923663     
  -248995.487923663     
  -248995.487923664     
  -248995.487923663     
  -248995.487923663     
  -248995.487923663     
  -248995.487923665     
  -248995.487923662     
  -248995.487923664     
  -248995.487923663     
  -248995.487923663     
  -248995.487923664     
  -247313.067808945     
  -247313.067808945     
  -247313.067808945     
  -247313.067808945     
  -247313.067808943     
  -247313.067808945     
  -247313.067808945     
  -247313.067808944     
  -247313.067808945     
  -247313.067808946     
  -247313.067808947     
  -247313.067808947     
  -247313.067808947     
  -247313.067808946     
  -247313.067808946     
  -245331.604139391     
  -245331.604139392     
  -245331.604139391     
  -245331.604139391     
  -245331.604139392     
  -245331.604139389     
  -245331.604139389     
  -245331.604139390     
  -245331.604139391     
  -245331.604139392     
  -245331.604139390     
  -245331.604139391     
  -245331.604139390     
  -245331.604139393     
  -245331.604139394     
  -243002.066904586     
  -243002.066904585     
  -243002.066904583     
  -243002.066904585     
  -243002.066904586     
  -243002.066904586     
  -243002.066904587     
  -243002.066904587     
  -243002.066904585     
  -243002.066904585     
  -243002.066904587     
  -243002.066904587     
  -243002.066904586     
  -243002.066904586     
  -243002.066904584     
  -240268.816966359     
  -240268.816966361     
  -240268.816966362     
  -240268.816966360     
  -240268.816966360     
  -240268.816966361     
  -240268.816966360     
  -240268.816966361     
  -240268.816966361     
  -240268.816966360     
  -240268.816966361     
  -240268.816966359     
  -240268.816966362     
  -240268.816966360     
  -240268.816966362     
  -237069.252478333     
  -237069.252478332     
  -237069.252478330     
  -237069.252478330     
  -237069.252478331     
  -237069.252478331     
  -237069.252478331     
  -237069.252478332     
  -237069.252478332     
  -237069.252478333     
  -237069.252478331     
  -237069.252478331     
  -237069.252478333     
  -237069.252478331     
  -237069.252478332     
  -233333.682015606     
  -233333.682015604     
  -233333.682015605     
  -233333.682015606     
  -233333.682015605     
  -233333.682015606     
  -233333.682015605     
  -233333.682015606     
  -233333.682015604     
  -233333.682015605     
  -233333.682015606     
  -233333.682015605     
  -233333.682015606     
  -233333.682015606     
  -233333.682015605     
  -228985.561969092     
  -228985.561969095     
  -228985.561969093     
  -228985.561969091     
  -228985.561969091     
  -228985.561969090     
  -228985.561969092     
  -228985.561969092     
  -228985.561969092     
  -228985.561969091     
  -228985.561969092     
  -228985.561969092     
  -228985.561969091     
  -228985.561969091     
  -228985.561969091     
  -223942.292028935     
  -223942.292028934     
  -223942.292028935     
  -223942.292028934     
  -223942.292028936     
  -223942.292028936     
  -223942.292028935     
  -223942.292028935     
  -223942.292028938     
  -223942.292028938     
  -223942.292028938     
  -223942.292028937     
  -223942.292028936     
  -223942.292028937     
  -223942.292028938     
  -218116.839109063     
  -218116.839109064     
  -218116.839109064     
  -218116.839109065     
  -218116.839109065     
  -218116.839109064     
  -218116.839109064     
  -218116.839109064     
  -218116.839109063     
  -218116.839109064     
  -218116.839109064     
  -218116.839109063     
  -218116.839109065     
  -218116.839109064     
  -218116.839109065     
  -211420.563726319     
  -211420.563726322     
  -211420.563726321     
  -211420.563726318     
  -211420.563726317     
  -211420.563726319     
  -211420.563726322     
  -211420.563726319     
  -211420.563726319     
  -211420.563726320     
  -211420.563726321     
  -211420.563726319     
  -211420.563726317     
  -211420.563726317     
  -211420.563726319     
  -203767.762783057     
  -203767.762783057     
  -203767.762783055     
  -203767.762783058     
  -203767.762783057     
  -203767.762783053     
  -203767.762783055     
  -203767.762783057     
  -203767.762783059     
  -203767.762783056     
  -203767.762783056     
  -203767.762783058     
  -203767.762783057     
  -203767.762783056     
  -203767.762783055     
  -195082.631046475     
  -195082.631046478     
  -195082.631046476     
  -195082.631046478     
  -195082.631046476     
  -195082.631046479     
  -195082.631046477     
  -195082.631046476     
  -195082.631046477     
  -195082.631046476     
  -195082.631046478     
  -195082.631046476     
  -195082.631046478     
  -195082.631046478     
  -195082.631046478     
  -185309.596467779     
  -185309.596467779     
  -185309.596467779     
  -185309.596467778     
  -185309.596467780     
  -185309.596467782     
  -185309.596467781     
  -185309.596467781     
  -185309.596467780     
  -185309.596467779     
  -185309.596467781     
  -185309.596467781     
  -185309.596467782     
  -185309.596467782     
  -185309.596467781     
  -174428.323172204     
  -174428.323172204     
  -174428.323172204     
  -174428.323172205     
  -174428.323172203     
  -174428.323172202     
  -174428.323172204     
  -174428.323172205     
  -174428.323172205     
  -174428.323172205     
  -174428.323172205     
  -174428.323172205     
  -174428.323172205     
  -174428.323172204     
  -174428.323172205     
  -162475.128728518     
  -162475.128728519     
  -162475.128728519     
  -162475.128728519     
  -162475.128728520     
  -162475.128728518     
  -162475.128728517     
  -162475.128728517     
  -162475.128728517     
  -162475.128728519     
  -162475.128728519     
  -162475.128728519     
  -162475.128728518     
  -162475.128728517     
  -162475.128728518     
  -149573.166561364     
  -149573.166561363     
  -149573.166561363     
  -149573.166561362     
  -149573.166561364     
  -149573.166561365     
  -149573.166561365     
  -149573.166561367     
  -149573.166561365     
  -149573.166561366     
  -149573.166561366     
  -149573.166561364     
  -149573.166561364     
  -149573.166561365     
  -149573.166561365     
  -135974.529551168     
  -135974.529551168     
  -135974.529551168     
  -135974.529551166     
  -135974.529551165     
  -135974.529551167     
  -135974.529551171     
  -135974.529551169     
  -135974.529551168     
  -135974.529551168     
  -135974.529551166     
  -135974.529551170     
  -135974.529551169     
  -135974.529551166     
  -135974.529551167     
SCALARS 2waySource double 
LOOKUP_TABLE default
  3.088566328198134E-006
  3.088566328198482E-006
  3.088566328198620E-006
  3.088566328198180E-006
  3.088566328198073E-006
  3.088566328197884E-006
  3.088566328198243E-006
  3.088566328197712E-006
  3.088566328197600E-006
  3.088566328197733E-006
  3.088566328197577E-006
  3.088566328197502E-006
  3.088566328197391E-006
  3.088566328197412E-006
  3.088566328197377E-006
  3.088564651577652E-006
  3.088564651577519E-006
  3.088564651577924E-006
  3.088564651577368E-006
  3.088564651577385E-006
  3.088564651577489E-006
  3.088564651577330E-006
  3.088564651577338E-006
  3.088564651577075E-006
  3.088564651577141E-006
  3.088564651577034E-006
  3.088564651576995E-006
  3.088564651576932E-006
  3.088564651576921E-006
  3.088564651576829E-006
  3.088561659724771E-006
  3.088561659725122E-006
  3.088561659725160E-006
  3.088561659724882E-006
  3.088561659725179E-006
  3.088561659724790E-006
  3.088561659724659E-006
  3.088561659724865E-006
  3.088561659724673E-006
  3.088561659724538E-006
  3.088561659724639E-006
  3.088561659724406E-006
  3.088561659724424E-006
  3.088561659724384E-006
  3.088561659724362E-006
  3.088557256960944E-006
  3.088557256961038E-006
  3.088557256961257E-006
  3.088557256961112E-006
  3.088557256960926E-006
  3.088557256960863E-006
  3.088557256960786E-006
  3.088557256961001E-006
  3.088557256960662E-006
  3.088557256960483E-006
  3.088557256960703E-006
  3.088557256960621E-006
  3.088557256960705E-006
  3.088557256960529E-006
  3.088557256960558E-006
  3.088551302489473E-006
  3.088551302489192E-006
  3.088551302489345E-006
  3.088551302489304E-006
  3.088551302489280E-006
  3.088551302489207E-006
  3.088551302489446E-006
  3.088551302489194E-006
  3.088551302489088E-006
  3.088551302489071E-006
  3.088551302489042E-006
  3.088551302488742E-006
  3.088551302488931E-006
  3.088551302488985E-006
  3.088551302488902E-006
  3.088543605897225E-006
  3.088543605897074E-006
  3.088543605897473E-006
  3.088543605897018E-006
  3.088543605896976E-006
  3.088543605897076E-006
  3.088543605897146E-006
  3.088543605896957E-006
  3.088543605896891E-006
  3.088543605897075E-006
  3.088543605896790E-006
  3.088543605896872E-006
  3.088543605897001E-006
  3.088543605897154E-006
  3.088543605896911E-006
  3.088533921073278E-006
  3.088533921073345E-006
  3.088533921073269E-006
  3.088533921073530E-006
  3.088533921073101E-006
  3.088533921073298E-006
  3.088533921073115E-006
  3.088533921073376E-006
  3.088533921072969E-006
  3.088533921072960E-006
  3.088533921073109E-006
  3.088533921073166E-006
  3.088533921073128E-006
  3.088533921073112E-006
  3.088533921073250E-006
  3.088521938344401E-006
  3.088521938344152E-006
  3.088521938344080E-006
  3.088521938344132E-006
  3.088521938343973E-006
  3.088521938344215E-006
  3.088521938344153E-006
  3.088521938344400E-006
  3.088521938343824E-006
  3.088521938344219E-006
  3.088521938344069E-006
  3.088521938343913E-006
  3.088521938344044E-006
  3.088521938343847E-006
  3.088521938344240E-006
  3.088507274584505E-006
  3.088507274584645E-006
  3.088507274584443E-006
  3.088507274584293E-006
  3.088507274584290E-006
  3.088507274584836E-006
  3.088507274584125E-006
  3.088507274584418E-006
  3.088507274584223E-006
  3.088507274584366E-006
  3.088507274583993E-006
  3.088507274584018E-006
  3.088507274584161E-006
  3.088507274584282E-006
  3.088507274584274E-006
  3.088489460980407E-006
  3.088489460980259E-006
  3.088489460980512E-006
  3.088489460980278E-006
  3.088489460980106E-006
  3.088489460980202E-006
  3.088489460979980E-006
  3.088489460980223E-006
  3.088489460980058E-006
  3.088489460979913E-006
  3.088489460979917E-006
  3.088489460979750E-006
  3.088489460979658E-006
  3.088489460979783E-006
  3.088489460979687E-006
  3.088467928058686E-006
  3.088467928059000E-006
  3.088467928059172E-006
  3.088467928059178E-006
  3.088467928059383E-006
  3.088467928059144E-006
  3.088467928059222E-006
  3.088467928058902E-006
  3.088467928058777E-006
  3.088467928058551E-006
  3.088467928058712E-006
  3.088467928058828E-006
  3.088467928058859E-006
  3.088467928058862E-006
  3.088467928058688E-006
  3.088441987509561E-006
  3.088441987509640E-006
  3.088441987510466E-006
  3.088441987509688E-006
  3.088441987509558E-006
  3.088441987509787E-006
  3.088441987509623E-006
  3.088441987509652E-006
  3.088441987509760E-006
  3.088441987509297E-006
  3.088441987509411E-006
  3.088441987509732E-006
  3.088441987509721E-006
  3.088441987509670E-006
  3.088441987509556E-006
  3.088410810213051E-006
  3.088410810212917E-006
  3.088410810213269E-006
  3.088410810212887E-006
  3.088410810213283E-006
  3.088410810212617E-006
  3.088410810212675E-006
  3.088410810212325E-006
  3.088410810212568E-006
  3.088410810212826E-006
  3.088410810212607E-006
  3.088410810212686E-006
  3.088410810212262E-006
  3.088410810212451E-006
  3.088410810212620E-006
  3.088373399781068E-006
  3.088373399781114E-006
  3.088373399781278E-006
  3.088373399780981E-006
  3.088373399781623E-006
  3.088373399780782E-006
  3.088373399781131E-006
  3.088373399781299E-006
  3.088373399780803E-006
  3.088373399780473E-006
  3.088373399781387E-006
  3.088373399781080E-006
  3.088373399780785E-006
  3.088373399780928E-006
  3.088373399780805E-006
  3.088328560774536E-006
  3.088328560774911E-006
  3.088328560774225E-006
  3.088328560774705E-006
  3.088328560774374E-006
  3.088328560774197E-006
  3.088328560773763E-006
  3.088328560774130E-006
  3.088328560774442E-006
  3.088328560774235E-006
  3.088328560774648E-006
  3.088328560774909E-006
  3.088328560774443E-006
  3.088328560774732E-006
  3.088328560774592E-006
  3.088274860571580E-006
  3.088274860571512E-006
  3.088274860570879E-006
  3.088274860571424E-006
  3.088274860571549E-006
  3.088274860571148E-006
  3.088274860571424E-006
  3.088274860571344E-006
  3.088274860571040E-006
  3.088274860571222E-006
  3.088274860571684E-006
  3.088274860571231E-006
  3.088274860571153E-006
  3.088274860571474E-006
  3.088274860571247E-006
  3.088210583694303E-006
  3.088210583694318E-006
  3.088210583694639E-006
  3.088210583694317E-006
  3.088210583694544E-006
  3.088210583694585E-006
  3.088210583694440E-006
  3.088210583694555E-006
  3.088210583694175E-006
  3.088210583694154E-006
  3.088210583694245E-006
  3.088210583694446E-006
  3.088210583694154E-006
  3.088210583694361E-006
  3.088210583694770E-006
  3.088133677135729E-006
  3.088133677135789E-006
  3.088133677135569E-006
  3.088133677135461E-006
  3.088133677135661E-006
  3.088133677135530E-006
  3.088133677135659E-006
  3.088133677135777E-006
  3.088133677135753E-006
  3.088133677136201E-006
  3.088133677135653E-006
  3.088133677135783E-006
  3.088133677135921E-006
  3.088133677135760E-006
  3.088133677135966E-006
  3.088041684952739E-006
  3.088041684952135E-006
  3.088041684951753E-006
  3.088041684952072E-006
  3.088041684952319E-006
  3.088041684952632E-006
  3.088041684952324E-006
  3.088041684952663E-006
  3.088041684952585E-006
  3.088041684952259E-006
  3.088041684951877E-006
  3.088041684952237E-006
  3.088041684952273E-006
  3.088041684952355E-006
  3.088041684952372E-006
  3.087931670055801E-006
  3.087931670055467E-006
  3.087931670055194E-006
  3.087931670055351E-006
  3.087931670055274E-006
  3.087931670055641E-006
  3.087931670055926E-006
  3.087931670055979E-006
  3.087931670056012E-006
  3.087931670056066E-006
  3.087931670056002E-006
  3.087931670055885E-006
  3.087931670056217E-006
  3.087931670056094E-006
  3.087931670056385E-006
  3.087800120731575E-006
  3.087800120731362E-006
  3.087800120731675E-006
  3.087800120731130E-006
  3.087800120731132E-006
  3.087800120731470E-006
  3.087800120730988E-006
  3.087800120731441E-006
  3.087800120731348E-006
  3.087800120731491E-006
  3.087800120731878E-006
  3.087800120732374E-006
  3.087800120732355E-006
  3.087800120732504E-006
  3.087800120732176E-006
  3.087642838922727E-006
  3.087642838923618E-006
  3.087642838922703E-006
  3.087642838924083E-006
  3.087642838922432E-006
  3.087642838922952E-006
  3.087642838923266E-006
  3.087642838923011E-006
  3.087642838923473E-006
  3.087642838923486E-006
  3.087642838923595E-006
  3.087642838923343E-006
  3.087642838923785E-006
  3.087642838923117E-006
  3.087642838923081E-006
  3.087454806764187E-006
  3.087454806764874E-006
  3.087454806764547E-006
  3.087454806764877E-006
  3.087454806764702E-006
  3.087454806764905E-006
  3.087454806764544E-006
  3.087454806764500E-006
  3.087454806764263E-006
  3.087454806764464E-006
  3.087454806764261E-006
  3.087454806764774E-006
  3.087454806764293E-006
  3.087454806764151E-006
  3.087454806764799E-006
  3.087230027151087E-006
  3.087230027151331E-006
  3.087230027151835E-006
  3.087230027152224E-006
  3.087230027151876E-006
  3.087230027151619E-006
  3.087230027152701E-006
  3.087230027152319E-006
  3.087230027152481E-006
  3.087230027152580E-006
  3.087230027151559E-006
  3.087230027151823E-006
  3.087230027151554E-006
  3.087230027152338E-006
  3.087230027152375E-006
  3.086961333339989E-006
  3.086961333340027E-006
  3.086961333338840E-006
  3.086961333339823E-006
  3.086961333340108E-006
  3.086961333339934E-006
  3.086961333339688E-006
  3.086961333339506E-006
  3.086961333339374E-006
  3.086961333339861E-006
  3.086961333339261E-006
  3.086961333339582E-006
  3.086961333339410E-006
  3.086961333339644E-006
  3.086961333339647E-006
  3.086640161582997E-006
  3.086640161583230E-006
  3.086640161582514E-006
  3.086640161582560E-006
  3.086640161582416E-006
  3.086640161582879E-006
  3.086640161582821E-006
  3.086640161583114E-006
  3.086640161582698E-006
  3.086640161583171E-006
  3.086640161583413E-006
  3.086640161582418E-006
  3.086640161583056E-006
  3.086640161582547E-006
  3.086640161582988E-006
  3.086256279699331E-006
  3.086256279698545E-006
  3.086256279698741E-006
  3.086256279698733E-006
  3.086256279698248E-006
  3.086256279699009E-006
  3.086256279698577E-006
  3.086256279698746E-006
  3.086256279697649E-006
  3.086256279698930E-006
  3.086256279698257E-006
  3.086256279698911E-006
  3.086256279699290E-006
  3.086256279698784E-006
  3.086256279699009E-006
  3.085797463054676E-006
  3.085797463053801E-006
  3.085797463054003E-006
  3.085797463053910E-006
  3.085797463053790E-006
  3.085797463054049E-006
  3.085797463054232E-006
  3.085797463053671E-006
  3.085797463054133E-006
  3.085797463054648E-006
  3.085797463053985E-006
  3.085797463054512E-006
  3.085797463053854E-006
  3.085797463055101E-006
  3.085797463054912E-006
  3.085249107875634E-006
  3.085249107876724E-006
  3.085249107876364E-006
  3.085249107875703E-006
  3.085249107875312E-006
  3.085249107876020E-006
  3.085249107875669E-006
  3.085249107874900E-006
  3.085249107875258E-006
  3.085249107875957E-006
  3.085249107876084E-006
  3.085249107876648E-006
  3.085249107876579E-006
  3.085249107876190E-006
  3.085249107877330E-006
  3.084593769845675E-006
  3.084593769845795E-006
  3.084593769846241E-006
  3.084593769845310E-006
  3.084593769845522E-006
  3.084593769845762E-006
  3.084593769846768E-006
  3.084593769846726E-006
  3.084593769846541E-006
  3.084593769845235E-006
  3.084593769844622E-006
  3.084593769846109E-006
  3.084593769845255E-006
  3.084593769845869E-006
  3.084593769845305E-006
  3.083810613654573E-006
  3.083810613655412E-006
  3.083810613654360E-006
  3.083810613655732E-006
  3.083810613654501E-006
  3.083810613655840E-006
  3.083810613655527E-006
  3.083810613654949E-006
  3.083810613655063E-006
  3.083810613655261E-006
  3.083810613654666E-006
  3.083810613656088E-006
  3.083810613655739E-006
  3.083810613655407E-006
  3.083810613654868E-006
  3.082874756507775E-006
  3.082874756507539E-006
  3.082874756507221E-006
  3.082874756507575E-006
  3.082874756507607E-006
  3.082874756506849E-006
  3.082874756506529E-006
  3.082874756506296E-006
  3.082874756506879E-006
  3.082874756507679E-006
  3.082874756507048E-006
  3.082874756507376E-006
  3.082874756507139E-006
  3.082874756507109E-006
  3.082874756507472E-006
  3.081756485312158E-006
  3.081756485312016E-006
  3.081756485312377E-006
  3.081756485310789E-006
  3.081756485312363E-006
  3.081756485312782E-006
  3.081756485312079E-006
  3.081756485312241E-006
  3.081756485312048E-006
  3.081756485311420E-006
  3.081756485311792E-006
  3.081756485311941E-006
  3.081756485310884E-006
  3.081756485311150E-006
  3.081756485312374E-006
  3.080420323557417E-006
  3.080420323557096E-006
  3.080420323557057E-006
  3.080420323556907E-006
  3.080420323555880E-006
  3.080420323556653E-006
  3.080420323557622E-006
  3.080420323556458E-006
  3.080420323556235E-006
  3.080420323555791E-006
  3.080420323557045E-006
  3.080420323557066E-006
  3.080420323557581E-006
  3.080420323557811E-006
  3.080420323556142E-006
  3.078823919313480E-006
  3.078823919314214E-006
  3.078823919313482E-006
  3.078823919313449E-006
  3.078823919313861E-006
  3.078823919313913E-006
  3.078823919313900E-006
  3.078823919313126E-006
  3.078823919314291E-006
  3.078823919313410E-006
  3.078823919313362E-006
  3.078823919313024E-006
  3.078823919311485E-006
  3.078823919313254E-006
  3.078823919312799E-006
  3.076916720564859E-006
  3.076916720564744E-006
  3.076916720564270E-006
  3.076916720564021E-006
  3.076916720565409E-006
  3.076916720564374E-006
  3.076916720564398E-006
  3.076916720563894E-006
  3.076916720563529E-006
  3.076916720563782E-006
  3.076916720564033E-006
  3.076916720564266E-006
  3.076916720563931E-006
  3.076916720563403E-006
  3.076916720564514E-006
  3.074638397752533E-006
  3.074638397752476E-006
  3.074638397752286E-006
  3.074638397752322E-006
  3.074638397752740E-006
  3.074638397752271E-006
  3.074638397751827E-006
  3.074638397751980E-006
  3.074638397751704E-006
  3.074638397751877E-006
  3.074638397752734E-006
  3.074638397752963E-006
  3.074638397752306E-006
  3.074638397753892E-006
  3.074638397753268E-006
  3.071916966133262E-006
  3.071916966133202E-006
  3.071916966133200E-006
  3.071916966132154E-006
  3.071916966131717E-006
  3.071916966132552E-006
  3.071916966132899E-006
  3.071916966131921E-006
  3.071916966131751E-006
  3.071916966132457E-006
  3.071916966132558E-006
  3.071916966132529E-006
  3.071916966133485E-006
  3.071916966132581E-006
  3.071916966132936E-006
  3.068666551812085E-006
  3.068666551811484E-006
  3.068666551810815E-006
  3.068666551811031E-006
  3.068666551810861E-006
  3.068666551811969E-006
  3.068666551812739E-006
  3.068666551812311E-006
  3.068666551812355E-006
  3.068666551812537E-006
  3.068666551812972E-006
  3.068666551811235E-006
  3.068666551812423E-006
  3.068666551811954E-006
  3.068666551811226E-006
  3.064784735243868E-006
  3.064784735243905E-006
  3.064784735245251E-006
  3.064784735245650E-006
  3.064784735244476E-006
  3.064784735244697E-006
  3.064784735244190E-006
  3.064784735243816E-006
  3.064784735244501E-006
  3.064784735243863E-006
  3.064784735243924E-006
  3.064784735244007E-006
  3.064784735243918E-006
  3.064784735243953E-006
  3.064784735243403E-006
  3.060149394092167E-006
  3.060149394092765E-006
  3.060149394093331E-006
  3.060149394092936E-006
  3.060149394094354E-006
  3.060149394093583E-006
  3.060149394094095E-006
  3.060149394093938E-006
  3.060149394094391E-006
  3.060149394093293E-006
  3.060149394093233E-006
  3.060149394093459E-006
  3.060149394093371E-006
  3.060149394093384E-006
  3.060149394093911E-006
  3.054614953488461E-006
  3.054614953490535E-006
  3.054614953489017E-006
  3.054614953487998E-006
  3.054614953488317E-006
  3.054614953488958E-006
  3.054614953487810E-006
  3.054614953488958E-006
  3.054614953488361E-006
  3.054614953488426E-006
  3.054614953488474E-006
  3.054614953488494E-006
  3.054614953488324E-006
  3.054614953488264E-006
  3.054614953488635E-006
  3.048007935628368E-006
  3.048007935629384E-006
  3.048007935629037E-006
  3.048007935630179E-006
  3.048007935630216E-006
  3.048007935630419E-006
  3.048007935630924E-006
  3.048007935630935E-006
  3.048007935631013E-006
  3.048007935630567E-006
  3.048007935631003E-006
  3.048007935631632E-006
  3.048007935631135E-006
  3.048007935631052E-006
  3.048007935631040E-006
  3.040121682033863E-006
  3.040121682033238E-006
  3.040121682034416E-006
  3.040121682033086E-006
  3.040121682033335E-006
  3.040121682033659E-006
  3.040121682034683E-006
  3.040121682033900E-006
  3.040121682034243E-006
  3.040121682032892E-006
  3.040121682033349E-006
  3.040121682034033E-006
  3.040121682032980E-006
  3.040121682032693E-006
  3.040121682032723E-006
  3.030710100163365E-006
  3.030710100161839E-006
  3.030710100162385E-006
  3.030710100162115E-006
  3.030710100161562E-006
  3.030710100161675E-006
  3.030710100161775E-006
  3.030710100161971E-006
  3.030710100161182E-006
  3.030710100162140E-006
  3.030710100163599E-006
  3.030710100161259E-006
  3.030710100161890E-006
  3.030710100161983E-006
  3.030710100161935E-006
  3.019480261492717E-006
  3.019480261491116E-006
  3.019480261491425E-006
  3.019480261490873E-006
  3.019480261493322E-006
  3.019480261492349E-006
  3.019480261492663E-006
  3.019480261491199E-006
  3.019480261492439E-006
  3.019480261492137E-006
  3.019480261491988E-006
  3.019480261492355E-006
  3.019480261492536E-006
  3.019480261493444E-006
  3.019480261491398E-006
  3.006083649842497E-006
  3.006083649842443E-006
  3.006083649842678E-006
  3.006083649844647E-006
  3.006083649843770E-006
  3.006083649844759E-006
  3.006083649842337E-006
  3.006083649841529E-006
  3.006083649842144E-006
  3.006083649843212E-006
  3.006083649843060E-006
  3.006083649841647E-006
  3.006083649842192E-006
  3.006083649842817E-006
  3.006083649842749E-006
  2.990105826872643E-006
  2.990105826872674E-006
  2.990105826872203E-006
  2.990105826871089E-006
  2.990105826872712E-006
  2.990105826871325E-006
  2.990105826872421E-006
  2.990105826873633E-006
  2.990105826872956E-006
  2.990105826872265E-006
  2.990105826872265E-006
  2.990105826872926E-006
  2.990105826872871E-006
  2.990105826872868E-006
  2.990105826871607E-006
  2.971054245764318E-006
  2.971054245763291E-006
  2.971054245762827E-006
  2.971054245764006E-006
  2.971054245763800E-006
  2.971054245764333E-006
  2.971054245762677E-006
  2.971054245764253E-006
  2.971054245763024E-006
  2.971054245763021E-006
  2.971054245764156E-006
  2.971054245763658E-006
  2.971054245762536E-006
  2.971054245761725E-006
  2.971054245762164E-006
  2.948343904334140E-006
  2.948343904334920E-006
  2.948343904334366E-006
  2.948343904334185E-006
  2.948343904334604E-006
  2.948343904333807E-006
  2.948343904334939E-006
  2.948343904333854E-006
  2.948343904335429E-006
  2.948343904334959E-006
  2.948343904333497E-006
  2.948343904333735E-006
  2.948343904334738E-006
  2.948343904335020E-006
  2.948343904335222E-006
  2.921280485226336E-006
  2.921280485225898E-006
  2.921280485227853E-006
  2.921280485226468E-006
  2.921280485226105E-006
  2.921280485226024E-006
  2.921280485226399E-006
  2.921280485227614E-006
  2.921280485227040E-006
  2.921280485227066E-006
  2.921280485226722E-006
  2.921280485227561E-006
  2.921280485227718E-006
  2.921280485226396E-006
  2.921280485226963E-006
  2.889040584050793E-006
  2.889040584050102E-006
  2.889040584049810E-006
  2.889040584049737E-006
  2.889040584050477E-006
  2.889040584049564E-006
  2.889040584050023E-006
  2.889040584049032E-006
  2.889040584049220E-006
  2.889040584048611E-006
  2.889040584048628E-006
  2.889040584048775E-006
  2.889040584048629E-006
  2.889040584047843E-006
  2.889040584049934E-006
  2.850648577432497E-006
  2.850648577431225E-006
  2.850648577431586E-006
  2.850648577432136E-006
  2.850648577431625E-006
  2.850648577429274E-006
  2.850648577431452E-006
  2.850648577429285E-006
  2.850648577429307E-006
  2.850648577432170E-006
  2.850648577432478E-006
  2.850648577431206E-006
  2.850648577430810E-006
  2.850648577431962E-006
  2.850648577430089E-006
  2.804949633513859E-006
  2.804949633514356E-006
  2.804949633515033E-006
  2.804949633516126E-006
  2.804949633515251E-006
  2.804949633516208E-006
  2.804949633516595E-006
  2.804949633516694E-006
  2.804949633515613E-006
  2.804949633514547E-006
  2.804949633515298E-006
  2.804949633515256E-006
  2.804949633516969E-006
  2.804949633515228E-006
  2.804949633516188E-006
  2.750578320546193E-006
  2.750578320545015E-006
  2.750578320546077E-006
  2.750578320544025E-006
  2.750578320545453E-006
  2.750578320546280E-006
  2.750578320545113E-006
  2.750578320544370E-006
  2.750578320545335E-006
  2.750578320545174E-006
  2.750578320542163E-006
  2.750578320542505E-006
  2.750578320546466E-006
  2.750578320546558E-006
  2.750578320544726E-006
  2.685922228839361E-006
  2.685922228838675E-006
  2.685922228839002E-006
  2.685922228838087E-006
  2.685922228837836E-006
  2.685922228838187E-006
  2.685922228839885E-006
  2.685922228839063E-006
  2.685922228838267E-006
  2.685922228838940E-006
  2.685922228840277E-006
  2.685922228841902E-006
  2.685922228841214E-006
  2.685922228840746E-006
  2.685922228842215E-006
  2.609079994262768E-006
  2.609079994261153E-006
  2.609079994261072E-006
  2.609079994261244E-006
  2.609079994260484E-006
  2.609079994261215E-006
  2.609079994259524E-006
  2.609079994259496E-006
  2.609079994260508E-006
  2.609079994260505E-006
  2.609079994259981E-006
  2.609079994259806E-006
  2.609079994259087E-006
  2.609079994260860E-006
  2.609079994261013E-006
  2.517813105917054E-006
  2.517813105917093E-006
  2.517813105916127E-006
  2.517813105916354E-006
  2.517813105916229E-006
  2.517813105917893E-006
  2.517813105918198E-006
  2.517813105916788E-006
  2.517813105918731E-006
  2.517813105917421E-006
  2.517813105917733E-006
  2.517813105917098E-006
  2.517813105917920E-006
  2.517813105918020E-006
  2.517813105918444E-006
  2.409490910856984E-006
  2.409490910858600E-006
  2.409490910861283E-006
  2.409490910856810E-006
  2.409490910858921E-006
  2.409490910858733E-006
  2.409490910858740E-006
  2.409490910857776E-006
  2.409490910860062E-006
  2.409490910859199E-006
  2.409490910859049E-006
  2.409490910858160E-006
  2.409490910860744E-006
  2.409490910859959E-006
  2.409490910859354E-006
  2.281028311482357E-006
  2.281028311481615E-006
  2.281028311480854E-006
  2.281028311482510E-006
  2.281028311481712E-006
  2.281028311480480E-006
  2.281028311483063E-006
  2.281028311482193E-006
  2.281028311482185E-006
  2.281028311480852E-006
  2.281028311481333E-006
  2.281028311483454E-006
  2.281028311483346E-006
  2.281028311483356E-006
  2.281028311482892E-006
  2.128815813162070E-006
  2.128815813160983E-006
  2.128815813162294E-006
  2.128815813161356E-006
  2.128815813163609E-006
  2.128815813163393E-006
  2.128815813161719E-006
  2.128815813162181E-006
  2.128815813163540E-006
  2.128815813162471E-006
  2.128815813164219E-006
  2.128815813161039E-006
  2.128815813161884E-006
  2.128815813164169E-006
  2.128815813162988E-006
  1.948641855040780E-006
  1.948641855041092E-006
  1.948641855040011E-006
  1.948641855041084E-006
  1.948641855039111E-006
  1.948641855039606E-006
  1.948641855040978E-006
  1.948641855041297E-006
  1.948641855040006E-006
  1.948641855039954E-006
  1.948641855042171E-006
  1.948641855043228E-006
  1.948641855043059E-006
  1.948641855040031E-006
  1.948641855039990E-006
  1.735607793973878E-006
  1.735607793974435E-006
  1.735607793974419E-006
  1.735607793974616E-006
  1.735607793974487E-006
  1.735607793973708E-006
  1.735607793973462E-006
  1.735607793975580E-006
  1.735607793976172E-006
  1.735607793976177E-006
  1.735607793974309E-006
  1.735607793973883E-006
  1.735607793975565E-006
  1.735607793975113E-006
  1.735607793974480E-006
  1.484036576135667E-006
  1.484036576133732E-006
  1.484036576132482E-006
  1.484036576133547E-006
  1.484036576133821E-006
  1.484036576132324E-006
  1.484036576133139E-006
  1.484036576133488E-006
  1.484036576133668E-006
  1.484036576133881E-006
  1.484036576134879E-006
  1.484036576135092E-006
  1.484036576133997E-006
  1.484036576133209E-006
  1.484036576134435E-006
  1.187377111750654E-006
  1.187377111750870E-006
  1.187377111751046E-006
  1.187377111750854E-006
  1.187377111752927E-006
  1.187377111752941E-006
  1.187377111750417E-006
  1.187377111749994E-006
  1.187377111751180E-006
  1.187377111752858E-006
  1.187377111752883E-006
  1.187377111751790E-006
  1.187377111754257E-006
  1.187377111753483E-006
  1.187377111753610E-006
  8.381077866028191E-007
  8.381077866023575E-007
  8.381077866012769E-007
  8.381077866017511E-007
  8.381077866012921E-007
  8.381077866025298E-007
  8.381077866034192E-007
  8.381077866032709E-007
  8.381077866026908E-007
  8.381077866011471E-007
  8.381077866018742E-007
  8.381077866030752E-007
  8.381077866022608E-007
  8.381077866021560E-007
  8.381077866032553E-007
  4.276445619466223E-007
  4.276445619452156E-007
  4.276445619452936E-007
  4.276445619438062E-007
  4.276445619442377E-007
  4.276445619446008E-007
  4.276445619445060E-007
  4.276445619442237E-007
  4.276445619447215E-007
  4.276445619443682E-007
  4.276445619459090E-007
  4.276445619447815E-007
  4.276445619461108E-007
  4.276445619450394E-007
  4.276445619449626E-007
 -5.373804833694373E-008
 -5.373804833702546E-008
 -5.373804833365707E-008
 -5.373804833527717E-008
 -5.373804833445144E-008
 -5.373804833575206E-008
 -5.373804833645126E-008
 -5.373804833686731E-008
 -5.373804833444368E-008
 -5.373804833563462E-008
 -5.373804833551473E-008
 -5.373804833583823E-008
 -5.373804833578333E-008
 -5.373804833600162E-008
 -5.373804833570196E-008
 -6.169608848097469E-007
 -6.169608848091583E-007
 -6.169608848079918E-007
 -6.169608848096656E-007
 -6.169608848096453E-007
 -6.169608848105514E-007
 -6.169608848092195E-007
 -6.169608848094647E-007
 -6.169608848111204E-007
 -6.169608848101029E-007
 -6.169608848101006E-007
 -6.169608848091360E-007
 -6.169608848108106E-007
 -6.169608848087610E-007
 -6.169608848088932E-007
 -1.274151239388841E-006
 -1.274151239390677E-006
 -1.274151239391642E-006
 -1.274151239390133E-006
 -1.274151239389150E-006
 -1.274151239389698E-006
 -1.274151239389447E-006
 -1.274151239389549E-006
 -1.274151239387913E-006
 -1.274151239387542E-006
 -1.274151239388768E-006
 -1.274151239389745E-006
 -1.274151239389031E-006
 -1.274151239389891E-006
 -1.274151239390562E-006
 -2.038585959675631E-006
 -2.038585959675982E-006
 -2.038585959675456E-006
 -2.038585959675816E-006
 -2.038585959676317E-006
 -2.038585959676775E-006
 -2.038585959675493E-006
 -2.038585959676760E-006
 -2.038585959677098E-006
 -2.038585959674081E-006
 -2.038585959676182E-006
 -2.038585959676342E-006
 -2.038585959677296E-006
 -2.038585959677111E-006
 -2.038585959676412E-006
 -2.924531157630795E-006
 -2.924531157629866E-006
 -2.924531157628367E-006
 -2.924531157628271E-006
 -2.924531157629126E-006
 -2.924531157630381E-006
 -2.924531157628651E-006
 -2.924531157628454E-006
 -2.924531157629168E-006
 -2.924531157629414E-006
 -2.924531157630484E-006
 -2.924531157628544E-006
 -2.924531157629084E-006
 -2.924531157629366E-006
 -2.924531157630725E-006
 -3.946929230867927E-006
 -3.946929230868677E-006
 -3.946929230869322E-006
 -3.946929230868463E-006
 -3.946929230868688E-006
 -3.946929230867881E-006
 -3.946929230868873E-006
 -3.946929230868588E-006
 -3.946929230869682E-006
 -3.946929230868958E-006
 -3.946929230869008E-006
 -3.946929230869571E-006
 -3.946929230869427E-006
 -3.946929230868939E-006
 -3.946929230868110E-006
 -5.120865106290718E-006
 -5.120865106289677E-006
 -5.120865106290868E-006
 -5.120865106292031E-006
 -5.120865106291449E-006
 -5.120865106290668E-006
 -5.120865106292546E-006
 -5.120865106292328E-006
 -5.120865106290237E-006
 -5.120865106291469E-006
 -5.120865106290974E-006
 -5.120865106291926E-006
 -5.120865106293493E-006
 -5.120865106291373E-006
 -5.120865106290795E-006
 -6.460718254983568E-006
 -6.460718254983726E-006
 -6.460718254984122E-006
 -6.460718254983511E-006
 -6.460718254981711E-006
 -6.460718254983034E-006
 -6.460718254981931E-006
 -6.460718254982596E-006
 -6.460718254982155E-006
 -6.460718254981262E-006
 -6.460718254982216E-006
 -6.460718254983073E-006
 -6.460718254982258E-006
 -6.460718254985120E-006
 -6.460718254984342E-006
 -7.978872912499225E-006
 -7.978872912500904E-006
 -7.978872912501654E-006
 -7.978872912504643E-006
 -7.978872912504882E-006
 -7.978872912506354E-006
 -7.978872912505857E-006
 -7.978872912504812E-006
 -7.978872912505051E-006
 -7.978872912504394E-006
 -7.978872912502598E-006
 -7.978872912503599E-006
 -7.978872912502359E-006
 -7.978872912502693E-006
 -7.978872912502130E-006
 -9.683813161959112E-006
 -9.683813161958582E-006
 -9.683813161957052E-006
 -9.683813161953808E-006
 -9.683813161953868E-006
 -9.683813161952580E-006
 -9.683813161953708E-006
 -9.683813161953087E-006
 -9.683813161955863E-006
 -9.683813161954630E-006
 -9.683813161955658E-006
 -9.683813161953615E-006
 -9.683813161951437E-006
 -9.683813161954877E-006
 -9.683813161953095E-006
 -1.157736824608782E-005
 -1.157736824608954E-005
 -1.157736824608867E-005
 -1.157736824608861E-005
 -1.157736824608686E-005
 -1.157736824608700E-005
 -1.157736824608765E-005
 -1.157736824608948E-005
 -1.157736824608845E-005
 -1.157736824608635E-005
 -1.157736824608545E-005
 -1.157736824608727E-005
 -1.157736824608750E-005
 -1.157736824608597E-005
 -1.157736824608673E-005
 -1.365079156756701E-005
 -1.365079156756413E-005
 -1.365079156756565E-005
 -1.365079156756603E-005
 -1.365079156756449E-005
 -1.365079156756877E-005
 -1.365079156756654E-005
 -1.365079156756479E-005
 -1.365079156756298E-005
 -1.365079156756733E-005
 -1.365079156756650E-005
 -1.365079156756615E-005
 -1.365079156756779E-005
 -1.365079156756719E-005
 -1.365079156756737E-005
 -1.587924756314832E-005
 -1.587924756314854E-005
 -1.587924756314849E-005
 -1.587924756314637E-005
 -1.587924756314664E-005
 -1.587924756314761E-005
 -1.587924756314633E-005
 -1.587924756314901E-005
 -1.587924756315048E-005
 -1.587924756314629E-005
 -1.587924756314700E-005
 -1.587924756314818E-005
 -1.587924756314826E-005
 -1.587924756314742E-005
 -1.587924756314694E-005
 -1.821413507059130E-005
 -1.821413507059293E-005
 -1.821413507059452E-005
 -1.821413507059228E-005
 -1.821413507059419E-005
 -1.821413507059348E-005
 -1.821413507059333E-005
 -1.821413507059264E-005
 -1.821413507059217E-005
 -1.821413507059299E-005
 -1.821413507059261E-005
 -1.821413507059145E-005
 -1.821413507059220E-005
 -1.821413507059278E-005
 -1.821413507059455E-005
 -2.057248214777293E-005
 -2.057248214777223E-005
 -2.057248214776968E-005
 -2.057248214777053E-005
 -2.057248214777062E-005
 -2.057248214777034E-005
 -2.057248214777068E-005
 -2.057248214777154E-005
 -2.057248214777167E-005
 -2.057248214777130E-005
 -2.057248214777195E-005
 -2.057248214777183E-005
 -2.057248214777124E-005
 -2.057248214777076E-005
 -2.057248214777187E-005
 -2.282238996353921E-005
 -2.282238996354016E-005
 -2.282238996354294E-005
 -2.282238996353985E-005
 -2.282238996354165E-005
 -2.282238996354170E-005
 -2.282238996354183E-005
 -2.282238996353853E-005
 -2.282238996353988E-005
 -2.282238996354004E-005
 -2.282238996353976E-005
 -2.282238996353976E-005
 -2.282238996353832E-005
 -2.282238996353801E-005
 -2.282238996354202E-005
 -2.476316177570673E-005
 -2.476316177570663E-005
 -2.476316177570424E-005
 -2.476316177570564E-005
 -2.476316177570439E-005
 -2.476316177570681E-005
 -2.476316177570476E-005
 -2.476316177570509E-005
 -2.476316177570728E-005
 -2.476316177570429E-005
 -2.476316177570454E-005
 -2.476316177570606E-005
 -2.476316177570693E-005
 -2.476316177570560E-005
 -2.476316177570378E-005
 -2.609829997170323E-005
 -2.609829997170238E-005
 -2.609829997169923E-005
 -2.609829997170162E-005
 -2.609829997170006E-005
 -2.609829997170137E-005
 -2.609829997170104E-005
 -2.609829997170100E-005
 -2.609829997169942E-005
 -2.609829997170185E-005
 -2.609829997170283E-005
 -2.609829997170080E-005
 -2.609829997170377E-005
 -2.609829997170096E-005
 -2.609829997170200E-005
 -2.639895381966586E-005
 -2.639895381966868E-005
 -2.639895381966941E-005
 -2.639895381966803E-005
 -2.639895381967013E-005
 -2.639895381966976E-005
 -2.639895381966736E-005
 -2.639895381966770E-005
 -2.639895381966675E-005
 -2.639895381966912E-005
 -2.639895381966998E-005
 -2.639895381967082E-005
 -2.639895381966949E-005
 -2.639895381967075E-005
 -2.639895381966929E-005
 -2.505460566736103E-005
 -2.505460566736077E-005
 -2.505460566736172E-005
 -2.505460566736281E-005
 -2.505460566736063E-005
 -2.505460566736073E-005
 -2.505460566735999E-005
 -2.505460566736093E-005
 -2.505460566736167E-005
 -2.505460566736003E-005
 -2.505460566735877E-005
 -2.505460566735889E-005
 -2.505460566736110E-005
 -2.505460566735898E-005
 -2.505460566735934E-005
 -2.120673146591371E-005
 -2.120673146591297E-005
 -2.120673146591119E-005
 -2.120673146591166E-005
 -2.120673146591130E-005
 -2.120673146591396E-005
 -2.120673146591549E-005
 -2.120673146591373E-005
 -2.120673146591098E-005
 -2.120673146591105E-005
 -2.120673146591110E-005
 -2.120673146591154E-005
 -2.120673146591328E-005
 -2.120673146591366E-005
 -2.120673146591353E-005
 -1.365978046007425E-005
 -1.365978046007438E-005
 -1.365978046007748E-005
 -1.365978046007885E-005
 -1.365978046007730E-005
 -1.365978046007737E-005
 -1.365978046007811E-005
 -1.365978046007723E-005
 -1.365978046007640E-005
 -1.365978046007696E-005
 -1.365978046007831E-005
 -1.365978046007594E-005
 -1.365978046007398E-005
 -1.365978046007529E-005
 -1.365978046007616E-005
 -7.619802975514469E-007
 -7.619802975530903E-007
 -7.619802975519985E-007
 -7.619802975515496E-007
 -7.619802975522467E-007
 -7.619802975514272E-007
 -7.619802975496035E-007
 -7.619802975533849E-007
 -7.619802975517878E-007
 -7.619802975512612E-007
 -7.619802975527958E-007
 -7.619802975532011E-007
 -7.619802975526732E-007
 -7.619802975496694E-007
 -7.619802975522935E-007
SCALARS poroP double 
LOOKUP_TABLE default
  0.000000000000000E+000
  0.000000000000000E+000
  0.000000000000000E+000
  0.000000000000000E+000
  0.000000000000000E+000
  0.000000000000000E+000
  0.000000000000000E+000
  0.000000000000000E+000
  0.000000000000000E+000
  0.000000000000000E+000
  0.000000000000000E+000
  0.000000000000000E+000
  0.000000000000000E+000
  0.000000000000000E+000
  0.000000000000000E+000
  0.000000000000000E+000
  0.000000000000000E+000
  0.000000000000000E+000
  0.000000000000000E+000
  0.000000000000000E+000
  0.000000000000000E+000
  0.000000000000000E+000
  0.000000000000000E+000
  0.000000000000000E+000
  0.000000000000000E+000
  0.000000000000000E+000
  0.000000000000000E+000
  0.000000000000000E+000
  0.000000000000000E+000
  0.000000000000000E+000
  0.000000000000000E+000
  0.000000000000000E+000
  0.000000000000000E+000
  0.000000000000000E+000
  0.000000000000000E+000
  0.000000000000000E+000
  0.000000000000000E+000
  0.000000000000000E+000
  0.000000000000000E+000
  0.000000000000000E+000
  0.000000000000000E+000
  0.000000000000000E+000
  0.000000000000000E+000
  0.000000000000000E+000
  0.000000000000000E+000
  0.000000000000000E+000
  0.000000000000000E+000
  0.000000000000000E+000
  0.000000000000000E+000
  0.000000000000000E+000
  0.000000000000000E+000
  0.000000000000000E+000
  0.000000000000000E+000
  0.000000000000000E+000
  0.000000000000000E+000
  0.000000000000000E+000
  0.000000000000000E+000
  0.000000000000000E+000
  0.000000000000000E+000
  0.000000000000000E+000
  0.000000000000000E+000
  0.000000000000000E+000
  0.000000000000000E+000
  0.000000000000000E+000
  0.000000000000000E+000
  0.000000000000000E+000
  0.000000000000000E+000
  0.000000000000000E+000
  0.000000000000000E+000
  0.000000000000000E+000
  0.000000000000000E+000
  0.000000000000000E+000
  0.000000000000000E+000
  0.000000000000000E+000
  0.000000000000000E+000
  0.000000000000000E+000
  0.000000000000000E+000
  0.000000000000000E+000
  0.000000000000000E+000
  0.000000000000000E+000
  0.000000000000000E+000
  0.000000000000000E+000
  0.000000000000000E+000
  0.000000000000000E+000
  0.000000000000000E+000
  0.000000000000000E+000
  0.000000000000000E+000
  0.000000000000000E+000
  0.000000000000000E+000
  0.000000000000000E+000
  0.000000000000000E+000
  0.000000000000000E+000
  0.000000000000000E+000
  0.000000000000000E+000
  0.000000000000000E+000
  0.000000000000000E+000
  0.000000000000000E+000
  0.000000000000000E+000
  0.000000000000000E+000
  0.000000000000000E+000
  0.000000000000000E+000
  0.000000000000000E+000
  0.000000000000000E+000
  0.000000000000000E+000
  0.000000000000000E+000
  0.000000000000000E+000
  0.000000000000000E+000
  0.000000000000000E+000
  0.000000000000000E+000
  0.000000000000000E+000
  0.000000000000000E+000
  0.000000000000000E+000
  0.000000000000000E+000
  0.000000000000000E+000
  0.000000000000000E+000
  0.000000000000000E+000
  0.000000000000000E+000
  0.000000000000000E+000
  0.000000000000000E+000
  0.000000000000000E+000
  0.000000000000000E+000
  0.000000000000000E+000
  0.000000000000000E+000
  0.000000000000000E+000
  0.000000000000000E+000
  0.000000000000000E+000
  0.000000000000000E+000
  0.000000000000000E+000
  0.000000000000000E+000
  0.000000000000000E+000
  0.000000000000000E+000
  0.000000000000000E+000
  0.000000000000000E+000
  0.000000000000000E+000
  0.000000000000000E+000
  0.000000000000000E+000
  0.000000000000000E+000
  0.000000000000000E+000
  0.000000000000000E+000
  0.000000000000000E+000
  0.000000000000000E+000
  0.000000000000000E+000
  0.000000000000000E+000
  0.000000000000000E+000
  0.000000000000000E+000
  0.000000000000000E+000
  0.000000000000000E+000
  0.000000000000000E+000
  0.000000000000000E+000
  0.000000000000000E+000
  0.000000000000000E+000
  0.000000000000000E+000
  0.000000000000000E+000
  0.000000000000000E+000
  0.000000000000000E+000
  0.000000000000000E+000
  0.000000000000000E+000
  0.000000000000000E+000
  0.000000000000000E+000
  0.000000000000000E+000
  0.000000000000000E+000
  0.000000000000000E+000
  0.000000000000000E+000
  0.000000000000000E+000
  0.000000000000000E+000
  0.000000000000000E+000
  0.000000000000000E+000
  0.000000000000000E+000
  0.000000000000000E+000
  0.000000000000000E+000
  0.000000000000000E+000
  0.000000000000000E+000
  0.000000000000000E+000
  0.000000000000000E+000
  0.000000000000000E+000
  0.000000000000000E+000
  0.000000000000000E+000
  0.000000000000000E+000
  0.000000000000000E+000
  0.000000000000000E+000
  0.000000000000000E+000
  0.000000000000000E+000
  0.000000000000000E+000
  0.000000000000000E+000
  0.000000000000000E+000
  0.000000000000000E+000
  0.000000000000000E+000
  0.000000000000000E+000
  0.000000000000000E+000
  0.000000000000000E+000
  0.000000000000000E+000
  0.000000000000000E+000
  0.000000000000000E+000
  0.000000000000000E+000
  0.000000000000000E+000
  0.000000000000000E+000
  0.000000000000000E+000
  0.000000000000000E+000
  0.000000000000000E+000
  0.000000000000000E+000
  0.000000000000000E+000
  0.000000000000000E+000
  0.000000000000000E+000
  0.000000000000000E+000
  0.000000000000000E+000
  0.000000000000000E+000
  0.000000000000000E+000
  0.000000000000000E+000
  0.000000000000000E+000
  0.000000000000000E+000
  0.000000000000000E+000
  0.000000000000000E+000
  0.000000000000000E+000
  0.000000000000000E+000
  0.000000000000000E+000
  0.000000000000000E+000
  0.000000000000000E+000
  0.000000000000000E+000
  0.000000000000000E+000
  0.000000000000000E+000
  0.000000000000000E+000
  0.000000000000000E+000
  0.000000000000000E+000
  0.000000000000000E+000
  0.000000000000000E+000
  0.000000000000000E+000
  0.000000000000000E+000
  0.000000000000000E+000
  0.000000000000000E+000
  0.000000000000000E+000
  0.000000000000000E+000
  0.000000000000000E+000
  0.000000000000000E+000
  0.000000000000000E+000
  0.000000000000000E+000
  0.000000000000000E+000
  0.000000000000000E+000
  0.000000000000000E+000
  0.000000000000000E+000
  0.000000000000000E+000
  0.000000000000000E+000
  0.000000000000000E+000
  0.000000000000000E+000
  0.000000000000000E+000
  0.000000000000000E+000
  0.000000000000000E+000
  0.000000000000000E+000
  0.000000000000000E+000
  0.000000000000000E+000
  0.000000000000000E+000
  0.000000000000000E+000
  0.000000000000000E+000
  0.000000000000000E+000
  0.000000000000000E+000
  0.000000000000000E+000
  0.000000000000000E+000
  0.000000000000000E+000
  0.000000000000000E+000
  0.000000000000000E+000
  0.000000000000000E+000
  0.000000000000000E+000
  0.000000000000000E+000
  0.000000000000000E+000
  0.000000000000000E+000
  0.000000000000000E+000
  0.000000000000000E+000
  0.000000000000000E+000
  0.000000000000000E+000
  0.000000000000000E+000
  0.000000000000000E+000
  0.000000000000000E+000
  0.000000000000000E+000
  0.000000000000000E+000
  0.000000000000000E+000
  0.000000000000000E+000
  0.000000000000000E+000
  0.000000000000000E+000
  0.000000000000000E+000
  0.000000000000000E+000
  0.000000000000000E+000
  0.000000000000000E+000
  0.000000000000000E+000
  0.000000000000000E+000
  0.000000000000000E+000
  0.000000000000000E+000
  0.000000000000000E+000
  0.000000000000000E+000
  0.000000000000000E+000
  0.000000000000000E+000
  0.000000000000000E+000
  0.000000000000000E+000
  0.000000000000000E+000
  0.000000000000000E+000
  0.000000000000000E+000
  0.000000000000000E+000
  0.000000000000000E+000
  0.000000000000000E+000
  0.000000000000000E+000
  0.000000000000000E+000
  0.000000000000000E+000
  0.000000000000000E+000
  0.000000000000000E+000
  0.000000000000000E+000
  0.000000000000000E+000
  0.000000000000000E+000
  0.000000000000000E+000
  0.000000000000000E+000
  0.000000000000000E+000
  0.000000000000000E+000
  0.000000000000000E+000
  0.000000000000000E+000
  0.000000000000000E+000
  0.000000000000000E+000
  0.000000000000000E+000
  0.000000000000000E+000
  0.000000000000000E+000
  0.000000000000000E+000
  0.000000000000000E+000
  0.000000000000000E+000
  0.000000000000000E+000
  0.000000000000000E+000
  0.000000000000000E+000
  0.000000000000000E+000
  0.000000000000000E+000
  0.000000000000000E+000
  0.000000000000000E+000
  0.000000000000000E+000
  0.000000000000000E+000
  0.000000000000000E+000
  0.000000000000000E+000
  0.000000000000000E+000
  0.000000000000000E+000
  0.000000000000000E+000
  0.000000000000000E+000
  0.000000000000000E+000
  0.000000000000000E+000
  0.000000000000000E+000
  0.000000000000000E+000
  0.000000000000000E+000
  0.000000000000000E+000
  0.000000000000000E+000
  0.000000000000000E+000
  0.000000000000000E+000
  0.000000000000000E+000
  0.000000000000000E+000
  0.000000000000000E+000
  0.000000000000000E+000
  0.000000000000000E+000
  0.000000000000000E+000
  0.000000000000000E+000
  0.000000000000000E+000
  0.000000000000000E+000
  0.000000000000000E+000
  0.000000000000000E+000
  0.000000000000000E+000
  0.000000000000000E+000
  0.000000000000000E+000
  0.000000000000000E+000
  0.000000000000000E+000
  0.000000000000000E+000
  0.000000000000000E+000
  0.000000000000000E+000
  0.000000000000000E+000
  0.000000000000000E+000
  0.000000000000000E+000
  0.000000000000000E+000
  0.000000000000000E+000
  0.000000000000000E+000
  0.000000000000000E+000
  0.000000000000000E+000
  0.000000000000000E+000
  0.000000000000000E+000
  0.000000000000000E+000
  0.000000000000000E+000
  0.000000000000000E+000
  0.000000000000000E+000
  0.000000000000000E+000
  0.000000000000000E+000
  0.000000000000000E+000
  0.000000000000000E+000
  0.000000000000000E+000
  0.000000000000000E+000
  0.000000000000000E+000
  0.000000000000000E+000
  0.000000000000000E+000
  0.000000000000000E+000
  0.000000000000000E+000
  0.000000000000000E+000
  0.000000000000000E+000
  0.000000000000000E+000
  0.000000000000000E+000
  0.000000000000000E+000
  0.000000000000000E+000
  0.000000000000000E+000
  0.000000000000000E+000
  0.000000000000000E+000
  0.000000000000000E+000
  0.000000000000000E+000
  0.000000000000000E+000
  0.000000000000000E+000
  0.000000000000000E+000
  0.000000000000000E+000
  0.000000000000000E+000
  0.000000000000000E+000
  0.000000000000000E+000
  0.000000000000000E+000
  0.000000000000000E+000
  0.000000000000000E+000
  0.000000000000000E+000
  0.000000000000000E+000
  0.000000000000000E+000
  0.000000000000000E+000
  0.000000000000000E+000
  0.000000000000000E+000
  0.000000000000000E+000
  0.000000000000000E+000
  0.000000000000000E+000
  0.000000000000000E+000
  0.000000000000000E+000
  0.000000000000000E+000
  0.000000000000000E+000
  0.000000000000000E+000
  0.000000000000000E+000
  0.000000000000000E+000
  0.000000000000000E+000
  0.000000000000000E+000
  0.000000000000000E+000
  0.000000000000000E+000
  0.000000000000000E+000
  0.000000000000000E+000
  0.000000000000000E+000
  0.000000000000000E+000
  0.000000000000000E+000
  0.000000000000000E+000
  0.000000000000000E+000
  0.000000000000000E+000
  0.000000000000000E+000
  0.000000000000000E+000
  0.000000000000000E+000
  0.000000000000000E+000
  0.000000000000000E+000
  0.000000000000000E+000
  0.000000000000000E+000
  0.000000000000000E+000
  0.000000000000000E+000
  0.000000000000000E+000
  0.000000000000000E+000
  0.000000000000000E+000
  0.000000000000000E+000
  0.000000000000000E+000
  0.000000000000000E+000
  0.000000000000000E+000
  0.000000000000000E+000
  0.000000000000000E+000
  0.000000000000000E+000
  0.000000000000000E+000
  0.000000000000000E+000
  0.000000000000000E+000
  0.000000000000000E+000
  0.000000000000000E+000
  0.000000000000000E+000
  0.000000000000000E+000
  0.000000000000000E+000
  0.000000000000000E+000
  0.000000000000000E+000
  0.000000000000000E+000
  0.000000000000000E+000
  0.000000000000000E+000
  0.000000000000000E+000
  0.000000000000000E+000
  0.000000000000000E+000
  0.000000000000000E+000
  0.000000000000000E+000
  0.000000000000000E+000
  0.000000000000000E+000
  0.000000000000000E+000
  0.000000000000000E+000
  0.000000000000000E+000
  0.000000000000000E+000
  0.000000000000000E+000
  0.000000000000000E+000
  0.000000000000000E+000
  0.000000000000000E+000
  0.000000000000000E+000
  0.000000000000000E+000
  0.000000000000000E+000
  0.000000000000000E+000
  0.000000000000000E+000
  0.000000000000000E+000
  0.000000000000000E+000
  0.000000000000000E+000
  0.000000000000000E+000
  0.000000000000000E+000
  0.000000000000000E+000
  0.000000000000000E+000
  0.000000000000000E+000
  0.000000000000000E+000
  0.000000000000000E+000
  0.000000000000000E+000
  0.000000000000000E+000
  0.000000000000000E+000
  0.000000000000000E+000
  0.000000000000000E+000
  0.000000000000000E+000
  0.000000000000000E+000
  0.000000000000000E+000
  0.000000000000000E+000
  0.000000000000000E+000
  0.000000000000000E+000
  0.000000000000000E+000
  0.000000000000000E+000
  0.000000000000000E+000
  0.000000000000000E+000
  0.000000000000000E+000
  0.000000000000000E+000
  0.000000000000000E+000
  0.000000000000000E+000
  0.000000000000000E+000
  0.000000000000000E+000
  0.000000000000000E+000
  0.000000000000000E+000
  0.000000000000000E+000
  0.000000000000000E+000
  0.000000000000000E+000
  0.000000000000000E+000
  0.000000000000000E+000
  0.000000000000000E+000
  0.000000000000000E+000
  0.000000000000000E+000
  0.000000000000000E+000
  0.000000000000000E+000
  0.000000000000000E+000
  0.000000000000000E+000
  0.000000000000000E+000
  0.000000000000000E+000
  0.000000000000000E+000
  0.000000000000000E+000
  0.000000000000000E+000
  0.000000000000000E+000
  0.000000000000000E+000
  0.000000000000000E+000
  0.000000000000000E+000
  0.000000000000000E+000
  0.000000000000000E+000
  0.000000000000000E+000
  0.000000000000000E+000
  0.000000000000000E+000
  0.000000000000000E+000
  0.000000000000000E+000
  0.000000000000000E+000
  0.000000000000000E+000
  0.000000000000000E+000
  0.000000000000000E+000
  0.000000000000000E+000
  0.000000000000000E+000
  0.000000000000000E+000
  0.000000000000000E+000
  0.000000000000000E+000
  0.000000000000000E+000
  0.000000000000000E+000
  0.000000000000000E+000
  0.000000000000000E+000
  0.000000000000000E+000
  0.000000000000000E+000
  0.000000000000000E+000
  0.000000000000000E+000
  0.000000000000000E+000
  0.000000000000000E+000
  0.000000000000000E+000
  0.000000000000000E+000
  0.000000000000000E+000
  0.000000000000000E+000
  0.000000000000000E+000
  0.000000000000000E+000
  0.000000000000000E+000
  0.000000000000000E+000
  0.000000000000000E+000
  0.000000000000000E+000
  0.000000000000000E+000
  0.000000000000000E+000
  0.000000000000000E+000
  0.000000000000000E+000
  0.000000000000000E+000
  0.000000000000000E+000
  0.000000000000000E+000
  0.000000000000000E+000
  0.000000000000000E+000
  0.000000000000000E+000
  0.000000000000000E+000
  0.000000000000000E+000
  0.000000000000000E+000
  0.000000000000000E+000
  0.000000000000000E+000
  0.000000000000000E+000
  0.000000000000000E+000
  0.000000000000000E+000
  0.000000000000000E+000
  0.000000000000000E+000
  0.000000000000000E+000
  0.000000000000000E+000
  0.000000000000000E+000
  0.000000000000000E+000
  0.000000000000000E+000
  0.000000000000000E+000
  0.000000000000000E+000
  0.000000000000000E+000
  0.000000000000000E+000
  0.000000000000000E+000
  0.000000000000000E+000
  0.000000000000000E+000
  0.000000000000000E+000
  0.000000000000000E+000
  0.000000000000000E+000
  0.000000000000000E+000
  0.000000000000000E+000
  0.000000000000000E+000
  0.000000000000000E+000
  0.000000000000000E+000
  0.000000000000000E+000
  0.000000000000000E+000
  0.000000000000000E+000
  0.000000000000000E+000
  0.000000000000000E+000
  0.000000000000000E+000
  0.000000000000000E+000
  0.000000000000000E+000
  0.000000000000000E+000
  0.000000000000000E+000
  0.000000000000000E+000
  0.000000000000000E+000
  0.000000000000000E+000
  0.000000000000000E+000
  0.000000000000000E+000
  0.000000000000000E+000
  0.000000000000000E+000
  0.000000000000000E+000
  0.000000000000000E+000
  0.000000000000000E+000
  0.000000000000000E+000
  0.000000000000000E+000
  0.000000000000000E+000
  0.000000000000000E+000
  0.000000000000000E+000
  0.000000000000000E+000
  0.000000000000000E+000
  0.000000000000000E+000
  0.000000000000000E+000
  0.000000000000000E+000
  0.000000000000000E+000
  0.000000000000000E+000
  0.000000000000000E+000
  0.000000000000000E+000
  0.000000000000000E+000
  0.000000000000000E+000
  0.000000000000000E+000
  0.000000000000000E+000
  0.000000000000000E+000
  0.000000000000000E+000
  0.000000000000000E+000
  0.000000000000000E+000
  0.000000000000000E+000
  0.000000000000000E+000
  0.000000000000000E+000
  0.000000000000000E+000
  0.000000000000000E+000
  0.000000000000000E+000
  0.000000000000000E+000
  0.000000000000000E+000
  0.000000000000000E+000
  0.000000000000000E+000
  0.000000000000000E+000
  0.000000000000000E+000
  0.000000000000000E+000
  0.000000000000000E+000
  0.000000000000000E+000
  0.000000000000000E+000
  0.000000000000000E+000
  0.000000000000000E+000
  0.000000000000000E+000
  0.000000000000000E+000
  0.000000000000000E+000
  0.000000000000000E+000
  0.000000000000000E+000
  0.000000000000000E+000
  0.000000000000000E+000
  0.000000000000000E+000
  0.000000000000000E+000
  0.000000000000000E+000
  0.000000000000000E+000
  0.000000000000000E+000
  0.000000000000000E+000
  0.000000000000000E+000
  0.000000000000000E+000
  0.000000000000000E+000
  0.000000000000000E+000
  0.000000000000000E+000
  0.000000000000000E+000
  0.000000000000000E+000
  0.000000000000000E+000
  0.000000000000000E+000
  0.000000000000000E+000
  0.000000000000000E+000
  0.000000000000000E+000
  0.000000000000000E+000
  0.000000000000000E+000
  0.000000000000000E+000
  0.000000000000000E+000
  0.000000000000000E+000
  0.000000000000000E+000
  0.000000000000000E+000
  0.000000000000000E+000
  0.000000000000000E+000
  0.000000000000000E+000
  0.000000000000000E+000
  0.000000000000000E+000
  0.000000000000000E+000
  0.000000000000000E+000
  0.000000000000000E+000
  0.000000000000000E+000
  0.000000000000000E+000
  0.000000000000000E+000
  0.000000000000000E+000
  0.000000000000000E+000
  0.000000000000000E+000
  0.000000000000000E+000
  0.000000000000000E+000
  0.000000000000000E+000
  0.000000000000000E+000
  0.000000000000000E+000
  0.000000000000000E+000
  0.000000000000000E+000
  0.000000000000000E+000
  0.000000000000000E+000
  0.000000000000000E+000
  0.000000000000000E+000
  0.000000000000000E+000
  0.000000000000000E+000
  0.000000000000000E+000
  0.000000000000000E+000
  0.000000000000000E+000
  0.000000000000000E+000
  0.000000000000000E+000
  0.000000000000000E+000
  0.000000000000000E+000
  0.000000000000000E+000
  0.000000000000000E+000
  0.000000000000000E+000
  0.000000000000000E+000
  0.000000000000000E+000
  0.000000000000000E+000
  0.000000000000000E+000
  0.000000000000000E+000
  0.000000000000000E+000
  0.000000000000000E+000
  0.000000000000000E+000
  0.000000000000000E+000
  0.000000000000000E+000
  0.000000000000000E+000
  0.000000000000000E+000
  0.000000000000000E+000
  0.000000000000000E+000
  0.000000000000000E+000
  0.000000000000000E+000
  0.000000000000000E+000
  0.000000000000000E+000
  0.000000000000000E+000
  0.000000000000000E+000
  0.000000000000000E+000
  0.000000000000000E+000
  0.000000000000000E+000
  0.000000000000000E+000
  0.000000000000000E+000
  0.000000000000000E+000
  0.000000000000000E+000
  0.000000000000000E+000
  0.000000000000000E+000
  0.000000000000000E+000
  0.000000000000000E+000
  0.000000000000000E+000
  0.000000000000000E+000
  0.000000000000000E+000
  0.000000000000000E+000
  0.000000000000000E+000
  0.000000000000000E+000
  0.000000000000000E+000
  0.000000000000000E+000
  0.000000000000000E+000
  0.000000000000000E+000
  0.000000000000000E+000
  0.000000000000000E+000
  0.000000000000000E+000
  0.000000000000000E+000
  0.000000000000000E+000
  0.000000000000000E+000
  0.000000000000000E+000
  0.000000000000000E+000
  0.000000000000000E+000
  0.000000000000000E+000
  0.000000000000000E+000
  0.000000000000000E+000
  0.000000000000000E+000
  0.000000000000000E+000
  0.000000000000000E+000
  0.000000000000000E+000
  0.000000000000000E+000
  0.000000000000000E+000
  0.000000000000000E+000
  0.000000000000000E+000
  0.000000000000000E+000
  0.000000000000000E+000
  0.000000000000000E+000
  0.000000000000000E+000
  0.000000000000000E+000
  0.000000000000000E+000
  0.000000000000000E+000
  0.000000000000000E+000
  0.000000000000000E+000
  0.000000000000000E+000
  0.000000000000000E+000
  0.000000000000000E+000
  0.000000000000000E+000
  0.000000000000000E+000
  0.000000000000000E+000
  0.000000000000000E+000
  0.000000000000000E+000
  0.000000000000000E+000
  0.000000000000000E+000
  0.000000000000000E+000
  0.000000000000000E+000
  0.000000000000000E+000
  0.000000000000000E+000
  0.000000000000000E+000
  0.000000000000000E+000
  0.000000000000000E+000
  0.000000000000000E+000
  0.000000000000000E+000
  0.000000000000000E+000
  0.000000000000000E+000
  0.000000000000000E+000
  0.000000000000000E+000
  0.000000000000000E+000
  0.000000000000000E+000
  0.000000000000000E+000
  0.000000000000000E+000
  0.000000000000000E+000
  0.000000000000000E+000
  0.000000000000000E+000
  0.000000000000000E+000
  0.000000000000000E+000
  0.000000000000000E+000
  0.000000000000000E+000
  0.000000000000000E+000
  0.000000000000000E+000
  0.000000000000000E+000
  0.000000000000000E+000
  0.000000000000000E+000
  0.000000000000000E+000
  0.000000000000000E+000
  0.000000000000000E+000
  0.000000000000000E+000
  0.000000000000000E+000
  0.000000000000000E+000
  0.000000000000000E+000
  0.000000000000000E+000
  0.000000000000000E+000
  0.000000000000000E+000
  0.000000000000000E+000
  0.000000000000000E+000
  0.000000000000000E+000
  0.000000000000000E+000
  0.000000000000000E+000
  0.000000000000000E+000
  0.000000000000000E+000
  0.000000000000000E+000
  0.000000000000000E+000
  0.000000000000000E+000
  0.000000000000000E+000
  0.000000000000000E+000
  0.000000000000000E+000
  0.000000000000000E+000
  0.000000000000000E+000
  0.000000000000000E+000
  0.000000000000000E+000
  0.000000000000000E+000
  0.000000000000000E+000
  0.000000000000000E+000
  0.000000000000000E+000
  0.000000000000000E+000
  0.000000000000000E+000
  0.000000000000000E+000
  0.000000000000000E+000
  0.000000000000000E+000
  0.000000000000000E+000
  0.000000000000000E+000
  0.000000000000000E+000
  0.000000000000000E+000
  0.000000000000000E+000
  0.000000000000000E+000
  0.000000000000000E+000
  0.000000000000000E+000
  0.000000000000000E+000
  0.000000000000000E+000
  0.000000000000000E+000
  0.000000000000000E+000
  0.000000000000000E+000
  0.000000000000000E+000
  0.000000000000000E+000
  0.000000000000000E+000
  0.000000000000000E+000
  0.000000000000000E+000
  0.000000000000000E+000
  0.000000000000000E+000
  0.000000000000000E+000
  0.000000000000000E+000
  0.000000000000000E+000
  0.000000000000000E+000
  0.000000000000000E+000
  0.000000000000000E+000
  0.000000000000000E+000
  0.000000000000000E+000
  0.000000000000000E+000
  0.000000000000000E+000
  0.000000000000000E+000
  0.000000000000000E+000
  0.000000000000000E+000
  0.000000000000000E+000
  0.000000000000000E+000
  0.000000000000000E+000
  0.000000000000000E+000
  0.000000000000000E+000
  0.000000000000000E+000
  0.000000000000000E+000
  0.000000000000000E+000
  0.000000000000000E+000
  0.000000000000000E+000
  0.000000000000000E+000
  0.000000000000000E+000
  0.000000000000000E+000
  0.000000000000000E+000
  0.000000000000000E+000
  0.000000000000000E+000
  0.000000000000000E+000
  0.000000000000000E+000
  0.000000000000000E+000
  0.000000000000000E+000
  0.000000000000000E+000
  0.000000000000000E+000
  0.000000000000000E+000
  0.000000000000000E+000
  0.000000000000000E+000
  0.000000000000000E+000
  0.000000000000000E+000
  0.000000000000000E+000
  0.000000000000000E+000
  0.000000000000000E+000
  0.000000000000000E+000
  0.000000000000000E+000
  0.000000000000000E+000
  0.000000000000000E+000
  0.000000000000000E+000
  0.000000000000000E+000
  0.000000000000000E+000
  0.000000000000000E+000
  0.000000000000000E+000
  0.000000000000000E+000
  0.000000000000000E+000
  0.000000000000000E+000
  0.000000000000000E+000
  0.000000000000000E+000
  0.000000000000000E+000
  0.000000000000000E+000
  0.000000000000000E+000
  0.000000000000000E+000
  0.000000000000000E+000
  0.000000000000000E+000
  0.000000000000000E+000
  0.000000000000000E+000
  0.000000000000000E+000
  0.000000000000000E+000
  0.000000000000000E+000
  0.000000000000000E+000
  0.000000000000000E+000
  0.000000000000000E+000
  0.000000000000000E+000
  0.000000000000000E+000
  0.000000000000000E+000
  0.000000000000000E+000
  0.000000000000000E+000
  0.000000000000000E+000
  0.000000000000000E+000
  0.000000000000000E+000
  0.000000000000000E+000
  0.000000000000000E+000
  0.000000000000000E+000
  0.000000000000000E+000
  0.000000000000000E+000
  0.000000000000000E+000
  0.000000000000000E+000
  0.000000000000000E+000
  0.000000000000000E+000
  0.000000000000000E+000
  0.000000000000000E+000
  0.000000000000000E+000
  0.000000000000000E+000
  0.000000000000000E+000
  0.000000000000000E+000
  0.000000000000000E+000
  0.000000000000000E+000
  0.000000000000000E+000
  0.000000000000000E+000
  0.000000000000000E+000
  0.000000000000000E+000
  0.000000000000000E+000
  0.000000000000000E+000
  0.000000000000000E+000
  0.000000000000000E+000
  0.000000000000000E+000
  0.000000000000000E+000
  0.000000000000000E+000
  0.000000000000000E+000
  0.000000000000000E+000
  0.000000000000000E+000
  0.000000000000000E+000
  0.000000000000000E+000
  0.000000000000000E+000
  0.000000000000000E+000
  0.000000000000000E+000
  0.000000000000000E+000
  0.000000000000000E+000
  0.000000000000000E+000
  0.000000000000000E+000
  0.000000000000000E+000
  0.000000000000000E+000
  0.000000000000000E+000
  0.000000000000000E+000
  0.000000000000000E+000
  0.000000000000000E+000
  0.000000000000000E+000
  0.000000000000000E+000
  0.000000000000000E+000
  0.000000000000000E+000
  0.000000000000000E+000
  0.000000000000000E+000
  0.000000000000000E+000
  0.000000000000000E+000
  0.000000000000000E+000
  0.000000000000000E+000
  0.000000000000000E+000
  0.000000000000000E+000
  0.000000000000000E+000
  0.000000000000000E+000
  0.000000000000000E+000
  0.000000000000000E+000
  0.000000000000000E+000
  0.000000000000000E+000
  0.000000000000000E+000
  0.000000000000000E+000
  0.000000000000000E+000
  0.000000000000000E+000
  0.000000000000000E+000
  0.000000000000000E+000
  0.000000000000000E+000
  0.000000000000000E+000
  0.000000000000000E+000
  0.000000000000000E+000
  0.000000000000000E+000
  0.000000000000000E+000
  0.000000000000000E+000
  0.000000000000000E+000
  0.000000000000000E+000
  0.000000000000000E+000
  0.000000000000000E+000
  0.000000000000000E+000
  0.000000000000000E+000
  0.000000000000000E+000
  0.000000000000000E+000
  0.000000000000000E+000
  0.000000000000000E+000
  0.000000000000000E+000
  0.000000000000000E+000
  0.000000000000000E+000
  0.000000000000000E+000
  0.000000000000000E+000
  0.000000000000000E+000
  0.000000000000000E+000
  0.000000000000000E+000
  0.000000000000000E+000
  0.000000000000000E+000
  0.000000000000000E+000
  0.000000000000000E+000
  0.000000000000000E+000
  0.000000000000000E+000
  0.000000000000000E+000
  0.000000000000000E+000
  0.000000000000000E+000
  0.000000000000000E+000
  0.000000000000000E+000
  0.000000000000000E+000
  0.000000000000000E+000
  0.000000000000000E+000
  0.000000000000000E+000
  0.000000000000000E+000
  0.000000000000000E+000
  0.000000000000000E+000
  0.000000000000000E+000
  0.000000000000000E+000
  0.000000000000000E+000
  0.000000000000000E+000
  0.000000000000000E+000
  0.000000000000000E+000
  0.000000000000000E+000
  0.000000000000000E+000
  0.000000000000000E+000
  0.000000000000000E+000
  0.000000000000000E+000
  0.000000000000000E+000
  0.000000000000000E+000
  0.000000000000000E+000
  0.000000000000000E+000
  0.000000000000000E+000
  0.000000000000000E+000
  0.000000000000000E+000
  0.000000000000000E+000
  0.000000000000000E+000
  0.000000000000000E+000
  0.000000000000000E+000
  0.000000000000000E+000
  0.000000000000000E+000
  0.000000000000000E+000
  0.000000000000000E+000
  0.000000000000000E+000
  0.000000000000000E+000
  0.000000000000000E+000
  0.000000000000000E+000
  0.000000000000000E+000
  0.000000000000000E+000
  0.000000000000000E+000
  0.000000000000000E+000
  0.000000000000000E+000
  0.000000000000000E+000
  0.000000000000000E+000
  0.000000000000000E+000
  0.000000000000000E+000
  0.000000000000000E+000
  0.000000000000000E+000
  0.000000000000000E+000
  0.000000000000000E+000
  0.000000000000000E+000
  0.000000000000000E+000
  0.000000000000000E+000
  0.000000000000000E+000
  0.000000000000000E+000
  0.000000000000000E+000
  0.000000000000000E+000
  0.000000000000000E+000
  0.000000000000000E+000
  0.000000000000000E+000
  0.000000000000000E+000
  0.000000000000000E+000
  0.000000000000000E+000
  0.000000000000000E+000
  0.000000000000000E+000
  0.000000000000000E+000
  0.000000000000000E+000
  0.000000000000000E+000
  0.000000000000000E+000
  0.000000000000000E+000
  0.000000000000000E+000
  0.000000000000000E+000
  0.000000000000000E+000
  0.000000000000000E+000
  0.000000000000000E+000
  0.000000000000000E+000
  0.000000000000000E+000
  0.000000000000000E+000
  0.000000000000000E+000
  0.000000000000000E+000
  0.000000000000000E+000
  0.000000000000000E+000
  0.000000000000000E+000
  0.000000000000000E+000
  0.000000000000000E+000
  0.000000000000000E+000
  0.000000000000000E+000
  0.000000000000000E+000
  0.000000000000000E+000
  0.000000000000000E+000
  0.000000000000000E+000
  0.000000000000000E+000
  0.000000000000000E+000
  0.000000000000000E+000
  0.000000000000000E+000
  0.000000000000000E+000
  0.000000000000000E+000
  0.000000000000000E+000
  0.000000000000000E+000
  0.000000000000000E+000
  0.000000000000000E+000
  0.000000000000000E+000
  0.000000000000000E+000
  0.000000000000000E+000
  0.000000000000000E+000
  0.000000000000000E+000
  0.000000000000000E+000
  0.000000000000000E+000
  0.000000000000000E+000
  0.000000000000000E+000
  0.000000000000000E+000
  0.000000000000000E+000
  0.000000000000000E+000
  0.000000000000000E+000
  0.000000000000000E+000
  0.000000000000000E+000
  0.000000000000000E+000
  0.000000000000000E+000
  0.000000000000000E+000
  0.000000000000000E+000
  0.000000000000000E+000
  0.000000000000000E+000
  0.000000000000000E+000
  0.000000000000000E+000
  0.000000000000000E+000
  0.000000000000000E+000
  0.000000000000000E+000
  0.000000000000000E+000
  0.000000000000000E+000
  0.000000000000000E+000
  0.000000000000000E+000
  0.000000000000000E+000
  0.000000000000000E+000
  0.000000000000000E+000
  0.000000000000000E+000
  0.000000000000000E+000
  0.000000000000000E+000
  0.000000000000000E+000
  0.000000000000000E+000
  0.000000000000000E+000
  0.000000000000000E+000
  0.000000000000000E+000
  0.000000000000000E+000
  0.000000000000000E+000
  0.000000000000000E+000
  0.000000000000000E+000
  0.000000000000000E+000
  0.000000000000000E+000
  0.000000000000000E+000
  0.000000000000000E+000
  0.000000000000000E+000
  0.000000000000000E+000
  0.000000000000000E+000
  0.000000000000000E+000
  0.000000000000000E+000
  0.000000000000000E+000
  0.000000000000000E+000
  0.000000000000000E+000
  0.000000000000000E+000
  0.000000000000000E+000
  0.000000000000000E+000
  0.000000000000000E+000
  0.000000000000000E+000
  0.000000000000000E+000
  0.000000000000000E+000
  0.000000000000000E+000
  0.000000000000000E+000
  0.000000000000000E+000
  0.000000000000000E+000
  0.000000000000000E+000
  0.000000000000000E+000
  0.000000000000000E+000
  0.000000000000000E+000
  0.000000000000000E+000
  0.000000000000000E+000
  0.000000000000000E+000
  0.000000000000000E+000
  0.000000000000000E+000
  0.000000000000000E+000
  0.000000000000000E+000
  0.000000000000000E+000
  0.000000000000000E+000
  0.000000000000000E+000
  0.000000000000000E+000
  0.000000000000000E+000
  0.000000000000000E+000
  0.000000000000000E+000
  0.000000000000000E+000
  0.000000000000000E+000
  0.000000000000000E+000
  0.000000000000000E+000
  0.000000000000000E+000
  0.000000000000000E+000
  0.000000000000000E+000
  0.000000000000000E+000
  0.000000000000000E+000
  0.000000000000000E+000
  0.000000000000000E+000
  0.000000000000000E+000
  0.000000000000000E+000
  0.000000000000000E+000
  0.000000000000000E+000
  0.000000000000000E+000
  0.000000000000000E+000
  0.000000000000000E+000
  0.000000000000000E+000
  0.000000000000000E+000
  0.000000000000000E+000
  0.000000000000000E+000
  0.000000000000000E+000
  0.000000000000000E+000
  0.000000000000000E+000
  0.000000000000000E+000
  0.000000000000000E+000
  0.000000000000000E+000
  0.000000000000000E+000
  0.000000000000000E+000
  0.000000000000000E+000
  0.000000000000000E+000
  0.000000000000000E+000
  0.000000000000000E+000
  0.000000000000000E+000
  0.000000000000000E+000
  0.000000000000000E+000
  0.000000000000000E+000
  0.000000000000000E+000
  0.000000000000000E+000
  0.000000000000000E+000
  0.000000000000000E+000
  0.000000000000000E+000
  0.000000000000000E+000
  0.000000000000000E+000
  0.000000000000000E+000
  0.000000000000000E+000
  0.000000000000000E+000
  0.000000000000000E+000
  0.000000000000000E+000
  0.000000000000000E+000
  0.000000000000000E+000
  0.000000000000000E+000
  0.000000000000000E+000
  0.000000000000000E+000
  0.000000000000000E+000
  0.000000000000000E+000
  0.000000000000000E+000
  0.000000000000000E+000
  0.000000000000000E+000
  0.000000000000000E+000
  0.000000000000000E+000
  0.000000000000000E+000
  0.000000000000000E+000
  0.000000000000000E+000
  0.000000000000000E+000
SCALARS elementIsPlast double 
LOOKUP_TABLE default
  0.000000000000000E+000
  0.000000000000000E+000
  0.000000000000000E+000
  0.000000000000000E+000
  0.000000000000000E+000
  0.000000000000000E+000
  0.000000000000000E+000
  0.000000000000000E+000
  0.000000000000000E+000
  0.000000000000000E+000
  0.000000000000000E+000
  0.000000000000000E+000
  0.000000000000000E+000
  0.000000000000000E+000
  0.000000000000000E+000
  0.000000000000000E+000
  0.000000000000000E+000
  0.000000000000000E+000
  0.000000000000000E+000
  0.000000000000000E+000
  0.000000000000000E+000
  0.000000000000000E+000
  0.000000000000000E+000
  0.000000000000000E+000
  0.000000000000000E+000
  0.000000000000000E+000
  0.000000000000000E+000
  0.000000000000000E+000
  0.000000000000000E+000
  0.000000000000000E+000
  0.000000000000000E+000
  0.000000000000000E+000
  0.000000000000000E+000
  0.000000000000000E+000
  0.000000000000000E+000
  0.000000000000000E+000
  0.000000000000000E+000
  0.000000000000000E+000
  0.000000000000000E+000
  0.000000000000000E+000
  0.000000000000000E+000
  0.000000000000000E+000
  0.000000000000000E+000
  0.000000000000000E+000
  0.000000000000000E+000
  0.000000000000000E+000
  0.000000000000000E+000
  0.000000000000000E+000
  0.000000000000000E+000
  0.000000000000000E+000
  0.000000000000000E+000
  0.000000000000000E+000
  0.000000000000000E+000
  0.000000000000000E+000
  0.000000000000000E+000
  0.000000000000000E+000
  0.000000000000000E+000
  0.000000000000000E+000
  0.000000000000000E+000
  0.000000000000000E+000
  0.000000000000000E+000
  0.000000000000000E+000
  0.000000000000000E+000
  0.000000000000000E+000
  0.000000000000000E+000
  0.000000000000000E+000
  0.000000000000000E+000
  0.000000000000000E+000
  0.000000000000000E+000
  0.000000000000000E+000
  0.000000000000000E+000
  0.000000000000000E+000
  0.000000000000000E+000
  0.000000000000000E+000
  0.000000000000000E+000
  0.000000000000000E+000
  0.000000000000000E+000
  0.000000000000000E+000
  0.000000000000000E+000
  0.000000000000000E+000
  0.000000000000000E+000
  0.000000000000000E+000
  0.000000000000000E+000
  0.000000000000000E+000
  0.000000000000000E+000
  0.000000000000000E+000
  0.000000000000000E+000
  0.000000000000000E+000
  0.000000000000000E+000
  0.000000000000000E+000
  0.000000000000000E+000
  0.000000000000000E+000
  0.000000000000000E+000
  0.000000000000000E+000
  0.000000000000000E+000
  0.000000000000000E+000
  0.000000000000000E+000
  0.000000000000000E+000
  0.000000000000000E+000
  0.000000000000000E+000
  0.000000000000000E+000
  0.000000000000000E+000
  0.000000000000000E+000
  0.000000000000000E+000
  0.000000000000000E+000
  0.000000000000000E+000
  0.000000000000000E+000
  0.000000000000000E+000
  0.000000000000000E+000
  0.000000000000000E+000
  0.000000000000000E+000
  0.000000000000000E+000
  0.000000000000000E+000
  0.000000000000000E+000
  0.000000000000000E+000
  0.000000000000000E+000
  0.000000000000000E+000
  0.000000000000000E+000
  0.000000000000000E+000
  0.000000000000000E+000
  0.000000000000000E+000
  0.000000000000000E+000
  0.000000000000000E+000
  0.000000000000000E+000
  0.000000000000000E+000
  0.000000000000000E+000
  0.000000000000000E+000
  0.000000000000000E+000
  0.000000000000000E+000
  0.000000000000000E+000
  0.000000000000000E+000
  0.000000000000000E+000
  0.000000000000000E+000
  0.000000000000000E+000
  0.000000000000000E+000
  0.000000000000000E+000
  0.000000000000000E+000
  0.000000000000000E+000
  0.000000000000000E+000
  0.000000000000000E+000
  0.000000000000000E+000
  0.000000000000000E+000
  0.000000000000000E+000
  0.000000000000000E+000
  0.000000000000000E+000
  0.000000000000000E+000
  0.000000000000000E+000
  0.000000000000000E+000
  0.000000000000000E+000
  0.000000000000000E+000
  0.000000000000000E+000
  0.000000000000000E+000
  0.000000000000000E+000
  0.000000000000000E+000
  0.000000000000000E+000
  0.000000000000000E+000
  0.000000000000000E+000
  0.000000000000000E+000
  0.000000000000000E+000
  0.000000000000000E+000
  0.000000000000000E+000
  0.000000000000000E+000
  0.000000000000000E+000
  0.000000000000000E+000
  0.000000000000000E+000
  0.000000000000000E+000
  0.000000000000000E+000
  0.000000000000000E+000
  0.000000000000000E+000
  0.000000000000000E+000
  0.000000000000000E+000
  0.000000000000000E+000
  0.000000000000000E+000
  0.000000000000000E+000
  0.000000000000000E+000
  0.000000000000000E+000
  0.000000000000000E+000
  0.000000000000000E+000
  0.000000000000000E+000
  0.000000000000000E+000
  0.000000000000000E+000
  0.000000000000000E+000
  0.000000000000000E+000
  0.000000000000000E+000
  0.000000000000000E+000
  0.000000000000000E+000
  0.000000000000000E+000
  0.000000000000000E+000
  0.000000000000000E+000
  0.000000000000000E+000
  0.000000000000000E+000
  0.000000000000000E+000
  0.000000000000000E+000
  0.000000000000000E+000
  0.000000000000000E+000
  0.000000000000000E+000
  0.000000000000000E+000
  0.000000000000000E+000
  0.000000000000000E+000
  0.000000000000000E+000
  0.000000000000000E+000
  0.000000000000000E+000
  0.000000000000000E+000
  0.000000000000000E+000
  0.000000000000000E+000
  0.000000000000000E+000
  0.000000000000000E+000
  0.000000000000000E+000
  0.000000000000000E+000
  0.000000000000000E+000
  0.000000000000000E+000
  0.000000000000000E+000
  0.000000000000000E+000
  0.000000000000000E+000
  0.000000000000000E+000
  0.000000000000000E+000
  0.000000000000000E+000
  0.000000000000000E+000
  0.000000000000000E+000
  0.000000000000000E+000
  0.000000000000000E+000
  0.000000000000000E+000
  0.000000000000000E+000
  0.000000000000000E+000
  0.000000000000000E+000
  0.000000000000000E+000
  0.000000000000000E+000
  0.000000000000000E+000
  0.000000000000000E+000
  0.000000000000000E+000
  0.000000000000000E+000
  0.000000000000000E+000
  0.000000000000000E+000
  0.000000000000000E+000
  0.000000000000000E+000
  0.000000000000000E+000
  0.000000000000000E+000
  0.000000000000000E+000
  0.000000000000000E+000
  0.000000000000000E+000
  0.000000000000000E+000
  0.000000000000000E+000
  0.000000000000000E+000
  0.000000000000000E+000
  0.000000000000000E+000
  0.000000000000000E+000
  0.000000000000000E+000
  0.000000000000000E+000
  0.000000000000000E+000
  0.000000000000000E+000
  0.000000000000000E+000
  0.000000000000000E+000
  0.000000000000000E+000
  0.000000000000000E+000
  0.000000000000000E+000
  0.000000000000000E+000
  0.000000000000000E+000
  0.000000000000000E+000
  0.000000000000000E+000
  0.000000000000000E+000
  0.000000000000000E+000
  0.000000000000000E+000
  0.000000000000000E+000
  0.000000000000000E+000
  0.000000000000000E+000
  0.000000000000000E+000
  0.000000000000000E+000
  0.000000000000000E+000
  0.000000000000000E+000
  0.000000000000000E+000
  0.000000000000000E+000
  0.000000000000000E+000
  0.000000000000000E+000
  0.000000000000000E+000
  0.000000000000000E+000
  0.000000000000000E+000
  0.000000000000000E+000
  0.000000000000000E+000
  0.000000000000000E+000
  0.000000000000000E+000
  0.000000000000000E+000
  0.000000000000000E+000
  0.000000000000000E+000
  0.000000000000000E+000
  0.000000000000000E+000
  0.000000000000000E+000
  0.000000000000000E+000
  0.000000000000000E+000
  0.000000000000000E+000
  0.000000000000000E+000
  0.000000000000000E+000
  0.000000000000000E+000
  0.000000000000000E+000
  0.000000000000000E+000
  0.000000000000000E+000
  0.000000000000000E+000
  0.000000000000000E+000
  0.000000000000000E+000
  0.000000000000000E+000
  0.000000000000000E+000
  0.000000000000000E+000
  0.000000000000000E+000
  0.000000000000000E+000
  0.000000000000000E+000
  0.000000000000000E+000
  0.000000000000000E+000
  0.000000000000000E+000
  0.000000000000000E+000
  0.000000000000000E+000
  0.000000000000000E+000
  0.000000000000000E+000
  0.000000000000000E+000
  0.000000000000000E+000
  0.000000000000000E+000
  0.000000000000000E+000
  0.000000000000000E+000
  0.000000000000000E+000
  0.000000000000000E+000
  0.000000000000000E+000
  0.000000000000000E+000
  0.000000000000000E+000
  0.000000000000000E+000
  0.000000000000000E+000
  0.000000000000000E+000
  0.000000000000000E+000
  0.000000000000000E+000
  0.000000000000000E+000
  0.000000000000000E+000
  0.000000000000000E+000
  0.000000000000000E+000
  0.000000000000000E+000
  0.000000000000000E+000
  0.000000000000000E+000
  0.000000000000000E+000
  0.000000000000000E+000
  0.000000000000000E+000
  0.000000000000000E+000
  0.000000000000000E+000
  0.000000000000000E+000
  0.000000000000000E+000
  0.000000000000000E+000
  0.000000000000000E+000
  0.000000000000000E+000
  0.000000000000000E+000
  0.000000000000000E+000
  0.000000000000000E+000
  0.000000000000000E+000
  0.000000000000000E+000
  0.000000000000000E+000
  0.000000000000000E+000
  0.000000000000000E+000
  0.000000000000000E+000
  0.000000000000000E+000
  0.000000000000000E+000
  0.000000000000000E+000
  0.000000000000000E+000
  0.000000000000000E+000
  0.000000000000000E+000
  0.000000000000000E+000
  0.000000000000000E+000
  0.000000000000000E+000
  0.000000000000000E+000
  0.000000000000000E+000
  0.000000000000000E+000
  0.000000000000000E+000
  0.000000000000000E+000
  0.000000000000000E+000
  0.000000000000000E+000
  0.000000000000000E+000
  0.000000000000000E+000
  0.000000000000000E+000
  0.000000000000000E+000
  0.000000000000000E+000
  0.000000000000000E+000
  0.000000000000000E+000
  0.000000000000000E+000
  0.000000000000000E+000
  0.000000000000000E+000
  0.000000000000000E+000
  0.000000000000000E+000
  0.000000000000000E+000
  0.000000000000000E+000
  0.000000000000000E+000
  0.000000000000000E+000
  0.000000000000000E+000
  0.000000000000000E+000
  0.000000000000000E+000
  0.000000000000000E+000
  0.000000000000000E+000
  0.000000000000000E+000
  0.000000000000000E+000
  0.000000000000000E+000
  0.000000000000000E+000
  0.000000000000000E+000
  0.000000000000000E+000
  0.000000000000000E+000
  0.000000000000000E+000
  0.000000000000000E+000
  0.000000000000000E+000
  0.000000000000000E+000
  0.000000000000000E+000
  0.000000000000000E+000
  0.000000000000000E+000
  0.000000000000000E+000
  0.000000000000000E+000
  0.000000000000000E+000
  0.000000000000000E+000
  0.000000000000000E+000
  0.000000000000000E+000
  0.000000000000000E+000
  0.000000000000000E+000
  0.000000000000000E+000
  0.000000000000000E+000
  0.000000000000000E+000
  0.000000000000000E+000
  0.000000000000000E+000
  0.000000000000000E+000
  0.000000000000000E+000
  0.000000000000000E+000
  0.000000000000000E+000
  0.000000000000000E+000
  0.000000000000000E+000
  0.000000000000000E+000
  0.000000000000000E+000
  0.000000000000000E+000
  0.000000000000000E+000
  0.000000000000000E+000
  0.000000000000000E+000
  0.000000000000000E+000
  0.000000000000000E+000
  0.000000000000000E+000
  0.000000000000000E+000
  0.000000000000000E+000
  0.000000000000000E+000
  0.000000000000000E+000
  0.000000000000000E+000
  0.000000000000000E+000
  0.000000000000000E+000
  0.000000000000000E+000
  0.000000000000000E+000
  0.000000000000000E+000
  0.000000000000000E+000
  0.000000000000000E+000
  0.000000000000000E+000
  0.000000000000000E+000
  0.000000000000000E+000
  0.000000000000000E+000
  0.000000000000000E+000
  0.000000000000000E+000
  0.000000000000000E+000
  0.000000000000000E+000
  0.000000000000000E+000
  0.000000000000000E+000
  0.000000000000000E+000
  0.000000000000000E+000
  0.000000000000000E+000
  0.000000000000000E+000
  0.000000000000000E+000
  0.000000000000000E+000
  0.000000000000000E+000
  0.000000000000000E+000
  0.000000000000000E+000
  0.000000000000000E+000
  0.000000000000000E+000
  0.000000000000000E+000
  0.000000000000000E+000
  0.000000000000000E+000
  0.000000000000000E+000
  0.000000000000000E+000
  0.000000000000000E+000
  0.000000000000000E+000
  0.000000000000000E+000
  0.000000000000000E+000
  0.000000000000000E+000
  0.000000000000000E+000
  0.000000000000000E+000
  0.000000000000000E+000
  0.000000000000000E+000
  0.000000000000000E+000
  0.000000000000000E+000
  0.000000000000000E+000
  0.000000000000000E+000
  0.000000000000000E+000
  0.000000000000000E+000
  0.000000000000000E+000
  0.000000000000000E+000
  0.000000000000000E+000
  0.000000000000000E+000
  0.000000000000000E+000
  0.000000000000000E+000
  0.000000000000000E+000
  0.000000000000000E+000
  0.000000000000000E+000
  0.000000000000000E+000
  0.000000000000000E+000
  0.000000000000000E+000
  0.000000000000000E+000
  0.000000000000000E+000
  0.000000000000000E+000
  0.000000000000000E+000
  0.000000000000000E+000
  0.000000000000000E+000
  0.000000000000000E+000
  0.000000000000000E+000
  0.000000000000000E+000
  0.000000000000000E+000
  0.000000000000000E+000
  0.000000000000000E+000
  0.000000000000000E+000
  0.000000000000000E+000
  0.000000000000000E+000
  0.000000000000000E+000
  0.000000000000000E+000
  0.000000000000000E+000
  0.000000000000000E+000
  0.000000000000000E+000
  0.000000000000000E+000
  0.000000000000000E+000
  0.000000000000000E+000
  0.000000000000000E+000
  0.000000000000000E+000
  0.000000000000000E+000
  0.000000000000000E+000
  0.000000000000000E+000
  0.000000000000000E+000
  0.000000000000000E+000
  0.000000000000000E+000
  0.000000000000000E+000
  0.000000000000000E+000
  0.000000000000000E+000
  0.000000000000000E+000
  0.000000000000000E+000
  0.000000000000000E+000
  0.000000000000000E+000
  0.000000000000000E+000
  0.000000000000000E+000
  0.000000000000000E+000
  0.000000000000000E+000
  0.000000000000000E+000
  0.000000000000000E+000
  0.000000000000000E+000
  0.000000000000000E+000
  0.000000000000000E+000
  0.000000000000000E+000
  0.000000000000000E+000
  0.000000000000000E+000
  0.000000000000000E+000
  0.000000000000000E+000
  0.000000000000000E+000
  0.000000000000000E+000
  0.000000000000000E+000
  0.000000000000000E+000
  0.000000000000000E+000
  0.000000000000000E+000
  0.000000000000000E+000
  0.000000000000000E+000
  0.000000000000000E+000
  0.000000000000000E+000
  0.000000000000000E+000
  0.000000000000000E+000
  0.000000000000000E+000
  0.000000000000000E+000
  0.000000000000000E+000
  0.000000000000000E+000
  0.000000000000000E+000
  0.000000000000000E+000
  0.000000000000000E+000
  0.000000000000000E+000
  0.000000000000000E+000
  0.000000000000000E+000
  0.000000000000000E+000
  0.000000000000000E+000
  0.000000000000000E+000
  0.000000000000000E+000
  0.000000000000000E+000
  0.000000000000000E+000
  0.000000000000000E+000
  0.000000000000000E+000
  0.000000000000000E+000
  0.000000000000000E+000
  0.000000000000000E+000
  0.000000000000000E+000
  0.000000000000000E+000
  0.000000000000000E+000
  0.000000000000000E+000
  0.000000000000000E+000
  0.000000000000000E+000
  0.000000000000000E+000
  0.000000000000000E+000
  0.000000000000000E+000
  0.000000000000000E+000
  0.000000000000000E+000
  0.000000000000000E+000
  0.000000000000000E+000
  0.000000000000000E+000
  0.000000000000000E+000
  0.000000000000000E+000
  0.000000000000000E+000
  0.000000000000000E+000
  0.000000000000000E+000
  0.000000000000000E+000
  0.000000000000000E+000
  0.000000000000000E+000
  0.000000000000000E+000
  0.000000000000000E+000
  0.000000000000000E+000
  0.000000000000000E+000
  0.000000000000000E+000
  0.000000000000000E+000
  0.000000000000000E+000
  0.000000000000000E+000
  0.000000000000000E+000
  0.000000000000000E+000
  0.000000000000000E+000
  0.000000000000000E+000
  0.000000000000000E+000
  0.000000000000000E+000
  0.000000000000000E+000
  0.000000000000000E+000
  0.000000000000000E+000
  0.000000000000000E+000
  0.000000000000000E+000
  0.000000000000000E+000
  0.000000000000000E+000
  0.000000000000000E+000
  0.000000000000000E+000
  0.000000000000000E+000
  0.000000000000000E+000
  0.000000000000000E+000
  0.000000000000000E+000
  0.000000000000000E+000
  0.000000000000000E+000
  0.000000000000000E+000
  0.000000000000000E+000
  0.000000000000000E+000
  0.000000000000000E+000
  0.000000000000000E+000
  0.000000000000000E+000
  0.000000000000000E+000
  0.000000000000000E+000
  0.000000000000000E+000
  0.000000000000000E+000
  0.000000000000000E+000
  0.000000000000000E+000
  0.000000000000000E+000
  0.000000000000000E+000
  0.000000000000000E+000
  0.000000000000000E+000
  0.000000000000000E+000
  0.000000000000000E+000
  0.000000000000000E+000
  0.000000000000000E+000
  0.000000000000000E+000
  0.000000000000000E+000
  0.000000000000000E+000
  0.000000000000000E+000
  0.000000000000000E+000
  0.000000000000000E+000
  0.000000000000000E+000
  0.000000000000000E+000
  0.000000000000000E+000
  0.000000000000000E+000
  0.000000000000000E+000
  0.000000000000000E+000
  0.000000000000000E+000
  0.000000000000000E+000
  0.000000000000000E+000
  0.000000000000000E+000
  0.000000000000000E+000
  0.000000000000000E+000
  0.000000000000000E+000
  0.000000000000000E+000
  0.000000000000000E+000
  0.000000000000000E+000
  0.000000000000000E+000
  0.000000000000000E+000
  0.000000000000000E+000
  0.000000000000000E+000
  0.000000000000000E+000
  0.000000000000000E+000
  0.000000000000000E+000
  0.000000000000000E+000
  0.000000000000000E+000
  0.000000000000000E+000
  0.000000000000000E+000
  0.000000000000000E+000
  0.000000000000000E+000
  0.000000000000000E+000
  0.000000000000000E+000
  0.000000000000000E+000
  0.000000000000000E+000
  0.000000000000000E+000
  0.000000000000000E+000
  0.000000000000000E+000
  0.000000000000000E+000
  0.000000000000000E+000
  0.000000000000000E+000
  0.000000000000000E+000
  0.000000000000000E+000
  0.000000000000000E+000
  0.000000000000000E+000
  0.000000000000000E+000
  0.000000000000000E+000
  0.000000000000000E+000
  0.000000000000000E+000
  0.000000000000000E+000
  0.000000000000000E+000
  0.000000000000000E+000
  0.000000000000000E+000
  0.000000000000000E+000
  0.000000000000000E+000
  0.000000000000000E+000
  0.000000000000000E+000
  0.000000000000000E+000
  0.000000000000000E+000
  0.000000000000000E+000
  0.000000000000000E+000
  0.000000000000000E+000
  0.000000000000000E+000
  0.000000000000000E+000
  0.000000000000000E+000
  0.000000000000000E+000
  0.000000000000000E+000
  0.000000000000000E+000
  0.000000000000000E+000
  0.000000000000000E+000
  0.000000000000000E+000
  0.000000000000000E+000
  0.000000000000000E+000
  0.000000000000000E+000
  0.000000000000000E+000
  0.000000000000000E+000
  0.000000000000000E+000
  0.000000000000000E+000
  0.000000000000000E+000
  0.000000000000000E+000
  0.000000000000000E+000
  0.000000000000000E+000
  0.000000000000000E+000
  0.000000000000000E+000
  0.000000000000000E+000
  0.000000000000000E+000
  0.000000000000000E+000
  0.000000000000000E+000
  0.000000000000000E+000
  0.000000000000000E+000
  0.000000000000000E+000
  0.000000000000000E+000
  0.000000000000000E+000
  0.000000000000000E+000
  0.000000000000000E+000
  0.000000000000000E+000
  0.000000000000000E+000
  0.000000000000000E+000
  0.000000000000000E+000
  0.000000000000000E+000
  0.000000000000000E+000
  0.000000000000000E+000
  0.000000000000000E+000
  0.000000000000000E+000
  0.000000000000000E+000
  0.000000000000000E+000
  0.000000000000000E+000
  0.000000000000000E+000
  0.000000000000000E+000
  0.000000000000000E+000
  0.000000000000000E+000
  0.000000000000000E+000
  0.000000000000000E+000
  0.000000000000000E+000
  0.000000000000000E+000
  0.000000000000000E+000
  0.000000000000000E+000
  0.000000000000000E+000
  0.000000000000000E+000
  0.000000000000000E+000
  0.000000000000000E+000
  0.000000000000000E+000
  0.000000000000000E+000
  0.000000000000000E+000
  0.000000000000000E+000
  0.000000000000000E+000
  0.000000000000000E+000
  0.000000000000000E+000
  0.000000000000000E+000
  0.000000000000000E+000
  0.000000000000000E+000
  0.000000000000000E+000
  0.000000000000000E+000
  0.000000000000000E+000
  0.000000000000000E+000
  0.000000000000000E+000
  0.000000000000000E+000
  0.000000000000000E+000
  0.000000000000000E+000
  0.000000000000000E+000
  0.000000000000000E+000
  0.000000000000000E+000
  0.000000000000000E+000
  0.000000000000000E+000
  0.000000000000000E+000
  0.000000000000000E+000
  0.000000000000000E+000
  0.000000000000000E+000
  0.000000000000000E+000
  0.000000000000000E+000
  0.000000000000000E+000
  0.000000000000000E+000
  0.000000000000000E+000
  0.000000000000000E+000
  0.000000000000000E+000
  0.000000000000000E+000
  0.000000000000000E+000
  0.000000000000000E+000
  0.000000000000000E+000
  0.000000000000000E+000
  0.000000000000000E+000
  0.000000000000000E+000
  0.000000000000000E+000
  0.000000000000000E+000
  0.000000000000000E+000
  0.000000000000000E+000
  0.000000000000000E+000
  0.000000000000000E+000
  0.000000000000000E+000
  0.000000000000000E+000
  0.000000000000000E+000
  0.000000000000000E+000
  0.000000000000000E+000
  0.000000000000000E+000
  0.000000000000000E+000
  0.000000000000000E+000
  0.000000000000000E+000
  0.000000000000000E+000
  0.000000000000000E+000
  0.000000000000000E+000
  0.000000000000000E+000
  0.000000000000000E+000
  0.000000000000000E+000
  0.000000000000000E+000
  0.000000000000000E+000
  0.000000000000000E+000
  0.000000000000000E+000
  0.000000000000000E+000
  0.000000000000000E+000
  0.000000000000000E+000
  0.000000000000000E+000
  0.000000000000000E+000
  0.000000000000000E+000
  0.000000000000000E+000
  0.000000000000000E+000
  0.000000000000000E+000
  0.000000000000000E+000
  0.000000000000000E+000
  0.000000000000000E+000
  0.000000000000000E+000
  0.000000000000000E+000
  0.000000000000000E+000
  0.000000000000000E+000
  0.000000000000000E+000
  0.000000000000000E+000
  0.000000000000000E+000
  0.000000000000000E+000
  0.000000000000000E+000
  0.000000000000000E+000
  0.000000000000000E+000
  0.000000000000000E+000
  0.000000000000000E+000
  0.000000000000000E+000
  0.000000000000000E+000
  0.000000000000000E+000
  0.000000000000000E+000
  0.000000000000000E+000
  0.000000000000000E+000
  0.000000000000000E+000
  0.000000000000000E+000
  0.000000000000000E+000
  0.000000000000000E+000
  0.000000000000000E+000
  0.000000000000000E+000
  0.000000000000000E+000
  0.000000000000000E+000
  0.000000000000000E+000
  0.000000000000000E+000
  0.000000000000000E+000
  0.000000000000000E+000
  0.000000000000000E+000
  0.000000000000000E+000
  0.000000000000000E+000
  0.000000000000000E+000
  0.000000000000000E+000
  0.000000000000000E+000
  0.000000000000000E+000
  0.000000000000000E+000
  0.000000000000000E+000
  0.000000000000000E+000
  0.000000000000000E+000
  0.000000000000000E+000
  0.000000000000000E+000
  0.000000000000000E+000
  0.000000000000000E+000
  0.000000000000000E+000
  0.000000000000000E+000
  0.000000000000000E+000
  0.000000000000000E+000
  0.000000000000000E+000
  0.000000000000000E+000
  0.000000000000000E+000
  0.000000000000000E+000
  0.000000000000000E+000
  0.000000000000000E+000
  0.000000000000000E+000
  0.000000000000000E+000
  0.000000000000000E+000
  0.000000000000000E+000
  0.000000000000000E+000
  0.000000000000000E+000
  0.000000000000000E+000
  0.000000000000000E+000
  0.000000000000000E+000
  0.000000000000000E+000
  0.000000000000000E+000
  0.000000000000000E+000
  0.000000000000000E+000
  0.000000000000000E+000
  0.000000000000000E+000
  0.000000000000000E+000
  0.000000000000000E+000
  0.000000000000000E+000
  0.000000000000000E+000
  0.000000000000000E+000
  0.000000000000000E+000
  0.000000000000000E+000
  0.000000000000000E+000
  0.000000000000000E+000
  0.000000000000000E+000
  0.000000000000000E+000
  0.000000000000000E+000
  0.000000000000000E+000
  0.000000000000000E+000
  0.000000000000000E+000
  0.000000000000000E+000
  0.000000000000000E+000
  0.000000000000000E+000
  0.000000000000000E+000
  0.000000000000000E+000
  0.000000000000000E+000
  0.000000000000000E+000
  0.000000000000000E+000
  0.000000000000000E+000
  0.000000000000000E+000
  0.000000000000000E+000
  0.000000000000000E+000
  0.000000000000000E+000
  0.000000000000000E+000
  0.000000000000000E+000
  0.000000000000000E+000
  0.000000000000000E+000
  0.000000000000000E+000
  0.000000000000000E+000
  0.000000000000000E+000
  0.000000000000000E+000
  0.000000000000000E+000
  0.000000000000000E+000
  0.000000000000000E+000
  0.000000000000000E+000
  0.000000000000000E+000
  0.000000000000000E+000
  0.000000000000000E+000
  0.000000000000000E+000
  0.000000000000000E+000
  0.000000000000000E+000
  0.000000000000000E+000
  0.000000000000000E+000
  0.000000000000000E+000
  0.000000000000000E+000
  0.000000000000000E+000
  0.000000000000000E+000
  0.000000000000000E+000
  0.000000000000000E+000
  0.000000000000000E+000
  0.000000000000000E+000
  0.000000000000000E+000
  0.000000000000000E+000
  0.000000000000000E+000
  0.000000000000000E+000
  0.000000000000000E+000
  0.000000000000000E+000
  0.000000000000000E+000
  0.000000000000000E+000
  0.000000000000000E+000
  0.000000000000000E+000
  0.000000000000000E+000
  0.000000000000000E+000
  0.000000000000000E+000
  0.000000000000000E+000
  0.000000000000000E+000
  0.000000000000000E+000
  0.000000000000000E+000
  0.000000000000000E+000
  0.000000000000000E+000
  0.000000000000000E+000
  0.000000000000000E+000
  0.000000000000000E+000
  0.000000000000000E+000
  0.000000000000000E+000
  0.000000000000000E+000
  0.000000000000000E+000
  0.000000000000000E+000
  0.000000000000000E+000
  0.000000000000000E+000
  0.000000000000000E+000
  0.000000000000000E+000
  0.000000000000000E+000
  0.000000000000000E+000
  0.000000000000000E+000
  0.000000000000000E+000
  0.000000000000000E+000
  0.000000000000000E+000
  0.000000000000000E+000
  0.000000000000000E+000
  0.000000000000000E+000
  0.000000000000000E+000
  0.000000000000000E+000
  0.000000000000000E+000
  0.000000000000000E+000
  0.000000000000000E+000
  0.000000000000000E+000
  0.000000000000000E+000
  0.000000000000000E+000
  0.000000000000000E+000
  0.000000000000000E+000
  0.000000000000000E+000
  0.000000000000000E+000
  0.000000000000000E+000
  0.000000000000000E+000
  0.000000000000000E+000
  0.000000000000000E+000
  0.000000000000000E+000
  0.000000000000000E+000
  0.000000000000000E+000
  0.000000000000000E+000
  0.000000000000000E+000
  0.000000000000000E+000
  0.000000000000000E+000
  0.000000000000000E+000
  0.000000000000000E+000
  0.000000000000000E+000
  0.000000000000000E+000
  0.000000000000000E+000
  0.000000000000000E+000
  0.000000000000000E+000
  0.000000000000000E+000
  0.000000000000000E+000
  0.000000000000000E+000
  0.000000000000000E+000
  0.000000000000000E+000
  0.000000000000000E+000
  0.000000000000000E+000
  0.000000000000000E+000
  0.000000000000000E+000
  0.000000000000000E+000
  0.000000000000000E+000
  0.000000000000000E+000
  0.000000000000000E+000
  0.000000000000000E+000
  0.000000000000000E+000
  0.000000000000000E+000
  0.000000000000000E+000
  0.000000000000000E+000
  0.000000000000000E+000
  0.000000000000000E+000
  0.000000000000000E+000
  0.000000000000000E+000
  0.000000000000000E+000
  0.000000000000000E+000
  0.000000000000000E+000
  0.000000000000000E+000
  0.000000000000000E+000
  0.000000000000000E+000
  0.000000000000000E+000
  0.000000000000000E+000
  0.000000000000000E+000
  0.000000000000000E+000
  0.000000000000000E+000
  0.000000000000000E+000
  0.000000000000000E+000
  0.000000000000000E+000
  0.000000000000000E+000
  0.000000000000000E+000
  0.000000000000000E+000
  0.000000000000000E+000
  0.000000000000000E+000
  0.000000000000000E+000
  0.000000000000000E+000
  0.000000000000000E+000
  0.000000000000000E+000
  0.000000000000000E+000
  0.000000000000000E+000
  0.000000000000000E+000
  0.000000000000000E+000
  0.000000000000000E+000
  0.000000000000000E+000
  0.000000000000000E+000
  0.000000000000000E+000
  0.000000000000000E+000
  0.000000000000000E+000
  0.000000000000000E+000
  0.000000000000000E+000
  0.000000000000000E+000
  0.000000000000000E+000
  0.000000000000000E+000
  0.000000000000000E+000
  0.000000000000000E+000
  0.000000000000000E+000
  0.000000000000000E+000
  0.000000000000000E+000
  0.000000000000000E+000
  0.000000000000000E+000
  0.000000000000000E+000
  0.000000000000000E+000
  0.000000000000000E+000
  0.000000000000000E+000
  0.000000000000000E+000
  0.000000000000000E+000
  0.000000000000000E+000
  0.000000000000000E+000
  0.000000000000000E+000
  0.000000000000000E+000
  0.000000000000000E+000
  0.000000000000000E+000
  0.000000000000000E+000
  0.000000000000000E+000
  0.000000000000000E+000
  0.000000000000000E+000
  0.000000000000000E+000
  0.000000000000000E+000
  0.000000000000000E+000
  0.000000000000000E+000
  0.000000000000000E+000
  0.000000000000000E+000
  0.000000000000000E+000
  0.000000000000000E+000
  0.000000000000000E+000
  0.000000000000000E+000
  0.000000000000000E+000
  0.000000000000000E+000
  0.000000000000000E+000
  0.000000000000000E+000
  0.000000000000000E+000
  0.000000000000000E+000
  0.000000000000000E+000
  0.000000000000000E+000
  0.000000000000000E+000
  0.000000000000000E+000
  0.000000000000000E+000
  0.000000000000000E+000
  0.000000000000000E+000
  0.000000000000000E+000
  0.000000000000000E+000
  0.000000000000000E+000
  0.000000000000000E+000
  0.000000000000000E+000
  0.000000000000000E+000
  0.000000000000000E+000
  0.000000000000000E+000
  0.000000000000000E+000
  0.000000000000000E+000
  0.000000000000000E+000
  0.000000000000000E+000
  0.000000000000000E+000
  0.000000000000000E+000
  0.000000000000000E+000
  0.000000000000000E+000
  0.000000000000000E+000
  0.000000000000000E+000
  0.000000000000000E+000
  0.000000000000000E+000
  0.000000000000000E+000
  0.000000000000000E+000
  0.000000000000000E+000
  0.000000000000000E+000
  0.000000000000000E+000
  0.000000000000000E+000
  0.000000000000000E+000
  0.000000000000000E+000
  0.000000000000000E+000
  0.000000000000000E+000
  0.000000000000000E+000
  0.000000000000000E+000
  0.000000000000000E+000
  0.000000000000000E+000
  0.000000000000000E+000
  0.000000000000000E+000
  0.000000000000000E+000
  0.000000000000000E+000
  0.000000000000000E+000
  0.000000000000000E+000
  0.000000000000000E+000
  0.000000000000000E+000
  0.000000000000000E+000
  0.000000000000000E+000
  0.000000000000000E+000
  0.000000000000000E+000
  0.000000000000000E+000
  0.000000000000000E+000
  0.000000000000000E+000
  0.000000000000000E+000
  0.000000000000000E+000
  0.000000000000000E+000
  0.000000000000000E+000
  0.000000000000000E+000
  0.000000000000000E+000
  0.000000000000000E+000
  0.000000000000000E+000
  0.000000000000000E+000
  0.000000000000000E+000
  0.000000000000000E+000
  0.000000000000000E+000
  0.000000000000000E+000
  0.000000000000000E+000
  0.000000000000000E+000
  0.000000000000000E+000
  0.000000000000000E+000
  0.000000000000000E+000
  0.000000000000000E+000
  0.000000000000000E+000
  0.000000000000000E+000
  0.000000000000000E+000
  0.000000000000000E+000
  0.000000000000000E+000
  0.000000000000000E+000
  0.000000000000000E+000
  0.000000000000000E+000
  0.000000000000000E+000
  0.000000000000000E+000
  0.000000000000000E+000
  0.000000000000000E+000
  0.000000000000000E+000
  0.000000000000000E+000
  0.000000000000000E+000
  0.000000000000000E+000
  0.000000000000000E+000
  0.000000000000000E+000
  0.000000000000000E+000
  0.000000000000000E+000
  0.000000000000000E+000
  0.000000000000000E+000
  0.000000000000000E+000
  0.000000000000000E+000
  0.000000000000000E+000
  0.000000000000000E+000
  0.000000000000000E+000
  0.000000000000000E+000
  0.000000000000000E+000
  0.000000000000000E+000
  0.000000000000000E+000
  0.000000000000000E+000
  0.000000000000000E+000
  0.000000000000000E+000
  0.000000000000000E+000
  0.000000000000000E+000
  0.000000000000000E+000
  0.000000000000000E+000
  0.000000000000000E+000
  0.000000000000000E+000
  0.000000000000000E+000
  0.000000000000000E+000
  0.000000000000000E+000
  0.000000000000000E+000
  0.000000000000000E+000
  0.000000000000000E+000
  0.000000000000000E+000
  0.000000000000000E+000
  0.000000000000000E+000
  0.000000000000000E+000
  0.000000000000000E+000
  0.000000000000000E+000
  0.000000000000000E+000
  0.000000000000000E+000
  0.000000000000000E+000
  0.000000000000000E+000
  0.000000000000000E+000
  0.000000000000000E+000
  0.000000000000000E+000
  0.000000000000000E+000
  0.000000000000000E+000
  0.000000000000000E+000
  0.000000000000000E+000
  0.000000000000000E+000
  0.000000000000000E+000
  0.000000000000000E+000
  0.000000000000000E+000
  0.000000000000000E+000
  0.000000000000000E+000
  0.000000000000000E+000
  0.000000000000000E+000
  0.000000000000000E+000
  0.000000000000000E+000
  0.000000000000000E+000
  0.000000000000000E+000
  0.000000000000000E+000
  0.000000000000000E+000
  0.000000000000000E+000
  0.000000000000000E+000
  0.000000000000000E+000
  0.000000000000000E+000
  0.000000000000000E+000
  0.000000000000000E+000
  0.000000000000000E+000
  0.000000000000000E+000
  0.000000000000000E+000
  0.000000000000000E+000
  0.000000000000000E+000
  0.000000000000000E+000
  0.000000000000000E+000
  0.000000000000000E+000
  0.000000000000000E+000
  0.000000000000000E+000
  0.000000000000000E+000
  0.000000000000000E+000
  0.000000000000000E+000
  0.000000000000000E+000
  0.000000000000000E+000
  0.000000000000000E+000
  0.000000000000000E+000
  0.000000000000000E+000
  0.000000000000000E+000
  0.000000000000000E+000
  0.000000000000000E+000
  0.000000000000000E+000
  0.000000000000000E+000
  0.000000000000000E+000
  0.000000000000000E+000
  0.000000000000000E+000
  0.000000000000000E+000
  0.000000000000000E+000
  0.000000000000000E+000
  0.000000000000000E+000
  0.000000000000000E+000
  0.000000000000000E+000
  0.000000000000000E+000
  0.000000000000000E+000
  0.000000000000000E+000
  0.000000000000000E+000
  0.000000000000000E+000
  0.000000000000000E+000
  0.000000000000000E+000
  0.000000000000000E+000
  0.000000000000000E+000
SCALARS poroL double 
LOOKUP_TABLE default
  0.199999999152579     
  0.199999999152579     
  0.199999999152579     
  0.199999999152579     
  0.199999999152579     
  0.199999999152579     
  0.199999999152579     
  0.199999999152579     
  0.199999999152579     
  0.199999999152579     
  0.199999999152579     
  0.199999999152579     
  0.199999999152579     
  0.199999999152579     
  0.199999999152579     
  0.199999999125465     
  0.199999999125465     
  0.199999999125465     
  0.199999999125465     
  0.199999999125465     
  0.199999999125465     
  0.199999999125465     
  0.199999999125465     
  0.199999999125465     
  0.199999999125465     
  0.199999999125465     
  0.199999999125465     
  0.199999999125465     
  0.199999999125465     
  0.199999999125465     
  0.199999999070368     
  0.199999999070368     
  0.199999999070368     
  0.199999999070368     
  0.199999999070368     
  0.199999999070368     
  0.199999999070368     
  0.199999999070368     
  0.199999999070368     
  0.199999999070368     
  0.199999999070368     
  0.199999999070368     
  0.199999999070368     
  0.199999999070368     
  0.199999999070368     
  0.199999998985527     
  0.199999998985527     
  0.199999998985527     
  0.199999998985527     
  0.199999998985527     
  0.199999998985527     
  0.199999998985527     
  0.199999998985527     
  0.199999998985527     
  0.199999998985527     
  0.199999998985527     
  0.199999998985527     
  0.199999998985527     
  0.199999998985527     
  0.199999998985527     
  0.199999998868228     
  0.199999998868228     
  0.199999998868228     
  0.199999998868228     
  0.199999998868228     
  0.199999998868228     
  0.199999998868228     
  0.199999998868228     
  0.199999998868228     
  0.199999998868228     
  0.199999998868228     
  0.199999998868228     
  0.199999998868228     
  0.199999998868228     
  0.199999998868228     
  0.199999998714717     
  0.199999998714717     
  0.199999998714717     
  0.199999998714717     
  0.199999998714717     
  0.199999998714717     
  0.199999998714717     
  0.199999998714717     
  0.199999998714717     
  0.199999998714717     
  0.199999998714717     
  0.199999998714717     
  0.199999998714717     
  0.199999998714717     
  0.199999998714717     
  0.199999998520084     
  0.199999998520084     
  0.199999998520084     
  0.199999998520084     
  0.199999998520084     
  0.199999998520084     
  0.199999998520084     
  0.199999998520084     
  0.199999998520084     
  0.199999998520084     
  0.199999998520084     
  0.199999998520084     
  0.199999998520084     
  0.199999998520084     
  0.199999998520084     
  0.199999998278104     
  0.199999998278104     
  0.199999998278104     
  0.199999998278104     
  0.199999998278104     
  0.199999998278104     
  0.199999998278104     
  0.199999998278104     
  0.199999998278104     
  0.199999998278104     
  0.199999998278104     
  0.199999998278104     
  0.199999998278104     
  0.199999998278104     
  0.199999998278104     
  0.199999997981034     
  0.199999997981034     
  0.199999997981034     
  0.199999997981034     
  0.199999997981034     
  0.199999997981034     
  0.199999997981034     
  0.199999997981034     
  0.199999997981034     
  0.199999997981034     
  0.199999997981034     
  0.199999997981034     
  0.199999997981034     
  0.199999997981034     
  0.199999997981034     
  0.199999997619373     
  0.199999997619373     
  0.199999997619373     
  0.199999997619373     
  0.199999997619373     
  0.199999997619373     
  0.199999997619373     
  0.199999997619373     
  0.199999997619373     
  0.199999997619373     
  0.199999997619373     
  0.199999997619373     
  0.199999997619373     
  0.199999997619373     
  0.199999997619373     
  0.199999997181552     
  0.199999997181552     
  0.199999997181552     
  0.199999997181552     
  0.199999997181552     
  0.199999997181552     
  0.199999997181552     
  0.199999997181551     
  0.199999997181552     
  0.199999997181552     
  0.199999997181551     
  0.199999997181551     
  0.199999997181551     
  0.199999997181552     
  0.199999997181551     
  0.199999996653567     
  0.199999996653567     
  0.199999996653567     
  0.199999996653567     
  0.199999996653567     
  0.199999996653567     
  0.199999996653567     
  0.199999996653567     
  0.199999996653567     
  0.199999996653567     
  0.199999996653567     
  0.199999996653567     
  0.199999996653567     
  0.199999996653567     
  0.199999996653567     
  0.199999996018530     
  0.199999996018530     
  0.199999996018530     
  0.199999996018530     
  0.199999996018530     
  0.199999996018530     
  0.199999996018530     
  0.199999996018530     
  0.199999996018530     
  0.199999996018530     
  0.199999996018530     
  0.199999996018530     
  0.199999996018530     
  0.199999996018530     
  0.199999996018530     
  0.199999995256133     
  0.199999995256133     
  0.199999995256133     
  0.199999995256133     
  0.199999995256133     
  0.199999995256133     
  0.199999995256133     
  0.199999995256133     
  0.199999995256133     
  0.199999995256133     
  0.199999995256133     
  0.199999995256133     
  0.199999995256133     
  0.199999995256133     
  0.199999995256133     
  0.199999994341992     
  0.199999994341992     
  0.199999994341992     
  0.199999994341992     
  0.199999994341992     
  0.199999994341992     
  0.199999994341992     
  0.199999994341992     
  0.199999994341992     
  0.199999994341992     
  0.199999994341992     
  0.199999994341992     
  0.199999994341992     
  0.199999994341992     
  0.199999994341992     
  0.199999993246874     
  0.199999993246874     
  0.199999993246874     
  0.199999993246874     
  0.199999993246874     
  0.199999993246874     
  0.199999993246874     
  0.199999993246874     
  0.199999993246874     
  0.199999993246874     
  0.199999993246874     
  0.199999993246874     
  0.199999993246874     
  0.199999993246874     
  0.199999993246874     
  0.199999991935759     
  0.199999991935759     
  0.199999991935759     
  0.199999991935759     
  0.199999991935759     
  0.199999991935759     
  0.199999991935759     
  0.199999991935759     
  0.199999991935759     
  0.199999991935759     
  0.199999991935759     
  0.199999991935759     
  0.199999991935759     
  0.199999991935759     
  0.199999991935759     
  0.199999990366725     
  0.199999990366725     
  0.199999990366725     
  0.199999990366725     
  0.199999990366725     
  0.199999990366725     
  0.199999990366725     
  0.199999990366725     
  0.199999990366725     
  0.199999990366725     
  0.199999990366725     
  0.199999990366725     
  0.199999990366725     
  0.199999990366725     
  0.199999990366725     
  0.199999988489606     
  0.199999988489606     
  0.199999988489606     
  0.199999988489606     
  0.199999988489606     
  0.199999988489606     
  0.199999988489606     
  0.199999988489606     
  0.199999988489606     
  0.199999988489606     
  0.199999988489606     
  0.199999988489606     
  0.199999988489606     
  0.199999988489606     
  0.199999988489606     
  0.199999986244391     
  0.199999986244391     
  0.199999986244391     
  0.199999986244391     
  0.199999986244391     
  0.199999986244391     
  0.199999986244391     
  0.199999986244391     
  0.199999986244391     
  0.199999986244391     
  0.199999986244391     
  0.199999986244391     
  0.199999986244391     
  0.199999986244391     
  0.199999986244391     
  0.199999983559306     
  0.199999983559306     
  0.199999983559306     
  0.199999983559306     
  0.199999983559306     
  0.199999983559306     
  0.199999983559306     
  0.199999983559306     
  0.199999983559306     
  0.199999983559306     
  0.199999983559306     
  0.199999983559306     
  0.199999983559306     
  0.199999983559306     
  0.199999983559306     
  0.199999980348528     
  0.199999980348528     
  0.199999980348528     
  0.199999980348528     
  0.199999980348528     
  0.199999980348528     
  0.199999980348528     
  0.199999980348528     
  0.199999980348528     
  0.199999980348528     
  0.199999980348528     
  0.199999980348528     
  0.199999980348528     
  0.199999980348528     
  0.199999980348528     
  0.199999976509439     
  0.199999976509439     
  0.199999976509439     
  0.199999976509439     
  0.199999976509439     
  0.199999976509439     
  0.199999976509439     
  0.199999976509439     
  0.199999976509439     
  0.199999976509439     
  0.199999976509439     
  0.199999976509439     
  0.199999976509439     
  0.199999976509439     
  0.199999976509439     
  0.199999971919358     
  0.199999971919358     
  0.199999971919358     
  0.199999971919358     
  0.199999971919358     
  0.199999971919358     
  0.199999971919358     
  0.199999971919358     
  0.199999971919358     
  0.199999971919358     
  0.199999971919358     
  0.199999971919358     
  0.199999971919358     
  0.199999971919358     
  0.199999971919358     
  0.199999966431624     
  0.199999966431624     
  0.199999966431624     
  0.199999966431624     
  0.199999966431624     
  0.199999966431624     
  0.199999966431624     
  0.199999966431624     
  0.199999966431624     
  0.199999966431624     
  0.199999966431624     
  0.199999966431624     
  0.199999966431624     
  0.199999966431624     
  0.199999966431624     
  0.199999959870924     
  0.199999959870924     
  0.199999959870924     
  0.199999959870924     
  0.199999959870924     
  0.199999959870924     
  0.199999959870924     
  0.199999959870924     
  0.199999959870924     
  0.199999959870924     
  0.199999959870924     
  0.199999959870924     
  0.199999959870924     
  0.199999959870924     
  0.199999959870924     
  0.199999952027698     
  0.199999952027698     
  0.199999952027698     
  0.199999952027698     
  0.199999952027698     
  0.199999952027698     
  0.199999952027698     
  0.199999952027698     
  0.199999952027698     
  0.199999952027698     
  0.199999952027698     
  0.199999952027698     
  0.199999952027698     
  0.199999952027698     
  0.199999952027698     
  0.199999942651470     
  0.199999942651470     
  0.199999942651470     
  0.199999942651470     
  0.199999942651470     
  0.199999942651470     
  0.199999942651470     
  0.199999942651470     
  0.199999942651470     
  0.199999942651470     
  0.199999942651470     
  0.199999942651470     
  0.199999942651470     
  0.199999942651470     
  0.199999942651470     
  0.199999931442865     
  0.199999931442865     
  0.199999931442865     
  0.199999931442865     
  0.199999931442865     
  0.199999931442865     
  0.199999931442865     
  0.199999931442865     
  0.199999931442865     
  0.199999931442865     
  0.199999931442865     
  0.199999931442865     
  0.199999931442865     
  0.199999931442865     
  0.199999931442865     
  0.199999918044082     
  0.199999918044082     
  0.199999918044082     
  0.199999918044082     
  0.199999918044082     
  0.199999918044082     
  0.199999918044082     
  0.199999918044082     
  0.199999918044082     
  0.199999918044082     
  0.199999918044082     
  0.199999918044082     
  0.199999918044082     
  0.199999918044082     
  0.199999918044082     
  0.199999902027511     
  0.199999902027511     
  0.199999902027511     
  0.199999902027511     
  0.199999902027511     
  0.199999902027511     
  0.199999902027511     
  0.199999902027511     
  0.199999902027511     
  0.199999902027511     
  0.199999902027511     
  0.199999902027511     
  0.199999902027511     
  0.199999902027511     
  0.199999902027511     
  0.199999882882133     
  0.199999882882133     
  0.199999882882133     
  0.199999882882133     
  0.199999882882133     
  0.199999882882133     
  0.199999882882133     
  0.199999882882133     
  0.199999882882133     
  0.199999882882133     
  0.199999882882133     
  0.199999882882133     
  0.199999882882133     
  0.199999882882133     
  0.199999882882134     
  0.199999859997286     
  0.199999859997286     
  0.199999859997286     
  0.199999859997286     
  0.199999859997286     
  0.199999859997286     
  0.199999859997286     
  0.199999859997286     
  0.199999859997286     
  0.199999859997286     
  0.199999859997286     
  0.199999859997286     
  0.199999859997286     
  0.199999859997286     
  0.199999859997286     
  0.199999832643269     
  0.199999832643269     
  0.199999832643269     
  0.199999832643269     
  0.199999832643269     
  0.199999832643269     
  0.199999832643269     
  0.199999832643269     
  0.199999832643269     
  0.199999832643269     
  0.199999832643269     
  0.199999832643269     
  0.199999832643269     
  0.199999832643269     
  0.199999832643269     
  0.199999799948194     
  0.199999799948194     
  0.199999799948194     
  0.199999799948194     
  0.199999799948194     
  0.199999799948194     
  0.199999799948194     
  0.199999799948194     
  0.199999799948194     
  0.199999799948194     
  0.199999799948194     
  0.199999799948194     
  0.199999799948194     
  0.199999799948194     
  0.199999799948194     
  0.199999760870341     
  0.199999760870341     
  0.199999760870341     
  0.199999760870341     
  0.199999760870341     
  0.199999760870341     
  0.199999760870341     
  0.199999760870341     
  0.199999760870341     
  0.199999760870341     
  0.199999760870341     
  0.199999760870341     
  0.199999760870341     
  0.199999760870341     
  0.199999760870341     
  0.199999714165167     
  0.199999714165167     
  0.199999714165167     
  0.199999714165167     
  0.199999714165167     
  0.199999714165167     
  0.199999714165167     
  0.199999714165167     
  0.199999714165167     
  0.199999714165167     
  0.199999714165167     
  0.199999714165167     
  0.199999714165167     
  0.199999714165167     
  0.199999714165167     
  0.199999658345927     
  0.199999658345927     
  0.199999658345927     
  0.199999658345927     
  0.199999658345927     
  0.199999658345927     
  0.199999658345927     
  0.199999658345927     
  0.199999658345927     
  0.199999658345927     
  0.199999658345927     
  0.199999658345927     
  0.199999658345927     
  0.199999658345927     
  0.199999658345927     
  0.199999591636692     
  0.199999591636692     
  0.199999591636692     
  0.199999591636692     
  0.199999591636692     
  0.199999591636692     
  0.199999591636692     
  0.199999591636692     
  0.199999591636692     
  0.199999591636692     
  0.199999591636692     
  0.199999591636692     
  0.199999591636692     
  0.199999591636692     
  0.199999591636692     
  0.199999511916293     
  0.199999511916293     
  0.199999511916293     
  0.199999511916293     
  0.199999511916293     
  0.199999511916293     
  0.199999511916293     
  0.199999511916293     
  0.199999511916293     
  0.199999511916293     
  0.199999511916293     
  0.199999511916293     
  0.199999511916293     
  0.199999511916293     
  0.199999511916293     
  0.199999416651463     
  0.199999416651463     
  0.199999416651463     
  0.199999416651463     
  0.199999416651463     
  0.199999416651463     
  0.199999416651463     
  0.199999416651463     
  0.199999416651463     
  0.199999416651463     
  0.199999416651463     
  0.199999416651463     
  0.199999416651463     
  0.199999416651463     
  0.199999416651463     
  0.199999302817120     
  0.199999302817120     
  0.199999302817120     
  0.199999302817120     
  0.199999302817120     
  0.199999302817120     
  0.199999302817120     
  0.199999302817120     
  0.199999302817120     
  0.199999302817120     
  0.199999302817120     
  0.199999302817120     
  0.199999302817120     
  0.199999302817120     
  0.199999302817120     
  0.199999166801325     
  0.199999166801325     
  0.199999166801325     
  0.199999166801325     
  0.199999166801325     
  0.199999166801325     
  0.199999166801325     
  0.199999166801325     
  0.199999166801325     
  0.199999166801325     
  0.199999166801325     
  0.199999166801325     
  0.199999166801325     
  0.199999166801325     
  0.199999166801325     
  0.199999004292022     
  0.199999004292022     
  0.199999004292022     
  0.199999004292022     
  0.199999004292022     
  0.199999004292022     
  0.199999004292022     
  0.199999004292022     
  0.199999004292022     
  0.199999004292022     
  0.199999004292022     
  0.199999004292022     
  0.199999004292022     
  0.199999004292022     
  0.199999004292022     
  0.199998810142108     
  0.199998810142108     
  0.199998810142108     
  0.199998810142108     
  0.199998810142108     
  0.199998810142108     
  0.199998810142108     
  0.199998810142108     
  0.199998810142108     
  0.199998810142108     
  0.199998810142108     
  0.199998810142108     
  0.199998810142108     
  0.199998810142108     
  0.199998810142108     
  0.199998578208738     
  0.199998578208738     
  0.199998578208738     
  0.199998578208738     
  0.199998578208738     
  0.199998578208738     
  0.199998578208738     
  0.199998578208738     
  0.199998578208738     
  0.199998578208738     
  0.199998578208738     
  0.199998578208738     
  0.199998578208738     
  0.199998578208738     
  0.199998578208738     
  0.199998301162034     
  0.199998301162034     
  0.199998301162034     
  0.199998301162034     
  0.199998301162034     
  0.199998301162034     
  0.199998301162034     
  0.199998301162034     
  0.199998301162034     
  0.199998301162034     
  0.199998301162034     
  0.199998301162034     
  0.199998301162034     
  0.199998301162034     
  0.199998301162034     
  0.199997970257470     
  0.199997970257470     
  0.199997970257470     
  0.199997970257470     
  0.199997970257470     
  0.199997970257470     
  0.199997970257470     
  0.199997970257470     
  0.199997970257470     
  0.199997970257470     
  0.199997970257470     
  0.199997970257470     
  0.199997970257470     
  0.199997970257470     
  0.199997970257470     
  0.199997575065180     
  0.199997575065180     
  0.199997575065180     
  0.199997575065180     
  0.199997575065180     
  0.199997575065180     
  0.199997575065180     
  0.199997575065180     
  0.199997575065180     
  0.199997575065180     
  0.199997575065180     
  0.199997575065180     
  0.199997575065180     
  0.199997575065180     
  0.199997575065180     
  0.199997103148207     
  0.199997103148207     
  0.199997103148207     
  0.199997103148207     
  0.199997103148207     
  0.199997103148207     
  0.199997103148207     
  0.199997103148207     
  0.199997103148207     
  0.199997103148207     
  0.199997103148207     
  0.199997103148207     
  0.199997103148207     
  0.199997103148207     
  0.199997103148207     
  0.199996539680305     
  0.199996539680305     
  0.199996539680305     
  0.199996539680305     
  0.199996539680305     
  0.199996539680305     
  0.199996539680305     
  0.199996539680305     
  0.199996539680305     
  0.199996539680305     
  0.199996539680305     
  0.199996539680305     
  0.199996539680305     
  0.199996539680305     
  0.199996539680305     
  0.199995866992269     
  0.199995866992269     
  0.199995866992269     
  0.199995866992269     
  0.199995866992269     
  0.199995866992269     
  0.199995866992269     
  0.199995866992269     
  0.199995866992269     
  0.199995866992269     
  0.199995866992269     
  0.199995866992269     
  0.199995866992269     
  0.199995866992269     
  0.199995866992269     
  0.199995064033817     
  0.199995064033817     
  0.199995064033817     
  0.199995064033817     
  0.199995064033817     
  0.199995064033817     
  0.199995064033817     
  0.199995064033817     
  0.199995064033817     
  0.199995064033817     
  0.199995064033817     
  0.199995064033817     
  0.199995064033817     
  0.199995064033817     
  0.199995064033817     
  0.199994105735887     
  0.199994105735887     
  0.199994105735887     
  0.199994105735887     
  0.199994105735887     
  0.199994105735887     
  0.199994105735887     
  0.199994105735887     
  0.199994105735887     
  0.199994105735887     
  0.199994105735887     
  0.199994105735887     
  0.199994105735887     
  0.199994105735887     
  0.199994105735887     
  0.199992962255645     
  0.199992962255645     
  0.199992962255645     
  0.199992962255645     
  0.199992962255645     
  0.199992962255645     
  0.199992962255645     
  0.199992962255645     
  0.199992962255645     
  0.199992962255645     
  0.199992962255645     
  0.199992962255645     
  0.199992962255645     
  0.199992962255645     
  0.199992962255645     
  0.199991598083603     
  0.199991598083603     
  0.199991598083603     
  0.199991598083603     
  0.199991598083603     
  0.199991598083603     
  0.199991598083603     
  0.199991598083603     
  0.199991598083603     
  0.199991598083603     
  0.199991598083603     
  0.199991598083603     
  0.199991598083603     
  0.199991598083603     
  0.199991598083603     
  0.199989970988966     
  0.199989970988966     
  0.199989970988966     
  0.199989970988966     
  0.199989970988966     
  0.199989970988966     
  0.199989970988966     
  0.199989970988966     
  0.199989970988966     
  0.199989970988966     
  0.199989970988966     
  0.199989970988966     
  0.199989970988966     
  0.199989970988966     
  0.199989970988966     
  0.199988030775624     
  0.199988030775624     
  0.199988030775624     
  0.199988030775624     
  0.199988030775624     
  0.199988030775624     
  0.199988030775624     
  0.199988030775624     
  0.199988030775624     
  0.199988030775624     
  0.199988030775624     
  0.199988030775624     
  0.199988030775624     
  0.199988030775624     
  0.199988030775624     
  0.199985717817074     
  0.199985717817074     
  0.199985717817074     
  0.199985717817074     
  0.199985717817074     
  0.199985717817074     
  0.199985717817074     
  0.199985717817074     
  0.199985717817074     
  0.199985717817074     
  0.199985717817074     
  0.199985717817074     
  0.199985717817074     
  0.199985717817074     
  0.199985717817074     
  0.199982961334059     
  0.199982961334059     
  0.199982961334059     
  0.199982961334059     
  0.199982961334059     
  0.199982961334059     
  0.199982961334059     
  0.199982961334059     
  0.199982961334059     
  0.199982961334059     
  0.199982961334059     
  0.199982961334059     
  0.199982961334059     
  0.199982961334059     
  0.199982961334059     
  0.199979677373814     
  0.199979677373814     
  0.199979677373814     
  0.199979677373814     
  0.199979677373815     
  0.199979677373815     
  0.199979677373815     
  0.199979677373814     
  0.199979677373814     
  0.199979677373815     
  0.199979677373814     
  0.199979677373814     
  0.199979677373815     
  0.199979677373815     
  0.199979677373815     
  0.199975766444688     
  0.199975766444688     
  0.199975766444688     
  0.199975766444687     
  0.199975766444687     
  0.199975766444688     
  0.199975766444688     
  0.199975766444688     
  0.199975766444688     
  0.199975766444688     
  0.199975766444688     
  0.199975766444688     
  0.199975766444688     
  0.199975766444688     
  0.199975766444688     
  0.199971110754674     
  0.199971110754674     
  0.199971110754674     
  0.199971110754674     
  0.199971110754674     
  0.199971110754674     
  0.199971110754674     
  0.199971110754674     
  0.199971110754674     
  0.199971110754674     
  0.199971110754674     
  0.199971110754674     
  0.199971110754674     
  0.199971110754674     
  0.199971110754674     
  0.199965570997375     
  0.199965570997375     
  0.199965570997375     
  0.199965570997375     
  0.199965570997375     
  0.199965570997375     
  0.199965570997375     
  0.199965570997375     
  0.199965570997375     
  0.199965570997375     
  0.199965570997375     
  0.199965570997375     
  0.199965570997375     
  0.199965570997375     
  0.199965570997375     
  0.199958982624433     
  0.199958982624433     
  0.199958982624433     
  0.199958982624433     
  0.199958982624433     
  0.199958982624433     
  0.199958982624433     
  0.199958982624433     
  0.199958982624433     
  0.199958982624433     
  0.199958982624433     
  0.199958982624433     
  0.199958982624433     
  0.199958982624433     
  0.199958982624433     
  0.199951151540274     
  0.199951151540274     
  0.199951151540274     
  0.199951151540275     
  0.199951151540275     
  0.199951151540275     
  0.199951151540274     
  0.199951151540274     
  0.199951151540275     
  0.199951151540275     
  0.199951151540274     
  0.199951151540275     
  0.199951151540274     
  0.199951151540274     
  0.199951151540275     
  0.199941849153873     
  0.199941849153873     
  0.199941849153873     
  0.199941849153873     
  0.199941849153873     
  0.199941849153873     
  0.199941849153873     
  0.199941849153873     
  0.199941849153873     
  0.199941849153873     
  0.199941849153873     
  0.199941849153873     
  0.199941849153873     
  0.199941849153873     
  0.199941849153873     
  0.199930806724492     
  0.199930806724492     
  0.199930806724492     
  0.199930806724492     
  0.199930806724492     
  0.199930806724492     
  0.199930806724492     
  0.199930806724492     
  0.199930806724492     
  0.199930806724492     
  0.199930806724492     
  0.199930806724492     
  0.199930806724492     
  0.199930806724492     
  0.199930806724492     
  0.199917708945798     
  0.199917708945798     
  0.199917708945798     
  0.199917708945798     
  0.199917708945798     
  0.199917708945798     
  0.199917708945798     
  0.199917708945798     
  0.199917708945798     
  0.199917708945798     
  0.199917708945798     
  0.199917708945798     
  0.199917708945798     
  0.199917708945798     
  0.199917708945798     
  0.199902186727866     
  0.199902186727866     
  0.199902186727866     
  0.199902186727866     
  0.199902186727866     
  0.199902186727866     
  0.199902186727866     
  0.199902186727866     
  0.199902186727866     
  0.199902186727866     
  0.199902186727866     
  0.199902186727866     
  0.199902186727866     
  0.199902186727866     
  0.199902186727866     
  0.199883809162828     
  0.199883809162828     
  0.199883809162828     
  0.199883809162828     
  0.199883809162828     
  0.199883809162828     
  0.199883809162828     
  0.199883809162828     
  0.199883809162828     
  0.199883809162828     
  0.199883809162828     
  0.199883809162828     
  0.199883809162828     
  0.199883809162828     
  0.199883809162828     
  0.199862074702094     
  0.199862074702094     
  0.199862074702094     
  0.199862074702094     
  0.199862074702094     
  0.199862074702094     
  0.199862074702094     
  0.199862074702094     
  0.199862074702094     
  0.199862074702094     
  0.199862074702094     
  0.199862074702094     
  0.199862074702094     
  0.199862074702094     
  0.199862074702094     
  0.199836401637626     
  0.199836401637626     
  0.199836401637626     
  0.199836401637626     
  0.199836401637626     
  0.199836401637626     
  0.199836401637626     
  0.199836401637626     
  0.199836401637626     
  0.199836401637626     
  0.199836401637626     
  0.199836401637626     
  0.199836401637626     
  0.199836401637626     
  0.199836401637626     
  0.199806118075561     
  0.199806118075561     
  0.199806118075561     
  0.199806118075561     
  0.199806118075561     
  0.199806118075561     
  0.199806118075561     
  0.199806118075561     
  0.199806118075561     
  0.199806118075561     
  0.199806118075561     
  0.199806118075561     
  0.199806118075561     
  0.199806118075561     
  0.199806118075561     
  0.199770451729509     
  0.199770451729509     
  0.199770451729509     
  0.199770451729509     
  0.199770451729509     
  0.199770451729509     
  0.199770451729509     
  0.199770451729509     
  0.199770451729509     
  0.199770451729509     
  0.199770451729509     
  0.199770451729509     
  0.199770451729509     
  0.199770451729509     
  0.199770451729509     
  0.199728520059283     
  0.199728520059283     
  0.199728520059283     
  0.199728520059283     
  0.199728520059283     
  0.199728520059282     
  0.199728520059282     
  0.199728520059282     
  0.199728520059283     
  0.199728520059283     
  0.199728520059282     
  0.199728520059283     
  0.199728520059283     
  0.199728520059283     
  0.199728520059283     
  0.199679321560395     
  0.199679321560395     
  0.199679321560394     
  0.199679321560395     
  0.199679321560395     
  0.199679321560395     
  0.199679321560395     
  0.199679321560395     
  0.199679321560395     
  0.199679321560395     
  0.199679321560395     
  0.199679321560395     
  0.199679321560395     
  0.199679321560395     
  0.199679321560395     
  0.199621729399610     
  0.199621729399610     
  0.199621729399610     
  0.199621729399610     
  0.199621729399610     
  0.199621729399610     
  0.199621729399610     
  0.199621729399610     
  0.199621729399610     
  0.199621729399610     
  0.199621729399610     
  0.199621729399610     
  0.199621729399610     
  0.199621729399610     
  0.199621729399610     
  0.199554489131281     
  0.199554489131281     
  0.199554489131281     
  0.199554489131281     
  0.199554489131281     
  0.199554489131281     
  0.199554489131281     
  0.199554489131281     
  0.199554489131281     
  0.199554489131281     
  0.199554489131281     
  0.199554489131281     
  0.199554489131281     
  0.199554489131281     
  0.199554489131281     
  0.199476222970444     
  0.199476222970444     
  0.199476222970444     
  0.199476222970444     
  0.199476222970444     
  0.199476222970444     
  0.199476222970444     
  0.199476222970444     
  0.199476222970444     
  0.199476222970444     
  0.199476222970444     
  0.199476222970444     
  0.199476222970444     
  0.199476222970444     
  0.199476222970444     
  0.199385444111521     
  0.199385444111521     
  0.199385444111521     
  0.199385444111521     
  0.199385444111521     
  0.199385444111521     
  0.199385444111521     
  0.199385444111521     
  0.199385444111521     
  0.199385444111521     
  0.199385444111521     
  0.199385444111521     
  0.199385444111521     
  0.199385444111521     
  0.199385444111521     
  0.199280585958963     
  0.199280585958963     
  0.199280585958963     
  0.199280585958963     
  0.199280585958963     
  0.199280585958963     
  0.199280585958963     
  0.199280585958963     
  0.199280585958963     
  0.199280585958963     
  0.199280585958963     
  0.199280585958963     
  0.199280585958963     
  0.199280585958963     
  0.199280585958963     
  0.199160053002074     
  0.199160053002074     
  0.199160053002074     
  0.199160053002074     
  0.199160053002074     
  0.199160053002074     
  0.199160053002074     
  0.199160053002074     
  0.199160053002074     
  0.199160053002074     
  0.199160053002074     
  0.199160053002074     
  0.199160053002074     
  0.199160053002074     
  0.199160053002074     
  0.199022302585095     
  0.199022302585095     
  0.199022302585095     
  0.199022302585095     
  0.199022302585095     
  0.199022302585095     
  0.199022302585095     
  0.199022302585095     
  0.199022302585095     
  0.199022302585095     
  0.199022302585095     
  0.199022302585095     
  0.199022302585095     
  0.199022302585095     
  0.199022302585095     
  0.198865970213837     
  0.198865970213837     
  0.198865970213837     
  0.198865970213837     
  0.198865970213837     
  0.198865970213837     
  0.198865970213837     
  0.198865970213837     
  0.198865970213837     
  0.198865970213837     
  0.198865970213837     
  0.198865970213837     
  0.198865970213837     
  0.198865970213837     
  0.198865970213837     
  0.198690055591420     
  0.198690055591420     
  0.198690055591420     
  0.198690055591420     
  0.198690055591420     
  0.198690055591420     
  0.198690055591420     
  0.198690055591420     
  0.198690055591420     
  0.198690055591420     
  0.198690055591420     
  0.198690055591420     
  0.198690055591420     
  0.198690055591420     
  0.198690055591420     
  0.198494192672100     
  0.198494192672100     
  0.198494192672100     
  0.198494192672100     
  0.198494192672100     
  0.198494192672100     
  0.198494192672100     
  0.198494192672100     
  0.198494192672100     
  0.198494192672100     
  0.198494192672100     
  0.198494192672100     
  0.198494192672100     
  0.198494192672100     
  0.198494192672100     
  0.198279035172113     
  0.198279035172113     
  0.198279035172113     
  0.198279035172113     
  0.198279035172113     
  0.198279035172113     
  0.198279035172113     
  0.198279035172113     
  0.198279035172113     
  0.198279035172113     
  0.198279035172113     
  0.198279035172113     
  0.198279035172113     
  0.198279035172113     
  0.198279035172113     
  0.198046799853105     
  0.198046799853105     
  0.198046799853105     
  0.198046799853105     
  0.198046799853105     
  0.198046799853105     
  0.198046799853105     
  0.198046799853105     
  0.198046799853105     
  0.198046799853105     
  0.198046799853105     
  0.198046799853105     
  0.198046799853105     
  0.198046799853105     
  0.198046799853105     
  0.197802024386921     
  0.197802024386921     
  0.197802024386921     
  0.197802024386921     
  0.197802024386921     
  0.197802024386921     
  0.197802024386921     
  0.197802024386921     
  0.197802024386921     
  0.197802024386921     
  0.197802024386921     
  0.197802024386921     
  0.197802024386921     
  0.197802024386921     
  0.197802024386921     
