# vtk DataFile Version 3.0
vtk output
ASCII
DATASET UNSTRUCTURED_GRID
POINTS      1456 double 
  0.00000000E+00  1.00000000E+01  0.00000000E+00
  0.00000000E+00  9.33333333E+00  0.00000000E+00
  0.00000000E+00  8.66666667E+00  0.00000000E+00
  0.00000000E+00  8.00000000E+00  0.00000000E+00
  0.00000000E+00  7.33333333E+00  0.00000000E+00
  0.00000000E+00  6.66666667E+00  0.00000000E+00
  0.00000000E+00  6.00000000E+00  0.00000000E+00
  0.00000000E+00  5.33333333E+00  0.00000000E+00
  0.00000000E+00  4.66666667E+00  0.00000000E+00
  0.00000000E+00  4.00000000E+00  0.00000000E+00
  0.00000000E+00  3.33333333E+00  0.00000000E+00
  0.00000000E+00  2.66666667E+00  0.00000000E+00
  0.00000000E+00  2.00000000E+00  0.00000000E+00
  0.00000000E+00  1.33333333E+00  0.00000000E+00
  0.00000000E+00  6.66666667E-01  0.00000000E+00
  0.00000000E+00  1.66533454E-15  0.00000000E+00
  1.11111111E+00  1.00000000E+01  0.00000000E+00
  1.11111111E+00  9.33333333E+00  0.00000000E+00
  1.11111111E+00  8.66666667E+00  0.00000000E+00
  1.11111111E+00  8.00000000E+00  0.00000000E+00
  1.11111111E+00  7.33333333E+00  0.00000000E+00
  1.11111111E+00  6.66666667E+00  0.00000000E+00
  1.11111111E+00  6.00000000E+00  0.00000000E+00
  1.11111111E+00  5.33333333E+00  0.00000000E+00
  1.11111111E+00  4.66666667E+00  0.00000000E+00
  1.11111111E+00  4.00000000E+00  0.00000000E+00
  1.11111111E+00  3.33333333E+00  0.00000000E+00
  1.11111111E+00  2.66666667E+00  0.00000000E+00
  1.11111111E+00  2.00000000E+00  0.00000000E+00
  1.11111111E+00  1.33333333E+00  0.00000000E+00
  1.11111111E+00  6.66666667E-01  0.00000000E+00
  1.11111111E+00  1.66533454E-15  0.00000000E+00
  2.22222222E+00  1.00000000E+01  0.00000000E+00
  2.22222222E+00  9.33333333E+00  0.00000000E+00
  2.22222222E+00  8.66666667E+00  0.00000000E+00
  2.22222222E+00  8.00000000E+00  0.00000000E+00
  2.22222222E+00  7.33333333E+00  0.00000000E+00
  2.22222222E+00  6.66666667E+00  0.00000000E+00
  2.22222222E+00  6.00000000E+00  0.00000000E+00
  2.22222222E+00  5.33333333E+00  0.00000000E+00
  2.22222222E+00  4.66666667E+00  0.00000000E+00
  2.22222222E+00  4.00000000E+00  0.00000000E+00
  2.22222222E+00  3.33333333E+00  0.00000000E+00
  2.22222222E+00  2.66666667E+00  0.00000000E+00
  2.22222222E+00  2.00000000E+00  0.00000000E+00
  2.22222222E+00  1.33333333E+00  0.00000000E+00
  2.22222222E+00  6.66666667E-01  0.00000000E+00
  2.22222222E+00  1.66533454E-15  0.00000000E+00
  3.33333333E+00  1.00000000E+01  0.00000000E+00
  3.33333333E+00  9.33333333E+00  0.00000000E+00
  3.33333333E+00  8.66666667E+00  0.00000000E+00
  3.33333333E+00  8.00000000E+00  0.00000000E+00
  3.33333333E+00  7.33333333E+00  0.00000000E+00
  3.33333333E+00  6.66666667E+00  0.00000000E+00
  3.33333333E+00  6.00000000E+00  0.00000000E+00
  3.33333333E+00  5.33333333E+00  0.00000000E+00
  3.33333333E+00  4.66666667E+00  0.00000000E+00
  3.33333333E+00  4.00000000E+00  0.00000000E+00
  3.33333333E+00  3.33333333E+00  0.00000000E+00
  3.33333333E+00  2.66666667E+00  0.00000000E+00
  3.33333333E+00  2.00000000E+00  0.00000000E+00
  3.33333333E+00  1.33333333E+00  0.00000000E+00
  3.33333333E+00  6.66666667E-01  0.00000000E+00
  3.33333333E+00  1.66533454E-15  0.00000000E+00
  4.44444444E+00  1.00000000E+01  0.00000000E+00
  4.44444444E+00  9.33333333E+00  0.00000000E+00
  4.44444444E+00  8.66666667E+00  0.00000000E+00
  4.44444444E+00  8.00000000E+00  0.00000000E+00
  4.44444444E+00  7.33333333E+00  0.00000000E+00
  4.44444444E+00  6.66666667E+00  0.00000000E+00
  4.44444444E+00  6.00000000E+00  0.00000000E+00
  4.44444444E+00  5.33333333E+00  0.00000000E+00
  4.44444444E+00  4.66666667E+00  0.00000000E+00
  4.44444444E+00  4.00000000E+00  0.00000000E+00
  4.44444444E+00  3.33333333E+00  0.00000000E+00
  4.44444444E+00  2.66666667E+00  0.00000000E+00
  4.44444444E+00  2.00000000E+00  0.00000000E+00
  4.44444444E+00  1.33333333E+00  0.00000000E+00
  4.44444444E+00  6.66666667E-01  0.00000000E+00
  4.44444444E+00  1.66533454E-15  0.00000000E+00
  5.55555556E+00  1.00000000E+01  0.00000000E+00
  5.55555556E+00  9.33333333E+00  0.00000000E+00
  5.55555556E+00  8.66666667E+00  0.00000000E+00
  5.55555556E+00  8.00000000E+00  0.00000000E+00
  5.55555556E+00  7.33333333E+00  0.00000000E+00
  5.55555556E+00  6.66666667E+00  0.00000000E+00
  5.55555556E+00  6.00000000E+00  0.00000000E+00
  5.55555556E+00  5.33333333E+00  0.00000000E+00
  5.55555556E+00  4.66666667E+00  0.00000000E+00
  5.55555556E+00  4.00000000E+00  0.00000000E+00
  5.55555556E+00  3.33333333E+00  0.00000000E+00
  5.55555556E+00  2.66666667E+00  0.00000000E+00
  5.55555556E+00  2.00000000E+00  0.00000000E+00
  5.55555556E+00  1.33333333E+00  0.00000000E+00
  5.55555556E+00  6.66666667E-01  0.00000000E+00
  5.55555556E+00  1.66533454E-15  0.00000000E+00
  6.66666667E+00  1.00000000E+01  0.00000000E+00
  6.66666667E+00  9.33333333E+00  0.00000000E+00
  6.66666667E+00  8.66666667E+00  0.00000000E+00
  6.66666667E+00  8.00000000E+00  0.00000000E+00
  6.66666667E+00  7.33333333E+00  0.00000000E+00
  6.66666667E+00  6.66666667E+00  0.00000000E+00
  6.66666667E+00  6.00000000E+00  0.00000000E+00
  6.66666667E+00  5.33333333E+00  0.00000000E+00
  6.66666667E+00  4.66666667E+00  0.00000000E+00
  6.66666667E+00  4.00000000E+00  0.00000000E+00
  6.66666667E+00  3.33333333E+00  0.00000000E+00
  6.66666667E+00  2.66666667E+00  0.00000000E+00
  6.66666667E+00  2.00000000E+00  0.00000000E+00
  6.66666667E+00  1.33333333E+00  0.00000000E+00
  6.66666667E+00  6.66666667E-01  0.00000000E+00
  6.66666667E+00  1.66533454E-15  0.00000000E+00
  7.77777778E+00  1.00000000E+01  0.00000000E+00
  7.77777778E+00  9.33333333E+00  0.00000000E+00
  7.77777778E+00  8.66666667E+00  0.00000000E+00
  7.77777778E+00  8.00000000E+00  0.00000000E+00
  7.77777778E+00  7.33333333E+00  0.00000000E+00
  7.77777778E+00  6.66666667E+00  0.00000000E+00
  7.77777778E+00  6.00000000E+00  0.00000000E+00
  7.77777778E+00  5.33333333E+00  0.00000000E+00
  7.77777778E+00  4.66666667E+00  0.00000000E+00
  7.77777778E+00  4.00000000E+00  0.00000000E+00
  7.77777778E+00  3.33333333E+00  0.00000000E+00
  7.77777778E+00  2.66666667E+00  0.00000000E+00
  7.77777778E+00  2.00000000E+00  0.00000000E+00
  7.77777778E+00  1.33333333E+00  0.00000000E+00
  7.77777778E+00  6.66666667E-01  0.00000000E+00
  7.77777778E+00  1.66533454E-15  0.00000000E+00
  8.88888889E+00  1.00000000E+01  0.00000000E+00
  8.88888889E+00  9.33333333E+00  0.00000000E+00
  8.88888889E+00  8.66666667E+00  0.00000000E+00
  8.88888889E+00  8.00000000E+00  0.00000000E+00
  8.88888889E+00  7.33333333E+00  0.00000000E+00
  8.88888889E+00  6.66666667E+00  0.00000000E+00
  8.88888889E+00  6.00000000E+00  0.00000000E+00
  8.88888889E+00  5.33333333E+00  0.00000000E+00
  8.88888889E+00  4.66666667E+00  0.00000000E+00
  8.88888889E+00  4.00000000E+00  0.00000000E+00
  8.88888889E+00  3.33333333E+00  0.00000000E+00
  8.88888889E+00  2.66666667E+00  0.00000000E+00
  8.88888889E+00  2.00000000E+00  0.00000000E+00
  8.88888889E+00  1.33333333E+00  0.00000000E+00
  8.88888889E+00  6.66666667E-01  0.00000000E+00
  8.88888889E+00  1.66533454E-15  0.00000000E+00
  1.00000000E+01  1.00000000E+01  0.00000000E+00
  1.00000000E+01  9.33333333E+00  0.00000000E+00
  1.00000000E+01  8.66666667E+00  0.00000000E+00
  1.00000000E+01  8.00000000E+00  0.00000000E+00
  1.00000000E+01  7.33333333E+00  0.00000000E+00
  1.00000000E+01  6.66666667E+00  0.00000000E+00
  1.00000000E+01  6.00000000E+00  0.00000000E+00
  1.00000000E+01  5.33333333E+00  0.00000000E+00
  1.00000000E+01  4.66666667E+00  0.00000000E+00
  1.00000000E+01  4.00000000E+00  0.00000000E+00
  1.00000000E+01  3.33333333E+00  0.00000000E+00
  1.00000000E+01  2.66666667E+00  0.00000000E+00
  1.00000000E+01  2.00000000E+00  0.00000000E+00
  1.00000000E+01  1.33333333E+00  0.00000000E+00
  1.00000000E+01  6.66666667E-01  0.00000000E+00
  1.00000000E+01  1.66533454E-15  0.00000000E+00
  1.11111111E+01  1.00000000E+01  0.00000000E+00
  1.11111111E+01  9.33333333E+00  0.00000000E+00
  1.11111111E+01  8.66666667E+00  0.00000000E+00
  1.11111111E+01  8.00000000E+00  0.00000000E+00
  1.11111111E+01  7.33333333E+00  0.00000000E+00
  1.11111111E+01  6.66666667E+00  0.00000000E+00
  1.11111111E+01  6.00000000E+00  0.00000000E+00
  1.11111111E+01  5.33333333E+00  0.00000000E+00
  1.11111111E+01  4.66666667E+00  0.00000000E+00
  1.11111111E+01  4.00000000E+00  0.00000000E+00
  1.11111111E+01  3.33333333E+00  0.00000000E+00
  1.11111111E+01  2.66666667E+00  0.00000000E+00
  1.11111111E+01  2.00000000E+00  0.00000000E+00
  1.11111111E+01  1.33333333E+00  0.00000000E+00
  1.11111111E+01  6.66666667E-01  0.00000000E+00
  1.11111111E+01  1.66533454E-15  0.00000000E+00
  1.22222222E+01  1.00000000E+01  0.00000000E+00
  1.22222222E+01  9.33333333E+00  0.00000000E+00
  1.22222222E+01  8.66666667E+00  0.00000000E+00
  1.22222222E+01  8.00000000E+00  0.00000000E+00
  1.22222222E+01  7.33333333E+00  0.00000000E+00
  1.22222222E+01  6.66666667E+00  0.00000000E+00
  1.22222222E+01  6.00000000E+00  0.00000000E+00
  1.22222222E+01  5.33333333E+00  0.00000000E+00
  1.22222222E+01  4.66666667E+00  0.00000000E+00
  1.22222222E+01  4.00000000E+00  0.00000000E+00
  1.22222222E+01  3.33333333E+00  0.00000000E+00
  1.22222222E+01  2.66666667E+00  0.00000000E+00
  1.22222222E+01  2.00000000E+00  0.00000000E+00
  1.22222222E+01  1.33333333E+00  0.00000000E+00
  1.22222222E+01  6.66666667E-01  0.00000000E+00
  1.22222222E+01  1.66533454E-15  0.00000000E+00
  1.33333333E+01  1.00000000E+01  0.00000000E+00
  1.33333333E+01  9.33333333E+00  0.00000000E+00
  1.33333333E+01  8.66666667E+00  0.00000000E+00
  1.33333333E+01  8.00000000E+00  0.00000000E+00
  1.33333333E+01  7.33333333E+00  0.00000000E+00
  1.33333333E+01  6.66666667E+00  0.00000000E+00
  1.33333333E+01  6.00000000E+00  0.00000000E+00
  1.33333333E+01  5.33333333E+00  0.00000000E+00
  1.33333333E+01  4.66666667E+00  0.00000000E+00
  1.33333333E+01  4.00000000E+00  0.00000000E+00
  1.33333333E+01  3.33333333E+00  0.00000000E+00
  1.33333333E+01  2.66666667E+00  0.00000000E+00
  1.33333333E+01  2.00000000E+00  0.00000000E+00
  1.33333333E+01  1.33333333E+00  0.00000000E+00
  1.33333333E+01  6.66666667E-01  0.00000000E+00
  1.33333333E+01  1.66533454E-15  0.00000000E+00
  1.44444444E+01  1.00000000E+01  0.00000000E+00
  1.44444444E+01  9.33333333E+00  0.00000000E+00
  1.44444444E+01  8.66666667E+00  0.00000000E+00
  1.44444444E+01  8.00000000E+00  0.00000000E+00
  1.44444444E+01  7.33333333E+00  0.00000000E+00
  1.44444444E+01  6.66666667E+00  0.00000000E+00
  1.44444444E+01  6.00000000E+00  0.00000000E+00
  1.44444444E+01  5.33333333E+00  0.00000000E+00
  1.44444444E+01  4.66666667E+00  0.00000000E+00
  1.44444444E+01  4.00000000E+00  0.00000000E+00
  1.44444444E+01  3.33333333E+00  0.00000000E+00
  1.44444444E+01  2.66666667E+00  0.00000000E+00
  1.44444444E+01  2.00000000E+00  0.00000000E+00
  1.44444444E+01  1.33333333E+00  0.00000000E+00
  1.44444444E+01  6.66666667E-01  0.00000000E+00
  1.44444444E+01  1.66533454E-15  0.00000000E+00
  1.55555556E+01  1.00000000E+01  0.00000000E+00
  1.55555556E+01  9.33333333E+00  0.00000000E+00
  1.55555556E+01  8.66666667E+00  0.00000000E+00
  1.55555556E+01  8.00000000E+00  0.00000000E+00
  1.55555556E+01  7.33333333E+00  0.00000000E+00
  1.55555556E+01  6.66666667E+00  0.00000000E+00
  1.55555556E+01  6.00000000E+00  0.00000000E+00
  1.55555556E+01  5.33333333E+00  0.00000000E+00
  1.55555556E+01  4.66666667E+00  0.00000000E+00
  1.55555556E+01  4.00000000E+00  0.00000000E+00
  1.55555556E+01  3.33333333E+00  0.00000000E+00
  1.55555556E+01  2.66666667E+00  0.00000000E+00
  1.55555556E+01  2.00000000E+00  0.00000000E+00
  1.55555556E+01  1.33333333E+00  0.00000000E+00
  1.55555556E+01  6.66666667E-01  0.00000000E+00
  1.55555556E+01  1.66533454E-15  0.00000000E+00
  1.66666667E+01  1.00000000E+01  0.00000000E+00
  1.66666667E+01  9.33333333E+00  0.00000000E+00
  1.66666667E+01  8.66666667E+00  0.00000000E+00
  1.66666667E+01  8.00000000E+00  0.00000000E+00
  1.66666667E+01  7.33333333E+00  0.00000000E+00
  1.66666667E+01  6.66666667E+00  0.00000000E+00
  1.66666667E+01  6.00000000E+00  0.00000000E+00
  1.66666667E+01  5.33333333E+00  0.00000000E+00
  1.66666667E+01  4.66666667E+00  0.00000000E+00
  1.66666667E+01  4.00000000E+00  0.00000000E+00
  1.66666667E+01  3.33333333E+00  0.00000000E+00
  1.66666667E+01  2.66666667E+00  0.00000000E+00
  1.66666667E+01  2.00000000E+00  0.00000000E+00
  1.66666667E+01  1.33333333E+00  0.00000000E+00
  1.66666667E+01  6.66666667E-01  0.00000000E+00
  1.66666667E+01  1.66533454E-15  0.00000000E+00
  1.77777778E+01  1.00000000E+01  0.00000000E+00
  1.77777778E+01  9.33333333E+00  0.00000000E+00
  1.77777778E+01  8.66666667E+00  0.00000000E+00
  1.77777778E+01  8.00000000E+00  0.00000000E+00
  1.77777778E+01  7.33333333E+00  0.00000000E+00
  1.77777778E+01  6.66666667E+00  0.00000000E+00
  1.77777778E+01  6.00000000E+00  0.00000000E+00
  1.77777778E+01  5.33333333E+00  0.00000000E+00
  1.77777778E+01  4.66666667E+00  0.00000000E+00
  1.77777778E+01  4.00000000E+00  0.00000000E+00
  1.77777778E+01  3.33333333E+00  0.00000000E+00
  1.77777778E+01  2.66666667E+00  0.00000000E+00
  1.77777778E+01  2.00000000E+00  0.00000000E+00
  1.77777778E+01  1.33333333E+00  0.00000000E+00
  1.77777778E+01  6.66666667E-01  0.00000000E+00
  1.77777778E+01  1.66533454E-15  0.00000000E+00
  1.88888889E+01  1.00000000E+01  0.00000000E+00
  1.88888889E+01  9.33333333E+00  0.00000000E+00
  1.88888889E+01  8.66666667E+00  0.00000000E+00
  1.88888889E+01  8.00000000E+00  0.00000000E+00
  1.88888889E+01  7.33333333E+00  0.00000000E+00
  1.88888889E+01  6.66666667E+00  0.00000000E+00
  1.88888889E+01  6.00000000E+00  0.00000000E+00
  1.88888889E+01  5.33333333E+00  0.00000000E+00
  1.88888889E+01  4.66666667E+00  0.00000000E+00
  1.88888889E+01  4.00000000E+00  0.00000000E+00
  1.88888889E+01  3.33333333E+00  0.00000000E+00
  1.88888889E+01  2.66666667E+00  0.00000000E+00
  1.88888889E+01  2.00000000E+00  0.00000000E+00
  1.88888889E+01  1.33333333E+00  0.00000000E+00
  1.88888889E+01  6.66666667E-01  0.00000000E+00
  1.88888889E+01  1.66533454E-15  0.00000000E+00
  2.00000000E+01  1.00000000E+01  0.00000000E+00
  2.00000000E+01  9.33333333E+00  0.00000000E+00
  2.00000000E+01  8.66666667E+00  0.00000000E+00
  2.00000000E+01  8.00000000E+00  0.00000000E+00
  2.00000000E+01  7.33333333E+00  0.00000000E+00
  2.00000000E+01  6.66666667E+00  0.00000000E+00
  2.00000000E+01  6.00000000E+00  0.00000000E+00
  2.00000000E+01  5.33333333E+00  0.00000000E+00
  2.00000000E+01  4.66666667E+00  0.00000000E+00
  2.00000000E+01  4.00000000E+00  0.00000000E+00
  2.00000000E+01  3.33333333E+00  0.00000000E+00
  2.00000000E+01  2.66666667E+00  0.00000000E+00
  2.00000000E+01  2.00000000E+00  0.00000000E+00
  2.00000000E+01  1.33333333E+00  0.00000000E+00
  2.00000000E+01  6.66666667E-01  0.00000000E+00
  2.00000000E+01  1.66533454E-15  0.00000000E+00
  2.11111111E+01  1.00000000E+01  0.00000000E+00
  2.11111111E+01  9.33333333E+00  0.00000000E+00
  2.11111111E+01  8.66666667E+00  0.00000000E+00
  2.11111111E+01  8.00000000E+00  0.00000000E+00
  2.11111111E+01  7.33333333E+00  0.00000000E+00
  2.11111111E+01  6.66666667E+00  0.00000000E+00
  2.11111111E+01  6.00000000E+00  0.00000000E+00
  2.11111111E+01  5.33333333E+00  0.00000000E+00
  2.11111111E+01  4.66666667E+00  0.00000000E+00
  2.11111111E+01  4.00000000E+00  0.00000000E+00
  2.11111111E+01  3.33333333E+00  0.00000000E+00
  2.11111111E+01  2.66666667E+00  0.00000000E+00
  2.11111111E+01  2.00000000E+00  0.00000000E+00
  2.11111111E+01  1.33333333E+00  0.00000000E+00
  2.11111111E+01  6.66666667E-01  0.00000000E+00
  2.11111111E+01  1.66533454E-15  0.00000000E+00
  2.22222222E+01  1.00000000E+01  0.00000000E+00
  2.22222222E+01  9.33333333E+00  0.00000000E+00
  2.22222222E+01  8.66666667E+00  0.00000000E+00
  2.22222222E+01  8.00000000E+00  0.00000000E+00
  2.22222222E+01  7.33333333E+00  0.00000000E+00
  2.22222222E+01  6.66666667E+00  0.00000000E+00
  2.22222222E+01  6.00000000E+00  0.00000000E+00
  2.22222222E+01  5.33333333E+00  0.00000000E+00
  2.22222222E+01  4.66666667E+00  0.00000000E+00
  2.22222222E+01  4.00000000E+00  0.00000000E+00
  2.22222222E+01  3.33333333E+00  0.00000000E+00
  2.22222222E+01  2.66666667E+00  0.00000000E+00
  2.22222222E+01  2.00000000E+00  0.00000000E+00
  2.22222222E+01  1.33333333E+00  0.00000000E+00
  2.22222222E+01  6.66666667E-01  0.00000000E+00
  2.22222222E+01  1.66533454E-15  0.00000000E+00
  2.33333333E+01  1.00000000E+01  0.00000000E+00
  2.33333333E+01  9.33333333E+00  0.00000000E+00
  2.33333333E+01  8.66666667E+00  0.00000000E+00
  2.33333333E+01  8.00000000E+00  0.00000000E+00
  2.33333333E+01  7.33333333E+00  0.00000000E+00
  2.33333333E+01  6.66666667E+00  0.00000000E+00
  2.33333333E+01  6.00000000E+00  0.00000000E+00
  2.33333333E+01  5.33333333E+00  0.00000000E+00
  2.33333333E+01  4.66666667E+00  0.00000000E+00
  2.33333333E+01  4.00000000E+00  0.00000000E+00
  2.33333333E+01  3.33333333E+00  0.00000000E+00
  2.33333333E+01  2.66666667E+00  0.00000000E+00
  2.33333333E+01  2.00000000E+00  0.00000000E+00
  2.33333333E+01  1.33333333E+00  0.00000000E+00
  2.33333333E+01  6.66666667E-01  0.00000000E+00
  2.33333333E+01  1.66533454E-15  0.00000000E+00
  2.44444444E+01  1.00000000E+01  0.00000000E+00
  2.44444444E+01  9.33333333E+00  0.00000000E+00
  2.44444444E+01  8.66666667E+00  0.00000000E+00
  2.44444444E+01  8.00000000E+00  0.00000000E+00
  2.44444444E+01  7.33333333E+00  0.00000000E+00
  2.44444444E+01  6.66666667E+00  0.00000000E+00
  2.44444444E+01  6.00000000E+00  0.00000000E+00
  2.44444444E+01  5.33333333E+00  0.00000000E+00
  2.44444444E+01  4.66666667E+00  0.00000000E+00
  2.44444444E+01  4.00000000E+00  0.00000000E+00
  2.44444444E+01  3.33333333E+00  0.00000000E+00
  2.44444444E+01  2.66666667E+00  0.00000000E+00
  2.44444444E+01  2.00000000E+00  0.00000000E+00
  2.44444444E+01  1.33333333E+00  0.00000000E+00
  2.44444444E+01  6.66666667E-01  0.00000000E+00
  2.44444444E+01  1.66533454E-15  0.00000000E+00
  2.55555556E+01  1.00000000E+01  0.00000000E+00
  2.55555556E+01  9.33333333E+00  0.00000000E+00
  2.55555556E+01  8.66666667E+00  0.00000000E+00
  2.55555556E+01  8.00000000E+00  0.00000000E+00
  2.55555556E+01  7.33333333E+00  0.00000000E+00
  2.55555556E+01  6.66666667E+00  0.00000000E+00
  2.55555556E+01  6.00000000E+00  0.00000000E+00
  2.55555556E+01  5.33333333E+00  0.00000000E+00
  2.55555556E+01  4.66666667E+00  0.00000000E+00
  2.55555556E+01  4.00000000E+00  0.00000000E+00
  2.55555556E+01  3.33333333E+00  0.00000000E+00
  2.55555556E+01  2.66666667E+00  0.00000000E+00
  2.55555556E+01  2.00000000E+00  0.00000000E+00
  2.55555556E+01  1.33333333E+00  0.00000000E+00
  2.55555556E+01  6.66666667E-01  0.00000000E+00
  2.55555556E+01  1.66533454E-15  0.00000000E+00
  2.66666667E+01  1.00000000E+01  0.00000000E+00
  2.66666667E+01  9.33333333E+00  0.00000000E+00
  2.66666667E+01  8.66666667E+00  0.00000000E+00
  2.66666667E+01  8.00000000E+00  0.00000000E+00
  2.66666667E+01  7.33333333E+00  0.00000000E+00
  2.66666667E+01  6.66666667E+00  0.00000000E+00
  2.66666667E+01  6.00000000E+00  0.00000000E+00
  2.66666667E+01  5.33333333E+00  0.00000000E+00
  2.66666667E+01  4.66666667E+00  0.00000000E+00
  2.66666667E+01  4.00000000E+00  0.00000000E+00
  2.66666667E+01  3.33333333E+00  0.00000000E+00
  2.66666667E+01  2.66666667E+00  0.00000000E+00
  2.66666667E+01  2.00000000E+00  0.00000000E+00
  2.66666667E+01  1.33333333E+00  0.00000000E+00
  2.66666667E+01  6.66666667E-01  0.00000000E+00
  2.66666667E+01  1.66533454E-15  0.00000000E+00
  2.77777778E+01  1.00000000E+01  0.00000000E+00
  2.77777778E+01  9.33333333E+00  0.00000000E+00
  2.77777778E+01  8.66666667E+00  0.00000000E+00
  2.77777778E+01  8.00000000E+00  0.00000000E+00
  2.77777778E+01  7.33333333E+00  0.00000000E+00
  2.77777778E+01  6.66666667E+00  0.00000000E+00
  2.77777778E+01  6.00000000E+00  0.00000000E+00
  2.77777778E+01  5.33333333E+00  0.00000000E+00
  2.77777778E+01  4.66666667E+00  0.00000000E+00
  2.77777778E+01  4.00000000E+00  0.00000000E+00
  2.77777778E+01  3.33333333E+00  0.00000000E+00
  2.77777778E+01  2.66666667E+00  0.00000000E+00
  2.77777778E+01  2.00000000E+00  0.00000000E+00
  2.77777778E+01  1.33333333E+00  0.00000000E+00
  2.77777778E+01  6.66666667E-01  0.00000000E+00
  2.77777778E+01  1.66533454E-15  0.00000000E+00
  2.88888889E+01  1.00000000E+01  0.00000000E+00
  2.88888889E+01  9.33333333E+00  0.00000000E+00
  2.88888889E+01  8.66666667E+00  0.00000000E+00
  2.88888889E+01  8.00000000E+00  0.00000000E+00
  2.88888889E+01  7.33333333E+00  0.00000000E+00
  2.88888889E+01  6.66666667E+00  0.00000000E+00
  2.88888889E+01  6.00000000E+00  0.00000000E+00
  2.88888889E+01  5.33333333E+00  0.00000000E+00
  2.88888889E+01  4.66666667E+00  0.00000000E+00
  2.88888889E+01  4.00000000E+00  0.00000000E+00
  2.88888889E+01  3.33333333E+00  0.00000000E+00
  2.88888889E+01  2.66666667E+00  0.00000000E+00
  2.88888889E+01  2.00000000E+00  0.00000000E+00
  2.88888889E+01  1.33333333E+00  0.00000000E+00
  2.88888889E+01  6.66666667E-01  0.00000000E+00
  2.88888889E+01  1.66533454E-15  0.00000000E+00
  3.00000000E+01  1.00000000E+01  0.00000000E+00
  3.00000000E+01  9.33333333E+00  0.00000000E+00
  3.00000000E+01  8.66666667E+00  0.00000000E+00
  3.00000000E+01  8.00000000E+00  0.00000000E+00
  3.00000000E+01  7.33333333E+00  0.00000000E+00
  3.00000000E+01  6.66666667E+00  0.00000000E+00
  3.00000000E+01  6.00000000E+00  0.00000000E+00
  3.00000000E+01  5.33333333E+00  0.00000000E+00
  3.00000000E+01  4.66666667E+00  0.00000000E+00
  3.00000000E+01  4.00000000E+00  0.00000000E+00
  3.00000000E+01  3.33333333E+00  0.00000000E+00
  3.00000000E+01  2.66666667E+00  0.00000000E+00
  3.00000000E+01  2.00000000E+00  0.00000000E+00
  3.00000000E+01  1.33333333E+00  0.00000000E+00
  3.00000000E+01  6.66666667E-01  0.00000000E+00
  3.00000000E+01  1.66533454E-15  0.00000000E+00
  3.11111111E+01  1.00000000E+01  0.00000000E+00
  3.11111111E+01  9.33333333E+00  0.00000000E+00
  3.11111111E+01  8.66666667E+00  0.00000000E+00
  3.11111111E+01  8.00000000E+00  0.00000000E+00
  3.11111111E+01  7.33333333E+00  0.00000000E+00
  3.11111111E+01  6.66666667E+00  0.00000000E+00
  3.11111111E+01  6.00000000E+00  0.00000000E+00
  3.11111111E+01  5.33333333E+00  0.00000000E+00
  3.11111111E+01  4.66666667E+00  0.00000000E+00
  3.11111111E+01  4.00000000E+00  0.00000000E+00
  3.11111111E+01  3.33333333E+00  0.00000000E+00
  3.11111111E+01  2.66666667E+00  0.00000000E+00
  3.11111111E+01  2.00000000E+00  0.00000000E+00
  3.11111111E+01  1.33333333E+00  0.00000000E+00
  3.11111111E+01  6.66666667E-01  0.00000000E+00
  3.11111111E+01  1.66533454E-15  0.00000000E+00
  3.22222222E+01  1.00000000E+01  0.00000000E+00
  3.22222222E+01  9.33333333E+00  0.00000000E+00
  3.22222222E+01  8.66666667E+00  0.00000000E+00
  3.22222222E+01  8.00000000E+00  0.00000000E+00
  3.22222222E+01  7.33333333E+00  0.00000000E+00
  3.22222222E+01  6.66666667E+00  0.00000000E+00
  3.22222222E+01  6.00000000E+00  0.00000000E+00
  3.22222222E+01  5.33333333E+00  0.00000000E+00
  3.22222222E+01  4.66666667E+00  0.00000000E+00
  3.22222222E+01  4.00000000E+00  0.00000000E+00
  3.22222222E+01  3.33333333E+00  0.00000000E+00
  3.22222222E+01  2.66666667E+00  0.00000000E+00
  3.22222222E+01  2.00000000E+00  0.00000000E+00
  3.22222222E+01  1.33333333E+00  0.00000000E+00
  3.22222222E+01  6.66666667E-01  0.00000000E+00
  3.22222222E+01  1.66533454E-15  0.00000000E+00
  3.33333333E+01  1.00000000E+01  0.00000000E+00
  3.33333333E+01  9.33333333E+00  0.00000000E+00
  3.33333333E+01  8.66666667E+00  0.00000000E+00
  3.33333333E+01  8.00000000E+00  0.00000000E+00
  3.33333333E+01  7.33333333E+00  0.00000000E+00
  3.33333333E+01  6.66666667E+00  0.00000000E+00
  3.33333333E+01  6.00000000E+00  0.00000000E+00
  3.33333333E+01  5.33333333E+00  0.00000000E+00
  3.33333333E+01  4.66666667E+00  0.00000000E+00
  3.33333333E+01  4.00000000E+00  0.00000000E+00
  3.33333333E+01  3.33333333E+00  0.00000000E+00
  3.33333333E+01  2.66666667E+00  0.00000000E+00
  3.33333333E+01  2.00000000E+00  0.00000000E+00
  3.33333333E+01  1.33333333E+00  0.00000000E+00
  3.33333333E+01  6.66666667E-01  0.00000000E+00
  3.33333333E+01  1.66533454E-15  0.00000000E+00
  3.44444444E+01  1.00000000E+01  0.00000000E+00
  3.44444444E+01  9.33333333E+00  0.00000000E+00
  3.44444444E+01  8.66666667E+00  0.00000000E+00
  3.44444444E+01  8.00000000E+00  0.00000000E+00
  3.44444444E+01  7.33333333E+00  0.00000000E+00
  3.44444444E+01  6.66666667E+00  0.00000000E+00
  3.44444444E+01  6.00000000E+00  0.00000000E+00
  3.44444444E+01  5.33333333E+00  0.00000000E+00
  3.44444444E+01  4.66666667E+00  0.00000000E+00
  3.44444444E+01  4.00000000E+00  0.00000000E+00
  3.44444444E+01  3.33333333E+00  0.00000000E+00
  3.44444444E+01  2.66666667E+00  0.00000000E+00
  3.44444444E+01  2.00000000E+00  0.00000000E+00
  3.44444444E+01  1.33333333E+00  0.00000000E+00
  3.44444444E+01  6.66666667E-01  0.00000000E+00
  3.44444444E+01  1.66533454E-15  0.00000000E+00
  3.55555556E+01  1.00000000E+01  0.00000000E+00
  3.55555556E+01  9.33333333E+00  0.00000000E+00
  3.55555556E+01  8.66666667E+00  0.00000000E+00
  3.55555556E+01  8.00000000E+00  0.00000000E+00
  3.55555556E+01  7.33333333E+00  0.00000000E+00
  3.55555556E+01  6.66666667E+00  0.00000000E+00
  3.55555556E+01  6.00000000E+00  0.00000000E+00
  3.55555556E+01  5.33333333E+00  0.00000000E+00
  3.55555556E+01  4.66666667E+00  0.00000000E+00
  3.55555556E+01  4.00000000E+00  0.00000000E+00
  3.55555556E+01  3.33333333E+00  0.00000000E+00
  3.55555556E+01  2.66666667E+00  0.00000000E+00
  3.55555556E+01  2.00000000E+00  0.00000000E+00
  3.55555556E+01  1.33333333E+00  0.00000000E+00
  3.55555556E+01  6.66666667E-01  0.00000000E+00
  3.55555556E+01  1.66533454E-15  0.00000000E+00
  3.66666667E+01  1.00000000E+01  0.00000000E+00
  3.66666667E+01  9.33333333E+00  0.00000000E+00
  3.66666667E+01  8.66666667E+00  0.00000000E+00
  3.66666667E+01  8.00000000E+00  0.00000000E+00
  3.66666667E+01  7.33333333E+00  0.00000000E+00
  3.66666667E+01  6.66666667E+00  0.00000000E+00
  3.66666667E+01  6.00000000E+00  0.00000000E+00
  3.66666667E+01  5.33333333E+00  0.00000000E+00
  3.66666667E+01  4.66666667E+00  0.00000000E+00
  3.66666667E+01  4.00000000E+00  0.00000000E+00
  3.66666667E+01  3.33333333E+00  0.00000000E+00
  3.66666667E+01  2.66666667E+00  0.00000000E+00
  3.66666667E+01  2.00000000E+00  0.00000000E+00
  3.66666667E+01  1.33333333E+00  0.00000000E+00
  3.66666667E+01  6.66666667E-01  0.00000000E+00
  3.66666667E+01  1.66533454E-15  0.00000000E+00
  3.77777778E+01  1.00000000E+01  0.00000000E+00
  3.77777778E+01  9.33333333E+00  0.00000000E+00
  3.77777778E+01  8.66666667E+00  0.00000000E+00
  3.77777778E+01  8.00000000E+00  0.00000000E+00
  3.77777778E+01  7.33333333E+00  0.00000000E+00
  3.77777778E+01  6.66666667E+00  0.00000000E+00
  3.77777778E+01  6.00000000E+00  0.00000000E+00
  3.77777778E+01  5.33333333E+00  0.00000000E+00
  3.77777778E+01  4.66666667E+00  0.00000000E+00
  3.77777778E+01  4.00000000E+00  0.00000000E+00
  3.77777778E+01  3.33333333E+00  0.00000000E+00
  3.77777778E+01  2.66666667E+00  0.00000000E+00
  3.77777778E+01  2.00000000E+00  0.00000000E+00
  3.77777778E+01  1.33333333E+00  0.00000000E+00
  3.77777778E+01  6.66666667E-01  0.00000000E+00
  3.77777778E+01  1.66533454E-15  0.00000000E+00
  3.88888889E+01  1.00000000E+01  0.00000000E+00
  3.88888889E+01  9.33333333E+00  0.00000000E+00
  3.88888889E+01  8.66666667E+00  0.00000000E+00
  3.88888889E+01  8.00000000E+00  0.00000000E+00
  3.88888889E+01  7.33333333E+00  0.00000000E+00
  3.88888889E+01  6.66666667E+00  0.00000000E+00
  3.88888889E+01  6.00000000E+00  0.00000000E+00
  3.88888889E+01  5.33333333E+00  0.00000000E+00
  3.88888889E+01  4.66666667E+00  0.00000000E+00
  3.88888889E+01  4.00000000E+00  0.00000000E+00
  3.88888889E+01  3.33333333E+00  0.00000000E+00
  3.88888889E+01  2.66666667E+00  0.00000000E+00
  3.88888889E+01  2.00000000E+00  0.00000000E+00
  3.88888889E+01  1.33333333E+00  0.00000000E+00
  3.88888889E+01  6.66666667E-01  0.00000000E+00
  3.88888889E+01  1.66533454E-15  0.00000000E+00
  4.00000000E+01  1.00000000E+01  0.00000000E+00
  4.00000000E+01  9.33333333E+00  0.00000000E+00
  4.00000000E+01  8.66666667E+00  0.00000000E+00
  4.00000000E+01  8.00000000E+00  0.00000000E+00
  4.00000000E+01  7.33333333E+00  0.00000000E+00
  4.00000000E+01  6.66666667E+00  0.00000000E+00
  4.00000000E+01  6.00000000E+00  0.00000000E+00
  4.00000000E+01  5.33333333E+00  0.00000000E+00
  4.00000000E+01  4.66666667E+00  0.00000000E+00
  4.00000000E+01  4.00000000E+00  0.00000000E+00
  4.00000000E+01  3.33333333E+00  0.00000000E+00
  4.00000000E+01  2.66666667E+00  0.00000000E+00
  4.00000000E+01  2.00000000E+00  0.00000000E+00
  4.00000000E+01  1.33333333E+00  0.00000000E+00
  4.00000000E+01  6.66666667E-01  0.00000000E+00
  4.00000000E+01  1.66533454E-15  0.00000000E+00
  4.11111111E+01  1.00000000E+01  0.00000000E+00
  4.11111111E+01  9.33333333E+00  0.00000000E+00
  4.11111111E+01  8.66666667E+00  0.00000000E+00
  4.11111111E+01  8.00000000E+00  0.00000000E+00
  4.11111111E+01  7.33333333E+00  0.00000000E+00
  4.11111111E+01  6.66666667E+00  0.00000000E+00
  4.11111111E+01  6.00000000E+00  0.00000000E+00
  4.11111111E+01  5.33333333E+00  0.00000000E+00
  4.11111111E+01  4.66666667E+00  0.00000000E+00
  4.11111111E+01  4.00000000E+00  0.00000000E+00
  4.11111111E+01  3.33333333E+00  0.00000000E+00
  4.11111111E+01  2.66666667E+00  0.00000000E+00
  4.11111111E+01  2.00000000E+00  0.00000000E+00
  4.11111111E+01  1.33333333E+00  0.00000000E+00
  4.11111111E+01  6.66666667E-01  0.00000000E+00
  4.11111111E+01  1.66533454E-15  0.00000000E+00
  4.22222222E+01  1.00000000E+01  0.00000000E+00
  4.22222222E+01  9.33333333E+00  0.00000000E+00
  4.22222222E+01  8.66666667E+00  0.00000000E+00
  4.22222222E+01  8.00000000E+00  0.00000000E+00
  4.22222222E+01  7.33333333E+00  0.00000000E+00
  4.22222222E+01  6.66666667E+00  0.00000000E+00
  4.22222222E+01  6.00000000E+00  0.00000000E+00
  4.22222222E+01  5.33333333E+00  0.00000000E+00
  4.22222222E+01  4.66666667E+00  0.00000000E+00
  4.22222222E+01  4.00000000E+00  0.00000000E+00
  4.22222222E+01  3.33333333E+00  0.00000000E+00
  4.22222222E+01  2.66666667E+00  0.00000000E+00
  4.22222222E+01  2.00000000E+00  0.00000000E+00
  4.22222222E+01  1.33333333E+00  0.00000000E+00
  4.22222222E+01  6.66666667E-01  0.00000000E+00
  4.22222222E+01  1.66533454E-15  0.00000000E+00
  4.33333333E+01  1.00000000E+01  0.00000000E+00
  4.33333333E+01  9.33333333E+00  0.00000000E+00
  4.33333333E+01  8.66666667E+00  0.00000000E+00
  4.33333333E+01  8.00000000E+00  0.00000000E+00
  4.33333333E+01  7.33333333E+00  0.00000000E+00
  4.33333333E+01  6.66666667E+00  0.00000000E+00
  4.33333333E+01  6.00000000E+00  0.00000000E+00
  4.33333333E+01  5.33333333E+00  0.00000000E+00
  4.33333333E+01  4.66666667E+00  0.00000000E+00
  4.33333333E+01  4.00000000E+00  0.00000000E+00
  4.33333333E+01  3.33333333E+00  0.00000000E+00
  4.33333333E+01  2.66666667E+00  0.00000000E+00
  4.33333333E+01  2.00000000E+00  0.00000000E+00
  4.33333333E+01  1.33333333E+00  0.00000000E+00
  4.33333333E+01  6.66666667E-01  0.00000000E+00
  4.33333333E+01  1.66533454E-15  0.00000000E+00
  4.44444444E+01  1.00000000E+01  0.00000000E+00
  4.44444444E+01  9.33333333E+00  0.00000000E+00
  4.44444444E+01  8.66666667E+00  0.00000000E+00
  4.44444444E+01  8.00000000E+00  0.00000000E+00
  4.44444444E+01  7.33333333E+00  0.00000000E+00
  4.44444444E+01  6.66666667E+00  0.00000000E+00
  4.44444444E+01  6.00000000E+00  0.00000000E+00
  4.44444444E+01  5.33333333E+00  0.00000000E+00
  4.44444444E+01  4.66666667E+00  0.00000000E+00
  4.44444444E+01  4.00000000E+00  0.00000000E+00
  4.44444444E+01  3.33333333E+00  0.00000000E+00
  4.44444444E+01  2.66666667E+00  0.00000000E+00
  4.44444444E+01  2.00000000E+00  0.00000000E+00
  4.44444444E+01  1.33333333E+00  0.00000000E+00
  4.44444444E+01  6.66666667E-01  0.00000000E+00
  4.44444444E+01  1.66533454E-15  0.00000000E+00
  4.55555556E+01  1.00000000E+01  0.00000000E+00
  4.55555556E+01  9.33333333E+00  0.00000000E+00
  4.55555556E+01  8.66666667E+00  0.00000000E+00
  4.55555556E+01  8.00000000E+00  0.00000000E+00
  4.55555556E+01  7.33333333E+00  0.00000000E+00
  4.55555556E+01  6.66666667E+00  0.00000000E+00
  4.55555556E+01  6.00000000E+00  0.00000000E+00
  4.55555556E+01  5.33333333E+00  0.00000000E+00
  4.55555556E+01  4.66666667E+00  0.00000000E+00
  4.55555556E+01  4.00000000E+00  0.00000000E+00
  4.55555556E+01  3.33333333E+00  0.00000000E+00
  4.55555556E+01  2.66666667E+00  0.00000000E+00
  4.55555556E+01  2.00000000E+00  0.00000000E+00
  4.55555556E+01  1.33333333E+00  0.00000000E+00
  4.55555556E+01  6.66666667E-01  0.00000000E+00
  4.55555556E+01  1.66533454E-15  0.00000000E+00
  4.66666667E+01  1.00000000E+01  0.00000000E+00
  4.66666667E+01  9.33333333E+00  0.00000000E+00
  4.66666667E+01  8.66666667E+00  0.00000000E+00
  4.66666667E+01  8.00000000E+00  0.00000000E+00
  4.66666667E+01  7.33333333E+00  0.00000000E+00
  4.66666667E+01  6.66666667E+00  0.00000000E+00
  4.66666667E+01  6.00000000E+00  0.00000000E+00
  4.66666667E+01  5.33333333E+00  0.00000000E+00
  4.66666667E+01  4.66666667E+00  0.00000000E+00
  4.66666667E+01  4.00000000E+00  0.00000000E+00
  4.66666667E+01  3.33333333E+00  0.00000000E+00
  4.66666667E+01  2.66666667E+00  0.00000000E+00
  4.66666667E+01  2.00000000E+00  0.00000000E+00
  4.66666667E+01  1.33333333E+00  0.00000000E+00
  4.66666667E+01  6.66666667E-01  0.00000000E+00
  4.66666667E+01  1.66533454E-15  0.00000000E+00
  4.77777778E+01  1.00000000E+01  0.00000000E+00
  4.77777778E+01  9.33333333E+00  0.00000000E+00
  4.77777778E+01  8.66666667E+00  0.00000000E+00
  4.77777778E+01  8.00000000E+00  0.00000000E+00
  4.77777778E+01  7.33333333E+00  0.00000000E+00
  4.77777778E+01  6.66666667E+00  0.00000000E+00
  4.77777778E+01  6.00000000E+00  0.00000000E+00
  4.77777778E+01  5.33333333E+00  0.00000000E+00
  4.77777778E+01  4.66666667E+00  0.00000000E+00
  4.77777778E+01  4.00000000E+00  0.00000000E+00
  4.77777778E+01  3.33333333E+00  0.00000000E+00
  4.77777778E+01  2.66666667E+00  0.00000000E+00
  4.77777778E+01  2.00000000E+00  0.00000000E+00
  4.77777778E+01  1.33333333E+00  0.00000000E+00
  4.77777778E+01  6.66666667E-01  0.00000000E+00
  4.77777778E+01  1.66533454E-15  0.00000000E+00
  4.88888889E+01  1.00000000E+01  0.00000000E+00
  4.88888889E+01  9.33333333E+00  0.00000000E+00
  4.88888889E+01  8.66666667E+00  0.00000000E+00
  4.88888889E+01  8.00000000E+00  0.00000000E+00
  4.88888889E+01  7.33333333E+00  0.00000000E+00
  4.88888889E+01  6.66666667E+00  0.00000000E+00
  4.88888889E+01  6.00000000E+00  0.00000000E+00
  4.88888889E+01  5.33333333E+00  0.00000000E+00
  4.88888889E+01  4.66666667E+00  0.00000000E+00
  4.88888889E+01  4.00000000E+00  0.00000000E+00
  4.88888889E+01  3.33333333E+00  0.00000000E+00
  4.88888889E+01  2.66666667E+00  0.00000000E+00
  4.88888889E+01  2.00000000E+00  0.00000000E+00
  4.88888889E+01  1.33333333E+00  0.00000000E+00
  4.88888889E+01  6.66666667E-01  0.00000000E+00
  4.88888889E+01  1.66533454E-15  0.00000000E+00
  5.00000000E+01  1.00000000E+01  0.00000000E+00
  5.00000000E+01  9.33333333E+00  0.00000000E+00
  5.00000000E+01  8.66666667E+00  0.00000000E+00
  5.00000000E+01  8.00000000E+00  0.00000000E+00
  5.00000000E+01  7.33333333E+00  0.00000000E+00
  5.00000000E+01  6.66666667E+00  0.00000000E+00
  5.00000000E+01  6.00000000E+00  0.00000000E+00
  5.00000000E+01  5.33333333E+00  0.00000000E+00
  5.00000000E+01  4.66666667E+00  0.00000000E+00
  5.00000000E+01  4.00000000E+00  0.00000000E+00
  5.00000000E+01  3.33333333E+00  0.00000000E+00
  5.00000000E+01  2.66666667E+00  0.00000000E+00
  5.00000000E+01  2.00000000E+00  0.00000000E+00
  5.00000000E+01  1.33333333E+00  0.00000000E+00
  5.00000000E+01  6.66666667E-01  0.00000000E+00
  5.00000000E+01  1.66533454E-15  0.00000000E+00
  5.11111111E+01  1.00000000E+01  0.00000000E+00
  5.11111111E+01  9.33333333E+00  0.00000000E+00
  5.11111111E+01  8.66666667E+00  0.00000000E+00
  5.11111111E+01  8.00000000E+00  0.00000000E+00
  5.11111111E+01  7.33333333E+00  0.00000000E+00
  5.11111111E+01  6.66666667E+00  0.00000000E+00
  5.11111111E+01  6.00000000E+00  0.00000000E+00
  5.11111111E+01  5.33333333E+00  0.00000000E+00
  5.11111111E+01  4.66666667E+00  0.00000000E+00
  5.11111111E+01  4.00000000E+00  0.00000000E+00
  5.11111111E+01  3.33333333E+00  0.00000000E+00
  5.11111111E+01  2.66666667E+00  0.00000000E+00
  5.11111111E+01  2.00000000E+00  0.00000000E+00
  5.11111111E+01  1.33333333E+00  0.00000000E+00
  5.11111111E+01  6.66666667E-01  0.00000000E+00
  5.11111111E+01  1.66533454E-15  0.00000000E+00
  5.22222222E+01  1.00000000E+01  0.00000000E+00
  5.22222222E+01  9.33333333E+00  0.00000000E+00
  5.22222222E+01  8.66666667E+00  0.00000000E+00
  5.22222222E+01  8.00000000E+00  0.00000000E+00
  5.22222222E+01  7.33333333E+00  0.00000000E+00
  5.22222222E+01  6.66666667E+00  0.00000000E+00
  5.22222222E+01  6.00000000E+00  0.00000000E+00
  5.22222222E+01  5.33333333E+00  0.00000000E+00
  5.22222222E+01  4.66666667E+00  0.00000000E+00
  5.22222222E+01  4.00000000E+00  0.00000000E+00
  5.22222222E+01  3.33333333E+00  0.00000000E+00
  5.22222222E+01  2.66666667E+00  0.00000000E+00
  5.22222222E+01  2.00000000E+00  0.00000000E+00
  5.22222222E+01  1.33333333E+00  0.00000000E+00
  5.22222222E+01  6.66666667E-01  0.00000000E+00
  5.22222222E+01  1.66533454E-15  0.00000000E+00
  5.33333333E+01  1.00000000E+01  0.00000000E+00
  5.33333333E+01  9.33333333E+00  0.00000000E+00
  5.33333333E+01  8.66666667E+00  0.00000000E+00
  5.33333333E+01  8.00000000E+00  0.00000000E+00
  5.33333333E+01  7.33333333E+00  0.00000000E+00
  5.33333333E+01  6.66666667E+00  0.00000000E+00
  5.33333333E+01  6.00000000E+00  0.00000000E+00
  5.33333333E+01  5.33333333E+00  0.00000000E+00
  5.33333333E+01  4.66666667E+00  0.00000000E+00
  5.33333333E+01  4.00000000E+00  0.00000000E+00
  5.33333333E+01  3.33333333E+00  0.00000000E+00
  5.33333333E+01  2.66666667E+00  0.00000000E+00
  5.33333333E+01  2.00000000E+00  0.00000000E+00
  5.33333333E+01  1.33333333E+00  0.00000000E+00
  5.33333333E+01  6.66666667E-01  0.00000000E+00
  5.33333333E+01  1.66533454E-15  0.00000000E+00
  5.44444444E+01  1.00000000E+01  0.00000000E+00
  5.44444444E+01  9.33333333E+00  0.00000000E+00
  5.44444444E+01  8.66666667E+00  0.00000000E+00
  5.44444444E+01  8.00000000E+00  0.00000000E+00
  5.44444444E+01  7.33333333E+00  0.00000000E+00
  5.44444444E+01  6.66666667E+00  0.00000000E+00
  5.44444444E+01  6.00000000E+00  0.00000000E+00
  5.44444444E+01  5.33333333E+00  0.00000000E+00
  5.44444444E+01  4.66666667E+00  0.00000000E+00
  5.44444444E+01  4.00000000E+00  0.00000000E+00
  5.44444444E+01  3.33333333E+00  0.00000000E+00
  5.44444444E+01  2.66666667E+00  0.00000000E+00
  5.44444444E+01  2.00000000E+00  0.00000000E+00
  5.44444444E+01  1.33333333E+00  0.00000000E+00
  5.44444444E+01  6.66666667E-01  0.00000000E+00
  5.44444444E+01  1.66533454E-15  0.00000000E+00
  5.55555556E+01  1.00000000E+01  0.00000000E+00
  5.55555556E+01  9.33333333E+00  0.00000000E+00
  5.55555556E+01  8.66666667E+00  0.00000000E+00
  5.55555556E+01  8.00000000E+00  0.00000000E+00
  5.55555556E+01  7.33333333E+00  0.00000000E+00
  5.55555556E+01  6.66666667E+00  0.00000000E+00
  5.55555556E+01  6.00000000E+00  0.00000000E+00
  5.55555556E+01  5.33333333E+00  0.00000000E+00
  5.55555556E+01  4.66666667E+00  0.00000000E+00
  5.55555556E+01  4.00000000E+00  0.00000000E+00
  5.55555556E+01  3.33333333E+00  0.00000000E+00
  5.55555556E+01  2.66666667E+00  0.00000000E+00
  5.55555556E+01  2.00000000E+00  0.00000000E+00
  5.55555556E+01  1.33333333E+00  0.00000000E+00
  5.55555556E+01  6.66666667E-01  0.00000000E+00
  5.55555556E+01  1.66533454E-15  0.00000000E+00
  5.66666667E+01  1.00000000E+01  0.00000000E+00
  5.66666667E+01  9.33333333E+00  0.00000000E+00
  5.66666667E+01  8.66666667E+00  0.00000000E+00
  5.66666667E+01  8.00000000E+00  0.00000000E+00
  5.66666667E+01  7.33333333E+00  0.00000000E+00
  5.66666667E+01  6.66666667E+00  0.00000000E+00
  5.66666667E+01  6.00000000E+00  0.00000000E+00
  5.66666667E+01  5.33333333E+00  0.00000000E+00
  5.66666667E+01  4.66666667E+00  0.00000000E+00
  5.66666667E+01  4.00000000E+00  0.00000000E+00
  5.66666667E+01  3.33333333E+00  0.00000000E+00
  5.66666667E+01  2.66666667E+00  0.00000000E+00
  5.66666667E+01  2.00000000E+00  0.00000000E+00
  5.66666667E+01  1.33333333E+00  0.00000000E+00
  5.66666667E+01  6.66666667E-01  0.00000000E+00
  5.66666667E+01  1.66533454E-15  0.00000000E+00
  5.77777778E+01  1.00000000E+01  0.00000000E+00
  5.77777778E+01  9.33333333E+00  0.00000000E+00
  5.77777778E+01  8.66666667E+00  0.00000000E+00
  5.77777778E+01  8.00000000E+00  0.00000000E+00
  5.77777778E+01  7.33333333E+00  0.00000000E+00
  5.77777778E+01  6.66666667E+00  0.00000000E+00
  5.77777778E+01  6.00000000E+00  0.00000000E+00
  5.77777778E+01  5.33333333E+00  0.00000000E+00
  5.77777778E+01  4.66666667E+00  0.00000000E+00
  5.77777778E+01  4.00000000E+00  0.00000000E+00
  5.77777778E+01  3.33333333E+00  0.00000000E+00
  5.77777778E+01  2.66666667E+00  0.00000000E+00
  5.77777778E+01  2.00000000E+00  0.00000000E+00
  5.77777778E+01  1.33333333E+00  0.00000000E+00
  5.77777778E+01  6.66666667E-01  0.00000000E+00
  5.77777778E+01  1.66533454E-15  0.00000000E+00
  5.88888889E+01  1.00000000E+01  0.00000000E+00
  5.88888889E+01  9.33333333E+00  0.00000000E+00
  5.88888889E+01  8.66666667E+00  0.00000000E+00
  5.88888889E+01  8.00000000E+00  0.00000000E+00
  5.88888889E+01  7.33333333E+00  0.00000000E+00
  5.88888889E+01  6.66666667E+00  0.00000000E+00
  5.88888889E+01  6.00000000E+00  0.00000000E+00
  5.88888889E+01  5.33333333E+00  0.00000000E+00
  5.88888889E+01  4.66666667E+00  0.00000000E+00
  5.88888889E+01  4.00000000E+00  0.00000000E+00
  5.88888889E+01  3.33333333E+00  0.00000000E+00
  5.88888889E+01  2.66666667E+00  0.00000000E+00
  5.88888889E+01  2.00000000E+00  0.00000000E+00
  5.88888889E+01  1.33333333E+00  0.00000000E+00
  5.88888889E+01  6.66666667E-01  0.00000000E+00
  5.88888889E+01  1.66533454E-15  0.00000000E+00
  6.00000000E+01  1.00000000E+01  0.00000000E+00
  6.00000000E+01  9.33333333E+00  0.00000000E+00
  6.00000000E+01  8.66666667E+00  0.00000000E+00
  6.00000000E+01  8.00000000E+00  0.00000000E+00
  6.00000000E+01  7.33333333E+00  0.00000000E+00
  6.00000000E+01  6.66666667E+00  0.00000000E+00
  6.00000000E+01  6.00000000E+00  0.00000000E+00
  6.00000000E+01  5.33333333E+00  0.00000000E+00
  6.00000000E+01  4.66666667E+00  0.00000000E+00
  6.00000000E+01  4.00000000E+00  0.00000000E+00
  6.00000000E+01  3.33333333E+00  0.00000000E+00
  6.00000000E+01  2.66666667E+00  0.00000000E+00
  6.00000000E+01  2.00000000E+00  0.00000000E+00
  6.00000000E+01  1.33333333E+00  0.00000000E+00
  6.00000000E+01  6.66666667E-01  0.00000000E+00
  6.00000000E+01  1.66533454E-15  0.00000000E+00
  6.11111111E+01  1.00000000E+01  0.00000000E+00
  6.11111111E+01  9.33333333E+00  0.00000000E+00
  6.11111111E+01  8.66666667E+00  0.00000000E+00
  6.11111111E+01  8.00000000E+00  0.00000000E+00
  6.11111111E+01  7.33333333E+00  0.00000000E+00
  6.11111111E+01  6.66666667E+00  0.00000000E+00
  6.11111111E+01  6.00000000E+00  0.00000000E+00
  6.11111111E+01  5.33333333E+00  0.00000000E+00
  6.11111111E+01  4.66666667E+00  0.00000000E+00
  6.11111111E+01  4.00000000E+00  0.00000000E+00
  6.11111111E+01  3.33333333E+00  0.00000000E+00
  6.11111111E+01  2.66666667E+00  0.00000000E+00
  6.11111111E+01  2.00000000E+00  0.00000000E+00
  6.11111111E+01  1.33333333E+00  0.00000000E+00
  6.11111111E+01  6.66666667E-01  0.00000000E+00
  6.11111111E+01  1.66533454E-15  0.00000000E+00
  6.22222222E+01  1.00000000E+01  0.00000000E+00
  6.22222222E+01  9.33333333E+00  0.00000000E+00
  6.22222222E+01  8.66666667E+00  0.00000000E+00
  6.22222222E+01  8.00000000E+00  0.00000000E+00
  6.22222222E+01  7.33333333E+00  0.00000000E+00
  6.22222222E+01  6.66666667E+00  0.00000000E+00
  6.22222222E+01  6.00000000E+00  0.00000000E+00
  6.22222222E+01  5.33333333E+00  0.00000000E+00
  6.22222222E+01  4.66666667E+00  0.00000000E+00
  6.22222222E+01  4.00000000E+00  0.00000000E+00
  6.22222222E+01  3.33333333E+00  0.00000000E+00
  6.22222222E+01  2.66666667E+00  0.00000000E+00
  6.22222222E+01  2.00000000E+00  0.00000000E+00
  6.22222222E+01  1.33333333E+00  0.00000000E+00
  6.22222222E+01  6.66666667E-01  0.00000000E+00
  6.22222222E+01  1.66533454E-15  0.00000000E+00
  6.33333333E+01  1.00000000E+01  0.00000000E+00
  6.33333333E+01  9.33333333E+00  0.00000000E+00
  6.33333333E+01  8.66666667E+00  0.00000000E+00
  6.33333333E+01  8.00000000E+00  0.00000000E+00
  6.33333333E+01  7.33333333E+00  0.00000000E+00
  6.33333333E+01  6.66666667E+00  0.00000000E+00
  6.33333333E+01  6.00000000E+00  0.00000000E+00
  6.33333333E+01  5.33333333E+00  0.00000000E+00
  6.33333333E+01  4.66666667E+00  0.00000000E+00
  6.33333333E+01  4.00000000E+00  0.00000000E+00
  6.33333333E+01  3.33333333E+00  0.00000000E+00
  6.33333333E+01  2.66666667E+00  0.00000000E+00
  6.33333333E+01  2.00000000E+00  0.00000000E+00
  6.33333333E+01  1.33333333E+00  0.00000000E+00
  6.33333333E+01  6.66666667E-01  0.00000000E+00
  6.33333333E+01  1.66533454E-15  0.00000000E+00
  6.44444444E+01  1.00000000E+01  0.00000000E+00
  6.44444444E+01  9.33333333E+00  0.00000000E+00
  6.44444444E+01  8.66666667E+00  0.00000000E+00
  6.44444444E+01  8.00000000E+00  0.00000000E+00
  6.44444444E+01  7.33333333E+00  0.00000000E+00
  6.44444444E+01  6.66666667E+00  0.00000000E+00
  6.44444444E+01  6.00000000E+00  0.00000000E+00
  6.44444444E+01  5.33333333E+00  0.00000000E+00
  6.44444444E+01  4.66666667E+00  0.00000000E+00
  6.44444444E+01  4.00000000E+00  0.00000000E+00
  6.44444444E+01  3.33333333E+00  0.00000000E+00
  6.44444444E+01  2.66666667E+00  0.00000000E+00
  6.44444444E+01  2.00000000E+00  0.00000000E+00
  6.44444444E+01  1.33333333E+00  0.00000000E+00
  6.44444444E+01  6.66666667E-01  0.00000000E+00
  6.44444444E+01  1.66533454E-15  0.00000000E+00
  6.55555556E+01  1.00000000E+01  0.00000000E+00
  6.55555556E+01  9.33333333E+00  0.00000000E+00
  6.55555556E+01  8.66666667E+00  0.00000000E+00
  6.55555556E+01  8.00000000E+00  0.00000000E+00
  6.55555556E+01  7.33333333E+00  0.00000000E+00
  6.55555556E+01  6.66666667E+00  0.00000000E+00
  6.55555556E+01  6.00000000E+00  0.00000000E+00
  6.55555556E+01  5.33333333E+00  0.00000000E+00
  6.55555556E+01  4.66666667E+00  0.00000000E+00
  6.55555556E+01  4.00000000E+00  0.00000000E+00
  6.55555556E+01  3.33333333E+00  0.00000000E+00
  6.55555556E+01  2.66666667E+00  0.00000000E+00
  6.55555556E+01  2.00000000E+00  0.00000000E+00
  6.55555556E+01  1.33333333E+00  0.00000000E+00
  6.55555556E+01  6.66666667E-01  0.00000000E+00
  6.55555556E+01  1.66533454E-15  0.00000000E+00
  6.66666667E+01  1.00000000E+01  0.00000000E+00
  6.66666667E+01  9.33333333E+00  0.00000000E+00
  6.66666667E+01  8.66666667E+00  0.00000000E+00
  6.66666667E+01  8.00000000E+00  0.00000000E+00
  6.66666667E+01  7.33333333E+00  0.00000000E+00
  6.66666667E+01  6.66666667E+00  0.00000000E+00
  6.66666667E+01  6.00000000E+00  0.00000000E+00
  6.66666667E+01  5.33333333E+00  0.00000000E+00
  6.66666667E+01  4.66666667E+00  0.00000000E+00
  6.66666667E+01  4.00000000E+00  0.00000000E+00
  6.66666667E+01  3.33333333E+00  0.00000000E+00
  6.66666667E+01  2.66666667E+00  0.00000000E+00
  6.66666667E+01  2.00000000E+00  0.00000000E+00
  6.66666667E+01  1.33333333E+00  0.00000000E+00
  6.66666667E+01  6.66666667E-01  0.00000000E+00
  6.66666667E+01  1.66533454E-15  0.00000000E+00
  6.77777778E+01  1.00000000E+01  0.00000000E+00
  6.77777778E+01  9.33333333E+00  0.00000000E+00
  6.77777778E+01  8.66666667E+00  0.00000000E+00
  6.77777778E+01  8.00000000E+00  0.00000000E+00
  6.77777778E+01  7.33333333E+00  0.00000000E+00
  6.77777778E+01  6.66666667E+00  0.00000000E+00
  6.77777778E+01  6.00000000E+00  0.00000000E+00
  6.77777778E+01  5.33333333E+00  0.00000000E+00
  6.77777778E+01  4.66666667E+00  0.00000000E+00
  6.77777778E+01  4.00000000E+00  0.00000000E+00
  6.77777778E+01  3.33333333E+00  0.00000000E+00
  6.77777778E+01  2.66666667E+00  0.00000000E+00
  6.77777778E+01  2.00000000E+00  0.00000000E+00
  6.77777778E+01  1.33333333E+00  0.00000000E+00
  6.77777778E+01  6.66666667E-01  0.00000000E+00
  6.77777778E+01  1.66533454E-15  0.00000000E+00
  6.88888889E+01  1.00000000E+01  0.00000000E+00
  6.88888889E+01  9.33333333E+00  0.00000000E+00
  6.88888889E+01  8.66666667E+00  0.00000000E+00
  6.88888889E+01  8.00000000E+00  0.00000000E+00
  6.88888889E+01  7.33333333E+00  0.00000000E+00
  6.88888889E+01  6.66666667E+00  0.00000000E+00
  6.88888889E+01  6.00000000E+00  0.00000000E+00
  6.88888889E+01  5.33333333E+00  0.00000000E+00
  6.88888889E+01  4.66666667E+00  0.00000000E+00
  6.88888889E+01  4.00000000E+00  0.00000000E+00
  6.88888889E+01  3.33333333E+00  0.00000000E+00
  6.88888889E+01  2.66666667E+00  0.00000000E+00
  6.88888889E+01  2.00000000E+00  0.00000000E+00
  6.88888889E+01  1.33333333E+00  0.00000000E+00
  6.88888889E+01  6.66666667E-01  0.00000000E+00
  6.88888889E+01  1.66533454E-15  0.00000000E+00
  7.00000000E+01  1.00000000E+01  0.00000000E+00
  7.00000000E+01  9.33333333E+00  0.00000000E+00
  7.00000000E+01  8.66666667E+00  0.00000000E+00
  7.00000000E+01  8.00000000E+00  0.00000000E+00
  7.00000000E+01  7.33333333E+00  0.00000000E+00
  7.00000000E+01  6.66666667E+00  0.00000000E+00
  7.00000000E+01  6.00000000E+00  0.00000000E+00
  7.00000000E+01  5.33333333E+00  0.00000000E+00
  7.00000000E+01  4.66666667E+00  0.00000000E+00
  7.00000000E+01  4.00000000E+00  0.00000000E+00
  7.00000000E+01  3.33333333E+00  0.00000000E+00
  7.00000000E+01  2.66666667E+00  0.00000000E+00
  7.00000000E+01  2.00000000E+00  0.00000000E+00
  7.00000000E+01  1.33333333E+00  0.00000000E+00
  7.00000000E+01  6.66666667E-01  0.00000000E+00
  7.00000000E+01  1.66533454E-15  0.00000000E+00
  7.11111111E+01  1.00000000E+01  0.00000000E+00
  7.11111111E+01  9.33333333E+00  0.00000000E+00
  7.11111111E+01  8.66666667E+00  0.00000000E+00
  7.11111111E+01  8.00000000E+00  0.00000000E+00
  7.11111111E+01  7.33333333E+00  0.00000000E+00
  7.11111111E+01  6.66666667E+00  0.00000000E+00
  7.11111111E+01  6.00000000E+00  0.00000000E+00
  7.11111111E+01  5.33333333E+00  0.00000000E+00
  7.11111111E+01  4.66666667E+00  0.00000000E+00
  7.11111111E+01  4.00000000E+00  0.00000000E+00
  7.11111111E+01  3.33333333E+00  0.00000000E+00
  7.11111111E+01  2.66666667E+00  0.00000000E+00
  7.11111111E+01  2.00000000E+00  0.00000000E+00
  7.11111111E+01  1.33333333E+00  0.00000000E+00
  7.11111111E+01  6.66666667E-01  0.00000000E+00
  7.11111111E+01  1.66533454E-15  0.00000000E+00
  7.22222222E+01  1.00000000E+01  0.00000000E+00
  7.22222222E+01  9.33333333E+00  0.00000000E+00
  7.22222222E+01  8.66666667E+00  0.00000000E+00
  7.22222222E+01  8.00000000E+00  0.00000000E+00
  7.22222222E+01  7.33333333E+00  0.00000000E+00
  7.22222222E+01  6.66666667E+00  0.00000000E+00
  7.22222222E+01  6.00000000E+00  0.00000000E+00
  7.22222222E+01  5.33333333E+00  0.00000000E+00
  7.22222222E+01  4.66666667E+00  0.00000000E+00
  7.22222222E+01  4.00000000E+00  0.00000000E+00
  7.22222222E+01  3.33333333E+00  0.00000000E+00
  7.22222222E+01  2.66666667E+00  0.00000000E+00
  7.22222222E+01  2.00000000E+00  0.00000000E+00
  7.22222222E+01  1.33333333E+00  0.00000000E+00
  7.22222222E+01  6.66666667E-01  0.00000000E+00
  7.22222222E+01  1.66533454E-15  0.00000000E+00
  7.33333333E+01  1.00000000E+01  0.00000000E+00
  7.33333333E+01  9.33333333E+00  0.00000000E+00
  7.33333333E+01  8.66666667E+00  0.00000000E+00
  7.33333333E+01  8.00000000E+00  0.00000000E+00
  7.33333333E+01  7.33333333E+00  0.00000000E+00
  7.33333333E+01  6.66666667E+00  0.00000000E+00
  7.33333333E+01  6.00000000E+00  0.00000000E+00
  7.33333333E+01  5.33333333E+00  0.00000000E+00
  7.33333333E+01  4.66666667E+00  0.00000000E+00
  7.33333333E+01  4.00000000E+00  0.00000000E+00
  7.33333333E+01  3.33333333E+00  0.00000000E+00
  7.33333333E+01  2.66666667E+00  0.00000000E+00
  7.33333333E+01  2.00000000E+00  0.00000000E+00
  7.33333333E+01  1.33333333E+00  0.00000000E+00
  7.33333333E+01  6.66666667E-01  0.00000000E+00
  7.33333333E+01  1.66533454E-15  0.00000000E+00
  7.44444444E+01  1.00000000E+01  0.00000000E+00
  7.44444444E+01  9.33333333E+00  0.00000000E+00
  7.44444444E+01  8.66666667E+00  0.00000000E+00
  7.44444444E+01  8.00000000E+00  0.00000000E+00
  7.44444444E+01  7.33333333E+00  0.00000000E+00
  7.44444444E+01  6.66666667E+00  0.00000000E+00
  7.44444444E+01  6.00000000E+00  0.00000000E+00
  7.44444444E+01  5.33333333E+00  0.00000000E+00
  7.44444444E+01  4.66666667E+00  0.00000000E+00
  7.44444444E+01  4.00000000E+00  0.00000000E+00
  7.44444444E+01  3.33333333E+00  0.00000000E+00
  7.44444444E+01  2.66666667E+00  0.00000000E+00
  7.44444444E+01  2.00000000E+00  0.00000000E+00
  7.44444444E+01  1.33333333E+00  0.00000000E+00
  7.44444444E+01  6.66666667E-01  0.00000000E+00
  7.44444444E+01  1.66533454E-15  0.00000000E+00
  7.55555556E+01  1.00000000E+01  0.00000000E+00
  7.55555556E+01  9.33333333E+00  0.00000000E+00
  7.55555556E+01  8.66666667E+00  0.00000000E+00
  7.55555556E+01  8.00000000E+00  0.00000000E+00
  7.55555556E+01  7.33333333E+00  0.00000000E+00
  7.55555556E+01  6.66666667E+00  0.00000000E+00
  7.55555556E+01  6.00000000E+00  0.00000000E+00
  7.55555556E+01  5.33333333E+00  0.00000000E+00
  7.55555556E+01  4.66666667E+00  0.00000000E+00
  7.55555556E+01  4.00000000E+00  0.00000000E+00
  7.55555556E+01  3.33333333E+00  0.00000000E+00
  7.55555556E+01  2.66666667E+00  0.00000000E+00
  7.55555556E+01  2.00000000E+00  0.00000000E+00
  7.55555556E+01  1.33333333E+00  0.00000000E+00
  7.55555556E+01  6.66666667E-01  0.00000000E+00
  7.55555556E+01  1.66533454E-15  0.00000000E+00
  7.66666667E+01  1.00000000E+01  0.00000000E+00
  7.66666667E+01  9.33333333E+00  0.00000000E+00
  7.66666667E+01  8.66666667E+00  0.00000000E+00
  7.66666667E+01  8.00000000E+00  0.00000000E+00
  7.66666667E+01  7.33333333E+00  0.00000000E+00
  7.66666667E+01  6.66666667E+00  0.00000000E+00
  7.66666667E+01  6.00000000E+00  0.00000000E+00
  7.66666667E+01  5.33333333E+00  0.00000000E+00
  7.66666667E+01  4.66666667E+00  0.00000000E+00
  7.66666667E+01  4.00000000E+00  0.00000000E+00
  7.66666667E+01  3.33333333E+00  0.00000000E+00
  7.66666667E+01  2.66666667E+00  0.00000000E+00
  7.66666667E+01  2.00000000E+00  0.00000000E+00
  7.66666667E+01  1.33333333E+00  0.00000000E+00
  7.66666667E+01  6.66666667E-01  0.00000000E+00
  7.66666667E+01  1.66533454E-15  0.00000000E+00
  7.77777778E+01  1.00000000E+01  0.00000000E+00
  7.77777778E+01  9.33333333E+00  0.00000000E+00
  7.77777778E+01  8.66666667E+00  0.00000000E+00
  7.77777778E+01  8.00000000E+00  0.00000000E+00
  7.77777778E+01  7.33333333E+00  0.00000000E+00
  7.77777778E+01  6.66666667E+00  0.00000000E+00
  7.77777778E+01  6.00000000E+00  0.00000000E+00
  7.77777778E+01  5.33333333E+00  0.00000000E+00
  7.77777778E+01  4.66666667E+00  0.00000000E+00
  7.77777778E+01  4.00000000E+00  0.00000000E+00
  7.77777778E+01  3.33333333E+00  0.00000000E+00
  7.77777778E+01  2.66666667E+00  0.00000000E+00
  7.77777778E+01  2.00000000E+00  0.00000000E+00
  7.77777778E+01  1.33333333E+00  0.00000000E+00
  7.77777778E+01  6.66666667E-01  0.00000000E+00
  7.77777778E+01  1.66533454E-15  0.00000000E+00
  7.88888889E+01  1.00000000E+01  0.00000000E+00
  7.88888889E+01  9.33333333E+00  0.00000000E+00
  7.88888889E+01  8.66666667E+00  0.00000000E+00
  7.88888889E+01  8.00000000E+00  0.00000000E+00
  7.88888889E+01  7.33333333E+00  0.00000000E+00
  7.88888889E+01  6.66666667E+00  0.00000000E+00
  7.88888889E+01  6.00000000E+00  0.00000000E+00
  7.88888889E+01  5.33333333E+00  0.00000000E+00
  7.88888889E+01  4.66666667E+00  0.00000000E+00
  7.88888889E+01  4.00000000E+00  0.00000000E+00
  7.88888889E+01  3.33333333E+00  0.00000000E+00
  7.88888889E+01  2.66666667E+00  0.00000000E+00
  7.88888889E+01  2.00000000E+00  0.00000000E+00
  7.88888889E+01  1.33333333E+00  0.00000000E+00
  7.88888889E+01  6.66666667E-01  0.00000000E+00
  7.88888889E+01  1.66533454E-15  0.00000000E+00
  8.00000000E+01  1.00000000E+01  0.00000000E+00
  8.00000000E+01  9.33333333E+00  0.00000000E+00
  8.00000000E+01  8.66666667E+00  0.00000000E+00
  8.00000000E+01  8.00000000E+00  0.00000000E+00
  8.00000000E+01  7.33333333E+00  0.00000000E+00
  8.00000000E+01  6.66666667E+00  0.00000000E+00
  8.00000000E+01  6.00000000E+00  0.00000000E+00
  8.00000000E+01  5.33333333E+00  0.00000000E+00
  8.00000000E+01  4.66666667E+00  0.00000000E+00
  8.00000000E+01  4.00000000E+00  0.00000000E+00
  8.00000000E+01  3.33333333E+00  0.00000000E+00
  8.00000000E+01  2.66666667E+00  0.00000000E+00
  8.00000000E+01  2.00000000E+00  0.00000000E+00
  8.00000000E+01  1.33333333E+00  0.00000000E+00
  8.00000000E+01  6.66666667E-01  0.00000000E+00
  8.00000000E+01  1.66533454E-15  0.00000000E+00
  8.11111111E+01  1.00000000E+01  0.00000000E+00
  8.11111111E+01  9.33333333E+00  0.00000000E+00
  8.11111111E+01  8.66666667E+00  0.00000000E+00
  8.11111111E+01  8.00000000E+00  0.00000000E+00
  8.11111111E+01  7.33333333E+00  0.00000000E+00
  8.11111111E+01  6.66666667E+00  0.00000000E+00
  8.11111111E+01  6.00000000E+00  0.00000000E+00
  8.11111111E+01  5.33333333E+00  0.00000000E+00
  8.11111111E+01  4.66666667E+00  0.00000000E+00
  8.11111111E+01  4.00000000E+00  0.00000000E+00
  8.11111111E+01  3.33333333E+00  0.00000000E+00
  8.11111111E+01  2.66666667E+00  0.00000000E+00
  8.11111111E+01  2.00000000E+00  0.00000000E+00
  8.11111111E+01  1.33333333E+00  0.00000000E+00
  8.11111111E+01  6.66666667E-01  0.00000000E+00
  8.11111111E+01  1.66533454E-15  0.00000000E+00
  8.22222222E+01  1.00000000E+01  0.00000000E+00
  8.22222222E+01  9.33333333E+00  0.00000000E+00
  8.22222222E+01  8.66666667E+00  0.00000000E+00
  8.22222222E+01  8.00000000E+00  0.00000000E+00
  8.22222222E+01  7.33333333E+00  0.00000000E+00
  8.22222222E+01  6.66666667E+00  0.00000000E+00
  8.22222222E+01  6.00000000E+00  0.00000000E+00
  8.22222222E+01  5.33333333E+00  0.00000000E+00
  8.22222222E+01  4.66666667E+00  0.00000000E+00
  8.22222222E+01  4.00000000E+00  0.00000000E+00
  8.22222222E+01  3.33333333E+00  0.00000000E+00
  8.22222222E+01  2.66666667E+00  0.00000000E+00
  8.22222222E+01  2.00000000E+00  0.00000000E+00
  8.22222222E+01  1.33333333E+00  0.00000000E+00
  8.22222222E+01  6.66666667E-01  0.00000000E+00
  8.22222222E+01  1.66533454E-15  0.00000000E+00
  8.33333333E+01  1.00000000E+01  0.00000000E+00
  8.33333333E+01  9.33333333E+00  0.00000000E+00
  8.33333333E+01  8.66666667E+00  0.00000000E+00
  8.33333333E+01  8.00000000E+00  0.00000000E+00
  8.33333333E+01  7.33333333E+00  0.00000000E+00
  8.33333333E+01  6.66666667E+00  0.00000000E+00
  8.33333333E+01  6.00000000E+00  0.00000000E+00
  8.33333333E+01  5.33333333E+00  0.00000000E+00
  8.33333333E+01  4.66666667E+00  0.00000000E+00
  8.33333333E+01  4.00000000E+00  0.00000000E+00
  8.33333333E+01  3.33333333E+00  0.00000000E+00
  8.33333333E+01  2.66666667E+00  0.00000000E+00
  8.33333333E+01  2.00000000E+00  0.00000000E+00
  8.33333333E+01  1.33333333E+00  0.00000000E+00
  8.33333333E+01  6.66666667E-01  0.00000000E+00
  8.33333333E+01  1.66533454E-15  0.00000000E+00
  8.44444444E+01  1.00000000E+01  0.00000000E+00
  8.44444444E+01  9.33333333E+00  0.00000000E+00
  8.44444444E+01  8.66666667E+00  0.00000000E+00
  8.44444444E+01  8.00000000E+00  0.00000000E+00
  8.44444444E+01  7.33333333E+00  0.00000000E+00
  8.44444444E+01  6.66666667E+00  0.00000000E+00
  8.44444444E+01  6.00000000E+00  0.00000000E+00
  8.44444444E+01  5.33333333E+00  0.00000000E+00
  8.44444444E+01  4.66666667E+00  0.00000000E+00
  8.44444444E+01  4.00000000E+00  0.00000000E+00
  8.44444444E+01  3.33333333E+00  0.00000000E+00
  8.44444444E+01  2.66666667E+00  0.00000000E+00
  8.44444444E+01  2.00000000E+00  0.00000000E+00
  8.44444444E+01  1.33333333E+00  0.00000000E+00
  8.44444444E+01  6.66666667E-01  0.00000000E+00
  8.44444444E+01  1.66533454E-15  0.00000000E+00
  8.55555556E+01  1.00000000E+01  0.00000000E+00
  8.55555556E+01  9.33333333E+00  0.00000000E+00
  8.55555556E+01  8.66666667E+00  0.00000000E+00
  8.55555556E+01  8.00000000E+00  0.00000000E+00
  8.55555556E+01  7.33333333E+00  0.00000000E+00
  8.55555556E+01  6.66666667E+00  0.00000000E+00
  8.55555556E+01  6.00000000E+00  0.00000000E+00
  8.55555556E+01  5.33333333E+00  0.00000000E+00
  8.55555556E+01  4.66666667E+00  0.00000000E+00
  8.55555556E+01  4.00000000E+00  0.00000000E+00
  8.55555556E+01  3.33333333E+00  0.00000000E+00
  8.55555556E+01  2.66666667E+00  0.00000000E+00
  8.55555556E+01  2.00000000E+00  0.00000000E+00
  8.55555556E+01  1.33333333E+00  0.00000000E+00
  8.55555556E+01  6.66666667E-01  0.00000000E+00
  8.55555556E+01  1.66533454E-15  0.00000000E+00
  8.66666667E+01  1.00000000E+01  0.00000000E+00
  8.66666667E+01  9.33333333E+00  0.00000000E+00
  8.66666667E+01  8.66666667E+00  0.00000000E+00
  8.66666667E+01  8.00000000E+00  0.00000000E+00
  8.66666667E+01  7.33333333E+00  0.00000000E+00
  8.66666667E+01  6.66666667E+00  0.00000000E+00
  8.66666667E+01  6.00000000E+00  0.00000000E+00
  8.66666667E+01  5.33333333E+00  0.00000000E+00
  8.66666667E+01  4.66666667E+00  0.00000000E+00
  8.66666667E+01  4.00000000E+00  0.00000000E+00
  8.66666667E+01  3.33333333E+00  0.00000000E+00
  8.66666667E+01  2.66666667E+00  0.00000000E+00
  8.66666667E+01  2.00000000E+00  0.00000000E+00
  8.66666667E+01  1.33333333E+00  0.00000000E+00
  8.66666667E+01  6.66666667E-01  0.00000000E+00
  8.66666667E+01  1.66533454E-15  0.00000000E+00
  8.77777778E+01  1.00000000E+01  0.00000000E+00
  8.77777778E+01  9.33333333E+00  0.00000000E+00
  8.77777778E+01  8.66666667E+00  0.00000000E+00
  8.77777778E+01  8.00000000E+00  0.00000000E+00
  8.77777778E+01  7.33333333E+00  0.00000000E+00
  8.77777778E+01  6.66666667E+00  0.00000000E+00
  8.77777778E+01  6.00000000E+00  0.00000000E+00
  8.77777778E+01  5.33333333E+00  0.00000000E+00
  8.77777778E+01  4.66666667E+00  0.00000000E+00
  8.77777778E+01  4.00000000E+00  0.00000000E+00
  8.77777778E+01  3.33333333E+00  0.00000000E+00
  8.77777778E+01  2.66666667E+00  0.00000000E+00
  8.77777778E+01  2.00000000E+00  0.00000000E+00
  8.77777778E+01  1.33333333E+00  0.00000000E+00
  8.77777778E+01  6.66666667E-01  0.00000000E+00
  8.77777778E+01  1.66533454E-15  0.00000000E+00
  8.88888889E+01  1.00000000E+01  0.00000000E+00
  8.88888889E+01  9.33333333E+00  0.00000000E+00
  8.88888889E+01  8.66666667E+00  0.00000000E+00
  8.88888889E+01  8.00000000E+00  0.00000000E+00
  8.88888889E+01  7.33333333E+00  0.00000000E+00
  8.88888889E+01  6.66666667E+00  0.00000000E+00
  8.88888889E+01  6.00000000E+00  0.00000000E+00
  8.88888889E+01  5.33333333E+00  0.00000000E+00
  8.88888889E+01  4.66666667E+00  0.00000000E+00
  8.88888889E+01  4.00000000E+00  0.00000000E+00
  8.88888889E+01  3.33333333E+00  0.00000000E+00
  8.88888889E+01  2.66666667E+00  0.00000000E+00
  8.88888889E+01  2.00000000E+00  0.00000000E+00
  8.88888889E+01  1.33333333E+00  0.00000000E+00
  8.88888889E+01  6.66666667E-01  0.00000000E+00
  8.88888889E+01  1.66533454E-15  0.00000000E+00
  9.00000000E+01  1.00000000E+01  0.00000000E+00
  9.00000000E+01  9.33333333E+00  0.00000000E+00
  9.00000000E+01  8.66666667E+00  0.00000000E+00
  9.00000000E+01  8.00000000E+00  0.00000000E+00
  9.00000000E+01  7.33333333E+00  0.00000000E+00
  9.00000000E+01  6.66666667E+00  0.00000000E+00
  9.00000000E+01  6.00000000E+00  0.00000000E+00
  9.00000000E+01  5.33333333E+00  0.00000000E+00
  9.00000000E+01  4.66666667E+00  0.00000000E+00
  9.00000000E+01  4.00000000E+00  0.00000000E+00
  9.00000000E+01  3.33333333E+00  0.00000000E+00
  9.00000000E+01  2.66666667E+00  0.00000000E+00
  9.00000000E+01  2.00000000E+00  0.00000000E+00
  9.00000000E+01  1.33333333E+00  0.00000000E+00
  9.00000000E+01  6.66666667E-01  0.00000000E+00
  9.00000000E+01  1.66533454E-15  0.00000000E+00
  9.11111111E+01  1.00000000E+01  0.00000000E+00
  9.11111111E+01  9.33333333E+00  0.00000000E+00
  9.11111111E+01  8.66666667E+00  0.00000000E+00
  9.11111111E+01  8.00000000E+00  0.00000000E+00
  9.11111111E+01  7.33333333E+00  0.00000000E+00
  9.11111111E+01  6.66666667E+00  0.00000000E+00
  9.11111111E+01  6.00000000E+00  0.00000000E+00
  9.11111111E+01  5.33333333E+00  0.00000000E+00
  9.11111111E+01  4.66666667E+00  0.00000000E+00
  9.11111111E+01  4.00000000E+00  0.00000000E+00
  9.11111111E+01  3.33333333E+00  0.00000000E+00
  9.11111111E+01  2.66666667E+00  0.00000000E+00
  9.11111111E+01  2.00000000E+00  0.00000000E+00
  9.11111111E+01  1.33333333E+00  0.00000000E+00
  9.11111111E+01  6.66666667E-01  0.00000000E+00
  9.11111111E+01  1.66533454E-15  0.00000000E+00
  9.22222222E+01  1.00000000E+01  0.00000000E+00
  9.22222222E+01  9.33333333E+00  0.00000000E+00
  9.22222222E+01  8.66666667E+00  0.00000000E+00
  9.22222222E+01  8.00000000E+00  0.00000000E+00
  9.22222222E+01  7.33333333E+00  0.00000000E+00
  9.22222222E+01  6.66666667E+00  0.00000000E+00
  9.22222222E+01  6.00000000E+00  0.00000000E+00
  9.22222222E+01  5.33333333E+00  0.00000000E+00
  9.22222222E+01  4.66666667E+00  0.00000000E+00
  9.22222222E+01  4.00000000E+00  0.00000000E+00
  9.22222222E+01  3.33333333E+00  0.00000000E+00
  9.22222222E+01  2.66666667E+00  0.00000000E+00
  9.22222222E+01  2.00000000E+00  0.00000000E+00
  9.22222222E+01  1.33333333E+00  0.00000000E+00
  9.22222222E+01  6.66666667E-01  0.00000000E+00
  9.22222222E+01  1.66533454E-15  0.00000000E+00
  9.33333333E+01  1.00000000E+01  0.00000000E+00
  9.33333333E+01  9.33333333E+00  0.00000000E+00
  9.33333333E+01  8.66666667E+00  0.00000000E+00
  9.33333333E+01  8.00000000E+00  0.00000000E+00
  9.33333333E+01  7.33333333E+00  0.00000000E+00
  9.33333333E+01  6.66666667E+00  0.00000000E+00
  9.33333333E+01  6.00000000E+00  0.00000000E+00
  9.33333333E+01  5.33333333E+00  0.00000000E+00
  9.33333333E+01  4.66666667E+00  0.00000000E+00
  9.33333333E+01  4.00000000E+00  0.00000000E+00
  9.33333333E+01  3.33333333E+00  0.00000000E+00
  9.33333333E+01  2.66666667E+00  0.00000000E+00
  9.33333333E+01  2.00000000E+00  0.00000000E+00
  9.33333333E+01  1.33333333E+00  0.00000000E+00
  9.33333333E+01  6.66666667E-01  0.00000000E+00
  9.33333333E+01  1.66533454E-15  0.00000000E+00
  9.44444444E+01  1.00000000E+01  0.00000000E+00
  9.44444444E+01  9.33333333E+00  0.00000000E+00
  9.44444444E+01  8.66666667E+00  0.00000000E+00
  9.44444444E+01  8.00000000E+00  0.00000000E+00
  9.44444444E+01  7.33333333E+00  0.00000000E+00
  9.44444444E+01  6.66666667E+00  0.00000000E+00
  9.44444444E+01  6.00000000E+00  0.00000000E+00
  9.44444444E+01  5.33333333E+00  0.00000000E+00
  9.44444444E+01  4.66666667E+00  0.00000000E+00
  9.44444444E+01  4.00000000E+00  0.00000000E+00
  9.44444444E+01  3.33333333E+00  0.00000000E+00
  9.44444444E+01  2.66666667E+00  0.00000000E+00
  9.44444444E+01  2.00000000E+00  0.00000000E+00
  9.44444444E+01  1.33333333E+00  0.00000000E+00
  9.44444444E+01  6.66666667E-01  0.00000000E+00
  9.44444444E+01  1.66533454E-15  0.00000000E+00
  9.55555556E+01  1.00000000E+01  0.00000000E+00
  9.55555556E+01  9.33333333E+00  0.00000000E+00
  9.55555556E+01  8.66666667E+00  0.00000000E+00
  9.55555556E+01  8.00000000E+00  0.00000000E+00
  9.55555556E+01  7.33333333E+00  0.00000000E+00
  9.55555556E+01  6.66666667E+00  0.00000000E+00
  9.55555556E+01  6.00000000E+00  0.00000000E+00
  9.55555556E+01  5.33333333E+00  0.00000000E+00
  9.55555556E+01  4.66666667E+00  0.00000000E+00
  9.55555556E+01  4.00000000E+00  0.00000000E+00
  9.55555556E+01  3.33333333E+00  0.00000000E+00
  9.55555556E+01  2.66666667E+00  0.00000000E+00
  9.55555556E+01  2.00000000E+00  0.00000000E+00
  9.55555556E+01  1.33333333E+00  0.00000000E+00
  9.55555556E+01  6.66666667E-01  0.00000000E+00
  9.55555556E+01  1.66533454E-15  0.00000000E+00
  9.66666667E+01  1.00000000E+01  0.00000000E+00
  9.66666667E+01  9.33333333E+00  0.00000000E+00
  9.66666667E+01  8.66666667E+00  0.00000000E+00
  9.66666667E+01  8.00000000E+00  0.00000000E+00
  9.66666667E+01  7.33333333E+00  0.00000000E+00
  9.66666667E+01  6.66666667E+00  0.00000000E+00
  9.66666667E+01  6.00000000E+00  0.00000000E+00
  9.66666667E+01  5.33333333E+00  0.00000000E+00
  9.66666667E+01  4.66666667E+00  0.00000000E+00
  9.66666667E+01  4.00000000E+00  0.00000000E+00
  9.66666667E+01  3.33333333E+00  0.00000000E+00
  9.66666667E+01  2.66666667E+00  0.00000000E+00
  9.66666667E+01  2.00000000E+00  0.00000000E+00
  9.66666667E+01  1.33333333E+00  0.00000000E+00
  9.66666667E+01  6.66666667E-01  0.00000000E+00
  9.66666667E+01  1.66533454E-15  0.00000000E+00
  9.77777778E+01  1.00000000E+01  0.00000000E+00
  9.77777778E+01  9.33333333E+00  0.00000000E+00
  9.77777778E+01  8.66666667E+00  0.00000000E+00
  9.77777778E+01  8.00000000E+00  0.00000000E+00
  9.77777778E+01  7.33333333E+00  0.00000000E+00
  9.77777778E+01  6.66666667E+00  0.00000000E+00
  9.77777778E+01  6.00000000E+00  0.00000000E+00
  9.77777778E+01  5.33333333E+00  0.00000000E+00
  9.77777778E+01  4.66666667E+00  0.00000000E+00
  9.77777778E+01  4.00000000E+00  0.00000000E+00
  9.77777778E+01  3.33333333E+00  0.00000000E+00
  9.77777778E+01  2.66666667E+00  0.00000000E+00
  9.77777778E+01  2.00000000E+00  0.00000000E+00
  9.77777778E+01  1.33333333E+00  0.00000000E+00
  9.77777778E+01  6.66666667E-01  0.00000000E+00
  9.77777778E+01  1.66533454E-15  0.00000000E+00
  9.88888889E+01  1.00000000E+01  0.00000000E+00
  9.88888889E+01  9.33333333E+00  0.00000000E+00
  9.88888889E+01  8.66666667E+00  0.00000000E+00
  9.88888889E+01  8.00000000E+00  0.00000000E+00
  9.88888889E+01  7.33333333E+00  0.00000000E+00
  9.88888889E+01  6.66666667E+00  0.00000000E+00
  9.88888889E+01  6.00000000E+00  0.00000000E+00
  9.88888889E+01  5.33333333E+00  0.00000000E+00
  9.88888889E+01  4.66666667E+00  0.00000000E+00
  9.88888889E+01  4.00000000E+00  0.00000000E+00
  9.88888889E+01  3.33333333E+00  0.00000000E+00
  9.88888889E+01  2.66666667E+00  0.00000000E+00
  9.88888889E+01  2.00000000E+00  0.00000000E+00
  9.88888889E+01  1.33333333E+00  0.00000000E+00
  9.88888889E+01  6.66666667E-01  0.00000000E+00
  9.88888889E+01  1.66533454E-15  0.00000000E+00
  1.00000000E+02  1.00000000E+01  0.00000000E+00
  1.00000000E+02  9.33333333E+00  0.00000000E+00
  1.00000000E+02  8.66666667E+00  0.00000000E+00
  1.00000000E+02  8.00000000E+00  0.00000000E+00
  1.00000000E+02  7.33333333E+00  0.00000000E+00
  1.00000000E+02  6.66666667E+00  0.00000000E+00
  1.00000000E+02  6.00000000E+00  0.00000000E+00
  1.00000000E+02  5.33333333E+00  0.00000000E+00
  1.00000000E+02  4.66666667E+00  0.00000000E+00
  1.00000000E+02  4.00000000E+00  0.00000000E+00
  1.00000000E+02  3.33333333E+00  0.00000000E+00
  1.00000000E+02  2.66666667E+00  0.00000000E+00
  1.00000000E+02  2.00000000E+00  0.00000000E+00
  1.00000000E+02  1.33333333E+00  0.00000000E+00
  1.00000000E+02  6.66666667E-01  0.00000000E+00
  1.00000000E+02  1.66533454E-15  0.00000000E+00
CELLS      1350      6750
         4           0           1          17          16
         4           1           2          18          17
         4           2           3          19          18
         4           3           4          20          19
         4           4           5          21          20
         4           5           6          22          21
         4           6           7          23          22
         4           7           8          24          23
         4           8           9          25          24
         4           9          10          26          25
         4          10          11          27          26
         4          11          12          28          27
         4          12          13          29          28
         4          13          14          30          29
         4          14          15          31          30
         4          16          17          33          32
         4          17          18          34          33
         4          18          19          35          34
         4          19          20          36          35
         4          20          21          37          36
         4          21          22          38          37
         4          22          23          39          38
         4          23          24          40          39
         4          24          25          41          40
         4          25          26          42          41
         4          26          27          43          42
         4          27          28          44          43
         4          28          29          45          44
         4          29          30          46          45
         4          30          31          47          46
         4          32          33          49          48
         4          33          34          50          49
         4          34          35          51          50
         4          35          36          52          51
         4          36          37          53          52
         4          37          38          54          53
         4          38          39          55          54
         4          39          40          56          55
         4          40          41          57          56
         4          41          42          58          57
         4          42          43          59          58
         4          43          44          60          59
         4          44          45          61          60
         4          45          46          62          61
         4          46          47          63          62
         4          48          49          65          64
         4          49          50          66          65
         4          50          51          67          66
         4          51          52          68          67
         4          52          53          69          68
         4          53          54          70          69
         4          54          55          71          70
         4          55          56          72          71
         4          56          57          73          72
         4          57          58          74          73
         4          58          59          75          74
         4          59          60          76          75
         4          60          61          77          76
         4          61          62          78          77
         4          62          63          79          78
         4          64          65          81          80
         4          65          66          82          81
         4          66          67          83          82
         4          67          68          84          83
         4          68          69          85          84
         4          69          70          86          85
         4          70          71          87          86
         4          71          72          88          87
         4          72          73          89          88
         4          73          74          90          89
         4          74          75          91          90
         4          75          76          92          91
         4          76          77          93          92
         4          77          78          94          93
         4          78          79          95          94
         4          80          81          97          96
         4          81          82          98          97
         4          82          83          99          98
         4          83          84         100          99
         4          84          85         101         100
         4          85          86         102         101
         4          86          87         103         102
         4          87          88         104         103
         4          88          89         105         104
         4          89          90         106         105
         4          90          91         107         106
         4          91          92         108         107
         4          92          93         109         108
         4          93          94         110         109
         4          94          95         111         110
         4          96          97         113         112
         4          97          98         114         113
         4          98          99         115         114
         4          99         100         116         115
         4         100         101         117         116
         4         101         102         118         117
         4         102         103         119         118
         4         103         104         120         119
         4         104         105         121         120
         4         105         106         122         121
         4         106         107         123         122
         4         107         108         124         123
         4         108         109         125         124
         4         109         110         126         125
         4         110         111         127         126
         4         112         113         129         128
         4         113         114         130         129
         4         114         115         131         130
         4         115         116         132         131
         4         116         117         133         132
         4         117         118         134         133
         4         118         119         135         134
         4         119         120         136         135
         4         120         121         137         136
         4         121         122         138         137
         4         122         123         139         138
         4         123         124         140         139
         4         124         125         141         140
         4         125         126         142         141
         4         126         127         143         142
         4         128         129         145         144
         4         129         130         146         145
         4         130         131         147         146
         4         131         132         148         147
         4         132         133         149         148
         4         133         134         150         149
         4         134         135         151         150
         4         135         136         152         151
         4         136         137         153         152
         4         137         138         154         153
         4         138         139         155         154
         4         139         140         156         155
         4         140         141         157         156
         4         141         142         158         157
         4         142         143         159         158
         4         144         145         161         160
         4         145         146         162         161
         4         146         147         163         162
         4         147         148         164         163
         4         148         149         165         164
         4         149         150         166         165
         4         150         151         167         166
         4         151         152         168         167
         4         152         153         169         168
         4         153         154         170         169
         4         154         155         171         170
         4         155         156         172         171
         4         156         157         173         172
         4         157         158         174         173
         4         158         159         175         174
         4         160         161         177         176
         4         161         162         178         177
         4         162         163         179         178
         4         163         164         180         179
         4         164         165         181         180
         4         165         166         182         181
         4         166         167         183         182
         4         167         168         184         183
         4         168         169         185         184
         4         169         170         186         185
         4         170         171         187         186
         4         171         172         188         187
         4         172         173         189         188
         4         173         174         190         189
         4         174         175         191         190
         4         176         177         193         192
         4         177         178         194         193
         4         178         179         195         194
         4         179         180         196         195
         4         180         181         197         196
         4         181         182         198         197
         4         182         183         199         198
         4         183         184         200         199
         4         184         185         201         200
         4         185         186         202         201
         4         186         187         203         202
         4         187         188         204         203
         4         188         189         205         204
         4         189         190         206         205
         4         190         191         207         206
         4         192         193         209         208
         4         193         194         210         209
         4         194         195         211         210
         4         195         196         212         211
         4         196         197         213         212
         4         197         198         214         213
         4         198         199         215         214
         4         199         200         216         215
         4         200         201         217         216
         4         201         202         218         217
         4         202         203         219         218
         4         203         204         220         219
         4         204         205         221         220
         4         205         206         222         221
         4         206         207         223         222
         4         208         209         225         224
         4         209         210         226         225
         4         210         211         227         226
         4         211         212         228         227
         4         212         213         229         228
         4         213         214         230         229
         4         214         215         231         230
         4         215         216         232         231
         4         216         217         233         232
         4         217         218         234         233
         4         218         219         235         234
         4         219         220         236         235
         4         220         221         237         236
         4         221         222         238         237
         4         222         223         239         238
         4         224         225         241         240
         4         225         226         242         241
         4         226         227         243         242
         4         227         228         244         243
         4         228         229         245         244
         4         229         230         246         245
         4         230         231         247         246
         4         231         232         248         247
         4         232         233         249         248
         4         233         234         250         249
         4         234         235         251         250
         4         235         236         252         251
         4         236         237         253         252
         4         237         238         254         253
         4         238         239         255         254
         4         240         241         257         256
         4         241         242         258         257
         4         242         243         259         258
         4         243         244         260         259
         4         244         245         261         260
         4         245         246         262         261
         4         246         247         263         262
         4         247         248         264         263
         4         248         249         265         264
         4         249         250         266         265
         4         250         251         267         266
         4         251         252         268         267
         4         252         253         269         268
         4         253         254         270         269
         4         254         255         271         270
         4         256         257         273         272
         4         257         258         274         273
         4         258         259         275         274
         4         259         260         276         275
         4         260         261         277         276
         4         261         262         278         277
         4         262         263         279         278
         4         263         264         280         279
         4         264         265         281         280
         4         265         266         282         281
         4         266         267         283         282
         4         267         268         284         283
         4         268         269         285         284
         4         269         270         286         285
         4         270         271         287         286
         4         272         273         289         288
         4         273         274         290         289
         4         274         275         291         290
         4         275         276         292         291
         4         276         277         293         292
         4         277         278         294         293
         4         278         279         295         294
         4         279         280         296         295
         4         280         281         297         296
         4         281         282         298         297
         4         282         283         299         298
         4         283         284         300         299
         4         284         285         301         300
         4         285         286         302         301
         4         286         287         303         302
         4         288         289         305         304
         4         289         290         306         305
         4         290         291         307         306
         4         291         292         308         307
         4         292         293         309         308
         4         293         294         310         309
         4         294         295         311         310
         4         295         296         312         311
         4         296         297         313         312
         4         297         298         314         313
         4         298         299         315         314
         4         299         300         316         315
         4         300         301         317         316
         4         301         302         318         317
         4         302         303         319         318
         4         304         305         321         320
         4         305         306         322         321
         4         306         307         323         322
         4         307         308         324         323
         4         308         309         325         324
         4         309         310         326         325
         4         310         311         327         326
         4         311         312         328         327
         4         312         313         329         328
         4         313         314         330         329
         4         314         315         331         330
         4         315         316         332         331
         4         316         317         333         332
         4         317         318         334         333
         4         318         319         335         334
         4         320         321         337         336
         4         321         322         338         337
         4         322         323         339         338
         4         323         324         340         339
         4         324         325         341         340
         4         325         326         342         341
         4         326         327         343         342
         4         327         328         344         343
         4         328         329         345         344
         4         329         330         346         345
         4         330         331         347         346
         4         331         332         348         347
         4         332         333         349         348
         4         333         334         350         349
         4         334         335         351         350
         4         336         337         353         352
         4         337         338         354         353
         4         338         339         355         354
         4         339         340         356         355
         4         340         341         357         356
         4         341         342         358         357
         4         342         343         359         358
         4         343         344         360         359
         4         344         345         361         360
         4         345         346         362         361
         4         346         347         363         362
         4         347         348         364         363
         4         348         349         365         364
         4         349         350         366         365
         4         350         351         367         366
         4         352         353         369         368
         4         353         354         370         369
         4         354         355         371         370
         4         355         356         372         371
         4         356         357         373         372
         4         357         358         374         373
         4         358         359         375         374
         4         359         360         376         375
         4         360         361         377         376
         4         361         362         378         377
         4         362         363         379         378
         4         363         364         380         379
         4         364         365         381         380
         4         365         366         382         381
         4         366         367         383         382
         4         368         369         385         384
         4         369         370         386         385
         4         370         371         387         386
         4         371         372         388         387
         4         372         373         389         388
         4         373         374         390         389
         4         374         375         391         390
         4         375         376         392         391
         4         376         377         393         392
         4         377         378         394         393
         4         378         379         395         394
         4         379         380         396         395
         4         380         381         397         396
         4         381         382         398         397
         4         382         383         399         398
         4         384         385         401         400
         4         385         386         402         401
         4         386         387         403         402
         4         387         388         404         403
         4         388         389         405         404
         4         389         390         406         405
         4         390         391         407         406
         4         391         392         408         407
         4         392         393         409         408
         4         393         394         410         409
         4         394         395         411         410
         4         395         396         412         411
         4         396         397         413         412
         4         397         398         414         413
         4         398         399         415         414
         4         400         401         417         416
         4         401         402         418         417
         4         402         403         419         418
         4         403         404         420         419
         4         404         405         421         420
         4         405         406         422         421
         4         406         407         423         422
         4         407         408         424         423
         4         408         409         425         424
         4         409         410         426         425
         4         410         411         427         426
         4         411         412         428         427
         4         412         413         429         428
         4         413         414         430         429
         4         414         415         431         430
         4         416         417         433         432
         4         417         418         434         433
         4         418         419         435         434
         4         419         420         436         435
         4         420         421         437         436
         4         421         422         438         437
         4         422         423         439         438
         4         423         424         440         439
         4         424         425         441         440
         4         425         426         442         441
         4         426         427         443         442
         4         427         428         444         443
         4         428         429         445         444
         4         429         430         446         445
         4         430         431         447         446
         4         432         433         449         448
         4         433         434         450         449
         4         434         435         451         450
         4         435         436         452         451
         4         436         437         453         452
         4         437         438         454         453
         4         438         439         455         454
         4         439         440         456         455
         4         440         441         457         456
         4         441         442         458         457
         4         442         443         459         458
         4         443         444         460         459
         4         444         445         461         460
         4         445         446         462         461
         4         446         447         463         462
         4         448         449         465         464
         4         449         450         466         465
         4         450         451         467         466
         4         451         452         468         467
         4         452         453         469         468
         4         453         454         470         469
         4         454         455         471         470
         4         455         456         472         471
         4         456         457         473         472
         4         457         458         474         473
         4         458         459         475         474
         4         459         460         476         475
         4         460         461         477         476
         4         461         462         478         477
         4         462         463         479         478
         4         464         465         481         480
         4         465         466         482         481
         4         466         467         483         482
         4         467         468         484         483
         4         468         469         485         484
         4         469         470         486         485
         4         470         471         487         486
         4         471         472         488         487
         4         472         473         489         488
         4         473         474         490         489
         4         474         475         491         490
         4         475         476         492         491
         4         476         477         493         492
         4         477         478         494         493
         4         478         479         495         494
         4         480         481         497         496
         4         481         482         498         497
         4         482         483         499         498
         4         483         484         500         499
         4         484         485         501         500
         4         485         486         502         501
         4         486         487         503         502
         4         487         488         504         503
         4         488         489         505         504
         4         489         490         506         505
         4         490         491         507         506
         4         491         492         508         507
         4         492         493         509         508
         4         493         494         510         509
         4         494         495         511         510
         4         496         497         513         512
         4         497         498         514         513
         4         498         499         515         514
         4         499         500         516         515
         4         500         501         517         516
         4         501         502         518         517
         4         502         503         519         518
         4         503         504         520         519
         4         504         505         521         520
         4         505         506         522         521
         4         506         507         523         522
         4         507         508         524         523
         4         508         509         525         524
         4         509         510         526         525
         4         510         511         527         526
         4         512         513         529         528
         4         513         514         530         529
         4         514         515         531         530
         4         515         516         532         531
         4         516         517         533         532
         4         517         518         534         533
         4         518         519         535         534
         4         519         520         536         535
         4         520         521         537         536
         4         521         522         538         537
         4         522         523         539         538
         4         523         524         540         539
         4         524         525         541         540
         4         525         526         542         541
         4         526         527         543         542
         4         528         529         545         544
         4         529         530         546         545
         4         530         531         547         546
         4         531         532         548         547
         4         532         533         549         548
         4         533         534         550         549
         4         534         535         551         550
         4         535         536         552         551
         4         536         537         553         552
         4         537         538         554         553
         4         538         539         555         554
         4         539         540         556         555
         4         540         541         557         556
         4         541         542         558         557
         4         542         543         559         558
         4         544         545         561         560
         4         545         546         562         561
         4         546         547         563         562
         4         547         548         564         563
         4         548         549         565         564
         4         549         550         566         565
         4         550         551         567         566
         4         551         552         568         567
         4         552         553         569         568
         4         553         554         570         569
         4         554         555         571         570
         4         555         556         572         571
         4         556         557         573         572
         4         557         558         574         573
         4         558         559         575         574
         4         560         561         577         576
         4         561         562         578         577
         4         562         563         579         578
         4         563         564         580         579
         4         564         565         581         580
         4         565         566         582         581
         4         566         567         583         582
         4         567         568         584         583
         4         568         569         585         584
         4         569         570         586         585
         4         570         571         587         586
         4         571         572         588         587
         4         572         573         589         588
         4         573         574         590         589
         4         574         575         591         590
         4         576         577         593         592
         4         577         578         594         593
         4         578         579         595         594
         4         579         580         596         595
         4         580         581         597         596
         4         581         582         598         597
         4         582         583         599         598
         4         583         584         600         599
         4         584         585         601         600
         4         585         586         602         601
         4         586         587         603         602
         4         587         588         604         603
         4         588         589         605         604
         4         589         590         606         605
         4         590         591         607         606
         4         592         593         609         608
         4         593         594         610         609
         4         594         595         611         610
         4         595         596         612         611
         4         596         597         613         612
         4         597         598         614         613
         4         598         599         615         614
         4         599         600         616         615
         4         600         601         617         616
         4         601         602         618         617
         4         602         603         619         618
         4         603         604         620         619
         4         604         605         621         620
         4         605         606         622         621
         4         606         607         623         622
         4         608         609         625         624
         4         609         610         626         625
         4         610         611         627         626
         4         611         612         628         627
         4         612         613         629         628
         4         613         614         630         629
         4         614         615         631         630
         4         615         616         632         631
         4         616         617         633         632
         4         617         618         634         633
         4         618         619         635         634
         4         619         620         636         635
         4         620         621         637         636
         4         621         622         638         637
         4         622         623         639         638
         4         624         625         641         640
         4         625         626         642         641
         4         626         627         643         642
         4         627         628         644         643
         4         628         629         645         644
         4         629         630         646         645
         4         630         631         647         646
         4         631         632         648         647
         4         632         633         649         648
         4         633         634         650         649
         4         634         635         651         650
         4         635         636         652         651
         4         636         637         653         652
         4         637         638         654         653
         4         638         639         655         654
         4         640         641         657         656
         4         641         642         658         657
         4         642         643         659         658
         4         643         644         660         659
         4         644         645         661         660
         4         645         646         662         661
         4         646         647         663         662
         4         647         648         664         663
         4         648         649         665         664
         4         649         650         666         665
         4         650         651         667         666
         4         651         652         668         667
         4         652         653         669         668
         4         653         654         670         669
         4         654         655         671         670
         4         656         657         673         672
         4         657         658         674         673
         4         658         659         675         674
         4         659         660         676         675
         4         660         661         677         676
         4         661         662         678         677
         4         662         663         679         678
         4         663         664         680         679
         4         664         665         681         680
         4         665         666         682         681
         4         666         667         683         682
         4         667         668         684         683
         4         668         669         685         684
         4         669         670         686         685
         4         670         671         687         686
         4         672         673         689         688
         4         673         674         690         689
         4         674         675         691         690
         4         675         676         692         691
         4         676         677         693         692
         4         677         678         694         693
         4         678         679         695         694
         4         679         680         696         695
         4         680         681         697         696
         4         681         682         698         697
         4         682         683         699         698
         4         683         684         700         699
         4         684         685         701         700
         4         685         686         702         701
         4         686         687         703         702
         4         688         689         705         704
         4         689         690         706         705
         4         690         691         707         706
         4         691         692         708         707
         4         692         693         709         708
         4         693         694         710         709
         4         694         695         711         710
         4         695         696         712         711
         4         696         697         713         712
         4         697         698         714         713
         4         698         699         715         714
         4         699         700         716         715
         4         700         701         717         716
         4         701         702         718         717
         4         702         703         719         718
         4         704         705         721         720
         4         705         706         722         721
         4         706         707         723         722
         4         707         708         724         723
         4         708         709         725         724
         4         709         710         726         725
         4         710         711         727         726
         4         711         712         728         727
         4         712         713         729         728
         4         713         714         730         729
         4         714         715         731         730
         4         715         716         732         731
         4         716         717         733         732
         4         717         718         734         733
         4         718         719         735         734
         4         720         721         737         736
         4         721         722         738         737
         4         722         723         739         738
         4         723         724         740         739
         4         724         725         741         740
         4         725         726         742         741
         4         726         727         743         742
         4         727         728         744         743
         4         728         729         745         744
         4         729         730         746         745
         4         730         731         747         746
         4         731         732         748         747
         4         732         733         749         748
         4         733         734         750         749
         4         734         735         751         750
         4         736         737         753         752
         4         737         738         754         753
         4         738         739         755         754
         4         739         740         756         755
         4         740         741         757         756
         4         741         742         758         757
         4         742         743         759         758
         4         743         744         760         759
         4         744         745         761         760
         4         745         746         762         761
         4         746         747         763         762
         4         747         748         764         763
         4         748         749         765         764
         4         749         750         766         765
         4         750         751         767         766
         4         752         753         769         768
         4         753         754         770         769
         4         754         755         771         770
         4         755         756         772         771
         4         756         757         773         772
         4         757         758         774         773
         4         758         759         775         774
         4         759         760         776         775
         4         760         761         777         776
         4         761         762         778         777
         4         762         763         779         778
         4         763         764         780         779
         4         764         765         781         780
         4         765         766         782         781
         4         766         767         783         782
         4         768         769         785         784
         4         769         770         786         785
         4         770         771         787         786
         4         771         772         788         787
         4         772         773         789         788
         4         773         774         790         789
         4         774         775         791         790
         4         775         776         792         791
         4         776         777         793         792
         4         777         778         794         793
         4         778         779         795         794
         4         779         780         796         795
         4         780         781         797         796
         4         781         782         798         797
         4         782         783         799         798
         4         784         785         801         800
         4         785         786         802         801
         4         786         787         803         802
         4         787         788         804         803
         4         788         789         805         804
         4         789         790         806         805
         4         790         791         807         806
         4         791         792         808         807
         4         792         793         809         808
         4         793         794         810         809
         4         794         795         811         810
         4         795         796         812         811
         4         796         797         813         812
         4         797         798         814         813
         4         798         799         815         814
         4         800         801         817         816
         4         801         802         818         817
         4         802         803         819         818
         4         803         804         820         819
         4         804         805         821         820
         4         805         806         822         821
         4         806         807         823         822
         4         807         808         824         823
         4         808         809         825         824
         4         809         810         826         825
         4         810         811         827         826
         4         811         812         828         827
         4         812         813         829         828
         4         813         814         830         829
         4         814         815         831         830
         4         816         817         833         832
         4         817         818         834         833
         4         818         819         835         834
         4         819         820         836         835
         4         820         821         837         836
         4         821         822         838         837
         4         822         823         839         838
         4         823         824         840         839
         4         824         825         841         840
         4         825         826         842         841
         4         826         827         843         842
         4         827         828         844         843
         4         828         829         845         844
         4         829         830         846         845
         4         830         831         847         846
         4         832         833         849         848
         4         833         834         850         849
         4         834         835         851         850
         4         835         836         852         851
         4         836         837         853         852
         4         837         838         854         853
         4         838         839         855         854
         4         839         840         856         855
         4         840         841         857         856
         4         841         842         858         857
         4         842         843         859         858
         4         843         844         860         859
         4         844         845         861         860
         4         845         846         862         861
         4         846         847         863         862
         4         848         849         865         864
         4         849         850         866         865
         4         850         851         867         866
         4         851         852         868         867
         4         852         853         869         868
         4         853         854         870         869
         4         854         855         871         870
         4         855         856         872         871
         4         856         857         873         872
         4         857         858         874         873
         4         858         859         875         874
         4         859         860         876         875
         4         860         861         877         876
         4         861         862         878         877
         4         862         863         879         878
         4         864         865         881         880
         4         865         866         882         881
         4         866         867         883         882
         4         867         868         884         883
         4         868         869         885         884
         4         869         870         886         885
         4         870         871         887         886
         4         871         872         888         887
         4         872         873         889         888
         4         873         874         890         889
         4         874         875         891         890
         4         875         876         892         891
         4         876         877         893         892
         4         877         878         894         893
         4         878         879         895         894
         4         880         881         897         896
         4         881         882         898         897
         4         882         883         899         898
         4         883         884         900         899
         4         884         885         901         900
         4         885         886         902         901
         4         886         887         903         902
         4         887         888         904         903
         4         888         889         905         904
         4         889         890         906         905
         4         890         891         907         906
         4         891         892         908         907
         4         892         893         909         908
         4         893         894         910         909
         4         894         895         911         910
         4         896         897         913         912
         4         897         898         914         913
         4         898         899         915         914
         4         899         900         916         915
         4         900         901         917         916
         4         901         902         918         917
         4         902         903         919         918
         4         903         904         920         919
         4         904         905         921         920
         4         905         906         922         921
         4         906         907         923         922
         4         907         908         924         923
         4         908         909         925         924
         4         909         910         926         925
         4         910         911         927         926
         4         912         913         929         928
         4         913         914         930         929
         4         914         915         931         930
         4         915         916         932         931
         4         916         917         933         932
         4         917         918         934         933
         4         918         919         935         934
         4         919         920         936         935
         4         920         921         937         936
         4         921         922         938         937
         4         922         923         939         938
         4         923         924         940         939
         4         924         925         941         940
         4         925         926         942         941
         4         926         927         943         942
         4         928         929         945         944
         4         929         930         946         945
         4         930         931         947         946
         4         931         932         948         947
         4         932         933         949         948
         4         933         934         950         949
         4         934         935         951         950
         4         935         936         952         951
         4         936         937         953         952
         4         937         938         954         953
         4         938         939         955         954
         4         939         940         956         955
         4         940         941         957         956
         4         941         942         958         957
         4         942         943         959         958
         4         944         945         961         960
         4         945         946         962         961
         4         946         947         963         962
         4         947         948         964         963
         4         948         949         965         964
         4         949         950         966         965
         4         950         951         967         966
         4         951         952         968         967
         4         952         953         969         968
         4         953         954         970         969
         4         954         955         971         970
         4         955         956         972         971
         4         956         957         973         972
         4         957         958         974         973
         4         958         959         975         974
         4         960         961         977         976
         4         961         962         978         977
         4         962         963         979         978
         4         963         964         980         979
         4         964         965         981         980
         4         965         966         982         981
         4         966         967         983         982
         4         967         968         984         983
         4         968         969         985         984
         4         969         970         986         985
         4         970         971         987         986
         4         971         972         988         987
         4         972         973         989         988
         4         973         974         990         989
         4         974         975         991         990
         4         976         977         993         992
         4         977         978         994         993
         4         978         979         995         994
         4         979         980         996         995
         4         980         981         997         996
         4         981         982         998         997
         4         982         983         999         998
         4         983         984        1000         999
         4         984         985        1001        1000
         4         985         986        1002        1001
         4         986         987        1003        1002
         4         987         988        1004        1003
         4         988         989        1005        1004
         4         989         990        1006        1005
         4         990         991        1007        1006
         4         992         993        1009        1008
         4         993         994        1010        1009
         4         994         995        1011        1010
         4         995         996        1012        1011
         4         996         997        1013        1012
         4         997         998        1014        1013
         4         998         999        1015        1014
         4         999        1000        1016        1015
         4        1000        1001        1017        1016
         4        1001        1002        1018        1017
         4        1002        1003        1019        1018
         4        1003        1004        1020        1019
         4        1004        1005        1021        1020
         4        1005        1006        1022        1021
         4        1006        1007        1023        1022
         4        1008        1009        1025        1024
         4        1009        1010        1026        1025
         4        1010        1011        1027        1026
         4        1011        1012        1028        1027
         4        1012        1013        1029        1028
         4        1013        1014        1030        1029
         4        1014        1015        1031        1030
         4        1015        1016        1032        1031
         4        1016        1017        1033        1032
         4        1017        1018        1034        1033
         4        1018        1019        1035        1034
         4        1019        1020        1036        1035
         4        1020        1021        1037        1036
         4        1021        1022        1038        1037
         4        1022        1023        1039        1038
         4        1024        1025        1041        1040
         4        1025        1026        1042        1041
         4        1026        1027        1043        1042
         4        1027        1028        1044        1043
         4        1028        1029        1045        1044
         4        1029        1030        1046        1045
         4        1030        1031        1047        1046
         4        1031        1032        1048        1047
         4        1032        1033        1049        1048
         4        1033        1034        1050        1049
         4        1034        1035        1051        1050
         4        1035        1036        1052        1051
         4        1036        1037        1053        1052
         4        1037        1038        1054        1053
         4        1038        1039        1055        1054
         4        1040        1041        1057        1056
         4        1041        1042        1058        1057
         4        1042        1043        1059        1058
         4        1043        1044        1060        1059
         4        1044        1045        1061        1060
         4        1045        1046        1062        1061
         4        1046        1047        1063        1062
         4        1047        1048        1064        1063
         4        1048        1049        1065        1064
         4        1049        1050        1066        1065
         4        1050        1051        1067        1066
         4        1051        1052        1068        1067
         4        1052        1053        1069        1068
         4        1053        1054        1070        1069
         4        1054        1055        1071        1070
         4        1056        1057        1073        1072
         4        1057        1058        1074        1073
         4        1058        1059        1075        1074
         4        1059        1060        1076        1075
         4        1060        1061        1077        1076
         4        1061        1062        1078        1077
         4        1062        1063        1079        1078
         4        1063        1064        1080        1079
         4        1064        1065        1081        1080
         4        1065        1066        1082        1081
         4        1066        1067        1083        1082
         4        1067        1068        1084        1083
         4        1068        1069        1085        1084
         4        1069        1070        1086        1085
         4        1070        1071        1087        1086
         4        1072        1073        1089        1088
         4        1073        1074        1090        1089
         4        1074        1075        1091        1090
         4        1075        1076        1092        1091
         4        1076        1077        1093        1092
         4        1077        1078        1094        1093
         4        1078        1079        1095        1094
         4        1079        1080        1096        1095
         4        1080        1081        1097        1096
         4        1081        1082        1098        1097
         4        1082        1083        1099        1098
         4        1083        1084        1100        1099
         4        1084        1085        1101        1100
         4        1085        1086        1102        1101
         4        1086        1087        1103        1102
         4        1088        1089        1105        1104
         4        1089        1090        1106        1105
         4        1090        1091        1107        1106
         4        1091        1092        1108        1107
         4        1092        1093        1109        1108
         4        1093        1094        1110        1109
         4        1094        1095        1111        1110
         4        1095        1096        1112        1111
         4        1096        1097        1113        1112
         4        1097        1098        1114        1113
         4        1098        1099        1115        1114
         4        1099        1100        1116        1115
         4        1100        1101        1117        1116
         4        1101        1102        1118        1117
         4        1102        1103        1119        1118
         4        1104        1105        1121        1120
         4        1105        1106        1122        1121
         4        1106        1107        1123        1122
         4        1107        1108        1124        1123
         4        1108        1109        1125        1124
         4        1109        1110        1126        1125
         4        1110        1111        1127        1126
         4        1111        1112        1128        1127
         4        1112        1113        1129        1128
         4        1113        1114        1130        1129
         4        1114        1115        1131        1130
         4        1115        1116        1132        1131
         4        1116        1117        1133        1132
         4        1117        1118        1134        1133
         4        1118        1119        1135        1134
         4        1120        1121        1137        1136
         4        1121        1122        1138        1137
         4        1122        1123        1139        1138
         4        1123        1124        1140        1139
         4        1124        1125        1141        1140
         4        1125        1126        1142        1141
         4        1126        1127        1143        1142
         4        1127        1128        1144        1143
         4        1128        1129        1145        1144
         4        1129        1130        1146        1145
         4        1130        1131        1147        1146
         4        1131        1132        1148        1147
         4        1132        1133        1149        1148
         4        1133        1134        1150        1149
         4        1134        1135        1151        1150
         4        1136        1137        1153        1152
         4        1137        1138        1154        1153
         4        1138        1139        1155        1154
         4        1139        1140        1156        1155
         4        1140        1141        1157        1156
         4        1141        1142        1158        1157
         4        1142        1143        1159        1158
         4        1143        1144        1160        1159
         4        1144        1145        1161        1160
         4        1145        1146        1162        1161
         4        1146        1147        1163        1162
         4        1147        1148        1164        1163
         4        1148        1149        1165        1164
         4        1149        1150        1166        1165
         4        1150        1151        1167        1166
         4        1152        1153        1169        1168
         4        1153        1154        1170        1169
         4        1154        1155        1171        1170
         4        1155        1156        1172        1171
         4        1156        1157        1173        1172
         4        1157        1158        1174        1173
         4        1158        1159        1175        1174
         4        1159        1160        1176        1175
         4        1160        1161        1177        1176
         4        1161        1162        1178        1177
         4        1162        1163        1179        1178
         4        1163        1164        1180        1179
         4        1164        1165        1181        1180
         4        1165        1166        1182        1181
         4        1166        1167        1183        1182
         4        1168        1169        1185        1184
         4        1169        1170        1186        1185
         4        1170        1171        1187        1186
         4        1171        1172        1188        1187
         4        1172        1173        1189        1188
         4        1173        1174        1190        1189
         4        1174        1175        1191        1190
         4        1175        1176        1192        1191
         4        1176        1177        1193        1192
         4        1177        1178        1194        1193
         4        1178        1179        1195        1194
         4        1179        1180        1196        1195
         4        1180        1181        1197        1196
         4        1181        1182        1198        1197
         4        1182        1183        1199        1198
         4        1184        1185        1201        1200
         4        1185        1186        1202        1201
         4        1186        1187        1203        1202
         4        1187        1188        1204        1203
         4        1188        1189        1205        1204
         4        1189        1190        1206        1205
         4        1190        1191        1207        1206
         4        1191        1192        1208        1207
         4        1192        1193        1209        1208
         4        1193        1194        1210        1209
         4        1194        1195        1211        1210
         4        1195        1196        1212        1211
         4        1196        1197        1213        1212
         4        1197        1198        1214        1213
         4        1198        1199        1215        1214
         4        1200        1201        1217        1216
         4        1201        1202        1218        1217
         4        1202        1203        1219        1218
         4        1203        1204        1220        1219
         4        1204        1205        1221        1220
         4        1205        1206        1222        1221
         4        1206        1207        1223        1222
         4        1207        1208        1224        1223
         4        1208        1209        1225        1224
         4        1209        1210        1226        1225
         4        1210        1211        1227        1226
         4        1211        1212        1228        1227
         4        1212        1213        1229        1228
         4        1213        1214        1230        1229
         4        1214        1215        1231        1230
         4        1216        1217        1233        1232
         4        1217        1218        1234        1233
         4        1218        1219        1235        1234
         4        1219        1220        1236        1235
         4        1220        1221        1237        1236
         4        1221        1222        1238        1237
         4        1222        1223        1239        1238
         4        1223        1224        1240        1239
         4        1224        1225        1241        1240
         4        1225        1226        1242        1241
         4        1226        1227        1243        1242
         4        1227        1228        1244        1243
         4        1228        1229        1245        1244
         4        1229        1230        1246        1245
         4        1230        1231        1247        1246
         4        1232        1233        1249        1248
         4        1233        1234        1250        1249
         4        1234        1235        1251        1250
         4        1235        1236        1252        1251
         4        1236        1237        1253        1252
         4        1237        1238        1254        1253
         4        1238        1239        1255        1254
         4        1239        1240        1256        1255
         4        1240        1241        1257        1256
         4        1241        1242        1258        1257
         4        1242        1243        1259        1258
         4        1243        1244        1260        1259
         4        1244        1245        1261        1260
         4        1245        1246        1262        1261
         4        1246        1247        1263        1262
         4        1248        1249        1265        1264
         4        1249        1250        1266        1265
         4        1250        1251        1267        1266
         4        1251        1252        1268        1267
         4        1252        1253        1269        1268
         4        1253        1254        1270        1269
         4        1254        1255        1271        1270
         4        1255        1256        1272        1271
         4        1256        1257        1273        1272
         4        1257        1258        1274        1273
         4        1258        1259        1275        1274
         4        1259        1260        1276        1275
         4        1260        1261        1277        1276
         4        1261        1262        1278        1277
         4        1262        1263        1279        1278
         4        1264        1265        1281        1280
         4        1265        1266        1282        1281
         4        1266        1267        1283        1282
         4        1267        1268        1284        1283
         4        1268        1269        1285        1284
         4        1269        1270        1286        1285
         4        1270        1271        1287        1286
         4        1271        1272        1288        1287
         4        1272        1273        1289        1288
         4        1273        1274        1290        1289
         4        1274        1275        1291        1290
         4        1275        1276        1292        1291
         4        1276        1277        1293        1292
         4        1277        1278        1294        1293
         4        1278        1279        1295        1294
         4        1280        1281        1297        1296
         4        1281        1282        1298        1297
         4        1282        1283        1299        1298
         4        1283        1284        1300        1299
         4        1284        1285        1301        1300
         4        1285        1286        1302        1301
         4        1286        1287        1303        1302
         4        1287        1288        1304        1303
         4        1288        1289        1305        1304
         4        1289        1290        1306        1305
         4        1290        1291        1307        1306
         4        1291        1292        1308        1307
         4        1292        1293        1309        1308
         4        1293        1294        1310        1309
         4        1294        1295        1311        1310
         4        1296        1297        1313        1312
         4        1297        1298        1314        1313
         4        1298        1299        1315        1314
         4        1299        1300        1316        1315
         4        1300        1301        1317        1316
         4        1301        1302        1318        1317
         4        1302        1303        1319        1318
         4        1303        1304        1320        1319
         4        1304        1305        1321        1320
         4        1305        1306        1322        1321
         4        1306        1307        1323        1322
         4        1307        1308        1324        1323
         4        1308        1309        1325        1324
         4        1309        1310        1326        1325
         4        1310        1311        1327        1326
         4        1312        1313        1329        1328
         4        1313        1314        1330        1329
         4        1314        1315        1331        1330
         4        1315        1316        1332        1331
         4        1316        1317        1333        1332
         4        1317        1318        1334        1333
         4        1318        1319        1335        1334
         4        1319        1320        1336        1335
         4        1320        1321        1337        1336
         4        1321        1322        1338        1337
         4        1322        1323        1339        1338
         4        1323        1324        1340        1339
         4        1324        1325        1341        1340
         4        1325        1326        1342        1341
         4        1326        1327        1343        1342
         4        1328        1329        1345        1344
         4        1329        1330        1346        1345
         4        1330        1331        1347        1346
         4        1331        1332        1348        1347
         4        1332        1333        1349        1348
         4        1333        1334        1350        1349
         4        1334        1335        1351        1350
         4        1335        1336        1352        1351
         4        1336        1337        1353        1352
         4        1337        1338        1354        1353
         4        1338        1339        1355        1354
         4        1339        1340        1356        1355
         4        1340        1341        1357        1356
         4        1341        1342        1358        1357
         4        1342        1343        1359        1358
         4        1344        1345        1361        1360
         4        1345        1346        1362        1361
         4        1346        1347        1363        1362
         4        1347        1348        1364        1363
         4        1348        1349        1365        1364
         4        1349        1350        1366        1365
         4        1350        1351        1367        1366
         4        1351        1352        1368        1367
         4        1352        1353        1369        1368
         4        1353        1354        1370        1369
         4        1354        1355        1371        1370
         4        1355        1356        1372        1371
         4        1356        1357        1373        1372
         4        1357        1358        1374        1373
         4        1358        1359        1375        1374
         4        1360        1361        1377        1376
         4        1361        1362        1378        1377
         4        1362        1363        1379        1378
         4        1363        1364        1380        1379
         4        1364        1365        1381        1380
         4        1365        1366        1382        1381
         4        1366        1367        1383        1382
         4        1367        1368        1384        1383
         4        1368        1369        1385        1384
         4        1369        1370        1386        1385
         4        1370        1371        1387        1386
         4        1371        1372        1388        1387
         4        1372        1373        1389        1388
         4        1373        1374        1390        1389
         4        1374        1375        1391        1390
         4        1376        1377        1393        1392
         4        1377        1378        1394        1393
         4        1378        1379        1395        1394
         4        1379        1380        1396        1395
         4        1380        1381        1397        1396
         4        1381        1382        1398        1397
         4        1382        1383        1399        1398
         4        1383        1384        1400        1399
         4        1384        1385        1401        1400
         4        1385        1386        1402        1401
         4        1386        1387        1403        1402
         4        1387        1388        1404        1403
         4        1388        1389        1405        1404
         4        1389        1390        1406        1405
         4        1390        1391        1407        1406
         4        1392        1393        1409        1408
         4        1393        1394        1410        1409
         4        1394        1395        1411        1410
         4        1395        1396        1412        1411
         4        1396        1397        1413        1412
         4        1397        1398        1414        1413
         4        1398        1399        1415        1414
         4        1399        1400        1416        1415
         4        1400        1401        1417        1416
         4        1401        1402        1418        1417
         4        1402        1403        1419        1418
         4        1403        1404        1420        1419
         4        1404        1405        1421        1420
         4        1405        1406        1422        1421
         4        1406        1407        1423        1422
         4        1408        1409        1425        1424
         4        1409        1410        1426        1425
         4        1410        1411        1427        1426
         4        1411        1412        1428        1427
         4        1412        1413        1429        1428
         4        1413        1414        1430        1429
         4        1414        1415        1431        1430
         4        1415        1416        1432        1431
         4        1416        1417        1433        1432
         4        1417        1418        1434        1433
         4        1418        1419        1435        1434
         4        1419        1420        1436        1435
         4        1420        1421        1437        1436
         4        1421        1422        1438        1437
         4        1422        1423        1439        1438
         4        1424        1425        1441        1440
         4        1425        1426        1442        1441
         4        1426        1427        1443        1442
         4        1427        1428        1444        1443
         4        1428        1429        1445        1444
         4        1429        1430        1446        1445
         4        1430        1431        1447        1446
         4        1431        1432        1448        1447
         4        1432        1433        1449        1448
         4        1433        1434        1450        1449
         4        1434        1435        1451        1450
         4        1435        1436        1452        1451
         4        1436        1437        1453        1452
         4        1437        1438        1454        1453
         4        1438        1439        1455        1454
CELL_TYPES       1350
9
9
9
9
9
9
9
9
9
9
9
9
9
9
9
9
9
9
9
9
9
9
9
9
9
9
9
9
9
9
9
9
9
9
9
9
9
9
9
9
9
9
9
9
9
9
9
9
9
9
9
9
9
9
9
9
9
9
9
9
9
9
9
9
9
9
9
9
9
9
9
9
9
9
9
9
9
9
9
9
9
9
9
9
9
9
9
9
9
9
9
9
9
9
9
9
9
9
9
9
9
9
9
9
9
9
9
9
9
9
9
9
9
9
9
9
9
9
9
9
9
9
9
9
9
9
9
9
9
9
9
9
9
9
9
9
9
9
9
9
9
9
9
9
9
9
9
9
9
9
9
9
9
9
9
9
9
9
9
9
9
9
9
9
9
9
9
9
9
9
9
9
9
9
9
9
9
9
9
9
9
9
9
9
9
9
9
9
9
9
9
9
9
9
9
9
9
9
9
9
9
9
9
9
9
9
9
9
9
9
9
9
9
9
9
9
9
9
9
9
9
9
9
9
9
9
9
9
9
9
9
9
9
9
9
9
9
9
9
9
9
9
9
9
9
9
9
9
9
9
9
9
9
9
9
9
9
9
9
9
9
9
9
9
9
9
9
9
9
9
9
9
9
9
9
9
9
9
9
9
9
9
9
9
9
9
9
9
9
9
9
9
9
9
9
9
9
9
9
9
9
9
9
9
9
9
9
9
9
9
9
9
9
9
9
9
9
9
9
9
9
9
9
9
9
9
9
9
9
9
9
9
9
9
9
9
9
9
9
9
9
9
9
9
9
9
9
9
9
9
9
9
9
9
9
9
9
9
9
9
9
9
9
9
9
9
9
9
9
9
9
9
9
9
9
9
9
9
9
9
9
9
9
9
9
9
9
9
9
9
9
9
9
9
9
9
9
9
9
9
9
9
9
9
9
9
9
9
9
9
9
9
9
9
9
9
9
9
9
9
9
9
9
9
9
9
9
9
9
9
9
9
9
9
9
9
9
9
9
9
9
9
9
9
9
9
9
9
9
9
9
9
9
9
9
9
9
9
9
9
9
9
9
9
9
9
9
9
9
9
9
9
9
9
9
9
9
9
9
9
9
9
9
9
9
9
9
9
9
9
9
9
9
9
9
9
9
9
9
9
9
9
9
9
9
9
9
9
9
9
9
9
9
9
9
9
9
9
9
9
9
9
9
9
9
9
9
9
9
9
9
9
9
9
9
9
9
9
9
9
9
9
9
9
9
9
9
9
9
9
9
9
9
9
9
9
9
9
9
9
9
9
9
9
9
9
9
9
9
9
9
9
9
9
9
9
9
9
9
9
9
9
9
9
9
9
9
9
9
9
9
9
9
9
9
9
9
9
9
9
9
9
9
9
9
9
9
9
9
9
9
9
9
9
9
9
9
9
9
9
9
9
9
9
9
9
9
9
9
9
9
9
9
9
9
9
9
9
9
9
9
9
9
9
9
9
9
9
9
9
9
9
9
9
9
9
9
9
9
9
9
9
9
9
9
9
9
9
9
9
9
9
9
9
9
9
9
9
9
9
9
9
9
9
9
9
9
9
9
9
9
9
9
9
9
9
9
9
9
9
9
9
9
9
9
9
9
9
9
9
9
9
9
9
9
9
9
9
9
9
9
9
9
9
9
9
9
9
9
9
9
9
9
9
9
9
9
9
9
9
9
9
9
9
9
9
9
9
9
9
9
9
9
9
9
9
9
9
9
9
9
9
9
9
9
9
9
9
9
9
9
9
9
9
9
9
9
9
9
9
9
9
9
9
9
9
9
9
9
9
9
9
9
9
9
9
9
9
9
9
9
9
9
9
9
9
9
9
9
9
9
9
9
9
9
9
9
9
9
9
9
9
9
9
9
9
9
9
9
9
9
9
9
9
9
9
9
9
9
9
9
9
9
9
9
9
9
9
9
9
9
9
9
9
9
9
9
9
9
9
9
9
9
9
9
9
9
9
9
9
9
9
9
9
9
9
9
9
9
9
9
9
9
9
9
9
9
9
9
9
9
9
9
9
9
9
9
9
9
9
9
9
9
9
9
9
9
9
9
9
9
9
9
9
9
9
9
9
9
9
9
9
9
9
9
9
9
9
9
9
9
9
9
9
9
9
9
9
9
9
9
9
9
9
9
9
9
9
9
9
9
9
9
9
9
9
9
9
9
9
9
9
9
9
9
9
9
9
9
9
9
9
9
9
9
9
9
9
9
9
9
9
9
9
9
9
9
9
9
9
9
9
9
9
9
9
9
9
9
9
9
9
9
9
9
9
9
9
9
9
9
9
9
9
9
9
9
9
9
9
9
9
9
9
9
9
9
9
9
9
9
9
9
9
9
9
9
9
9
9
9
9
9
9
9
9
9
9
9
9
9
9
9
9
9
9
9
9
9
9
9
9
9
9
9
9
9
9
9
9
9
9
9
9
9
9
9
9
9
9
9
9
9
9
9
9
9
9
9
9
9
9
9
9
9
9
9
9
9
9
9
9
9
9
9
9
9
9
9
9
9
9
9
9
9
9
9
9
9
9
9
9
9
9
9
9
9
9
9
9
9
9
9
9
9
9
9
9
9
9
9
9
9
9
9
9
9
9
9
9
9
9
9
9
9
9
9
9
9
9
9
9
9
9
9
9
9
9
9
9
9
9
9
9
9
9
9
9
9
9
9
9
9
9
9
9
9
9
9
9
9
9
9
9
9
9
9
9
9
9
9
9
9
9
9
9
9
9
9
9
9
9
9
9
9
9
9
9
9
9
9
9
9
9
9
9
9
9
9
9
9
9
9
9
9
9
9
9
9
9
9
9
9
9
9
9
9
9
9
9
9
9
9
9
9
9
9
9
9
9
9
9
9
9
9
9
9
9
9
9
9
9
9
9
9
9
9
9
9
9
9
9
9
9
9
9
9
9
9
9
9
9
9
9
9
9
9
9
9
9
9
9
9
9
9
9
9
9
9
9
9
9
9
9
9
9
9
9
9
9
9
9
9
9
9
9
9
9
9
9
9
9
9
9
9
9
9
9
9
9
9
9
9
9
9
9
9
9
9
9
POINT_DATA      1456
SCALARS p double 
LOOKUP_TABLE default
   265317.095905015     
   265317.095905015     
   265317.095905015     
   265317.095905015     
   265317.095905015     
   265317.095905015     
   265317.095905015     
   265317.095905015     
   265317.095905015     
   265317.095905015     
   265317.095905015     
   265317.095905015     
   265317.095905015     
   265317.095905015     
   265317.095905015     
   265317.095905015     
   265297.613086471     
   265297.613086471     
   265297.613086471     
   265297.613086471     
   265297.613086471     
   265297.613086471     
   265297.613086471     
   265297.613086471     
   265297.613086471     
   265297.613086471     
   265297.613086471     
   265297.613086471     
   265297.613086471     
   265297.613086471     
   265297.613086471     
   265297.613086471     
   265239.139578137     
   265239.139578137     
   265239.139578137     
   265239.139578137     
   265239.139578137     
   265239.139578137     
   265239.139578137     
   265239.139578137     
   265239.139578137     
   265239.139578137     
   265239.139578137     
   265239.139578137     
   265239.139578137     
   265239.139578137     
   265239.139578137     
   265239.139578137     
   265141.600216182     
   265141.600216182     
   265141.600216182     
   265141.600216182     
   265141.600216182     
   265141.600216182     
   265141.600216182     
   265141.600216182     
   265141.600216182     
   265141.600216182     
   265141.600216182     
   265141.600216182     
   265141.600216182     
   265141.600216182     
   265141.600216182     
   265141.600216182     
   265004.869708591     
   265004.869708591     
   265004.869708591     
   265004.869708591     
   265004.869708591     
   265004.869708591     
   265004.869708591     
   265004.869708591     
   265004.869708590     
   265004.869708590     
   265004.869708591     
   265004.869708591     
   265004.869708591     
   265004.869708591     
   265004.869708591     
   265004.869708591     
   264828.772607195     
   264828.772607196     
   264828.772607195     
   264828.772607195     
   264828.772607195     
   264828.772607196     
   264828.772607196     
   264828.772607195     
   264828.772607195     
   264828.772607195     
   264828.772607195     
   264828.772607195     
   264828.772607195     
   264828.772607195     
   264828.772607195     
   264828.772607195     
   264613.083269466     
   264613.083269466     
   264613.083269466     
   264613.083269466     
   264613.083269467     
   264613.083269467     
   264613.083269466     
   264613.083269466     
   264613.083269466     
   264613.083269466     
   264613.083269466     
   264613.083269466     
   264613.083269466     
   264613.083269466     
   264613.083269466     
   264613.083269466     
   264357.525811013     
   264357.525811013     
   264357.525811013     
   264357.525811013     
   264357.525811013     
   264357.525811013     
   264357.525811013     
   264357.525811013     
   264357.525811013     
   264357.525811013     
   264357.525811013     
   264357.525811013     
   264357.525811013     
   264357.525811013     
   264357.525811013     
   264357.525811013     
   264061.774050033     
   264061.774050033     
   264061.774050033     
   264061.774050033     
   264061.774050033     
   264061.774050033     
   264061.774050033     
   264061.774050033     
   264061.774050033     
   264061.774050033     
   264061.774050033     
   264061.774050033     
   264061.774050033     
   264061.774050033     
   264061.774050033     
   264061.774050033     
   263725.451445228     
   263725.451445228     
   263725.451445228     
   263725.451445228     
   263725.451445228     
   263725.451445228     
   263725.451445228     
   263725.451445228     
   263725.451445228     
   263725.451445228     
   263725.451445228     
   263725.451445228     
   263725.451445228     
   263725.451445228     
   263725.451445228     
   263725.451445228     
   263348.131028998     
   263348.131028998     
   263348.131028998     
   263348.131028998     
   263348.131028998     
   263348.131028998     
   263348.131028998     
   263348.131028998     
   263348.131028998     
   263348.131028998     
   263348.131028998     
   263348.131028998     
   263348.131028998     
   263348.131028998     
   263348.131028998     
   263348.131028998     
   262929.335338034     
   262929.335338034     
   262929.335338034     
   262929.335338034     
   262929.335338034     
   262929.335338034     
   262929.335338034     
   262929.335338034     
   262929.335338034     
   262929.335338034     
   262929.335338034     
   262929.335338034     
   262929.335338034     
   262929.335338034     
   262929.335338034     
   262929.335338034     
   262468.536343739     
   262468.536343739     
   262468.536343739     
   262468.536343739     
   262468.536343739     
   262468.536343740     
   262468.536343740     
   262468.536343740     
   262468.536343740     
   262468.536343740     
   262468.536343740     
   262468.536343739     
   262468.536343739     
   262468.536343739     
   262468.536343739     
   262468.536343739     
   261965.155385227     
   261965.155385227     
   261965.155385227     
   261965.155385228     
   261965.155385228     
   261965.155385228     
   261965.155385228     
   261965.155385228     
   261965.155385228     
   261965.155385228     
   261965.155385228     
   261965.155385228     
   261965.155385228     
   261965.155385228     
   261965.155385227     
   261965.155385227     
   261418.563108000     
   261418.563108000     
   261418.563108000     
   261418.563108000     
   261418.563108000     
   261418.563108000     
   261418.563108000     
   261418.563108000     
   261418.563108000     
   261418.563108000     
   261418.563108000     
   261418.563108000     
   261418.563108000     
   261418.563108000     
   261418.563108000     
   261418.563108000     
   260828.079411737     
   260828.079411737     
   260828.079411737     
   260828.079411737     
   260828.079411737     
   260828.079411737     
   260828.079411737     
   260828.079411737     
   260828.079411737     
   260828.079411737     
   260828.079411737     
   260828.079411737     
   260828.079411737     
   260828.079411737     
   260828.079411737     
   260828.079411737     
   260192.973411017     
   260192.973411017     
   260192.973411017     
   260192.973411017     
   260192.973411017     
   260192.973411017     
   260192.973411017     
   260192.973411017     
   260192.973411017     
   260192.973411017     
   260192.973411017     
   260192.973411017     
   260192.973411017     
   260192.973411017     
   260192.973411016     
   260192.973411017     
   259512.463413160     
   259512.463413160     
   259512.463413160     
   259512.463413160     
   259512.463413160     
   259512.463413160     
   259512.463413160     
   259512.463413161     
   259512.463413160     
   259512.463413160     
   259512.463413161     
   259512.463413160     
   259512.463413160     
   259512.463413160     
   259512.463413160     
   259512.463413160     
   258785.716917798     
   258785.716917798     
   258785.716917798     
   258785.716917798     
   258785.716917798     
   258785.716917798     
   258785.716917798     
   258785.716917798     
   258785.716917798     
   258785.716917797     
   258785.716917798     
   258785.716917798     
   258785.716917798     
   258785.716917797     
   258785.716917798     
   258785.716917798     
   258011.850643176     
   258011.850643176     
   258011.850643176     
   258011.850643176     
   258011.850643176     
   258011.850643176     
   258011.850643176     
   258011.850643176     
   258011.850643176     
   258011.850643176     
   258011.850643176     
   258011.850643176     
   258011.850643176     
   258011.850643176     
   258011.850643175     
   258011.850643175     
   257189.930584675     
   257189.930584675     
   257189.930584674     
   257189.930584675     
   257189.930584675     
   257189.930584674     
   257189.930584674     
   257189.930584674     
   257189.930584674     
   257189.930584674     
   257189.930584674     
   257189.930584674     
   257189.930584674     
   257189.930584674     
   257189.930584674     
   257189.930584674     
   256318.972111457     
   256318.972111457     
   256318.972111457     
   256318.972111457     
   256318.972111457     
   256318.972111457     
   256318.972111457     
   256318.972111457     
   256318.972111457     
   256318.972111457     
   256318.972111456     
   256318.972111456     
   256318.972111456     
   256318.972111456     
   256318.972111456     
   256318.972111456     
   255397.940107675     
   255397.940107675     
   255397.940107675     
   255397.940107675     
   255397.940107675     
   255397.940107675     
   255397.940107675     
   255397.940107674     
   255397.940107674     
   255397.940107674     
   255397.940107674     
   255397.940107674     
   255397.940107674     
   255397.940107674     
   255397.940107674     
   255397.940107674     
   254425.749165154     
   254425.749165154     
   254425.749165154     
   254425.749165154     
   254425.749165154     
   254425.749165154     
   254425.749165154     
   254425.749165154     
   254425.749165154     
   254425.749165154     
   254425.749165154     
   254425.749165154     
   254425.749165154     
   254425.749165154     
   254425.749165154     
   254425.749165153     
   253401.263835036     
   253401.263835036     
   253401.263835036     
   253401.263835036     
   253401.263835036     
   253401.263835036     
   253401.263835036     
   253401.263835036     
   253401.263835036     
   253401.263835036     
   253401.263835035     
   253401.263835035     
   253401.263835035     
   253401.263835035     
   253401.263835035     
   253401.263835035     
   252323.298946396     
   252323.298946396     
   252323.298946396     
   252323.298946396     
   252323.298946396     
   252323.298946396     
   252323.298946396     
   252323.298946395     
   252323.298946395     
   252323.298946395     
   252323.298946395     
   252323.298946395     
   252323.298946395     
   252323.298946395     
   252323.298946395     
   252323.298946395     
   251190.620000470     
   251190.620000470     
   251190.620000470     
   251190.620000470     
   251190.620000470     
   251190.620000470     
   251190.620000470     
   251190.620000470     
   251190.620000470     
   251190.620000470     
   251190.620000470     
   251190.620000470     
   251190.620000470     
   251190.620000470     
   251190.620000469     
   251190.620000469     
   250001.943649728     
   250001.943649728     
   250001.943649728     
   250001.943649728     
   250001.943649727     
   250001.943649727     
   250001.943649727     
   250001.943649727     
   250001.943649727     
   250001.943649727     
   250001.943649727     
   250001.943649727     
   250001.943649727     
   250001.943649727     
   250001.943649727     
   250001.943649727     
   248755.938271660     
   248755.938271660     
   248755.938271660     
   248755.938271660     
   248755.938271660     
   248755.938271660     
   248755.938271660     
   248755.938271660     
   248755.938271660     
   248755.938271659     
   248755.938271659     
   248755.938271659     
   248755.938271659     
   248755.938271659     
   248755.938271660     
   248755.938271660     
   247451.224647861     
   247451.224647862     
   247451.224647861     
   247451.224647861     
   247451.224647861     
   247451.224647861     
   247451.224647861     
   247451.224647861     
   247451.224647861     
   247451.224647861     
   247451.224647861     
   247451.224647861     
   247451.224647861     
   247451.224647861     
   247451.224647861     
   247451.224647861     
   246086.376759630     
   246086.376759630     
   246086.376759630     
   246086.376759630     
   246086.376759630     
   246086.376759630     
   246086.376759630     
   246086.376759630     
   246086.376759630     
   246086.376759630     
   246086.376759630     
   246086.376759630     
   246086.376759630     
   246086.376759630     
   246086.376759630     
   246086.376759630     
   244659.922712082     
   244659.922712082     
   244659.922712082     
   244659.922712082     
   244659.922712081     
   244659.922712081     
   244659.922712081     
   244659.922712081     
   244659.922712081     
   244659.922712081     
   244659.922712081     
   244659.922712081     
   244659.922712081     
   244659.922712081     
   244659.922712081     
   244659.922712081     
   243170.345799478     
   243170.345799479     
   243170.345799479     
   243170.345799478     
   243170.345799478     
   243170.345799478     
   243170.345799478     
   243170.345799478     
   243170.345799478     
   243170.345799478     
   243170.345799478     
   243170.345799478     
   243170.345799478     
   243170.345799478     
   243170.345799478     
   243170.345799478     
   241616.085725280     
   241616.085725280     
   241616.085725280     
   241616.085725280     
   241616.085725280     
   241616.085725280     
   241616.085725280     
   241616.085725280     
   241616.085725280     
   241616.085725280     
   241616.085725279     
   241616.085725280     
   241616.085725280     
   241616.085725280     
   241616.085725280     
   241616.085725279     
   239995.539991171     
   239995.539991171     
   239995.539991171     
   239995.539991172     
   239995.539991172     
   239995.539991171     
   239995.539991171     
   239995.539991171     
   239995.539991171     
   239995.539991171     
   239995.539991171     
   239995.539991171     
   239995.539991171     
   239995.539991171     
   239995.539991171     
   239995.539991171     
   238307.065470163     
   238307.065470163     
   238307.065470163     
   238307.065470163     
   238307.065470163     
   238307.065470163     
   238307.065470163     
   238307.065470163     
   238307.065470163     
   238307.065470162     
   238307.065470162     
   238307.065470162     
   238307.065470162     
   238307.065470162     
   238307.065470162     
   238307.065470162     
   236548.980179639     
   236548.980179639     
   236548.980179639     
   236548.980179639     
   236548.980179639     
   236548.980179639     
   236548.980179639     
   236548.980179639     
   236548.980179638     
   236548.980179638     
   236548.980179638     
   236548.980179638     
   236548.980179638     
   236548.980179638     
   236548.980179638     
   236548.980179638     
   234719.565271076     
   234719.565271076     
   234719.565271076     
   234719.565271076     
   234719.565271076     
   234719.565271076     
   234719.565271076     
   234719.565271075     
   234719.565271075     
   234719.565271075     
   234719.565271075     
   234719.565271075     
   234719.565271075     
   234719.565271075     
   234719.565271075     
   234719.565271075     
   232817.067253943     
   232817.067253943     
   232817.067253943     
   232817.067253943     
   232817.067253943     
   232817.067253943     
   232817.067253943     
   232817.067253943     
   232817.067253943     
   232817.067253943     
   232817.067253943     
   232817.067253943     
   232817.067253942     
   232817.067253943     
   232817.067253942     
   232817.067253942     
   230839.700472130     
   230839.700472130     
   230839.700472130     
   230839.700472130     
   230839.700472130     
   230839.700472130     
   230839.700472130     
   230839.700472130     
   230839.700472130     
   230839.700472130     
   230839.700472130     
   230839.700472130     
   230839.700472130     
   230839.700472130     
   230839.700472130     
   230839.700472130     
   228785.649852005     
   228785.649852005     
   228785.649852006     
   228785.649852006     
   228785.649852006     
   228785.649852005     
   228785.649852005     
   228785.649852006     
   228785.649852006     
   228785.649852005     
   228785.649852006     
   228785.649852006     
   228785.649852006     
   228785.649852006     
   228785.649852006     
   228785.649852006     
   226653.073941993     
   226653.073941993     
   226653.073941993     
   226653.073941993     
   226653.073941993     
   226653.073941993     
   226653.073941993     
   226653.073941993     
   226653.073941993     
   226653.073941993     
   226653.073941993     
   226653.073941993     
   226653.073941993     
   226653.073941993     
   226653.073941993     
   226653.073941994     
   224440.108264230     
   224440.108264230     
   224440.108264230     
   224440.108264230     
   224440.108264230     
   224440.108264230     
   224440.108264230     
   224440.108264230     
   224440.108264230     
   224440.108264230     
   224440.108264230     
   224440.108264231     
   224440.108264231     
   224440.108264231     
   224440.108264231     
   224440.108264231     
   222144.868999547     
   222144.868999547     
   222144.868999547     
   222144.868999547     
   222144.868999547     
   222144.868999547     
   222144.868999547     
   222144.868999547     
   222144.868999547     
   222144.868999547     
   222144.868999547     
   222144.868999547     
   222144.868999547     
   222144.868999547     
   222144.868999547     
   222144.868999547     
   219765.457027547     
   219765.457027546     
   219765.457027547     
   219765.457027547     
   219765.457027547     
   219765.457027547     
   219765.457027547     
   219765.457027547     
   219765.457027547     
   219765.457027547     
   219765.457027547     
   219765.457027547     
   219765.457027547     
   219765.457027547     
   219765.457027547     
   219765.457027547     
   217299.962344043     
   217299.962344043     
   217299.962344043     
   217299.962344043     
   217299.962344043     
   217299.962344043     
   217299.962344043     
   217299.962344043     
   217299.962344043     
   217299.962344043     
   217299.962344043     
   217299.962344043     
   217299.962344043     
   217299.962344043     
   217299.962344043     
   217299.962344043     
   214746.468878428     
   214746.468878428     
   214746.468878428     
   214746.468878428     
   214746.468878428     
   214746.468878428     
   214746.468878429     
   214746.468878428     
   214746.468878429     
   214746.468878428     
   214746.468878428     
   214746.468878428     
   214746.468878428     
   214746.468878429     
   214746.468878428     
   214746.468878429     
   212103.059733733     
   212103.059733733     
   212103.059733733     
   212103.059733734     
   212103.059733734     
   212103.059733734     
   212103.059733734     
   212103.059733734     
   212103.059733734     
   212103.059733734     
   212103.059733733     
   212103.059733733     
   212103.059733733     
   212103.059733733     
   212103.059733734     
   212103.059733734     
   209367.822872104     
   209367.822872104     
   209367.822872104     
   209367.822872104     
   209367.822872104     
   209367.822872104     
   209367.822872104     
   209367.822872104     
   209367.822872104     
   209367.822872104     
   209367.822872104     
   209367.822872104     
   209367.822872104     
   209367.822872104     
   209367.822872104     
   209367.822872104     
   206538.857268183     
   206538.857268183     
   206538.857268183     
   206538.857268183     
   206538.857268183     
   206538.857268182     
   206538.857268182     
   206538.857268182     
   206538.857268182     
   206538.857268182     
   206538.857268182     
   206538.857268182     
   206538.857268182     
   206538.857268182     
   206538.857268182     
   206538.857268182     
   203614.279552355     
   203614.279552355     
   203614.279552355     
   203614.279552355     
   203614.279552355     
   203614.279552355     
   203614.279552355     
   203614.279552355     
   203614.279552355     
   203614.279552355     
   203614.279552355     
   203614.279552355     
   203614.279552355     
   203614.279552355     
   203614.279552355     
   203614.279552355     
   200592.231164976     
   200592.231164976     
   200592.231164976     
   200592.231164976     
   200592.231164976     
   200592.231164976     
   200592.231164976     
   200592.231164976     
   200592.231164976     
   200592.231164976     
   200592.231164975     
   200592.231164976     
   200592.231164976     
   200592.231164976     
   200592.231164976     
   200592.231164976     
   197470.886041473     
   197470.886041473     
   197470.886041473     
   197470.886041473     
   197470.886041473     
   197470.886041473     
   197470.886041473     
   197470.886041473     
   197470.886041473     
   197470.886041473     
   197470.886041473     
   197470.886041473     
   197470.886041473     
   197470.886041473     
   197470.886041473     
   197470.886041473     
   194248.458846570     
   194248.458846570     
   194248.458846570     
   194248.458846570     
   194248.458846570     
   194248.458846570     
   194248.458846570     
   194248.458846570     
   194248.458846570     
   194248.458846570     
   194248.458846570     
   194248.458846570     
   194248.458846570     
   194248.458846570     
   194248.458846570     
   194248.458846570     
   190923.213773706     
   190923.213773706     
   190923.213773706     
   190923.213773706     
   190923.213773706     
   190923.213773706     
   190923.213773706     
   190923.213773706     
   190923.213773706     
   190923.213773707     
   190923.213773706     
   190923.213773706     
   190923.213773707     
   190923.213773707     
   190923.213773707     
   190923.213773707     
   187493.473923016     
   187493.473923016     
   187493.473923016     
   187493.473923016     
   187493.473923016     
   187493.473923016     
   187493.473923016     
   187493.473923016     
   187493.473923016     
   187493.473923016     
   187493.473923016     
   187493.473923016     
   187493.473923016     
   187493.473923016     
   187493.473923016     
   187493.473923016     
   183957.631267811     
   183957.631267811     
   183957.631267811     
   183957.631267811     
   183957.631267811     
   183957.631267811     
   183957.631267811     
   183957.631267811     
   183957.631267811     
   183957.631267811     
   183957.631267811     
   183957.631267811     
   183957.631267811     
   183957.631267811     
   183957.631267811     
   183957.631267811     
   180314.157215405     
   180314.157215405     
   180314.157215405     
   180314.157215405     
   180314.157215405     
   180314.157215405     
   180314.157215405     
   180314.157215405     
   180314.157215405     
   180314.157215405     
   180314.157215405     
   180314.157215405     
   180314.157215405     
   180314.157215405     
   180314.157215405     
   180314.157215405     
   176561.613763136     
   176561.613763136     
   176561.613763136     
   176561.613763136     
   176561.613763136     
   176561.613763136     
   176561.613763136     
   176561.613763137     
   176561.613763137     
   176561.613763137     
   176561.613763137     
   176561.613763137     
   176561.613763137     
   176561.613763137     
   176561.613763137     
   176561.613763137     
   172698.665244539     
   172698.665244539     
   172698.665244539     
   172698.665244539     
   172698.665244539     
   172698.665244539     
   172698.665244539     
   172698.665244539     
   172698.665244539     
   172698.665244539     
   172698.665244539     
   172698.665244539     
   172698.665244539     
   172698.665244539     
   172698.665244539     
   172698.665244539     
   168724.090653684     
   168724.090653684     
   168724.090653684     
   168724.090653684     
   168724.090653684     
   168724.090653684     
   168724.090653684     
   168724.090653684     
   168724.090653685     
   168724.090653685     
   168724.090653685     
   168724.090653685     
   168724.090653685     
   168724.090653685     
   168724.090653685     
   168724.090653685     
   164636.796527616     
   164636.796527616     
   164636.796527616     
   164636.796527616     
   164636.796527616     
   164636.796527616     
   164636.796527616     
   164636.796527616     
   164636.796527616     
   164636.796527616     
   164636.796527616     
   164636.796527616     
   164636.796527616     
   164636.796527616     
   164636.796527616     
   164636.796527616     
   160435.830357464     
   160435.830357464     
   160435.830357464     
   160435.830357464     
   160435.830357464     
   160435.830357464     
   160435.830357464     
   160435.830357464     
   160435.830357464     
   160435.830357464     
   160435.830357464     
   160435.830357464     
   160435.830357464     
   160435.830357464     
   160435.830357464     
   160435.830357464     
   156120.394488134     
   156120.394488134     
   156120.394488134     
   156120.394488134     
   156120.394488135     
   156120.394488135     
   156120.394488135     
   156120.394488135     
   156120.394488135     
   156120.394488134     
   156120.394488135     
   156120.394488135     
   156120.394488135     
   156120.394488135     
   156120.394488135     
   156120.394488135     
   151689.860454296     
   151689.860454296     
   151689.860454296     
   151689.860454296     
   151689.860454296     
   151689.860454296     
   151689.860454296     
   151689.860454296     
   151689.860454296     
   151689.860454296     
   151689.860454296     
   151689.860454296     
   151689.860454296     
   151689.860454296     
   151689.860454296     
   151689.860454296     
   147143.783686690     
   147143.783686690     
   147143.783686690     
   147143.783686690     
   147143.783686690     
   147143.783686690     
   147143.783686690     
   147143.783686690     
   147143.783686690     
   147143.783686690     
   147143.783686690     
   147143.783686690     
   147143.783686690     
   147143.783686690     
   147143.783686690     
   147143.783686690     
   142481.918507460     
   142481.918507460     
   142481.918507460     
   142481.918507460     
   142481.918507460     
   142481.918507460     
   142481.918507460     
   142481.918507460     
   142481.918507460     
   142481.918507460     
   142481.918507460     
   142481.918507460     
   142481.918507460     
   142481.918507460     
   142481.918507460     
   142481.918507460     
   137704.233316199     
   137704.233316200     
   137704.233316200     
   137704.233316200     
   137704.233316199     
   137704.233316200     
   137704.233316200     
   137704.233316199     
   137704.233316199     
   137704.233316199     
   137704.233316199     
   137704.233316199     
   137704.233316199     
   137704.233316199     
   137704.233316199     
   137704.233316199     
   132810.925849728     
   132810.925849728     
   132810.925849728     
   132810.925849728     
   132810.925849728     
   132810.925849728     
   132810.925849728     
   132810.925849728     
   132810.925849728     
   132810.925849728     
   132810.925849728     
   132810.925849728     
   132810.925849728     
   132810.925849728     
   132810.925849728     
   132810.925849728     
   127802.438378311     
   127802.438378311     
   127802.438378311     
   127802.438378311     
   127802.438378311     
   127802.438378311     
   127802.438378311     
   127802.438378311     
   127802.438378311     
   127802.438378311     
   127802.438378311     
   127802.438378311     
   127802.438378311     
   127802.438378311     
   127802.438378311     
   127802.438378311     
   122679.472679142     
   122679.472679142     
   122679.472679142     
   122679.472679142     
   122679.472679142     
   122679.472679142     
   122679.472679142     
   122679.472679142     
   122679.472679142     
   122679.472679142     
   122679.472679142     
   122679.472679142     
   122679.472679142     
   122679.472679142     
   122679.472679142     
   122679.472679142     
   117443.004604700     
   117443.004604700     
   117443.004604700     
   117443.004604700     
   117443.004604700     
   117443.004604700     
   117443.004604700     
   117443.004604700     
   117443.004604700     
   117443.004604700     
   117443.004604700     
   117443.004604700     
   117443.004604700     
   117443.004604700     
   117443.004604700     
   117443.004604700     
   112094.298039264     
   112094.298039264     
   112094.298039264     
   112094.298039264     
   112094.298039264     
   112094.298039264     
   112094.298039264     
   112094.298039264     
   112094.298039264     
   112094.298039264     
   112094.298039264     
   112094.298039264     
   112094.298039264     
   112094.298039264     
   112094.298039264     
   112094.298039264     
   106634.918011873     
   106634.918011873     
   106634.918011873     
   106634.918011873     
   106634.918011873     
   106634.918011873     
   106634.918011873     
   106634.918011873     
   106634.918011873     
   106634.918011873     
   106634.918011873     
   106634.918011873     
   106634.918011873     
   106634.918011873     
   106634.918011873     
   106634.918011873     
   101066.742708922     
   101066.742708922     
   101066.742708922     
   101066.742708922     
   101066.742708922     
   101066.742708922     
   101066.742708922     
   101066.742708922     
   101066.742708923     
   101066.742708923     
   101066.742708923     
   101066.742708923     
   101066.742708923     
   101066.742708923     
   101066.742708922     
   101066.742708923     
   95391.9741050821     
   95391.9741050820     
   95391.9741050821     
   95391.9741050820     
   95391.9741050822     
   95391.9741050822     
   95391.9741050823     
   95391.9741050824     
   95391.9741050824     
   95391.9741050825     
   95391.9741050823     
   95391.9741050823     
   95391.9741050823     
   95391.9741050823     
   95391.9741050823     
   95391.9741050823     
   89613.1469083503     
   89613.1469083503     
   89613.1469083503     
   89613.1469083504     
   89613.1469083505     
   89613.1469083505     
   89613.1469083506     
   89613.1469083506     
   89613.1469083506     
   89613.1469083506     
   89613.1469083505     
   89613.1469083505     
   89613.1469083504     
   89613.1469083505     
   89613.1469083504     
   89613.1469083505     
   83733.1354949480     
   83733.1354949480     
   83733.1354949481     
   83733.1354949482     
   83733.1354949482     
   83733.1354949482     
   83733.1354949482     
   83733.1354949482     
   83733.1354949482     
   83733.1354949481     
   83733.1354949481     
   83733.1354949480     
   83733.1354949480     
   83733.1354949481     
   83733.1354949481     
   83733.1354949481     
   77755.1584939879     
   77755.1584939879     
   77755.1584939879     
   77755.1584939879     
   77755.1584939879     
   77755.1584939879     
   77755.1584939879     
   77755.1584939879     
   77755.1584939879     
   77755.1584939878     
   77755.1584939878     
   77755.1584939878     
   77755.1584939878     
   77755.1584939878     
   77755.1584939878     
   77755.1584939878     
   71682.7806721770     
   71682.7806721771     
   71682.7806721770     
   71682.7806721769     
   71682.7806721770     
   71682.7806721769     
   71682.7806721770     
   71682.7806721769     
   71682.7806721770     
   71682.7806721770     
   71682.7806721769     
   71682.7806721769     
   71682.7806721769     
   71682.7806721768     
   71682.7806721768     
   71682.7806721768     
   65519.9117674047     
   65519.9117674048     
   65519.9117674049     
   65519.9117674047     
   65519.9117674047     
   65519.9117674048     
   65519.9117674047     
   65519.9117674047     
   65519.9117674046     
   65519.9117674047     
   65519.9117674047     
   65519.9117674046     
   65519.9117674046     
   65519.9117674044     
   65519.9117674046     
   65519.9117674046     
   59270.8019294066     
   59270.8019294066     
   59270.8019294065     
   59270.8019294065     
   59270.8019294064     
   59270.8019294065     
   59270.8019294065     
   59270.8019294065     
   59270.8019294065     
   59270.8019294065     
   59270.8019294064     
   59270.8019294064     
   59270.8019294064     
   59270.8019294064     
   59270.8019294064     
   59270.8019294064     
   52940.0334485463     
   52940.0334485464     
   52940.0334485463     
   52940.0334485463     
   52940.0334485463     
   52940.0334485463     
   52940.0334485463     
   52940.0334485463     
   52940.0334485462     
   52940.0334485462     
   52940.0334485463     
   52940.0334485463     
   52940.0334485462     
   52940.0334485463     
   52940.0334485464     
   52940.0334485464     
   46532.5084931513     
   46532.5084931512     
   46532.5084931513     
   46532.5084931513     
   46532.5084931513     
   46532.5084931513     
   46532.5084931512     
   46532.5084931513     
   46532.5084931513     
   46532.5084931513     
   46532.5084931513     
   46532.5084931514     
   46532.5084931513     
   46532.5084931513     
   46532.5084931513     
   46532.5084931513     
   40053.4326348357     
   40053.4326348357     
   40053.4326348357     
   40053.4326348358     
   40053.4326348357     
   40053.4326348357     
   40053.4326348357     
   40053.4326348357     
   40053.4326348357     
   40053.4326348357     
   40053.4326348358     
   40053.4326348358     
   40053.4326348358     
   40053.4326348358     
   40053.4326348358     
   40053.4326348358     
   33508.2940228027     
   33508.2940228028     
   33508.2940228027     
   33508.2940228027     
   33508.2940228027     
   33508.2940228027     
   33508.2940228027     
   33508.2940228027     
   33508.2940228028     
   33508.2940228027     
   33508.2940228027     
   33508.2940228027     
   33508.2940228027     
   33508.2940228028     
   33508.2940228027     
   33508.2940228028     
   26902.8381745518     
   26902.8381745518     
   26902.8381745518     
   26902.8381745518     
   26902.8381745518     
   26902.8381745518     
   26902.8381745518     
   26902.8381745518     
   26902.8381745518     
   26902.8381745518     
   26902.8381745518     
   26902.8381745519     
   26902.8381745519     
   26902.8381745519     
   26902.8381745519     
   26902.8381745519     
   20243.0384829219     
   20243.0384829219     
   20243.0384829219     
   20243.0384829219     
   20243.0384829219     
   20243.0384829219     
   20243.0384829219     
   20243.0384829218     
   20243.0384829218     
   20243.0384829218     
   20243.0384829218     
   20243.0384829218     
   20243.0384829218     
   20243.0384829219     
   20243.0384829218     
   20243.0384829219     
   13535.0626970263     
   13535.0626970263     
   13535.0626970263     
   13535.0626970263     
   13535.0626970263     
   13535.0626970263     
   13535.0626970263     
   13535.0626970263     
   13535.0626970263     
   13535.0626970263     
   13535.0626970263     
   13535.0626970263     
   13535.0626970263     
   13535.0626970263     
   13535.0626970264     
   13535.0626970263     
   6785.23581301633     
   6785.23581301630     
   6785.23581301633     
   6785.23581301630     
   6785.23581301631     
   6785.23581301629     
   6785.23581301631     
   6785.23581301627     
   6785.23581301639     
   6785.23581301628     
   6785.23581301638     
   6785.23581301638     
   6785.23581301639     
   6785.23581301638     
   6785.23581301638     
   6785.23581301640     
  0.000000000000000E+000
  0.000000000000000E+000
  0.000000000000000E+000
  0.000000000000000E+000
  0.000000000000000E+000
  0.000000000000000E+000
  0.000000000000000E+000
  0.000000000000000E+000
  0.000000000000000E+000
  0.000000000000000E+000
  0.000000000000000E+000
  0.000000000000000E+000
  0.000000000000000E+000
  0.000000000000000E+000
  0.000000000000000E+000
  0.000000000000000E+000
VECTORS u double 
    0.00000E+00        -0.34748E-01         0.00000E+00
    0.00000E+00        -0.32432E-01         0.00000E+00
    0.00000E+00        -0.30115E-01         0.00000E+00
    0.00000E+00        -0.27799E-01         0.00000E+00
    0.00000E+00        -0.25482E-01         0.00000E+00
    0.00000E+00        -0.23165E-01         0.00000E+00
    0.00000E+00        -0.20849E-01         0.00000E+00
    0.00000E+00        -0.18532E-01         0.00000E+00
    0.00000E+00        -0.16216E-01         0.00000E+00
    0.00000E+00        -0.13899E-01         0.00000E+00
    0.00000E+00        -0.11583E-01         0.00000E+00
    0.00000E+00        -0.92662E-02         0.00000E+00
    0.00000E+00        -0.69496E-02         0.00000E+00
    0.00000E+00        -0.46331E-02         0.00000E+00
    0.00000E+00        -0.23165E-02         0.00000E+00
    0.00000E+00         0.00000E+00         0.00000E+00
    0.36183E-02        -0.34748E-01         0.00000E+00
    0.36183E-02        -0.32432E-01         0.00000E+00
    0.36183E-02        -0.30115E-01         0.00000E+00
    0.36183E-02        -0.27799E-01         0.00000E+00
    0.36183E-02        -0.25482E-01         0.00000E+00
    0.36183E-02        -0.23165E-01         0.00000E+00
    0.36183E-02        -0.20849E-01         0.00000E+00
    0.36183E-02        -0.18532E-01         0.00000E+00
    0.36183E-02        -0.16216E-01         0.00000E+00
    0.36183E-02        -0.13899E-01         0.00000E+00
    0.36183E-02        -0.11583E-01         0.00000E+00
    0.36183E-02        -0.92662E-02         0.00000E+00
    0.36183E-02        -0.69496E-02         0.00000E+00
    0.36183E-02        -0.46331E-02         0.00000E+00
    0.36183E-02        -0.23165E-02         0.00000E+00
    0.36183E-02         0.00000E+00         0.00000E+00
    0.72362E-02        -0.34748E-01         0.00000E+00
    0.72362E-02        -0.32432E-01         0.00000E+00
    0.72362E-02        -0.30115E-01         0.00000E+00
    0.72362E-02        -0.27799E-01         0.00000E+00
    0.72362E-02        -0.25482E-01         0.00000E+00
    0.72362E-02        -0.23165E-01         0.00000E+00
    0.72362E-02        -0.20849E-01         0.00000E+00
    0.72362E-02        -0.18532E-01         0.00000E+00
    0.72362E-02        -0.16216E-01         0.00000E+00
    0.72362E-02        -0.13899E-01         0.00000E+00
    0.72362E-02        -0.11583E-01         0.00000E+00
    0.72362E-02        -0.92662E-02         0.00000E+00
    0.72362E-02        -0.69496E-02         0.00000E+00
    0.72362E-02        -0.46331E-02         0.00000E+00
    0.72362E-02        -0.23165E-02         0.00000E+00
    0.72362E-02         0.00000E+00         0.00000E+00
    0.10853E-01        -0.34748E-01         0.00000E+00
    0.10853E-01        -0.32432E-01         0.00000E+00
    0.10853E-01        -0.30115E-01         0.00000E+00
    0.10853E-01        -0.27799E-01         0.00000E+00
    0.10853E-01        -0.25482E-01         0.00000E+00
    0.10853E-01        -0.23165E-01         0.00000E+00
    0.10853E-01        -0.20849E-01         0.00000E+00
    0.10853E-01        -0.18532E-01         0.00000E+00
    0.10853E-01        -0.16216E-01         0.00000E+00
    0.10853E-01        -0.13899E-01         0.00000E+00
    0.10853E-01        -0.11583E-01         0.00000E+00
    0.10853E-01        -0.92662E-02         0.00000E+00
    0.10853E-01        -0.69496E-02         0.00000E+00
    0.10853E-01        -0.46331E-02         0.00000E+00
    0.10853E-01        -0.23165E-02         0.00000E+00
    0.10853E-01         0.00000E+00         0.00000E+00
    0.14469E-01        -0.34748E-01         0.00000E+00
    0.14469E-01        -0.32432E-01         0.00000E+00
    0.14469E-01        -0.30115E-01         0.00000E+00
    0.14469E-01        -0.27799E-01         0.00000E+00
    0.14469E-01        -0.25482E-01         0.00000E+00
    0.14469E-01        -0.23165E-01         0.00000E+00
    0.14469E-01        -0.20849E-01         0.00000E+00
    0.14469E-01        -0.18532E-01         0.00000E+00
    0.14469E-01        -0.16216E-01         0.00000E+00
    0.14469E-01        -0.13899E-01         0.00000E+00
    0.14469E-01        -0.11583E-01         0.00000E+00
    0.14469E-01        -0.92662E-02         0.00000E+00
    0.14469E-01        -0.69496E-02         0.00000E+00
    0.14469E-01        -0.46331E-02         0.00000E+00
    0.14469E-01        -0.23165E-02         0.00000E+00
    0.14469E-01         0.00000E+00         0.00000E+00
    0.18084E-01        -0.34748E-01         0.00000E+00
    0.18084E-01        -0.32432E-01         0.00000E+00
    0.18084E-01        -0.30115E-01         0.00000E+00
    0.18084E-01        -0.27799E-01         0.00000E+00
    0.18084E-01        -0.25482E-01         0.00000E+00
    0.18084E-01        -0.23165E-01         0.00000E+00
    0.18084E-01        -0.20849E-01         0.00000E+00
    0.18084E-01        -0.18532E-01         0.00000E+00
    0.18084E-01        -0.16216E-01         0.00000E+00
    0.18084E-01        -0.13899E-01         0.00000E+00
    0.18084E-01        -0.11583E-01         0.00000E+00
    0.18084E-01        -0.92662E-02         0.00000E+00
    0.18084E-01        -0.69496E-02         0.00000E+00
    0.18084E-01        -0.46331E-02         0.00000E+00
    0.18084E-01        -0.23165E-02         0.00000E+00
    0.18084E-01         0.00000E+00         0.00000E+00
    0.21696E-01        -0.34748E-01         0.00000E+00
    0.21696E-01        -0.32432E-01         0.00000E+00
    0.21696E-01        -0.30115E-01         0.00000E+00
    0.21696E-01        -0.27799E-01         0.00000E+00
    0.21696E-01        -0.25482E-01         0.00000E+00
    0.21696E-01        -0.23165E-01         0.00000E+00
    0.21696E-01        -0.20849E-01         0.00000E+00
    0.21696E-01        -0.18532E-01         0.00000E+00
    0.21696E-01        -0.16216E-01         0.00000E+00
    0.21696E-01        -0.13899E-01         0.00000E+00
    0.21696E-01        -0.11583E-01         0.00000E+00
    0.21696E-01        -0.92662E-02         0.00000E+00
    0.21696E-01        -0.69496E-02         0.00000E+00
    0.21696E-01        -0.46331E-02         0.00000E+00
    0.21696E-01        -0.23165E-02         0.00000E+00
    0.21696E-01         0.00000E+00         0.00000E+00
    0.25306E-01        -0.34748E-01         0.00000E+00
    0.25306E-01        -0.32432E-01         0.00000E+00
    0.25306E-01        -0.30115E-01         0.00000E+00
    0.25306E-01        -0.27799E-01         0.00000E+00
    0.25306E-01        -0.25482E-01         0.00000E+00
    0.25306E-01        -0.23165E-01         0.00000E+00
    0.25306E-01        -0.20849E-01         0.00000E+00
    0.25306E-01        -0.18532E-01         0.00000E+00
    0.25306E-01        -0.16216E-01         0.00000E+00
    0.25306E-01        -0.13899E-01         0.00000E+00
    0.25306E-01        -0.11583E-01         0.00000E+00
    0.25306E-01        -0.92662E-02         0.00000E+00
    0.25306E-01        -0.69496E-02         0.00000E+00
    0.25306E-01        -0.46331E-02         0.00000E+00
    0.25306E-01        -0.23165E-02         0.00000E+00
    0.25306E-01         0.00000E+00         0.00000E+00
    0.28914E-01        -0.34748E-01         0.00000E+00
    0.28914E-01        -0.32432E-01         0.00000E+00
    0.28914E-01        -0.30115E-01         0.00000E+00
    0.28914E-01        -0.27799E-01         0.00000E+00
    0.28914E-01        -0.25482E-01         0.00000E+00
    0.28914E-01        -0.23165E-01         0.00000E+00
    0.28914E-01        -0.20849E-01         0.00000E+00
    0.28914E-01        -0.18532E-01         0.00000E+00
    0.28914E-01        -0.16216E-01         0.00000E+00
    0.28914E-01        -0.13899E-01         0.00000E+00
    0.28914E-01        -0.11583E-01         0.00000E+00
    0.28914E-01        -0.92662E-02         0.00000E+00
    0.28914E-01        -0.69496E-02         0.00000E+00
    0.28914E-01        -0.46331E-02         0.00000E+00
    0.28914E-01        -0.23165E-02         0.00000E+00
    0.28914E-01         0.00000E+00         0.00000E+00
    0.32518E-01        -0.34748E-01         0.00000E+00
    0.32518E-01        -0.32432E-01         0.00000E+00
    0.32518E-01        -0.30115E-01         0.00000E+00
    0.32518E-01        -0.27799E-01         0.00000E+00
    0.32518E-01        -0.25482E-01         0.00000E+00
    0.32518E-01        -0.23165E-01         0.00000E+00
    0.32518E-01        -0.20849E-01         0.00000E+00
    0.32518E-01        -0.18532E-01         0.00000E+00
    0.32518E-01        -0.16216E-01         0.00000E+00
    0.32518E-01        -0.13899E-01         0.00000E+00
    0.32518E-01        -0.11583E-01         0.00000E+00
    0.32518E-01        -0.92662E-02         0.00000E+00
    0.32518E-01        -0.69496E-02         0.00000E+00
    0.32518E-01        -0.46331E-02         0.00000E+00
    0.32518E-01        -0.23165E-02         0.00000E+00
    0.32518E-01         0.00000E+00         0.00000E+00
    0.36118E-01        -0.34748E-01         0.00000E+00
    0.36118E-01        -0.32432E-01         0.00000E+00
    0.36118E-01        -0.30115E-01         0.00000E+00
    0.36118E-01        -0.27799E-01         0.00000E+00
    0.36118E-01        -0.25482E-01         0.00000E+00
    0.36118E-01        -0.23165E-01         0.00000E+00
    0.36118E-01        -0.20849E-01         0.00000E+00
    0.36118E-01        -0.18532E-01         0.00000E+00
    0.36118E-01        -0.16216E-01         0.00000E+00
    0.36118E-01        -0.13899E-01         0.00000E+00
    0.36118E-01        -0.11583E-01         0.00000E+00
    0.36118E-01        -0.92662E-02         0.00000E+00
    0.36118E-01        -0.69496E-02         0.00000E+00
    0.36118E-01        -0.46331E-02         0.00000E+00
    0.36118E-01        -0.23165E-02         0.00000E+00
    0.36118E-01         0.00000E+00         0.00000E+00
    0.39715E-01        -0.34748E-01         0.00000E+00
    0.39715E-01        -0.32432E-01         0.00000E+00
    0.39715E-01        -0.30115E-01         0.00000E+00
    0.39715E-01        -0.27799E-01         0.00000E+00
    0.39715E-01        -0.25482E-01         0.00000E+00
    0.39715E-01        -0.23165E-01         0.00000E+00
    0.39715E-01        -0.20849E-01         0.00000E+00
    0.39715E-01        -0.18532E-01         0.00000E+00
    0.39715E-01        -0.16216E-01         0.00000E+00
    0.39715E-01        -0.13899E-01         0.00000E+00
    0.39715E-01        -0.11583E-01         0.00000E+00
    0.39715E-01        -0.92662E-02         0.00000E+00
    0.39715E-01        -0.69496E-02         0.00000E+00
    0.39715E-01        -0.46331E-02         0.00000E+00
    0.39715E-01        -0.23165E-02         0.00000E+00
    0.39715E-01         0.00000E+00         0.00000E+00
    0.43307E-01        -0.34748E-01         0.00000E+00
    0.43307E-01        -0.32432E-01         0.00000E+00
    0.43307E-01        -0.30115E-01         0.00000E+00
    0.43307E-01        -0.27799E-01         0.00000E+00
    0.43307E-01        -0.25482E-01         0.00000E+00
    0.43307E-01        -0.23165E-01         0.00000E+00
    0.43307E-01        -0.20849E-01         0.00000E+00
    0.43307E-01        -0.18532E-01         0.00000E+00
    0.43307E-01        -0.16216E-01         0.00000E+00
    0.43307E-01        -0.13899E-01         0.00000E+00
    0.43307E-01        -0.11583E-01         0.00000E+00
    0.43307E-01        -0.92662E-02         0.00000E+00
    0.43307E-01        -0.69496E-02         0.00000E+00
    0.43307E-01        -0.46331E-02         0.00000E+00
    0.43307E-01        -0.23165E-02         0.00000E+00
    0.43307E-01         0.00000E+00         0.00000E+00
    0.46895E-01        -0.34748E-01         0.00000E+00
    0.46895E-01        -0.32432E-01         0.00000E+00
    0.46895E-01        -0.30115E-01         0.00000E+00
    0.46895E-01        -0.27799E-01         0.00000E+00
    0.46895E-01        -0.25482E-01         0.00000E+00
    0.46895E-01        -0.23165E-01         0.00000E+00
    0.46895E-01        -0.20849E-01         0.00000E+00
    0.46895E-01        -0.18532E-01         0.00000E+00
    0.46895E-01        -0.16216E-01         0.00000E+00
    0.46895E-01        -0.13899E-01         0.00000E+00
    0.46895E-01        -0.11583E-01         0.00000E+00
    0.46895E-01        -0.92662E-02         0.00000E+00
    0.46895E-01        -0.69496E-02         0.00000E+00
    0.46895E-01        -0.46331E-02         0.00000E+00
    0.46895E-01        -0.23165E-02         0.00000E+00
    0.46895E-01         0.00000E+00         0.00000E+00
    0.50477E-01        -0.34748E-01         0.00000E+00
    0.50477E-01        -0.32432E-01         0.00000E+00
    0.50477E-01        -0.30115E-01         0.00000E+00
    0.50477E-01        -0.27799E-01         0.00000E+00
    0.50477E-01        -0.25482E-01         0.00000E+00
    0.50477E-01        -0.23165E-01         0.00000E+00
    0.50477E-01        -0.20849E-01         0.00000E+00
    0.50477E-01        -0.18532E-01         0.00000E+00
    0.50477E-01        -0.16216E-01         0.00000E+00
    0.50477E-01        -0.13899E-01         0.00000E+00
    0.50477E-01        -0.11583E-01         0.00000E+00
    0.50477E-01        -0.92662E-02         0.00000E+00
    0.50477E-01        -0.69496E-02         0.00000E+00
    0.50477E-01        -0.46331E-02         0.00000E+00
    0.50477E-01        -0.23165E-02         0.00000E+00
    0.50477E-01         0.00000E+00         0.00000E+00
    0.54053E-01        -0.34748E-01         0.00000E+00
    0.54053E-01        -0.32432E-01         0.00000E+00
    0.54053E-01        -0.30115E-01         0.00000E+00
    0.54053E-01        -0.27799E-01         0.00000E+00
    0.54053E-01        -0.25482E-01         0.00000E+00
    0.54053E-01        -0.23165E-01         0.00000E+00
    0.54053E-01        -0.20849E-01         0.00000E+00
    0.54053E-01        -0.18532E-01         0.00000E+00
    0.54053E-01        -0.16216E-01         0.00000E+00
    0.54053E-01        -0.13899E-01         0.00000E+00
    0.54053E-01        -0.11583E-01         0.00000E+00
    0.54053E-01        -0.92662E-02         0.00000E+00
    0.54053E-01        -0.69496E-02         0.00000E+00
    0.54053E-01        -0.46331E-02         0.00000E+00
    0.54053E-01        -0.23165E-02         0.00000E+00
    0.54053E-01         0.00000E+00         0.00000E+00
    0.57623E-01        -0.34748E-01         0.00000E+00
    0.57623E-01        -0.32432E-01         0.00000E+00
    0.57623E-01        -0.30115E-01         0.00000E+00
    0.57623E-01        -0.27799E-01         0.00000E+00
    0.57623E-01        -0.25482E-01         0.00000E+00
    0.57623E-01        -0.23165E-01         0.00000E+00
    0.57623E-01        -0.20849E-01         0.00000E+00
    0.57623E-01        -0.18532E-01         0.00000E+00
    0.57623E-01        -0.16216E-01         0.00000E+00
    0.57623E-01        -0.13899E-01         0.00000E+00
    0.57623E-01        -0.11583E-01         0.00000E+00
    0.57623E-01        -0.92662E-02         0.00000E+00
    0.57623E-01        -0.69496E-02         0.00000E+00
    0.57623E-01        -0.46331E-02         0.00000E+00
    0.57623E-01        -0.23165E-02         0.00000E+00
    0.57623E-01         0.00000E+00         0.00000E+00
    0.61187E-01        -0.34748E-01         0.00000E+00
    0.61187E-01        -0.32432E-01         0.00000E+00
    0.61187E-01        -0.30115E-01         0.00000E+00
    0.61187E-01        -0.27799E-01         0.00000E+00
    0.61187E-01        -0.25482E-01         0.00000E+00
    0.61187E-01        -0.23165E-01         0.00000E+00
    0.61187E-01        -0.20849E-01         0.00000E+00
    0.61187E-01        -0.18532E-01         0.00000E+00
    0.61187E-01        -0.16216E-01         0.00000E+00
    0.61187E-01        -0.13899E-01         0.00000E+00
    0.61187E-01        -0.11583E-01         0.00000E+00
    0.61187E-01        -0.92662E-02         0.00000E+00
    0.61187E-01        -0.69496E-02         0.00000E+00
    0.61187E-01        -0.46331E-02         0.00000E+00
    0.61187E-01        -0.23165E-02         0.00000E+00
    0.61187E-01         0.00000E+00         0.00000E+00
    0.64744E-01        -0.34748E-01         0.00000E+00
    0.64744E-01        -0.32432E-01         0.00000E+00
    0.64744E-01        -0.30115E-01         0.00000E+00
    0.64744E-01        -0.27799E-01         0.00000E+00
    0.64744E-01        -0.25482E-01         0.00000E+00
    0.64744E-01        -0.23165E-01         0.00000E+00
    0.64744E-01        -0.20849E-01         0.00000E+00
    0.64744E-01        -0.18532E-01         0.00000E+00
    0.64744E-01        -0.16216E-01         0.00000E+00
    0.64744E-01        -0.13899E-01         0.00000E+00
    0.64744E-01        -0.11583E-01         0.00000E+00
    0.64744E-01        -0.92662E-02         0.00000E+00
    0.64744E-01        -0.69496E-02         0.00000E+00
    0.64744E-01        -0.46331E-02         0.00000E+00
    0.64744E-01        -0.23165E-02         0.00000E+00
    0.64744E-01         0.00000E+00         0.00000E+00
    0.68293E-01        -0.34748E-01         0.00000E+00
    0.68293E-01        -0.32432E-01         0.00000E+00
    0.68293E-01        -0.30115E-01         0.00000E+00
    0.68293E-01        -0.27799E-01         0.00000E+00
    0.68293E-01        -0.25482E-01         0.00000E+00
    0.68293E-01        -0.23165E-01         0.00000E+00
    0.68293E-01        -0.20849E-01         0.00000E+00
    0.68293E-01        -0.18532E-01         0.00000E+00
    0.68293E-01        -0.16216E-01         0.00000E+00
    0.68293E-01        -0.13899E-01         0.00000E+00
    0.68293E-01        -0.11583E-01         0.00000E+00
    0.68293E-01        -0.92662E-02         0.00000E+00
    0.68293E-01        -0.69496E-02         0.00000E+00
    0.68293E-01        -0.46331E-02         0.00000E+00
    0.68293E-01        -0.23165E-02         0.00000E+00
    0.68293E-01         0.00000E+00         0.00000E+00
    0.71834E-01        -0.34748E-01         0.00000E+00
    0.71834E-01        -0.32432E-01         0.00000E+00
    0.71834E-01        -0.30115E-01         0.00000E+00
    0.71834E-01        -0.27799E-01         0.00000E+00
    0.71834E-01        -0.25482E-01         0.00000E+00
    0.71834E-01        -0.23165E-01         0.00000E+00
    0.71834E-01        -0.20849E-01         0.00000E+00
    0.71834E-01        -0.18532E-01         0.00000E+00
    0.71834E-01        -0.16216E-01         0.00000E+00
    0.71834E-01        -0.13899E-01         0.00000E+00
    0.71834E-01        -0.11583E-01         0.00000E+00
    0.71834E-01        -0.92662E-02         0.00000E+00
    0.71834E-01        -0.69496E-02         0.00000E+00
    0.71834E-01        -0.46331E-02         0.00000E+00
    0.71834E-01        -0.23165E-02         0.00000E+00
    0.71834E-01         0.00000E+00         0.00000E+00
    0.75367E-01        -0.34748E-01         0.00000E+00
    0.75367E-01        -0.32432E-01         0.00000E+00
    0.75367E-01        -0.30115E-01         0.00000E+00
    0.75367E-01        -0.27799E-01         0.00000E+00
    0.75367E-01        -0.25482E-01         0.00000E+00
    0.75367E-01        -0.23165E-01         0.00000E+00
    0.75367E-01        -0.20849E-01         0.00000E+00
    0.75367E-01        -0.18532E-01         0.00000E+00
    0.75367E-01        -0.16216E-01         0.00000E+00
    0.75367E-01        -0.13899E-01         0.00000E+00
    0.75367E-01        -0.11583E-01         0.00000E+00
    0.75367E-01        -0.92662E-02         0.00000E+00
    0.75367E-01        -0.69496E-02         0.00000E+00
    0.75367E-01        -0.46331E-02         0.00000E+00
    0.75367E-01        -0.23165E-02         0.00000E+00
    0.75367E-01         0.00000E+00         0.00000E+00
    0.78891E-01        -0.34748E-01         0.00000E+00
    0.78891E-01        -0.32432E-01         0.00000E+00
    0.78891E-01        -0.30115E-01         0.00000E+00
    0.78891E-01        -0.27799E-01         0.00000E+00
    0.78891E-01        -0.25482E-01         0.00000E+00
    0.78891E-01        -0.23165E-01         0.00000E+00
    0.78891E-01        -0.20849E-01         0.00000E+00
    0.78891E-01        -0.18532E-01         0.00000E+00
    0.78891E-01        -0.16216E-01         0.00000E+00
    0.78891E-01        -0.13899E-01         0.00000E+00
    0.78891E-01        -0.11583E-01         0.00000E+00
    0.78891E-01        -0.92662E-02         0.00000E+00
    0.78891E-01        -0.69496E-02         0.00000E+00
    0.78891E-01        -0.46331E-02         0.00000E+00
    0.78891E-01        -0.23165E-02         0.00000E+00
    0.78891E-01         0.00000E+00         0.00000E+00
    0.82405E-01        -0.34748E-01         0.00000E+00
    0.82405E-01        -0.32432E-01         0.00000E+00
    0.82405E-01        -0.30115E-01         0.00000E+00
    0.82405E-01        -0.27799E-01         0.00000E+00
    0.82405E-01        -0.25482E-01         0.00000E+00
    0.82405E-01        -0.23165E-01         0.00000E+00
    0.82405E-01        -0.20849E-01         0.00000E+00
    0.82405E-01        -0.18532E-01         0.00000E+00
    0.82405E-01        -0.16216E-01         0.00000E+00
    0.82405E-01        -0.13899E-01         0.00000E+00
    0.82405E-01        -0.11583E-01         0.00000E+00
    0.82405E-01        -0.92662E-02         0.00000E+00
    0.82405E-01        -0.69496E-02         0.00000E+00
    0.82405E-01        -0.46331E-02         0.00000E+00
    0.82405E-01        -0.23165E-02         0.00000E+00
    0.82405E-01         0.00000E+00         0.00000E+00
    0.85910E-01        -0.34748E-01         0.00000E+00
    0.85910E-01        -0.32432E-01         0.00000E+00
    0.85910E-01        -0.30115E-01         0.00000E+00
    0.85910E-01        -0.27799E-01         0.00000E+00
    0.85910E-01        -0.25482E-01         0.00000E+00
    0.85910E-01        -0.23165E-01         0.00000E+00
    0.85910E-01        -0.20849E-01         0.00000E+00
    0.85910E-01        -0.18532E-01         0.00000E+00
    0.85910E-01        -0.16216E-01         0.00000E+00
    0.85910E-01        -0.13899E-01         0.00000E+00
    0.85910E-01        -0.11583E-01         0.00000E+00
    0.85910E-01        -0.92662E-02         0.00000E+00
    0.85910E-01        -0.69496E-02         0.00000E+00
    0.85910E-01        -0.46331E-02         0.00000E+00
    0.85910E-01        -0.23165E-02         0.00000E+00
    0.85910E-01         0.00000E+00         0.00000E+00
    0.89404E-01        -0.34748E-01         0.00000E+00
    0.89404E-01        -0.32432E-01         0.00000E+00
    0.89404E-01        -0.30115E-01         0.00000E+00
    0.89404E-01        -0.27799E-01         0.00000E+00
    0.89404E-01        -0.25482E-01         0.00000E+00
    0.89404E-01        -0.23165E-01         0.00000E+00
    0.89404E-01        -0.20849E-01         0.00000E+00
    0.89404E-01        -0.18532E-01         0.00000E+00
    0.89404E-01        -0.16216E-01         0.00000E+00
    0.89404E-01        -0.13899E-01         0.00000E+00
    0.89404E-01        -0.11583E-01         0.00000E+00
    0.89404E-01        -0.92662E-02         0.00000E+00
    0.89404E-01        -0.69496E-02         0.00000E+00
    0.89404E-01        -0.46331E-02         0.00000E+00
    0.89404E-01        -0.23165E-02         0.00000E+00
    0.89404E-01         0.00000E+00         0.00000E+00
    0.92886E-01        -0.34748E-01         0.00000E+00
    0.92886E-01        -0.32432E-01         0.00000E+00
    0.92886E-01        -0.30115E-01         0.00000E+00
    0.92886E-01        -0.27799E-01         0.00000E+00
    0.92886E-01        -0.25482E-01         0.00000E+00
    0.92886E-01        -0.23165E-01         0.00000E+00
    0.92886E-01        -0.20849E-01         0.00000E+00
    0.92886E-01        -0.18532E-01         0.00000E+00
    0.92886E-01        -0.16216E-01         0.00000E+00
    0.92886E-01        -0.13899E-01         0.00000E+00
    0.92886E-01        -0.11583E-01         0.00000E+00
    0.92886E-01        -0.92662E-02         0.00000E+00
    0.92886E-01        -0.69496E-02         0.00000E+00
    0.92886E-01        -0.46331E-02         0.00000E+00
    0.92886E-01        -0.23165E-02         0.00000E+00
    0.92886E-01         0.00000E+00         0.00000E+00
    0.96357E-01        -0.34748E-01         0.00000E+00
    0.96357E-01        -0.32432E-01         0.00000E+00
    0.96357E-01        -0.30115E-01         0.00000E+00
    0.96357E-01        -0.27799E-01         0.00000E+00
    0.96357E-01        -0.25482E-01         0.00000E+00
    0.96357E-01        -0.23165E-01         0.00000E+00
    0.96357E-01        -0.20849E-01         0.00000E+00
    0.96357E-01        -0.18532E-01         0.00000E+00
    0.96357E-01        -0.16216E-01         0.00000E+00
    0.96357E-01        -0.13899E-01         0.00000E+00
    0.96357E-01        -0.11583E-01         0.00000E+00
    0.96357E-01        -0.92662E-02         0.00000E+00
    0.96357E-01        -0.69496E-02         0.00000E+00
    0.96357E-01        -0.46331E-02         0.00000E+00
    0.96357E-01        -0.23165E-02         0.00000E+00
    0.96357E-01         0.00000E+00         0.00000E+00
    0.99817E-01        -0.34748E-01         0.00000E+00
    0.99817E-01        -0.32432E-01         0.00000E+00
    0.99817E-01        -0.30115E-01         0.00000E+00
    0.99817E-01        -0.27799E-01         0.00000E+00
    0.99817E-01        -0.25482E-01         0.00000E+00
    0.99817E-01        -0.23165E-01         0.00000E+00
    0.99817E-01        -0.20849E-01         0.00000E+00
    0.99817E-01        -0.18532E-01         0.00000E+00
    0.99817E-01        -0.16216E-01         0.00000E+00
    0.99817E-01        -0.13899E-01         0.00000E+00
    0.99817E-01        -0.11583E-01         0.00000E+00
    0.99817E-01        -0.92662E-02         0.00000E+00
    0.99817E-01        -0.69496E-02         0.00000E+00
    0.99817E-01        -0.46331E-02         0.00000E+00
    0.99817E-01        -0.23165E-02         0.00000E+00
    0.99817E-01         0.00000E+00         0.00000E+00
    0.10326E+00        -0.34748E-01         0.00000E+00
    0.10326E+00        -0.32432E-01         0.00000E+00
    0.10326E+00        -0.30115E-01         0.00000E+00
    0.10326E+00        -0.27799E-01         0.00000E+00
    0.10326E+00        -0.25482E-01         0.00000E+00
    0.10326E+00        -0.23165E-01         0.00000E+00
    0.10326E+00        -0.20849E-01         0.00000E+00
    0.10326E+00        -0.18532E-01         0.00000E+00
    0.10326E+00        -0.16216E-01         0.00000E+00
    0.10326E+00        -0.13899E-01         0.00000E+00
    0.10326E+00        -0.11583E-01         0.00000E+00
    0.10326E+00        -0.92662E-02         0.00000E+00
    0.10326E+00        -0.69496E-02         0.00000E+00
    0.10326E+00        -0.46331E-02         0.00000E+00
    0.10326E+00        -0.23165E-02         0.00000E+00
    0.10326E+00         0.00000E+00         0.00000E+00
    0.10670E+00        -0.34748E-01         0.00000E+00
    0.10670E+00        -0.32432E-01         0.00000E+00
    0.10670E+00        -0.30115E-01         0.00000E+00
    0.10670E+00        -0.27799E-01         0.00000E+00
    0.10670E+00        -0.25482E-01         0.00000E+00
    0.10670E+00        -0.23165E-01         0.00000E+00
    0.10670E+00        -0.20849E-01         0.00000E+00
    0.10670E+00        -0.18532E-01         0.00000E+00
    0.10670E+00        -0.16216E-01         0.00000E+00
    0.10670E+00        -0.13899E-01         0.00000E+00
    0.10670E+00        -0.11583E-01         0.00000E+00
    0.10670E+00        -0.92662E-02         0.00000E+00
    0.10670E+00        -0.69496E-02         0.00000E+00
    0.10670E+00        -0.46331E-02         0.00000E+00
    0.10670E+00        -0.23165E-02         0.00000E+00
    0.10670E+00         0.00000E+00         0.00000E+00
    0.11011E+00        -0.34748E-01         0.00000E+00
    0.11011E+00        -0.32432E-01         0.00000E+00
    0.11011E+00        -0.30115E-01         0.00000E+00
    0.11011E+00        -0.27799E-01         0.00000E+00
    0.11011E+00        -0.25482E-01         0.00000E+00
    0.11011E+00        -0.23165E-01         0.00000E+00
    0.11011E+00        -0.20849E-01         0.00000E+00
    0.11011E+00        -0.18532E-01         0.00000E+00
    0.11011E+00        -0.16216E-01         0.00000E+00
    0.11011E+00        -0.13899E-01         0.00000E+00
    0.11011E+00        -0.11583E-01         0.00000E+00
    0.11011E+00        -0.92662E-02         0.00000E+00
    0.11011E+00        -0.69496E-02         0.00000E+00
    0.11011E+00        -0.46331E-02         0.00000E+00
    0.11011E+00        -0.23165E-02         0.00000E+00
    0.11011E+00         0.00000E+00         0.00000E+00
    0.11352E+00        -0.34748E-01         0.00000E+00
    0.11352E+00        -0.32432E-01         0.00000E+00
    0.11352E+00        -0.30115E-01         0.00000E+00
    0.11352E+00        -0.27799E-01         0.00000E+00
    0.11352E+00        -0.25482E-01         0.00000E+00
    0.11352E+00        -0.23165E-01         0.00000E+00
    0.11352E+00        -0.20849E-01         0.00000E+00
    0.11352E+00        -0.18532E-01         0.00000E+00
    0.11352E+00        -0.16216E-01         0.00000E+00
    0.11352E+00        -0.13899E-01         0.00000E+00
    0.11352E+00        -0.11583E-01         0.00000E+00
    0.11352E+00        -0.92662E-02         0.00000E+00
    0.11352E+00        -0.69496E-02         0.00000E+00
    0.11352E+00        -0.46331E-02         0.00000E+00
    0.11352E+00        -0.23165E-02         0.00000E+00
    0.11352E+00         0.00000E+00         0.00000E+00
    0.11691E+00        -0.34748E-01         0.00000E+00
    0.11691E+00        -0.32432E-01         0.00000E+00
    0.11691E+00        -0.30115E-01         0.00000E+00
    0.11691E+00        -0.27799E-01         0.00000E+00
    0.11691E+00        -0.25482E-01         0.00000E+00
    0.11691E+00        -0.23165E-01         0.00000E+00
    0.11691E+00        -0.20849E-01         0.00000E+00
    0.11691E+00        -0.18532E-01         0.00000E+00
    0.11691E+00        -0.16216E-01         0.00000E+00
    0.11691E+00        -0.13899E-01         0.00000E+00
    0.11691E+00        -0.11583E-01         0.00000E+00
    0.11691E+00        -0.92662E-02         0.00000E+00
    0.11691E+00        -0.69496E-02         0.00000E+00
    0.11691E+00        -0.46331E-02         0.00000E+00
    0.11691E+00        -0.23165E-02         0.00000E+00
    0.11691E+00         0.00000E+00         0.00000E+00
    0.12028E+00        -0.34748E-01         0.00000E+00
    0.12028E+00        -0.32432E-01         0.00000E+00
    0.12028E+00        -0.30115E-01         0.00000E+00
    0.12028E+00        -0.27799E-01         0.00000E+00
    0.12028E+00        -0.25482E-01         0.00000E+00
    0.12028E+00        -0.23165E-01         0.00000E+00
    0.12028E+00        -0.20849E-01         0.00000E+00
    0.12028E+00        -0.18532E-01         0.00000E+00
    0.12028E+00        -0.16216E-01         0.00000E+00
    0.12028E+00        -0.13899E-01         0.00000E+00
    0.12028E+00        -0.11583E-01         0.00000E+00
    0.12028E+00        -0.92662E-02         0.00000E+00
    0.12028E+00        -0.69496E-02         0.00000E+00
    0.12028E+00        -0.46331E-02         0.00000E+00
    0.12028E+00        -0.23165E-02         0.00000E+00
    0.12028E+00         0.00000E+00         0.00000E+00
    0.12364E+00        -0.34748E-01         0.00000E+00
    0.12364E+00        -0.32432E-01         0.00000E+00
    0.12364E+00        -0.30115E-01         0.00000E+00
    0.12364E+00        -0.27799E-01         0.00000E+00
    0.12364E+00        -0.25482E-01         0.00000E+00
    0.12364E+00        -0.23165E-01         0.00000E+00
    0.12364E+00        -0.20849E-01         0.00000E+00
    0.12364E+00        -0.18532E-01         0.00000E+00
    0.12364E+00        -0.16216E-01         0.00000E+00
    0.12364E+00        -0.13899E-01         0.00000E+00
    0.12364E+00        -0.11583E-01         0.00000E+00
    0.12364E+00        -0.92662E-02         0.00000E+00
    0.12364E+00        -0.69496E-02         0.00000E+00
    0.12364E+00        -0.46331E-02         0.00000E+00
    0.12364E+00        -0.23165E-02         0.00000E+00
    0.12364E+00         0.00000E+00         0.00000E+00
    0.12698E+00        -0.34748E-01         0.00000E+00
    0.12698E+00        -0.32432E-01         0.00000E+00
    0.12698E+00        -0.30115E-01         0.00000E+00
    0.12698E+00        -0.27799E-01         0.00000E+00
    0.12698E+00        -0.25482E-01         0.00000E+00
    0.12698E+00        -0.23165E-01         0.00000E+00
    0.12698E+00        -0.20849E-01         0.00000E+00
    0.12698E+00        -0.18532E-01         0.00000E+00
    0.12698E+00        -0.16216E-01         0.00000E+00
    0.12698E+00        -0.13899E-01         0.00000E+00
    0.12698E+00        -0.11583E-01         0.00000E+00
    0.12698E+00        -0.92662E-02         0.00000E+00
    0.12698E+00        -0.69496E-02         0.00000E+00
    0.12698E+00        -0.46331E-02         0.00000E+00
    0.12698E+00        -0.23165E-02         0.00000E+00
    0.12698E+00         0.00000E+00         0.00000E+00
    0.13030E+00        -0.34748E-01         0.00000E+00
    0.13030E+00        -0.32432E-01         0.00000E+00
    0.13030E+00        -0.30115E-01         0.00000E+00
    0.13030E+00        -0.27799E-01         0.00000E+00
    0.13030E+00        -0.25482E-01         0.00000E+00
    0.13030E+00        -0.23165E-01         0.00000E+00
    0.13030E+00        -0.20849E-01         0.00000E+00
    0.13030E+00        -0.18532E-01         0.00000E+00
    0.13030E+00        -0.16216E-01         0.00000E+00
    0.13030E+00        -0.13899E-01         0.00000E+00
    0.13030E+00        -0.11583E-01         0.00000E+00
    0.13030E+00        -0.92662E-02         0.00000E+00
    0.13030E+00        -0.69496E-02         0.00000E+00
    0.13030E+00        -0.46331E-02         0.00000E+00
    0.13030E+00        -0.23165E-02         0.00000E+00
    0.13030E+00         0.00000E+00         0.00000E+00
    0.13360E+00        -0.34748E-01         0.00000E+00
    0.13360E+00        -0.32432E-01         0.00000E+00
    0.13360E+00        -0.30115E-01         0.00000E+00
    0.13360E+00        -0.27799E-01         0.00000E+00
    0.13360E+00        -0.25482E-01         0.00000E+00
    0.13360E+00        -0.23165E-01         0.00000E+00
    0.13360E+00        -0.20849E-01         0.00000E+00
    0.13360E+00        -0.18532E-01         0.00000E+00
    0.13360E+00        -0.16216E-01         0.00000E+00
    0.13360E+00        -0.13899E-01         0.00000E+00
    0.13360E+00        -0.11583E-01         0.00000E+00
    0.13360E+00        -0.92662E-02         0.00000E+00
    0.13360E+00        -0.69496E-02         0.00000E+00
    0.13360E+00        -0.46331E-02         0.00000E+00
    0.13360E+00        -0.23165E-02         0.00000E+00
    0.13360E+00         0.00000E+00         0.00000E+00
    0.13689E+00        -0.34748E-01         0.00000E+00
    0.13689E+00        -0.32432E-01         0.00000E+00
    0.13689E+00        -0.30115E-01         0.00000E+00
    0.13689E+00        -0.27799E-01         0.00000E+00
    0.13689E+00        -0.25482E-01         0.00000E+00
    0.13689E+00        -0.23165E-01         0.00000E+00
    0.13689E+00        -0.20849E-01         0.00000E+00
    0.13689E+00        -0.18532E-01         0.00000E+00
    0.13689E+00        -0.16216E-01         0.00000E+00
    0.13689E+00        -0.13899E-01         0.00000E+00
    0.13689E+00        -0.11583E-01         0.00000E+00
    0.13689E+00        -0.92662E-02         0.00000E+00
    0.13689E+00        -0.69496E-02         0.00000E+00
    0.13689E+00        -0.46331E-02         0.00000E+00
    0.13689E+00        -0.23165E-02         0.00000E+00
    0.13689E+00         0.00000E+00         0.00000E+00
    0.14015E+00        -0.34748E-01         0.00000E+00
    0.14015E+00        -0.32432E-01         0.00000E+00
    0.14015E+00        -0.30115E-01         0.00000E+00
    0.14015E+00        -0.27799E-01         0.00000E+00
    0.14015E+00        -0.25482E-01         0.00000E+00
    0.14015E+00        -0.23165E-01         0.00000E+00
    0.14015E+00        -0.20849E-01         0.00000E+00
    0.14015E+00        -0.18532E-01         0.00000E+00
    0.14015E+00        -0.16216E-01         0.00000E+00
    0.14015E+00        -0.13899E-01         0.00000E+00
    0.14015E+00        -0.11583E-01         0.00000E+00
    0.14015E+00        -0.92662E-02         0.00000E+00
    0.14015E+00        -0.69496E-02         0.00000E+00
    0.14015E+00        -0.46331E-02         0.00000E+00
    0.14015E+00        -0.23165E-02         0.00000E+00
    0.14015E+00         0.00000E+00         0.00000E+00
    0.14339E+00        -0.34748E-01         0.00000E+00
    0.14339E+00        -0.32432E-01         0.00000E+00
    0.14339E+00        -0.30115E-01         0.00000E+00
    0.14339E+00        -0.27799E-01         0.00000E+00
    0.14339E+00        -0.25482E-01         0.00000E+00
    0.14339E+00        -0.23165E-01         0.00000E+00
    0.14339E+00        -0.20849E-01         0.00000E+00
    0.14339E+00        -0.18532E-01         0.00000E+00
    0.14339E+00        -0.16216E-01         0.00000E+00
    0.14339E+00        -0.13899E-01         0.00000E+00
    0.14339E+00        -0.11583E-01         0.00000E+00
    0.14339E+00        -0.92662E-02         0.00000E+00
    0.14339E+00        -0.69496E-02         0.00000E+00
    0.14339E+00        -0.46331E-02         0.00000E+00
    0.14339E+00        -0.23165E-02         0.00000E+00
    0.14339E+00         0.00000E+00         0.00000E+00
    0.14661E+00        -0.34748E-01         0.00000E+00
    0.14661E+00        -0.32432E-01         0.00000E+00
    0.14661E+00        -0.30115E-01         0.00000E+00
    0.14661E+00        -0.27799E-01         0.00000E+00
    0.14661E+00        -0.25482E-01         0.00000E+00
    0.14661E+00        -0.23165E-01         0.00000E+00
    0.14661E+00        -0.20849E-01         0.00000E+00
    0.14661E+00        -0.18532E-01         0.00000E+00
    0.14661E+00        -0.16216E-01         0.00000E+00
    0.14661E+00        -0.13899E-01         0.00000E+00
    0.14661E+00        -0.11583E-01         0.00000E+00
    0.14661E+00        -0.92662E-02         0.00000E+00
    0.14661E+00        -0.69496E-02         0.00000E+00
    0.14661E+00        -0.46331E-02         0.00000E+00
    0.14661E+00        -0.23165E-02         0.00000E+00
    0.14661E+00         0.00000E+00         0.00000E+00
    0.14981E+00        -0.34748E-01         0.00000E+00
    0.14981E+00        -0.32432E-01         0.00000E+00
    0.14981E+00        -0.30115E-01         0.00000E+00
    0.14981E+00        -0.27799E-01         0.00000E+00
    0.14981E+00        -0.25482E-01         0.00000E+00
    0.14981E+00        -0.23165E-01         0.00000E+00
    0.14981E+00        -0.20849E-01         0.00000E+00
    0.14981E+00        -0.18532E-01         0.00000E+00
    0.14981E+00        -0.16216E-01         0.00000E+00
    0.14981E+00        -0.13899E-01         0.00000E+00
    0.14981E+00        -0.11583E-01         0.00000E+00
    0.14981E+00        -0.92662E-02         0.00000E+00
    0.14981E+00        -0.69496E-02         0.00000E+00
    0.14981E+00        -0.46331E-02         0.00000E+00
    0.14981E+00        -0.23165E-02         0.00000E+00
    0.14981E+00         0.00000E+00         0.00000E+00
    0.15299E+00        -0.34748E-01         0.00000E+00
    0.15299E+00        -0.32432E-01         0.00000E+00
    0.15299E+00        -0.30115E-01         0.00000E+00
    0.15299E+00        -0.27799E-01         0.00000E+00
    0.15299E+00        -0.25482E-01         0.00000E+00
    0.15299E+00        -0.23165E-01         0.00000E+00
    0.15299E+00        -0.20849E-01         0.00000E+00
    0.15299E+00        -0.18532E-01         0.00000E+00
    0.15299E+00        -0.16216E-01         0.00000E+00
    0.15299E+00        -0.13899E-01         0.00000E+00
    0.15299E+00        -0.11583E-01         0.00000E+00
    0.15299E+00        -0.92662E-02         0.00000E+00
    0.15299E+00        -0.69496E-02         0.00000E+00
    0.15299E+00        -0.46331E-02         0.00000E+00
    0.15299E+00        -0.23165E-02         0.00000E+00
    0.15299E+00         0.00000E+00         0.00000E+00
    0.15614E+00        -0.34748E-01         0.00000E+00
    0.15614E+00        -0.32432E-01         0.00000E+00
    0.15614E+00        -0.30115E-01         0.00000E+00
    0.15614E+00        -0.27799E-01         0.00000E+00
    0.15614E+00        -0.25482E-01         0.00000E+00
    0.15614E+00        -0.23165E-01         0.00000E+00
    0.15614E+00        -0.20849E-01         0.00000E+00
    0.15614E+00        -0.18532E-01         0.00000E+00
    0.15614E+00        -0.16216E-01         0.00000E+00
    0.15614E+00        -0.13899E-01         0.00000E+00
    0.15614E+00        -0.11583E-01         0.00000E+00
    0.15614E+00        -0.92662E-02         0.00000E+00
    0.15614E+00        -0.69496E-02         0.00000E+00
    0.15614E+00        -0.46331E-02         0.00000E+00
    0.15614E+00        -0.23165E-02         0.00000E+00
    0.15614E+00         0.00000E+00         0.00000E+00
    0.15926E+00        -0.34748E-01         0.00000E+00
    0.15926E+00        -0.32432E-01         0.00000E+00
    0.15926E+00        -0.30115E-01         0.00000E+00
    0.15926E+00        -0.27799E-01         0.00000E+00
    0.15926E+00        -0.25482E-01         0.00000E+00
    0.15926E+00        -0.23165E-01         0.00000E+00
    0.15926E+00        -0.20849E-01         0.00000E+00
    0.15926E+00        -0.18532E-01         0.00000E+00
    0.15926E+00        -0.16216E-01         0.00000E+00
    0.15926E+00        -0.13899E-01         0.00000E+00
    0.15926E+00        -0.11583E-01         0.00000E+00
    0.15926E+00        -0.92662E-02         0.00000E+00
    0.15926E+00        -0.69496E-02         0.00000E+00
    0.15926E+00        -0.46331E-02         0.00000E+00
    0.15926E+00        -0.23165E-02         0.00000E+00
    0.15926E+00         0.00000E+00         0.00000E+00
    0.16236E+00        -0.34748E-01         0.00000E+00
    0.16236E+00        -0.32432E-01         0.00000E+00
    0.16236E+00        -0.30115E-01         0.00000E+00
    0.16236E+00        -0.27799E-01         0.00000E+00
    0.16236E+00        -0.25482E-01         0.00000E+00
    0.16236E+00        -0.23165E-01         0.00000E+00
    0.16236E+00        -0.20849E-01         0.00000E+00
    0.16236E+00        -0.18532E-01         0.00000E+00
    0.16236E+00        -0.16216E-01         0.00000E+00
    0.16236E+00        -0.13899E-01         0.00000E+00
    0.16236E+00        -0.11583E-01         0.00000E+00
    0.16236E+00        -0.92662E-02         0.00000E+00
    0.16236E+00        -0.69496E-02         0.00000E+00
    0.16236E+00        -0.46331E-02         0.00000E+00
    0.16236E+00        -0.23165E-02         0.00000E+00
    0.16236E+00         0.00000E+00         0.00000E+00
    0.16543E+00        -0.34748E-01         0.00000E+00
    0.16543E+00        -0.32432E-01         0.00000E+00
    0.16543E+00        -0.30115E-01         0.00000E+00
    0.16543E+00        -0.27799E-01         0.00000E+00
    0.16543E+00        -0.25482E-01         0.00000E+00
    0.16543E+00        -0.23165E-01         0.00000E+00
    0.16543E+00        -0.20849E-01         0.00000E+00
    0.16543E+00        -0.18532E-01         0.00000E+00
    0.16543E+00        -0.16216E-01         0.00000E+00
    0.16543E+00        -0.13899E-01         0.00000E+00
    0.16543E+00        -0.11583E-01         0.00000E+00
    0.16543E+00        -0.92662E-02         0.00000E+00
    0.16543E+00        -0.69496E-02         0.00000E+00
    0.16543E+00        -0.46331E-02         0.00000E+00
    0.16543E+00        -0.23165E-02         0.00000E+00
    0.16543E+00         0.00000E+00         0.00000E+00
    0.16848E+00        -0.34748E-01         0.00000E+00
    0.16848E+00        -0.32432E-01         0.00000E+00
    0.16848E+00        -0.30115E-01         0.00000E+00
    0.16848E+00        -0.27799E-01         0.00000E+00
    0.16848E+00        -0.25482E-01         0.00000E+00
    0.16848E+00        -0.23165E-01         0.00000E+00
    0.16848E+00        -0.20849E-01         0.00000E+00
    0.16848E+00        -0.18532E-01         0.00000E+00
    0.16848E+00        -0.16216E-01         0.00000E+00
    0.16848E+00        -0.13899E-01         0.00000E+00
    0.16848E+00        -0.11583E-01         0.00000E+00
    0.16848E+00        -0.92662E-02         0.00000E+00
    0.16848E+00        -0.69496E-02         0.00000E+00
    0.16848E+00        -0.46331E-02         0.00000E+00
    0.16848E+00        -0.23165E-02         0.00000E+00
    0.16848E+00         0.00000E+00         0.00000E+00
    0.17149E+00        -0.34748E-01         0.00000E+00
    0.17149E+00        -0.32432E-01         0.00000E+00
    0.17149E+00        -0.30115E-01         0.00000E+00
    0.17149E+00        -0.27799E-01         0.00000E+00
    0.17149E+00        -0.25482E-01         0.00000E+00
    0.17149E+00        -0.23165E-01         0.00000E+00
    0.17149E+00        -0.20849E-01         0.00000E+00
    0.17149E+00        -0.18532E-01         0.00000E+00
    0.17149E+00        -0.16216E-01         0.00000E+00
    0.17149E+00        -0.13899E-01         0.00000E+00
    0.17149E+00        -0.11583E-01         0.00000E+00
    0.17149E+00        -0.92662E-02         0.00000E+00
    0.17149E+00        -0.69496E-02         0.00000E+00
    0.17149E+00        -0.46331E-02         0.00000E+00
    0.17149E+00        -0.23165E-02         0.00000E+00
    0.17149E+00         0.00000E+00         0.00000E+00
    0.17448E+00        -0.34748E-01         0.00000E+00
    0.17448E+00        -0.32432E-01         0.00000E+00
    0.17448E+00        -0.30115E-01         0.00000E+00
    0.17448E+00        -0.27799E-01         0.00000E+00
    0.17448E+00        -0.25482E-01         0.00000E+00
    0.17448E+00        -0.23165E-01         0.00000E+00
    0.17448E+00        -0.20849E-01         0.00000E+00
    0.17448E+00        -0.18532E-01         0.00000E+00
    0.17448E+00        -0.16216E-01         0.00000E+00
    0.17448E+00        -0.13899E-01         0.00000E+00
    0.17448E+00        -0.11583E-01         0.00000E+00
    0.17448E+00        -0.92662E-02         0.00000E+00
    0.17448E+00        -0.69496E-02         0.00000E+00
    0.17448E+00        -0.46331E-02         0.00000E+00
    0.17448E+00        -0.23165E-02         0.00000E+00
    0.17448E+00         0.00000E+00         0.00000E+00
    0.17744E+00        -0.34748E-01         0.00000E+00
    0.17744E+00        -0.32432E-01         0.00000E+00
    0.17744E+00        -0.30115E-01         0.00000E+00
    0.17744E+00        -0.27799E-01         0.00000E+00
    0.17744E+00        -0.25482E-01         0.00000E+00
    0.17744E+00        -0.23165E-01         0.00000E+00
    0.17744E+00        -0.20849E-01         0.00000E+00
    0.17744E+00        -0.18532E-01         0.00000E+00
    0.17744E+00        -0.16216E-01         0.00000E+00
    0.17744E+00        -0.13899E-01         0.00000E+00
    0.17744E+00        -0.11583E-01         0.00000E+00
    0.17744E+00        -0.92662E-02         0.00000E+00
    0.17744E+00        -0.69496E-02         0.00000E+00
    0.17744E+00        -0.46331E-02         0.00000E+00
    0.17744E+00        -0.23165E-02         0.00000E+00
    0.17744E+00         0.00000E+00         0.00000E+00
    0.18036E+00        -0.34748E-01         0.00000E+00
    0.18036E+00        -0.32432E-01         0.00000E+00
    0.18036E+00        -0.30115E-01         0.00000E+00
    0.18036E+00        -0.27799E-01         0.00000E+00
    0.18036E+00        -0.25482E-01         0.00000E+00
    0.18036E+00        -0.23165E-01         0.00000E+00
    0.18036E+00        -0.20849E-01         0.00000E+00
    0.18036E+00        -0.18532E-01         0.00000E+00
    0.18036E+00        -0.16216E-01         0.00000E+00
    0.18036E+00        -0.13899E-01         0.00000E+00
    0.18036E+00        -0.11583E-01         0.00000E+00
    0.18036E+00        -0.92662E-02         0.00000E+00
    0.18036E+00        -0.69496E-02         0.00000E+00
    0.18036E+00        -0.46331E-02         0.00000E+00
    0.18036E+00        -0.23165E-02         0.00000E+00
    0.18036E+00         0.00000E+00         0.00000E+00
    0.18325E+00        -0.34748E-01         0.00000E+00
    0.18325E+00        -0.32432E-01         0.00000E+00
    0.18325E+00        -0.30115E-01         0.00000E+00
    0.18325E+00        -0.27799E-01         0.00000E+00
    0.18325E+00        -0.25482E-01         0.00000E+00
    0.18325E+00        -0.23165E-01         0.00000E+00
    0.18325E+00        -0.20849E-01         0.00000E+00
    0.18325E+00        -0.18532E-01         0.00000E+00
    0.18325E+00        -0.16216E-01         0.00000E+00
    0.18325E+00        -0.13899E-01         0.00000E+00
    0.18325E+00        -0.11583E-01         0.00000E+00
    0.18325E+00        -0.92662E-02         0.00000E+00
    0.18325E+00        -0.69496E-02         0.00000E+00
    0.18325E+00        -0.46331E-02         0.00000E+00
    0.18325E+00        -0.23165E-02         0.00000E+00
    0.18325E+00         0.00000E+00         0.00000E+00
    0.18611E+00        -0.34748E-01         0.00000E+00
    0.18611E+00        -0.32432E-01         0.00000E+00
    0.18611E+00        -0.30115E-01         0.00000E+00
    0.18611E+00        -0.27799E-01         0.00000E+00
    0.18611E+00        -0.25482E-01         0.00000E+00
    0.18611E+00        -0.23165E-01         0.00000E+00
    0.18611E+00        -0.20849E-01         0.00000E+00
    0.18611E+00        -0.18532E-01         0.00000E+00
    0.18611E+00        -0.16216E-01         0.00000E+00
    0.18611E+00        -0.13899E-01         0.00000E+00
    0.18611E+00        -0.11583E-01         0.00000E+00
    0.18611E+00        -0.92662E-02         0.00000E+00
    0.18611E+00        -0.69496E-02         0.00000E+00
    0.18611E+00        -0.46331E-02         0.00000E+00
    0.18611E+00        -0.23165E-02         0.00000E+00
    0.18611E+00         0.00000E+00         0.00000E+00
    0.18893E+00        -0.34748E-01         0.00000E+00
    0.18893E+00        -0.32432E-01         0.00000E+00
    0.18893E+00        -0.30115E-01         0.00000E+00
    0.18893E+00        -0.27799E-01         0.00000E+00
    0.18893E+00        -0.25482E-01         0.00000E+00
    0.18893E+00        -0.23165E-01         0.00000E+00
    0.18893E+00        -0.20849E-01         0.00000E+00
    0.18893E+00        -0.18532E-01         0.00000E+00
    0.18893E+00        -0.16216E-01         0.00000E+00
    0.18893E+00        -0.13899E-01         0.00000E+00
    0.18893E+00        -0.11583E-01         0.00000E+00
    0.18893E+00        -0.92662E-02         0.00000E+00
    0.18893E+00        -0.69496E-02         0.00000E+00
    0.18893E+00        -0.46331E-02         0.00000E+00
    0.18893E+00        -0.23165E-02         0.00000E+00
    0.18893E+00         0.00000E+00         0.00000E+00
    0.19172E+00        -0.34748E-01         0.00000E+00
    0.19172E+00        -0.32432E-01         0.00000E+00
    0.19172E+00        -0.30115E-01         0.00000E+00
    0.19172E+00        -0.27799E-01         0.00000E+00
    0.19172E+00        -0.25482E-01         0.00000E+00
    0.19172E+00        -0.23165E-01         0.00000E+00
    0.19172E+00        -0.20849E-01         0.00000E+00
    0.19172E+00        -0.18532E-01         0.00000E+00
    0.19172E+00        -0.16216E-01         0.00000E+00
    0.19172E+00        -0.13899E-01         0.00000E+00
    0.19172E+00        -0.11583E-01         0.00000E+00
    0.19172E+00        -0.92662E-02         0.00000E+00
    0.19172E+00        -0.69496E-02         0.00000E+00
    0.19172E+00        -0.46331E-02         0.00000E+00
    0.19172E+00        -0.23165E-02         0.00000E+00
    0.19172E+00         0.00000E+00         0.00000E+00
    0.19447E+00        -0.34748E-01         0.00000E+00
    0.19447E+00        -0.32432E-01         0.00000E+00
    0.19447E+00        -0.30115E-01         0.00000E+00
    0.19447E+00        -0.27799E-01         0.00000E+00
    0.19447E+00        -0.25482E-01         0.00000E+00
    0.19447E+00        -0.23165E-01         0.00000E+00
    0.19447E+00        -0.20849E-01         0.00000E+00
    0.19447E+00        -0.18532E-01         0.00000E+00
    0.19447E+00        -0.16216E-01         0.00000E+00
    0.19447E+00        -0.13899E-01         0.00000E+00
    0.19447E+00        -0.11583E-01         0.00000E+00
    0.19447E+00        -0.92662E-02         0.00000E+00
    0.19447E+00        -0.69496E-02         0.00000E+00
    0.19447E+00        -0.46331E-02         0.00000E+00
    0.19447E+00        -0.23165E-02         0.00000E+00
    0.19447E+00         0.00000E+00         0.00000E+00
    0.19718E+00        -0.34748E-01         0.00000E+00
    0.19718E+00        -0.32432E-01         0.00000E+00
    0.19718E+00        -0.30115E-01         0.00000E+00
    0.19718E+00        -0.27799E-01         0.00000E+00
    0.19718E+00        -0.25482E-01         0.00000E+00
    0.19718E+00        -0.23165E-01         0.00000E+00
    0.19718E+00        -0.20849E-01         0.00000E+00
    0.19718E+00        -0.18532E-01         0.00000E+00
    0.19718E+00        -0.16216E-01         0.00000E+00
    0.19718E+00        -0.13899E-01         0.00000E+00
    0.19718E+00        -0.11583E-01         0.00000E+00
    0.19718E+00        -0.92662E-02         0.00000E+00
    0.19718E+00        -0.69496E-02         0.00000E+00
    0.19718E+00        -0.46331E-02         0.00000E+00
    0.19718E+00        -0.23165E-02         0.00000E+00
    0.19718E+00         0.00000E+00         0.00000E+00
    0.19985E+00        -0.34748E-01         0.00000E+00
    0.19985E+00        -0.32432E-01         0.00000E+00
    0.19985E+00        -0.30115E-01         0.00000E+00
    0.19985E+00        -0.27799E-01         0.00000E+00
    0.19985E+00        -0.25482E-01         0.00000E+00
    0.19985E+00        -0.23165E-01         0.00000E+00
    0.19985E+00        -0.20849E-01         0.00000E+00
    0.19985E+00        -0.18532E-01         0.00000E+00
    0.19985E+00        -0.16216E-01         0.00000E+00
    0.19985E+00        -0.13899E-01         0.00000E+00
    0.19985E+00        -0.11583E-01         0.00000E+00
    0.19985E+00        -0.92662E-02         0.00000E+00
    0.19985E+00        -0.69496E-02         0.00000E+00
    0.19985E+00        -0.46331E-02         0.00000E+00
    0.19985E+00        -0.23165E-02         0.00000E+00
    0.19985E+00         0.00000E+00         0.00000E+00
    0.20248E+00        -0.34748E-01         0.00000E+00
    0.20248E+00        -0.32432E-01         0.00000E+00
    0.20248E+00        -0.30115E-01         0.00000E+00
    0.20248E+00        -0.27799E-01         0.00000E+00
    0.20248E+00        -0.25482E-01         0.00000E+00
    0.20248E+00        -0.23165E-01         0.00000E+00
    0.20248E+00        -0.20849E-01         0.00000E+00
    0.20248E+00        -0.18532E-01         0.00000E+00
    0.20248E+00        -0.16216E-01         0.00000E+00
    0.20248E+00        -0.13899E-01         0.00000E+00
    0.20248E+00        -0.11583E-01         0.00000E+00
    0.20248E+00        -0.92662E-02         0.00000E+00
    0.20248E+00        -0.69496E-02         0.00000E+00
    0.20248E+00        -0.46331E-02         0.00000E+00
    0.20248E+00        -0.23165E-02         0.00000E+00
    0.20248E+00         0.00000E+00         0.00000E+00
    0.20507E+00        -0.34748E-01         0.00000E+00
    0.20507E+00        -0.32432E-01         0.00000E+00
    0.20507E+00        -0.30115E-01         0.00000E+00
    0.20507E+00        -0.27799E-01         0.00000E+00
    0.20507E+00        -0.25482E-01         0.00000E+00
    0.20507E+00        -0.23165E-01         0.00000E+00
    0.20507E+00        -0.20849E-01         0.00000E+00
    0.20507E+00        -0.18532E-01         0.00000E+00
    0.20507E+00        -0.16216E-01         0.00000E+00
    0.20507E+00        -0.13899E-01         0.00000E+00
    0.20507E+00        -0.11583E-01         0.00000E+00
    0.20507E+00        -0.92662E-02         0.00000E+00
    0.20507E+00        -0.69496E-02         0.00000E+00
    0.20507E+00        -0.46331E-02         0.00000E+00
    0.20507E+00        -0.23165E-02         0.00000E+00
    0.20507E+00         0.00000E+00         0.00000E+00
    0.20762E+00        -0.34748E-01         0.00000E+00
    0.20762E+00        -0.32432E-01         0.00000E+00
    0.20762E+00        -0.30115E-01         0.00000E+00
    0.20762E+00        -0.27799E-01         0.00000E+00
    0.20762E+00        -0.25482E-01         0.00000E+00
    0.20762E+00        -0.23165E-01         0.00000E+00
    0.20762E+00        -0.20849E-01         0.00000E+00
    0.20762E+00        -0.18532E-01         0.00000E+00
    0.20762E+00        -0.16216E-01         0.00000E+00
    0.20762E+00        -0.13899E-01         0.00000E+00
    0.20762E+00        -0.11583E-01         0.00000E+00
    0.20762E+00        -0.92662E-02         0.00000E+00
    0.20762E+00        -0.69496E-02         0.00000E+00
    0.20762E+00        -0.46331E-02         0.00000E+00
    0.20762E+00        -0.23165E-02         0.00000E+00
    0.20762E+00         0.00000E+00         0.00000E+00
    0.21013E+00        -0.34748E-01         0.00000E+00
    0.21013E+00        -0.32432E-01         0.00000E+00
    0.21013E+00        -0.30115E-01         0.00000E+00
    0.21013E+00        -0.27799E-01         0.00000E+00
    0.21013E+00        -0.25482E-01         0.00000E+00
    0.21013E+00        -0.23165E-01         0.00000E+00
    0.21013E+00        -0.20849E-01         0.00000E+00
    0.21013E+00        -0.18532E-01         0.00000E+00
    0.21013E+00        -0.16216E-01         0.00000E+00
    0.21013E+00        -0.13899E-01         0.00000E+00
    0.21013E+00        -0.11583E-01         0.00000E+00
    0.21013E+00        -0.92662E-02         0.00000E+00
    0.21013E+00        -0.69496E-02         0.00000E+00
    0.21013E+00        -0.46331E-02         0.00000E+00
    0.21013E+00        -0.23165E-02         0.00000E+00
    0.21013E+00         0.00000E+00         0.00000E+00
    0.21258E+00        -0.34748E-01         0.00000E+00
    0.21258E+00        -0.32432E-01         0.00000E+00
    0.21258E+00        -0.30115E-01         0.00000E+00
    0.21258E+00        -0.27799E-01         0.00000E+00
    0.21258E+00        -0.25482E-01         0.00000E+00
    0.21258E+00        -0.23165E-01         0.00000E+00
    0.21258E+00        -0.20849E-01         0.00000E+00
    0.21258E+00        -0.18532E-01         0.00000E+00
    0.21258E+00        -0.16216E-01         0.00000E+00
    0.21258E+00        -0.13899E-01         0.00000E+00
    0.21258E+00        -0.11583E-01         0.00000E+00
    0.21258E+00        -0.92662E-02         0.00000E+00
    0.21258E+00        -0.69496E-02         0.00000E+00
    0.21258E+00        -0.46331E-02         0.00000E+00
    0.21258E+00        -0.23165E-02         0.00000E+00
    0.21258E+00         0.00000E+00         0.00000E+00
    0.21500E+00        -0.34748E-01         0.00000E+00
    0.21500E+00        -0.32432E-01         0.00000E+00
    0.21500E+00        -0.30115E-01         0.00000E+00
    0.21500E+00        -0.27799E-01         0.00000E+00
    0.21500E+00        -0.25482E-01         0.00000E+00
    0.21500E+00        -0.23165E-01         0.00000E+00
    0.21500E+00        -0.20849E-01         0.00000E+00
    0.21500E+00        -0.18532E-01         0.00000E+00
    0.21500E+00        -0.16216E-01         0.00000E+00
    0.21500E+00        -0.13899E-01         0.00000E+00
    0.21500E+00        -0.11583E-01         0.00000E+00
    0.21500E+00        -0.92662E-02         0.00000E+00
    0.21500E+00        -0.69496E-02         0.00000E+00
    0.21500E+00        -0.46331E-02         0.00000E+00
    0.21500E+00        -0.23165E-02         0.00000E+00
    0.21500E+00         0.00000E+00         0.00000E+00
    0.21736E+00        -0.34748E-01         0.00000E+00
    0.21736E+00        -0.32432E-01         0.00000E+00
    0.21736E+00        -0.30115E-01         0.00000E+00
    0.21736E+00        -0.27799E-01         0.00000E+00
    0.21736E+00        -0.25482E-01         0.00000E+00
    0.21736E+00        -0.23165E-01         0.00000E+00
    0.21736E+00        -0.20849E-01         0.00000E+00
    0.21736E+00        -0.18532E-01         0.00000E+00
    0.21736E+00        -0.16216E-01         0.00000E+00
    0.21736E+00        -0.13899E-01         0.00000E+00
    0.21736E+00        -0.11583E-01         0.00000E+00
    0.21736E+00        -0.92662E-02         0.00000E+00
    0.21736E+00        -0.69496E-02         0.00000E+00
    0.21736E+00        -0.46331E-02         0.00000E+00
    0.21736E+00        -0.23165E-02         0.00000E+00
    0.21736E+00         0.00000E+00         0.00000E+00
    0.21968E+00        -0.34748E-01         0.00000E+00
    0.21968E+00        -0.32432E-01         0.00000E+00
    0.21968E+00        -0.30115E-01         0.00000E+00
    0.21968E+00        -0.27799E-01         0.00000E+00
    0.21968E+00        -0.25482E-01         0.00000E+00
    0.21968E+00        -0.23165E-01         0.00000E+00
    0.21968E+00        -0.20849E-01         0.00000E+00
    0.21968E+00        -0.18532E-01         0.00000E+00
    0.21968E+00        -0.16216E-01         0.00000E+00
    0.21968E+00        -0.13899E-01         0.00000E+00
    0.21968E+00        -0.11583E-01         0.00000E+00
    0.21968E+00        -0.92662E-02         0.00000E+00
    0.21968E+00        -0.69496E-02         0.00000E+00
    0.21968E+00        -0.46331E-02         0.00000E+00
    0.21968E+00        -0.23165E-02         0.00000E+00
    0.21968E+00         0.00000E+00         0.00000E+00
    0.22195E+00        -0.34748E-01         0.00000E+00
    0.22195E+00        -0.32432E-01         0.00000E+00
    0.22195E+00        -0.30115E-01         0.00000E+00
    0.22195E+00        -0.27799E-01         0.00000E+00
    0.22195E+00        -0.25482E-01         0.00000E+00
    0.22195E+00        -0.23165E-01         0.00000E+00
    0.22195E+00        -0.20849E-01         0.00000E+00
    0.22195E+00        -0.18532E-01         0.00000E+00
    0.22195E+00        -0.16216E-01         0.00000E+00
    0.22195E+00        -0.13899E-01         0.00000E+00
    0.22195E+00        -0.11583E-01         0.00000E+00
    0.22195E+00        -0.92662E-02         0.00000E+00
    0.22195E+00        -0.69496E-02         0.00000E+00
    0.22195E+00        -0.46331E-02         0.00000E+00
    0.22195E+00        -0.23165E-02         0.00000E+00
    0.22195E+00         0.00000E+00         0.00000E+00
    0.22417E+00        -0.34748E-01         0.00000E+00
    0.22417E+00        -0.32432E-01         0.00000E+00
    0.22417E+00        -0.30115E-01         0.00000E+00
    0.22417E+00        -0.27799E-01         0.00000E+00
    0.22417E+00        -0.25482E-01         0.00000E+00
    0.22417E+00        -0.23165E-01         0.00000E+00
    0.22417E+00        -0.20849E-01         0.00000E+00
    0.22417E+00        -0.18532E-01         0.00000E+00
    0.22417E+00        -0.16216E-01         0.00000E+00
    0.22417E+00        -0.13899E-01         0.00000E+00
    0.22417E+00        -0.11583E-01         0.00000E+00
    0.22417E+00        -0.92662E-02         0.00000E+00
    0.22417E+00        -0.69496E-02         0.00000E+00
    0.22417E+00        -0.46331E-02         0.00000E+00
    0.22417E+00        -0.23165E-02         0.00000E+00
    0.22417E+00         0.00000E+00         0.00000E+00
    0.22633E+00        -0.34748E-01         0.00000E+00
    0.22633E+00        -0.32432E-01         0.00000E+00
    0.22633E+00        -0.30115E-01         0.00000E+00
    0.22633E+00        -0.27799E-01         0.00000E+00
    0.22633E+00        -0.25482E-01         0.00000E+00
    0.22633E+00        -0.23165E-01         0.00000E+00
    0.22633E+00        -0.20849E-01         0.00000E+00
    0.22633E+00        -0.18532E-01         0.00000E+00
    0.22633E+00        -0.16216E-01         0.00000E+00
    0.22633E+00        -0.13899E-01         0.00000E+00
    0.22633E+00        -0.11583E-01         0.00000E+00
    0.22633E+00        -0.92662E-02         0.00000E+00
    0.22633E+00        -0.69496E-02         0.00000E+00
    0.22633E+00        -0.46331E-02         0.00000E+00
    0.22633E+00        -0.23165E-02         0.00000E+00
    0.22633E+00         0.00000E+00         0.00000E+00
    0.22845E+00        -0.34748E-01         0.00000E+00
    0.22845E+00        -0.32432E-01         0.00000E+00
    0.22845E+00        -0.30115E-01         0.00000E+00
    0.22845E+00        -0.27799E-01         0.00000E+00
    0.22845E+00        -0.25482E-01         0.00000E+00
    0.22845E+00        -0.23165E-01         0.00000E+00
    0.22845E+00        -0.20849E-01         0.00000E+00
    0.22845E+00        -0.18532E-01         0.00000E+00
    0.22845E+00        -0.16216E-01         0.00000E+00
    0.22845E+00        -0.13899E-01         0.00000E+00
    0.22845E+00        -0.11583E-01         0.00000E+00
    0.22845E+00        -0.92662E-02         0.00000E+00
    0.22845E+00        -0.69496E-02         0.00000E+00
    0.22845E+00        -0.46331E-02         0.00000E+00
    0.22845E+00        -0.23165E-02         0.00000E+00
    0.22845E+00         0.00000E+00         0.00000E+00
    0.23051E+00        -0.34748E-01         0.00000E+00
    0.23051E+00        -0.32432E-01         0.00000E+00
    0.23051E+00        -0.30115E-01         0.00000E+00
    0.23051E+00        -0.27799E-01         0.00000E+00
    0.23051E+00        -0.25482E-01         0.00000E+00
    0.23051E+00        -0.23165E-01         0.00000E+00
    0.23051E+00        -0.20849E-01         0.00000E+00
    0.23051E+00        -0.18532E-01         0.00000E+00
    0.23051E+00        -0.16216E-01         0.00000E+00
    0.23051E+00        -0.13899E-01         0.00000E+00
    0.23051E+00        -0.11583E-01         0.00000E+00
    0.23051E+00        -0.92662E-02         0.00000E+00
    0.23051E+00        -0.69496E-02         0.00000E+00
    0.23051E+00        -0.46331E-02         0.00000E+00
    0.23051E+00        -0.23165E-02         0.00000E+00
    0.23051E+00         0.00000E+00         0.00000E+00
    0.23251E+00        -0.34748E-01         0.00000E+00
    0.23251E+00        -0.32432E-01         0.00000E+00
    0.23251E+00        -0.30115E-01         0.00000E+00
    0.23251E+00        -0.27799E-01         0.00000E+00
    0.23251E+00        -0.25482E-01         0.00000E+00
    0.23251E+00        -0.23165E-01         0.00000E+00
    0.23251E+00        -0.20849E-01         0.00000E+00
    0.23251E+00        -0.18532E-01         0.00000E+00
    0.23251E+00        -0.16216E-01         0.00000E+00
    0.23251E+00        -0.13899E-01         0.00000E+00
    0.23251E+00        -0.11583E-01         0.00000E+00
    0.23251E+00        -0.92662E-02         0.00000E+00
    0.23251E+00        -0.69496E-02         0.00000E+00
    0.23251E+00        -0.46331E-02         0.00000E+00
    0.23251E+00        -0.23165E-02         0.00000E+00
    0.23251E+00         0.00000E+00         0.00000E+00
    0.23446E+00        -0.34748E-01         0.00000E+00
    0.23446E+00        -0.32432E-01         0.00000E+00
    0.23446E+00        -0.30115E-01         0.00000E+00
    0.23446E+00        -0.27799E-01         0.00000E+00
    0.23446E+00        -0.25482E-01         0.00000E+00
    0.23446E+00        -0.23165E-01         0.00000E+00
    0.23446E+00        -0.20849E-01         0.00000E+00
    0.23446E+00        -0.18532E-01         0.00000E+00
    0.23446E+00        -0.16216E-01         0.00000E+00
    0.23446E+00        -0.13899E-01         0.00000E+00
    0.23446E+00        -0.11583E-01         0.00000E+00
    0.23446E+00        -0.92662E-02         0.00000E+00
    0.23446E+00        -0.69496E-02         0.00000E+00
    0.23446E+00        -0.46331E-02         0.00000E+00
    0.23446E+00        -0.23165E-02         0.00000E+00
    0.23446E+00         0.00000E+00         0.00000E+00
    0.23635E+00        -0.34748E-01         0.00000E+00
    0.23635E+00        -0.32432E-01         0.00000E+00
    0.23635E+00        -0.30115E-01         0.00000E+00
    0.23635E+00        -0.27799E-01         0.00000E+00
    0.23635E+00        -0.25482E-01         0.00000E+00
    0.23635E+00        -0.23165E-01         0.00000E+00
    0.23635E+00        -0.20849E-01         0.00000E+00
    0.23635E+00        -0.18532E-01         0.00000E+00
    0.23635E+00        -0.16216E-01         0.00000E+00
    0.23635E+00        -0.13899E-01         0.00000E+00
    0.23635E+00        -0.11583E-01         0.00000E+00
    0.23635E+00        -0.92662E-02         0.00000E+00
    0.23635E+00        -0.69496E-02         0.00000E+00
    0.23635E+00        -0.46331E-02         0.00000E+00
    0.23635E+00        -0.23165E-02         0.00000E+00
    0.23635E+00         0.00000E+00         0.00000E+00
    0.23818E+00        -0.34748E-01         0.00000E+00
    0.23818E+00        -0.32432E-01         0.00000E+00
    0.23818E+00        -0.30115E-01         0.00000E+00
    0.23818E+00        -0.27799E-01         0.00000E+00
    0.23818E+00        -0.25482E-01         0.00000E+00
    0.23818E+00        -0.23165E-01         0.00000E+00
    0.23818E+00        -0.20849E-01         0.00000E+00
    0.23818E+00        -0.18532E-01         0.00000E+00
    0.23818E+00        -0.16216E-01         0.00000E+00
    0.23818E+00        -0.13899E-01         0.00000E+00
    0.23818E+00        -0.11583E-01         0.00000E+00
    0.23818E+00        -0.92662E-02         0.00000E+00
    0.23818E+00        -0.69496E-02         0.00000E+00
    0.23818E+00        -0.46331E-02         0.00000E+00
    0.23818E+00        -0.23165E-02         0.00000E+00
    0.23818E+00         0.00000E+00         0.00000E+00
    0.23995E+00        -0.34748E-01         0.00000E+00
    0.23995E+00        -0.32432E-01         0.00000E+00
    0.23995E+00        -0.30115E-01         0.00000E+00
    0.23995E+00        -0.27799E-01         0.00000E+00
    0.23995E+00        -0.25482E-01         0.00000E+00
    0.23995E+00        -0.23165E-01         0.00000E+00
    0.23995E+00        -0.20849E-01         0.00000E+00
    0.23995E+00        -0.18532E-01         0.00000E+00
    0.23995E+00        -0.16216E-01         0.00000E+00
    0.23995E+00        -0.13899E-01         0.00000E+00
    0.23995E+00        -0.11583E-01         0.00000E+00
    0.23995E+00        -0.92662E-02         0.00000E+00
    0.23995E+00        -0.69496E-02         0.00000E+00
    0.23995E+00        -0.46331E-02         0.00000E+00
    0.23995E+00        -0.23165E-02         0.00000E+00
    0.23995E+00         0.00000E+00         0.00000E+00
    0.24166E+00        -0.34748E-01         0.00000E+00
    0.24166E+00        -0.32432E-01         0.00000E+00
    0.24166E+00        -0.30115E-01         0.00000E+00
    0.24166E+00        -0.27799E-01         0.00000E+00
    0.24166E+00        -0.25482E-01         0.00000E+00
    0.24166E+00        -0.23165E-01         0.00000E+00
    0.24166E+00        -0.20849E-01         0.00000E+00
    0.24166E+00        -0.18532E-01         0.00000E+00
    0.24166E+00        -0.16216E-01         0.00000E+00
    0.24166E+00        -0.13899E-01         0.00000E+00
    0.24166E+00        -0.11583E-01         0.00000E+00
    0.24166E+00        -0.92662E-02         0.00000E+00
    0.24166E+00        -0.69496E-02         0.00000E+00
    0.24166E+00        -0.46331E-02         0.00000E+00
    0.24166E+00        -0.23165E-02         0.00000E+00
    0.24166E+00         0.00000E+00         0.00000E+00
    0.24332E+00        -0.34748E-01         0.00000E+00
    0.24332E+00        -0.32432E-01         0.00000E+00
    0.24332E+00        -0.30115E-01         0.00000E+00
    0.24332E+00        -0.27799E-01         0.00000E+00
    0.24332E+00        -0.25482E-01         0.00000E+00
    0.24332E+00        -0.23165E-01         0.00000E+00
    0.24332E+00        -0.20849E-01         0.00000E+00
    0.24332E+00        -0.18532E-01         0.00000E+00
    0.24332E+00        -0.16216E-01         0.00000E+00
    0.24332E+00        -0.13899E-01         0.00000E+00
    0.24332E+00        -0.11583E-01         0.00000E+00
    0.24332E+00        -0.92662E-02         0.00000E+00
    0.24332E+00        -0.69496E-02         0.00000E+00
    0.24332E+00        -0.46331E-02         0.00000E+00
    0.24332E+00        -0.23165E-02         0.00000E+00
    0.24332E+00         0.00000E+00         0.00000E+00
    0.24490E+00        -0.34748E-01         0.00000E+00
    0.24490E+00        -0.32432E-01         0.00000E+00
    0.24490E+00        -0.30115E-01         0.00000E+00
    0.24490E+00        -0.27799E-01         0.00000E+00
    0.24490E+00        -0.25482E-01         0.00000E+00
    0.24490E+00        -0.23165E-01         0.00000E+00
    0.24490E+00        -0.20849E-01         0.00000E+00
    0.24490E+00        -0.18532E-01         0.00000E+00
    0.24490E+00        -0.16216E-01         0.00000E+00
    0.24490E+00        -0.13899E-01         0.00000E+00
    0.24490E+00        -0.11583E-01         0.00000E+00
    0.24490E+00        -0.92662E-02         0.00000E+00
    0.24490E+00        -0.69496E-02         0.00000E+00
    0.24490E+00        -0.46331E-02         0.00000E+00
    0.24490E+00        -0.23165E-02         0.00000E+00
    0.24490E+00         0.00000E+00         0.00000E+00
    0.24643E+00        -0.34748E-01         0.00000E+00
    0.24643E+00        -0.32432E-01         0.00000E+00
    0.24643E+00        -0.30115E-01         0.00000E+00
    0.24643E+00        -0.27799E-01         0.00000E+00
    0.24643E+00        -0.25482E-01         0.00000E+00
    0.24643E+00        -0.23165E-01         0.00000E+00
    0.24643E+00        -0.20849E-01         0.00000E+00
    0.24643E+00        -0.18532E-01         0.00000E+00
    0.24643E+00        -0.16216E-01         0.00000E+00
    0.24643E+00        -0.13899E-01         0.00000E+00
    0.24643E+00        -0.11583E-01         0.00000E+00
    0.24643E+00        -0.92662E-02         0.00000E+00
    0.24643E+00        -0.69496E-02         0.00000E+00
    0.24643E+00        -0.46331E-02         0.00000E+00
    0.24643E+00        -0.23165E-02         0.00000E+00
    0.24643E+00         0.00000E+00         0.00000E+00
    0.24789E+00        -0.34748E-01         0.00000E+00
    0.24789E+00        -0.32432E-01         0.00000E+00
    0.24789E+00        -0.30115E-01         0.00000E+00
    0.24789E+00        -0.27799E-01         0.00000E+00
    0.24789E+00        -0.25482E-01         0.00000E+00
    0.24789E+00        -0.23165E-01         0.00000E+00
    0.24789E+00        -0.20849E-01         0.00000E+00
    0.24789E+00        -0.18532E-01         0.00000E+00
    0.24789E+00        -0.16216E-01         0.00000E+00
    0.24789E+00        -0.13899E-01         0.00000E+00
    0.24789E+00        -0.11583E-01         0.00000E+00
    0.24789E+00        -0.92662E-02         0.00000E+00
    0.24789E+00        -0.69496E-02         0.00000E+00
    0.24789E+00        -0.46331E-02         0.00000E+00
    0.24789E+00        -0.23165E-02         0.00000E+00
    0.24789E+00         0.00000E+00         0.00000E+00
    0.24929E+00        -0.34748E-01         0.00000E+00
    0.24929E+00        -0.32432E-01         0.00000E+00
    0.24929E+00        -0.30115E-01         0.00000E+00
    0.24929E+00        -0.27799E-01         0.00000E+00
    0.24929E+00        -0.25482E-01         0.00000E+00
    0.24929E+00        -0.23165E-01         0.00000E+00
    0.24929E+00        -0.20849E-01         0.00000E+00
    0.24929E+00        -0.18532E-01         0.00000E+00
    0.24929E+00        -0.16216E-01         0.00000E+00
    0.24929E+00        -0.13899E-01         0.00000E+00
    0.24929E+00        -0.11583E-01         0.00000E+00
    0.24929E+00        -0.92662E-02         0.00000E+00
    0.24929E+00        -0.69496E-02         0.00000E+00
    0.24929E+00        -0.46331E-02         0.00000E+00
    0.24929E+00        -0.23165E-02         0.00000E+00
    0.24929E+00         0.00000E+00         0.00000E+00
    0.25062E+00        -0.34748E-01         0.00000E+00
    0.25062E+00        -0.32432E-01         0.00000E+00
    0.25062E+00        -0.30115E-01         0.00000E+00
    0.25062E+00        -0.27799E-01         0.00000E+00
    0.25062E+00        -0.25482E-01         0.00000E+00
    0.25062E+00        -0.23165E-01         0.00000E+00
    0.25062E+00        -0.20849E-01         0.00000E+00
    0.25062E+00        -0.18532E-01         0.00000E+00
    0.25062E+00        -0.16216E-01         0.00000E+00
    0.25062E+00        -0.13899E-01         0.00000E+00
    0.25062E+00        -0.11583E-01         0.00000E+00
    0.25062E+00        -0.92662E-02         0.00000E+00
    0.25062E+00        -0.69496E-02         0.00000E+00
    0.25062E+00        -0.46331E-02         0.00000E+00
    0.25062E+00        -0.23165E-02         0.00000E+00
    0.25062E+00         0.00000E+00         0.00000E+00
    0.25189E+00        -0.34748E-01         0.00000E+00
    0.25189E+00        -0.32432E-01         0.00000E+00
    0.25189E+00        -0.30115E-01         0.00000E+00
    0.25189E+00        -0.27799E-01         0.00000E+00
    0.25189E+00        -0.25482E-01         0.00000E+00
    0.25189E+00        -0.23165E-01         0.00000E+00
    0.25189E+00        -0.20849E-01         0.00000E+00
    0.25189E+00        -0.18532E-01         0.00000E+00
    0.25189E+00        -0.16216E-01         0.00000E+00
    0.25189E+00        -0.13899E-01         0.00000E+00
    0.25189E+00        -0.11583E-01         0.00000E+00
    0.25189E+00        -0.92662E-02         0.00000E+00
    0.25189E+00        -0.69496E-02         0.00000E+00
    0.25189E+00        -0.46331E-02         0.00000E+00
    0.25189E+00        -0.23165E-02         0.00000E+00
    0.25189E+00         0.00000E+00         0.00000E+00
    0.25309E+00        -0.34748E-01         0.00000E+00
    0.25309E+00        -0.32432E-01         0.00000E+00
    0.25309E+00        -0.30115E-01         0.00000E+00
    0.25309E+00        -0.27799E-01         0.00000E+00
    0.25309E+00        -0.25482E-01         0.00000E+00
    0.25309E+00        -0.23165E-01         0.00000E+00
    0.25309E+00        -0.20849E-01         0.00000E+00
    0.25309E+00        -0.18532E-01         0.00000E+00
    0.25309E+00        -0.16216E-01         0.00000E+00
    0.25309E+00        -0.13899E-01         0.00000E+00
    0.25309E+00        -0.11583E-01         0.00000E+00
    0.25309E+00        -0.92662E-02         0.00000E+00
    0.25309E+00        -0.69496E-02         0.00000E+00
    0.25309E+00        -0.46331E-02         0.00000E+00
    0.25309E+00        -0.23165E-02         0.00000E+00
    0.25309E+00         0.00000E+00         0.00000E+00
    0.25423E+00        -0.34748E-01         0.00000E+00
    0.25423E+00        -0.32432E-01         0.00000E+00
    0.25423E+00        -0.30115E-01         0.00000E+00
    0.25423E+00        -0.27799E-01         0.00000E+00
    0.25423E+00        -0.25482E-01         0.00000E+00
    0.25423E+00        -0.23165E-01         0.00000E+00
    0.25423E+00        -0.20849E-01         0.00000E+00
    0.25423E+00        -0.18532E-01         0.00000E+00
    0.25423E+00        -0.16216E-01         0.00000E+00
    0.25423E+00        -0.13899E-01         0.00000E+00
    0.25423E+00        -0.11583E-01         0.00000E+00
    0.25423E+00        -0.92662E-02         0.00000E+00
    0.25423E+00        -0.69496E-02         0.00000E+00
    0.25423E+00        -0.46331E-02         0.00000E+00
    0.25423E+00        -0.23165E-02         0.00000E+00
    0.25423E+00         0.00000E+00         0.00000E+00
    0.25529E+00        -0.34748E-01         0.00000E+00
    0.25529E+00        -0.32432E-01         0.00000E+00
    0.25529E+00        -0.30115E-01         0.00000E+00
    0.25529E+00        -0.27799E-01         0.00000E+00
    0.25529E+00        -0.25482E-01         0.00000E+00
    0.25529E+00        -0.23165E-01         0.00000E+00
    0.25529E+00        -0.20849E-01         0.00000E+00
    0.25529E+00        -0.18532E-01         0.00000E+00
    0.25529E+00        -0.16216E-01         0.00000E+00
    0.25529E+00        -0.13899E-01         0.00000E+00
    0.25529E+00        -0.11583E-01         0.00000E+00
    0.25529E+00        -0.92662E-02         0.00000E+00
    0.25529E+00        -0.69496E-02         0.00000E+00
    0.25529E+00        -0.46331E-02         0.00000E+00
    0.25529E+00        -0.23165E-02         0.00000E+00
    0.25529E+00         0.00000E+00         0.00000E+00
    0.25629E+00        -0.34748E-01         0.00000E+00
    0.25629E+00        -0.32432E-01         0.00000E+00
    0.25629E+00        -0.30115E-01         0.00000E+00
    0.25629E+00        -0.27799E-01         0.00000E+00
    0.25629E+00        -0.25482E-01         0.00000E+00
    0.25629E+00        -0.23165E-01         0.00000E+00
    0.25629E+00        -0.20849E-01         0.00000E+00
    0.25629E+00        -0.18532E-01         0.00000E+00
    0.25629E+00        -0.16216E-01         0.00000E+00
    0.25629E+00        -0.13899E-01         0.00000E+00
    0.25629E+00        -0.11583E-01         0.00000E+00
    0.25629E+00        -0.92662E-02         0.00000E+00
    0.25629E+00        -0.69496E-02         0.00000E+00
    0.25629E+00        -0.46331E-02         0.00000E+00
    0.25629E+00        -0.23165E-02         0.00000E+00
    0.25629E+00         0.00000E+00         0.00000E+00
CELL_DATA       1350
VECTORS vDarcy double 
    0.17535E-08         0.14552E-20         0.00000E+00
    0.17535E-08        -0.10914E-19         0.00000E+00
    0.17535E-08        -0.21828E-20         0.00000E+00
    0.17535E-08        -0.21828E-20         0.00000E+00
    0.17535E-08        -0.94587E-20         0.00000E+00
    0.17535E-08        -0.14552E-19         0.00000E+00
    0.17535E-08        -0.36380E-20         0.00000E+00
    0.17535E-08         0.00000E+00         0.00000E+00
    0.17535E-08         0.00000E+00         0.00000E+00
    0.17535E-08         0.72760E-21         0.00000E+00
    0.17535E-08        -0.10914E-19         0.00000E+00
    0.17535E-08         0.10186E-19         0.00000E+00
    0.17535E-08         0.36380E-20         0.00000E+00
    0.17535E-08         0.00000E+00         0.00000E+00
    0.17535E-08         0.36380E-20         0.00000E+00
    0.52626E-08         0.29104E-20         0.00000E+00
    0.52626E-08        -0.16007E-19         0.00000E+00
    0.52626E-08         0.72760E-20         0.00000E+00
    0.52626E-08        -0.72760E-21         0.00000E+00
    0.52626E-08        -0.18190E-19         0.00000E+00
    0.52626E-08        -0.72760E-20         0.00000E+00
    0.52626E-08         0.50932E-20         0.00000E+00
    0.52626E-08        -0.80036E-20         0.00000E+00
    0.52626E-08         0.36380E-20         0.00000E+00
    0.52626E-08        -0.14552E-19         0.00000E+00
    0.52626E-08         0.21828E-20         0.00000E+00
    0.52626E-08         0.19645E-19         0.00000E+00
    0.52626E-08        -0.72760E-21         0.00000E+00
    0.52626E-08        -0.36380E-20         0.00000E+00
    0.52626E-08         0.94587E-20         0.00000E+00
    0.87785E-08        -0.50932E-20         0.00000E+00
    0.87785E-08         0.43656E-20         0.00000E+00
    0.87785E-08         0.14552E-20         0.00000E+00
    0.87785E-08        -0.17462E-19         0.00000E+00
    0.87785E-08        -0.13824E-19         0.00000E+00
    0.87785E-08        -0.87311E-20         0.00000E+00
    0.87785E-08         0.72760E-21         0.00000E+00
    0.87785E-08        -0.87311E-20         0.00000E+00
    0.87785E-08         0.10914E-19         0.00000E+00
    0.87785E-08        -0.29104E-20         0.00000E+00
    0.87785E-08         0.10914E-19         0.00000E+00
    0.87785E-08        -0.72760E-21         0.00000E+00
    0.87785E-08         0.80036E-20         0.00000E+00
    0.87785E-08        -0.29104E-20         0.00000E+00
    0.87785E-08        -0.36380E-20         0.00000E+00
    0.12306E-07        -0.13824E-19         0.00000E+00
    0.12306E-07        -0.72760E-21         0.00000E+00
    0.12306E-07        -0.80036E-20         0.00000E+00
    0.12306E-07        -0.10914E-19         0.00000E+00
    0.12306E-07        -0.11642E-19         0.00000E+00
    0.12306E-07         0.00000E+00         0.00000E+00
    0.12306E-07        -0.20373E-19         0.00000E+00
    0.12306E-07        -0.36380E-20         0.00000E+00
    0.12306E-07         0.43656E-20         0.00000E+00
    0.12306E-07         0.18190E-19         0.00000E+00
    0.12306E-07         0.72760E-20         0.00000E+00
    0.12306E-07        -0.10186E-19         0.00000E+00
    0.12306E-07         0.23283E-19         0.00000E+00
    0.12306E-07        -0.80036E-20         0.00000E+00
    0.12306E-07         0.21828E-20         0.00000E+00
    0.15849E-07         0.29104E-20         0.00000E+00
    0.15849E-07        -0.13097E-19         0.00000E+00
    0.15849E-07        -0.10186E-19         0.00000E+00
    0.15849E-07         0.36380E-20         0.00000E+00
    0.15849E-07         0.47294E-20         0.00000E+00
    0.15849E-07         0.00000E+00         0.00000E+00
    0.15849E-07        -0.18917E-19         0.00000E+00
    0.15849E-07        -0.16371E-19         0.00000E+00
    0.15849E-07        -0.38086E-35         0.00000E+00
    0.15849E-07         0.29104E-20         0.00000E+00
    0.15849E-07         0.10186E-19         0.00000E+00
    0.15849E-07         0.14552E-20         0.00000E+00
    0.15849E-07         0.13097E-19         0.00000E+00
    0.15849E-07        -0.72760E-21         0.00000E+00
    0.15849E-07         0.87311E-20         0.00000E+00
    0.19412E-07         0.72760E-20         0.00000E+00
    0.19412E-07        -0.65484E-20         0.00000E+00
    0.19412E-07        -0.76398E-20         0.00000E+00
    0.19412E-07         0.16007E-19         0.00000E+00
    0.19412E-07         0.65484E-20         0.00000E+00
    0.19412E-07        -0.36380E-20         0.00000E+00
    0.19412E-07        -0.13097E-19         0.00000E+00
    0.19412E-07        -0.10914E-19         0.00000E+00
    0.19412E-07        -0.43656E-20         0.00000E+00
    0.19412E-07        -0.29104E-20         0.00000E+00
    0.19412E-07         0.14552E-20         0.00000E+00
    0.19412E-07         0.14552E-20         0.00000E+00
    0.19412E-07         0.12369E-19         0.00000E+00
    0.19412E-07         0.13824E-19         0.00000E+00
    0.19412E-07         0.00000E+00         0.00000E+00
    0.23000E-07        -0.10186E-19         0.00000E+00
    0.23000E-07         0.65484E-20         0.00000E+00
    0.23000E-07        -0.21828E-20         0.00000E+00
    0.23000E-07         0.72760E-20         0.00000E+00
    0.23000E-07         0.36380E-20         0.00000E+00
    0.23000E-07         0.72760E-21         0.00000E+00
    0.23000E-07        -0.87311E-20         0.00000E+00
    0.23000E-07        -0.72760E-21         0.00000E+00
    0.23000E-07        -0.87311E-20         0.00000E+00
    0.23000E-07         0.00000E+00         0.00000E+00
    0.23000E-07        -0.87311E-20         0.00000E+00
    0.23000E-07         0.10186E-19         0.00000E+00
    0.23000E-07         0.87311E-20         0.00000E+00
    0.23000E-07         0.11642E-19         0.00000E+00
    0.23000E-07        -0.21828E-20         0.00000E+00
    0.26618E-07        -0.50932E-20         0.00000E+00
    0.26618E-07         0.80036E-20         0.00000E+00
    0.26618E-07        -0.29104E-20         0.00000E+00
    0.26618E-07        -0.36380E-20         0.00000E+00
    0.26618E-07         0.94587E-20         0.00000E+00
    0.26618E-07         0.72760E-20         0.00000E+00
    0.26618E-07         0.11642E-19         0.00000E+00
    0.26618E-07         0.80036E-20         0.00000E+00
    0.26618E-07        -0.13097E-19         0.00000E+00
    0.26618E-07        -0.80036E-20         0.00000E+00
    0.26618E-07        -0.21100E-19         0.00000E+00
    0.26618E-07        -0.58208E-20         0.00000E+00
    0.26618E-07         0.14552E-19         0.00000E+00
    0.26618E-07        -0.10186E-19         0.00000E+00
    0.26618E-07         0.16007E-19         0.00000E+00
    0.30269E-07        -0.40018E-20         0.00000E+00
    0.30269E-07         0.58208E-20         0.00000E+00
    0.30269E-07        -0.18917E-19         0.00000E+00
    0.30269E-07         0.14552E-20         0.00000E+00
    0.30269E-07         0.94587E-20         0.00000E+00
    0.30269E-07         0.17462E-19         0.00000E+00
    0.30269E-07         0.72760E-21         0.00000E+00
    0.30269E-07         0.11642E-19         0.00000E+00
    0.30269E-07        -0.18190E-19         0.00000E+00
    0.30269E-07        -0.13824E-19         0.00000E+00
    0.30269E-07        -0.25466E-19         0.00000E+00
    0.30269E-07        -0.16371E-19         0.00000E+00
    0.30269E-07         0.11642E-19         0.00000E+00
    0.30269E-07        -0.11642E-19         0.00000E+00
    0.30269E-07         0.14552E-19         0.00000E+00
    0.33959E-07         0.72760E-21         0.00000E+00
    0.33959E-07         0.80036E-20         0.00000E+00
    0.33959E-07        -0.14552E-19         0.00000E+00
    0.33959E-07        -0.33008E-35         0.00000E+00
    0.33959E-07         0.14552E-20         0.00000E+00
    0.33959E-07         0.10914E-19         0.00000E+00
    0.33959E-07        -0.15280E-19         0.00000E+00
    0.33959E-07        -0.72760E-20         0.00000E+00
    0.33959E-07        -0.80036E-20         0.00000E+00
    0.33959E-07        -0.12369E-19         0.00000E+00
    0.33959E-07        -0.15280E-19         0.00000E+00
    0.33959E-07        -0.13824E-19         0.00000E+00
    0.33959E-07         0.17462E-19         0.00000E+00
    0.33959E-07         0.72760E-21         0.00000E+00
    0.33959E-07         0.43656E-20         0.00000E+00
    0.37692E-07        -0.10914E-19         0.00000E+00
    0.37692E-07         0.87311E-20         0.00000E+00
    0.37692E-07         0.94587E-20         0.00000E+00
    0.37692E-07         0.72760E-21         0.00000E+00
    0.37692E-07         0.50932E-20         0.00000E+00
    0.37692E-07        -0.20373E-19         0.00000E+00
    0.37692E-07         0.50932E-20         0.00000E+00
    0.37692E-07        -0.13824E-19         0.00000E+00
    0.37692E-07        -0.94587E-20         0.00000E+00
    0.37692E-07        -0.10186E-19         0.00000E+00
    0.37692E-07         0.29104E-20         0.00000E+00
    0.37692E-07        -0.36380E-20         0.00000E+00
    0.37692E-07         0.21100E-19         0.00000E+00
    0.37692E-07         0.14552E-20         0.00000E+00
    0.37692E-07         0.87311E-20         0.00000E+00
    0.41472E-07        -0.10914E-19         0.00000E+00
    0.41472E-07        -0.36380E-20         0.00000E+00
    0.41472E-07         0.17462E-19         0.00000E+00
    0.41472E-07         0.10914E-19         0.00000E+00
    0.41472E-07         0.72760E-20         0.00000E+00
    0.41472E-07        -0.10914E-19         0.00000E+00
    0.41472E-07         0.72760E-20         0.00000E+00
    0.41472E-07         0.72760E-21         0.00000E+00
    0.41472E-07         0.21828E-20         0.00000E+00
    0.41472E-07        -0.87311E-20         0.00000E+00
    0.41472E-07        -0.14552E-19         0.00000E+00
    0.41472E-07         0.94587E-20         0.00000E+00
    0.41472E-07        -0.72760E-20         0.00000E+00
    0.41472E-07        -0.36380E-20         0.00000E+00
    0.41472E-07        -0.14552E-20         0.00000E+00
    0.45304E-07         0.21828E-20         0.00000E+00
    0.45304E-07         0.14552E-20         0.00000E+00
    0.45304E-07         0.26193E-19         0.00000E+00
    0.45304E-07         0.13097E-19         0.00000E+00
    0.45304E-07        -0.14552E-20         0.00000E+00
    0.45304E-07         0.10914E-19         0.00000E+00
    0.45304E-07         0.43656E-20         0.00000E+00
    0.45304E-07         0.29104E-20         0.00000E+00
    0.45304E-07         0.29104E-20         0.00000E+00
    0.45304E-07         0.36380E-20         0.00000E+00
    0.45304E-07        -0.32014E-19         0.00000E+00
    0.45304E-07        -0.10186E-19         0.00000E+00
    0.45304E-07        -0.14552E-19         0.00000E+00
    0.45304E-07        -0.15280E-19         0.00000E+00
    0.45304E-07        -0.29104E-20         0.00000E+00
    0.49193E-07         0.94587E-20         0.00000E+00
    0.49193E-07        -0.36380E-21         0.00000E+00
    0.49193E-07         0.26557E-19         0.00000E+00
    0.49193E-07         0.65484E-20         0.00000E+00
    0.49193E-07        -0.50932E-20         0.00000E+00
    0.49193E-07         0.43656E-20         0.00000E+00
    0.49193E-07         0.50932E-20         0.00000E+00
    0.49193E-07         0.72760E-20         0.00000E+00
    0.49193E-07        -0.11642E-19         0.00000E+00
    0.49193E-07        -0.43656E-20         0.00000E+00
    0.49193E-07        -0.43656E-20         0.00000E+00
    0.49193E-07        -0.10914E-19         0.00000E+00
    0.49193E-07        -0.13097E-19         0.00000E+00
    0.49193E-07        -0.18190E-19         0.00000E+00
    0.49193E-07        -0.50932E-20         0.00000E+00
    0.53144E-07         0.72760E-20         0.00000E+00
    0.53144E-07         0.29104E-20         0.00000E+00
    0.53144E-07         0.11642E-19         0.00000E+00
    0.53144E-07         0.72760E-20         0.00000E+00
    0.53144E-07         0.29104E-20         0.00000E+00
    0.53144E-07         0.80036E-20         0.00000E+00
    0.53144E-07        -0.10186E-19         0.00000E+00
    0.53144E-07         0.21828E-20         0.00000E+00
    0.53144E-07        -0.11278E-19         0.00000E+00
    0.53144E-07        -0.16007E-19         0.00000E+00
    0.53144E-07         0.40018E-20         0.00000E+00
    0.53144E-07         0.29104E-20         0.00000E+00
    0.53144E-07        -0.19645E-19         0.00000E+00
    0.53144E-07        -0.61846E-20         0.00000E+00
    0.53144E-07        -0.72760E-20         0.00000E+00
    0.57160E-07         0.90949E-20         0.00000E+00
    0.57160E-07         0.19645E-19         0.00000E+00
    0.57160E-07        -0.29104E-20         0.00000E+00
    0.57160E-07         0.58208E-20         0.00000E+00
    0.57160E-07        -0.43656E-20         0.00000E+00
    0.57160E-07         0.11642E-19         0.00000E+00
    0.57160E-07        -0.14552E-20         0.00000E+00
    0.57160E-07        -0.13097E-19         0.00000E+00
    0.57160E-07        -0.16735E-19         0.00000E+00
    0.57160E-07         0.72760E-21         0.00000E+00
    0.57160E-07         0.00000E+00         0.00000E+00
    0.57160E-07         0.00000E+00         0.00000E+00
    0.57160E-07        -0.12369E-19         0.00000E+00
    0.57160E-07        -0.36380E-20         0.00000E+00
    0.57160E-07         0.25466E-20         0.00000E+00
    0.61246E-07         0.36380E-20         0.00000E+00
    0.61246E-07         0.36380E-20         0.00000E+00
    0.61246E-07         0.80036E-20         0.00000E+00
    0.61246E-07         0.36380E-20         0.00000E+00
    0.61246E-07        -0.29104E-20         0.00000E+00
    0.61246E-07         0.11642E-19         0.00000E+00
    0.61246E-07         0.13097E-19         0.00000E+00
    0.61246E-07        -0.13097E-19         0.00000E+00
    0.61246E-07        -0.80036E-20         0.00000E+00
    0.61246E-07         0.50932E-20         0.00000E+00
    0.61246E-07        -0.15280E-19         0.00000E+00
    0.61246E-07        -0.18190E-20         0.00000E+00
    0.61246E-07        -0.50932E-20         0.00000E+00
    0.61246E-07         0.58208E-20         0.00000E+00
    0.61246E-07         0.29104E-20         0.00000E+00
    0.65407E-07        -0.94587E-20         0.00000E+00
    0.65407E-07        -0.87311E-20         0.00000E+00
    0.65407E-07         0.13097E-19         0.00000E+00
    0.65407E-07        -0.14552E-20         0.00000E+00
    0.65407E-07         0.43656E-20         0.00000E+00
    0.65407E-07         0.10550E-19         0.00000E+00
    0.65407E-07        -0.43656E-20         0.00000E+00
    0.65407E-07        -0.15280E-19         0.00000E+00
    0.65407E-07        -0.72760E-21         0.00000E+00
    0.65407E-07         0.29104E-20         0.00000E+00
    0.65407E-07        -0.14552E-19         0.00000E+00
    0.65407E-07         0.00000E+00         0.00000E+00
    0.65407E-07        -0.14552E-20         0.00000E+00
    0.65407E-07         0.10914E-19         0.00000E+00
    0.65407E-07         0.36380E-20         0.00000E+00
    0.69648E-07        -0.36380E-20         0.00000E+00
    0.69648E-07        -0.10914E-19         0.00000E+00
    0.69648E-07        -0.80036E-20         0.00000E+00
    0.69648E-07        -0.21828E-20         0.00000E+00
    0.69648E-07        -0.15280E-19         0.00000E+00
    0.69648E-07         0.10914E-19         0.00000E+00
    0.69648E-07        -0.11642E-19         0.00000E+00
    0.69648E-07        -0.19645E-19         0.00000E+00
    0.69648E-07        -0.36380E-20         0.00000E+00
    0.69648E-07         0.29104E-20         0.00000E+00
    0.69648E-07         0.72760E-21         0.00000E+00
    0.69648E-07        -0.21828E-20         0.00000E+00
    0.69648E-07        -0.43656E-20         0.00000E+00
    0.69648E-07         0.14552E-20         0.00000E+00
    0.69648E-07         0.29104E-20         0.00000E+00
    0.73973E-07         0.14552E-20         0.00000E+00
    0.73973E-07        -0.10914E-19         0.00000E+00
    0.73973E-07        -0.43656E-20         0.00000E+00
    0.73973E-07         0.69122E-20         0.00000E+00
    0.73973E-07        -0.18554E-19         0.00000E+00
    0.73973E-07        -0.58208E-20         0.00000E+00
    0.73973E-07        -0.15280E-19         0.00000E+00
    0.73973E-07        -0.80036E-20         0.00000E+00
    0.73973E-07        -0.65484E-20         0.00000E+00
    0.73973E-07         0.00000E+00         0.00000E+00
    0.73973E-07        -0.10550E-19         0.00000E+00
    0.73973E-07        -0.43656E-20         0.00000E+00
    0.73973E-07         0.58208E-20         0.00000E+00
    0.73973E-07         0.29104E-20         0.00000E+00
    0.73973E-07        -0.72760E-20         0.00000E+00
    0.78386E-07         0.29104E-20         0.00000E+00
    0.78386E-07        -0.50932E-20         0.00000E+00
    0.78386E-07        -0.14552E-20         0.00000E+00
    0.78386E-07        -0.10186E-19         0.00000E+00
    0.78386E-07        -0.10914E-19         0.00000E+00
    0.78386E-07        -0.33469E-19         0.00000E+00
    0.78386E-07        -0.18917E-19         0.00000E+00
    0.78386E-07        -0.58208E-20         0.00000E+00
    0.78386E-07        -0.87311E-20         0.00000E+00
    0.78386E-07        -0.72760E-20         0.00000E+00
    0.78386E-07        -0.26921E-19         0.00000E+00
    0.78386E-07        -0.10914E-20         0.00000E+00
    0.78386E-07         0.11278E-19         0.00000E+00
    0.78386E-07         0.16007E-19         0.00000E+00
    0.78386E-07        -0.14552E-20         0.00000E+00
    0.82893E-07         0.00000E+00         0.00000E+00
    0.82893E-07         0.29104E-20         0.00000E+00
    0.82893E-07        -0.43656E-20         0.00000E+00
    0.82893E-07        -0.87311E-20         0.00000E+00
    0.82893E-07        -0.20373E-19         0.00000E+00
    0.82893E-07        -0.29104E-19         0.00000E+00
    0.82893E-07        -0.28740E-19         0.00000E+00
    0.82893E-07        -0.87311E-20         0.00000E+00
    0.82893E-07        -0.72760E-20         0.00000E+00
    0.82893E-07        -0.22555E-19         0.00000E+00
    0.82893E-07        -0.12369E-19         0.00000E+00
    0.82893E-07        -0.65484E-20         0.00000E+00
    0.82893E-07         0.36380E-20         0.00000E+00
    0.82893E-07        -0.10914E-20         0.00000E+00
    0.82893E-07         0.10186E-19         0.00000E+00
    0.87497E-07        -0.40018E-20         0.00000E+00
    0.87497E-07         0.13097E-19         0.00000E+00
    0.87497E-07        -0.72760E-21         0.00000E+00
    0.87497E-07         0.72760E-21         0.00000E+00
    0.87497E-07        -0.10186E-19         0.00000E+00
    0.87497E-07        -0.16007E-19         0.00000E+00
    0.87497E-07        -0.29104E-19         0.00000E+00
    0.87497E-07        -0.14552E-19         0.00000E+00
    0.87497E-07        -0.58208E-20         0.00000E+00
    0.87497E-07        -0.21100E-19         0.00000E+00
    0.87497E-07        -0.72760E-20         0.00000E+00
    0.87497E-07        -0.98225E-20         0.00000E+00
    0.87497E-07        -0.15280E-19         0.00000E+00
    0.87497E-07         0.50932E-20         0.00000E+00
    0.87497E-07        -0.16371E-19         0.00000E+00
    0.92204E-07         0.80036E-20         0.00000E+00
    0.92204E-07         0.12005E-19         0.00000E+00
    0.92204E-07        -0.29104E-20         0.00000E+00
    0.92204E-07        -0.14552E-19         0.00000E+00
    0.92204E-07         0.58208E-20         0.00000E+00
    0.92204E-07        -0.29104E-20         0.00000E+00
    0.92204E-07        -0.15280E-19         0.00000E+00
    0.92204E-07        -0.18190E-19         0.00000E+00
    0.92204E-07        -0.50932E-20         0.00000E+00
    0.92204E-07        -0.13097E-19         0.00000E+00
    0.92204E-07        -0.29831E-19         0.00000E+00
    0.92204E-07        -0.10914E-19         0.00000E+00
    0.92204E-07        -0.14916E-19         0.00000E+00
    0.92204E-07        -0.14552E-20         0.00000E+00
    0.92204E-07        -0.15643E-19         0.00000E+00
    0.97017E-07         0.50932E-20         0.00000E+00
    0.97017E-07         0.87311E-20         0.00000E+00
    0.97017E-07         0.94587E-20         0.00000E+00
    0.97017E-07        -0.16735E-19         0.00000E+00
    0.97017E-07         0.29104E-20         0.00000E+00
    0.97017E-07         0.72760E-21         0.00000E+00
    0.97017E-07        -0.13824E-19         0.00000E+00
    0.97017E-07        -0.14552E-19         0.00000E+00
    0.97017E-07        -0.20736E-19         0.00000E+00
    0.97017E-07        -0.21464E-19         0.00000E+00
    0.97017E-07        -0.32014E-19         0.00000E+00
    0.97017E-07         0.00000E+00         0.00000E+00
    0.97017E-07        -0.58208E-20         0.00000E+00
    0.97017E-07        -0.58208E-20         0.00000E+00
    0.97017E-07        -0.29104E-20         0.00000E+00
    0.10194E-06         0.29104E-20         0.00000E+00
    0.10194E-06         0.72760E-21         0.00000E+00
    0.10194E-06         0.36380E-20         0.00000E+00
    0.10194E-06        -0.69122E-20         0.00000E+00
    0.10194E-06        -0.23283E-19         0.00000E+00
    0.10194E-06        -0.40018E-20         0.00000E+00
    0.10194E-06        -0.21464E-19         0.00000E+00
    0.10194E-06        -0.16007E-19         0.00000E+00
    0.10194E-06        -0.16371E-19         0.00000E+00
    0.10194E-06        -0.15280E-19         0.00000E+00
    0.10194E-06        -0.21828E-19         0.00000E+00
    0.10194E-06         0.36380E-20         0.00000E+00
    0.10194E-06        -0.18190E-20         0.00000E+00
    0.10194E-06        -0.13461E-19         0.00000E+00
    0.10194E-06        -0.43656E-20         0.00000E+00
    0.10698E-06        -0.76398E-20         0.00000E+00
    0.10698E-06        -0.18190E-20         0.00000E+00
    0.10698E-06        -0.21828E-20         0.00000E+00
    0.10698E-06        -0.10550E-19         0.00000E+00
    0.10698E-06        -0.21464E-19         0.00000E+00
    0.10698E-06        -0.13824E-19         0.00000E+00
    0.10698E-06        -0.25102E-19         0.00000E+00
    0.10698E-06        -0.98225E-20         0.00000E+00
    0.10698E-06        -0.72760E-20         0.00000E+00
    0.10698E-06        -0.18554E-19         0.00000E+00
    0.10698E-06        -0.87311E-20         0.00000E+00
    0.10698E-06        -0.69122E-20         0.00000E+00
    0.10698E-06         0.72760E-20         0.00000E+00
    0.10698E-06        -0.25466E-20         0.00000E+00
    0.10698E-06        -0.32742E-20         0.00000E+00
    0.11214E-06        -0.80036E-20         0.00000E+00
    0.11214E-06        -0.76398E-20         0.00000E+00
    0.11214E-06         0.13461E-19         0.00000E+00
    0.11214E-06        -0.18917E-19         0.00000E+00
    0.11214E-06        -0.26193E-19         0.00000E+00
    0.11214E-06        -0.87311E-20         0.00000E+00
    0.11214E-06        -0.18554E-19         0.00000E+00
    0.11214E-06        -0.25466E-19         0.00000E+00
    0.11214E-06        -0.21464E-19         0.00000E+00
    0.11214E-06        -0.18190E-19         0.00000E+00
    0.11214E-06         0.83674E-20         0.00000E+00
    0.11214E-06        -0.80036E-20         0.00000E+00
    0.11214E-06         0.43656E-20         0.00000E+00
    0.11214E-06         0.25102E-19         0.00000E+00
    0.11214E-06        -0.32742E-20         0.00000E+00
    0.11742E-06        -0.69824E-35         0.00000E+00
    0.11742E-06        -0.13461E-19         0.00000E+00
    0.11742E-06         0.87311E-20         0.00000E+00
    0.11742E-06        -0.94587E-20         0.00000E+00
    0.11742E-06        -0.29104E-19         0.00000E+00
    0.11742E-06        -0.15643E-19         0.00000E+00
    0.11742E-06        -0.29104E-20         0.00000E+00
    0.11742E-06        -0.26193E-19         0.00000E+00
    0.11742E-06        -0.26193E-19         0.00000E+00
    0.11742E-06        -0.16007E-19         0.00000E+00
    0.11742E-06         0.10186E-19         0.00000E+00
    0.11742E-06        -0.72760E-21         0.00000E+00
    0.11742E-06         0.98225E-20         0.00000E+00
    0.11742E-06         0.17462E-19         0.00000E+00
    0.11742E-06         0.11642E-19         0.00000E+00
    0.12284E-06         0.14552E-20         0.00000E+00
    0.12284E-06        -0.14552E-19         0.00000E+00
    0.12284E-06        -0.21828E-20         0.00000E+00
    0.12284E-06        -0.15280E-19         0.00000E+00
    0.12284E-06        -0.12369E-19         0.00000E+00
    0.12284E-06        -0.14552E-19         0.00000E+00
    0.12284E-06        -0.19645E-19         0.00000E+00
    0.12284E-06        -0.26921E-19         0.00000E+00
    0.12284E-06        -0.11642E-19         0.00000E+00
    0.12284E-06         0.29104E-20         0.00000E+00
    0.12284E-06         0.72760E-20         0.00000E+00
    0.12284E-06         0.80036E-20         0.00000E+00
    0.12284E-06         0.16007E-19         0.00000E+00
    0.12284E-06         0.50932E-20         0.00000E+00
    0.12284E-06         0.11278E-19         0.00000E+00
    0.12838E-06        -0.72760E-20         0.00000E+00
    0.12838E-06        -0.29104E-20         0.00000E+00
    0.12838E-06         0.00000E+00         0.00000E+00
    0.12838E-06        -0.18917E-19         0.00000E+00
    0.12838E-06        -0.65484E-20         0.00000E+00
    0.12838E-06        -0.14552E-19         0.00000E+00
    0.12838E-06        -0.32014E-19         0.00000E+00
    0.12838E-06        -0.25102E-19         0.00000E+00
    0.12838E-06         0.36380E-20         0.00000E+00
    0.12838E-06         0.12369E-19         0.00000E+00
    0.12838E-06         0.36380E-20         0.00000E+00
    0.12838E-06         0.22555E-19         0.00000E+00
    0.12838E-06         0.65484E-20         0.00000E+00
    0.12838E-06         0.13097E-19         0.00000E+00
    0.12838E-06         0.36380E-20         0.00000E+00
    0.13406E-06        -0.21828E-20         0.00000E+00
    0.13406E-06         0.00000E+00         0.00000E+00
    0.13406E-06        -0.19645E-19         0.00000E+00
    0.13406E-06         0.11172E-34         0.00000E+00
    0.13406E-06        -0.12369E-19         0.00000E+00
    0.13406E-06        -0.18190E-19         0.00000E+00
    0.13406E-06        -0.24011E-19         0.00000E+00
    0.13406E-06        -0.65484E-20         0.00000E+00
    0.13406E-06        -0.29104E-20         0.00000E+00
    0.13406E-06         0.43656E-20         0.00000E+00
    0.13406E-06         0.00000E+00         0.00000E+00
    0.13406E-06         0.20373E-19         0.00000E+00
    0.13406E-06         0.65484E-20         0.00000E+00
    0.13406E-06        -0.36380E-20         0.00000E+00
    0.13406E-06         0.43656E-20         0.00000E+00
    0.13988E-06         0.29104E-20         0.00000E+00
    0.13988E-06         0.36380E-20         0.00000E+00
    0.13988E-06        -0.10186E-19         0.00000E+00
    0.13988E-06         0.72760E-20         0.00000E+00
    0.13988E-06        -0.16735E-19         0.00000E+00
    0.13988E-06        -0.10186E-19         0.00000E+00
    0.13988E-06        -0.19645E-19         0.00000E+00
    0.13988E-06        -0.80036E-20         0.00000E+00
    0.13988E-06        -0.12369E-19         0.00000E+00
    0.13988E-06        -0.36380E-20         0.00000E+00
    0.13988E-06         0.11642E-19         0.00000E+00
    0.13988E-06         0.43656E-20         0.00000E+00
    0.13988E-06        -0.14552E-20         0.00000E+00
    0.13988E-06        -0.69122E-20         0.00000E+00
    0.13988E-06        -0.36380E-21         0.00000E+00
    0.14585E-06         0.00000E+00         0.00000E+00
    0.14585E-06         0.13097E-19         0.00000E+00
    0.14585E-06         0.10914E-19         0.00000E+00
    0.14585E-06        -0.72760E-21         0.00000E+00
    0.14585E-06        -0.18917E-19         0.00000E+00
    0.14585E-06        -0.94587E-20         0.00000E+00
    0.14585E-06        -0.21828E-19         0.00000E+00
    0.14585E-06        -0.16007E-19         0.00000E+00
    0.14585E-06        -0.16735E-19         0.00000E+00
    0.14585E-06        -0.10550E-19         0.00000E+00
    0.14585E-06        -0.58208E-20         0.00000E+00
    0.14585E-06        -0.65484E-20         0.00000E+00
    0.14585E-06         0.46973E-35         0.00000E+00
    0.14585E-06        -0.50932E-20         0.00000E+00
    0.14585E-06        -0.12369E-19         0.00000E+00
    0.15196E-06         0.72760E-20         0.00000E+00
    0.15196E-06         0.16735E-19         0.00000E+00
    0.15196E-06         0.80036E-20         0.00000E+00
    0.15196E-06         0.00000E+00         0.00000E+00
    0.15196E-06        -0.18917E-19         0.00000E+00
    0.15196E-06        -0.17462E-19         0.00000E+00
    0.15196E-06        -0.11642E-19         0.00000E+00
    0.15196E-06        -0.10186E-19         0.00000E+00
    0.15196E-06        -0.25102E-19         0.00000E+00
    0.15196E-06        -0.19281E-19         0.00000E+00
    0.15196E-06        -0.21100E-19         0.00000E+00
    0.15196E-06        -0.14552E-19         0.00000E+00
    0.15196E-06        -0.29104E-20         0.00000E+00
    0.15196E-06        -0.12733E-19         0.00000E+00
    0.15196E-06        -0.10550E-19         0.00000E+00
    0.15823E-06         0.72760E-20         0.00000E+00
    0.15823E-06         0.11642E-19         0.00000E+00
    0.15823E-06         0.72760E-21         0.00000E+00
    0.15823E-06        -0.36380E-20         0.00000E+00
    0.15823E-06        -0.21828E-19         0.00000E+00
    0.15823E-06        -0.29104E-19         0.00000E+00
    0.15823E-06        -0.98225E-20         0.00000E+00
    0.15823E-06        -0.10550E-19         0.00000E+00
    0.15823E-06        -0.10914E-19         0.00000E+00
    0.15823E-06        -0.19645E-19         0.00000E+00
    0.15823E-06        -0.17462E-19         0.00000E+00
    0.15823E-06        -0.20009E-19         0.00000E+00
    0.15823E-06        -0.54570E-20         0.00000E+00
    0.15823E-06        -0.10186E-19         0.00000E+00
    0.15823E-06        -0.13097E-19         0.00000E+00
    0.16465E-06        -0.14552E-20         0.00000E+00
    0.16465E-06         0.18190E-20         0.00000E+00
    0.16465E-06        -0.43656E-20         0.00000E+00
    0.16465E-06         0.72760E-21         0.00000E+00
    0.16465E-06        -0.26193E-19         0.00000E+00
    0.16465E-06        -0.17462E-19         0.00000E+00
    0.16465E-06        -0.13824E-19         0.00000E+00
    0.16465E-06        -0.19645E-19         0.00000E+00
    0.16465E-06        -0.18917E-19         0.00000E+00
    0.16465E-06        -0.12005E-19         0.00000E+00
    0.16465E-06        -0.10186E-19         0.00000E+00
    0.16465E-06        -0.16007E-19         0.00000E+00
    0.16465E-06        -0.10914E-19         0.00000E+00
    0.16465E-06        -0.47294E-20         0.00000E+00
    0.16465E-06         0.61846E-20         0.00000E+00
    0.17122E-06        -0.25466E-20         0.00000E+00
    0.17122E-06         0.21828E-20         0.00000E+00
    0.17122E-06        -0.12369E-19         0.00000E+00
    0.17122E-06        -0.43656E-20         0.00000E+00
    0.17122E-06        -0.14552E-19         0.00000E+00
    0.17122E-06        -0.10550E-19         0.00000E+00
    0.17122E-06        -0.12733E-19         0.00000E+00
    0.17122E-06        -0.15280E-19         0.00000E+00
    0.17122E-06        -0.24738E-19         0.00000E+00
    0.17122E-06        -0.10186E-19         0.00000E+00
    0.17122E-06         0.21828E-20         0.00000E+00
    0.17122E-06        -0.24738E-19         0.00000E+00
    0.17122E-06         0.29104E-20         0.00000E+00
    0.17122E-06        -0.72760E-20         0.00000E+00
    0.17122E-06         0.29104E-20         0.00000E+00
    0.17796E-06        -0.72760E-21         0.00000E+00
    0.17796E-06         0.10914E-19         0.00000E+00
    0.17796E-06         0.80036E-20         0.00000E+00
    0.17796E-06        -0.13097E-19         0.00000E+00
    0.17796E-06        -0.65484E-20         0.00000E+00
    0.17796E-06        -0.94587E-20         0.00000E+00
    0.17796E-06        -0.10186E-19         0.00000E+00
    0.17796E-06        -0.10186E-19         0.00000E+00
    0.17796E-06        -0.14552E-20         0.00000E+00
    0.17796E-06        -0.87311E-20         0.00000E+00
    0.17796E-06        -0.36380E-20         0.00000E+00
    0.17796E-06        -0.72760E-21         0.00000E+00
    0.17796E-06         0.80036E-20         0.00000E+00
    0.17796E-06         0.50932E-20         0.00000E+00
    0.17796E-06        -0.72760E-20         0.00000E+00
    0.18486E-06        -0.21828E-20         0.00000E+00
    0.18486E-06         0.12369E-19         0.00000E+00
    0.18486E-06         0.12733E-19         0.00000E+00
    0.18486E-06        -0.43656E-20         0.00000E+00
    0.18486E-06        -0.16007E-19         0.00000E+00
    0.18486E-06         0.29104E-20         0.00000E+00
    0.18486E-06         0.43656E-20         0.00000E+00
    0.18486E-06        -0.21828E-20         0.00000E+00
    0.18486E-06        -0.14552E-20         0.00000E+00
    0.18486E-06         0.43656E-20         0.00000E+00
    0.18486E-06         0.00000E+00         0.00000E+00
    0.18486E-06         0.80036E-20         0.00000E+00
    0.18486E-06         0.50932E-20         0.00000E+00
    0.18486E-06         0.12005E-19         0.00000E+00
    0.18486E-06        -0.90949E-20         0.00000E+00
    0.19193E-06        -0.36380E-20         0.00000E+00
    0.19193E-06        -0.36380E-20         0.00000E+00
    0.19193E-06         0.36380E-20         0.00000E+00
    0.19193E-06         0.40018E-20         0.00000E+00
    0.19193E-06        -0.90949E-20         0.00000E+00
    0.19193E-06         0.65484E-20         0.00000E+00
    0.19193E-06         0.58208E-20         0.00000E+00
    0.19193E-06         0.11278E-19         0.00000E+00
    0.19193E-06        -0.10186E-19         0.00000E+00
    0.19193E-06         0.98225E-20         0.00000E+00
    0.19193E-06         0.12369E-19         0.00000E+00
    0.19193E-06         0.47294E-20         0.00000E+00
    0.19193E-06         0.47294E-20         0.00000E+00
    0.19193E-06         0.25466E-20         0.00000E+00
    0.19193E-06         0.80036E-20         0.00000E+00
    0.19917E-06        -0.65484E-20         0.00000E+00
    0.19917E-06         0.18190E-20         0.00000E+00
    0.19917E-06        -0.18190E-20         0.00000E+00
    0.19917E-06         0.98225E-20         0.00000E+00
    0.19917E-06         0.72760E-21         0.00000E+00
    0.19917E-06         0.10186E-19         0.00000E+00
    0.19917E-06         0.10914E-19         0.00000E+00
    0.19917E-06         0.10186E-19         0.00000E+00
    0.19917E-06         0.76398E-20         0.00000E+00
    0.19917E-06         0.13824E-19         0.00000E+00
    0.19917E-06         0.17099E-19         0.00000E+00
    0.19917E-06         0.54570E-20         0.00000E+00
    0.19917E-06         0.50932E-20         0.00000E+00
    0.19917E-06         0.29104E-20         0.00000E+00
    0.19917E-06         0.54570E-20         0.00000E+00
    0.20657E-06         0.80036E-20         0.00000E+00
    0.20657E-06         0.50932E-20         0.00000E+00
    0.20657E-06        -0.72760E-20         0.00000E+00
    0.20657E-06         0.94587E-20         0.00000E+00
    0.20657E-06         0.36380E-20         0.00000E+00
    0.20657E-06         0.14552E-20         0.00000E+00
    0.20657E-06         0.19645E-19         0.00000E+00
    0.20657E-06         0.72760E-20         0.00000E+00
    0.20657E-06         0.19645E-19         0.00000E+00
    0.20657E-06        -0.14552E-20         0.00000E+00
    0.20657E-06         0.18554E-19         0.00000E+00
    0.20657E-06        -0.65484E-20         0.00000E+00
    0.20657E-06         0.13097E-19         0.00000E+00
    0.20657E-06         0.14916E-19         0.00000E+00
    0.20657E-06         0.72760E-21         0.00000E+00
    0.21415E-06         0.58208E-20         0.00000E+00
    0.21415E-06         0.12369E-19         0.00000E+00
    0.21415E-06         0.50932E-20         0.00000E+00
    0.21415E-06         0.14552E-20         0.00000E+00
    0.21415E-06         0.16007E-19         0.00000E+00
    0.21415E-06        -0.72760E-20         0.00000E+00
    0.21415E-06         0.58208E-20         0.00000E+00
    0.21415E-06         0.10186E-19         0.00000E+00
    0.21415E-06         0.40018E-20         0.00000E+00
    0.21415E-06        -0.72760E-21         0.00000E+00
    0.21415E-06         0.83674E-20         0.00000E+00
    0.21415E-06        -0.21828E-20         0.00000E+00
    0.21415E-06         0.10186E-19         0.00000E+00
    0.21415E-06         0.14552E-20         0.00000E+00
    0.21415E-06         0.87311E-20         0.00000E+00
    0.22189E-06        -0.43656E-20         0.00000E+00
    0.22189E-06         0.13824E-19         0.00000E+00
    0.22189E-06         0.69122E-20         0.00000E+00
    0.22189E-06         0.50932E-20         0.00000E+00
    0.22189E-06         0.19281E-19         0.00000E+00
    0.22189E-06         0.43656E-20         0.00000E+00
    0.22189E-06        -0.65484E-20         0.00000E+00
    0.22189E-06         0.29104E-20         0.00000E+00
    0.22189E-06        -0.43656E-20         0.00000E+00
    0.22189E-06         0.61846E-20         0.00000E+00
    0.22189E-06        -0.94587E-20         0.00000E+00
    0.22189E-06        -0.21828E-20         0.00000E+00
    0.22189E-06         0.11278E-19         0.00000E+00
    0.22189E-06         0.25466E-20         0.00000E+00
    0.22189E-06         0.00000E+00         0.00000E+00
    0.22981E-06         0.36380E-20         0.00000E+00
    0.22981E-06        -0.32742E-20         0.00000E+00
    0.22981E-06         0.87311E-20         0.00000E+00
    0.22981E-06         0.10914E-19         0.00000E+00
    0.22981E-06         0.11642E-19         0.00000E+00
    0.22981E-06         0.80036E-20         0.00000E+00
    0.22981E-06        -0.10186E-19         0.00000E+00
    0.22981E-06         0.80036E-20         0.00000E+00
    0.22981E-06        -0.36380E-20         0.00000E+00
    0.22981E-06        -0.94587E-20         0.00000E+00
    0.22981E-06        -0.16735E-19         0.00000E+00
    0.22981E-06         0.80036E-20         0.00000E+00
    0.22981E-06         0.13461E-19         0.00000E+00
    0.22981E-06         0.10914E-19         0.00000E+00
    0.22981E-06         0.40018E-20         0.00000E+00
    0.23791E-06        -0.65484E-20         0.00000E+00
    0.23791E-06         0.54570E-20         0.00000E+00
    0.23791E-06         0.13461E-19         0.00000E+00
    0.23791E-06         0.72760E-20         0.00000E+00
    0.23791E-06         0.18190E-20         0.00000E+00
    0.23791E-06         0.12369E-19         0.00000E+00
    0.23791E-06        -0.10914E-20         0.00000E+00
    0.23791E-06        -0.18190E-20         0.00000E+00
    0.23791E-06        -0.10914E-19         0.00000E+00
    0.23791E-06        -0.11642E-19         0.00000E+00
    0.23791E-06        -0.12369E-19         0.00000E+00
    0.23791E-06         0.65484E-20         0.00000E+00
    0.23791E-06         0.80036E-20         0.00000E+00
    0.23791E-06         0.11642E-19         0.00000E+00
    0.23791E-06         0.21828E-20         0.00000E+00
    0.24617E-06        -0.50932E-20         0.00000E+00
    0.24617E-06         0.54570E-20         0.00000E+00
    0.24617E-06         0.17462E-19         0.00000E+00
    0.24617E-06        -0.87311E-20         0.00000E+00
    0.24617E-06        -0.43656E-20         0.00000E+00
    0.24617E-06         0.14552E-19         0.00000E+00
    0.24617E-06         0.14552E-20         0.00000E+00
    0.24617E-06        -0.58208E-20         0.00000E+00
    0.24617E-06        -0.13097E-19         0.00000E+00
    0.24617E-06        -0.80036E-20         0.00000E+00
    0.24617E-06        -0.32742E-20         0.00000E+00
    0.24617E-06        -0.36380E-20         0.00000E+00
    0.24617E-06         0.21828E-20         0.00000E+00
    0.24617E-06         0.14552E-19         0.00000E+00
    0.24617E-06        -0.21828E-20         0.00000E+00
    0.25461E-06         0.54570E-20         0.00000E+00
    0.25461E-06        -0.10186E-19         0.00000E+00
    0.25461E-06         0.65484E-20         0.00000E+00
    0.25461E-06        -0.87311E-20         0.00000E+00
    0.25461E-06        -0.72760E-20         0.00000E+00
    0.25461E-06        -0.76398E-20         0.00000E+00
    0.25461E-06         0.65484E-20         0.00000E+00
    0.25461E-06         0.00000E+00         0.00000E+00
    0.25461E-06        -0.72760E-21         0.00000E+00
    0.25461E-06         0.18190E-21         0.00000E+00
    0.25461E-06        -0.90949E-20         0.00000E+00
    0.25461E-06         0.29104E-20         0.00000E+00
    0.25461E-06         0.32742E-20         0.00000E+00
    0.25461E-06         0.36380E-20         0.00000E+00
    0.25461E-06        -0.12915E-19         0.00000E+00
    0.26321E-06        -0.34561E-20         0.00000E+00
    0.26321E-06        -0.81855E-20         0.00000E+00
    0.26321E-06        -0.21828E-20         0.00000E+00
    0.26321E-06         0.18190E-20         0.00000E+00
    0.26321E-06        -0.13461E-19         0.00000E+00
    0.26321E-06        -0.14552E-19         0.00000E+00
    0.26321E-06         0.72760E-21         0.00000E+00
    0.26321E-06        -0.10186E-19         0.00000E+00
    0.26321E-06         0.11278E-19         0.00000E+00
    0.26321E-06         0.14552E-20         0.00000E+00
    0.26321E-06        -0.61846E-20         0.00000E+00
    0.26321E-06        -0.47294E-20         0.00000E+00
    0.26321E-06         0.16371E-20         0.00000E+00
    0.26321E-06         0.21828E-20         0.00000E+00
    0.26321E-06        -0.45475E-20         0.00000E+00
    0.27198E-06        -0.41837E-20         0.00000E+00
    0.27198E-06         0.32742E-20         0.00000E+00
    0.27198E-06        -0.11642E-19         0.00000E+00
    0.27198E-06         0.14552E-20         0.00000E+00
    0.27198E-06        -0.56389E-20         0.00000E+00
    0.27198E-06         0.47294E-20         0.00000E+00
    0.27198E-06        -0.58208E-20         0.00000E+00
    0.27198E-06        -0.10550E-19         0.00000E+00
    0.27198E-06        -0.29104E-20         0.00000E+00
    0.27198E-06        -0.36380E-21         0.00000E+00
    0.27198E-06         0.17462E-19         0.00000E+00
    0.27198E-06        -0.18190E-20         0.00000E+00
    0.27198E-06         0.16371E-20         0.00000E+00
    0.27198E-06        -0.74579E-20         0.00000E+00
    0.27198E-06         0.61846E-20         0.00000E+00
    0.28092E-06         0.00000E+00         0.00000E+00
    0.28092E-06        -0.90949E-21         0.00000E+00
    0.28092E-06        -0.36380E-20         0.00000E+00
    0.28092E-06        -0.58208E-20         0.00000E+00
    0.28092E-06         0.87311E-20         0.00000E+00
    0.28092E-06         0.18190E-20         0.00000E+00
    0.28092E-06        -0.98225E-20         0.00000E+00
    0.28092E-06        -0.96406E-20         0.00000E+00
    0.28092E-06        -0.36380E-20         0.00000E+00
    0.28092E-06         0.12005E-19         0.00000E+00
    0.28092E-06         0.85493E-20         0.00000E+00
    0.28092E-06         0.15234E-35         0.00000E+00
    0.28092E-06         0.40018E-20         0.00000E+00
    0.28092E-06        -0.23647E-20         0.00000E+00
    0.28092E-06         0.90949E-21         0.00000E+00
    0.29002E-06         0.40018E-20         0.00000E+00
    0.29002E-06        -0.11278E-19         0.00000E+00
    0.29002E-06         0.10914E-19         0.00000E+00
    0.29002E-06        -0.58208E-20         0.00000E+00
    0.29002E-06        -0.34561E-20         0.00000E+00
    0.29002E-06        -0.21828E-20         0.00000E+00
    0.29002E-06        -0.16371E-19         0.00000E+00
    0.29002E-06        -0.90949E-20         0.00000E+00
    0.29002E-06         0.10914E-20         0.00000E+00
    0.29002E-06         0.22555E-19         0.00000E+00
    0.29002E-06         0.43656E-20         0.00000E+00
    0.29002E-06        -0.54570E-21         0.00000E+00
    0.29002E-06         0.96406E-20         0.00000E+00
    0.29002E-06        -0.10914E-20         0.00000E+00
    0.29002E-06         0.29104E-20         0.00000E+00
    0.29927E-06         0.43656E-20         0.00000E+00
    0.29927E-06        -0.61846E-20         0.00000E+00
    0.29927E-06        -0.16371E-20         0.00000E+00
    0.29927E-06        -0.38199E-20         0.00000E+00
    0.29927E-06        -0.69122E-20         0.00000E+00
    0.29927E-06         0.72760E-20         0.00000E+00
    0.29927E-06        -0.14188E-19         0.00000E+00
    0.29927E-06         0.49113E-20         0.00000E+00
    0.29927E-06         0.18190E-20         0.00000E+00
    0.29927E-06         0.10914E-19         0.00000E+00
    0.29927E-06         0.58208E-20         0.00000E+00
    0.29927E-06         0.20736E-19         0.00000E+00
    0.29927E-06         0.25466E-20         0.00000E+00
    0.29927E-06        -0.10186E-19         0.00000E+00
    0.29927E-06         0.36380E-20         0.00000E+00
    0.30868E-06        -0.14552E-20         0.00000E+00
    0.30868E-06        -0.14552E-20         0.00000E+00
    0.30868E-06        -0.40018E-20         0.00000E+00
    0.30868E-06        -0.76398E-20         0.00000E+00
    0.30868E-06         0.29104E-20         0.00000E+00
    0.30868E-06         0.40018E-20         0.00000E+00
    0.30868E-06         0.98225E-20         0.00000E+00
    0.30868E-06         0.36380E-21         0.00000E+00
    0.30868E-06         0.80036E-20         0.00000E+00
    0.30868E-06         0.72760E-21         0.00000E+00
    0.30868E-06         0.13097E-19         0.00000E+00
    0.30868E-06         0.12005E-19         0.00000E+00
    0.30868E-06         0.23647E-20         0.00000E+00
    0.30868E-06         0.72760E-21         0.00000E+00
    0.30868E-06         0.18190E-21         0.00000E+00
    0.31823E-06        -0.72760E-20         0.00000E+00
    0.31823E-06         0.40018E-20         0.00000E+00
    0.31823E-06         0.69122E-20         0.00000E+00
    0.31823E-06        -0.72760E-21         0.00000E+00
    0.31823E-06         0.54570E-20         0.00000E+00
    0.31823E-06         0.25466E-20         0.00000E+00
    0.31823E-06         0.36380E-20         0.00000E+00
    0.31823E-06         0.14552E-20         0.00000E+00
    0.31823E-06         0.25466E-20         0.00000E+00
    0.31823E-06         0.32742E-20         0.00000E+00
    0.31823E-06         0.13097E-19         0.00000E+00
    0.31823E-06         0.12733E-20         0.00000E+00
    0.31823E-06         0.12005E-19         0.00000E+00
    0.31823E-06         0.76398E-20         0.00000E+00
    0.31823E-06        -0.14552E-20         0.00000E+00
    0.32791E-06        -0.61846E-20         0.00000E+00
    0.32791E-06         0.10186E-19         0.00000E+00
    0.32791E-06         0.12915E-19         0.00000E+00
    0.32791E-06         0.14006E-19         0.00000E+00
    0.32791E-06        -0.69122E-20         0.00000E+00
    0.32791E-06         0.40018E-20         0.00000E+00
    0.32791E-06        -0.29104E-20         0.00000E+00
    0.32791E-06         0.10550E-19         0.00000E+00
    0.32791E-06         0.76398E-20         0.00000E+00
    0.32791E-06         0.90949E-21         0.00000E+00
    0.32791E-06        -0.50932E-20         0.00000E+00
    0.32791E-06         0.15280E-19         0.00000E+00
    0.32791E-06         0.92768E-20         0.00000E+00
    0.32791E-06         0.81855E-20         0.00000E+00
    0.32791E-06        -0.69122E-20         0.00000E+00
    0.33773E-06        -0.36380E-20         0.00000E+00
    0.33773E-06         0.58208E-20         0.00000E+00
    0.33773E-06         0.17280E-19         0.00000E+00
    0.33773E-06         0.13097E-19         0.00000E+00
    0.33773E-06        -0.15825E-19         0.00000E+00
    0.33773E-06         0.58208E-20         0.00000E+00
    0.33773E-06         0.14916E-19         0.00000E+00
    0.33773E-06         0.70941E-20         0.00000E+00
    0.33773E-06         0.21828E-20         0.00000E+00
    0.33773E-06         0.36380E-21         0.00000E+00
    0.33773E-06        -0.72760E-21         0.00000E+00
    0.33773E-06         0.10914E-19         0.00000E+00
    0.33773E-06         0.14552E-20         0.00000E+00
    0.33773E-06         0.87311E-20         0.00000E+00
    0.33773E-06        -0.10914E-19         0.00000E+00
    0.34767E-06        -0.56389E-20         0.00000E+00
    0.34767E-06         0.18190E-20         0.00000E+00
    0.34767E-06         0.56389E-20         0.00000E+00
    0.34767E-06         0.13097E-19         0.00000E+00
    0.34767E-06        -0.90949E-20         0.00000E+00
    0.34767E-06         0.12551E-19         0.00000E+00
    0.34767E-06         0.13097E-19         0.00000E+00
    0.34767E-06         0.43656E-20         0.00000E+00
    0.34767E-06         0.18190E-21         0.00000E+00
    0.34767E-06         0.10186E-19         0.00000E+00
    0.34767E-06         0.87311E-20         0.00000E+00
    0.34767E-06        -0.14552E-20         0.00000E+00
    0.34767E-06        -0.38199E-20         0.00000E+00
    0.34767E-06        -0.21828E-20         0.00000E+00
    0.34767E-06         0.21828E-20         0.00000E+00
    0.35771E-06        -0.54570E-20         0.00000E+00
    0.35771E-06         0.14552E-20         0.00000E+00
    0.35771E-06         0.27285E-20         0.00000E+00
    0.35771E-06         0.72760E-20         0.00000E+00
    0.35771E-06        -0.69122E-20         0.00000E+00
    0.35771E-06         0.61846E-20         0.00000E+00
    0.35771E-06         0.94587E-20         0.00000E+00
    0.35771E-06         0.92768E-20         0.00000E+00
    0.35771E-06         0.81855E-20         0.00000E+00
    0.35771E-06         0.36380E-20         0.00000E+00
    0.35771E-06         0.14916E-19         0.00000E+00
    0.35771E-06         0.00000E+00         0.00000E+00
    0.35771E-06        -0.18190E-20         0.00000E+00
    0.35771E-06        -0.30923E-20         0.00000E+00
    0.35771E-06         0.10914E-20         0.00000E+00
    0.36786E-06         0.18190E-20         0.00000E+00
    0.36786E-06         0.00000E+00         0.00000E+00
    0.36786E-06        -0.10914E-20         0.00000E+00
    0.36786E-06         0.25466E-20         0.00000E+00
    0.36786E-06        -0.76398E-20         0.00000E+00
    0.36786E-06         0.36380E-20         0.00000E+00
    0.36786E-06         0.10550E-19         0.00000E+00
    0.36786E-06         0.69122E-20         0.00000E+00
    0.36786E-06         0.65484E-20         0.00000E+00
    0.36786E-06         0.87311E-20         0.00000E+00
    0.36786E-06         0.72760E-20         0.00000E+00
    0.36786E-06         0.40018E-20         0.00000E+00
    0.36786E-06         0.72760E-21         0.00000E+00
    0.36786E-06        -0.47294E-20         0.00000E+00
    0.36786E-06        -0.38199E-20         0.00000E+00
    0.37809E-06         0.50932E-20         0.00000E+00
    0.37809E-06         0.54570E-20         0.00000E+00
    0.37809E-06        -0.76398E-20         0.00000E+00
    0.37809E-06         0.40018E-20         0.00000E+00
    0.37809E-06         0.40018E-20         0.00000E+00
    0.37809E-06        -0.36380E-20         0.00000E+00
    0.37809E-06         0.92768E-20         0.00000E+00
    0.37809E-06         0.25466E-20         0.00000E+00
    0.37809E-06         0.47294E-20         0.00000E+00
    0.37809E-06         0.14916E-19         0.00000E+00
    0.37809E-06         0.94587E-20         0.00000E+00
    0.37809E-06        -0.14552E-20         0.00000E+00
    0.37809E-06        -0.10914E-20         0.00000E+00
    0.37809E-06        -0.10186E-19         0.00000E+00
    0.37809E-06        -0.29104E-20         0.00000E+00
    0.38839E-06         0.23647E-20         0.00000E+00
    0.38839E-06         0.56389E-20         0.00000E+00
    0.38839E-06        -0.72760E-21         0.00000E+00
    0.38839E-06         0.10914E-20         0.00000E+00
    0.38839E-06         0.12733E-19         0.00000E+00
    0.38839E-06        -0.54570E-20         0.00000E+00
    0.38839E-06        -0.72760E-21         0.00000E+00
    0.38839E-06         0.90949E-20         0.00000E+00
    0.38839E-06         0.47294E-20         0.00000E+00
    0.38839E-06         0.49113E-20         0.00000E+00
    0.38839E-06         0.11278E-19         0.00000E+00
    0.38839E-06         0.18190E-20         0.00000E+00
    0.38839E-06         0.49113E-20         0.00000E+00
    0.38839E-06        -0.72760E-20         0.00000E+00
    0.38839E-06        -0.47294E-20         0.00000E+00
    0.39875E-06        -0.43656E-20         0.00000E+00
    0.39875E-06         0.63665E-20         0.00000E+00
    0.39875E-06         0.12369E-19         0.00000E+00
    0.39875E-06         0.10550E-19         0.00000E+00
    0.39875E-06         0.16371E-20         0.00000E+00
    0.39875E-06        -0.61846E-20         0.00000E+00
    0.39875E-06        -0.50932E-20         0.00000E+00
    0.39875E-06        -0.16371E-20         0.00000E+00
    0.39875E-06         0.41837E-20         0.00000E+00
    0.39875E-06         0.18190E-20         0.00000E+00
    0.39875E-06         0.30923E-20         0.00000E+00
    0.39875E-06         0.89130E-20         0.00000E+00
    0.39875E-06         0.76398E-20         0.00000E+00
    0.39875E-06         0.87311E-20         0.00000E+00
    0.39875E-06         0.52751E-20         0.00000E+00
    0.40915E-06         0.36380E-20         0.00000E+00
    0.40915E-06         0.21828E-20         0.00000E+00
    0.40915E-06         0.10914E-19         0.00000E+00
    0.40915E-06         0.32742E-20         0.00000E+00
    0.40915E-06        -0.50932E-20         0.00000E+00
    0.40915E-06        -0.69122E-20         0.00000E+00
    0.40915E-06        -0.98225E-20         0.00000E+00
    0.40915E-06        -0.14916E-19         0.00000E+00
    0.40915E-06         0.76398E-20         0.00000E+00
    0.40915E-06         0.43656E-20         0.00000E+00
    0.40915E-06        -0.72760E-20         0.00000E+00
    0.40915E-06         0.61846E-20         0.00000E+00
    0.40915E-06         0.54570E-20         0.00000E+00
    0.40915E-06         0.10914E-19         0.00000E+00
    0.40915E-06         0.10368E-19         0.00000E+00
    0.41957E-06         0.65484E-20         0.00000E+00
    0.41957E-06         0.72760E-21         0.00000E+00
    0.41957E-06         0.54570E-21         0.00000E+00
    0.41957E-06         0.32742E-20         0.00000E+00
    0.41957E-06        -0.80036E-20         0.00000E+00
    0.41957E-06        -0.61846E-20         0.00000E+00
    0.41957E-06        -0.63665E-20         0.00000E+00
    0.41957E-06        -0.76398E-20         0.00000E+00
    0.41957E-06        -0.36380E-20         0.00000E+00
    0.41957E-06         0.72760E-20         0.00000E+00
    0.41957E-06        -0.72760E-20         0.00000E+00
    0.41957E-06         0.36380E-20         0.00000E+00
    0.41957E-06         0.61846E-20         0.00000E+00
    0.41957E-06         0.69122E-20         0.00000E+00
    0.41957E-06         0.83674E-20         0.00000E+00
    0.42999E-06         0.83674E-20         0.00000E+00
    0.42999E-06        -0.32742E-20         0.00000E+00
    0.42999E-06         0.21828E-20         0.00000E+00
    0.42999E-06        -0.21828E-20         0.00000E+00
    0.42999E-06        -0.21828E-20         0.00000E+00
    0.42999E-06         0.36380E-21         0.00000E+00
    0.42999E-06        -0.76398E-20         0.00000E+00
    0.42999E-06         0.10914E-20         0.00000E+00
    0.42999E-06        -0.58208E-20         0.00000E+00
    0.42999E-06         0.00000E+00         0.00000E+00
    0.42999E-06        -0.54570E-20         0.00000E+00
    0.42999E-06         0.38086E-36         0.00000E+00
    0.42999E-06         0.87311E-20         0.00000E+00
    0.42999E-06        -0.18190E-20         0.00000E+00
    0.42999E-06        -0.14552E-20         0.00000E+00
    0.44040E-06        -0.18190E-20         0.00000E+00
    0.44040E-06         0.61846E-20         0.00000E+00
    0.44040E-06         0.18190E-20         0.00000E+00
    0.44040E-06         0.14552E-20         0.00000E+00
    0.44040E-06         0.32742E-20         0.00000E+00
    0.44040E-06         0.50932E-20         0.00000E+00
    0.44040E-06        -0.94587E-20         0.00000E+00
    0.44040E-06        -0.32742E-20         0.00000E+00
    0.44040E-06         0.00000E+00         0.00000E+00
    0.44040E-06         0.00000E+00         0.00000E+00
    0.44040E-06        -0.58208E-20         0.00000E+00
    0.44040E-06        -0.14552E-20         0.00000E+00
    0.44040E-06         0.14552E-20         0.00000E+00
    0.44040E-06         0.36380E-21         0.00000E+00
    0.44040E-06        -0.18190E-20         0.00000E+00
    0.45076E-06         0.43656E-20         0.00000E+00
    0.45076E-06        -0.36380E-21         0.00000E+00
    0.45076E-06         0.14552E-20         0.00000E+00
    0.45076E-06         0.54570E-20         0.00000E+00
    0.45076E-06         0.50932E-20         0.00000E+00
    0.45076E-06         0.83674E-20         0.00000E+00
    0.45076E-06        -0.58208E-20         0.00000E+00
    0.45076E-06        -0.54570E-20         0.00000E+00
    0.45076E-06         0.18190E-20         0.00000E+00
    0.45076E-06         0.00000E+00         0.00000E+00
    0.45076E-06         0.83674E-20         0.00000E+00
    0.45076E-06         0.36380E-21         0.00000E+00
    0.45076E-06        -0.30923E-20         0.00000E+00
    0.45076E-06        -0.11460E-19         0.00000E+00
    0.45076E-06        -0.32742E-20         0.00000E+00
    0.46107E-06         0.94587E-20         0.00000E+00
    0.46107E-06         0.54570E-20         0.00000E+00
    0.46107E-06         0.21828E-20         0.00000E+00
    0.46107E-06        -0.18190E-20         0.00000E+00
    0.46107E-06         0.80036E-20         0.00000E+00
    0.46107E-06         0.60027E-20         0.00000E+00
    0.46107E-06         0.54570E-20         0.00000E+00
    0.46107E-06        -0.10914E-20         0.00000E+00
    0.46107E-06        -0.36380E-21         0.00000E+00
    0.46107E-06         0.18190E-20         0.00000E+00
    0.46107E-06         0.94587E-20         0.00000E+00
    0.46107E-06         0.14552E-19         0.00000E+00
    0.46107E-06        -0.43656E-20         0.00000E+00
    0.46107E-06        -0.11278E-19         0.00000E+00
    0.46107E-06        -0.27285E-20         0.00000E+00
    0.47128E-06         0.36380E-21         0.00000E+00
    0.47128E-06         0.98225E-20         0.00000E+00
    0.47128E-06         0.18190E-20         0.00000E+00
    0.47128E-06         0.25466E-20         0.00000E+00
    0.47128E-06         0.83674E-20         0.00000E+00
    0.47128E-06         0.58208E-20         0.00000E+00
    0.47128E-06         0.11642E-19         0.00000E+00
    0.47128E-06         0.47294E-20         0.00000E+00
    0.47128E-06         0.40018E-20         0.00000E+00
    0.47128E-06        -0.25466E-20         0.00000E+00
    0.47128E-06         0.60027E-20         0.00000E+00
    0.47128E-06         0.10550E-19         0.00000E+00
    0.47128E-06        -0.18190E-20         0.00000E+00
    0.47128E-06         0.54570E-20         0.00000E+00
    0.47128E-06        -0.32742E-20         0.00000E+00
    0.48138E-06        -0.18190E-20         0.00000E+00
    0.48138E-06         0.30923E-20         0.00000E+00
    0.48138E-06         0.36380E-21         0.00000E+00
    0.48138E-06         0.27285E-20         0.00000E+00
    0.48138E-06         0.58208E-20         0.00000E+00
    0.48138E-06         0.70941E-20         0.00000E+00
    0.48138E-06         0.10914E-19         0.00000E+00
    0.48138E-06         0.65484E-20         0.00000E+00
    0.48138E-06         0.80036E-20         0.00000E+00
    0.48138E-06        -0.25466E-20         0.00000E+00
    0.48138E-06         0.50932E-20         0.00000E+00
    0.48138E-06         0.18190E-21         0.00000E+00
    0.48138E-06         0.43656E-20         0.00000E+00
    0.48138E-06         0.10914E-20         0.00000E+00
    0.48138E-06         0.36380E-21         0.00000E+00
    0.49134E-06        -0.36380E-21         0.00000E+00
    0.49134E-06         0.36380E-20         0.00000E+00
    0.49134E-06         0.36380E-21         0.00000E+00
    0.49134E-06        -0.29104E-20         0.00000E+00
    0.49134E-06         0.58208E-20         0.00000E+00
    0.49134E-06         0.76398E-20         0.00000E+00
    0.49134E-06         0.90949E-20         0.00000E+00
    0.49134E-06         0.36380E-20         0.00000E+00
    0.49134E-06         0.49113E-20         0.00000E+00
    0.49134E-06         0.47294E-20         0.00000E+00
    0.49134E-06         0.36380E-20         0.00000E+00
    0.49134E-06         0.25466E-20         0.00000E+00
    0.49134E-06        -0.38199E-20         0.00000E+00
    0.49134E-06         0.14552E-20         0.00000E+00
    0.49134E-06        -0.72760E-21         0.00000E+00
    0.50114E-06         0.58208E-20         0.00000E+00
    0.50114E-06        -0.25466E-20         0.00000E+00
    0.50114E-06        -0.16371E-20         0.00000E+00
    0.50114E-06        -0.12733E-20         0.00000E+00
    0.50114E-06         0.78217E-20         0.00000E+00
    0.50114E-06         0.94587E-20         0.00000E+00
    0.50114E-06         0.89130E-20         0.00000E+00
    0.50114E-06         0.80036E-20         0.00000E+00
    0.50114E-06         0.45475E-20         0.00000E+00
    0.50114E-06         0.50932E-20         0.00000E+00
    0.50114E-06        -0.18190E-20         0.00000E+00
    0.50114E-06        -0.23647E-20         0.00000E+00
    0.50114E-06        -0.20009E-20         0.00000E+00
    0.50114E-06        -0.18190E-21         0.00000E+00
    0.50114E-06        -0.27285E-20         0.00000E+00
    0.51073E-06         0.29104E-20         0.00000E+00
    0.51073E-06         0.46384E-20         0.00000E+00
    0.51073E-06         0.54570E-21         0.00000E+00
    0.51073E-06         0.63665E-20         0.00000E+00
    0.51073E-06         0.40018E-20         0.00000E+00
    0.51073E-06         0.11823E-19         0.00000E+00
    0.51073E-06         0.81855E-20         0.00000E+00
    0.51073E-06         0.92768E-20         0.00000E+00
    0.51073E-06        -0.30923E-20         0.00000E+00
    0.51073E-06        -0.29104E-20         0.00000E+00
    0.51073E-06        -0.38199E-20         0.00000E+00
    0.51073E-06        -0.21828E-20         0.00000E+00
    0.51073E-06        -0.13642E-20         0.00000E+00
    0.51073E-06         0.14552E-20         0.00000E+00
    0.51073E-06        -0.23647E-20         0.00000E+00
    0.52009E-06        -0.10914E-20         0.00000E+00
    0.52009E-06         0.65484E-20         0.00000E+00
    0.52009E-06         0.21828E-20         0.00000E+00
    0.52009E-06         0.12824E-19         0.00000E+00
    0.52009E-06         0.67303E-20         0.00000E+00
    0.52009E-06         0.90949E-20         0.00000E+00
    0.52009E-06         0.34561E-20         0.00000E+00
    0.52009E-06        -0.90949E-21         0.00000E+00
    0.52009E-06         0.90949E-22         0.00000E+00
    0.52009E-06        -0.67303E-20         0.00000E+00
    0.52009E-06        -0.45475E-20         0.00000E+00
    0.52009E-06        -0.45475E-20         0.00000E+00
    0.52009E-06         0.30923E-20         0.00000E+00
    0.52009E-06         0.18190E-20         0.00000E+00
    0.52009E-06         0.10914E-20         0.00000E+00
    0.52920E-06         0.34561E-20         0.00000E+00
    0.52920E-06         0.40018E-20         0.00000E+00
    0.52920E-06         0.92768E-20         0.00000E+00
    0.52920E-06         0.63665E-21         0.00000E+00
    0.52920E-06         0.61846E-20         0.00000E+00
    0.52920E-06         0.43656E-20         0.00000E+00
    0.52920E-06        -0.81855E-21         0.00000E+00
    0.52920E-06        -0.29104E-20         0.00000E+00
    0.52920E-06        -0.27285E-21         0.00000E+00
    0.52920E-06        -0.98225E-20         0.00000E+00
    0.52920E-06        -0.50932E-20         0.00000E+00
    0.52920E-06        -0.43656E-20         0.00000E+00
    0.52920E-06         0.67303E-20         0.00000E+00
    0.52920E-06         0.10914E-20         0.00000E+00
    0.52920E-06         0.72760E-21         0.00000E+00
    0.53802E-06        -0.11823E-20         0.00000E+00
    0.53802E-06         0.69122E-20         0.00000E+00
    0.53802E-06         0.45475E-20         0.00000E+00
    0.53802E-06        -0.32742E-20         0.00000E+00
    0.53802E-06         0.81855E-21         0.00000E+00
    0.53802E-06         0.72760E-21         0.00000E+00
    0.53802E-06        -0.21828E-20         0.00000E+00
    0.53802E-06        -0.35470E-20         0.00000E+00
    0.53802E-06        -0.78217E-20         0.00000E+00
    0.53802E-06        -0.50932E-20         0.00000E+00
    0.53802E-06        -0.90949E-21         0.00000E+00
    0.53802E-06         0.00000E+00         0.00000E+00
    0.53802E-06         0.16371E-20         0.00000E+00
    0.53802E-06         0.10914E-20         0.00000E+00
    0.53802E-06        -0.23647E-20         0.00000E+00
    0.54651E-06        -0.90949E-21         0.00000E+00
    0.54651E-06        -0.31832E-20         0.00000E+00
    0.54651E-06         0.54570E-21         0.00000E+00
    0.54651E-06        -0.39108E-20         0.00000E+00
    0.54651E-06        -0.27285E-20         0.00000E+00
    0.54651E-06         0.81855E-21         0.00000E+00
    0.54651E-06         0.18190E-20         0.00000E+00
    0.54651E-06        -0.67303E-20         0.00000E+00
    0.54651E-06        -0.69122E-20         0.00000E+00
    0.54651E-06        -0.27285E-20         0.00000E+00
    0.54651E-06         0.15461E-20         0.00000E+00
    0.54651E-06        -0.45475E-20         0.00000E+00
    0.54651E-06        -0.54570E-20         0.00000E+00
    0.54651E-06        -0.18190E-20         0.00000E+00
    0.54651E-06         0.16371E-20         0.00000E+00
    0.55466E-06         0.30923E-20         0.00000E+00
    0.55466E-06        -0.36380E-20         0.00000E+00
    0.55466E-06        -0.32742E-20         0.00000E+00
    0.55466E-06         0.63665E-21         0.00000E+00
    0.55466E-06        -0.56389E-20         0.00000E+00
    0.55466E-06         0.29104E-20         0.00000E+00
    0.55466E-06        -0.47294E-20         0.00000E+00
    0.55466E-06        -0.32742E-20         0.00000E+00
    0.55466E-06        -0.20009E-20         0.00000E+00
    0.55466E-06        -0.40018E-20         0.00000E+00
    0.55466E-06        -0.21828E-20         0.00000E+00
    0.55466E-06        -0.43656E-20         0.00000E+00
    0.55466E-06        -0.58208E-20         0.00000E+00
    0.55466E-06         0.36380E-21         0.00000E+00
    0.55466E-06        -0.10914E-20         0.00000E+00
    0.56242E-06         0.72760E-21         0.00000E+00
    0.56242E-06         0.36380E-21         0.00000E+00
    0.56242E-06        -0.48203E-20         0.00000E+00
    0.56242E-06        -0.27285E-20         0.00000E+00
    0.56242E-06         0.10914E-20         0.00000E+00
    0.56242E-06        -0.54570E-21         0.00000E+00
    0.56242E-06        -0.54570E-20         0.00000E+00
    0.56242E-06        -0.32742E-20         0.00000E+00
    0.56242E-06         0.72760E-21         0.00000E+00
    0.56242E-06        -0.32742E-20         0.00000E+00
    0.56242E-06        -0.47294E-20         0.00000E+00
    0.56242E-06        -0.27285E-20         0.00000E+00
    0.56242E-06        -0.45475E-20         0.00000E+00
    0.56242E-06        -0.90949E-21         0.00000E+00
    0.56242E-06        -0.54570E-21         0.00000E+00
    0.56977E-06         0.23647E-20         0.00000E+00
    0.56977E-06        -0.43656E-20         0.00000E+00
    0.56977E-06        -0.20009E-20         0.00000E+00
    0.56977E-06        -0.24556E-20         0.00000E+00
    0.56977E-06        -0.18190E-21         0.00000E+00
    0.56977E-06         0.12733E-20         0.00000E+00
    0.56977E-06        -0.49113E-20         0.00000E+00
    0.56977E-06        -0.40018E-20         0.00000E+00
    0.56977E-06        -0.54570E-21         0.00000E+00
    0.56977E-06         0.90949E-21         0.00000E+00
    0.56977E-06        -0.30923E-20         0.00000E+00
    0.56977E-06        -0.38199E-20         0.00000E+00
    0.56977E-06         0.14552E-20         0.00000E+00
    0.56977E-06        -0.23647E-20         0.00000E+00
    0.56977E-06         0.16371E-20         0.00000E+00
    0.57668E-06         0.90949E-21         0.00000E+00
    0.57668E-06         0.00000E+00         0.00000E+00
    0.57668E-06        -0.40018E-20         0.00000E+00
    0.57668E-06        -0.45475E-21         0.00000E+00
    0.57668E-06        -0.36380E-21         0.00000E+00
    0.57668E-06        -0.32742E-20         0.00000E+00
    0.57668E-06        -0.36380E-20         0.00000E+00
    0.57668E-06        -0.11369E-20         0.00000E+00
    0.57668E-06        -0.45475E-21         0.00000E+00
    0.57668E-06         0.31832E-20         0.00000E+00
    0.57668E-06         0.10004E-20         0.00000E+00
    0.57668E-06         0.17280E-20         0.00000E+00
    0.57668E-06        -0.27285E-21         0.00000E+00
    0.57668E-06         0.45475E-22         0.00000E+00
    0.57668E-06         0.27285E-20         0.00000E+00
    0.58312E-06         0.90949E-21         0.00000E+00
    0.58312E-06        -0.22737E-21         0.00000E+00
    0.58312E-06         0.63665E-21         0.00000E+00
    0.58312E-06        -0.18190E-20         0.00000E+00
    0.58312E-06        -0.25466E-20         0.00000E+00
    0.58312E-06        -0.36835E-20         0.00000E+00
    0.58312E-06        -0.90949E-22         0.00000E+00
    0.58312E-06        -0.19099E-20         0.00000E+00
    0.58312E-06         0.63665E-21         0.00000E+00
    0.58312E-06         0.24556E-20         0.00000E+00
    0.58312E-06         0.56843E-20         0.00000E+00
    0.58312E-06         0.26375E-20         0.00000E+00
    0.58312E-06        -0.31832E-20         0.00000E+00
    0.58312E-06        -0.18190E-21         0.00000E+00
    0.58312E-06         0.22737E-21         0.00000E+00
    0.58906E-06         0.18190E-20         0.00000E+00
    0.58906E-06        -0.90949E-22         0.00000E+00
    0.58906E-06         0.17280E-20         0.00000E+00
    0.58906E-06        -0.59117E-21         0.00000E+00
    0.58906E-06        -0.81855E-21         0.00000E+00
    0.58906E-06        -0.72760E-21         0.00000E+00
    0.58906E-06        -0.45475E-21         0.00000E+00
    0.58906E-06        -0.31832E-20         0.00000E+00
    0.58906E-06         0.43656E-20         0.00000E+00
    0.58906E-06         0.34561E-20         0.00000E+00
    0.58906E-06         0.45475E-21         0.00000E+00
    0.58906E-06         0.28194E-20         0.00000E+00
    0.58906E-06        -0.17280E-20         0.00000E+00
    0.58906E-06        -0.36380E-21         0.00000E+00
    0.58906E-06        -0.54570E-21         0.00000E+00
    0.59449E-06        -0.18645E-20         0.00000E+00
    0.59449E-06         0.90949E-21         0.00000E+00
    0.59449E-06        -0.26375E-20         0.00000E+00
    0.59449E-06        -0.63665E-21         0.00000E+00
    0.59449E-06         0.23647E-20         0.00000E+00
    0.59449E-06        -0.12733E-20         0.00000E+00
    0.59449E-06        -0.36380E-21         0.00000E+00
    0.59449E-06         0.63477E-37         0.00000E+00
    0.59449E-06         0.10914E-20         0.00000E+00
    0.59449E-06         0.12733E-20         0.00000E+00
    0.59449E-06         0.22737E-20         0.00000E+00
    0.59449E-06         0.15461E-20         0.00000E+00
    0.59449E-06         0.25466E-20         0.00000E+00
    0.59449E-06        -0.90949E-22         0.00000E+00
    0.59449E-06        -0.27285E-21         0.00000E+00
    0.59938E-06        -0.54570E-21         0.00000E+00
    0.59938E-06        -0.17735E-20         0.00000E+00
    0.59938E-06        -0.47748E-21         0.00000E+00
    0.59938E-06        -0.11369E-20         0.00000E+00
    0.59938E-06         0.36380E-21         0.00000E+00
    0.59938E-06         0.10004E-20         0.00000E+00
    0.59938E-06        -0.86402E-21         0.00000E+00
    0.59938E-06        -0.72760E-21         0.00000E+00
    0.59938E-06         0.40927E-21         0.00000E+00
    0.59938E-06         0.00000E+00         0.00000E+00
    0.59938E-06         0.23647E-20         0.00000E+00
    0.59938E-06         0.18417E-20         0.00000E+00
    0.59938E-06         0.31832E-20         0.00000E+00
    0.59938E-06        -0.15234E-20         0.00000E+00
    0.59938E-06         0.12695E-36         0.00000E+00
    0.60372E-06         0.72760E-21         0.00000E+00
    0.60372E-06        -0.50022E-21         0.00000E+00
    0.60372E-06         0.27285E-21         0.00000E+00
    0.60372E-06        -0.61391E-21         0.00000E+00
    0.60372E-06        -0.10459E-20         0.00000E+00
    0.60372E-06        -0.45475E-21         0.00000E+00
    0.60372E-06        -0.63665E-21         0.00000E+00
    0.60372E-06        -0.11369E-20         0.00000E+00
    0.60372E-06         0.34912E-36         0.00000E+00
    0.60372E-06         0.45475E-21         0.00000E+00
    0.60372E-06         0.68212E-21         0.00000E+00
    0.60372E-06        -0.18190E-21         0.00000E+00
    0.60372E-06         0.54570E-21         0.00000E+00
    0.60372E-06         0.45475E-21         0.00000E+00
    0.60372E-06        -0.45475E-21         0.00000E+00
    0.60748E-06        -0.19099E-20         0.00000E+00
    0.60748E-06         0.13415E-20         0.00000E+00
    0.60748E-06        -0.13415E-20         0.00000E+00
    0.60748E-06         0.36380E-21         0.00000E+00
    0.60748E-06        -0.20464E-20         0.00000E+00
    0.60748E-06         0.27285E-21         0.00000E+00
    0.60748E-06        -0.26375E-20         0.00000E+00
    0.60748E-06        -0.28422E-21         0.00000E+00
    0.60748E-06         0.30695E-21         0.00000E+00
    0.60748E-06        -0.12506E-21         0.00000E+00
    0.60748E-06         0.40927E-21         0.00000E+00
    0.60748E-06         0.12278E-20         0.00000E+00
    0.60748E-06        -0.19099E-20         0.00000E+00
    0.60748E-06         0.12619E-20         0.00000E+00
    0.60748E-06        -0.52296E-21         0.00000E+00
    0.61067E-06         0.62755E-20         0.00000E+00
    0.61067E-06        -0.14677E-19         0.00000E+00
    0.61067E-06         0.64688E-20         0.00000E+00
    0.61067E-06         0.70486E-21         0.00000E+00
    0.61067E-06         0.65370E-20         0.00000E+00
    0.61067E-06        -0.14916E-19         0.00000E+00
    0.61067E-06         0.51614E-20         0.00000E+00
    0.61067E-06        -0.56389E-20         0.00000E+00
    0.61067E-06        -0.18417E-20         0.00000E+00
    0.61067E-06         0.92086E-20         0.00000E+00
    0.61067E-06         0.11369E-21         0.00000E+00
    0.61067E-06        -0.72305E-20         0.00000E+00
    0.61067E-06         0.70713E-20         0.00000E+00
    0.61067E-06        -0.11369E-21         0.00000E+00
    0.61067E-06         0.14325E-20         0.00000E+00
POINT_DATA       1456
VECTORS vDarcyNodal double 
    0.17535E-08        -0.11642E-19         0.00000E+00
    0.17535E-08        -0.58208E-20         0.00000E+00
    0.17535E-08        -0.58208E-20         0.00000E+00
    0.17535E-08        -0.11642E-19         0.00000E+00
    0.17535E-08         0.00000E+00         0.00000E+00
    0.17535E-08        -0.58208E-20         0.00000E+00
    0.17535E-08        -0.11642E-19         0.00000E+00
    0.17535E-08         0.00000E+00         0.00000E+00
    0.17535E-08         0.00000E+00         0.00000E+00
    0.17535E-08         0.00000E+00         0.00000E+00
    0.17535E-08        -0.29104E-20         0.00000E+00
    0.17535E-08         0.00000E+00         0.00000E+00
    0.17535E-08         0.29104E-20         0.00000E+00
    0.17535E-08         0.00000E+00         0.00000E+00
    0.17535E-08        -0.29104E-20         0.00000E+00
    0.17535E-08        -0.58208E-20         0.00000E+00
    0.35080E-08         0.58208E-20         0.00000E+00
    0.35080E-08        -0.87311E-20         0.00000E+00
    0.35080E-08        -0.87311E-20         0.00000E+00
    0.35080E-08         0.58208E-20         0.00000E+00
    0.35080E-08        -0.14552E-19         0.00000E+00
    0.35080E-08        -0.17462E-19         0.00000E+00
    0.35080E-08        -0.29104E-20         0.00000E+00
    0.35080E-08        -0.29104E-20         0.00000E+00
    0.35080E-08         0.00000E+00         0.00000E+00
    0.35080E-08         0.53251E-21         0.00000E+00
    0.35080E-08        -0.81986E-20         0.00000E+00
    0.35080E-08        -0.53251E-21         0.00000E+00
    0.35080E-08         0.14019E-19         0.00000E+00
    0.35080E-08         0.58208E-20         0.00000E+00
    0.35080E-08         0.29104E-20         0.00000E+00
    0.35080E-08         0.58208E-20         0.00000E+00
    0.70206E-08         0.00000E+00         0.00000E+00
    0.70206E-08        -0.29104E-20         0.00000E+00
    0.70206E-08         0.00000E+00         0.00000E+00
    0.70206E-08        -0.29104E-20         0.00000E+00
    0.70206E-08        -0.11642E-19         0.00000E+00
    0.70206E-08        -0.14552E-19         0.00000E+00
    0.70206E-08         0.00000E+00         0.00000E+00
    0.70206E-08         0.00000E+00         0.00000E+00
    0.70206E-08        -0.29104E-20         0.00000E+00
    0.70206E-08        -0.76676E-20         0.00000E+00
    0.70206E-08        -0.62124E-20         0.00000E+00
    0.70206E-08         0.23675E-19         0.00000E+00
    0.70206E-08         0.10578E-19         0.00000E+00
    0.70206E-08        -0.58208E-20         0.00000E+00
    0.70206E-08         0.00000E+00         0.00000E+00
    0.70206E-08         0.58208E-20         0.00000E+00
    0.10542E-07        -0.12429E-19         0.00000E+00
    0.10542E-07         0.29104E-20         0.00000E+00
    0.10542E-07         0.58208E-20         0.00000E+00
    0.10542E-07        -0.16007E-19         0.00000E+00
    0.10542E-07        -0.19979E-19         0.00000E+00
    0.10542E-07        -0.87311E-20         0.00000E+00
    0.10542E-07        -0.91248E-20         0.00000E+00
    0.10542E-07        -0.91248E-20         0.00000E+00
    0.10542E-07         0.91248E-20         0.00000E+00
    0.10542E-07         0.17856E-19         0.00000E+00
    0.10542E-07         0.93990E-20         0.00000E+00
    0.10542E-07        -0.76696E-20         0.00000E+00
    0.10542E-07         0.39368E-21         0.00000E+00
    0.10542E-07         0.87311E-20         0.00000E+00
    0.10542E-07        -0.29104E-20         0.00000E+00
    0.10542E-07        -0.58208E-20         0.00000E+00
    0.14077E-07        -0.17462E-19         0.00000E+00
    0.14077E-07        -0.11642E-19         0.00000E+00
    0.14077E-07        -0.87311E-20         0.00000E+00
    0.14077E-07        -0.58208E-20         0.00000E+00
    0.14077E-07         0.00000E+00         0.00000E+00
    0.14077E-07         0.00000E+00         0.00000E+00
    0.14077E-07        -0.14552E-19         0.00000E+00
    0.14077E-07        -0.20373E-19         0.00000E+00
    0.14077E-07        -0.11642E-19         0.00000E+00
    0.14077E-07         0.50281E-20         0.00000E+00
    0.14077E-07         0.13759E-19         0.00000E+00
    0.14077E-07         0.51582E-20         0.00000E+00
    0.14077E-07         0.12434E-19         0.00000E+00
    0.14077E-07         0.29104E-20         0.00000E+00
    0.14077E-07         0.00000E+00         0.00000E+00
    0.14077E-07         0.17462E-19         0.00000E+00
    0.17630E-07         0.23283E-19         0.00000E+00
    0.17630E-07         0.29104E-20         0.00000E+00
    0.17630E-07        -0.11642E-19         0.00000E+00
    0.17630E-07         0.35665E-20         0.00000E+00
    0.17630E-07         0.10985E-19         0.00000E+00
    0.17630E-07         0.59638E-20         0.00000E+00
    0.17630E-07        -0.58208E-20         0.00000E+00
    0.17630E-07        -0.17605E-19         0.00000E+00
    0.17630E-07        -0.66199E-20         0.00000E+00
    0.17630E-07        -0.65609E-21         0.00000E+00
    0.17630E-07         0.65609E-21         0.00000E+00
    0.17630E-07         0.58208E-20         0.00000E+00
    0.17630E-07         0.29104E-20         0.00000E+00
    0.17630E-07         0.11642E-19         0.00000E+00
    0.17630E-07         0.37095E-20         0.00000E+00
    0.17630E-07         0.00000E+00         0.00000E+00
    0.21206E-07        -0.10345E-19         0.00000E+00
    0.21206E-07        -0.58208E-20         0.00000E+00
    0.21206E-07        -0.20595E-34         0.00000E+00
    0.21206E-07         0.87311E-20         0.00000E+00
    0.21206E-07         0.80827E-20         0.00000E+00
    0.21206E-07        -0.58208E-20         0.00000E+00
    0.21206E-07        -0.15359E-19         0.00000E+00
    0.21206E-07        -0.37171E-20         0.00000E+00
    0.21206E-07        -0.64692E-20         0.00000E+00
    0.21206E-07        -0.93796E-20         0.00000E+00
    0.21206E-07        -0.30687E-20         0.00000E+00
    0.21206E-07        -0.80676E-21         0.00000E+00
    0.21206E-07         0.10993E-19         0.00000E+00
    0.21206E-07         0.14552E-19         0.00000E+00
    0.21206E-07         0.58208E-20         0.00000E+00
    0.21206E-07         0.00000E+00         0.00000E+00
    0.24809E-07        -0.45416E-20         0.00000E+00
    0.24809E-07         0.58208E-20         0.00000E+00
    0.24809E-07         0.51812E-20         0.00000E+00
    0.24809E-07        -0.29104E-20         0.00000E+00
    0.24809E-07         0.29104E-20         0.00000E+00
    0.24809E-07         0.87311E-20         0.00000E+00
    0.24809E-07         0.58208E-20         0.00000E+00
    0.24809E-07        -0.29104E-20         0.00000E+00
    0.24809E-07        -0.22708E-20         0.00000E+00
    0.24809E-07         0.63956E-21         0.00000E+00
    0.24809E-07        -0.93707E-20         0.00000E+00
    0.24809E-07         0.00000E+00         0.00000E+00
    0.24809E-07         0.93707E-20         0.00000E+00
    0.24809E-07         0.22708E-20         0.00000E+00
    0.24809E-07         0.58208E-20         0.00000E+00
    0.24809E-07        -0.16313E-20         0.00000E+00
    0.28443E-07        -0.11642E-19         0.00000E+00
    0.28443E-07         0.00000E+00         0.00000E+00
    0.28443E-07         0.58208E-20         0.00000E+00
    0.28443E-07        -0.58208E-20         0.00000E+00
    0.28443E-07        -0.29104E-20         0.00000E+00
    0.28443E-07         0.87311E-20         0.00000E+00
    0.28443E-07         0.17462E-19         0.00000E+00
    0.28443E-07         0.20373E-19         0.00000E+00
    0.28443E-07        -0.58208E-20         0.00000E+00
    0.28443E-07        -0.23479E-19         0.00000E+00
    0.28443E-07        -0.17659E-19         0.00000E+00
    0.28443E-07        -0.20176E-19         0.00000E+00
    0.28443E-07        -0.12590E-20         0.00000E+00
    0.28443E-07         0.00000E+00         0.00000E+00
    0.28443E-07         0.00000E+00         0.00000E+00
    0.28443E-07         0.23283E-19         0.00000E+00
    0.32114E-07         0.33481E-20         0.00000E+00
    0.32114E-07        -0.12363E-20         0.00000E+00
    0.32114E-07        -0.16226E-19         0.00000E+00
    0.32114E-07        -0.16226E-19         0.00000E+00
    0.32114E-07         0.58208E-20         0.00000E+00
    0.32114E-07         0.14552E-19         0.00000E+00
    0.32114E-07         0.29104E-20         0.00000E+00
    0.32114E-07        -0.87311E-20         0.00000E+00
    0.32114E-07        -0.58208E-20         0.00000E+00
    0.32114E-07        -0.14552E-19         0.00000E+00
    0.32114E-07        -0.23283E-19         0.00000E+00
    0.32114E-07        -0.14552E-19         0.00000E+00
    0.32114E-07         0.00000E+00         0.00000E+00
    0.32114E-07         0.00000E+00         0.00000E+00
    0.32114E-07         0.00000E+00         0.00000E+00
    0.32114E-07         0.00000E+00         0.00000E+00
    0.35825E-07         0.00000E+00         0.00000E+00
    0.35825E-07         0.87311E-20         0.00000E+00
    0.35825E-07         0.14552E-19         0.00000E+00
    0.35825E-07         0.12112E-20         0.00000E+00
    0.35825E-07        -0.55768E-20         0.00000E+00
    0.35825E-07        -0.53329E-20         0.00000E+00
    0.35825E-07        -0.87311E-20         0.00000E+00
    0.35825E-07        -0.12129E-19         0.00000E+00
    0.35825E-07        -0.11885E-19         0.00000E+00
    0.35825E-07        -0.99424E-20         0.00000E+00
    0.35825E-07        -0.60647E-20         0.00000E+00
    0.35825E-07        -0.11642E-19         0.00000E+00
    0.35825E-07         0.58208E-20         0.00000E+00
    0.35825E-07         0.17462E-19         0.00000E+00
    0.35825E-07         0.31543E-20         0.00000E+00
    0.35825E-07         0.58208E-20         0.00000E+00
    0.39582E-07        -0.17462E-19         0.00000E+00
    0.39582E-07        -0.87311E-20         0.00000E+00
    0.39582E-07         0.58208E-20         0.00000E+00
    0.39582E-07         0.87311E-20         0.00000E+00
    0.39582E-07         0.58208E-20         0.00000E+00
    0.39582E-07        -0.87311E-20         0.00000E+00
    0.39582E-07        -0.29104E-20         0.00000E+00
    0.39582E-07         0.29104E-20         0.00000E+00
    0.39582E-07        -0.11642E-19         0.00000E+00
    0.39582E-07        -0.14552E-19         0.00000E+00
    0.39582E-07        -0.29104E-20         0.00000E+00
    0.39582E-07         0.14552E-19         0.00000E+00
    0.39582E-07         0.11642E-19         0.00000E+00
    0.39582E-07         0.31820E-20         0.00000E+00
    0.39582E-07         0.58208E-20         0.00000E+00
    0.39582E-07         0.81880E-20         0.00000E+00
    0.43388E-07        -0.60352E-21         0.00000E+00
    0.43388E-07        -0.29104E-20         0.00000E+00
    0.43388E-07         0.58208E-20         0.00000E+00
    0.43388E-07         0.17462E-19         0.00000E+00
    0.43388E-07         0.11943E-19         0.00000E+00
    0.43388E-07         0.58208E-20         0.00000E+00
    0.43388E-07        -0.32121E-20         0.00000E+00
    0.43388E-07        -0.17570E-20         0.00000E+00
    0.43388E-07         0.11943E-19         0.00000E+00
    0.43388E-07         0.90329E-20         0.00000E+00
    0.43388E-07        -0.20976E-19         0.00000E+00
    0.43388E-07        -0.23585E-19         0.00000E+00
    0.43388E-07        -0.69742E-20         0.00000E+00
    0.43388E-07        -0.13097E-19         0.00000E+00
    0.43388E-07        -0.72760E-20         0.00000E+00
    0.43388E-07        -0.58208E-20         0.00000E+00
    0.47249E-07         0.51517E-20         0.00000E+00
    0.47249E-07         0.83966E-20         0.00000E+00
    0.47249E-07         0.20707E-19         0.00000E+00
    0.47249E-07         0.19252E-19         0.00000E+00
    0.47249E-07        -0.58208E-20         0.00000E+00
    0.47249E-07        -0.33453E-21         0.00000E+00
    0.47249E-07         0.17128E-19         0.00000E+00
    0.47249E-07         0.87311E-20         0.00000E+00
    0.47249E-07        -0.87311E-20         0.00000E+00
    0.47249E-07        -0.58208E-20         0.00000E+00
    0.47249E-07        -0.58208E-20         0.00000E+00
    0.47249E-07        -0.17462E-19         0.00000E+00
    0.47249E-07        -0.11307E-19         0.00000E+00
    0.47249E-07        -0.17462E-19         0.00000E+00
    0.47249E-07        -0.13431E-19         0.00000E+00
    0.47249E-07         0.00000E+00         0.00000E+00
    0.51168E-07         0.50809E-20         0.00000E+00
    0.51168E-07        -0.14552E-20         0.00000E+00
    0.51168E-07         0.61907E-20         0.00000E+00
    0.51168E-07         0.11642E-19         0.00000E+00
    0.51168E-07         0.58208E-20         0.00000E+00
    0.51168E-07         0.29104E-20         0.00000E+00
    0.51168E-07        -0.58208E-20         0.00000E+00
    0.51168E-07         0.29104E-20         0.00000E+00
    0.51168E-07         0.25405E-20         0.00000E+00
    0.51168E-07        -0.76459E-20         0.00000E+00
    0.51168E-07        -0.25405E-20         0.00000E+00
    0.51168E-07         0.29104E-20         0.00000E+00
    0.51168E-07        -0.12011E-19         0.00000E+00
    0.51168E-07        -0.17092E-19         0.00000E+00
    0.51168E-07        -0.11642E-19         0.00000E+00
    0.51168E-07        -0.94710E-20         0.00000E+00
    0.55152E-07        -0.12784E-20         0.00000E+00
    0.55152E-07         0.11002E-19         0.00000E+00
    0.55152E-07         0.87311E-20         0.00000E+00
    0.55152E-07         0.29104E-20         0.00000E+00
    0.55152E-07         0.29104E-20         0.00000E+00
    0.55152E-07         0.11642E-19         0.00000E+00
    0.55152E-07         0.58208E-20         0.00000E+00
    0.55152E-07        -0.13913E-19         0.00000E+00
    0.55152E-07        -0.19734E-19         0.00000E+00
    0.55152E-07        -0.14552E-19         0.00000E+00
    0.55152E-07        -0.58208E-20         0.00000E+00
    0.55152E-07         0.29104E-20         0.00000E+00
    0.55152E-07        -0.43656E-20         0.00000E+00
    0.55152E-07        -0.72760E-20         0.00000E+00
    0.55152E-07        -0.63918E-21         0.00000E+00
    0.55152E-07         0.16320E-20         0.00000E+00
    0.59203E-07         0.11642E-19         0.00000E+00
    0.59203E-07         0.17462E-19         0.00000E+00
    0.59203E-07         0.87311E-20         0.00000E+00
    0.59203E-07        -0.29104E-20         0.00000E+00
    0.59203E-07        -0.58208E-20         0.00000E+00
    0.59203E-07        -0.29104E-20         0.00000E+00
    0.59203E-07         0.58208E-20         0.00000E+00
    0.59203E-07        -0.29104E-20         0.00000E+00
    0.59203E-07        -0.17462E-19         0.00000E+00
    0.59203E-07        -0.52632E-20         0.00000E+00
    0.59203E-07         0.63783E-20         0.00000E+00
    0.59203E-07        -0.63783E-20         0.00000E+00
    0.59203E-07        -0.10744E-19         0.00000E+00
    0.59203E-07        -0.87311E-20         0.00000E+00
    0.59203E-07         0.00000E+00         0.00000E+00
    0.59203E-07         0.58208E-20         0.00000E+00
    0.63327E-07        -0.10701E-19         0.00000E+00
    0.63327E-07        -0.87311E-20         0.00000E+00
    0.63327E-07         0.82607E-20         0.00000E+00
    0.63327E-07         0.11642E-19         0.00000E+00
    0.63327E-07         0.00000E+00         0.00000E+00
    0.63327E-07         0.10657E-19         0.00000E+00
    0.63327E-07         0.16478E-19         0.00000E+00
    0.63327E-07         0.29104E-20         0.00000E+00
    0.63327E-07        -0.29104E-20         0.00000E+00
    0.63327E-07         0.58208E-20         0.00000E+00
    0.63327E-07        -0.14552E-19         0.00000E+00
    0.63327E-07        -0.17462E-19         0.00000E+00
    0.63327E-07         0.24399E-20         0.00000E+00
    0.63327E-07         0.87311E-20         0.00000E+00
    0.63327E-07         0.62912E-20         0.00000E+00
    0.63327E-07         0.00000E+00         0.00000E+00
    0.67528E-07        -0.65761E-20         0.00000E+00
    0.67528E-07        -0.76536E-20         0.00000E+00
    0.67528E-07        -0.25327E-20         0.00000E+00
    0.67528E-07        -0.54431E-20         0.00000E+00
    0.67528E-07         0.00000E+00         0.00000E+00
    0.67528E-07         0.11642E-19         0.00000E+00
    0.67528E-07        -0.29104E-20         0.00000E+00
    0.67528E-07        -0.17462E-19         0.00000E+00
    0.67528E-07        -0.87311E-20         0.00000E+00
    0.67528E-07         0.00000E+00         0.00000E+00
    0.67528E-07         0.00000E+00         0.00000E+00
    0.67528E-07         0.00000E+00         0.00000E+00
    0.67528E-07        -0.58208E-20         0.00000E+00
    0.67528E-07         0.00000E+00         0.00000E+00
    0.67528E-07         0.11642E-19         0.00000E+00
    0.67528E-07         0.11642E-19         0.00000E+00
    0.71810E-07        -0.81729E-20         0.00000E+00
    0.71810E-07        -0.87311E-20         0.00000E+00
    0.71810E-07        -0.13376E-19         0.00000E+00
    0.71810E-07        -0.29104E-20         0.00000E+00
    0.71810E-07        -0.14552E-19         0.00000E+00
    0.71810E-07        -0.87311E-20         0.00000E+00
    0.71810E-07         0.87311E-20         0.00000E+00
    0.71810E-07        -0.87311E-20         0.00000E+00
    0.71810E-07        -0.87311E-20         0.00000E+00
    0.71810E-07         0.00000E+00         0.00000E+00
    0.71810E-07         0.00000E+00         0.00000E+00
    0.71810E-07        -0.52626E-20         0.00000E+00
    0.71810E-07        -0.69969E-20         0.00000E+00
    0.71810E-07        -0.60999E-20         0.00000E+00
    0.71810E-07        -0.58208E-20         0.00000E+00
    0.71810E-07         0.00000E+00         0.00000E+00
    0.76180E-07         0.58208E-20         0.00000E+00
    0.76180E-07        -0.58208E-20         0.00000E+00
    0.76180E-07        -0.29104E-20         0.00000E+00
    0.76180E-07         0.45402E-20         0.00000E+00
    0.76180E-07        -0.16299E-20         0.00000E+00
    0.76180E-07        -0.19267E-19         0.00000E+00
    0.76180E-07        -0.32014E-19         0.00000E+00
    0.76180E-07        -0.15658E-19         0.00000E+00
    0.76180E-07        -0.12805E-20         0.00000E+00
    0.76180E-07        -0.45402E-20         0.00000E+00
    0.76180E-07        -0.12922E-19         0.00000E+00
    0.76180E-07        -0.11642E-19         0.00000E+00
    0.76180E-07         0.29104E-20         0.00000E+00
    0.76180E-07         0.14552E-19         0.00000E+00
    0.76180E-07         0.71013E-20         0.00000E+00
    0.76180E-07        -0.58208E-20         0.00000E+00
    0.80640E-07         0.00000E+00         0.00000E+00
    0.80640E-07         0.29104E-20         0.00000E+00
    0.80640E-07        -0.58208E-20         0.00000E+00
    0.80640E-07        -0.17462E-19         0.00000E+00
    0.80640E-07        -0.14552E-19         0.00000E+00
    0.80640E-07        -0.23283E-19         0.00000E+00
    0.80640E-07        -0.24674E-19         0.00000E+00
    0.80640E-07        -0.15943E-19         0.00000E+00
    0.80640E-07        -0.10251E-19         0.00000E+00
    0.80640E-07        -0.73402E-20         0.00000E+00
    0.80640E-07        -0.18853E-19         0.00000E+00
    0.80640E-07        -0.18853E-19         0.00000E+00
    0.80640E-07         0.87311E-20         0.00000E+00
    0.80640E-07         0.14552E-19         0.00000E+00
    0.80640E-07         0.10186E-19         0.00000E+00
    0.80640E-07         0.17462E-19         0.00000E+00
    0.85195E-07         0.00000E+00         0.00000E+00
    0.85195E-07         0.00000E+00         0.00000E+00
    0.85195E-07         0.29104E-20         0.00000E+00
    0.85195E-07         0.29104E-20         0.00000E+00
    0.85195E-07        -0.14552E-19         0.00000E+00
    0.85195E-07        -0.26193E-19         0.00000E+00
    0.85195E-07        -0.29104E-19         0.00000E+00
    0.85195E-07        -0.17462E-19         0.00000E+00
    0.85195E-07        -0.87311E-20         0.00000E+00
    0.85195E-07        -0.23283E-19         0.00000E+00
    0.85195E-07        -0.87311E-20         0.00000E+00
    0.85195E-07         0.00000E+00         0.00000E+00
    0.85195E-07        -0.14552E-19         0.00000E+00
    0.85195E-07        -0.10134E-19         0.00000E+00
    0.85195E-07        -0.52662E-35         0.00000E+00
    0.85195E-07         0.28057E-20         0.00000E+00
    0.89850E-07         0.32607E-20         0.00000E+00
    0.89850E-07         0.87311E-20         0.00000E+00
    0.89850E-07         0.41904E-20         0.00000E+00
    0.89850E-07         0.00000E+00         0.00000E+00
    0.89850E-07         0.11642E-19         0.00000E+00
    0.89850E-07         0.29104E-20         0.00000E+00
    0.89850E-07        -0.17462E-19         0.00000E+00
    0.89850E-07        -0.26193E-19         0.00000E+00
    0.89850E-07        -0.11642E-19         0.00000E+00
    0.89850E-07        -0.29104E-20         0.00000E+00
    0.89850E-07        -0.15832E-19         0.00000E+00
    0.89850E-07        -0.14552E-19         0.00000E+00
    0.89850E-07        -0.16182E-19         0.00000E+00
    0.89850E-07        -0.29104E-20         0.00000E+00
    0.89850E-07        -0.11642E-19         0.00000E+00
    0.89850E-07        -0.29104E-19         0.00000E+00
    0.94610E-07         0.13943E-19         0.00000E+00
    0.94610E-07         0.13097E-19         0.00000E+00
    0.94610E-07         0.46700E-20         0.00000E+00
    0.94610E-07        -0.11642E-19         0.00000E+00
    0.94610E-07        -0.87311E-20         0.00000E+00
    0.94610E-07         0.00000E+00         0.00000E+00
    0.94610E-07        -0.58208E-20         0.00000E+00
    0.94610E-07        -0.87311E-20         0.00000E+00
    0.94610E-07        -0.14552E-19         0.00000E+00
    0.94610E-07        -0.17462E-19         0.00000E+00
    0.94610E-07        -0.32319E-19         0.00000E+00
    0.94610E-07        -0.22132E-19         0.00000E+00
    0.94610E-07        -0.40611E-20         0.00000E+00
    0.94610E-07        -0.84267E-20         0.00000E+00
    0.94610E-07        -0.75804E-20         0.00000E+00
    0.94610E-07        -0.64296E-20         0.00000E+00
    0.99479E-07         0.00000E+00         0.00000E+00
    0.99479E-07         0.00000E+00         0.00000E+00
    0.99479E-07         0.68357E-20         0.00000E+00
    0.99479E-07         0.72760E-20         0.00000E+00
    0.99479E-07        -0.24701E-20         0.00000E+00
    0.99479E-07         0.29104E-20         0.00000E+00
    0.99479E-07        -0.58208E-20         0.00000E+00
    0.99479E-07        -0.20373E-19         0.00000E+00
    0.99479E-07        -0.25619E-19         0.00000E+00
    0.99479E-07        -0.22268E-19         0.00000E+00
    0.99479E-07        -0.17022E-19         0.00000E+00
    0.99479E-07        -0.82909E-20         0.00000E+00
    0.99479E-07        -0.29104E-20         0.00000E+00
    0.99479E-07        -0.48058E-20         0.00000E+00
    0.99479E-07        -0.29104E-20         0.00000E+00
    0.99479E-07        -0.58208E-20         0.00000E+00
    0.10446E-06         0.58208E-20         0.00000E+00
    0.10446E-06         0.23276E-20         0.00000E+00
    0.10446E-06        -0.29104E-20         0.00000E+00
    0.10446E-06        -0.87311E-20         0.00000E+00
    0.10446E-06        -0.23283E-19         0.00000E+00
    0.10446E-06        -0.26193E-19         0.00000E+00
    0.10446E-06        -0.17462E-19         0.00000E+00
    0.10446E-06        -0.12224E-19         0.00000E+00
    0.10446E-06        -0.84415E-20         0.00000E+00
    0.10446E-06        -0.11931E-19         0.00000E+00
    0.10446E-06        -0.17752E-19         0.00000E+00
    0.10446E-06        -0.84415E-20         0.00000E+00
    0.10446E-06         0.81484E-20         0.00000E+00
    0.10446E-06        -0.58208E-20         0.00000E+00
    0.10446E-06        -0.14552E-19         0.00000E+00
    0.10446E-06        -0.46552E-20         0.00000E+00
    0.10956E-06        -0.24747E-19         0.00000E+00
    0.10956E-06        -0.12374E-19         0.00000E+00
    0.10956E-06        -0.29104E-20         0.00000E+00
    0.10956E-06        -0.10909E-19         0.00000E+00
    0.10956E-06        -0.13820E-19         0.00000E+00
    0.10956E-06        -0.12374E-19         0.00000E+00
    0.10956E-06        -0.20373E-19         0.00000E+00
    0.10956E-06        -0.22551E-19         0.00000E+00
    0.10956E-06        -0.17462E-19         0.00000E+00
    0.10956E-06        -0.17471E-19         0.00000E+00
    0.10956E-06        -0.50977E-20         0.00000E+00
    0.10956E-06        -0.58208E-20         0.00000E+00
    0.10956E-06        -0.29104E-20         0.00000E+00
    0.10956E-06         0.15284E-19         0.00000E+00
    0.10956E-06         0.58208E-20         0.00000E+00
    0.10956E-06        -0.58208E-20         0.00000E+00
    0.11478E-06         0.11332E-20         0.00000E+00
    0.11478E-06        -0.78425E-20         0.00000E+00
    0.11478E-06         0.52542E-20         0.00000E+00
    0.11478E-06         0.49322E-20         0.00000E+00
    0.11478E-06        -0.23283E-19         0.00000E+00
    0.11478E-06        -0.21261E-19         0.00000E+00
    0.11478E-06        -0.13663E-19         0.00000E+00
    0.11478E-06        -0.23283E-19         0.00000E+00
    0.11478E-06        -0.26515E-19         0.00000E+00
    0.11478E-06        -0.20373E-19         0.00000E+00
    0.11478E-06        -0.58208E-20         0.00000E+00
    0.11478E-06         0.87311E-20         0.00000E+00
    0.11478E-06         0.67094E-20         0.00000E+00
    0.11478E-06         0.13097E-19         0.00000E+00
    0.11478E-06         0.14552E-19         0.00000E+00
    0.11478E-06         0.75980E-20         0.00000E+00
    0.12013E-06         0.10030E-19         0.00000E+00
    0.12013E-06        -0.29104E-20         0.00000E+00
    0.12013E-06        -0.13746E-19         0.00000E+00
    0.12013E-06        -0.51714E-20         0.00000E+00
    0.12013E-06        -0.12447E-19         0.00000E+00
    0.12013E-06        -0.23932E-19         0.00000E+00
    0.12013E-06        -0.11642E-19         0.00000E+00
    0.12013E-06        -0.11642E-19         0.00000E+00
    0.12013E-06        -0.28298E-19         0.00000E+00
    0.12013E-06        -0.20373E-19         0.00000E+00
    0.12013E-06         0.00000E+00         0.00000E+00
    0.12013E-06         0.29104E-20         0.00000E+00
    0.12013E-06         0.66266E-20         0.00000E+00
    0.12013E-06         0.13097E-19         0.00000E+00
    0.12013E-06         0.10030E-19         0.00000E+00
    0.12013E-06         0.15851E-19         0.00000E+00
    0.12561E-06        -0.58208E-20         0.00000E+00
    0.12561E-06        -0.58208E-20         0.00000E+00
    0.12561E-06         0.00000E+00         0.00000E+00
    0.12561E-06        -0.11642E-19         0.00000E+00
    0.12561E-06        -0.17462E-19         0.00000E+00
    0.12561E-06        -0.29104E-20         0.00000E+00
    0.12561E-06        -0.23283E-19         0.00000E+00
    0.12561E-06        -0.34925E-19         0.00000E+00
    0.12561E-06        -0.11642E-19         0.00000E+00
    0.12561E-06         0.87311E-20         0.00000E+00
    0.12561E-06         0.87311E-20         0.00000E+00
    0.12561E-06         0.11642E-19         0.00000E+00
    0.12561E-06         0.20373E-19         0.00000E+00
    0.12561E-06         0.11642E-19         0.00000E+00
    0.12561E-06         0.53570E-20         0.00000E+00
    0.12561E-06         0.78036E-20         0.00000E+00
    0.13122E-06        -0.58208E-20         0.00000E+00
    0.13122E-06        -0.58208E-20         0.00000E+00
    0.13122E-06        -0.29104E-20         0.00000E+00
    0.13122E-06        -0.58208E-20         0.00000E+00
    0.13122E-06        -0.11642E-19         0.00000E+00
    0.13122E-06        -0.17462E-19         0.00000E+00
    0.13122E-06        -0.24845E-19         0.00000E+00
    0.13122E-06        -0.21828E-19         0.00000E+00
    0.13122E-06        -0.86246E-20         0.00000E+00
    0.13122E-06         0.58208E-20         0.00000E+00
    0.13122E-06         0.87311E-20         0.00000E+00
    0.13122E-06         0.14552E-19         0.00000E+00
    0.13122E-06         0.14552E-19         0.00000E+00
    0.13122E-06         0.14552E-19         0.00000E+00
    0.13122E-06         0.42590E-20         0.00000E+00
    0.13122E-06        -0.89443E-20         0.00000E+00
    0.13697E-06         0.00000E+00         0.00000E+00
    0.13697E-06         0.00000E+00         0.00000E+00
    0.13697E-06        -0.14286E-19         0.00000E+00
    0.13697E-06        -0.72760E-20         0.00000E+00
    0.13697E-06         0.55546E-20         0.00000E+00
    0.13697E-06        -0.58208E-20         0.00000E+00
    0.13697E-06        -0.11642E-19         0.00000E+00
    0.13697E-06        -0.89973E-20         0.00000E+00
    0.13697E-06        -0.58208E-20         0.00000E+00
    0.13697E-06        -0.55546E-20         0.00000E+00
    0.13697E-06        -0.26615E-21         0.00000E+00
    0.13697E-06         0.72760E-20         0.00000E+00
    0.13697E-06         0.89973E-20         0.00000E+00
    0.13697E-06        -0.60869E-20         0.00000E+00
    0.13697E-06         0.00000E+00         0.00000E+00
    0.13697E-06         0.17995E-19         0.00000E+00
    0.14287E-06         0.58208E-20         0.00000E+00
    0.14287E-06         0.87311E-20         0.00000E+00
    0.14287E-06         0.58208E-20         0.00000E+00
    0.14287E-06         0.29104E-20         0.00000E+00
    0.14287E-06        -0.58208E-20         0.00000E+00
    0.14287E-06        -0.17462E-19         0.00000E+00
    0.14287E-06        -0.20373E-19         0.00000E+00
    0.14287E-06        -0.22483E-19         0.00000E+00
    0.14287E-06        -0.11642E-19         0.00000E+00
    0.14287E-06        -0.10186E-19         0.00000E+00
    0.14287E-06         0.37108E-20         0.00000E+00
    0.14287E-06         0.87311E-20         0.00000E+00
    0.14287E-06        -0.80042E-21         0.00000E+00
    0.14287E-06        -0.10438E-34         0.00000E+00
    0.14287E-06        -0.58208E-20         0.00000E+00
    0.14287E-06        -0.19063E-19         0.00000E+00
    0.14891E-06         0.00000E+00         0.00000E+00
    0.14891E-06         0.87311E-20         0.00000E+00
    0.14891E-06         0.17462E-19         0.00000E+00
    0.14891E-06         0.87311E-20         0.00000E+00
    0.14891E-06        -0.87311E-20         0.00000E+00
    0.14891E-06        -0.11642E-19         0.00000E+00
    0.14891E-06        -0.11642E-19         0.00000E+00
    0.14891E-06        -0.11642E-19         0.00000E+00
    0.14891E-06        -0.17462E-19         0.00000E+00
    0.14891E-06        -0.20373E-19         0.00000E+00
    0.14891E-06        -0.20373E-19         0.00000E+00
    0.14891E-06        -0.20373E-19         0.00000E+00
    0.14891E-06        -0.29104E-20         0.00000E+00
    0.14891E-06        -0.58208E-20         0.00000E+00
    0.14891E-06        -0.83356E-20         0.00000E+00
    0.14891E-06        -0.50297E-20         0.00000E+00
    0.15510E-06         0.11642E-19         0.00000E+00
    0.15510E-06         0.17462E-19         0.00000E+00
    0.15510E-06         0.87311E-20         0.00000E+00
    0.15510E-06        -0.29104E-20         0.00000E+00
    0.15510E-06        -0.87311E-20         0.00000E+00
    0.15510E-06        -0.23283E-19         0.00000E+00
    0.15510E-06        -0.14552E-19         0.00000E+00
    0.15510E-06        -0.14813E-20         0.00000E+00
    0.15510E-06        -0.11642E-19         0.00000E+00
    0.15510E-06        -0.26193E-19         0.00000E+00
    0.15510E-06        -0.18944E-19         0.00000E+00
    0.15510E-06        -0.14552E-19         0.00000E+00
    0.15510E-06        -0.14552E-19         0.00000E+00
    0.15510E-06        -0.10160E-19         0.00000E+00
    0.15510E-06        -0.14552E-19         0.00000E+00
    0.15510E-06        -0.14604E-19         0.00000E+00
    0.16144E-06         0.58208E-20         0.00000E+00
    0.16144E-06         0.46480E-21         0.00000E+00
    0.16144E-06        -0.99039E-21         0.00000E+00
    0.16144E-06         0.00000E+00         0.00000E+00
    0.16144E-06        -0.11642E-19         0.00000E+00
    0.16144E-06        -0.23283E-19         0.00000E+00
    0.16144E-06        -0.23748E-19         0.00000E+00
    0.16144E-06        -0.17927E-19         0.00000E+00
    0.16144E-06        -0.97215E-20         0.00000E+00
    0.16144E-06        -0.43656E-20         0.00000E+00
    0.16144E-06        -0.20837E-19         0.00000E+00
    0.16144E-06        -0.22818E-19         0.00000E+00
    0.16144E-06        -0.87311E-20         0.00000E+00
    0.16144E-06        -0.52952E-20         0.00000E+00
    0.16144E-06        -0.58208E-20         0.00000E+00
    0.16144E-06        -0.48912E-20         0.00000E+00
    0.16794E-06        -0.11642E-19         0.00000E+00
    0.16794E-06        -0.29104E-20         0.00000E+00
    0.16794E-06        -0.29104E-20         0.00000E+00
    0.16794E-06        -0.29104E-20         0.00000E+00
    0.16794E-06        -0.11642E-19         0.00000E+00
    0.16794E-06        -0.14552E-19         0.00000E+00
    0.16794E-06        -0.87311E-20         0.00000E+00
    0.16794E-06        -0.17462E-19         0.00000E+00
    0.16794E-06        -0.26193E-19         0.00000E+00
    0.16794E-06        -0.23283E-19         0.00000E+00
    0.16794E-06         0.00000E+00         0.00000E+00
    0.16794E-06        -0.52866E-20         0.00000E+00
    0.16794E-06        -0.14552E-19         0.00000E+00
    0.16794E-06        -0.78101E-20         0.00000E+00
    0.16794E-06         0.58208E-20         0.00000E+00
    0.16794E-06         0.58208E-20         0.00000E+00
    0.17459E-06         0.86112E-20         0.00000E+00
    0.17459E-06        -0.59969E-22         0.00000E+00
    0.17459E-06        -0.10126E-19         0.00000E+00
    0.17459E-06        -0.86712E-20         0.00000E+00
    0.17459E-06        -0.29104E-20         0.00000E+00
    0.17459E-06        -0.73359E-20         0.00000E+00
    0.17459E-06        -0.14552E-19         0.00000E+00
    0.17459E-06        -0.86712E-20         0.00000E+00
    0.17459E-06        -0.87311E-20         0.00000E+00
    0.17459E-06        -0.14552E-19         0.00000E+00
    0.17459E-06        -0.87311E-20         0.00000E+00
    0.17459E-06        -0.14552E-19         0.00000E+00
    0.17459E-06        -0.29104E-20         0.00000E+00
    0.17459E-06         0.87311E-20         0.00000E+00
    0.17459E-06        -0.58208E-20         0.00000E+00
    0.17459E-06        -0.58208E-20         0.00000E+00
    0.18141E-06        -0.11642E-19         0.00000E+00
    0.18141E-06         0.29104E-20         0.00000E+00
    0.18141E-06         0.16440E-19         0.00000E+00
    0.18141E-06         0.72760E-20         0.00000E+00
    0.18141E-06        -0.91638E-20         0.00000E+00
    0.18141E-06        -0.58208E-20         0.00000E+00
    0.18141E-06        -0.87311E-20         0.00000E+00
    0.18141E-06        -0.17462E-19         0.00000E+00
    0.18141E-06         0.00000E+00         0.00000E+00
    0.18141E-06         0.58208E-20         0.00000E+00
    0.18141E-06        -0.58208E-20         0.00000E+00
    0.18141E-06         0.58208E-20         0.00000E+00
    0.18141E-06         0.58208E-20         0.00000E+00
    0.18141E-06         0.87311E-20         0.00000E+00
    0.18141E-06         0.53882E-20         0.00000E+00
    0.18141E-06        -0.95964E-20         0.00000E+00
    0.18840E-06         0.58208E-20         0.00000E+00
    0.18840E-06         0.29104E-20         0.00000E+00
    0.18840E-06         0.29104E-20         0.00000E+00
    0.18840E-06         0.63319E-20         0.00000E+00
    0.18840E-06        -0.87311E-20         0.00000E+00
    0.18840E-06        -0.92423E-20         0.00000E+00
    0.18840E-06         0.11642E-19         0.00000E+00
    0.18840E-06         0.14552E-19         0.00000E+00
    0.18840E-06        -0.29104E-20         0.00000E+00
    0.18840E-06        -0.14552E-20         0.00000E+00
    0.18840E-06         0.87311E-20         0.00000E+00
    0.18840E-06        -0.14552E-20         0.00000E+00
    0.18840E-06         0.58208E-20         0.00000E+00
    0.18840E-06         0.12153E-19         0.00000E+00
    0.18840E-06         0.51117E-21         0.00000E+00
    0.18840E-06        -0.58208E-20         0.00000E+00
    0.19555E-06        -0.58208E-20         0.00000E+00
    0.19555E-06        -0.58208E-20         0.00000E+00
    0.19555E-06         0.29104E-20         0.00000E+00
    0.19555E-06         0.58208E-20         0.00000E+00
    0.19555E-06         0.58208E-20         0.00000E+00
    0.19555E-06         0.87311E-20         0.00000E+00
    0.19555E-06         0.29104E-20         0.00000E+00
    0.19555E-06         0.72564E-20         0.00000E+00
    0.19555E-06         0.72564E-20         0.00000E+00
    0.19555E-06         0.29104E-20         0.00000E+00
    0.19555E-06         0.11642E-19         0.00000E+00
    0.19555E-06         0.17462E-19         0.00000E+00
    0.19555E-06         0.58208E-20         0.00000E+00
    0.19555E-06        -0.29104E-20         0.00000E+00
    0.19555E-06         0.11642E-19         0.00000E+00
    0.19555E-06         0.20373E-19         0.00000E+00
    0.20287E-06        -0.11642E-19         0.00000E+00
    0.20287E-06        -0.56993E-21         0.00000E+00
    0.20287E-06        -0.49355E-20         0.00000E+00
    0.20287E-06         0.20251E-20         0.00000E+00
    0.20287E-06         0.87311E-20         0.00000E+00
    0.20287E-06         0.37956E-20         0.00000E+00
    0.20287E-06         0.17462E-19         0.00000E+00
    0.20287E-06         0.11642E-19         0.00000E+00
    0.20287E-06         0.87311E-20         0.00000E+00
    0.20287E-06         0.17462E-19         0.00000E+00
    0.20287E-06         0.16007E-19         0.00000E+00
    0.20287E-06         0.58208E-20         0.00000E+00
    0.20287E-06         0.72760E-20         0.00000E+00
    0.20287E-06         0.12211E-19         0.00000E+00
    0.20287E-06         0.14552E-20         0.00000E+00
    0.20287E-06        -0.98710E-20         0.00000E+00
    0.21036E-06         0.23283E-19         0.00000E+00
    0.21036E-06         0.84165E-20         0.00000E+00
    0.21036E-06         0.29104E-20         0.00000E+00
    0.21036E-06         0.32250E-20         0.00000E+00
    0.21036E-06         0.00000E+00         0.00000E+00
    0.21036E-06        -0.87311E-20         0.00000E+00
    0.21036E-06         0.00000E+00         0.00000E+00
    0.21036E-06         0.17462E-19         0.00000E+00
    0.21036E-06         0.17462E-19         0.00000E+00
    0.21036E-06         0.29104E-20         0.00000E+00
    0.21036E-06         0.25957E-20         0.00000E+00
    0.21036E-06         0.43656E-20         0.00000E+00
    0.21036E-06         0.61354E-20         0.00000E+00
    0.21036E-06         0.17148E-19         0.00000E+00
    0.21036E-06         0.14552E-19         0.00000E+00
    0.21036E-06         0.12271E-19         0.00000E+00
    0.21802E-06        -0.58208E-20         0.00000E+00
    0.21802E-06         0.11642E-19         0.00000E+00
    0.21802E-06         0.14552E-19         0.00000E+00
    0.21802E-06         0.00000E+00         0.00000E+00
    0.21802E-06         0.11642E-19         0.00000E+00
    0.21802E-06         0.14552E-19         0.00000E+00
    0.21802E-06         0.00000E+00         0.00000E+00
    0.21802E-06        -0.29104E-20         0.00000E+00
    0.21802E-06        -0.29104E-20         0.00000E+00
    0.21802E-06         0.29104E-20         0.00000E+00
    0.21802E-06         0.87311E-20         0.00000E+00
    0.21802E-06         0.29104E-20         0.00000E+00
    0.21802E-06         0.58208E-20         0.00000E+00
    0.21802E-06        -0.17318E-20         0.00000E+00
    0.21802E-06        -0.58208E-20         0.00000E+00
    0.21802E-06         0.34636E-20         0.00000E+00
    0.22585E-06        -0.11325E-20         0.00000E+00
    0.22585E-06         0.20214E-20         0.00000E+00
    0.22585E-06         0.10753E-19         0.00000E+00
    0.22585E-06         0.11075E-19         0.00000E+00
    0.22585E-06         0.96201E-20         0.00000E+00
    0.22585E-06         0.12208E-19         0.00000E+00
    0.22585E-06        -0.88894E-21         0.00000E+00
    0.22585E-06        -0.43656E-20         0.00000E+00
    0.22585E-06         0.49318E-20         0.00000E+00
    0.22585E-06        -0.56626E-21         0.00000E+00
    0.22585E-06        -0.15118E-19         0.00000E+00
    0.22585E-06        -0.13986E-19         0.00000E+00
    0.22585E-06         0.58208E-20         0.00000E+00
    0.22585E-06         0.16896E-19         0.00000E+00
    0.22585E-06         0.11642E-19         0.00000E+00
    0.22585E-06         0.00000E+00         0.00000E+00
    0.23386E-06         0.11642E-19         0.00000E+00
    0.23386E-06        -0.15228E-20         0.00000E+00
    0.23386E-06        -0.29104E-20         0.00000E+00
    0.23386E-06         0.58208E-20         0.00000E+00
    0.23386E-06         0.14552E-19         0.00000E+00
    0.23386E-06         0.10186E-19         0.00000E+00
    0.23386E-06         0.00000E+00         0.00000E+00
    0.23386E-06         0.14552E-20         0.00000E+00
    0.23386E-06        -0.15228E-20         0.00000E+00
    0.23386E-06        -0.14552E-19         0.00000E+00
    0.23386E-06        -0.15939E-19         0.00000E+00
    0.23386E-06         0.00000E+00         0.00000E+00
    0.23386E-06         0.17395E-19         0.00000E+00
    0.23386E-06         0.87988E-20         0.00000E+00
    0.23386E-06         0.43656E-20         0.00000E+00
    0.23386E-06         0.85958E-20         0.00000E+00
    0.24204E-06        -0.17462E-19         0.00000E+00
    0.24204E-06         0.21868E-20         0.00000E+00
    0.24204E-06         0.21828E-19         0.00000E+00
    0.24204E-06         0.94547E-20         0.00000E+00
    0.24204E-06        -0.29104E-20         0.00000E+00
    0.24204E-06         0.58208E-20         0.00000E+00
    0.24204E-06         0.10918E-19         0.00000E+00
    0.24204E-06        -0.43656E-20         0.00000E+00
    0.24204E-06        -0.10186E-19         0.00000E+00
    0.24204E-06        -0.94547E-20         0.00000E+00
    0.24204E-06        -0.87311E-20         0.00000E+00
    0.24204E-06        -0.80076E-20         0.00000E+00
    0.24204E-06        -0.36420E-20         0.00000E+00
    0.24204E-06         0.10194E-19         0.00000E+00
    0.24204E-06         0.12373E-19         0.00000E+00
    0.24204E-06        -0.14632E-20         0.00000E+00
    0.25039E-06         0.11642E-19         0.00000E+00
    0.25039E-06        -0.29104E-20         0.00000E+00
    0.25039E-06        -0.29104E-20         0.00000E+00
    0.25039E-06        -0.29104E-20         0.00000E+00
    0.25039E-06        -0.87311E-20         0.00000E+00
    0.25039E-06         0.58740E-20         0.00000E+00
    0.25039E-06         0.87311E-20         0.00000E+00
    0.25039E-06         0.28572E-20         0.00000E+00
    0.25039E-06        -0.58208E-20         0.00000E+00
    0.25039E-06        -0.87311E-20         0.00000E+00
    0.25039E-06        -0.29104E-20         0.00000E+00
    0.25039E-06        -0.43124E-20         0.00000E+00
    0.25039E-06         0.53194E-22         0.00000E+00
    0.25039E-06         0.29104E-20         0.00000E+00
    0.25039E-06         0.00000E+00         0.00000E+00
    0.25039E-06         0.00000E+00         0.00000E+00
    0.25891E-06         0.12963E-20         0.00000E+00
    0.25891E-06         0.00000E+00         0.00000E+00
    0.25891E-06        -0.21033E-20         0.00000E+00
    0.25891E-06         0.00000E+00         0.00000E+00
    0.25891E-06        -0.87311E-20         0.00000E+00
    0.25891E-06        -0.23283E-19         0.00000E+00
    0.25891E-06        -0.87311E-20         0.00000E+00
    0.25891E-06         0.58208E-20         0.00000E+00
    0.25891E-06         0.29104E-20         0.00000E+00
    0.25891E-06         0.87311E-20         0.00000E+00
    0.25891E-06        -0.58208E-20         0.00000E+00
    0.25891E-06        -0.58208E-20         0.00000E+00
    0.25891E-06         0.64689E-20         0.00000E+00
    0.25891E-06         0.50137E-20         0.00000E+00
    0.25891E-06        -0.64689E-20         0.00000E+00
    0.25891E-06        -0.21669E-19         0.00000E+00
    0.26760E-06        -0.56561E-20         0.00000E+00
    0.26760E-06        -0.73583E-20         0.00000E+00
    0.26760E-06        -0.73583E-20         0.00000E+00
    0.26760E-06        -0.28280E-20         0.00000E+00
    0.26760E-06        -0.88135E-20         0.00000E+00
    0.26760E-06        -0.59031E-20         0.00000E+00
    0.26760E-06         0.00000E+00         0.00000E+00
    0.26760E-06        -0.71113E-20         0.00000E+00
    0.26760E-06        -0.29104E-20         0.00000E+00
    0.26760E-06         0.58208E-20         0.00000E+00
    0.26760E-06         0.30751E-20         0.00000E+00
    0.26760E-06        -0.58208E-20         0.00000E+00
    0.26760E-06        -0.88135E-20         0.00000E+00
    0.26760E-06        -0.82336E-22         0.00000E+00
    0.26760E-06         0.29104E-20         0.00000E+00
    0.26760E-06         0.11642E-19         0.00000E+00
    0.27645E-06         0.00000E+00         0.00000E+00
    0.27645E-06         0.79421E-20         0.00000E+00
    0.27645E-06        -0.29104E-20         0.00000E+00
    0.27645E-06        -0.10853E-19         0.00000E+00
    0.27645E-06         0.29104E-20         0.00000E+00
    0.27645E-06         0.79421E-20         0.00000E+00
    0.27645E-06         0.14552E-20         0.00000E+00
    0.27645E-06        -0.79421E-20         0.00000E+00
    0.27645E-06        -0.13763E-19         0.00000E+00
    0.27645E-06        -0.87311E-20         0.00000E+00
    0.27645E-06         0.13763E-19         0.00000E+00
    0.27645E-06         0.17462E-19         0.00000E+00
    0.27645E-06         0.78900E-21         0.00000E+00
    0.27645E-06        -0.87311E-20         0.00000E+00
    0.27645E-06        -0.22442E-20         0.00000E+00
    0.27645E-06         0.58208E-20         0.00000E+00
    0.28547E-06         0.00000E+00         0.00000E+00
    0.28547E-06        -0.72922E-20         0.00000E+00
    0.28547E-06        -0.14552E-20         0.00000E+00
    0.28547E-06         0.29266E-20         0.00000E+00
    0.28547E-06         0.00000E+00         0.00000E+00
    0.28547E-06         0.43493E-20         0.00000E+00
    0.28547E-06        -0.87311E-20         0.00000E+00
    0.28547E-06        -0.11609E-19         0.00000E+00
    0.28547E-06         0.16239E-22         0.00000E+00
    0.28547E-06         0.14536E-19         0.00000E+00
    0.28547E-06         0.87311E-20         0.00000E+00
    0.28547E-06        -0.87149E-20         0.00000E+00
    0.28547E-06         0.00000E+00         0.00000E+00
    0.28547E-06         0.10170E-19         0.00000E+00
    0.28547E-06         0.29104E-20         0.00000E+00
    0.28547E-06         0.32479E-22         0.00000E+00
    0.29465E-06         0.58208E-20         0.00000E+00
    0.29465E-06         0.00000E+00         0.00000E+00
    0.29465E-06        -0.78118E-21         0.00000E+00
    0.29465E-06         0.14552E-20         0.00000E+00
    0.29465E-06        -0.87311E-20         0.00000E+00
    0.29465E-06        -0.72760E-20         0.00000E+00
    0.29465E-06        -0.64948E-20         0.00000E+00
    0.29465E-06        -0.13878E-19         0.00000E+00
    0.29465E-06        -0.73831E-20         0.00000E+00
    0.29465E-06         0.80571E-20         0.00000E+00
    0.29465E-06         0.12423E-19         0.00000E+00
    0.29465E-06         0.11642E-19         0.00000E+00
    0.29465E-06         0.10186E-19         0.00000E+00
    0.29465E-06        -0.78118E-21         0.00000E+00
    0.29465E-06        -0.29104E-20         0.00000E+00
    0.29465E-06         0.58208E-20         0.00000E+00
    0.30397E-06         0.00000E+00         0.00000E+00
    0.30397E-06         0.00000E+00         0.00000E+00
    0.30397E-06        -0.58208E-20         0.00000E+00
    0.30397E-06        -0.11493E-19         0.00000E+00
    0.30397E-06        -0.29104E-20         0.00000E+00
    0.30397E-06         0.87311E-20         0.00000E+00
    0.30397E-06         0.43656E-20         0.00000E+00
    0.30397E-06         0.27619E-20         0.00000E+00
    0.30397E-06         0.85827E-20         0.00000E+00
    0.30397E-06         0.29104E-20         0.00000E+00
    0.30397E-06         0.14847E-21         0.00000E+00
    0.30397E-06         0.17462E-19         0.00000E+00
    0.30397E-06         0.14552E-19         0.00000E+00
    0.30397E-06        -0.87311E-20         0.00000E+00
    0.30397E-06        -0.58208E-20         0.00000E+00
    0.30397E-06         0.29104E-20         0.00000E+00
    0.31345E-06        -0.67384E-20         0.00000E+00
    0.31345E-06        -0.19140E-20         0.00000E+00
    0.31345E-06         0.29104E-20         0.00000E+00
    0.31345E-06         0.00000E+00         0.00000E+00
    0.31345E-06        -0.99639E-21         0.00000E+00
    0.31345E-06        -0.24516E-20         0.00000E+00
    0.31345E-06         0.11642E-19         0.00000E+00
    0.31345E-06         0.53620E-20         0.00000E+00
    0.31345E-06        -0.33692E-20         0.00000E+00
    0.31345E-06         0.38280E-20         0.00000E+00
    0.31345E-06         0.15470E-19         0.00000E+00
    0.31345E-06         0.12638E-19         0.00000E+00
    0.31345E-06         0.24516E-20         0.00000E+00
    0.31345E-06         0.11642E-19         0.00000E+00
    0.31345E-06         0.58208E-20         0.00000E+00
    0.31345E-06        -0.58208E-20         0.00000E+00
    0.32307E-06         0.00000E+00         0.00000E+00
    0.32307E-06         0.58208E-20         0.00000E+00
    0.32307E-06         0.11642E-19         0.00000E+00
    0.32307E-06         0.87311E-20         0.00000E+00
    0.32307E-06         0.87311E-20         0.00000E+00
    0.32307E-06         0.11642E-19         0.00000E+00
    0.32307E-06        -0.29104E-20         0.00000E+00
    0.32307E-06         0.00000E+00         0.00000E+00
    0.32307E-06         0.58208E-20         0.00000E+00
    0.32307E-06         0.00000E+00         0.00000E+00
    0.32307E-06         0.29104E-20         0.00000E+00
    0.32307E-06         0.29104E-20         0.00000E+00
    0.32307E-06         0.11642E-19         0.00000E+00
    0.32307E-06         0.11227E-19         0.00000E+00
    0.32307E-06         0.29104E-20         0.00000E+00
    0.32307E-06         0.82987E-21         0.00000E+00
    0.33282E-06        -0.58208E-20         0.00000E+00
    0.33282E-06         0.29104E-20         0.00000E+00
    0.33282E-06         0.11501E-19         0.00000E+00
    0.33282E-06         0.17603E-19         0.00000E+00
    0.33282E-06         0.30507E-20         0.00000E+00
    0.33282E-06        -0.14692E-19         0.00000E+00
    0.33282E-06         0.58208E-20         0.00000E+00
    0.33282E-06         0.11782E-19         0.00000E+00
    0.33282E-06         0.13237E-19         0.00000E+00
    0.33282E-06         0.56804E-20         0.00000E+00
    0.33282E-06        -0.88715E-20         0.00000E+00
    0.33282E-06         0.58208E-20         0.00000E+00
    0.33282E-06         0.11501E-19         0.00000E+00
    0.33282E-06         0.58208E-20         0.00000E+00
    0.33282E-06        -0.13148E-20         0.00000E+00
    0.33282E-06        -0.14552E-19         0.00000E+00
    0.34270E-06        -0.58208E-20         0.00000E+00
    0.34270E-06        -0.29104E-20         0.00000E+00
    0.34270E-06         0.11642E-19         0.00000E+00
    0.34270E-06         0.11642E-19         0.00000E+00
    0.34270E-06        -0.58208E-20         0.00000E+00
    0.34270E-06         0.00000E+00         0.00000E+00
    0.34270E-06         0.14552E-19         0.00000E+00
    0.34270E-06         0.11642E-19         0.00000E+00
    0.34270E-06        -0.11681E-21         0.00000E+00
    0.34270E-06        -0.11681E-21         0.00000E+00
    0.34270E-06         0.72760E-20         0.00000E+00
    0.34270E-06         0.11681E-21         0.00000E+00
    0.34270E-06        -0.27936E-20         0.00000E+00
    0.34270E-06         0.00000E+00         0.00000E+00
    0.34270E-06        -0.29104E-20         0.00000E+00
    0.34270E-06        -0.58208E-20         0.00000E+00
    0.35269E-06        -0.61402E-20         0.00000E+00
    0.35269E-06        -0.15970E-21         0.00000E+00
    0.35269E-06        -0.12955E-20         0.00000E+00
    0.35269E-06         0.94587E-20         0.00000E+00
    0.35269E-06         0.87311E-20         0.00000E+00
    0.35269E-06        -0.10326E-33         0.00000E+00
    0.35269E-06         0.87311E-20         0.00000E+00
    0.35269E-06         0.52529E-20         0.00000E+00
    0.35269E-06         0.43656E-20         0.00000E+00
    0.35269E-06         0.10186E-19         0.00000E+00
    0.35269E-06         0.11642E-19         0.00000E+00
    0.35269E-06         0.58208E-20         0.00000E+00
    0.35269E-06        -0.43656E-20         0.00000E+00
    0.35269E-06        -0.10346E-19         0.00000E+00
    0.35269E-06         0.12955E-20         0.00000E+00
    0.35269E-06         0.11642E-19         0.00000E+00
    0.36278E-06         0.00000E+00         0.00000E+00
    0.36278E-06         0.00000E+00         0.00000E+00
    0.36278E-06         0.43656E-20         0.00000E+00
    0.36278E-06         0.14552E-20         0.00000E+00
    0.36278E-06        -0.87311E-20         0.00000E+00
    0.36278E-06         0.14552E-20         0.00000E+00
    0.36278E-06         0.87311E-20         0.00000E+00
    0.36278E-06         0.10186E-19         0.00000E+00
    0.36278E-06         0.13097E-19         0.00000E+00
    0.36278E-06         0.00000E+00         0.00000E+00
    0.36278E-06         0.43656E-20         0.00000E+00
    0.36278E-06         0.87311E-20         0.00000E+00
    0.36278E-06         0.43656E-20         0.00000E+00
    0.36278E-06         0.18373E-20         0.00000E+00
    0.36278E-06        -0.65484E-20         0.00000E+00
    0.36278E-06        -0.10951E-19         0.00000E+00
    0.37297E-06         0.58208E-20         0.00000E+00
    0.37297E-06         0.29104E-20         0.00000E+00
    0.37297E-06        -0.43656E-20         0.00000E+00
    0.37297E-06         0.00000E+00         0.00000E+00
    0.37297E-06         0.14552E-20         0.00000E+00
    0.37297E-06        -0.43656E-20         0.00000E+00
    0.37297E-06         0.72760E-20         0.00000E+00
    0.37297E-06         0.72760E-20         0.00000E+00
    0.37297E-06         0.00000E+00         0.00000E+00
    0.37297E-06         0.14552E-19         0.00000E+00
    0.37297E-06         0.13097E-19         0.00000E+00
    0.37297E-06         0.43656E-20         0.00000E+00
    0.37297E-06         0.00000E+00         0.00000E+00
    0.37297E-06        -0.87311E-20         0.00000E+00
    0.37297E-06         0.00000E+00         0.00000E+00
    0.37297E-06         0.87311E-20         0.00000E+00
    0.38324E-06         0.87311E-20         0.00000E+00
    0.38324E-06         0.87311E-20         0.00000E+00
    0.38324E-06         0.29104E-20         0.00000E+00
    0.38324E-06        -0.43656E-20         0.00000E+00
    0.38324E-06         0.14552E-20         0.00000E+00
    0.38324E-06         0.29104E-20         0.00000E+00
    0.38324E-06         0.00000E+00         0.00000E+00
    0.38324E-06         0.58208E-20         0.00000E+00
    0.38324E-06         0.72760E-20         0.00000E+00
    0.38324E-06         0.43656E-20         0.00000E+00
    0.38324E-06         0.12305E-19         0.00000E+00
    0.38324E-06         0.43011E-20         0.00000E+00
    0.38324E-06        -0.43011E-20         0.00000E+00
    0.38324E-06        -0.35735E-20         0.00000E+00
    0.38324E-06        -0.12369E-19         0.00000E+00
    0.38324E-06        -0.11642E-19         0.00000E+00
    0.39357E-06        -0.72627E-20         0.00000E+00
    0.39357E-06        -0.14552E-20         0.00000E+00
    0.39357E-06         0.94521E-20         0.00000E+00
    0.39357E-06         0.87311E-20         0.00000E+00
    0.39357E-06         0.10186E-19         0.00000E+00
    0.39357E-06         0.14552E-20         0.00000E+00
    0.39357E-06        -0.72760E-20         0.00000E+00
    0.39357E-06         0.00000E+00         0.00000E+00
    0.39357E-06         0.21894E-20         0.00000E+00
    0.39357E-06         0.43656E-20         0.00000E+00
    0.39357E-06         0.72627E-20         0.00000E+00
    0.39357E-06         0.87311E-20         0.00000E+00
    0.39357E-06         0.80102E-20         0.00000E+00
    0.39357E-06         0.36313E-20         0.00000E+00
    0.39357E-06         0.14552E-20         0.00000E+00
    0.39357E-06         0.13279E-22         0.00000E+00
    0.40395E-06         0.43571E-20         0.00000E+00
    0.40395E-06         0.29104E-20         0.00000E+00
    0.40395E-06         0.10186E-19         0.00000E+00
    0.40395E-06         0.13097E-19         0.00000E+00
    0.40395E-06        -0.19645E-33         0.00000E+00
    0.40395E-06        -0.36422E-20         0.00000E+00
    0.40395E-06        -0.58208E-20         0.00000E+00
    0.40395E-06        -0.87311E-20         0.00000E+00
    0.40395E-06         0.14552E-20         0.00000E+00
    0.40395E-06         0.29104E-20         0.00000E+00
    0.40395E-06        -0.29104E-20         0.00000E+00
    0.40395E-06         0.43656E-20         0.00000E+00
    0.40395E-06         0.72760E-20         0.00000E+00
    0.40395E-06         0.10186E-19         0.00000E+00
    0.40395E-06         0.94630E-20         0.00000E+00
    0.40395E-06         0.43740E-20         0.00000E+00
    0.41436E-06         0.00000E+00         0.00000E+00
    0.41436E-06         0.43656E-20         0.00000E+00
    0.41436E-06         0.43656E-20         0.00000E+00
    0.41436E-06         0.29104E-20         0.00000E+00
    0.41436E-06        -0.14552E-20         0.00000E+00
    0.41436E-06        -0.87311E-20         0.00000E+00
    0.41436E-06        -0.87311E-20         0.00000E+00
    0.41436E-06        -0.13097E-19         0.00000E+00
    0.41436E-06        -0.72760E-20         0.00000E+00
    0.41436E-06         0.87311E-20         0.00000E+00
    0.41436E-06         0.14552E-20         0.00000E+00
    0.41436E-06        -0.43656E-20         0.00000E+00
    0.41436E-06         0.58208E-20         0.00000E+00
    0.41436E-06         0.87311E-20         0.00000E+00
    0.41436E-06         0.13097E-19         0.00000E+00
    0.41436E-06         0.17462E-19         0.00000E+00
    0.42478E-06         0.98543E-20         0.00000E+00
    0.42478E-06         0.14552E-20         0.00000E+00
    0.42478E-06        -0.29104E-20         0.00000E+00
    0.42478E-06         0.34720E-20         0.00000E+00
    0.42478E-06        -0.14552E-20         0.00000E+00
    0.42478E-06        -0.58208E-20         0.00000E+00
    0.42478E-06        -0.29104E-20         0.00000E+00
    0.42478E-06         0.00000E+00         0.00000E+00
    0.42478E-06        -0.43656E-20         0.00000E+00
    0.42478E-06        -0.58208E-20         0.00000E+00
    0.42478E-06         0.00000E+00         0.00000E+00
    0.42478E-06         0.14552E-20         0.00000E+00
    0.42478E-06         0.43656E-20         0.00000E+00
    0.42478E-06         0.43656E-20         0.00000E+00
    0.42478E-06         0.23488E-20         0.00000E+00
    0.42478E-06        -0.11232E-20         0.00000E+00
    0.43519E-06         0.29104E-20         0.00000E+00
    0.43519E-06         0.43656E-20         0.00000E+00
    0.43519E-06         0.29104E-20         0.00000E+00
    0.43519E-06        -0.43656E-20         0.00000E+00
    0.43519E-06        -0.29104E-20         0.00000E+00
    0.43519E-06         0.43656E-20         0.00000E+00
    0.43519E-06        -0.14552E-20         0.00000E+00
    0.43519E-06        -0.58208E-20         0.00000E+00
    0.43519E-06        -0.14552E-20         0.00000E+00
    0.43519E-06         0.00000E+00         0.00000E+00
    0.43519E-06        -0.43656E-20         0.00000E+00
    0.43519E-06        -0.58208E-20         0.00000E+00
    0.43519E-06         0.43656E-20         0.00000E+00
    0.43519E-06         0.43656E-20         0.00000E+00
    0.43519E-06        -0.14552E-20         0.00000E+00
    0.43519E-06         0.00000E+00         0.00000E+00
    0.44558E-06        -0.58208E-20         0.00000E+00
    0.44558E-06        -0.14552E-20         0.00000E+00
    0.44558E-06         0.29104E-20         0.00000E+00
    0.44558E-06         0.72760E-20         0.00000E+00
    0.44558E-06         0.87311E-20         0.00000E+00
    0.44558E-06         0.43656E-20         0.00000E+00
    0.44558E-06        -0.29104E-20         0.00000E+00
    0.44558E-06        -0.72760E-20         0.00000E+00
    0.44558E-06        -0.29104E-20         0.00000E+00
    0.44558E-06         0.00000E+00         0.00000E+00
    0.44558E-06         0.00000E+00         0.00000E+00
    0.44558E-06         0.00000E+00         0.00000E+00
    0.44558E-06        -0.58208E-20         0.00000E+00
    0.44558E-06        -0.29104E-20         0.00000E+00
    0.44558E-06         0.14552E-20         0.00000E+00
    0.44558E-06        -0.29104E-20         0.00000E+00
    0.45592E-06         0.17462E-19         0.00000E+00
    0.45592E-06         0.72760E-20         0.00000E+00
    0.45592E-06        -0.14552E-20         0.00000E+00
    0.45592E-06         0.00000E+00         0.00000E+00
    0.45592E-06         0.29104E-20         0.00000E+00
    0.45592E-06         0.72760E-20         0.00000E+00
    0.45592E-06         0.43656E-20         0.00000E+00
    0.45592E-06        -0.43656E-20         0.00000E+00
    0.45592E-06        -0.14552E-20         0.00000E+00
    0.45592E-06         0.29104E-20         0.00000E+00
    0.45592E-06         0.11545E-19         0.00000E+00
    0.45592E-06         0.10818E-19         0.00000E+00
    0.45592E-06         0.96176E-22         0.00000E+00
    0.45592E-06        -0.87311E-20         0.00000E+00
    0.45592E-06        -0.13920E-19         0.00000E+00
    0.45592E-06        -0.58208E-20         0.00000E+00
    0.46617E-06         0.52153E-20         0.00000E+00
    0.46617E-06         0.87311E-20         0.00000E+00
    0.46617E-06         0.75787E-20         0.00000E+00
    0.46617E-06         0.11525E-20         0.00000E+00
    0.46617E-06         0.40629E-20         0.00000E+00
    0.46617E-06         0.46683E-20         0.00000E+00
    0.46617E-06         0.75787E-20         0.00000E+00
    0.46617E-06         0.87311E-20         0.00000E+00
    0.46617E-06         0.14552E-20         0.00000E+00
    0.46617E-06         0.14552E-20         0.00000E+00
    0.46617E-06         0.43656E-20         0.00000E+00
    0.46617E-06         0.16007E-19         0.00000E+00
    0.46617E-06         0.72760E-20         0.00000E+00
    0.46617E-06        -0.40629E-20         0.00000E+00
    0.46617E-06        -0.14552E-20         0.00000E+00
    0.46617E-06        -0.93366E-20         0.00000E+00
    0.47633E-06         0.00000E+00         0.00000E+00
    0.47633E-06         0.00000E+00         0.00000E+00
    0.47633E-06         0.00000E+00         0.00000E+00
    0.47633E-06        -0.80742E-21         0.00000E+00
    0.47633E-06         0.50133E-20         0.00000E+00
    0.47633E-06         0.95386E-20         0.00000E+00
    0.47633E-06         0.10994E-19         0.00000E+00
    0.47633E-06         0.87311E-20         0.00000E+00
    0.47633E-06         0.87311E-20         0.00000E+00
    0.47633E-06         0.21030E-20         0.00000E+00
    0.47633E-06         0.00000E+00         0.00000E+00
    0.47633E-06         0.00000E+00         0.00000E+00
    0.47633E-06         0.64777E-21         0.00000E+00
    0.47633E-06         0.10186E-19         0.00000E+00
    0.47633E-06         0.29104E-20         0.00000E+00
    0.47633E-06        -0.29104E-20         0.00000E+00
    0.48636E-06         0.18795E-20         0.00000E+00
    0.48636E-06         0.29104E-20         0.00000E+00
    0.48636E-06         0.26982E-20         0.00000E+00
    0.48636E-06         0.00000E+00         0.00000E+00
    0.48636E-06         0.00000E+00         0.00000E+00
    0.48636E-06         0.58208E-20         0.00000E+00
    0.48636E-06         0.10186E-19         0.00000E+00
    0.48636E-06         0.87311E-20         0.00000E+00
    0.48636E-06         0.72760E-20         0.00000E+00
    0.48636E-06         0.14552E-20         0.00000E+00
    0.48636E-06         0.21828E-20         0.00000E+00
    0.48636E-06         0.43656E-20         0.00000E+00
    0.48636E-06         0.00000E+00         0.00000E+00
    0.48636E-06         0.21215E-21         0.00000E+00
    0.48636E-06         0.16673E-20         0.00000E+00
    0.48636E-06         0.29104E-20         0.00000E+00
    0.49624E-06        -0.29104E-20         0.00000E+00
    0.49624E-06        -0.45194E-21         0.00000E+00
    0.49624E-06        -0.45194E-21         0.00000E+00
    0.49624E-06        -0.43656E-20         0.00000E+00
    0.49624E-06         0.29104E-20         0.00000E+00
    0.49624E-06         0.87311E-20         0.00000E+00
    0.49624E-06         0.87311E-20         0.00000E+00
    0.49624E-06         0.58208E-20         0.00000E+00
    0.49624E-06         0.48175E-20         0.00000E+00
    0.49624E-06         0.91831E-20         0.00000E+00
    0.49624E-06         0.43656E-20         0.00000E+00
    0.49624E-06        -0.45194E-21         0.00000E+00
    0.49624E-06        -0.14552E-20         0.00000E+00
    0.49624E-06        -0.10032E-20         0.00000E+00
    0.49624E-06        -0.43656E-20         0.00000E+00
    0.49624E-06        -0.72760E-20         0.00000E+00
    0.50593E-06         0.14552E-19         0.00000E+00
    0.50593E-06         0.43656E-20         0.00000E+00
    0.50593E-06        -0.43656E-20         0.00000E+00
    0.50593E-06         0.00000E+00         0.00000E+00
    0.50593E-06         0.43656E-20         0.00000E+00
    0.50593E-06         0.87311E-20         0.00000E+00
    0.50593E-06         0.10186E-19         0.00000E+00
    0.50593E-06         0.13737E-19         0.00000E+00
    0.50593E-06         0.79166E-20         0.00000E+00
    0.50593E-06        -0.14552E-20         0.00000E+00
    0.50593E-06        -0.14552E-20         0.00000E+00
    0.50593E-06        -0.28234E-20         0.00000E+00
    0.50593E-06        -0.14552E-20         0.00000E+00
    0.50593E-06        -0.29104E-20         0.00000E+00
    0.50593E-06        -0.72760E-21         0.00000E+00
    0.50593E-06         0.27364E-20         0.00000E+00
    0.51541E-06        -0.87311E-20         0.00000E+00
    0.51541E-06         0.29104E-20         0.00000E+00
    0.51541E-06         0.64966E-20         0.00000E+00
    0.51541E-06         0.65484E-20         0.00000E+00
    0.51541E-06         0.87829E-20         0.00000E+00
    0.51541E-06         0.58208E-20         0.00000E+00
    0.51541E-06         0.87311E-20         0.00000E+00
    0.51541E-06         0.43656E-20         0.00000E+00
    0.51541E-06         0.77938E-21         0.00000E+00
    0.51541E-06        -0.43656E-20         0.00000E+00
    0.51541E-06        -0.44174E-20         0.00000E+00
    0.51541E-06         0.00000E+00         0.00000E+00
    0.51541E-06        -0.14552E-20         0.00000E+00
    0.51541E-06         0.21828E-20         0.00000E+00
    0.51541E-06         0.00000E+00         0.00000E+00
    0.51541E-06        -0.87311E-20         0.00000E+00
    0.52465E-06         0.15723E-19         0.00000E+00
    0.52465E-06         0.71339E-20         0.00000E+00
    0.52465E-06         0.43656E-20         0.00000E+00
    0.52465E-06         0.30524E-20         0.00000E+00
    0.52465E-06         0.30524E-20         0.00000E+00
    0.52465E-06         0.14410E-19         0.00000E+00
    0.52465E-06         0.85891E-20         0.00000E+00
    0.52465E-06        -0.29104E-20         0.00000E+00
    0.52465E-06        -0.62643E-20         0.00000E+00
    0.52465E-06        -0.14552E-20         0.00000E+00
    0.52465E-06        -0.74180E-20         0.00000E+00
    0.52465E-06        -0.87311E-20         0.00000E+00
    0.52465E-06         0.00000E+00         0.00000E+00
    0.52465E-06        -0.34960E-20         0.00000E+00
    0.52465E-06         0.43656E-20         0.00000E+00
    0.52465E-06         0.11642E-19         0.00000E+00
    0.53361E-06        -0.18257E-20         0.00000E+00
    0.53361E-06         0.50932E-20         0.00000E+00
    0.53361E-06         0.11827E-19         0.00000E+00
    0.53361E-06        -0.19975E-20         0.00000E+00
    0.53361E-06        -0.21828E-20         0.00000E+00
    0.53361E-06         0.21828E-20         0.00000E+00
    0.53361E-06         0.46456E-34         0.00000E+00
    0.53361E-06        -0.21828E-20         0.00000E+00
    0.53361E-06        -0.21828E-20         0.00000E+00
    0.53361E-06        -0.76398E-20         0.00000E+00
    0.53361E-06        -0.87311E-20         0.00000E+00
    0.53361E-06         0.19975E-20         0.00000E+00
    0.53361E-06        -0.12699E-20         0.00000E+00
    0.53361E-06         0.65484E-20         0.00000E+00
    0.53361E-06        -0.72760E-21         0.00000E+00
    0.53361E-06        -0.17092E-19         0.00000E+00
    0.54227E-06         0.00000E+00         0.00000E+00
    0.54227E-06         0.49099E-20         0.00000E+00
    0.54227E-06         0.00000E+00         0.00000E+00
    0.54227E-06        -0.56375E-20         0.00000E+00
    0.54227E-06         0.34547E-20         0.00000E+00
    0.54227E-06        -0.14552E-20         0.00000E+00
    0.54227E-06        -0.56375E-20         0.00000E+00
    0.54227E-06        -0.29104E-20         0.00000E+00
    0.54227E-06        -0.87311E-20         0.00000E+00
    0.54227E-06        -0.58208E-20         0.00000E+00
    0.54227E-06         0.21828E-20         0.00000E+00
    0.54227E-06         0.21828E-20         0.00000E+00
    0.54227E-06        -0.21828E-20         0.00000E+00
    0.54227E-06        -0.43656E-20         0.00000E+00
    0.54227E-06        -0.72760E-21         0.00000E+00
    0.54227E-06         0.29104E-20         0.00000E+00
    0.55059E-06         0.39136E-20         0.00000E+00
    0.55059E-06        -0.25466E-20         0.00000E+00
    0.55059E-06        -0.48672E-20         0.00000E+00
    0.55059E-06        -0.13174E-20         0.00000E+00
    0.55059E-06        -0.43656E-20         0.00000E+00
    0.55059E-06        -0.10914E-20         0.00000E+00
    0.55059E-06         0.21828E-20         0.00000E+00
    0.55059E-06        -0.21828E-20         0.00000E+00
    0.55059E-06        -0.31364E-20         0.00000E+00
    0.55059E-06        -0.36380E-20         0.00000E+00
    0.55059E-06        -0.36380E-20         0.00000E+00
    0.55059E-06        -0.58208E-20         0.00000E+00
    0.55059E-06        -0.65484E-20         0.00000E+00
    0.55059E-06        -0.21828E-20         0.00000E+00
    0.55059E-06         0.14552E-20         0.00000E+00
    0.55059E-06         0.29104E-20         0.00000E+00
    0.55854E-06         0.29104E-20         0.00000E+00
    0.55854E-06         0.25976E-20         0.00000E+00
    0.55854E-06        -0.36380E-20         0.00000E+00
    0.55854E-06        -0.29614E-20         0.00000E+00
    0.55854E-06         0.11424E-20         0.00000E+00
    0.55854E-06        -0.21828E-20         0.00000E+00
    0.55854E-06        -0.40528E-20         0.00000E+00
    0.55854E-06        -0.50932E-20         0.00000E+00
    0.55854E-06        -0.67658E-21         0.00000E+00
    0.55854E-06        -0.31279E-21         0.00000E+00
    0.55854E-06        -0.44166E-20         0.00000E+00
    0.55854E-06        -0.22338E-20         0.00000E+00
    0.55854E-06        -0.58718E-20         0.00000E+00
    0.55854E-06        -0.43146E-20         0.00000E+00
    0.55854E-06         0.82962E-21         0.00000E+00
    0.55854E-06        -0.29104E-20         0.00000E+00
    0.56609E-06         0.00000E+00         0.00000E+00
    0.56609E-06        -0.17440E-20         0.00000E+00
    0.56609E-06        -0.25466E-20         0.00000E+00
    0.56609E-06        -0.47294E-20         0.00000E+00
    0.56609E-06        -0.21828E-20         0.00000E+00
    0.56609E-06         0.31992E-20         0.00000E+00
    0.56609E-06        -0.72760E-21         0.00000E+00
    0.56609E-06        -0.36380E-20         0.00000E+00
    0.56609E-06        -0.29104E-20         0.00000E+00
    0.56609E-06        -0.36380E-20         0.00000E+00
    0.56609E-06        -0.29104E-20         0.00000E+00
    0.56609E-06        -0.29104E-20         0.00000E+00
    0.56609E-06        -0.72760E-21         0.00000E+00
    0.56609E-06        -0.18190E-20         0.00000E+00
    0.56609E-06        -0.29104E-20         0.00000E+00
    0.56609E-06         0.14552E-20         0.00000E+00
    0.57322E-06         0.43656E-20         0.00000E+00
    0.57322E-06         0.00000E+00         0.00000E+00
    0.57322E-06        -0.43656E-20         0.00000E+00
    0.57322E-06        -0.72760E-21         0.00000E+00
    0.57322E-06        -0.72760E-21         0.00000E+00
    0.57322E-06        -0.14552E-20         0.00000E+00
    0.57322E-06        -0.29104E-20         0.00000E+00
    0.57322E-06        -0.58208E-20         0.00000E+00
    0.57322E-06        -0.14552E-20         0.00000E+00
    0.57322E-06         0.36380E-20         0.00000E+00
    0.57322E-06         0.72760E-21         0.00000E+00
    0.57322E-06        -0.36380E-20         0.00000E+00
    0.57322E-06         0.85368E-21         0.00000E+00
    0.57322E-06         0.26727E-20         0.00000E+00
    0.57322E-06         0.10914E-20         0.00000E+00
    0.57322E-06         0.14552E-20         0.00000E+00
    0.57990E-06        -0.27684E-20         0.00000E+00
    0.57990E-06         0.72760E-21         0.00000E+00
    0.57990E-06         0.10204E-20         0.00000E+00
    0.57990E-06        -0.36380E-20         0.00000E+00
    0.57990E-06        -0.72760E-21         0.00000E+00
    0.57990E-06        -0.32032E-20         0.00000E+00
    0.57990E-06        -0.43656E-20         0.00000E+00
    0.57990E-06         0.10204E-20         0.00000E+00
    0.57990E-06         0.00000E+00         0.00000E+00
    0.57990E-06        -0.72760E-21         0.00000E+00
    0.57990E-06         0.50222E-20         0.00000E+00
    0.57990E-06         0.61846E-20         0.00000E+00
    0.57990E-06        -0.17480E-20         0.00000E+00
    0.57990E-06        -0.29104E-20         0.00000E+00
    0.57990E-06         0.72760E-21         0.00000E+00
    0.57990E-06         0.29104E-20         0.00000E+00
    0.58609E-06         0.43656E-20         0.00000E+00
    0.58609E-06        -0.52111E-20         0.00000E+00
    0.58609E-06        -0.52111E-20         0.00000E+00
    0.58609E-06         0.73938E-20         0.00000E+00
    0.58609E-06        -0.32742E-20         0.00000E+00
    0.58609E-06        -0.73938E-20         0.00000E+00
    0.58609E-06         0.10914E-20         0.00000E+00
    0.58609E-06        -0.21828E-20         0.00000E+00
    0.58609E-06         0.00000E+00         0.00000E+00
    0.58609E-06         0.43656E-20         0.00000E+00
    0.58609E-06         0.21828E-20         0.00000E+00
    0.58609E-06         0.18190E-20         0.00000E+00
    0.58609E-06         0.14552E-20         0.00000E+00
    0.58609E-06         0.46654E-20         0.00000E+00
    0.58609E-06        -0.36380E-21         0.00000E+00
    0.58609E-06        -0.11150E-19         0.00000E+00
    0.59178E-06         0.25230E-20         0.00000E+00
    0.59178E-06         0.72760E-21         0.00000E+00
    0.59178E-06        -0.89771E-21         0.00000E+00
    0.59178E-06         0.00000E+00         0.00000E+00
    0.59178E-06         0.14552E-20         0.00000E+00
    0.59178E-06        -0.72760E-21         0.00000E+00
    0.59178E-06        -0.25466E-20         0.00000E+00
    0.59178E-06        -0.19368E-21         0.00000E+00
    0.59178E-06         0.72760E-21         0.00000E+00
    0.59178E-06         0.12851E-20         0.00000E+00
    0.59178E-06         0.18190E-20         0.00000E+00
    0.59178E-06         0.18190E-20         0.00000E+00
    0.59178E-06         0.16253E-20         0.00000E+00
    0.59178E-06        -0.54570E-21         0.00000E+00
    0.59178E-06         0.18190E-21         0.00000E+00
    0.59178E-06         0.21592E-20         0.00000E+00
    0.59694E-06        -0.15871E-19         0.00000E+00
    0.59694E-06        -0.90949E-21         0.00000E+00
    0.59694E-06         0.42973E-20         0.00000E+00
    0.59694E-06        -0.32742E-20         0.00000E+00
    0.59694E-06         0.00000E+00         0.00000E+00
    0.59694E-06         0.18190E-20         0.00000E+00
    0.59694E-06         0.10914E-20         0.00000E+00
    0.59694E-06        -0.72760E-21         0.00000E+00
    0.59694E-06         0.00000E+00         0.00000E+00
    0.59694E-06         0.10914E-20         0.00000E+00
    0.59694E-06        -0.22964E-20         0.00000E+00
    0.59694E-06        -0.21145E-20         0.00000E+00
    0.59694E-06         0.20009E-20         0.00000E+00
    0.59694E-06         0.27285E-20         0.00000E+00
    0.59694E-06        -0.36380E-21         0.00000E+00
    0.59694E-06        -0.29104E-20         0.00000E+00
    0.60155E-06         0.18190E-20         0.00000E+00
    0.60155E-06        -0.57865E-20         0.00000E+00
    0.60155E-06        -0.45475E-21         0.00000E+00
    0.60155E-06         0.63322E-20         0.00000E+00
    0.60155E-06        -0.90949E-21         0.00000E+00
    0.60155E-06        -0.18190E-21         0.00000E+00
    0.60155E-06        -0.54570E-21         0.00000E+00
    0.60155E-06        -0.10914E-20         0.00000E+00
    0.60155E-06        -0.54570E-21         0.00000E+00
    0.60155E-06        -0.54570E-21         0.00000E+00
    0.60155E-06        -0.60594E-20         0.00000E+00
    0.60155E-06         0.00000E+00         0.00000E+00
    0.60155E-06         0.74236E-20         0.00000E+00
    0.60155E-06        -0.58775E-20         0.00000E+00
    0.60155E-06        -0.57865E-20         0.00000E+00
    0.60155E-06         0.29104E-20         0.00000E+00
    0.60560E-06         0.00000E+00         0.00000E+00
    0.60560E-06        -0.36380E-21         0.00000E+00
    0.60560E-06         0.00000E+00         0.00000E+00
    0.60560E-06         0.18190E-21         0.00000E+00
    0.60560E-06        -0.36380E-21         0.00000E+00
    0.60560E-06        -0.12733E-20         0.00000E+00
    0.60560E-06        -0.72760E-21         0.00000E+00
    0.60560E-06        -0.72760E-21         0.00000E+00
    0.60560E-06        -0.72760E-21         0.00000E+00
    0.60560E-06         0.72760E-21         0.00000E+00
    0.60560E-06         0.72760E-21         0.00000E+00
    0.60560E-06         0.54570E-21         0.00000E+00
    0.60560E-06        -0.54570E-21         0.00000E+00
    0.60560E-06         0.61678E-21         0.00000E+00
    0.60560E-06        -0.54570E-21         0.00000E+00
    0.60560E-06        -0.35982E-20         0.00000E+00
    0.60908E-06        -0.38199E-20         0.00000E+00
    0.60908E-06        -0.36380E-21         0.00000E+00
    0.60908E-06        -0.90949E-22         0.00000E+00
    0.60908E-06        -0.90949E-21         0.00000E+00
    0.60908E-06        -0.90949E-21         0.00000E+00
    0.60908E-06        -0.27285E-21         0.00000E+00
    0.60908E-06        -0.16371E-20         0.00000E+00
    0.60908E-06        -0.45475E-21         0.00000E+00
    0.60908E-06         0.59117E-21         0.00000E+00
    0.60908E-06        -0.68212E-21         0.00000E+00
    0.60908E-06         0.13642E-20         0.00000E+00
    0.60908E-06         0.10914E-20         0.00000E+00
    0.60908E-06        -0.18190E-21         0.00000E+00
    0.60908E-06        -0.12733E-20         0.00000E+00
    0.60908E-06         0.12733E-20         0.00000E+00
    0.60908E-06         0.29104E-20         0.00000E+00
    0.61067E-06         0.13017E-19         0.00000E+00
    0.61067E-06        -0.65086E-20         0.00000E+00
    0.61067E-06        -0.65086E-20         0.00000E+00
    0.61067E-06         0.65086E-20         0.00000E+00
    0.61067E-06         0.65086E-20         0.00000E+00
    0.61067E-06        -0.65086E-20         0.00000E+00
    0.61067E-06        -0.65086E-20         0.00000E+00
    0.61067E-06        -0.90278E-35         0.00000E+00
    0.61067E-06        -0.65086E-20         0.00000E+00
    0.61067E-06         0.65086E-20         0.00000E+00
    0.61067E-06         0.65086E-20         0.00000E+00
    0.61067E-06        -0.65086E-20         0.00000E+00
    0.61067E-06        -0.82755E-35         0.00000E+00
    0.61067E-06         0.65086E-20         0.00000E+00
    0.61067E-06         0.00000E+00         0.00000E+00
    0.61067E-06         0.00000E+00         0.00000E+00
CELL_DATA       1350
TENSORS stressef double 
    0.26531E+06         0.00000E+00         0.00000E+00
    0.00000E+00        -0.29563E+06         0.00000E+00
    0.00000E+00         0.00000E+00        -0.60651E+04
 
    0.26531E+06        -0.90350E-11         0.00000E+00
   -0.90350E-11        -0.29563E+06         0.00000E+00
    0.00000E+00         0.00000E+00        -0.60651E+04
 
    0.26531E+06         0.54210E-10         0.00000E+00
    0.54210E-10        -0.29563E+06         0.00000E+00
    0.00000E+00         0.00000E+00        -0.60651E+04
 
    0.26531E+06        -0.72280E-10         0.00000E+00
   -0.72280E-10        -0.29563E+06         0.00000E+00
    0.00000E+00         0.00000E+00        -0.60651E+04
 
    0.26531E+06         0.90350E-11         0.00000E+00
    0.90350E-11        -0.29563E+06         0.00000E+00
    0.00000E+00         0.00000E+00        -0.60651E+04
 
    0.26531E+06         0.00000E+00         0.00000E+00
    0.00000E+00        -0.29563E+06         0.00000E+00
    0.00000E+00         0.00000E+00        -0.60651E+04
 
    0.26531E+06         0.90350E-11         0.00000E+00
    0.90350E-11        -0.29563E+06         0.00000E+00
    0.00000E+00         0.00000E+00        -0.60651E+04
 
    0.26531E+06        -0.18070E-10         0.00000E+00
   -0.18070E-10        -0.29563E+06         0.00000E+00
    0.00000E+00         0.00000E+00        -0.60651E+04
 
    0.26531E+06        -0.27105E-10         0.00000E+00
   -0.27105E-10        -0.29563E+06         0.00000E+00
    0.00000E+00         0.00000E+00        -0.60651E+04
 
    0.26531E+06        -0.63245E-10         0.00000E+00
   -0.63245E-10        -0.29563E+06         0.00000E+00
    0.00000E+00         0.00000E+00        -0.60651E+04
 
    0.26531E+06         0.22588E-11         0.00000E+00
    0.22588E-11        -0.29563E+06         0.00000E+00
    0.00000E+00         0.00000E+00        -0.60651E+04
 
    0.26531E+06         0.36140E-10         0.00000E+00
    0.36140E-10        -0.29563E+06         0.00000E+00
    0.00000E+00         0.00000E+00        -0.60651E+04
 
    0.26531E+06         0.11294E-10         0.00000E+00
    0.11294E-10        -0.29563E+06         0.00000E+00
    0.00000E+00         0.00000E+00        -0.60651E+04
 
    0.26531E+06         0.79056E-11         0.00000E+00
    0.79056E-11        -0.29563E+06         0.00000E+00
    0.00000E+00         0.00000E+00        -0.60651E+04
 
    0.26531E+06         0.16941E-10         0.00000E+00
    0.16941E-10        -0.29563E+06         0.00000E+00
    0.00000E+00         0.00000E+00        -0.60651E+04
 
    0.26527E+06         0.11746E-09         0.00000E+00
    0.11746E-09        -0.29564E+06         0.00000E+00
    0.00000E+00         0.00000E+00        -0.60749E+04
 
    0.26527E+06        -0.63245E-10         0.00000E+00
   -0.63245E-10        -0.29564E+06         0.00000E+00
    0.00000E+00         0.00000E+00        -0.60749E+04
 
    0.26527E+06        -0.36140E-10         0.00000E+00
   -0.36140E-10        -0.29564E+06         0.00000E+00
    0.00000E+00         0.00000E+00        -0.60749E+04
 
    0.26527E+06         0.10842E-09         0.00000E+00
    0.10842E-09        -0.29564E+06         0.00000E+00
    0.00000E+00         0.00000E+00        -0.60749E+04
 
    0.26527E+06         0.19877E-09         0.00000E+00
    0.19877E-09        -0.29564E+06         0.00000E+00
    0.00000E+00         0.00000E+00        -0.60749E+04
 
    0.26527E+06         0.85833E-10         0.00000E+00
    0.85833E-10        -0.29564E+06         0.00000E+00
    0.00000E+00         0.00000E+00        -0.60749E+04
 
    0.26527E+06         0.54210E-10         0.00000E+00
    0.54210E-10        -0.29564E+06         0.00000E+00
    0.00000E+00         0.00000E+00        -0.60749E+04
 
    0.26527E+06         0.36140E-10         0.00000E+00
    0.36140E-10        -0.29564E+06         0.00000E+00
    0.00000E+00         0.00000E+00        -0.60749E+04
 
    0.26527E+06         0.18070E-10         0.00000E+00
    0.18070E-10        -0.29564E+06         0.00000E+00
    0.00000E+00         0.00000E+00        -0.60749E+04
 
    0.26527E+06         0.40658E-10         0.00000E+00
    0.40658E-10        -0.29564E+06         0.00000E+00
    0.00000E+00         0.00000E+00        -0.60749E+04
 
    0.26527E+06        -0.31623E-10         0.00000E+00
   -0.31623E-10        -0.29564E+06         0.00000E+00
    0.00000E+00         0.00000E+00        -0.60749E+04
 
    0.26527E+06         0.29364E-10         0.00000E+00
    0.29364E-10        -0.29564E+06         0.00000E+00
    0.00000E+00         0.00000E+00        -0.60749E+04
 
    0.26527E+06         0.29364E-10         0.00000E+00
    0.29364E-10        -0.29564E+06         0.00000E+00
    0.00000E+00         0.00000E+00        -0.60749E+04
 
    0.26527E+06        -0.36140E-10         0.00000E+00
   -0.36140E-10        -0.29564E+06         0.00000E+00
    0.00000E+00         0.00000E+00        -0.60749E+04
 
    0.26527E+06        -0.90350E-11         0.00000E+00
   -0.90350E-11        -0.29564E+06         0.00000E+00
    0.00000E+00         0.00000E+00        -0.60749E+04
 
    0.26519E+06         0.12197E-09         0.00000E+00
    0.12197E-09        -0.29566E+06         0.00000E+00
    0.00000E+00         0.00000E+00        -0.60944E+04
 
    0.26519E+06        -0.36140E-10         0.00000E+00
   -0.36140E-10        -0.29566E+06         0.00000E+00
    0.00000E+00         0.00000E+00        -0.60944E+04
 
    0.26519E+06         0.18070E-10         0.00000E+00
    0.18070E-10        -0.29566E+06         0.00000E+00
    0.00000E+00         0.00000E+00        -0.60944E+04
 
    0.26519E+06        -0.99385E-10         0.00000E+00
   -0.99385E-10        -0.29566E+06         0.00000E+00
    0.00000E+00         0.00000E+00        -0.60944E+04
 
    0.26519E+06        -0.27105E-10         0.00000E+00
   -0.27105E-10        -0.29566E+06         0.00000E+00
    0.00000E+00         0.00000E+00        -0.60944E+04
 
    0.26519E+06         0.18070E-10         0.00000E+00
    0.18070E-10        -0.29566E+06         0.00000E+00
    0.00000E+00         0.00000E+00        -0.60944E+04
 
    0.26519E+06        -0.14456E-09         0.00000E+00
   -0.14456E-09        -0.29566E+06         0.00000E+00
    0.00000E+00         0.00000E+00        -0.60944E+04
 
    0.26519E+06        -0.49693E-10         0.00000E+00
   -0.49693E-10        -0.29566E+06         0.00000E+00
    0.00000E+00         0.00000E+00        -0.60944E+04
 
    0.26519E+06        -0.18070E-10         0.00000E+00
   -0.18070E-10        -0.29566E+06         0.00000E+00
    0.00000E+00         0.00000E+00        -0.60944E+04
 
    0.26519E+06         0.54210E-10         0.00000E+00
    0.54210E-10        -0.29566E+06         0.00000E+00
    0.00000E+00         0.00000E+00        -0.60944E+04
 
    0.26519E+06         0.58728E-10         0.00000E+00
    0.58728E-10        -0.29566E+06         0.00000E+00
    0.00000E+00         0.00000E+00        -0.60944E+04
 
    0.26519E+06         0.67763E-10         0.00000E+00
    0.67763E-10        -0.29566E+06         0.00000E+00
    0.00000E+00         0.00000E+00        -0.60944E+04
 
    0.26519E+06         0.13553E-10         0.00000E+00
    0.13553E-10        -0.29566E+06         0.00000E+00
    0.00000E+00         0.00000E+00        -0.60944E+04
 
    0.26519E+06        -0.90350E-11         0.00000E+00
   -0.90350E-11        -0.29566E+06         0.00000E+00
    0.00000E+00         0.00000E+00        -0.60944E+04
 
    0.26519E+06         0.67763E-11         0.00000E+00
    0.67763E-11        -0.29566E+06         0.00000E+00
    0.00000E+00         0.00000E+00        -0.60944E+04
 
    0.26507E+06         0.81315E-10         0.00000E+00
    0.81315E-10        -0.29569E+06         0.00000E+00
    0.00000E+00         0.00000E+00        -0.61237E+04
 
    0.26507E+06        -0.21684E-09         0.00000E+00
   -0.21684E-09        -0.29569E+06         0.00000E+00
    0.00000E+00         0.00000E+00        -0.61237E+04
 
    0.26507E+06        -0.18070E-10         0.00000E+00
   -0.18070E-10        -0.29569E+06         0.00000E+00
    0.00000E+00         0.00000E+00        -0.61237E+04
 
    0.26507E+06         0.11746E-09         0.00000E+00
    0.11746E-09        -0.29569E+06         0.00000E+00
    0.00000E+00         0.00000E+00        -0.61237E+04
 
    0.26507E+06         0.26202E-09         0.00000E+00
    0.26202E-09        -0.29569E+06         0.00000E+00
    0.00000E+00         0.00000E+00        -0.61237E+04
 
    0.26507E+06         0.81315E-10         0.00000E+00
    0.81315E-10        -0.29569E+06         0.00000E+00
    0.00000E+00         0.00000E+00        -0.61237E+04
 
    0.26507E+06         0.99385E-10         0.00000E+00
    0.99385E-10        -0.29569E+06         0.00000E+00
    0.00000E+00         0.00000E+00        -0.61237E+04
 
    0.26507E+06        -0.49693E-10         0.00000E+00
   -0.49693E-10        -0.29569E+06         0.00000E+00
    0.00000E+00         0.00000E+00        -0.61237E+04
 
    0.26507E+06        -0.90350E-11         0.00000E+00
   -0.90350E-11        -0.29569E+06         0.00000E+00
    0.00000E+00         0.00000E+00        -0.61237E+04
 
    0.26507E+06         0.40658E-10         0.00000E+00
    0.40658E-10        -0.29569E+06         0.00000E+00
    0.00000E+00         0.00000E+00        -0.61237E+04
 
    0.26507E+06         0.76798E-10         0.00000E+00
    0.76798E-10        -0.29569E+06         0.00000E+00
    0.00000E+00         0.00000E+00        -0.61237E+04
 
    0.26507E+06        -0.40658E-10         0.00000E+00
   -0.40658E-10        -0.29569E+06         0.00000E+00
    0.00000E+00         0.00000E+00        -0.61237E+04
 
    0.26507E+06        -0.36140E-10         0.00000E+00
   -0.36140E-10        -0.29569E+06         0.00000E+00
    0.00000E+00         0.00000E+00        -0.61237E+04
 
    0.26507E+06        -0.36140E-10         0.00000E+00
   -0.36140E-10        -0.29569E+06         0.00000E+00
    0.00000E+00         0.00000E+00        -0.61237E+04
 
    0.26507E+06         0.18070E-10         0.00000E+00
    0.18070E-10        -0.29569E+06         0.00000E+00
    0.00000E+00         0.00000E+00        -0.61237E+04
 
    0.26492E+06        -0.90350E-11         0.00000E+00
   -0.90350E-11        -0.29573E+06         0.00000E+00
    0.00000E+00         0.00000E+00        -0.61628E+04
 
    0.26492E+06         0.13553E-09         0.00000E+00
    0.13553E-09        -0.29573E+06         0.00000E+00
    0.00000E+00         0.00000E+00        -0.61628E+04
 
    0.26492E+06         0.18974E-09         0.00000E+00
    0.18974E-09        -0.29573E+06         0.00000E+00
    0.00000E+00         0.00000E+00        -0.61628E+04
 
    0.26492E+06        -0.36140E-10         0.00000E+00
   -0.36140E-10        -0.29573E+06         0.00000E+00
    0.00000E+00         0.00000E+00        -0.61628E+04
 
    0.26492E+06         0.54210E-10         0.00000E+00
    0.54210E-10        -0.29573E+06         0.00000E+00
    0.00000E+00         0.00000E+00        -0.61628E+04
 
    0.26492E+06        -0.36140E-10         0.00000E+00
   -0.36140E-10        -0.29573E+06         0.00000E+00
    0.00000E+00         0.00000E+00        -0.61628E+04
 
    0.26492E+06        -0.11746E-09         0.00000E+00
   -0.11746E-09        -0.29573E+06         0.00000E+00
    0.00000E+00         0.00000E+00        -0.61628E+04
 
    0.26492E+06        -0.85833E-10         0.00000E+00
   -0.85833E-10        -0.29573E+06         0.00000E+00
    0.00000E+00         0.00000E+00        -0.61628E+04
 
    0.26492E+06        -0.19877E-09         0.00000E+00
   -0.19877E-09        -0.29573E+06         0.00000E+00
    0.00000E+00         0.00000E+00        -0.61628E+04
 
    0.26492E+06        -0.13553E-10         0.00000E+00
   -0.13553E-10        -0.29573E+06         0.00000E+00
    0.00000E+00         0.00000E+00        -0.61628E+04
 
    0.26492E+06         0.15360E-09         0.00000E+00
    0.15360E-09        -0.29573E+06         0.00000E+00
    0.00000E+00         0.00000E+00        -0.61628E+04
 
    0.26492E+06        -0.72280E-10         0.00000E+00
   -0.72280E-10        -0.29573E+06         0.00000E+00
    0.00000E+00         0.00000E+00        -0.61628E+04
 
    0.26492E+06        -0.15360E-09         0.00000E+00
   -0.15360E-09        -0.29573E+06         0.00000E+00
    0.00000E+00         0.00000E+00        -0.61628E+04
 
    0.26492E+06        -0.31623E-10         0.00000E+00
   -0.31623E-10        -0.29573E+06         0.00000E+00
    0.00000E+00         0.00000E+00        -0.61628E+04
 
    0.26492E+06         0.18070E-10         0.00000E+00
    0.18070E-10        -0.29573E+06         0.00000E+00
    0.00000E+00         0.00000E+00        -0.61628E+04
 
    0.26472E+06        -0.13553E-09         0.00000E+00
   -0.13553E-09        -0.29578E+06         0.00000E+00
    0.00000E+00         0.00000E+00        -0.62118E+04
 
    0.26472E+06        -0.11746E-09         0.00000E+00
   -0.11746E-09        -0.29578E+06         0.00000E+00
    0.00000E+00         0.00000E+00        -0.62118E+04
 
    0.26472E+06         0.45175E-10         0.00000E+00
    0.45175E-10        -0.29578E+06         0.00000E+00
    0.00000E+00         0.00000E+00        -0.62118E+04
 
    0.26472E+06        -0.20781E-09         0.00000E+00
   -0.20781E-09        -0.29578E+06         0.00000E+00
    0.00000E+00         0.00000E+00        -0.62118E+04
 
    0.26472E+06         0.14456E-09         0.00000E+00
    0.14456E-09        -0.29578E+06         0.00000E+00
    0.00000E+00         0.00000E+00        -0.62118E+04
 
    0.26472E+06         0.24395E-09         0.00000E+00
    0.24395E-09        -0.29578E+06         0.00000E+00
    0.00000E+00         0.00000E+00        -0.62118E+04
 
    0.26472E+06         0.28912E-09         0.00000E+00
    0.28912E-09        -0.29578E+06         0.00000E+00
    0.00000E+00         0.00000E+00        -0.62118E+04
 
    0.26472E+06         0.13101E-09         0.00000E+00
    0.13101E-09        -0.29578E+06         0.00000E+00
    0.00000E+00         0.00000E+00        -0.62118E+04
 
    0.26472E+06         0.27105E-10         0.00000E+00
    0.27105E-10        -0.29578E+06         0.00000E+00
    0.00000E+00         0.00000E+00        -0.62118E+04
 
    0.26472E+06         0.54210E-10         0.00000E+00
    0.54210E-10        -0.29578E+06         0.00000E+00
    0.00000E+00         0.00000E+00        -0.62118E+04
 
    0.26472E+06        -0.27105E-10         0.00000E+00
   -0.27105E-10        -0.29578E+06         0.00000E+00
    0.00000E+00         0.00000E+00        -0.62118E+04
 
    0.26472E+06         0.81315E-10         0.00000E+00
    0.81315E-10        -0.29578E+06         0.00000E+00
    0.00000E+00         0.00000E+00        -0.62118E+04
 
    0.26472E+06        -0.63245E-10         0.00000E+00
   -0.63245E-10        -0.29578E+06         0.00000E+00
    0.00000E+00         0.00000E+00        -0.62118E+04
 
    0.26472E+06         0.63245E-10         0.00000E+00
    0.63245E-10        -0.29578E+06         0.00000E+00
    0.00000E+00         0.00000E+00        -0.62118E+04
 
    0.26472E+06         0.90350E-11         0.00000E+00
    0.90350E-11        -0.29578E+06         0.00000E+00
    0.00000E+00         0.00000E+00        -0.62118E+04
 
    0.26449E+06         0.11746E-09         0.00000E+00
    0.11746E-09        -0.29584E+06         0.00000E+00
    0.00000E+00         0.00000E+00        -0.62707E+04
 
    0.26449E+06         0.63245E-10         0.00000E+00
    0.63245E-10        -0.29584E+06         0.00000E+00
    0.00000E+00         0.00000E+00        -0.62707E+04
 
    0.26449E+06        -0.23491E-09         0.00000E+00
   -0.23491E-09        -0.29584E+06         0.00000E+00
    0.00000E+00         0.00000E+00        -0.62707E+04
 
    0.26449E+06         0.00000E+00         0.00000E+00
    0.00000E+00        -0.29584E+06         0.00000E+00
    0.00000E+00         0.00000E+00        -0.62707E+04
 
    0.26449E+06         0.81315E-10         0.00000E+00
    0.81315E-10        -0.29584E+06         0.00000E+00
    0.00000E+00         0.00000E+00        -0.62707E+04
 
    0.26449E+06        -0.54210E-10         0.00000E+00
   -0.54210E-10        -0.29584E+06         0.00000E+00
    0.00000E+00         0.00000E+00        -0.62707E+04
 
    0.26449E+06        -0.27105E-10         0.00000E+00
   -0.27105E-10        -0.29584E+06         0.00000E+00
    0.00000E+00         0.00000E+00        -0.62707E+04
 
    0.26449E+06         0.45175E-10         0.00000E+00
    0.45175E-10        -0.29584E+06         0.00000E+00
    0.00000E+00         0.00000E+00        -0.62707E+04
 
    0.26449E+06        -0.54210E-10         0.00000E+00
   -0.54210E-10        -0.29584E+06         0.00000E+00
    0.00000E+00         0.00000E+00        -0.62707E+04
 
    0.26449E+06        -0.10842E-09         0.00000E+00
   -0.10842E-09        -0.29584E+06         0.00000E+00
    0.00000E+00         0.00000E+00        -0.62707E+04
 
    0.26449E+06        -0.18070E-10         0.00000E+00
   -0.18070E-10        -0.29584E+06         0.00000E+00
    0.00000E+00         0.00000E+00        -0.62707E+04
 
    0.26449E+06        -0.54210E-10         0.00000E+00
   -0.54210E-10        -0.29584E+06         0.00000E+00
    0.00000E+00         0.00000E+00        -0.62707E+04
 
    0.26449E+06        -0.14456E-09         0.00000E+00
   -0.14456E-09        -0.29584E+06         0.00000E+00
    0.00000E+00         0.00000E+00        -0.62707E+04
 
    0.26449E+06         0.27105E-10         0.00000E+00
    0.27105E-10        -0.29584E+06         0.00000E+00
    0.00000E+00         0.00000E+00        -0.62707E+04
 
    0.26449E+06         0.36140E-10         0.00000E+00
    0.36140E-10        -0.29584E+06         0.00000E+00
    0.00000E+00         0.00000E+00        -0.62707E+04
 
    0.26421E+06        -0.63245E-10         0.00000E+00
   -0.63245E-10        -0.29591E+06         0.00000E+00
    0.00000E+00         0.00000E+00        -0.63396E+04
 
    0.26421E+06        -0.36140E-10         0.00000E+00
   -0.36140E-10        -0.29591E+06         0.00000E+00
    0.00000E+00         0.00000E+00        -0.63396E+04
 
    0.26421E+06        -0.72280E-10         0.00000E+00
   -0.72280E-10        -0.29591E+06         0.00000E+00
    0.00000E+00         0.00000E+00        -0.63396E+04
 
    0.26421E+06         0.54210E-10         0.00000E+00
    0.54210E-10        -0.29591E+06         0.00000E+00
    0.00000E+00         0.00000E+00        -0.63396E+04
 
    0.26421E+06        -0.18070E-09         0.00000E+00
   -0.18070E-09        -0.29591E+06         0.00000E+00
    0.00000E+00         0.00000E+00        -0.63396E+04
 
    0.26421E+06         0.24395E-09         0.00000E+00
    0.24395E-09        -0.29591E+06         0.00000E+00
    0.00000E+00         0.00000E+00        -0.63396E+04
 
    0.26421E+06        -0.18070E-10         0.00000E+00
   -0.18070E-10        -0.29591E+06         0.00000E+00
    0.00000E+00         0.00000E+00        -0.63396E+04
 
    0.26421E+06         0.00000E+00         0.00000E+00
    0.00000E+00        -0.29591E+06         0.00000E+00
    0.00000E+00         0.00000E+00        -0.63396E+04
 
    0.26421E+06        -0.11746E-09         0.00000E+00
   -0.11746E-09        -0.29591E+06         0.00000E+00
    0.00000E+00         0.00000E+00        -0.63396E+04
 
    0.26421E+06         0.16263E-09         0.00000E+00
    0.16263E-09        -0.29591E+06         0.00000E+00
    0.00000E+00         0.00000E+00        -0.63396E+04
 
    0.26421E+06        -0.90350E-11         0.00000E+00
   -0.90350E-11        -0.29591E+06         0.00000E+00
    0.00000E+00         0.00000E+00        -0.63396E+04
 
    0.26421E+06        -0.18974E-09         0.00000E+00
   -0.18974E-09        -0.29591E+06         0.00000E+00
    0.00000E+00         0.00000E+00        -0.63396E+04
 
    0.26421E+06        -0.22588E-09         0.00000E+00
   -0.22588E-09        -0.29591E+06         0.00000E+00
    0.00000E+00         0.00000E+00        -0.63396E+04
 
    0.26421E+06         0.10842E-09         0.00000E+00
    0.10842E-09        -0.29591E+06         0.00000E+00
    0.00000E+00         0.00000E+00        -0.63396E+04
 
    0.26421E+06        -0.13553E-09         0.00000E+00
   -0.13553E-09        -0.29591E+06         0.00000E+00
    0.00000E+00         0.00000E+00        -0.63396E+04
 
    0.26389E+06         0.30719E-09         0.00000E+00
    0.30719E-09        -0.29599E+06         0.00000E+00
    0.00000E+00         0.00000E+00        -0.64186E+04
 
    0.26389E+06         0.99385E-10         0.00000E+00
    0.99385E-10        -0.29599E+06         0.00000E+00
    0.00000E+00         0.00000E+00        -0.64186E+04
 
    0.26389E+06        -0.81315E-10         0.00000E+00
   -0.81315E-10        -0.29599E+06         0.00000E+00
    0.00000E+00         0.00000E+00        -0.64186E+04
 
    0.26389E+06        -0.90350E-11         0.00000E+00
   -0.90350E-11        -0.29599E+06         0.00000E+00
    0.00000E+00         0.00000E+00        -0.64186E+04
 
    0.26389E+06        -0.13553E-09         0.00000E+00
   -0.13553E-09        -0.29599E+06         0.00000E+00
    0.00000E+00         0.00000E+00        -0.64186E+04
 
    0.26389E+06        -0.14456E-09         0.00000E+00
   -0.14456E-09        -0.29599E+06         0.00000E+00
    0.00000E+00         0.00000E+00        -0.64186E+04
 
    0.26389E+06        -0.81315E-10         0.00000E+00
   -0.81315E-10        -0.29599E+06         0.00000E+00
    0.00000E+00         0.00000E+00        -0.64186E+04
 
    0.26389E+06        -0.90350E-10         0.00000E+00
   -0.90350E-10        -0.29599E+06         0.00000E+00
    0.00000E+00         0.00000E+00        -0.64186E+04
 
    0.26389E+06         0.72280E-10         0.00000E+00
    0.72280E-10        -0.29599E+06         0.00000E+00
    0.00000E+00         0.00000E+00        -0.64186E+04
 
    0.26389E+06         0.72280E-10         0.00000E+00
    0.72280E-10        -0.29599E+06         0.00000E+00
    0.00000E+00         0.00000E+00        -0.64186E+04
 
    0.26389E+06        -0.36140E-10         0.00000E+00
   -0.36140E-10        -0.29599E+06         0.00000E+00
    0.00000E+00         0.00000E+00        -0.64186E+04
 
    0.26389E+06        -0.28912E-09         0.00000E+00
   -0.28912E-09        -0.29599E+06         0.00000E+00
    0.00000E+00         0.00000E+00        -0.64186E+04
 
    0.26389E+06         0.45175E-10         0.00000E+00
    0.45175E-10        -0.29599E+06         0.00000E+00
    0.00000E+00         0.00000E+00        -0.64186E+04
 
    0.26389E+06        -0.36140E-10         0.00000E+00
   -0.36140E-10        -0.29599E+06         0.00000E+00
    0.00000E+00         0.00000E+00        -0.64186E+04
 
    0.26389E+06         0.00000E+00         0.00000E+00
    0.00000E+00        -0.29599E+06         0.00000E+00
    0.00000E+00         0.00000E+00        -0.64186E+04
 
    0.26354E+06        -0.27105E-09         0.00000E+00
   -0.27105E-09        -0.29608E+06         0.00000E+00
    0.00000E+00         0.00000E+00        -0.65078E+04
 
    0.26354E+06         0.99385E-10         0.00000E+00
    0.99385E-10        -0.29608E+06         0.00000E+00
    0.00000E+00         0.00000E+00        -0.65078E+04
 
    0.26354E+06         0.21684E-09         0.00000E+00
    0.21684E-09        -0.29608E+06         0.00000E+00
    0.00000E+00         0.00000E+00        -0.65078E+04
 
    0.26354E+06        -0.63245E-10         0.00000E+00
   -0.63245E-10        -0.29608E+06         0.00000E+00
    0.00000E+00         0.00000E+00        -0.65078E+04
 
    0.26354E+06         0.36140E-10         0.00000E+00
    0.36140E-10        -0.29608E+06         0.00000E+00
    0.00000E+00         0.00000E+00        -0.65078E+04
 
    0.26354E+06        -0.18070E-10         0.00000E+00
   -0.18070E-10        -0.29608E+06         0.00000E+00
    0.00000E+00         0.00000E+00        -0.65078E+04
 
    0.26354E+06        -0.27105E-10         0.00000E+00
   -0.27105E-10        -0.29608E+06         0.00000E+00
    0.00000E+00         0.00000E+00        -0.65078E+04
 
    0.26354E+06        -0.28912E-09         0.00000E+00
   -0.28912E-09        -0.29608E+06         0.00000E+00
    0.00000E+00         0.00000E+00        -0.65078E+04
 
    0.26354E+06         0.00000E+00         0.00000E+00
    0.00000E+00        -0.29608E+06         0.00000E+00
    0.00000E+00         0.00000E+00        -0.65078E+04
 
    0.26354E+06        -0.54210E-10         0.00000E+00
   -0.54210E-10        -0.29608E+06         0.00000E+00
    0.00000E+00         0.00000E+00        -0.65078E+04
 
    0.26354E+06         0.10842E-09         0.00000E+00
    0.10842E-09        -0.29608E+06         0.00000E+00
    0.00000E+00         0.00000E+00        -0.65078E+04
 
    0.26354E+06        -0.13553E-09         0.00000E+00
   -0.13553E-09        -0.29608E+06         0.00000E+00
    0.00000E+00         0.00000E+00        -0.65078E+04
 
    0.26354E+06         0.90350E-10         0.00000E+00
    0.90350E-10        -0.29608E+06         0.00000E+00
    0.00000E+00         0.00000E+00        -0.65078E+04
 
    0.26354E+06        -0.12649E-09         0.00000E+00
   -0.12649E-09        -0.29608E+06         0.00000E+00
    0.00000E+00         0.00000E+00        -0.65078E+04
 
    0.26354E+06         0.00000E+00         0.00000E+00
    0.00000E+00        -0.29608E+06         0.00000E+00
    0.00000E+00         0.00000E+00        -0.65078E+04
 
    0.26314E+06        -0.37044E-09         0.00000E+00
   -0.37044E-09        -0.29618E+06         0.00000E+00
    0.00000E+00         0.00000E+00        -0.66073E+04
 
    0.26314E+06         0.81315E-10         0.00000E+00
    0.81315E-10        -0.29618E+06         0.00000E+00
    0.00000E+00         0.00000E+00        -0.66073E+04
 
    0.26314E+06         0.26202E-09         0.00000E+00
    0.26202E-09        -0.29618E+06         0.00000E+00
    0.00000E+00         0.00000E+00        -0.66073E+04
 
    0.26314E+06         0.23491E-09         0.00000E+00
    0.23491E-09        -0.29618E+06         0.00000E+00
    0.00000E+00         0.00000E+00        -0.66073E+04
 
    0.26314E+06        -0.35237E-09         0.00000E+00
   -0.35237E-09        -0.29618E+06         0.00000E+00
    0.00000E+00         0.00000E+00        -0.66073E+04
 
    0.26314E+06        -0.14456E-09         0.00000E+00
   -0.14456E-09        -0.29618E+06         0.00000E+00
    0.00000E+00         0.00000E+00        -0.66073E+04
 
    0.26314E+06        -0.72280E-10         0.00000E+00
   -0.72280E-10        -0.29618E+06         0.00000E+00
    0.00000E+00         0.00000E+00        -0.66073E+04
 
    0.26314E+06         0.10842E-09         0.00000E+00
    0.10842E-09        -0.29618E+06         0.00000E+00
    0.00000E+00         0.00000E+00        -0.66073E+04
 
    0.26314E+06         0.10842E-09         0.00000E+00
    0.10842E-09        -0.29618E+06         0.00000E+00
    0.00000E+00         0.00000E+00        -0.66073E+04
 
    0.26314E+06        -0.12649E-09         0.00000E+00
   -0.12649E-09        -0.29618E+06         0.00000E+00
    0.00000E+00         0.00000E+00        -0.66073E+04
 
    0.26314E+06        -0.72280E-10         0.00000E+00
   -0.72280E-10        -0.29618E+06         0.00000E+00
    0.00000E+00         0.00000E+00        -0.66073E+04
 
    0.26314E+06         0.45175E-10         0.00000E+00
    0.45175E-10        -0.29618E+06         0.00000E+00
    0.00000E+00         0.00000E+00        -0.66073E+04
 
    0.26314E+06         0.50596E-09         0.00000E+00
    0.50596E-09        -0.29618E+06         0.00000E+00
    0.00000E+00         0.00000E+00        -0.66073E+04
 
    0.26314E+06        -0.72280E-10         0.00000E+00
   -0.72280E-10        -0.29618E+06         0.00000E+00
    0.00000E+00         0.00000E+00        -0.66073E+04
 
    0.26314E+06         0.72280E-10         0.00000E+00
    0.72280E-10        -0.29618E+06         0.00000E+00
    0.00000E+00         0.00000E+00        -0.66073E+04
 
    0.26270E+06        -0.23491E-09         0.00000E+00
   -0.23491E-09        -0.29629E+06         0.00000E+00
    0.00000E+00         0.00000E+00        -0.67173E+04
 
    0.26270E+06        -0.54210E-10         0.00000E+00
   -0.54210E-10        -0.29629E+06         0.00000E+00
    0.00000E+00         0.00000E+00        -0.67173E+04
 
    0.26270E+06         0.16263E-09         0.00000E+00
    0.16263E-09        -0.29629E+06         0.00000E+00
    0.00000E+00         0.00000E+00        -0.67173E+04
 
    0.26270E+06         0.23491E-09         0.00000E+00
    0.23491E-09        -0.29629E+06         0.00000E+00
    0.00000E+00         0.00000E+00        -0.67173E+04
 
    0.26270E+06         0.21684E-09         0.00000E+00
    0.21684E-09        -0.29629E+06         0.00000E+00
    0.00000E+00         0.00000E+00        -0.67173E+04
 
    0.26270E+06         0.54210E-10         0.00000E+00
    0.54210E-10        -0.29629E+06         0.00000E+00
    0.00000E+00         0.00000E+00        -0.67173E+04
 
    0.26270E+06         0.10842E-09         0.00000E+00
    0.10842E-09        -0.29629E+06         0.00000E+00
    0.00000E+00         0.00000E+00        -0.67173E+04
 
    0.26270E+06         0.27105E-09         0.00000E+00
    0.27105E-09        -0.29629E+06         0.00000E+00
    0.00000E+00         0.00000E+00        -0.67173E+04
 
    0.26270E+06         0.16263E-09         0.00000E+00
    0.16263E-09        -0.29629E+06         0.00000E+00
    0.00000E+00         0.00000E+00        -0.67173E+04
 
    0.26270E+06         0.36140E-10         0.00000E+00
    0.36140E-10        -0.29629E+06         0.00000E+00
    0.00000E+00         0.00000E+00        -0.67173E+04
 
    0.26270E+06         0.54210E-10         0.00000E+00
    0.54210E-10        -0.29629E+06         0.00000E+00
    0.00000E+00         0.00000E+00        -0.67173E+04
 
    0.26270E+06        -0.26202E-09         0.00000E+00
   -0.26202E-09        -0.29629E+06         0.00000E+00
    0.00000E+00         0.00000E+00        -0.67173E+04
 
    0.26270E+06         0.23491E-09         0.00000E+00
    0.23491E-09        -0.29629E+06         0.00000E+00
    0.00000E+00         0.00000E+00        -0.67173E+04
 
    0.26270E+06        -0.18070E-10         0.00000E+00
   -0.18070E-10        -0.29629E+06         0.00000E+00
    0.00000E+00         0.00000E+00        -0.67173E+04
 
    0.26270E+06         0.16263E-09         0.00000E+00
    0.16263E-09        -0.29629E+06         0.00000E+00
    0.00000E+00         0.00000E+00        -0.67173E+04
 
    0.26222E+06         0.72280E-10         0.00000E+00
    0.72280E-10        -0.29641E+06         0.00000E+00
    0.00000E+00         0.00000E+00        -0.68378E+04
 
    0.26222E+06        -0.36140E-09         0.00000E+00
   -0.36140E-09        -0.29641E+06         0.00000E+00
    0.00000E+00         0.00000E+00        -0.68378E+04
 
    0.26222E+06         0.23491E-09         0.00000E+00
    0.23491E-09        -0.29641E+06         0.00000E+00
    0.00000E+00         0.00000E+00        -0.68378E+04
 
    0.26222E+06        -0.21684E-09         0.00000E+00
   -0.21684E-09        -0.29641E+06         0.00000E+00
    0.00000E+00         0.00000E+00        -0.68378E+04
 
    0.26222E+06         0.54210E-10         0.00000E+00
    0.54210E-10        -0.29641E+06         0.00000E+00
    0.00000E+00         0.00000E+00        -0.68378E+04
 
    0.26222E+06         0.19877E-09         0.00000E+00
    0.19877E-09        -0.29641E+06         0.00000E+00
    0.00000E+00         0.00000E+00        -0.68378E+04
 
    0.26222E+06        -0.18070E-10         0.00000E+00
   -0.18070E-10        -0.29641E+06         0.00000E+00
    0.00000E+00         0.00000E+00        -0.68378E+04
 
    0.26222E+06         0.18070E-10         0.00000E+00
    0.18070E-10        -0.29641E+06         0.00000E+00
    0.00000E+00         0.00000E+00        -0.68378E+04
 
    0.26222E+06         0.72280E-10         0.00000E+00
    0.72280E-10        -0.29641E+06         0.00000E+00
    0.00000E+00         0.00000E+00        -0.68378E+04
 
    0.26222E+06         0.18070E-10         0.00000E+00
    0.18070E-10        -0.29641E+06         0.00000E+00
    0.00000E+00         0.00000E+00        -0.68378E+04
 
    0.26222E+06         0.72280E-10         0.00000E+00
    0.72280E-10        -0.29641E+06         0.00000E+00
    0.00000E+00         0.00000E+00        -0.68378E+04
 
    0.26222E+06         0.18070E-10         0.00000E+00
    0.18070E-10        -0.29641E+06         0.00000E+00
    0.00000E+00         0.00000E+00        -0.68378E+04
 
    0.26222E+06        -0.90350E-10         0.00000E+00
   -0.90350E-10        -0.29641E+06         0.00000E+00
    0.00000E+00         0.00000E+00        -0.68378E+04
 
    0.26222E+06         0.14456E-09         0.00000E+00
    0.14456E-09        -0.29641E+06         0.00000E+00
    0.00000E+00         0.00000E+00        -0.68378E+04
 
    0.26222E+06         0.00000E+00         0.00000E+00
    0.00000E+00        -0.29641E+06         0.00000E+00
    0.00000E+00         0.00000E+00        -0.68378E+04
 
    0.26169E+06         0.21684E-09         0.00000E+00
    0.21684E-09        -0.29654E+06         0.00000E+00
    0.00000E+00         0.00000E+00        -0.69690E+04
 
    0.26169E+06        -0.54210E-10         0.00000E+00
   -0.54210E-10        -0.29654E+06         0.00000E+00
    0.00000E+00         0.00000E+00        -0.69690E+04
 
    0.26169E+06        -0.72280E-10         0.00000E+00
   -0.72280E-10        -0.29654E+06         0.00000E+00
    0.00000E+00         0.00000E+00        -0.69690E+04
 
    0.26169E+06         0.10842E-09         0.00000E+00
    0.10842E-09        -0.29654E+06         0.00000E+00
    0.00000E+00         0.00000E+00        -0.69690E+04
 
    0.26169E+06        -0.10842E-09         0.00000E+00
   -0.10842E-09        -0.29654E+06         0.00000E+00
    0.00000E+00         0.00000E+00        -0.69690E+04
 
    0.26169E+06        -0.32526E-09         0.00000E+00
   -0.32526E-09        -0.29654E+06         0.00000E+00
    0.00000E+00         0.00000E+00        -0.69690E+04
 
    0.26169E+06         0.36140E-10         0.00000E+00
    0.36140E-10        -0.29654E+06         0.00000E+00
    0.00000E+00         0.00000E+00        -0.69690E+04
 
    0.26169E+06         0.10842E-09         0.00000E+00
    0.10842E-09        -0.29654E+06         0.00000E+00
    0.00000E+00         0.00000E+00        -0.69690E+04
 
    0.26169E+06         0.30719E-09         0.00000E+00
    0.30719E-09        -0.29654E+06         0.00000E+00
    0.00000E+00         0.00000E+00        -0.69690E+04
 
    0.26169E+06        -0.10842E-09         0.00000E+00
   -0.10842E-09        -0.29654E+06         0.00000E+00
    0.00000E+00         0.00000E+00        -0.69690E+04
 
    0.26169E+06        -0.25298E-09         0.00000E+00
   -0.25298E-09        -0.29654E+06         0.00000E+00
    0.00000E+00         0.00000E+00        -0.69690E+04
 
    0.26169E+06         0.19877E-09         0.00000E+00
    0.19877E-09        -0.29654E+06         0.00000E+00
    0.00000E+00         0.00000E+00        -0.69690E+04
 
    0.26169E+06        -0.14456E-09         0.00000E+00
   -0.14456E-09        -0.29654E+06         0.00000E+00
    0.00000E+00         0.00000E+00        -0.69690E+04
 
    0.26169E+06         0.00000E+00         0.00000E+00
    0.00000E+00        -0.29654E+06         0.00000E+00
    0.00000E+00         0.00000E+00        -0.69690E+04
 
    0.26169E+06        -0.90350E-10         0.00000E+00
   -0.90350E-10        -0.29654E+06         0.00000E+00
    0.00000E+00         0.00000E+00        -0.69690E+04
 
    0.26112E+06         0.28912E-09         0.00000E+00
    0.28912E-09        -0.29668E+06         0.00000E+00
    0.00000E+00         0.00000E+00        -0.71112E+04
 
    0.26112E+06        -0.18070E-10         0.00000E+00
   -0.18070E-10        -0.29668E+06         0.00000E+00
    0.00000E+00         0.00000E+00        -0.71112E+04
 
    0.26112E+06        -0.14456E-09         0.00000E+00
   -0.14456E-09        -0.29668E+06         0.00000E+00
    0.00000E+00         0.00000E+00        -0.71112E+04
 
    0.26112E+06        -0.50596E-09         0.00000E+00
   -0.50596E-09        -0.29668E+06         0.00000E+00
    0.00000E+00         0.00000E+00        -0.71112E+04
 
    0.26112E+06         0.10842E-09         0.00000E+00
    0.10842E-09        -0.29668E+06         0.00000E+00
    0.00000E+00         0.00000E+00        -0.71112E+04
 
    0.26112E+06        -0.30719E-09         0.00000E+00
   -0.30719E-09        -0.29668E+06         0.00000E+00
    0.00000E+00         0.00000E+00        -0.71112E+04
 
    0.26112E+06         0.10842E-09         0.00000E+00
    0.10842E-09        -0.29668E+06         0.00000E+00
    0.00000E+00         0.00000E+00        -0.71112E+04
 
    0.26112E+06        -0.25298E-09         0.00000E+00
   -0.25298E-09        -0.29668E+06         0.00000E+00
    0.00000E+00         0.00000E+00        -0.71112E+04
 
    0.26112E+06         0.30719E-09         0.00000E+00
    0.30719E-09        -0.29668E+06         0.00000E+00
    0.00000E+00         0.00000E+00        -0.71112E+04
 
    0.26112E+06         0.36140E-10         0.00000E+00
    0.36140E-10        -0.29668E+06         0.00000E+00
    0.00000E+00         0.00000E+00        -0.71112E+04
 
    0.26112E+06         0.00000E+00         0.00000E+00
    0.00000E+00        -0.29668E+06         0.00000E+00
    0.00000E+00         0.00000E+00        -0.71112E+04
 
    0.26112E+06         0.30719E-09         0.00000E+00
    0.30719E-09        -0.29668E+06         0.00000E+00
    0.00000E+00         0.00000E+00        -0.71112E+04
 
    0.26112E+06         0.21684E-09         0.00000E+00
    0.21684E-09        -0.29668E+06         0.00000E+00
    0.00000E+00         0.00000E+00        -0.71112E+04
 
    0.26112E+06         0.00000E+00         0.00000E+00
    0.00000E+00        -0.29668E+06         0.00000E+00
    0.00000E+00         0.00000E+00        -0.71112E+04
 
    0.26112E+06         0.14456E-09         0.00000E+00
    0.14456E-09        -0.29668E+06         0.00000E+00
    0.00000E+00         0.00000E+00        -0.71112E+04
 
    0.26051E+06        -0.25849E-25         0.00000E+00
   -0.25849E-25        -0.29683E+06         0.00000E+00
    0.00000E+00         0.00000E+00        -0.72644E+04
 
    0.26051E+06        -0.30719E-09         0.00000E+00
   -0.30719E-09        -0.29683E+06         0.00000E+00
    0.00000E+00         0.00000E+00        -0.72644E+04
 
    0.26051E+06         0.25298E-09         0.00000E+00
    0.25298E-09        -0.29683E+06         0.00000E+00
    0.00000E+00         0.00000E+00        -0.72644E+04
 
    0.26051E+06        -0.57824E-09         0.00000E+00
   -0.57824E-09        -0.29683E+06         0.00000E+00
    0.00000E+00         0.00000E+00        -0.72644E+04
 
    0.26051E+06        -0.25298E-09         0.00000E+00
   -0.25298E-09        -0.29683E+06         0.00000E+00
    0.00000E+00         0.00000E+00        -0.72644E+04
 
    0.26051E+06         0.72280E-10         0.00000E+00
    0.72280E-10        -0.29683E+06         0.00000E+00
    0.00000E+00         0.00000E+00        -0.72644E+04
 
    0.26051E+06        -0.14456E-09         0.00000E+00
   -0.14456E-09        -0.29683E+06         0.00000E+00
    0.00000E+00         0.00000E+00        -0.72644E+04
 
    0.26051E+06        -0.16263E-09         0.00000E+00
   -0.16263E-09        -0.29683E+06         0.00000E+00
    0.00000E+00         0.00000E+00        -0.72644E+04
 
    0.26051E+06        -0.14456E-09         0.00000E+00
   -0.14456E-09        -0.29683E+06         0.00000E+00
    0.00000E+00         0.00000E+00        -0.72644E+04
 
    0.26051E+06        -0.23491E-09         0.00000E+00
   -0.23491E-09        -0.29683E+06         0.00000E+00
    0.00000E+00         0.00000E+00        -0.72644E+04
 
    0.26051E+06        -0.90350E-10         0.00000E+00
   -0.90350E-10        -0.29683E+06         0.00000E+00
    0.00000E+00         0.00000E+00        -0.72644E+04
 
    0.26051E+06        -0.12649E-09         0.00000E+00
   -0.12649E-09        -0.29683E+06         0.00000E+00
    0.00000E+00         0.00000E+00        -0.72644E+04
 
    0.26051E+06        -0.36140E-10         0.00000E+00
   -0.36140E-10        -0.29683E+06         0.00000E+00
    0.00000E+00         0.00000E+00        -0.72644E+04
 
    0.26051E+06         0.90350E-10         0.00000E+00
    0.90350E-10        -0.29683E+06         0.00000E+00
    0.00000E+00         0.00000E+00        -0.72644E+04
 
    0.26051E+06        -0.25298E-09         0.00000E+00
   -0.25298E-09        -0.29683E+06         0.00000E+00
    0.00000E+00         0.00000E+00        -0.72644E+04
 
    0.25985E+06        -0.19877E-09         0.00000E+00
   -0.19877E-09        -0.29700E+06         0.00000E+00
    0.00000E+00         0.00000E+00        -0.74288E+04
 
    0.25985E+06        -0.21684E-09         0.00000E+00
   -0.21684E-09        -0.29700E+06         0.00000E+00
    0.00000E+00         0.00000E+00        -0.74288E+04
 
    0.25985E+06         0.30719E-09         0.00000E+00
    0.30719E-09        -0.29700E+06         0.00000E+00
    0.00000E+00         0.00000E+00        -0.74288E+04
 
    0.25985E+06         0.00000E+00         0.00000E+00
    0.00000E+00        -0.29700E+06         0.00000E+00
    0.00000E+00         0.00000E+00        -0.74288E+04
 
    0.25985E+06         0.72280E-10         0.00000E+00
    0.72280E-10        -0.29700E+06         0.00000E+00
    0.00000E+00         0.00000E+00        -0.74288E+04
 
    0.25985E+06        -0.36140E-10         0.00000E+00
   -0.36140E-10        -0.29700E+06         0.00000E+00
    0.00000E+00         0.00000E+00        -0.74288E+04
 
    0.25985E+06         0.90350E-10         0.00000E+00
    0.90350E-10        -0.29700E+06         0.00000E+00
    0.00000E+00         0.00000E+00        -0.74288E+04
 
    0.25985E+06         0.10842E-09         0.00000E+00
    0.10842E-09        -0.29700E+06         0.00000E+00
    0.00000E+00         0.00000E+00        -0.74288E+04
 
    0.25985E+06         0.10842E-09         0.00000E+00
    0.10842E-09        -0.29700E+06         0.00000E+00
    0.00000E+00         0.00000E+00        -0.74288E+04
 
    0.25985E+06         0.14456E-09         0.00000E+00
    0.14456E-09        -0.29700E+06         0.00000E+00
    0.00000E+00         0.00000E+00        -0.74288E+04
 
    0.25985E+06         0.00000E+00         0.00000E+00
    0.00000E+00        -0.29700E+06         0.00000E+00
    0.00000E+00         0.00000E+00        -0.74288E+04
 
    0.25985E+06        -0.72280E-10         0.00000E+00
   -0.72280E-10        -0.29700E+06         0.00000E+00
    0.00000E+00         0.00000E+00        -0.74288E+04
 
    0.25985E+06         0.34333E-09         0.00000E+00
    0.34333E-09        -0.29700E+06         0.00000E+00
    0.00000E+00         0.00000E+00        -0.74288E+04
 
    0.25985E+06        -0.54210E-09         0.00000E+00
   -0.54210E-09        -0.29700E+06         0.00000E+00
    0.00000E+00         0.00000E+00        -0.74288E+04
 
    0.25985E+06        -0.10842E-09         0.00000E+00
   -0.10842E-09        -0.29700E+06         0.00000E+00
    0.00000E+00         0.00000E+00        -0.74288E+04
 
    0.25915E+06        -0.10842E-09         0.00000E+00
   -0.10842E-09        -0.29717E+06         0.00000E+00
    0.00000E+00         0.00000E+00        -0.76047E+04
 
    0.25915E+06        -0.72280E-10         0.00000E+00
   -0.72280E-10        -0.29717E+06         0.00000E+00
    0.00000E+00         0.00000E+00        -0.76047E+04
 
    0.25915E+06        -0.18070E-09         0.00000E+00
   -0.18070E-09        -0.29717E+06         0.00000E+00
    0.00000E+00         0.00000E+00        -0.76047E+04
 
    0.25915E+06        -0.25298E-09         0.00000E+00
   -0.25298E-09        -0.29717E+06         0.00000E+00
    0.00000E+00         0.00000E+00        -0.76047E+04
 
    0.25915E+06        -0.18070E-09         0.00000E+00
   -0.18070E-09        -0.29717E+06         0.00000E+00
    0.00000E+00         0.00000E+00        -0.76047E+04
 
    0.25915E+06        -0.43368E-09         0.00000E+00
   -0.43368E-09        -0.29717E+06         0.00000E+00
    0.00000E+00         0.00000E+00        -0.76047E+04
 
    0.25915E+06         0.19877E-09         0.00000E+00
    0.19877E-09        -0.29717E+06         0.00000E+00
    0.00000E+00         0.00000E+00        -0.76047E+04
 
    0.25915E+06        -0.21684E-09         0.00000E+00
   -0.21684E-09        -0.29717E+06         0.00000E+00
    0.00000E+00         0.00000E+00        -0.76047E+04
 
    0.25915E+06        -0.19877E-09         0.00000E+00
   -0.19877E-09        -0.29717E+06         0.00000E+00
    0.00000E+00         0.00000E+00        -0.76047E+04
 
    0.25915E+06        -0.10842E-09         0.00000E+00
   -0.10842E-09        -0.29717E+06         0.00000E+00
    0.00000E+00         0.00000E+00        -0.76047E+04
 
    0.25915E+06        -0.18070E-10         0.00000E+00
   -0.18070E-10        -0.29717E+06         0.00000E+00
    0.00000E+00         0.00000E+00        -0.76047E+04
 
    0.25915E+06         0.36140E-10         0.00000E+00
    0.36140E-10        -0.29717E+06         0.00000E+00
    0.00000E+00         0.00000E+00        -0.76047E+04
 
    0.25915E+06         0.27105E-09         0.00000E+00
    0.27105E-09        -0.29717E+06         0.00000E+00
    0.00000E+00         0.00000E+00        -0.76047E+04
 
    0.25915E+06        -0.18070E-09         0.00000E+00
   -0.18070E-09        -0.29717E+06         0.00000E+00
    0.00000E+00         0.00000E+00        -0.76047E+04
 
    0.25915E+06        -0.72280E-10         0.00000E+00
   -0.72280E-10        -0.29717E+06         0.00000E+00
    0.00000E+00         0.00000E+00        -0.76047E+04
 
    0.25840E+06         0.32526E-09         0.00000E+00
    0.32526E-09        -0.29736E+06         0.00000E+00
    0.00000E+00         0.00000E+00        -0.77923E+04
 
    0.25840E+06         0.36140E-10         0.00000E+00
    0.36140E-10        -0.29736E+06         0.00000E+00
    0.00000E+00         0.00000E+00        -0.77923E+04
 
    0.25840E+06         0.21684E-09         0.00000E+00
    0.21684E-09        -0.29736E+06         0.00000E+00
    0.00000E+00         0.00000E+00        -0.77923E+04
 
    0.25840E+06         0.21684E-09         0.00000E+00
    0.21684E-09        -0.29736E+06         0.00000E+00
    0.00000E+00         0.00000E+00        -0.77923E+04
 
    0.25840E+06         0.21684E-09         0.00000E+00
    0.21684E-09        -0.29736E+06         0.00000E+00
    0.00000E+00         0.00000E+00        -0.77923E+04
 
    0.25840E+06         0.72280E-10         0.00000E+00
    0.72280E-10        -0.29736E+06         0.00000E+00
    0.00000E+00         0.00000E+00        -0.77923E+04
 
    0.25840E+06         0.25298E-09         0.00000E+00
    0.25298E-09        -0.29736E+06         0.00000E+00
    0.00000E+00         0.00000E+00        -0.77923E+04
 
    0.25840E+06        -0.28912E-09         0.00000E+00
   -0.28912E-09        -0.29736E+06         0.00000E+00
    0.00000E+00         0.00000E+00        -0.77923E+04
 
    0.25840E+06        -0.48789E-09         0.00000E+00
   -0.48789E-09        -0.29736E+06         0.00000E+00
    0.00000E+00         0.00000E+00        -0.77923E+04
 
    0.25840E+06        -0.12649E-09         0.00000E+00
   -0.12649E-09        -0.29736E+06         0.00000E+00
    0.00000E+00         0.00000E+00        -0.77923E+04
 
    0.25840E+06         0.34333E-09         0.00000E+00
    0.34333E-09        -0.29736E+06         0.00000E+00
    0.00000E+00         0.00000E+00        -0.77923E+04
 
    0.25840E+06        -0.18070E-09         0.00000E+00
   -0.18070E-09        -0.29736E+06         0.00000E+00
    0.00000E+00         0.00000E+00        -0.77923E+04
 
    0.25840E+06        -0.50596E-09         0.00000E+00
   -0.50596E-09        -0.29736E+06         0.00000E+00
    0.00000E+00         0.00000E+00        -0.77923E+04
 
    0.25840E+06        -0.72280E-10         0.00000E+00
   -0.72280E-10        -0.29736E+06         0.00000E+00
    0.00000E+00         0.00000E+00        -0.77923E+04
 
    0.25840E+06         0.36140E-10         0.00000E+00
    0.36140E-10        -0.29736E+06         0.00000E+00
    0.00000E+00         0.00000E+00        -0.77923E+04
 
    0.25760E+06         0.75894E-09         0.00000E+00
    0.75894E-09        -0.29756E+06         0.00000E+00
    0.00000E+00         0.00000E+00        -0.79918E+04
 
    0.25760E+06        -0.14456E-09         0.00000E+00
   -0.14456E-09        -0.29756E+06         0.00000E+00
    0.00000E+00         0.00000E+00        -0.79918E+04
 
    0.25760E+06         0.14456E-09         0.00000E+00
    0.14456E-09        -0.29756E+06         0.00000E+00
    0.00000E+00         0.00000E+00        -0.79918E+04
 
    0.25760E+06        -0.28912E-09         0.00000E+00
   -0.28912E-09        -0.29756E+06         0.00000E+00
    0.00000E+00         0.00000E+00        -0.79918E+04
 
    0.25760E+06        -0.14456E-09         0.00000E+00
   -0.14456E-09        -0.29756E+06         0.00000E+00
    0.00000E+00         0.00000E+00        -0.79918E+04
 
    0.25760E+06        -0.32526E-09         0.00000E+00
   -0.32526E-09        -0.29756E+06         0.00000E+00
    0.00000E+00         0.00000E+00        -0.79918E+04
 
    0.25760E+06        -0.21684E-09         0.00000E+00
   -0.21684E-09        -0.29756E+06         0.00000E+00
    0.00000E+00         0.00000E+00        -0.79918E+04
 
    0.25760E+06        -0.36140E-10         0.00000E+00
   -0.36140E-10        -0.29756E+06         0.00000E+00
    0.00000E+00         0.00000E+00        -0.79918E+04
 
    0.25760E+06        -0.39754E-09         0.00000E+00
   -0.39754E-09        -0.29756E+06         0.00000E+00
    0.00000E+00         0.00000E+00        -0.79918E+04
 
    0.25760E+06        -0.18070E-10         0.00000E+00
   -0.18070E-10        -0.29756E+06         0.00000E+00
    0.00000E+00         0.00000E+00        -0.79918E+04
 
    0.25760E+06         0.30719E-09         0.00000E+00
    0.30719E-09        -0.29756E+06         0.00000E+00
    0.00000E+00         0.00000E+00        -0.79918E+04
 
    0.25760E+06        -0.14456E-09         0.00000E+00
   -0.14456E-09        -0.29756E+06         0.00000E+00
    0.00000E+00         0.00000E+00        -0.79918E+04
 
    0.25760E+06        -0.10481E-08         0.00000E+00
   -0.10481E-08        -0.29756E+06         0.00000E+00
    0.00000E+00         0.00000E+00        -0.79918E+04
 
    0.25760E+06         0.28912E-09         0.00000E+00
    0.28912E-09        -0.29756E+06         0.00000E+00
    0.00000E+00         0.00000E+00        -0.79918E+04
 
    0.25760E+06         0.72280E-10         0.00000E+00
    0.72280E-10        -0.29756E+06         0.00000E+00
    0.00000E+00         0.00000E+00        -0.79918E+04
 
    0.25675E+06        -0.72280E-10         0.00000E+00
   -0.72280E-10        -0.29777E+06         0.00000E+00
    0.00000E+00         0.00000E+00        -0.82034E+04
 
    0.25675E+06         0.65052E-09         0.00000E+00
    0.65052E-09        -0.29777E+06         0.00000E+00
    0.00000E+00         0.00000E+00        -0.82034E+04
 
    0.25675E+06        -0.36140E-10         0.00000E+00
   -0.36140E-10        -0.29777E+06         0.00000E+00
    0.00000E+00         0.00000E+00        -0.82034E+04
 
    0.25675E+06         0.79508E-09         0.00000E+00
    0.79508E-09        -0.29777E+06         0.00000E+00
    0.00000E+00         0.00000E+00        -0.82034E+04
 
    0.25675E+06         0.39754E-09         0.00000E+00
    0.39754E-09        -0.29777E+06         0.00000E+00
    0.00000E+00         0.00000E+00        -0.82034E+04
 
    0.25675E+06        -0.18070E-09         0.00000E+00
   -0.18070E-09        -0.29777E+06         0.00000E+00
    0.00000E+00         0.00000E+00        -0.82034E+04
 
    0.25675E+06        -0.54210E-09         0.00000E+00
   -0.54210E-09        -0.29777E+06         0.00000E+00
    0.00000E+00         0.00000E+00        -0.82034E+04
 
    0.25675E+06         0.19877E-09         0.00000E+00
    0.19877E-09        -0.29777E+06         0.00000E+00
    0.00000E+00         0.00000E+00        -0.82034E+04
 
    0.25675E+06         0.00000E+00         0.00000E+00
    0.00000E+00        -0.29777E+06         0.00000E+00
    0.00000E+00         0.00000E+00        -0.82034E+04
 
    0.25675E+06         0.34333E-09         0.00000E+00
    0.34333E-09        -0.29777E+06         0.00000E+00
    0.00000E+00         0.00000E+00        -0.82034E+04
 
    0.25675E+06        -0.10842E-09         0.00000E+00
   -0.10842E-09        -0.29777E+06         0.00000E+00
    0.00000E+00         0.00000E+00        -0.82034E+04
 
    0.25675E+06        -0.43368E-09         0.00000E+00
   -0.43368E-09        -0.29777E+06         0.00000E+00
    0.00000E+00         0.00000E+00        -0.82034E+04
 
    0.25675E+06        -0.32526E-09         0.00000E+00
   -0.32526E-09        -0.29777E+06         0.00000E+00
    0.00000E+00         0.00000E+00        -0.82034E+04
 
    0.25675E+06        -0.36140E-10         0.00000E+00
   -0.36140E-10        -0.29777E+06         0.00000E+00
    0.00000E+00         0.00000E+00        -0.82034E+04
 
    0.25675E+06        -0.72280E-10         0.00000E+00
   -0.72280E-10        -0.29777E+06         0.00000E+00
    0.00000E+00         0.00000E+00        -0.82034E+04
 
    0.25586E+06         0.18070E-09         0.00000E+00
    0.18070E-09        -0.29800E+06         0.00000E+00
    0.00000E+00         0.00000E+00        -0.84274E+04
 
    0.25586E+06         0.36140E-09         0.00000E+00
    0.36140E-09        -0.29800E+06         0.00000E+00
    0.00000E+00         0.00000E+00        -0.84274E+04
 
    0.25586E+06        -0.32526E-09         0.00000E+00
   -0.32526E-09        -0.29800E+06         0.00000E+00
    0.00000E+00         0.00000E+00        -0.84274E+04
 
    0.25586E+06         0.39754E-09         0.00000E+00
    0.39754E-09        -0.29800E+06         0.00000E+00
    0.00000E+00         0.00000E+00        -0.84274E+04
 
    0.25586E+06         0.72280E-10         0.00000E+00
    0.72280E-10        -0.29800E+06         0.00000E+00
    0.00000E+00         0.00000E+00        -0.84274E+04
 
    0.25586E+06        -0.36140E-10         0.00000E+00
   -0.36140E-10        -0.29800E+06         0.00000E+00
    0.00000E+00         0.00000E+00        -0.84274E+04
 
    0.25586E+06         0.39754E-09         0.00000E+00
    0.39754E-09        -0.29800E+06         0.00000E+00
    0.00000E+00         0.00000E+00        -0.84274E+04
 
    0.25586E+06         0.18070E-10         0.00000E+00
    0.18070E-10        -0.29800E+06         0.00000E+00
    0.00000E+00         0.00000E+00        -0.84274E+04
 
    0.25586E+06        -0.41561E-09         0.00000E+00
   -0.41561E-09        -0.29800E+06         0.00000E+00
    0.00000E+00         0.00000E+00        -0.84274E+04
 
    0.25586E+06        -0.23491E-09         0.00000E+00
   -0.23491E-09        -0.29800E+06         0.00000E+00
    0.00000E+00         0.00000E+00        -0.84274E+04
 
    0.25586E+06        -0.50596E-09         0.00000E+00
   -0.50596E-09        -0.29800E+06         0.00000E+00
    0.00000E+00         0.00000E+00        -0.84274E+04
 
    0.25586E+06         0.83122E-09         0.00000E+00
    0.83122E-09        -0.29800E+06         0.00000E+00
    0.00000E+00         0.00000E+00        -0.84274E+04
 
    0.25586E+06        -0.50596E-09         0.00000E+00
   -0.50596E-09        -0.29800E+06         0.00000E+00
    0.00000E+00         0.00000E+00        -0.84274E+04
 
    0.25586E+06         0.14456E-09         0.00000E+00
    0.14456E-09        -0.29800E+06         0.00000E+00
    0.00000E+00         0.00000E+00        -0.84274E+04
 
    0.25586E+06        -0.28912E-09         0.00000E+00
   -0.28912E-09        -0.29800E+06         0.00000E+00
    0.00000E+00         0.00000E+00        -0.84274E+04
 
    0.25491E+06         0.25298E-09         0.00000E+00
    0.25298E-09        -0.29823E+06         0.00000E+00
    0.00000E+00         0.00000E+00        -0.86640E+04
 
    0.25491E+06        -0.36140E-09         0.00000E+00
   -0.36140E-09        -0.29823E+06         0.00000E+00
    0.00000E+00         0.00000E+00        -0.86640E+04
 
    0.25491E+06         0.14456E-09         0.00000E+00
    0.14456E-09        -0.29823E+06         0.00000E+00
    0.00000E+00         0.00000E+00        -0.86640E+04
 
    0.25491E+06         0.00000E+00         0.00000E+00
    0.00000E+00        -0.29823E+06         0.00000E+00
    0.00000E+00         0.00000E+00        -0.86640E+04
 
    0.25491E+06         0.36140E-10         0.00000E+00
    0.36140E-10        -0.29823E+06         0.00000E+00
    0.00000E+00         0.00000E+00        -0.86640E+04
 
    0.25491E+06         0.10842E-09         0.00000E+00
    0.10842E-09        -0.29823E+06         0.00000E+00
    0.00000E+00         0.00000E+00        -0.86640E+04
 
    0.25491E+06         0.14456E-09         0.00000E+00
    0.14456E-09        -0.29823E+06         0.00000E+00
    0.00000E+00         0.00000E+00        -0.86640E+04
 
    0.25491E+06         0.36140E-10         0.00000E+00
    0.36140E-10        -0.29823E+06         0.00000E+00
    0.00000E+00         0.00000E+00        -0.86640E+04
 
    0.25491E+06        -0.41561E-09         0.00000E+00
   -0.41561E-09        -0.29823E+06         0.00000E+00
    0.00000E+00         0.00000E+00        -0.86640E+04
 
    0.25491E+06         0.18070E-09         0.00000E+00
    0.18070E-09        -0.29823E+06         0.00000E+00
    0.00000E+00         0.00000E+00        -0.86640E+04
 
    0.25491E+06        -0.36140E-09         0.00000E+00
   -0.36140E-09        -0.29823E+06         0.00000E+00
    0.00000E+00         0.00000E+00        -0.86640E+04
 
    0.25491E+06         0.28912E-09         0.00000E+00
    0.28912E-09        -0.29823E+06         0.00000E+00
    0.00000E+00         0.00000E+00        -0.86640E+04
 
    0.25491E+06        -0.14456E-09         0.00000E+00
   -0.14456E-09        -0.29823E+06         0.00000E+00
    0.00000E+00         0.00000E+00        -0.86640E+04
 
    0.25491E+06        -0.83122E-09         0.00000E+00
   -0.83122E-09        -0.29823E+06         0.00000E+00
    0.00000E+00         0.00000E+00        -0.86640E+04
 
    0.25491E+06         0.36140E-09         0.00000E+00
    0.36140E-09        -0.29823E+06         0.00000E+00
    0.00000E+00         0.00000E+00        -0.86640E+04
 
    0.25391E+06        -0.61438E-09         0.00000E+00
   -0.61438E-09        -0.29848E+06         0.00000E+00
    0.00000E+00         0.00000E+00        -0.89136E+04
 
    0.25391E+06         0.68666E-09         0.00000E+00
    0.68666E-09        -0.29848E+06         0.00000E+00
    0.00000E+00         0.00000E+00        -0.89136E+04
 
    0.25391E+06         0.72280E-10         0.00000E+00
    0.72280E-10        -0.29848E+06         0.00000E+00
    0.00000E+00         0.00000E+00        -0.89136E+04
 
    0.25391E+06        -0.10842E-09         0.00000E+00
   -0.10842E-09        -0.29848E+06         0.00000E+00
    0.00000E+00         0.00000E+00        -0.89136E+04
 
    0.25391E+06         0.72280E-10         0.00000E+00
    0.72280E-10        -0.29848E+06         0.00000E+00
    0.00000E+00         0.00000E+00        -0.89136E+04
 
    0.25391E+06        -0.72280E-10         0.00000E+00
   -0.72280E-10        -0.29848E+06         0.00000E+00
    0.00000E+00         0.00000E+00        -0.89136E+04
 
    0.25391E+06         0.21684E-09         0.00000E+00
    0.21684E-09        -0.29848E+06         0.00000E+00
    0.00000E+00         0.00000E+00        -0.89136E+04
 
    0.25391E+06         0.90350E-10         0.00000E+00
    0.90350E-10        -0.29848E+06         0.00000E+00
    0.00000E+00         0.00000E+00        -0.89136E+04
 
    0.25391E+06        -0.36140E-09         0.00000E+00
   -0.36140E-09        -0.29848E+06         0.00000E+00
    0.00000E+00         0.00000E+00        -0.89136E+04
 
    0.25391E+06         0.32526E-09         0.00000E+00
    0.32526E-09        -0.29848E+06         0.00000E+00
    0.00000E+00         0.00000E+00        -0.89136E+04
 
    0.25391E+06        -0.90350E-09         0.00000E+00
   -0.90350E-09        -0.29848E+06         0.00000E+00
    0.00000E+00         0.00000E+00        -0.89136E+04
 
    0.25391E+06         0.36140E-10         0.00000E+00
    0.36140E-10        -0.29848E+06         0.00000E+00
    0.00000E+00         0.00000E+00        -0.89136E+04
 
    0.25391E+06         0.72280E-10         0.00000E+00
    0.72280E-10        -0.29848E+06         0.00000E+00
    0.00000E+00         0.00000E+00        -0.89136E+04
 
    0.25391E+06         0.00000E+00         0.00000E+00
    0.00000E+00        -0.29848E+06         0.00000E+00
    0.00000E+00         0.00000E+00        -0.89136E+04
 
    0.25391E+06        -0.61438E-09         0.00000E+00
   -0.61438E-09        -0.29848E+06         0.00000E+00
    0.00000E+00         0.00000E+00        -0.89136E+04
 
    0.25286E+06         0.10842E-09         0.00000E+00
    0.10842E-09        -0.29874E+06         0.00000E+00
    0.00000E+00         0.00000E+00        -0.91764E+04
 
    0.25286E+06        -0.25298E-09         0.00000E+00
   -0.25298E-09        -0.29874E+06         0.00000E+00
    0.00000E+00         0.00000E+00        -0.91764E+04
 
    0.25286E+06        -0.72280E-10         0.00000E+00
   -0.72280E-10        -0.29874E+06         0.00000E+00
    0.00000E+00         0.00000E+00        -0.91764E+04
 
    0.25286E+06         0.14456E-09         0.00000E+00
    0.14456E-09        -0.29874E+06         0.00000E+00
    0.00000E+00         0.00000E+00        -0.91764E+04
 
    0.25286E+06        -0.43368E-09         0.00000E+00
   -0.43368E-09        -0.29874E+06         0.00000E+00
    0.00000E+00         0.00000E+00        -0.91764E+04
 
    0.25286E+06         0.00000E+00         0.00000E+00
    0.00000E+00        -0.29874E+06         0.00000E+00
    0.00000E+00         0.00000E+00        -0.91764E+04
 
    0.25286E+06        -0.32526E-09         0.00000E+00
   -0.32526E-09        -0.29874E+06         0.00000E+00
    0.00000E+00         0.00000E+00        -0.91764E+04
 
    0.25286E+06        -0.54210E-10         0.00000E+00
   -0.54210E-10        -0.29874E+06         0.00000E+00
    0.00000E+00         0.00000E+00        -0.91764E+04
 
    0.25286E+06        -0.25298E-09         0.00000E+00
   -0.25298E-09        -0.29874E+06         0.00000E+00
    0.00000E+00         0.00000E+00        -0.91764E+04
 
    0.25286E+06         0.46982E-09         0.00000E+00
    0.46982E-09        -0.29874E+06         0.00000E+00
    0.00000E+00         0.00000E+00        -0.91764E+04
 
    0.25286E+06         0.21684E-09         0.00000E+00
    0.21684E-09        -0.29874E+06         0.00000E+00
    0.00000E+00         0.00000E+00        -0.91764E+04
 
    0.25286E+06        -0.14456E-09         0.00000E+00
   -0.14456E-09        -0.29874E+06         0.00000E+00
    0.00000E+00         0.00000E+00        -0.91764E+04
 
    0.25286E+06         0.39754E-09         0.00000E+00
    0.39754E-09        -0.29874E+06         0.00000E+00
    0.00000E+00         0.00000E+00        -0.91764E+04
 
    0.25286E+06         0.72280E-10         0.00000E+00
    0.72280E-10        -0.29874E+06         0.00000E+00
    0.00000E+00         0.00000E+00        -0.91764E+04
 
    0.25286E+06        -0.36140E-10         0.00000E+00
   -0.36140E-10        -0.29874E+06         0.00000E+00
    0.00000E+00         0.00000E+00        -0.91764E+04
 
    0.25176E+06        -0.36140E-10         0.00000E+00
   -0.36140E-10        -0.29902E+06         0.00000E+00
    0.00000E+00         0.00000E+00        -0.94527E+04
 
    0.25176E+06        -0.54210E-09         0.00000E+00
   -0.54210E-09        -0.29902E+06         0.00000E+00
    0.00000E+00         0.00000E+00        -0.94527E+04
 
    0.25176E+06         0.50596E-09         0.00000E+00
    0.50596E-09        -0.29902E+06         0.00000E+00
    0.00000E+00         0.00000E+00        -0.94527E+04
 
    0.25176E+06        -0.61438E-09         0.00000E+00
   -0.61438E-09        -0.29902E+06         0.00000E+00
    0.00000E+00         0.00000E+00        -0.94527E+04
 
    0.25176E+06        -0.18070E-09         0.00000E+00
   -0.18070E-09        -0.29902E+06         0.00000E+00
    0.00000E+00         0.00000E+00        -0.94527E+04
 
    0.25176E+06         0.25298E-09         0.00000E+00
    0.25298E-09        -0.29902E+06         0.00000E+00
    0.00000E+00         0.00000E+00        -0.94527E+04
 
    0.25176E+06        -0.18070E-10         0.00000E+00
   -0.18070E-10        -0.29902E+06         0.00000E+00
    0.00000E+00         0.00000E+00        -0.94527E+04
 
    0.25176E+06        -0.36140E-10         0.00000E+00
   -0.36140E-10        -0.29902E+06         0.00000E+00
    0.00000E+00         0.00000E+00        -0.94527E+04
 
    0.25176E+06        -0.25298E-09         0.00000E+00
   -0.25298E-09        -0.29902E+06         0.00000E+00
    0.00000E+00         0.00000E+00        -0.94527E+04
 
    0.25176E+06        -0.10842E-09         0.00000E+00
   -0.10842E-09        -0.29902E+06         0.00000E+00
    0.00000E+00         0.00000E+00        -0.94527E+04
 
    0.25176E+06        -0.36140E-10         0.00000E+00
   -0.36140E-10        -0.29902E+06         0.00000E+00
    0.00000E+00         0.00000E+00        -0.94527E+04
 
    0.25176E+06        -0.14456E-09         0.00000E+00
   -0.14456E-09        -0.29902E+06         0.00000E+00
    0.00000E+00         0.00000E+00        -0.94527E+04
 
    0.25176E+06         0.32526E-09         0.00000E+00
    0.32526E-09        -0.29902E+06         0.00000E+00
    0.00000E+00         0.00000E+00        -0.94527E+04
 
    0.25176E+06        -0.50596E-09         0.00000E+00
   -0.50596E-09        -0.29902E+06         0.00000E+00
    0.00000E+00         0.00000E+00        -0.94527E+04
 
    0.25176E+06         0.43368E-09         0.00000E+00
    0.43368E-09        -0.29902E+06         0.00000E+00
    0.00000E+00         0.00000E+00        -0.94527E+04
 
    0.25060E+06         0.39754E-09         0.00000E+00
    0.39754E-09        -0.29931E+06         0.00000E+00
    0.00000E+00         0.00000E+00        -0.97429E+04
 
    0.25060E+06        -0.18070E-09         0.00000E+00
   -0.18070E-09        -0.29931E+06         0.00000E+00
    0.00000E+00         0.00000E+00        -0.97429E+04
 
    0.25060E+06         0.10842E-09         0.00000E+00
    0.10842E-09        -0.29931E+06         0.00000E+00
    0.00000E+00         0.00000E+00        -0.97429E+04
 
    0.25060E+06         0.43368E-09         0.00000E+00
    0.43368E-09        -0.29931E+06         0.00000E+00
    0.00000E+00         0.00000E+00        -0.97429E+04
 
    0.25060E+06        -0.36140E-09         0.00000E+00
   -0.36140E-09        -0.29931E+06         0.00000E+00
    0.00000E+00         0.00000E+00        -0.97429E+04
 
    0.25060E+06         0.00000E+00         0.00000E+00
    0.00000E+00        -0.29931E+06         0.00000E+00
    0.00000E+00         0.00000E+00        -0.97429E+04
 
    0.25060E+06         0.28912E-09         0.00000E+00
    0.28912E-09        -0.29931E+06         0.00000E+00
    0.00000E+00         0.00000E+00        -0.97429E+04
 
    0.25060E+06         0.72280E-09         0.00000E+00
    0.72280E-09        -0.29931E+06         0.00000E+00
    0.00000E+00         0.00000E+00        -0.97429E+04
 
    0.25060E+06         0.72280E-10         0.00000E+00
    0.72280E-10        -0.29931E+06         0.00000E+00
    0.00000E+00         0.00000E+00        -0.97429E+04
 
    0.25060E+06         0.36140E-09         0.00000E+00
    0.36140E-09        -0.29931E+06         0.00000E+00
    0.00000E+00         0.00000E+00        -0.97429E+04
 
    0.25060E+06         0.86736E-09         0.00000E+00
    0.86736E-09        -0.29931E+06         0.00000E+00
    0.00000E+00         0.00000E+00        -0.97429E+04
 
    0.25060E+06        -0.32526E-09         0.00000E+00
   -0.32526E-09        -0.29931E+06         0.00000E+00
    0.00000E+00         0.00000E+00        -0.97429E+04
 
    0.25060E+06        -0.36140E-10         0.00000E+00
   -0.36140E-10        -0.29931E+06         0.00000E+00
    0.00000E+00         0.00000E+00        -0.97429E+04
 
    0.25060E+06         0.32526E-09         0.00000E+00
    0.32526E-09        -0.29931E+06         0.00000E+00
    0.00000E+00         0.00000E+00        -0.97429E+04
 
    0.25060E+06        -0.75894E-09         0.00000E+00
   -0.75894E-09        -0.29931E+06         0.00000E+00
    0.00000E+00         0.00000E+00        -0.97429E+04
 
    0.24938E+06        -0.79508E-09         0.00000E+00
   -0.79508E-09        -0.29962E+06         0.00000E+00
    0.00000E+00         0.00000E+00        -0.10047E+05
 
    0.24938E+06        -0.32526E-09         0.00000E+00
   -0.32526E-09        -0.29962E+06         0.00000E+00
    0.00000E+00         0.00000E+00        -0.10047E+05
 
    0.24938E+06        -0.14456E-09         0.00000E+00
   -0.14456E-09        -0.29962E+06         0.00000E+00
    0.00000E+00         0.00000E+00        -0.10047E+05
 
    0.24938E+06         0.28912E-09         0.00000E+00
    0.28912E-09        -0.29962E+06         0.00000E+00
    0.00000E+00         0.00000E+00        -0.10047E+05
 
    0.24938E+06        -0.72280E-10         0.00000E+00
   -0.72280E-10        -0.29962E+06         0.00000E+00
    0.00000E+00         0.00000E+00        -0.10047E+05
 
    0.24938E+06         0.00000E+00         0.00000E+00
    0.00000E+00        -0.29962E+06         0.00000E+00
    0.00000E+00         0.00000E+00        -0.10047E+05
 
    0.24938E+06         0.25298E-09         0.00000E+00
    0.25298E-09        -0.29962E+06         0.00000E+00
    0.00000E+00         0.00000E+00        -0.10047E+05
 
    0.24938E+06         0.14456E-09         0.00000E+00
    0.14456E-09        -0.29962E+06         0.00000E+00
    0.00000E+00         0.00000E+00        -0.10047E+05
 
    0.24938E+06        -0.50596E-09         0.00000E+00
   -0.50596E-09        -0.29962E+06         0.00000E+00
    0.00000E+00         0.00000E+00        -0.10047E+05
 
    0.24938E+06        -0.28912E-09         0.00000E+00
   -0.28912E-09        -0.29962E+06         0.00000E+00
    0.00000E+00         0.00000E+00        -0.10047E+05
 
    0.24938E+06         0.93964E-09         0.00000E+00
    0.93964E-09        -0.29962E+06         0.00000E+00
    0.00000E+00         0.00000E+00        -0.10047E+05
 
    0.24938E+06         0.21684E-09         0.00000E+00
    0.21684E-09        -0.29962E+06         0.00000E+00
    0.00000E+00         0.00000E+00        -0.10047E+05
 
    0.24938E+06         0.21684E-09         0.00000E+00
    0.21684E-09        -0.29962E+06         0.00000E+00
    0.00000E+00         0.00000E+00        -0.10047E+05
 
    0.24938E+06         0.72280E-10         0.00000E+00
    0.72280E-10        -0.29962E+06         0.00000E+00
    0.00000E+00         0.00000E+00        -0.10047E+05
 
    0.24938E+06         0.72280E-10         0.00000E+00
    0.72280E-10        -0.29962E+06         0.00000E+00
    0.00000E+00         0.00000E+00        -0.10047E+05
 
    0.24810E+06         0.39754E-09         0.00000E+00
    0.39754E-09        -0.29993E+06         0.00000E+00
    0.00000E+00         0.00000E+00        -0.10366E+05
 
    0.24810E+06        -0.46982E-09         0.00000E+00
   -0.46982E-09        -0.29993E+06         0.00000E+00
    0.00000E+00         0.00000E+00        -0.10366E+05
 
    0.24810E+06         0.28912E-09         0.00000E+00
    0.28912E-09        -0.29993E+06         0.00000E+00
    0.00000E+00         0.00000E+00        -0.10366E+05
 
    0.24810E+06         0.00000E+00         0.00000E+00
    0.00000E+00        -0.29993E+06         0.00000E+00
    0.00000E+00         0.00000E+00        -0.10366E+05
 
    0.24810E+06        -0.43368E-09         0.00000E+00
   -0.43368E-09        -0.29993E+06         0.00000E+00
    0.00000E+00         0.00000E+00        -0.10366E+05
 
    0.24810E+06        -0.14456E-09         0.00000E+00
   -0.14456E-09        -0.29993E+06         0.00000E+00
    0.00000E+00         0.00000E+00        -0.10366E+05
 
    0.24810E+06         0.61438E-09         0.00000E+00
    0.61438E-09        -0.29993E+06         0.00000E+00
    0.00000E+00         0.00000E+00        -0.10366E+05
 
    0.24810E+06         0.28912E-09         0.00000E+00
    0.28912E-09        -0.29993E+06         0.00000E+00
    0.00000E+00         0.00000E+00        -0.10366E+05
 
    0.24810E+06        -0.39754E-09         0.00000E+00
   -0.39754E-09        -0.29993E+06         0.00000E+00
    0.00000E+00         0.00000E+00        -0.10366E+05
 
    0.24810E+06         0.32526E-09         0.00000E+00
    0.32526E-09        -0.29993E+06         0.00000E+00
    0.00000E+00         0.00000E+00        -0.10366E+05
 
    0.24810E+06         0.54210E-09         0.00000E+00
    0.54210E-09        -0.29993E+06         0.00000E+00
    0.00000E+00         0.00000E+00        -0.10366E+05
 
    0.24810E+06        -0.18070E-09         0.00000E+00
   -0.18070E-09        -0.29993E+06         0.00000E+00
    0.00000E+00         0.00000E+00        -0.10366E+05
 
    0.24810E+06         0.43368E-09         0.00000E+00
    0.43368E-09        -0.29993E+06         0.00000E+00
    0.00000E+00         0.00000E+00        -0.10366E+05
 
    0.24810E+06         0.21684E-09         0.00000E+00
    0.21684E-09        -0.29993E+06         0.00000E+00
    0.00000E+00         0.00000E+00        -0.10366E+05
 
    0.24810E+06         0.18070E-09         0.00000E+00
    0.18070E-09        -0.29993E+06         0.00000E+00
    0.00000E+00         0.00000E+00        -0.10366E+05
 
    0.24677E+06         0.28912E-09         0.00000E+00
    0.28912E-09        -0.30027E+06         0.00000E+00
    0.00000E+00         0.00000E+00        -0.10700E+05
 
    0.24677E+06        -0.46982E-09         0.00000E+00
   -0.46982E-09        -0.30027E+06         0.00000E+00
    0.00000E+00         0.00000E+00        -0.10700E+05
 
    0.24677E+06         0.43368E-09         0.00000E+00
    0.43368E-09        -0.30027E+06         0.00000E+00
    0.00000E+00         0.00000E+00        -0.10700E+05
 
    0.24677E+06        -0.54210E-09         0.00000E+00
   -0.54210E-09        -0.30027E+06         0.00000E+00
    0.00000E+00         0.00000E+00        -0.10700E+05
 
    0.24677E+06        -0.57824E-09         0.00000E+00
   -0.57824E-09        -0.30027E+06         0.00000E+00
    0.00000E+00         0.00000E+00        -0.10700E+05
 
    0.24677E+06         0.14456E-09         0.00000E+00
    0.14456E-09        -0.30027E+06         0.00000E+00
    0.00000E+00         0.00000E+00        -0.10700E+05
 
    0.24677E+06         0.28912E-09         0.00000E+00
    0.28912E-09        -0.30027E+06         0.00000E+00
    0.00000E+00         0.00000E+00        -0.10700E+05
 
    0.24677E+06         0.32526E-09         0.00000E+00
    0.32526E-09        -0.30027E+06         0.00000E+00
    0.00000E+00         0.00000E+00        -0.10700E+05
 
    0.24677E+06         0.97578E-09         0.00000E+00
    0.97578E-09        -0.30027E+06         0.00000E+00
    0.00000E+00         0.00000E+00        -0.10700E+05
 
    0.24677E+06         0.36140E-09         0.00000E+00
    0.36140E-09        -0.30027E+06         0.00000E+00
    0.00000E+00         0.00000E+00        -0.10700E+05
 
    0.24677E+06         0.14456E-09         0.00000E+00
    0.14456E-09        -0.30027E+06         0.00000E+00
    0.00000E+00         0.00000E+00        -0.10700E+05
 
    0.24677E+06        -0.54210E-09         0.00000E+00
   -0.54210E-09        -0.30027E+06         0.00000E+00
    0.00000E+00         0.00000E+00        -0.10700E+05
 
    0.24677E+06         0.14456E-09         0.00000E+00
    0.14456E-09        -0.30027E+06         0.00000E+00
    0.00000E+00         0.00000E+00        -0.10700E+05
 
    0.24677E+06        -0.72280E-10         0.00000E+00
   -0.72280E-10        -0.30027E+06         0.00000E+00
    0.00000E+00         0.00000E+00        -0.10700E+05
 
    0.24677E+06         0.72280E-10         0.00000E+00
    0.72280E-10        -0.30027E+06         0.00000E+00
    0.00000E+00         0.00000E+00        -0.10700E+05
 
    0.24537E+06         0.54210E-09         0.00000E+00
    0.54210E-09        -0.30062E+06         0.00000E+00
    0.00000E+00         0.00000E+00        -0.11049E+05
 
    0.24537E+06        -0.32526E-09         0.00000E+00
   -0.32526E-09        -0.30062E+06         0.00000E+00
    0.00000E+00         0.00000E+00        -0.11049E+05
 
    0.24537E+06        -0.14456E-09         0.00000E+00
   -0.14456E-09        -0.30062E+06         0.00000E+00
    0.00000E+00         0.00000E+00        -0.11049E+05
 
    0.24537E+06         0.00000E+00         0.00000E+00
    0.00000E+00        -0.30062E+06         0.00000E+00
    0.00000E+00         0.00000E+00        -0.11049E+05
 
    0.24537E+06        -0.32526E-09         0.00000E+00
   -0.32526E-09        -0.30062E+06         0.00000E+00
    0.00000E+00         0.00000E+00        -0.11049E+05
 
    0.24537E+06        -0.32526E-09         0.00000E+00
   -0.32526E-09        -0.30062E+06         0.00000E+00
    0.00000E+00         0.00000E+00        -0.11049E+05
 
    0.24537E+06         0.36140E-09         0.00000E+00
    0.36140E-09        -0.30062E+06         0.00000E+00
    0.00000E+00         0.00000E+00        -0.11049E+05
 
    0.24537E+06        -0.43368E-09         0.00000E+00
   -0.43368E-09        -0.30062E+06         0.00000E+00
    0.00000E+00         0.00000E+00        -0.11049E+05
 
    0.24537E+06         0.90350E-09         0.00000E+00
    0.90350E-09        -0.30062E+06         0.00000E+00
    0.00000E+00         0.00000E+00        -0.11049E+05
 
    0.24537E+06        -0.14456E-09         0.00000E+00
   -0.14456E-09        -0.30062E+06         0.00000E+00
    0.00000E+00         0.00000E+00        -0.11049E+05
 
    0.24537E+06        -0.36140E-10         0.00000E+00
   -0.36140E-10        -0.30062E+06         0.00000E+00
    0.00000E+00         0.00000E+00        -0.11049E+05
 
    0.24537E+06        -0.54210E-09         0.00000E+00
   -0.54210E-09        -0.30062E+06         0.00000E+00
    0.00000E+00         0.00000E+00        -0.11049E+05
 
    0.24537E+06        -0.10842E-09         0.00000E+00
   -0.10842E-09        -0.30062E+06         0.00000E+00
    0.00000E+00         0.00000E+00        -0.11049E+05
 
    0.24537E+06        -0.14456E-09         0.00000E+00
   -0.14456E-09        -0.30062E+06         0.00000E+00
    0.00000E+00         0.00000E+00        -0.11049E+05
 
    0.24537E+06         0.00000E+00         0.00000E+00
    0.00000E+00        -0.30062E+06         0.00000E+00
    0.00000E+00         0.00000E+00        -0.11049E+05
 
    0.24392E+06        -0.36140E-10         0.00000E+00
   -0.36140E-10        -0.30098E+06         0.00000E+00
    0.00000E+00         0.00000E+00        -0.11413E+05
 
    0.24392E+06        -0.36140E-10         0.00000E+00
   -0.36140E-10        -0.30098E+06         0.00000E+00
    0.00000E+00         0.00000E+00        -0.11413E+05
 
    0.24392E+06         0.36140E-09         0.00000E+00
    0.36140E-09        -0.30098E+06         0.00000E+00
    0.00000E+00         0.00000E+00        -0.11413E+05
 
    0.24392E+06        -0.36140E-09         0.00000E+00
   -0.36140E-09        -0.30098E+06         0.00000E+00
    0.00000E+00         0.00000E+00        -0.11413E+05
 
    0.24392E+06         0.25298E-09         0.00000E+00
    0.25298E-09        -0.30098E+06         0.00000E+00
    0.00000E+00         0.00000E+00        -0.11413E+05
 
    0.24392E+06        -0.18070E-09         0.00000E+00
   -0.18070E-09        -0.30098E+06         0.00000E+00
    0.00000E+00         0.00000E+00        -0.11413E+05
 
    0.24392E+06         0.10119E-08         0.00000E+00
    0.10119E-08        -0.30098E+06         0.00000E+00
    0.00000E+00         0.00000E+00        -0.11413E+05
 
    0.24392E+06         0.36140E-09         0.00000E+00
    0.36140E-09        -0.30098E+06         0.00000E+00
    0.00000E+00         0.00000E+00        -0.11413E+05
 
    0.24392E+06         0.50596E-09         0.00000E+00
    0.50596E-09        -0.30098E+06         0.00000E+00
    0.00000E+00         0.00000E+00        -0.11413E+05
 
    0.24392E+06        -0.43368E-09         0.00000E+00
   -0.43368E-09        -0.30098E+06         0.00000E+00
    0.00000E+00         0.00000E+00        -0.11413E+05
 
    0.24392E+06         0.43368E-09         0.00000E+00
    0.43368E-09        -0.30098E+06         0.00000E+00
    0.00000E+00         0.00000E+00        -0.11413E+05
 
    0.24392E+06        -0.39754E-09         0.00000E+00
   -0.39754E-09        -0.30098E+06         0.00000E+00
    0.00000E+00         0.00000E+00        -0.11413E+05
 
    0.24392E+06        -0.72280E-10         0.00000E+00
   -0.72280E-10        -0.30098E+06         0.00000E+00
    0.00000E+00         0.00000E+00        -0.11413E+05
 
    0.24392E+06         0.14456E-09         0.00000E+00
    0.14456E-09        -0.30098E+06         0.00000E+00
    0.00000E+00         0.00000E+00        -0.11413E+05
 
    0.24392E+06         0.43368E-09         0.00000E+00
    0.43368E-09        -0.30098E+06         0.00000E+00
    0.00000E+00         0.00000E+00        -0.11413E+05
 
    0.24239E+06         0.14456E-09         0.00000E+00
    0.14456E-09        -0.30136E+06         0.00000E+00
    0.00000E+00         0.00000E+00        -0.11794E+05
 
    0.24239E+06        -0.14456E-09         0.00000E+00
   -0.14456E-09        -0.30136E+06         0.00000E+00
    0.00000E+00         0.00000E+00        -0.11794E+05
 
    0.24239E+06        -0.36140E-09         0.00000E+00
   -0.36140E-09        -0.30136E+06         0.00000E+00
    0.00000E+00         0.00000E+00        -0.11794E+05
 
    0.24239E+06         0.00000E+00         0.00000E+00
    0.00000E+00        -0.30136E+06         0.00000E+00
    0.00000E+00         0.00000E+00        -0.11794E+05
 
    0.24239E+06        -0.54210E-09         0.00000E+00
   -0.54210E-09        -0.30136E+06         0.00000E+00
    0.00000E+00         0.00000E+00        -0.11794E+05
 
    0.24239E+06         0.10842E-09         0.00000E+00
    0.10842E-09        -0.30136E+06         0.00000E+00
    0.00000E+00         0.00000E+00        -0.11794E+05
 
    0.24239E+06        -0.28912E-09         0.00000E+00
   -0.28912E-09        -0.30136E+06         0.00000E+00
    0.00000E+00         0.00000E+00        -0.11794E+05
 
    0.24239E+06         0.00000E+00         0.00000E+00
    0.00000E+00        -0.30136E+06         0.00000E+00
    0.00000E+00         0.00000E+00        -0.11794E+05
 
    0.24239E+06         0.72280E-10         0.00000E+00
    0.72280E-10        -0.30136E+06         0.00000E+00
    0.00000E+00         0.00000E+00        -0.11794E+05
 
    0.24239E+06        -0.12288E-08         0.00000E+00
   -0.12288E-08        -0.30136E+06         0.00000E+00
    0.00000E+00         0.00000E+00        -0.11794E+05
 
    0.24239E+06         0.50596E-09         0.00000E+00
    0.50596E-09        -0.30136E+06         0.00000E+00
    0.00000E+00         0.00000E+00        -0.11794E+05
 
    0.24239E+06         0.36140E-09         0.00000E+00
    0.36140E-09        -0.30136E+06         0.00000E+00
    0.00000E+00         0.00000E+00        -0.11794E+05
 
    0.24239E+06         0.57824E-09         0.00000E+00
    0.57824E-09        -0.30136E+06         0.00000E+00
    0.00000E+00         0.00000E+00        -0.11794E+05
 
    0.24239E+06        -0.10842E-08         0.00000E+00
   -0.10842E-08        -0.30136E+06         0.00000E+00
    0.00000E+00         0.00000E+00        -0.11794E+05
 
    0.24239E+06        -0.36140E-09         0.00000E+00
   -0.36140E-09        -0.30136E+06         0.00000E+00
    0.00000E+00         0.00000E+00        -0.11794E+05
 
    0.24081E+06        -0.72280E-10         0.00000E+00
   -0.72280E-10        -0.30176E+06         0.00000E+00
    0.00000E+00         0.00000E+00        -0.12191E+05
 
    0.24081E+06         0.36140E-10         0.00000E+00
    0.36140E-10        -0.30176E+06         0.00000E+00
    0.00000E+00         0.00000E+00        -0.12191E+05
 
    0.24081E+06        -0.43368E-09         0.00000E+00
   -0.43368E-09        -0.30176E+06         0.00000E+00
    0.00000E+00         0.00000E+00        -0.12191E+05
 
    0.24081E+06         0.72280E-10         0.00000E+00
    0.72280E-10        -0.30176E+06         0.00000E+00
    0.00000E+00         0.00000E+00        -0.12191E+05
 
    0.24081E+06        -0.72280E-10         0.00000E+00
   -0.72280E-10        -0.30176E+06         0.00000E+00
    0.00000E+00         0.00000E+00        -0.12191E+05
 
    0.24081E+06        -0.25298E-09         0.00000E+00
   -0.25298E-09        -0.30176E+06         0.00000E+00
    0.00000E+00         0.00000E+00        -0.12191E+05
 
    0.24081E+06         0.39754E-09         0.00000E+00
    0.39754E-09        -0.30176E+06         0.00000E+00
    0.00000E+00         0.00000E+00        -0.12191E+05
 
    0.24081E+06         0.14456E-09         0.00000E+00
    0.14456E-09        -0.30176E+06         0.00000E+00
    0.00000E+00         0.00000E+00        -0.12191E+05
 
    0.24081E+06         0.50596E-09         0.00000E+00
    0.50596E-09        -0.30176E+06         0.00000E+00
    0.00000E+00         0.00000E+00        -0.12191E+05
 
    0.24081E+06        -0.57824E-09         0.00000E+00
   -0.57824E-09        -0.30176E+06         0.00000E+00
    0.00000E+00         0.00000E+00        -0.12191E+05
 
    0.24081E+06         0.18793E-08         0.00000E+00
    0.18793E-08        -0.30176E+06         0.00000E+00
    0.00000E+00         0.00000E+00        -0.12191E+05
 
    0.24081E+06        -0.57824E-09         0.00000E+00
   -0.57824E-09        -0.30176E+06         0.00000E+00
    0.00000E+00         0.00000E+00        -0.12191E+05
 
    0.24081E+06        -0.65052E-09         0.00000E+00
   -0.65052E-09        -0.30176E+06         0.00000E+00
    0.00000E+00         0.00000E+00        -0.12191E+05
 
    0.24081E+06         0.79508E-09         0.00000E+00
    0.79508E-09        -0.30176E+06         0.00000E+00
    0.00000E+00         0.00000E+00        -0.12191E+05
 
    0.24081E+06        -0.36140E-09         0.00000E+00
   -0.36140E-09        -0.30176E+06         0.00000E+00
    0.00000E+00         0.00000E+00        -0.12191E+05
 
    0.23915E+06         0.36140E-10         0.00000E+00
    0.36140E-10        -0.30217E+06         0.00000E+00
    0.00000E+00         0.00000E+00        -0.12604E+05
 
    0.23915E+06         0.72280E-10         0.00000E+00
    0.72280E-10        -0.30217E+06         0.00000E+00
    0.00000E+00         0.00000E+00        -0.12604E+05
 
    0.23915E+06         0.28912E-09         0.00000E+00
    0.28912E-09        -0.30217E+06         0.00000E+00
    0.00000E+00         0.00000E+00        -0.12604E+05
 
    0.23915E+06        -0.57824E-09         0.00000E+00
   -0.57824E-09        -0.30217E+06         0.00000E+00
    0.00000E+00         0.00000E+00        -0.12604E+05
 
    0.23915E+06        -0.43368E-09         0.00000E+00
   -0.43368E-09        -0.30217E+06         0.00000E+00
    0.00000E+00         0.00000E+00        -0.12604E+05
 
    0.23915E+06        -0.18070E-09         0.00000E+00
   -0.18070E-09        -0.30217E+06         0.00000E+00
    0.00000E+00         0.00000E+00        -0.12604E+05
 
    0.23915E+06        -0.10842E-09         0.00000E+00
   -0.10842E-09        -0.30217E+06         0.00000E+00
    0.00000E+00         0.00000E+00        -0.12604E+05
 
    0.23915E+06        -0.72280E-10         0.00000E+00
   -0.72280E-10        -0.30217E+06         0.00000E+00
    0.00000E+00         0.00000E+00        -0.12604E+05
 
    0.23915E+06        -0.36140E-09         0.00000E+00
   -0.36140E-09        -0.30217E+06         0.00000E+00
    0.00000E+00         0.00000E+00        -0.12604E+05
 
    0.23915E+06        -0.65052E-09         0.00000E+00
   -0.65052E-09        -0.30217E+06         0.00000E+00
    0.00000E+00         0.00000E+00        -0.12604E+05
 
    0.23915E+06         0.72280E-09         0.00000E+00
    0.72280E-09        -0.30217E+06         0.00000E+00
    0.00000E+00         0.00000E+00        -0.12604E+05
 
    0.23915E+06        -0.72280E-10         0.00000E+00
   -0.72280E-10        -0.30217E+06         0.00000E+00
    0.00000E+00         0.00000E+00        -0.12604E+05
 
    0.23915E+06        -0.65052E-09         0.00000E+00
   -0.65052E-09        -0.30217E+06         0.00000E+00
    0.00000E+00         0.00000E+00        -0.12604E+05
 
    0.23915E+06        -0.50596E-09         0.00000E+00
   -0.50596E-09        -0.30217E+06         0.00000E+00
    0.00000E+00         0.00000E+00        -0.12604E+05
 
    0.23915E+06         0.28912E-09         0.00000E+00
    0.28912E-09        -0.30217E+06         0.00000E+00
    0.00000E+00         0.00000E+00        -0.12604E+05
 
    0.23743E+06         0.36140E-10         0.00000E+00
    0.36140E-10        -0.30260E+06         0.00000E+00
    0.00000E+00         0.00000E+00        -0.13035E+05
 
    0.23743E+06        -0.50596E-09         0.00000E+00
   -0.50596E-09        -0.30260E+06         0.00000E+00
    0.00000E+00         0.00000E+00        -0.13035E+05
 
    0.23743E+06        -0.14456E-09         0.00000E+00
   -0.14456E-09        -0.30260E+06         0.00000E+00
    0.00000E+00         0.00000E+00        -0.13035E+05
 
    0.23743E+06         0.18070E-09         0.00000E+00
    0.18070E-09        -0.30260E+06         0.00000E+00
    0.00000E+00         0.00000E+00        -0.13035E+05
 
    0.23743E+06         0.00000E+00         0.00000E+00
    0.00000E+00        -0.30260E+06         0.00000E+00
    0.00000E+00         0.00000E+00        -0.13035E+05
 
    0.23743E+06        -0.28912E-09         0.00000E+00
   -0.28912E-09        -0.30260E+06         0.00000E+00
    0.00000E+00         0.00000E+00        -0.13035E+05
 
    0.23743E+06        -0.14456E-09         0.00000E+00
   -0.14456E-09        -0.30260E+06         0.00000E+00
    0.00000E+00         0.00000E+00        -0.13035E+05
 
    0.23743E+06        -0.86736E-09         0.00000E+00
   -0.86736E-09        -0.30260E+06         0.00000E+00
    0.00000E+00         0.00000E+00        -0.13035E+05
 
    0.23743E+06        -0.57824E-09         0.00000E+00
   -0.57824E-09        -0.30260E+06         0.00000E+00
    0.00000E+00         0.00000E+00        -0.13035E+05
 
    0.23743E+06         0.21684E-09         0.00000E+00
    0.21684E-09        -0.30260E+06         0.00000E+00
    0.00000E+00         0.00000E+00        -0.13035E+05
 
    0.23743E+06         0.57824E-09         0.00000E+00
    0.57824E-09        -0.30260E+06         0.00000E+00
    0.00000E+00         0.00000E+00        -0.13035E+05
 
    0.23743E+06        -0.43368E-09         0.00000E+00
   -0.43368E-09        -0.30260E+06         0.00000E+00
    0.00000E+00         0.00000E+00        -0.13035E+05
 
    0.23743E+06        -0.14456E-09         0.00000E+00
   -0.14456E-09        -0.30260E+06         0.00000E+00
    0.00000E+00         0.00000E+00        -0.13035E+05
 
    0.23743E+06        -0.65052E-09         0.00000E+00
   -0.65052E-09        -0.30260E+06         0.00000E+00
    0.00000E+00         0.00000E+00        -0.13035E+05
 
    0.23743E+06         0.00000E+00         0.00000E+00
    0.00000E+00        -0.30260E+06         0.00000E+00
    0.00000E+00         0.00000E+00        -0.13035E+05
 
    0.23563E+06        -0.14456E-09         0.00000E+00
   -0.14456E-09        -0.30305E+06         0.00000E+00
    0.00000E+00         0.00000E+00        -0.13483E+05
 
    0.23563E+06        -0.50596E-09         0.00000E+00
   -0.50596E-09        -0.30305E+06         0.00000E+00
    0.00000E+00         0.00000E+00        -0.13483E+05
 
    0.23563E+06        -0.72280E-10         0.00000E+00
   -0.72280E-10        -0.30305E+06         0.00000E+00
    0.00000E+00         0.00000E+00        -0.13483E+05
 
    0.23563E+06         0.10842E-09         0.00000E+00
    0.10842E-09        -0.30305E+06         0.00000E+00
    0.00000E+00         0.00000E+00        -0.13483E+05
 
    0.23563E+06         0.10842E-09         0.00000E+00
    0.10842E-09        -0.30305E+06         0.00000E+00
    0.00000E+00         0.00000E+00        -0.13483E+05
 
    0.23563E+06         0.10842E-09         0.00000E+00
    0.10842E-09        -0.30305E+06         0.00000E+00
    0.00000E+00         0.00000E+00        -0.13483E+05
 
    0.23563E+06        -0.36140E-10         0.00000E+00
   -0.36140E-10        -0.30305E+06         0.00000E+00
    0.00000E+00         0.00000E+00        -0.13483E+05
 
    0.23563E+06         0.43368E-09         0.00000E+00
    0.43368E-09        -0.30305E+06         0.00000E+00
    0.00000E+00         0.00000E+00        -0.13483E+05
 
    0.23563E+06        -0.10842E-08         0.00000E+00
   -0.10842E-08        -0.30305E+06         0.00000E+00
    0.00000E+00         0.00000E+00        -0.13483E+05
 
    0.23563E+06         0.13010E-08         0.00000E+00
    0.13010E-08        -0.30305E+06         0.00000E+00
    0.00000E+00         0.00000E+00        -0.13483E+05
 
    0.23563E+06        -0.28912E-09         0.00000E+00
   -0.28912E-09        -0.30305E+06         0.00000E+00
    0.00000E+00         0.00000E+00        -0.13483E+05
 
    0.23563E+06        -0.50596E-09         0.00000E+00
   -0.50596E-09        -0.30305E+06         0.00000E+00
    0.00000E+00         0.00000E+00        -0.13483E+05
 
    0.23563E+06         0.28912E-09         0.00000E+00
    0.28912E-09        -0.30305E+06         0.00000E+00
    0.00000E+00         0.00000E+00        -0.13483E+05
 
    0.23563E+06         0.28912E-09         0.00000E+00
    0.28912E-09        -0.30305E+06         0.00000E+00
    0.00000E+00         0.00000E+00        -0.13483E+05
 
    0.23563E+06         0.72280E-10         0.00000E+00
    0.72280E-10        -0.30305E+06         0.00000E+00
    0.00000E+00         0.00000E+00        -0.13483E+05
 
    0.23377E+06        -0.39754E-09         0.00000E+00
   -0.39754E-09        -0.30352E+06         0.00000E+00
    0.00000E+00         0.00000E+00        -0.13950E+05
 
    0.23377E+06        -0.18070E-09         0.00000E+00
   -0.18070E-09        -0.30352E+06         0.00000E+00
    0.00000E+00         0.00000E+00        -0.13950E+05
 
    0.23377E+06         0.18070E-09         0.00000E+00
    0.18070E-09        -0.30352E+06         0.00000E+00
    0.00000E+00         0.00000E+00        -0.13950E+05
 
    0.23377E+06        -0.61438E-09         0.00000E+00
   -0.61438E-09        -0.30352E+06         0.00000E+00
    0.00000E+00         0.00000E+00        -0.13950E+05
 
    0.23377E+06        -0.72280E-10         0.00000E+00
   -0.72280E-10        -0.30352E+06         0.00000E+00
    0.00000E+00         0.00000E+00        -0.13950E+05
 
    0.23377E+06         0.10842E-08         0.00000E+00
    0.10842E-08        -0.30352E+06         0.00000E+00
    0.00000E+00         0.00000E+00        -0.13950E+05
 
    0.23377E+06         0.21684E-09         0.00000E+00
    0.21684E-09        -0.30352E+06         0.00000E+00
    0.00000E+00         0.00000E+00        -0.13950E+05
 
    0.23377E+06        -0.93964E-09         0.00000E+00
   -0.93964E-09        -0.30352E+06         0.00000E+00
    0.00000E+00         0.00000E+00        -0.13950E+05
 
    0.23377E+06         0.68666E-09         0.00000E+00
    0.68666E-09        -0.30352E+06         0.00000E+00
    0.00000E+00         0.00000E+00        -0.13950E+05
 
    0.23377E+06         0.50596E-09         0.00000E+00
    0.50596E-09        -0.30352E+06         0.00000E+00
    0.00000E+00         0.00000E+00        -0.13950E+05
 
    0.23377E+06         0.28912E-09         0.00000E+00
    0.28912E-09        -0.30352E+06         0.00000E+00
    0.00000E+00         0.00000E+00        -0.13950E+05
 
    0.23377E+06         0.14456E-09         0.00000E+00
    0.14456E-09        -0.30352E+06         0.00000E+00
    0.00000E+00         0.00000E+00        -0.13950E+05
 
    0.23377E+06        -0.28912E-09         0.00000E+00
   -0.28912E-09        -0.30352E+06         0.00000E+00
    0.00000E+00         0.00000E+00        -0.13950E+05
 
    0.23377E+06        -0.28912E-09         0.00000E+00
   -0.28912E-09        -0.30352E+06         0.00000E+00
    0.00000E+00         0.00000E+00        -0.13950E+05
 
    0.23377E+06        -0.14456E-09         0.00000E+00
   -0.14456E-09        -0.30352E+06         0.00000E+00
    0.00000E+00         0.00000E+00        -0.13950E+05
 
    0.23183E+06        -0.10842E-09         0.00000E+00
   -0.10842E-09        -0.30400E+06         0.00000E+00
    0.00000E+00         0.00000E+00        -0.14435E+05
 
    0.23183E+06         0.79508E-09         0.00000E+00
    0.79508E-09        -0.30400E+06         0.00000E+00
    0.00000E+00         0.00000E+00        -0.14435E+05
 
    0.23183E+06        -0.65052E-09         0.00000E+00
   -0.65052E-09        -0.30400E+06         0.00000E+00
    0.00000E+00         0.00000E+00        -0.14435E+05
 
    0.23183E+06         0.46982E-09         0.00000E+00
    0.46982E-09        -0.30400E+06         0.00000E+00
    0.00000E+00         0.00000E+00        -0.14435E+05
 
    0.23183E+06         0.72280E-10         0.00000E+00
    0.72280E-10        -0.30400E+06         0.00000E+00
    0.00000E+00         0.00000E+00        -0.14435E+05
 
    0.23183E+06         0.61438E-09         0.00000E+00
    0.61438E-09        -0.30400E+06         0.00000E+00
    0.00000E+00         0.00000E+00        -0.14435E+05
 
    0.23183E+06         0.21684E-09         0.00000E+00
    0.21684E-09        -0.30400E+06         0.00000E+00
    0.00000E+00         0.00000E+00        -0.14435E+05
 
    0.23183E+06        -0.21684E-09         0.00000E+00
   -0.21684E-09        -0.30400E+06         0.00000E+00
    0.00000E+00         0.00000E+00        -0.14435E+05
 
    0.23183E+06         0.43368E-09         0.00000E+00
    0.43368E-09        -0.30400E+06         0.00000E+00
    0.00000E+00         0.00000E+00        -0.14435E+05
 
    0.23183E+06        -0.65052E-09         0.00000E+00
   -0.65052E-09        -0.30400E+06         0.00000E+00
    0.00000E+00         0.00000E+00        -0.14435E+05
 
    0.23183E+06         0.28912E-09         0.00000E+00
    0.28912E-09        -0.30400E+06         0.00000E+00
    0.00000E+00         0.00000E+00        -0.14435E+05
 
    0.23183E+06        -0.21684E-09         0.00000E+00
   -0.21684E-09        -0.30400E+06         0.00000E+00
    0.00000E+00         0.00000E+00        -0.14435E+05
 
    0.23183E+06        -0.72280E-10         0.00000E+00
   -0.72280E-10        -0.30400E+06         0.00000E+00
    0.00000E+00         0.00000E+00        -0.14435E+05
 
    0.23183E+06         0.00000E+00         0.00000E+00
    0.00000E+00        -0.30400E+06         0.00000E+00
    0.00000E+00         0.00000E+00        -0.14435E+05
 
    0.23183E+06         0.36140E-09         0.00000E+00
    0.36140E-09        -0.30400E+06         0.00000E+00
    0.00000E+00         0.00000E+00        -0.14435E+05
 
    0.22981E+06        -0.32526E-09         0.00000E+00
   -0.32526E-09        -0.30451E+06         0.00000E+00
    0.00000E+00         0.00000E+00        -0.14939E+05
 
    0.22981E+06         0.65052E-09         0.00000E+00
    0.65052E-09        -0.30451E+06         0.00000E+00
    0.00000E+00         0.00000E+00        -0.14939E+05
 
    0.22981E+06         0.21684E-09         0.00000E+00
    0.21684E-09        -0.30451E+06         0.00000E+00
    0.00000E+00         0.00000E+00        -0.14939E+05
 
    0.22981E+06         0.00000E+00         0.00000E+00
    0.00000E+00        -0.30451E+06         0.00000E+00
    0.00000E+00         0.00000E+00        -0.14939E+05
 
    0.22981E+06        -0.14456E-09         0.00000E+00
   -0.14456E-09        -0.30451E+06         0.00000E+00
    0.00000E+00         0.00000E+00        -0.14939E+05
 
    0.22981E+06        -0.10842E-09         0.00000E+00
   -0.10842E-09        -0.30451E+06         0.00000E+00
    0.00000E+00         0.00000E+00        -0.14939E+05
 
    0.22981E+06         0.14456E-09         0.00000E+00
    0.14456E-09        -0.30451E+06         0.00000E+00
    0.00000E+00         0.00000E+00        -0.14939E+05
 
    0.22981E+06         0.14456E-09         0.00000E+00
    0.14456E-09        -0.30451E+06         0.00000E+00
    0.00000E+00         0.00000E+00        -0.14939E+05
 
    0.22981E+06         0.21684E-09         0.00000E+00
    0.21684E-09        -0.30451E+06         0.00000E+00
    0.00000E+00         0.00000E+00        -0.14939E+05
 
    0.22981E+06        -0.14456E-09         0.00000E+00
   -0.14456E-09        -0.30451E+06         0.00000E+00
    0.00000E+00         0.00000E+00        -0.14939E+05
 
    0.22981E+06        -0.72280E-10         0.00000E+00
   -0.72280E-10        -0.30451E+06         0.00000E+00
    0.00000E+00         0.00000E+00        -0.14939E+05
 
    0.22981E+06        -0.72280E-10         0.00000E+00
   -0.72280E-10        -0.30451E+06         0.00000E+00
    0.00000E+00         0.00000E+00        -0.14939E+05
 
    0.22981E+06        -0.72280E-10         0.00000E+00
   -0.72280E-10        -0.30451E+06         0.00000E+00
    0.00000E+00         0.00000E+00        -0.14939E+05
 
    0.22981E+06         0.72280E-10         0.00000E+00
    0.72280E-10        -0.30451E+06         0.00000E+00
    0.00000E+00         0.00000E+00        -0.14939E+05
 
    0.22981E+06        -0.28912E-09         0.00000E+00
   -0.28912E-09        -0.30451E+06         0.00000E+00
    0.00000E+00         0.00000E+00        -0.14939E+05
 
    0.22772E+06        -0.25298E-09         0.00000E+00
   -0.25298E-09        -0.30503E+06         0.00000E+00
    0.00000E+00         0.00000E+00        -0.15462E+05
 
    0.22772E+06         0.14456E-09         0.00000E+00
    0.14456E-09        -0.30503E+06         0.00000E+00
    0.00000E+00         0.00000E+00        -0.15462E+05
 
    0.22772E+06         0.00000E+00         0.00000E+00
    0.00000E+00        -0.30503E+06         0.00000E+00
    0.00000E+00         0.00000E+00        -0.15462E+05
 
    0.22772E+06         0.10842E-09         0.00000E+00
    0.10842E-09        -0.30503E+06         0.00000E+00
    0.00000E+00         0.00000E+00        -0.15462E+05
 
    0.22772E+06         0.32526E-09         0.00000E+00
    0.32526E-09        -0.30503E+06         0.00000E+00
    0.00000E+00         0.00000E+00        -0.15462E+05
 
    0.22772E+06         0.75894E-09         0.00000E+00
    0.75894E-09        -0.30503E+06         0.00000E+00
    0.00000E+00         0.00000E+00        -0.15462E+05
 
    0.22772E+06        -0.10842E-08         0.00000E+00
   -0.10842E-08        -0.30503E+06         0.00000E+00
    0.00000E+00         0.00000E+00        -0.15462E+05
 
    0.22772E+06         0.14456E-09         0.00000E+00
    0.14456E-09        -0.30503E+06         0.00000E+00
    0.00000E+00         0.00000E+00        -0.15462E+05
 
    0.22772E+06        -0.28912E-09         0.00000E+00
   -0.28912E-09        -0.30503E+06         0.00000E+00
    0.00000E+00         0.00000E+00        -0.15462E+05
 
    0.22772E+06         0.79508E-09         0.00000E+00
    0.79508E-09        -0.30503E+06         0.00000E+00
    0.00000E+00         0.00000E+00        -0.15462E+05
 
    0.22772E+06         0.28912E-09         0.00000E+00
    0.28912E-09        -0.30503E+06         0.00000E+00
    0.00000E+00         0.00000E+00        -0.15462E+05
 
    0.22772E+06        -0.72280E-10         0.00000E+00
   -0.72280E-10        -0.30503E+06         0.00000E+00
    0.00000E+00         0.00000E+00        -0.15462E+05
 
    0.22772E+06         0.50596E-09         0.00000E+00
    0.50596E-09        -0.30503E+06         0.00000E+00
    0.00000E+00         0.00000E+00        -0.15462E+05
 
    0.22772E+06         0.36140E-09         0.00000E+00
    0.36140E-09        -0.30503E+06         0.00000E+00
    0.00000E+00         0.00000E+00        -0.15462E+05
 
    0.22772E+06         0.14456E-09         0.00000E+00
    0.14456E-09        -0.30503E+06         0.00000E+00
    0.00000E+00         0.00000E+00        -0.15462E+05
 
    0.22555E+06         0.36140E-10         0.00000E+00
    0.36140E-10        -0.30557E+06         0.00000E+00
    0.00000E+00         0.00000E+00        -0.16005E+05
 
    0.22555E+06        -0.10842E-09         0.00000E+00
   -0.10842E-09        -0.30557E+06         0.00000E+00
    0.00000E+00         0.00000E+00        -0.16005E+05
 
    0.22555E+06        -0.10842E-09         0.00000E+00
   -0.10842E-09        -0.30557E+06         0.00000E+00
    0.00000E+00         0.00000E+00        -0.16005E+05
 
    0.22555E+06        -0.28912E-09         0.00000E+00
   -0.28912E-09        -0.30557E+06         0.00000E+00
    0.00000E+00         0.00000E+00        -0.16005E+05
 
    0.22555E+06         0.25298E-09         0.00000E+00
    0.25298E-09        -0.30557E+06         0.00000E+00
    0.00000E+00         0.00000E+00        -0.16005E+05
 
    0.22555E+06         0.10119E-08         0.00000E+00
    0.10119E-08        -0.30557E+06         0.00000E+00
    0.00000E+00         0.00000E+00        -0.16005E+05
 
    0.22555E+06        -0.79508E-09         0.00000E+00
   -0.79508E-09        -0.30557E+06         0.00000E+00
    0.00000E+00         0.00000E+00        -0.16005E+05
 
    0.22555E+06         0.21684E-09         0.00000E+00
    0.21684E-09        -0.30557E+06         0.00000E+00
    0.00000E+00         0.00000E+00        -0.16005E+05
 
    0.22555E+06         0.28912E-09         0.00000E+00
    0.28912E-09        -0.30557E+06         0.00000E+00
    0.00000E+00         0.00000E+00        -0.16005E+05
 
    0.22555E+06         0.72280E-09         0.00000E+00
    0.72280E-09        -0.30557E+06         0.00000E+00
    0.00000E+00         0.00000E+00        -0.16005E+05
 
    0.22555E+06         0.36140E-09         0.00000E+00
    0.36140E-09        -0.30557E+06         0.00000E+00
    0.00000E+00         0.00000E+00        -0.16005E+05
 
    0.22555E+06         0.28912E-09         0.00000E+00
    0.28912E-09        -0.30557E+06         0.00000E+00
    0.00000E+00         0.00000E+00        -0.16005E+05
 
    0.22555E+06         0.36140E-09         0.00000E+00
    0.36140E-09        -0.30557E+06         0.00000E+00
    0.00000E+00         0.00000E+00        -0.16005E+05
 
    0.22555E+06        -0.21684E-09         0.00000E+00
   -0.21684E-09        -0.30557E+06         0.00000E+00
    0.00000E+00         0.00000E+00        -0.16005E+05
 
    0.22555E+06        -0.57824E-09         0.00000E+00
   -0.57824E-09        -0.30557E+06         0.00000E+00
    0.00000E+00         0.00000E+00        -0.16005E+05
 
    0.22329E+06        -0.28912E-09         0.00000E+00
   -0.28912E-09        -0.30614E+06         0.00000E+00
    0.00000E+00         0.00000E+00        -0.16569E+05
 
    0.22329E+06        -0.79508E-09         0.00000E+00
   -0.79508E-09        -0.30614E+06         0.00000E+00
    0.00000E+00         0.00000E+00        -0.16569E+05
 
    0.22329E+06         0.43368E-09         0.00000E+00
    0.43368E-09        -0.30614E+06         0.00000E+00
    0.00000E+00         0.00000E+00        -0.16569E+05
 
    0.22329E+06         0.18070E-09         0.00000E+00
    0.18070E-09        -0.30614E+06         0.00000E+00
    0.00000E+00         0.00000E+00        -0.16569E+05
 
    0.22329E+06        -0.18793E-08         0.00000E+00
   -0.18793E-08        -0.30614E+06         0.00000E+00
    0.00000E+00         0.00000E+00        -0.16569E+05
 
    0.22329E+06         0.10842E-09         0.00000E+00
    0.10842E-09        -0.30614E+06         0.00000E+00
    0.00000E+00         0.00000E+00        -0.16569E+05
 
    0.22329E+06         0.14456E-09         0.00000E+00
    0.14456E-09        -0.30614E+06         0.00000E+00
    0.00000E+00         0.00000E+00        -0.16569E+05
 
    0.22329E+06        -0.21684E-09         0.00000E+00
   -0.21684E-09        -0.30614E+06         0.00000E+00
    0.00000E+00         0.00000E+00        -0.16569E+05
 
    0.22329E+06         0.14456E-09         0.00000E+00
    0.14456E-09        -0.30614E+06         0.00000E+00
    0.00000E+00         0.00000E+00        -0.16569E+05
 
    0.22329E+06         0.36140E-09         0.00000E+00
    0.36140E-09        -0.30614E+06         0.00000E+00
    0.00000E+00         0.00000E+00        -0.16569E+05
 
    0.22329E+06         0.86736E-09         0.00000E+00
    0.86736E-09        -0.30614E+06         0.00000E+00
    0.00000E+00         0.00000E+00        -0.16569E+05
 
    0.22329E+06         0.43368E-09         0.00000E+00
    0.43368E-09        -0.30614E+06         0.00000E+00
    0.00000E+00         0.00000E+00        -0.16569E+05
 
    0.22329E+06        -0.79508E-09         0.00000E+00
   -0.79508E-09        -0.30614E+06         0.00000E+00
    0.00000E+00         0.00000E+00        -0.16569E+05
 
    0.22329E+06        -0.28912E-09         0.00000E+00
   -0.28912E-09        -0.30614E+06         0.00000E+00
    0.00000E+00         0.00000E+00        -0.16569E+05
 
    0.22329E+06         0.17347E-08         0.00000E+00
    0.17347E-08        -0.30614E+06         0.00000E+00
    0.00000E+00         0.00000E+00        -0.16569E+05
 
    0.22096E+06        -0.83122E-09         0.00000E+00
   -0.83122E-09        -0.30672E+06         0.00000E+00
    0.00000E+00         0.00000E+00        -0.17153E+05
 
    0.22096E+06         0.18070E-09         0.00000E+00
    0.18070E-09        -0.30672E+06         0.00000E+00
    0.00000E+00         0.00000E+00        -0.17153E+05
 
    0.22096E+06         0.32526E-09         0.00000E+00
    0.32526E-09        -0.30672E+06         0.00000E+00
    0.00000E+00         0.00000E+00        -0.17153E+05
 
    0.22096E+06         0.50596E-09         0.00000E+00
    0.50596E-09        -0.30672E+06         0.00000E+00
    0.00000E+00         0.00000E+00        -0.17153E+05
 
    0.22096E+06        -0.15902E-08         0.00000E+00
   -0.15902E-08        -0.30672E+06         0.00000E+00
    0.00000E+00         0.00000E+00        -0.17153E+05
 
    0.22096E+06         0.72280E-10         0.00000E+00
    0.72280E-10        -0.30672E+06         0.00000E+00
    0.00000E+00         0.00000E+00        -0.17153E+05
 
    0.22096E+06         0.21684E-09         0.00000E+00
    0.21684E-09        -0.30672E+06         0.00000E+00
    0.00000E+00         0.00000E+00        -0.17153E+05
 
    0.22096E+06        -0.28912E-09         0.00000E+00
   -0.28912E-09        -0.30672E+06         0.00000E+00
    0.00000E+00         0.00000E+00        -0.17153E+05
 
    0.22096E+06         0.14456E-09         0.00000E+00
    0.14456E-09        -0.30672E+06         0.00000E+00
    0.00000E+00         0.00000E+00        -0.17153E+05
 
    0.22096E+06        -0.21684E-09         0.00000E+00
   -0.21684E-09        -0.30672E+06         0.00000E+00
    0.00000E+00         0.00000E+00        -0.17153E+05
 
    0.22096E+06         0.12288E-08         0.00000E+00
    0.12288E-08        -0.30672E+06         0.00000E+00
    0.00000E+00         0.00000E+00        -0.17153E+05
 
    0.22096E+06         0.21684E-09         0.00000E+00
    0.21684E-09        -0.30672E+06         0.00000E+00
    0.00000E+00         0.00000E+00        -0.17153E+05
 
    0.22096E+06        -0.93964E-09         0.00000E+00
   -0.93964E-09        -0.30672E+06         0.00000E+00
    0.00000E+00         0.00000E+00        -0.17153E+05
 
    0.22096E+06        -0.28912E-09         0.00000E+00
   -0.28912E-09        -0.30672E+06         0.00000E+00
    0.00000E+00         0.00000E+00        -0.17153E+05
 
    0.22096E+06         0.43368E-09         0.00000E+00
    0.43368E-09        -0.30672E+06         0.00000E+00
    0.00000E+00         0.00000E+00        -0.17153E+05
 
    0.21853E+06        -0.28912E-09         0.00000E+00
   -0.28912E-09        -0.30733E+06         0.00000E+00
    0.00000E+00         0.00000E+00        -0.17759E+05
 
    0.21853E+06         0.14095E-08         0.00000E+00
    0.14095E-08        -0.30733E+06         0.00000E+00
    0.00000E+00         0.00000E+00        -0.17759E+05
 
    0.21853E+06        -0.36140E-09         0.00000E+00
   -0.36140E-09        -0.30733E+06         0.00000E+00
    0.00000E+00         0.00000E+00        -0.17759E+05
 
    0.21853E+06        -0.25298E-09         0.00000E+00
   -0.25298E-09        -0.30733E+06         0.00000E+00
    0.00000E+00         0.00000E+00        -0.17759E+05
 
    0.21853E+06         0.93964E-09         0.00000E+00
    0.93964E-09        -0.30733E+06         0.00000E+00
    0.00000E+00         0.00000E+00        -0.17759E+05
 
    0.21853E+06         0.86736E-09         0.00000E+00
    0.86736E-09        -0.30733E+06         0.00000E+00
    0.00000E+00         0.00000E+00        -0.17759E+05
 
    0.21853E+06        -0.14456E-08         0.00000E+00
   -0.14456E-08        -0.30733E+06         0.00000E+00
    0.00000E+00         0.00000E+00        -0.17759E+05
 
    0.21853E+06         0.14456E-09         0.00000E+00
    0.14456E-09        -0.30733E+06         0.00000E+00
    0.00000E+00         0.00000E+00        -0.17759E+05
 
    0.21853E+06        -0.79508E-09         0.00000E+00
   -0.79508E-09        -0.30733E+06         0.00000E+00
    0.00000E+00         0.00000E+00        -0.17759E+05
 
    0.21853E+06         0.43368E-09         0.00000E+00
    0.43368E-09        -0.30733E+06         0.00000E+00
    0.00000E+00         0.00000E+00        -0.17759E+05
 
    0.21853E+06        -0.21684E-09         0.00000E+00
   -0.21684E-09        -0.30733E+06         0.00000E+00
    0.00000E+00         0.00000E+00        -0.17759E+05
 
    0.21853E+06         0.00000E+00         0.00000E+00
    0.00000E+00        -0.30733E+06         0.00000E+00
    0.00000E+00         0.00000E+00        -0.17759E+05
 
    0.21853E+06        -0.57824E-09         0.00000E+00
   -0.57824E-09        -0.30733E+06         0.00000E+00
    0.00000E+00         0.00000E+00        -0.17759E+05
 
    0.21853E+06         0.11565E-08         0.00000E+00
    0.11565E-08        -0.30733E+06         0.00000E+00
    0.00000E+00         0.00000E+00        -0.17759E+05
 
    0.21853E+06         0.14456E-09         0.00000E+00
    0.14456E-09        -0.30733E+06         0.00000E+00
    0.00000E+00         0.00000E+00        -0.17759E+05
 
    0.21602E+06        -0.12288E-08         0.00000E+00
   -0.12288E-08        -0.30795E+06         0.00000E+00
    0.00000E+00         0.00000E+00        -0.18386E+05
 
    0.21602E+06         0.12649E-08         0.00000E+00
    0.12649E-08        -0.30795E+06         0.00000E+00
    0.00000E+00         0.00000E+00        -0.18386E+05
 
    0.21602E+06         0.00000E+00         0.00000E+00
    0.00000E+00        -0.30795E+06         0.00000E+00
    0.00000E+00         0.00000E+00        -0.18386E+05
 
    0.21602E+06        -0.11926E-08         0.00000E+00
   -0.11926E-08        -0.30795E+06         0.00000E+00
    0.00000E+00         0.00000E+00        -0.18386E+05
 
    0.21602E+06        -0.50596E-09         0.00000E+00
   -0.50596E-09        -0.30795E+06         0.00000E+00
    0.00000E+00         0.00000E+00        -0.18386E+05
 
    0.21602E+06         0.12288E-08         0.00000E+00
    0.12288E-08        -0.30795E+06         0.00000E+00
    0.00000E+00         0.00000E+00        -0.18386E+05
 
    0.21602E+06         0.14456E-08         0.00000E+00
    0.14456E-08        -0.30795E+06         0.00000E+00
    0.00000E+00         0.00000E+00        -0.18386E+05
 
    0.21602E+06        -0.28912E-09         0.00000E+00
   -0.28912E-09        -0.30795E+06         0.00000E+00
    0.00000E+00         0.00000E+00        -0.18386E+05
 
    0.21602E+06        -0.86736E-09         0.00000E+00
   -0.86736E-09        -0.30795E+06         0.00000E+00
    0.00000E+00         0.00000E+00        -0.18386E+05
 
    0.21602E+06         0.36140E-09         0.00000E+00
    0.36140E-09        -0.30795E+06         0.00000E+00
    0.00000E+00         0.00000E+00        -0.18386E+05
 
    0.21602E+06         0.36140E-09         0.00000E+00
    0.36140E-09        -0.30795E+06         0.00000E+00
    0.00000E+00         0.00000E+00        -0.18386E+05
 
    0.21602E+06        -0.10842E-08         0.00000E+00
   -0.10842E-08        -0.30795E+06         0.00000E+00
    0.00000E+00         0.00000E+00        -0.18386E+05
 
    0.21602E+06        -0.50596E-09         0.00000E+00
   -0.50596E-09        -0.30795E+06         0.00000E+00
    0.00000E+00         0.00000E+00        -0.18386E+05
 
    0.21602E+06         0.36140E-09         0.00000E+00
    0.36140E-09        -0.30795E+06         0.00000E+00
    0.00000E+00         0.00000E+00        -0.18386E+05
 
    0.21602E+06         0.21684E-09         0.00000E+00
    0.21684E-09        -0.30795E+06         0.00000E+00
    0.00000E+00         0.00000E+00        -0.18386E+05
 
    0.21342E+06        -0.75894E-09         0.00000E+00
   -0.75894E-09        -0.30860E+06         0.00000E+00
    0.00000E+00         0.00000E+00        -0.19036E+05
 
    0.21342E+06        -0.28912E-09         0.00000E+00
   -0.28912E-09        -0.30860E+06         0.00000E+00
    0.00000E+00         0.00000E+00        -0.19036E+05
 
    0.21342E+06        -0.43368E-09         0.00000E+00
   -0.43368E-09        -0.30860E+06         0.00000E+00
    0.00000E+00         0.00000E+00        -0.19036E+05
 
    0.21342E+06         0.14456E-09         0.00000E+00
    0.14456E-09        -0.30860E+06         0.00000E+00
    0.00000E+00         0.00000E+00        -0.19036E+05
 
    0.21342E+06         0.28912E-09         0.00000E+00
    0.28912E-09        -0.30860E+06         0.00000E+00
    0.00000E+00         0.00000E+00        -0.19036E+05
 
    0.21342E+06         0.72280E-09         0.00000E+00
    0.72280E-09        -0.30860E+06         0.00000E+00
    0.00000E+00         0.00000E+00        -0.19036E+05
 
    0.21342E+06         0.43368E-09         0.00000E+00
    0.43368E-09        -0.30860E+06         0.00000E+00
    0.00000E+00         0.00000E+00        -0.19036E+05
 
    0.21342E+06        -0.57824E-09         0.00000E+00
   -0.57824E-09        -0.30860E+06         0.00000E+00
    0.00000E+00         0.00000E+00        -0.19036E+05
 
    0.21342E+06         0.57824E-09         0.00000E+00
    0.57824E-09        -0.30860E+06         0.00000E+00
    0.00000E+00         0.00000E+00        -0.19036E+05
 
    0.21342E+06        -0.65052E-09         0.00000E+00
   -0.65052E-09        -0.30860E+06         0.00000E+00
    0.00000E+00         0.00000E+00        -0.19036E+05
 
    0.21342E+06         0.21684E-09         0.00000E+00
    0.21684E-09        -0.30860E+06         0.00000E+00
    0.00000E+00         0.00000E+00        -0.19036E+05
 
    0.21342E+06        -0.12288E-08         0.00000E+00
   -0.12288E-08        -0.30860E+06         0.00000E+00
    0.00000E+00         0.00000E+00        -0.19036E+05
 
    0.21342E+06        -0.36140E-09         0.00000E+00
   -0.36140E-09        -0.30860E+06         0.00000E+00
    0.00000E+00         0.00000E+00        -0.19036E+05
 
    0.21342E+06        -0.65052E-09         0.00000E+00
   -0.65052E-09        -0.30860E+06         0.00000E+00
    0.00000E+00         0.00000E+00        -0.19036E+05
 
    0.21342E+06         0.15179E-08         0.00000E+00
    0.15179E-08        -0.30860E+06         0.00000E+00
    0.00000E+00         0.00000E+00        -0.19036E+05
 
    0.21074E+06         0.57824E-09         0.00000E+00
    0.57824E-09        -0.30928E+06         0.00000E+00
    0.00000E+00         0.00000E+00        -0.19708E+05
 
    0.21074E+06        -0.43368E-09         0.00000E+00
   -0.43368E-09        -0.30928E+06         0.00000E+00
    0.00000E+00         0.00000E+00        -0.19708E+05
 
    0.21074E+06        -0.21684E-09         0.00000E+00
   -0.21684E-09        -0.30928E+06         0.00000E+00
    0.00000E+00         0.00000E+00        -0.19708E+05
 
    0.21074E+06        -0.72280E-10         0.00000E+00
   -0.72280E-10        -0.30928E+06         0.00000E+00
    0.00000E+00         0.00000E+00        -0.19708E+05
 
    0.21074E+06         0.72280E-10         0.00000E+00
    0.72280E-10        -0.30928E+06         0.00000E+00
    0.00000E+00         0.00000E+00        -0.19708E+05
 
    0.21074E+06         0.79508E-09         0.00000E+00
    0.79508E-09        -0.30928E+06         0.00000E+00
    0.00000E+00         0.00000E+00        -0.19708E+05
 
    0.21074E+06        -0.65052E-09         0.00000E+00
   -0.65052E-09        -0.30928E+06         0.00000E+00
    0.00000E+00         0.00000E+00        -0.19708E+05
 
    0.21074E+06         0.00000E+00         0.00000E+00
    0.00000E+00        -0.30928E+06         0.00000E+00
    0.00000E+00         0.00000E+00        -0.19708E+05
 
    0.21074E+06        -0.50596E-09         0.00000E+00
   -0.50596E-09        -0.30928E+06         0.00000E+00
    0.00000E+00         0.00000E+00        -0.19708E+05
 
    0.21074E+06         0.14456E-09         0.00000E+00
    0.14456E-09        -0.30928E+06         0.00000E+00
    0.00000E+00         0.00000E+00        -0.19708E+05
 
    0.21074E+06         0.10842E-08         0.00000E+00
    0.10842E-08        -0.30928E+06         0.00000E+00
    0.00000E+00         0.00000E+00        -0.19708E+05
 
    0.21074E+06        -0.10119E-08         0.00000E+00
   -0.10119E-08        -0.30928E+06         0.00000E+00
    0.00000E+00         0.00000E+00        -0.19708E+05
 
    0.21074E+06         0.86736E-09         0.00000E+00
    0.86736E-09        -0.30928E+06         0.00000E+00
    0.00000E+00         0.00000E+00        -0.19708E+05
 
    0.21074E+06         0.36140E-09         0.00000E+00
    0.36140E-09        -0.30928E+06         0.00000E+00
    0.00000E+00         0.00000E+00        -0.19708E+05
 
    0.21074E+06         0.57824E-09         0.00000E+00
    0.57824E-09        -0.30928E+06         0.00000E+00
    0.00000E+00         0.00000E+00        -0.19708E+05
 
    0.20795E+06        -0.39754E-09         0.00000E+00
   -0.39754E-09        -0.30997E+06         0.00000E+00
    0.00000E+00         0.00000E+00        -0.20404E+05
 
    0.20795E+06         0.54210E-09         0.00000E+00
    0.54210E-09        -0.30997E+06         0.00000E+00
    0.00000E+00         0.00000E+00        -0.20404E+05
 
    0.20795E+06         0.57824E-09         0.00000E+00
    0.57824E-09        -0.30997E+06         0.00000E+00
    0.00000E+00         0.00000E+00        -0.20404E+05
 
    0.20795E+06         0.57824E-09         0.00000E+00
    0.57824E-09        -0.30997E+06         0.00000E+00
    0.00000E+00         0.00000E+00        -0.20404E+05
 
    0.20795E+06         0.00000E+00         0.00000E+00
    0.00000E+00        -0.30997E+06         0.00000E+00
    0.00000E+00         0.00000E+00        -0.20404E+05
 
    0.20795E+06        -0.72280E-09         0.00000E+00
   -0.72280E-09        -0.30997E+06         0.00000E+00
    0.00000E+00         0.00000E+00        -0.20404E+05
 
    0.20795E+06        -0.13733E-08         0.00000E+00
   -0.13733E-08        -0.30997E+06         0.00000E+00
    0.00000E+00         0.00000E+00        -0.20404E+05
 
    0.20795E+06         0.43368E-09         0.00000E+00
    0.43368E-09        -0.30997E+06         0.00000E+00
    0.00000E+00         0.00000E+00        -0.20404E+05
 
    0.20795E+06        -0.43368E-09         0.00000E+00
   -0.43368E-09        -0.30997E+06         0.00000E+00
    0.00000E+00         0.00000E+00        -0.20404E+05
 
    0.20795E+06        -0.10842E-08         0.00000E+00
   -0.10842E-08        -0.30997E+06         0.00000E+00
    0.00000E+00         0.00000E+00        -0.20404E+05
 
    0.20795E+06         0.26744E-08         0.00000E+00
    0.26744E-08        -0.30997E+06         0.00000E+00
    0.00000E+00         0.00000E+00        -0.20404E+05
 
    0.20795E+06         0.00000E+00         0.00000E+00
    0.00000E+00        -0.30997E+06         0.00000E+00
    0.00000E+00         0.00000E+00        -0.20404E+05
 
    0.20795E+06         0.11565E-08         0.00000E+00
    0.11565E-08        -0.30997E+06         0.00000E+00
    0.00000E+00         0.00000E+00        -0.20404E+05
 
    0.20795E+06         0.72280E-09         0.00000E+00
    0.72280E-09        -0.30997E+06         0.00000E+00
    0.00000E+00         0.00000E+00        -0.20404E+05
 
    0.20795E+06        -0.14456E-09         0.00000E+00
   -0.14456E-09        -0.30997E+06         0.00000E+00
    0.00000E+00         0.00000E+00        -0.20404E+05
 
    0.20508E+06        -0.50596E-09         0.00000E+00
   -0.50596E-09        -0.31069E+06         0.00000E+00
    0.00000E+00         0.00000E+00        -0.21123E+05
 
    0.20508E+06         0.10842E-08         0.00000E+00
    0.10842E-08        -0.31069E+06         0.00000E+00
    0.00000E+00         0.00000E+00        -0.21123E+05
 
    0.20508E+06         0.79508E-09         0.00000E+00
    0.79508E-09        -0.31069E+06         0.00000E+00
    0.00000E+00         0.00000E+00        -0.21123E+05
 
    0.20508E+06         0.21684E-09         0.00000E+00
    0.21684E-09        -0.31069E+06         0.00000E+00
    0.00000E+00         0.00000E+00        -0.21123E+05
 
    0.20508E+06        -0.36140E-09         0.00000E+00
   -0.36140E-09        -0.31069E+06         0.00000E+00
    0.00000E+00         0.00000E+00        -0.21123E+05
 
    0.20508E+06        -0.43368E-09         0.00000E+00
   -0.43368E-09        -0.31069E+06         0.00000E+00
    0.00000E+00         0.00000E+00        -0.21123E+05
 
    0.20508E+06        -0.50596E-09         0.00000E+00
   -0.50596E-09        -0.31069E+06         0.00000E+00
    0.00000E+00         0.00000E+00        -0.21123E+05
 
    0.20508E+06         0.86736E-09         0.00000E+00
    0.86736E-09        -0.31069E+06         0.00000E+00
    0.00000E+00         0.00000E+00        -0.21123E+05
 
    0.20508E+06         0.13010E-08         0.00000E+00
    0.13010E-08        -0.31069E+06         0.00000E+00
    0.00000E+00         0.00000E+00        -0.21123E+05
 
    0.20508E+06        -0.12288E-08         0.00000E+00
   -0.12288E-08        -0.31069E+06         0.00000E+00
    0.00000E+00         0.00000E+00        -0.21123E+05
 
    0.20508E+06         0.10842E-08         0.00000E+00
    0.10842E-08        -0.31069E+06         0.00000E+00
    0.00000E+00         0.00000E+00        -0.21123E+05
 
    0.20508E+06        -0.13733E-08         0.00000E+00
   -0.13733E-08        -0.31069E+06         0.00000E+00
    0.00000E+00         0.00000E+00        -0.21123E+05
 
    0.20508E+06         0.00000E+00         0.00000E+00
    0.00000E+00        -0.31069E+06         0.00000E+00
    0.00000E+00         0.00000E+00        -0.21123E+05
 
    0.20508E+06         0.28912E-09         0.00000E+00
    0.28912E-09        -0.31069E+06         0.00000E+00
    0.00000E+00         0.00000E+00        -0.21123E+05
 
    0.20508E+06        -0.50596E-09         0.00000E+00
   -0.50596E-09        -0.31069E+06         0.00000E+00
    0.00000E+00         0.00000E+00        -0.21123E+05
 
    0.20210E+06         0.10119E-08         0.00000E+00
    0.10119E-08        -0.31143E+06         0.00000E+00
    0.00000E+00         0.00000E+00        -0.21866E+05
 
    0.20210E+06        -0.43368E-09         0.00000E+00
   -0.43368E-09        -0.31143E+06         0.00000E+00
    0.00000E+00         0.00000E+00        -0.21866E+05
 
    0.20210E+06         0.10842E-08         0.00000E+00
    0.10842E-08        -0.31143E+06         0.00000E+00
    0.00000E+00         0.00000E+00        -0.21866E+05
 
    0.20210E+06        -0.16624E-08         0.00000E+00
   -0.16624E-08        -0.31143E+06         0.00000E+00
    0.00000E+00         0.00000E+00        -0.21866E+05
 
    0.20210E+06         0.10842E-08         0.00000E+00
    0.10842E-08        -0.31143E+06         0.00000E+00
    0.00000E+00         0.00000E+00        -0.21866E+05
 
    0.20210E+06         0.72280E-10         0.00000E+00
    0.72280E-10        -0.31143E+06         0.00000E+00
    0.00000E+00         0.00000E+00        -0.21866E+05
 
    0.20210E+06        -0.72280E-09         0.00000E+00
   -0.72280E-09        -0.31143E+06         0.00000E+00
    0.00000E+00         0.00000E+00        -0.21866E+05
 
    0.20210E+06        -0.86736E-09         0.00000E+00
   -0.86736E-09        -0.31143E+06         0.00000E+00
    0.00000E+00         0.00000E+00        -0.21866E+05
 
    0.20210E+06         0.36140E-09         0.00000E+00
    0.36140E-09        -0.31143E+06         0.00000E+00
    0.00000E+00         0.00000E+00        -0.21866E+05
 
    0.20210E+06         0.21684E-09         0.00000E+00
    0.21684E-09        -0.31143E+06         0.00000E+00
    0.00000E+00         0.00000E+00        -0.21866E+05
 
    0.20210E+06         0.11565E-08         0.00000E+00
    0.11565E-08        -0.31143E+06         0.00000E+00
    0.00000E+00         0.00000E+00        -0.21866E+05
 
    0.20210E+06        -0.72280E-10         0.00000E+00
   -0.72280E-10        -0.31143E+06         0.00000E+00
    0.00000E+00         0.00000E+00        -0.21866E+05
 
    0.20210E+06        -0.86736E-09         0.00000E+00
   -0.86736E-09        -0.31143E+06         0.00000E+00
    0.00000E+00         0.00000E+00        -0.21866E+05
 
    0.20210E+06         0.00000E+00         0.00000E+00
    0.00000E+00        -0.31143E+06         0.00000E+00
    0.00000E+00         0.00000E+00        -0.21866E+05
 
    0.20210E+06         0.00000E+00         0.00000E+00
    0.00000E+00        -0.31143E+06         0.00000E+00
    0.00000E+00         0.00000E+00        -0.21866E+05
 
    0.19903E+06         0.11565E-08         0.00000E+00
    0.11565E-08        -0.31220E+06         0.00000E+00
    0.00000E+00         0.00000E+00        -0.22634E+05
 
    0.19903E+06        -0.21684E-09         0.00000E+00
   -0.21684E-09        -0.31220E+06         0.00000E+00
    0.00000E+00         0.00000E+00        -0.22634E+05
 
    0.19903E+06        -0.14456E-09         0.00000E+00
   -0.14456E-09        -0.31220E+06         0.00000E+00
    0.00000E+00         0.00000E+00        -0.22634E+05
 
    0.19903E+06        -0.12288E-08         0.00000E+00
   -0.12288E-08        -0.31220E+06         0.00000E+00
    0.00000E+00         0.00000E+00        -0.22634E+05
 
    0.19903E+06         0.13733E-08         0.00000E+00
    0.13733E-08        -0.31220E+06         0.00000E+00
    0.00000E+00         0.00000E+00        -0.22634E+05
 
    0.19903E+06        -0.72280E-09         0.00000E+00
   -0.72280E-09        -0.31220E+06         0.00000E+00
    0.00000E+00         0.00000E+00        -0.22634E+05
 
    0.19903E+06         0.36140E-09         0.00000E+00
    0.36140E-09        -0.31220E+06         0.00000E+00
    0.00000E+00         0.00000E+00        -0.22634E+05
 
    0.19903E+06         0.14456E-09         0.00000E+00
    0.14456E-09        -0.31220E+06         0.00000E+00
    0.00000E+00         0.00000E+00        -0.22634E+05
 
    0.19903E+06        -0.21684E-09         0.00000E+00
   -0.21684E-09        -0.31220E+06         0.00000E+00
    0.00000E+00         0.00000E+00        -0.22634E+05
 
    0.19903E+06        -0.65052E-09         0.00000E+00
   -0.65052E-09        -0.31220E+06         0.00000E+00
    0.00000E+00         0.00000E+00        -0.22634E+05
 
    0.19903E+06         0.10119E-08         0.00000E+00
    0.10119E-08        -0.31220E+06         0.00000E+00
    0.00000E+00         0.00000E+00        -0.22634E+05
 
    0.19903E+06         0.72280E-10         0.00000E+00
    0.72280E-10        -0.31220E+06         0.00000E+00
    0.00000E+00         0.00000E+00        -0.22634E+05
 
    0.19903E+06         0.72280E-10         0.00000E+00
    0.72280E-10        -0.31220E+06         0.00000E+00
    0.00000E+00         0.00000E+00        -0.22634E+05
 
    0.19903E+06         0.28912E-09         0.00000E+00
    0.28912E-09        -0.31220E+06         0.00000E+00
    0.00000E+00         0.00000E+00        -0.22634E+05
 
    0.19903E+06        -0.50596E-09         0.00000E+00
   -0.50596E-09        -0.31220E+06         0.00000E+00
    0.00000E+00         0.00000E+00        -0.22634E+05
 
    0.19586E+06        -0.72280E-10         0.00000E+00
   -0.72280E-10        -0.31300E+06         0.00000E+00
    0.00000E+00         0.00000E+00        -0.23427E+05
 
    0.19586E+06         0.72280E-10         0.00000E+00
    0.72280E-10        -0.31300E+06         0.00000E+00
    0.00000E+00         0.00000E+00        -0.23427E+05
 
    0.19586E+06        -0.21684E-09         0.00000E+00
   -0.21684E-09        -0.31300E+06         0.00000E+00
    0.00000E+00         0.00000E+00        -0.23427E+05
 
    0.19586E+06         0.00000E+00         0.00000E+00
    0.00000E+00        -0.31300E+06         0.00000E+00
    0.00000E+00         0.00000E+00        -0.23427E+05
 
    0.19586E+06         0.43368E-09         0.00000E+00
    0.43368E-09        -0.31300E+06         0.00000E+00
    0.00000E+00         0.00000E+00        -0.23427E+05
 
    0.19586E+06        -0.36140E-09         0.00000E+00
   -0.36140E-09        -0.31300E+06         0.00000E+00
    0.00000E+00         0.00000E+00        -0.23427E+05
 
    0.19586E+06         0.72280E-10         0.00000E+00
    0.72280E-10        -0.31300E+06         0.00000E+00
    0.00000E+00         0.00000E+00        -0.23427E+05
 
    0.19586E+06         0.28912E-09         0.00000E+00
    0.28912E-09        -0.31300E+06         0.00000E+00
    0.00000E+00         0.00000E+00        -0.23427E+05
 
    0.19586E+06         0.28912E-09         0.00000E+00
    0.28912E-09        -0.31300E+06         0.00000E+00
    0.00000E+00         0.00000E+00        -0.23427E+05
 
    0.19586E+06        -0.86736E-09         0.00000E+00
   -0.86736E-09        -0.31300E+06         0.00000E+00
    0.00000E+00         0.00000E+00        -0.23427E+05
 
    0.19586E+06         0.72280E-10         0.00000E+00
    0.72280E-10        -0.31300E+06         0.00000E+00
    0.00000E+00         0.00000E+00        -0.23427E+05
 
    0.19586E+06         0.72280E-10         0.00000E+00
    0.72280E-10        -0.31300E+06         0.00000E+00
    0.00000E+00         0.00000E+00        -0.23427E+05
 
    0.19586E+06        -0.36140E-09         0.00000E+00
   -0.36140E-09        -0.31300E+06         0.00000E+00
    0.00000E+00         0.00000E+00        -0.23427E+05
 
    0.19586E+06         0.79508E-09         0.00000E+00
    0.79508E-09        -0.31300E+06         0.00000E+00
    0.00000E+00         0.00000E+00        -0.23427E+05
 
    0.19586E+06        -0.57824E-09         0.00000E+00
   -0.57824E-09        -0.31300E+06         0.00000E+00
    0.00000E+00         0.00000E+00        -0.23427E+05
 
    0.19259E+06         0.14456E-09         0.00000E+00
    0.14456E-09        -0.31381E+06         0.00000E+00
    0.00000E+00         0.00000E+00        -0.24246E+05
 
    0.19259E+06        -0.14456E-09         0.00000E+00
   -0.14456E-09        -0.31381E+06         0.00000E+00
    0.00000E+00         0.00000E+00        -0.24246E+05
 
    0.19259E+06         0.00000E+00         0.00000E+00
    0.00000E+00        -0.31381E+06         0.00000E+00
    0.00000E+00         0.00000E+00        -0.24246E+05
 
    0.19259E+06        -0.28912E-09         0.00000E+00
   -0.28912E-09        -0.31381E+06         0.00000E+00
    0.00000E+00         0.00000E+00        -0.24246E+05
 
    0.19259E+06         0.57824E-09         0.00000E+00
    0.57824E-09        -0.31381E+06         0.00000E+00
    0.00000E+00         0.00000E+00        -0.24246E+05
 
    0.19259E+06        -0.10842E-08         0.00000E+00
   -0.10842E-08        -0.31381E+06         0.00000E+00
    0.00000E+00         0.00000E+00        -0.24246E+05
 
    0.19259E+06         0.14456E-09         0.00000E+00
    0.14456E-09        -0.31381E+06         0.00000E+00
    0.00000E+00         0.00000E+00        -0.24246E+05
 
    0.19259E+06        -0.65052E-09         0.00000E+00
   -0.65052E-09        -0.31381E+06         0.00000E+00
    0.00000E+00         0.00000E+00        -0.24246E+05
 
    0.19259E+06         0.13733E-08         0.00000E+00
    0.13733E-08        -0.31381E+06         0.00000E+00
    0.00000E+00         0.00000E+00        -0.24246E+05
 
    0.19259E+06         0.00000E+00         0.00000E+00
    0.00000E+00        -0.31381E+06         0.00000E+00
    0.00000E+00         0.00000E+00        -0.24246E+05
 
    0.19259E+06         0.21684E-09         0.00000E+00
    0.21684E-09        -0.31381E+06         0.00000E+00
    0.00000E+00         0.00000E+00        -0.24246E+05
 
    0.19259E+06         0.72280E-10         0.00000E+00
    0.72280E-10        -0.31381E+06         0.00000E+00
    0.00000E+00         0.00000E+00        -0.24246E+05
 
    0.19259E+06         0.13010E-08         0.00000E+00
    0.13010E-08        -0.31381E+06         0.00000E+00
    0.00000E+00         0.00000E+00        -0.24246E+05
 
    0.19259E+06         0.00000E+00         0.00000E+00
    0.00000E+00        -0.31381E+06         0.00000E+00
    0.00000E+00         0.00000E+00        -0.24246E+05
 
    0.19259E+06        -0.36140E-09         0.00000E+00
   -0.36140E-09        -0.31381E+06         0.00000E+00
    0.00000E+00         0.00000E+00        -0.24246E+05
 
    0.18921E+06         0.21684E-09         0.00000E+00
    0.21684E-09        -0.31466E+06         0.00000E+00
    0.00000E+00         0.00000E+00        -0.25090E+05
 
    0.18921E+06         0.00000E+00         0.00000E+00
    0.00000E+00        -0.31466E+06         0.00000E+00
    0.00000E+00         0.00000E+00        -0.25090E+05
 
    0.18921E+06        -0.10119E-08         0.00000E+00
   -0.10119E-08        -0.31466E+06         0.00000E+00
    0.00000E+00         0.00000E+00        -0.25090E+05
 
    0.18921E+06        -0.10119E-08         0.00000E+00
   -0.10119E-08        -0.31466E+06         0.00000E+00
    0.00000E+00         0.00000E+00        -0.25090E+05
 
    0.18921E+06         0.57824E-09         0.00000E+00
    0.57824E-09        -0.31466E+06         0.00000E+00
    0.00000E+00         0.00000E+00        -0.25090E+05
 
    0.18921E+06         0.57824E-09         0.00000E+00
    0.57824E-09        -0.31466E+06         0.00000E+00
    0.00000E+00         0.00000E+00        -0.25090E+05
 
    0.18921E+06        -0.14456E-08         0.00000E+00
   -0.14456E-08        -0.31466E+06         0.00000E+00
    0.00000E+00         0.00000E+00        -0.25090E+05
 
    0.18921E+06        -0.72280E-09         0.00000E+00
   -0.72280E-09        -0.31466E+06         0.00000E+00
    0.00000E+00         0.00000E+00        -0.25090E+05
 
    0.18921E+06        -0.14456E-09         0.00000E+00
   -0.14456E-09        -0.31466E+06         0.00000E+00
    0.00000E+00         0.00000E+00        -0.25090E+05
 
    0.18921E+06        -0.43368E-09         0.00000E+00
   -0.43368E-09        -0.31466E+06         0.00000E+00
    0.00000E+00         0.00000E+00        -0.25090E+05
 
    0.18921E+06        -0.36140E-09         0.00000E+00
   -0.36140E-09        -0.31466E+06         0.00000E+00
    0.00000E+00         0.00000E+00        -0.25090E+05
 
    0.18921E+06        -0.36140E-09         0.00000E+00
   -0.36140E-09        -0.31466E+06         0.00000E+00
    0.00000E+00         0.00000E+00        -0.25090E+05
 
    0.18921E+06         0.10842E-08         0.00000E+00
    0.10842E-08        -0.31466E+06         0.00000E+00
    0.00000E+00         0.00000E+00        -0.25090E+05
 
    0.18921E+06         0.00000E+00         0.00000E+00
    0.00000E+00        -0.31466E+06         0.00000E+00
    0.00000E+00         0.00000E+00        -0.25090E+05
 
    0.18921E+06        -0.28912E-09         0.00000E+00
   -0.28912E-09        -0.31466E+06         0.00000E+00
    0.00000E+00         0.00000E+00        -0.25090E+05
 
    0.18573E+06         0.50596E-09         0.00000E+00
    0.50596E-09        -0.31553E+06         0.00000E+00
    0.00000E+00         0.00000E+00        -0.25961E+05
 
    0.18573E+06         0.72280E-10         0.00000E+00
    0.72280E-10        -0.31553E+06         0.00000E+00
    0.00000E+00         0.00000E+00        -0.25961E+05
 
    0.18573E+06        -0.65052E-09         0.00000E+00
   -0.65052E-09        -0.31553E+06         0.00000E+00
    0.00000E+00         0.00000E+00        -0.25961E+05
 
    0.18573E+06        -0.72280E-10         0.00000E+00
   -0.72280E-10        -0.31553E+06         0.00000E+00
    0.00000E+00         0.00000E+00        -0.25961E+05
 
    0.18573E+06         0.28912E-09         0.00000E+00
    0.28912E-09        -0.31553E+06         0.00000E+00
    0.00000E+00         0.00000E+00        -0.25961E+05
 
    0.18573E+06         0.79508E-09         0.00000E+00
    0.79508E-09        -0.31553E+06         0.00000E+00
    0.00000E+00         0.00000E+00        -0.25961E+05
 
    0.18573E+06        -0.14456E-08         0.00000E+00
   -0.14456E-08        -0.31553E+06         0.00000E+00
    0.00000E+00         0.00000E+00        -0.25961E+05
 
    0.18573E+06         0.36140E-09         0.00000E+00
    0.36140E-09        -0.31553E+06         0.00000E+00
    0.00000E+00         0.00000E+00        -0.25961E+05
 
    0.18573E+06        -0.14456E-09         0.00000E+00
   -0.14456E-09        -0.31553E+06         0.00000E+00
    0.00000E+00         0.00000E+00        -0.25961E+05
 
    0.18573E+06        -0.72280E-09         0.00000E+00
   -0.72280E-09        -0.31553E+06         0.00000E+00
    0.00000E+00         0.00000E+00        -0.25961E+05
 
    0.18573E+06         0.14456E-09         0.00000E+00
    0.14456E-09        -0.31553E+06         0.00000E+00
    0.00000E+00         0.00000E+00        -0.25961E+05
 
    0.18573E+06         0.72280E-10         0.00000E+00
    0.72280E-10        -0.31553E+06         0.00000E+00
    0.00000E+00         0.00000E+00        -0.25961E+05
 
    0.18573E+06        -0.43368E-09         0.00000E+00
   -0.43368E-09        -0.31553E+06         0.00000E+00
    0.00000E+00         0.00000E+00        -0.25961E+05
 
    0.18573E+06         0.72280E-09         0.00000E+00
    0.72280E-09        -0.31553E+06         0.00000E+00
    0.00000E+00         0.00000E+00        -0.25961E+05
 
    0.18573E+06        -0.10119E-08         0.00000E+00
   -0.10119E-08        -0.31553E+06         0.00000E+00
    0.00000E+00         0.00000E+00        -0.25961E+05
 
    0.18214E+06        -0.21684E-09         0.00000E+00
   -0.21684E-09        -0.31643E+06         0.00000E+00
    0.00000E+00         0.00000E+00        -0.26858E+05
 
    0.18214E+06         0.21684E-09         0.00000E+00
    0.21684E-09        -0.31643E+06         0.00000E+00
    0.00000E+00         0.00000E+00        -0.26858E+05
 
    0.18214E+06        -0.79508E-09         0.00000E+00
   -0.79508E-09        -0.31643E+06         0.00000E+00
    0.00000E+00         0.00000E+00        -0.26858E+05
 
    0.18214E+06         0.13733E-08         0.00000E+00
    0.13733E-08        -0.31643E+06         0.00000E+00
    0.00000E+00         0.00000E+00        -0.26858E+05
 
    0.18214E+06        -0.79508E-09         0.00000E+00
   -0.79508E-09        -0.31643E+06         0.00000E+00
    0.00000E+00         0.00000E+00        -0.26858E+05
 
    0.18214E+06        -0.72280E-09         0.00000E+00
   -0.72280E-09        -0.31643E+06         0.00000E+00
    0.00000E+00         0.00000E+00        -0.26858E+05
 
    0.18214E+06        -0.21684E-09         0.00000E+00
   -0.21684E-09        -0.31643E+06         0.00000E+00
    0.00000E+00         0.00000E+00        -0.26858E+05
 
    0.18214E+06         0.65052E-09         0.00000E+00
    0.65052E-09        -0.31643E+06         0.00000E+00
    0.00000E+00         0.00000E+00        -0.26858E+05
 
    0.18214E+06         0.72280E-10         0.00000E+00
    0.72280E-10        -0.31643E+06         0.00000E+00
    0.00000E+00         0.00000E+00        -0.26858E+05
 
    0.18214E+06        -0.28912E-09         0.00000E+00
   -0.28912E-09        -0.31643E+06         0.00000E+00
    0.00000E+00         0.00000E+00        -0.26858E+05
 
    0.18214E+06         0.72280E-10         0.00000E+00
    0.72280E-10        -0.31643E+06         0.00000E+00
    0.00000E+00         0.00000E+00        -0.26858E+05
 
    0.18214E+06        -0.43368E-09         0.00000E+00
   -0.43368E-09        -0.31643E+06         0.00000E+00
    0.00000E+00         0.00000E+00        -0.26858E+05
 
    0.18214E+06         0.14456E-09         0.00000E+00
    0.14456E-09        -0.31643E+06         0.00000E+00
    0.00000E+00         0.00000E+00        -0.26858E+05
 
    0.18214E+06        -0.36140E-09         0.00000E+00
   -0.36140E-09        -0.31643E+06         0.00000E+00
    0.00000E+00         0.00000E+00        -0.26858E+05
 
    0.18214E+06        -0.28912E-09         0.00000E+00
   -0.28912E-09        -0.31643E+06         0.00000E+00
    0.00000E+00         0.00000E+00        -0.26858E+05
 
    0.17844E+06        -0.43368E-09         0.00000E+00
   -0.43368E-09        -0.31735E+06         0.00000E+00
    0.00000E+00         0.00000E+00        -0.27783E+05
 
    0.17844E+06        -0.14456E-09         0.00000E+00
   -0.14456E-09        -0.31735E+06         0.00000E+00
    0.00000E+00         0.00000E+00        -0.27783E+05
 
    0.17844E+06        -0.21684E-09         0.00000E+00
   -0.21684E-09        -0.31735E+06         0.00000E+00
    0.00000E+00         0.00000E+00        -0.27783E+05
 
    0.17844E+06        -0.43368E-09         0.00000E+00
   -0.43368E-09        -0.31735E+06         0.00000E+00
    0.00000E+00         0.00000E+00        -0.27783E+05
 
    0.17844E+06        -0.57824E-09         0.00000E+00
   -0.57824E-09        -0.31735E+06         0.00000E+00
    0.00000E+00         0.00000E+00        -0.27783E+05
 
    0.17844E+06        -0.57824E-09         0.00000E+00
   -0.57824E-09        -0.31735E+06         0.00000E+00
    0.00000E+00         0.00000E+00        -0.27783E+05
 
    0.17844E+06         0.21684E-09         0.00000E+00
    0.21684E-09        -0.31735E+06         0.00000E+00
    0.00000E+00         0.00000E+00        -0.27783E+05
 
    0.17844E+06        -0.72280E-10         0.00000E+00
   -0.72280E-10        -0.31735E+06         0.00000E+00
    0.00000E+00         0.00000E+00        -0.27783E+05
 
    0.17844E+06         0.14456E-08         0.00000E+00
    0.14456E-08        -0.31735E+06         0.00000E+00
    0.00000E+00         0.00000E+00        -0.27783E+05
 
    0.17844E+06        -0.15902E-08         0.00000E+00
   -0.15902E-08        -0.31735E+06         0.00000E+00
    0.00000E+00         0.00000E+00        -0.27783E+05
 
    0.17844E+06         0.28912E-09         0.00000E+00
    0.28912E-09        -0.31735E+06         0.00000E+00
    0.00000E+00         0.00000E+00        -0.27783E+05
 
    0.17844E+06        -0.57824E-09         0.00000E+00
   -0.57824E-09        -0.31735E+06         0.00000E+00
    0.00000E+00         0.00000E+00        -0.27783E+05
 
    0.17844E+06         0.79508E-09         0.00000E+00
    0.79508E-09        -0.31735E+06         0.00000E+00
    0.00000E+00         0.00000E+00        -0.27783E+05
 
    0.17844E+06         0.72280E-10         0.00000E+00
    0.72280E-10        -0.31735E+06         0.00000E+00
    0.00000E+00         0.00000E+00        -0.27783E+05
 
    0.17844E+06         0.00000E+00         0.00000E+00
    0.00000E+00        -0.31735E+06         0.00000E+00
    0.00000E+00         0.00000E+00        -0.27783E+05
 
    0.17463E+06         0.36140E-09         0.00000E+00
    0.36140E-09        -0.31830E+06         0.00000E+00
    0.00000E+00         0.00000E+00        -0.28734E+05
 
    0.17463E+06        -0.43368E-09         0.00000E+00
   -0.43368E-09        -0.31830E+06         0.00000E+00
    0.00000E+00         0.00000E+00        -0.28734E+05
 
    0.17463E+06         0.43368E-09         0.00000E+00
    0.43368E-09        -0.31830E+06         0.00000E+00
    0.00000E+00         0.00000E+00        -0.28734E+05
 
    0.17463E+06        -0.57824E-09         0.00000E+00
   -0.57824E-09        -0.31830E+06         0.00000E+00
    0.00000E+00         0.00000E+00        -0.28734E+05
 
    0.17463E+06        -0.21684E-09         0.00000E+00
   -0.21684E-09        -0.31830E+06         0.00000E+00
    0.00000E+00         0.00000E+00        -0.28734E+05
 
    0.17463E+06        -0.21684E-09         0.00000E+00
   -0.21684E-09        -0.31830E+06         0.00000E+00
    0.00000E+00         0.00000E+00        -0.28734E+05
 
    0.17463E+06        -0.21684E-09         0.00000E+00
   -0.21684E-09        -0.31830E+06         0.00000E+00
    0.00000E+00         0.00000E+00        -0.28734E+05
 
    0.17463E+06        -0.72280E-10         0.00000E+00
   -0.72280E-10        -0.31830E+06         0.00000E+00
    0.00000E+00         0.00000E+00        -0.28734E+05
 
    0.17463E+06        -0.86736E-09         0.00000E+00
   -0.86736E-09        -0.31830E+06         0.00000E+00
    0.00000E+00         0.00000E+00        -0.28734E+05
 
    0.17463E+06         0.00000E+00         0.00000E+00
    0.00000E+00        -0.31830E+06         0.00000E+00
    0.00000E+00         0.00000E+00        -0.28734E+05
 
    0.17463E+06         0.36140E-09         0.00000E+00
    0.36140E-09        -0.31830E+06         0.00000E+00
    0.00000E+00         0.00000E+00        -0.28734E+05
 
    0.17463E+06         0.36140E-09         0.00000E+00
    0.36140E-09        -0.31830E+06         0.00000E+00
    0.00000E+00         0.00000E+00        -0.28734E+05
 
    0.17463E+06        -0.43368E-09         0.00000E+00
   -0.43368E-09        -0.31830E+06         0.00000E+00
    0.00000E+00         0.00000E+00        -0.28734E+05
 
    0.17463E+06        -0.93964E-09         0.00000E+00
   -0.93964E-09        -0.31830E+06         0.00000E+00
    0.00000E+00         0.00000E+00        -0.28734E+05
 
    0.17463E+06         0.93964E-09         0.00000E+00
    0.93964E-09        -0.31830E+06         0.00000E+00
    0.00000E+00         0.00000E+00        -0.28734E+05
 
    0.17071E+06         0.11565E-08         0.00000E+00
    0.11565E-08        -0.31928E+06         0.00000E+00
    0.00000E+00         0.00000E+00        -0.29714E+05
 
    0.17071E+06        -0.36140E-09         0.00000E+00
   -0.36140E-09        -0.31928E+06         0.00000E+00
    0.00000E+00         0.00000E+00        -0.29714E+05
 
    0.17071E+06        -0.57824E-09         0.00000E+00
   -0.57824E-09        -0.31928E+06         0.00000E+00
    0.00000E+00         0.00000E+00        -0.29714E+05
 
    0.17071E+06         0.11565E-08         0.00000E+00
    0.11565E-08        -0.31928E+06         0.00000E+00
    0.00000E+00         0.00000E+00        -0.29714E+05
 
    0.17071E+06        -0.10842E-08         0.00000E+00
   -0.10842E-08        -0.31928E+06         0.00000E+00
    0.00000E+00         0.00000E+00        -0.29714E+05
 
    0.17071E+06         0.72280E-10         0.00000E+00
    0.72280E-10        -0.31928E+06         0.00000E+00
    0.00000E+00         0.00000E+00        -0.29714E+05
 
    0.17071E+06        -0.21684E-09         0.00000E+00
   -0.21684E-09        -0.31928E+06         0.00000E+00
    0.00000E+00         0.00000E+00        -0.29714E+05
 
    0.17071E+06         0.11565E-08         0.00000E+00
    0.11565E-08        -0.31928E+06         0.00000E+00
    0.00000E+00         0.00000E+00        -0.29714E+05
 
    0.17071E+06         0.14456E-09         0.00000E+00
    0.14456E-09        -0.31928E+06         0.00000E+00
    0.00000E+00         0.00000E+00        -0.29714E+05
 
    0.17071E+06         0.11565E-08         0.00000E+00
    0.11565E-08        -0.31928E+06         0.00000E+00
    0.00000E+00         0.00000E+00        -0.29714E+05
 
    0.17071E+06        -0.72280E-10         0.00000E+00
   -0.72280E-10        -0.31928E+06         0.00000E+00
    0.00000E+00         0.00000E+00        -0.29714E+05
 
    0.17071E+06        -0.86736E-09         0.00000E+00
   -0.86736E-09        -0.31928E+06         0.00000E+00
    0.00000E+00         0.00000E+00        -0.29714E+05
 
    0.17071E+06        -0.72280E-10         0.00000E+00
   -0.72280E-10        -0.31928E+06         0.00000E+00
    0.00000E+00         0.00000E+00        -0.29714E+05
 
    0.17071E+06        -0.10842E-08         0.00000E+00
   -0.10842E-08        -0.31928E+06         0.00000E+00
    0.00000E+00         0.00000E+00        -0.29714E+05
 
    0.17071E+06         0.72280E-09         0.00000E+00
    0.72280E-09        -0.31928E+06         0.00000E+00
    0.00000E+00         0.00000E+00        -0.29714E+05
 
    0.16668E+06        -0.43368E-09         0.00000E+00
   -0.43368E-09        -0.32029E+06         0.00000E+00
    0.00000E+00         0.00000E+00        -0.30722E+05
 
    0.16668E+06        -0.12288E-08         0.00000E+00
   -0.12288E-08        -0.32029E+06         0.00000E+00
    0.00000E+00         0.00000E+00        -0.30722E+05
 
    0.16668E+06        -0.14456E-09         0.00000E+00
   -0.14456E-09        -0.32029E+06         0.00000E+00
    0.00000E+00         0.00000E+00        -0.30722E+05
 
    0.16668E+06         0.72280E-09         0.00000E+00
    0.72280E-09        -0.32029E+06         0.00000E+00
    0.00000E+00         0.00000E+00        -0.30722E+05
 
    0.16668E+06         0.14456E-09         0.00000E+00
    0.14456E-09        -0.32029E+06         0.00000E+00
    0.00000E+00         0.00000E+00        -0.30722E+05
 
    0.16668E+06        -0.93964E-09         0.00000E+00
   -0.93964E-09        -0.32029E+06         0.00000E+00
    0.00000E+00         0.00000E+00        -0.30722E+05
 
    0.16668E+06        -0.79508E-09         0.00000E+00
   -0.79508E-09        -0.32029E+06         0.00000E+00
    0.00000E+00         0.00000E+00        -0.30722E+05
 
    0.16668E+06         0.13010E-08         0.00000E+00
    0.13010E-08        -0.32029E+06         0.00000E+00
    0.00000E+00         0.00000E+00        -0.30722E+05
 
    0.16668E+06         0.36140E-09         0.00000E+00
    0.36140E-09        -0.32029E+06         0.00000E+00
    0.00000E+00         0.00000E+00        -0.30722E+05
 
    0.16668E+06         0.43368E-09         0.00000E+00
    0.43368E-09        -0.32029E+06         0.00000E+00
    0.00000E+00         0.00000E+00        -0.30722E+05
 
    0.16668E+06         0.14456E-09         0.00000E+00
    0.14456E-09        -0.32029E+06         0.00000E+00
    0.00000E+00         0.00000E+00        -0.30722E+05
 
    0.16668E+06        -0.72280E-10         0.00000E+00
   -0.72280E-10        -0.32029E+06         0.00000E+00
    0.00000E+00         0.00000E+00        -0.30722E+05
 
    0.16668E+06         0.72280E-10         0.00000E+00
    0.72280E-10        -0.32029E+06         0.00000E+00
    0.00000E+00         0.00000E+00        -0.30722E+05
 
    0.16668E+06        -0.10842E-08         0.00000E+00
   -0.10842E-08        -0.32029E+06         0.00000E+00
    0.00000E+00         0.00000E+00        -0.30722E+05
 
    0.16668E+06        -0.28912E-09         0.00000E+00
   -0.28912E-09        -0.32029E+06         0.00000E+00
    0.00000E+00         0.00000E+00        -0.30722E+05
 
    0.16254E+06         0.36140E-09         0.00000E+00
    0.36140E-09        -0.32133E+06         0.00000E+00
    0.00000E+00         0.00000E+00        -0.31758E+05
 
    0.16254E+06         0.10842E-08         0.00000E+00
    0.10842E-08        -0.32133E+06         0.00000E+00
    0.00000E+00         0.00000E+00        -0.31758E+05
 
    0.16254E+06         0.86736E-09         0.00000E+00
    0.86736E-09        -0.32133E+06         0.00000E+00
    0.00000E+00         0.00000E+00        -0.31758E+05
 
    0.16254E+06        -0.72280E-10         0.00000E+00
   -0.72280E-10        -0.32133E+06         0.00000E+00
    0.00000E+00         0.00000E+00        -0.31758E+05
 
    0.16254E+06         0.00000E+00         0.00000E+00
    0.00000E+00        -0.32133E+06         0.00000E+00
    0.00000E+00         0.00000E+00        -0.31758E+05
 
    0.16254E+06        -0.72280E-10         0.00000E+00
   -0.72280E-10        -0.32133E+06         0.00000E+00
    0.00000E+00         0.00000E+00        -0.31758E+05
 
    0.16254E+06        -0.43368E-09         0.00000E+00
   -0.43368E-09        -0.32133E+06         0.00000E+00
    0.00000E+00         0.00000E+00        -0.31758E+05
 
    0.16254E+06         0.00000E+00         0.00000E+00
    0.00000E+00        -0.32133E+06         0.00000E+00
    0.00000E+00         0.00000E+00        -0.31758E+05
 
    0.16254E+06        -0.65052E-09         0.00000E+00
   -0.65052E-09        -0.32133E+06         0.00000E+00
    0.00000E+00         0.00000E+00        -0.31758E+05
 
    0.16254E+06        -0.28912E-09         0.00000E+00
   -0.28912E-09        -0.32133E+06         0.00000E+00
    0.00000E+00         0.00000E+00        -0.31758E+05
 
    0.16254E+06        -0.28912E-09         0.00000E+00
   -0.28912E-09        -0.32133E+06         0.00000E+00
    0.00000E+00         0.00000E+00        -0.31758E+05
 
    0.16254E+06        -0.43368E-09         0.00000E+00
   -0.43368E-09        -0.32133E+06         0.00000E+00
    0.00000E+00         0.00000E+00        -0.31758E+05
 
    0.16254E+06        -0.14456E-09         0.00000E+00
   -0.14456E-09        -0.32133E+06         0.00000E+00
    0.00000E+00         0.00000E+00        -0.31758E+05
 
    0.16254E+06         0.14456E-09         0.00000E+00
    0.14456E-09        -0.32133E+06         0.00000E+00
    0.00000E+00         0.00000E+00        -0.31758E+05
 
    0.16254E+06        -0.10119E-08         0.00000E+00
   -0.10119E-08        -0.32133E+06         0.00000E+00
    0.00000E+00         0.00000E+00        -0.31758E+05
 
    0.15828E+06        -0.65052E-09         0.00000E+00
   -0.65052E-09        -0.32239E+06         0.00000E+00
    0.00000E+00         0.00000E+00        -0.32822E+05
 
    0.15828E+06         0.28912E-09         0.00000E+00
    0.28912E-09        -0.32239E+06         0.00000E+00
    0.00000E+00         0.00000E+00        -0.32822E+05
 
    0.15828E+06        -0.28912E-09         0.00000E+00
   -0.28912E-09        -0.32239E+06         0.00000E+00
    0.00000E+00         0.00000E+00        -0.32822E+05
 
    0.15828E+06         0.72280E-10         0.00000E+00
    0.72280E-10        -0.32239E+06         0.00000E+00
    0.00000E+00         0.00000E+00        -0.32822E+05
 
    0.15828E+06        -0.36140E-09         0.00000E+00
   -0.36140E-09        -0.32239E+06         0.00000E+00
    0.00000E+00         0.00000E+00        -0.32822E+05
 
    0.15828E+06         0.72280E-09         0.00000E+00
    0.72280E-09        -0.32239E+06         0.00000E+00
    0.00000E+00         0.00000E+00        -0.32822E+05
 
    0.15828E+06        -0.57824E-09         0.00000E+00
   -0.57824E-09        -0.32239E+06         0.00000E+00
    0.00000E+00         0.00000E+00        -0.32822E+05
 
    0.15828E+06         0.13010E-08         0.00000E+00
    0.13010E-08        -0.32239E+06         0.00000E+00
    0.00000E+00         0.00000E+00        -0.32822E+05
 
    0.15828E+06        -0.16624E-08         0.00000E+00
   -0.16624E-08        -0.32239E+06         0.00000E+00
    0.00000E+00         0.00000E+00        -0.32822E+05
 
    0.15828E+06        -0.72280E-10         0.00000E+00
   -0.72280E-10        -0.32239E+06         0.00000E+00
    0.00000E+00         0.00000E+00        -0.32822E+05
 
    0.15828E+06         0.72280E-09         0.00000E+00
    0.72280E-09        -0.32239E+06         0.00000E+00
    0.00000E+00         0.00000E+00        -0.32822E+05
 
    0.15828E+06        -0.43368E-09         0.00000E+00
   -0.43368E-09        -0.32239E+06         0.00000E+00
    0.00000E+00         0.00000E+00        -0.32822E+05
 
    0.15828E+06         0.43368E-09         0.00000E+00
    0.43368E-09        -0.32239E+06         0.00000E+00
    0.00000E+00         0.00000E+00        -0.32822E+05
 
    0.15828E+06        -0.43368E-09         0.00000E+00
   -0.43368E-09        -0.32239E+06         0.00000E+00
    0.00000E+00         0.00000E+00        -0.32822E+05
 
    0.15828E+06        -0.72280E-09         0.00000E+00
   -0.72280E-09        -0.32239E+06         0.00000E+00
    0.00000E+00         0.00000E+00        -0.32822E+05
 
    0.15391E+06         0.50596E-09         0.00000E+00
    0.50596E-09        -0.32348E+06         0.00000E+00
    0.00000E+00         0.00000E+00        -0.33916E+05
 
    0.15391E+06        -0.15902E-08         0.00000E+00
   -0.15902E-08        -0.32348E+06         0.00000E+00
    0.00000E+00         0.00000E+00        -0.33916E+05
 
    0.15391E+06         0.10119E-08         0.00000E+00
    0.10119E-08        -0.32348E+06         0.00000E+00
    0.00000E+00         0.00000E+00        -0.33916E+05
 
    0.15391E+06        -0.18793E-08         0.00000E+00
   -0.18793E-08        -0.32348E+06         0.00000E+00
    0.00000E+00         0.00000E+00        -0.33916E+05
 
    0.15391E+06        -0.93964E-09         0.00000E+00
   -0.93964E-09        -0.32348E+06         0.00000E+00
    0.00000E+00         0.00000E+00        -0.33916E+05
 
    0.15391E+06         0.93964E-09         0.00000E+00
    0.93964E-09        -0.32348E+06         0.00000E+00
    0.00000E+00         0.00000E+00        -0.33916E+05
 
    0.15391E+06        -0.13010E-08         0.00000E+00
   -0.13010E-08        -0.32348E+06         0.00000E+00
    0.00000E+00         0.00000E+00        -0.33916E+05
 
    0.15391E+06         0.00000E+00         0.00000E+00
    0.00000E+00        -0.32348E+06         0.00000E+00
    0.00000E+00         0.00000E+00        -0.33916E+05
 
    0.15391E+06         0.21684E-09         0.00000E+00
    0.21684E-09        -0.32348E+06         0.00000E+00
    0.00000E+00         0.00000E+00        -0.33916E+05
 
    0.15391E+06         0.43368E-09         0.00000E+00
    0.43368E-09        -0.32348E+06         0.00000E+00
    0.00000E+00         0.00000E+00        -0.33916E+05
 
    0.15391E+06         0.11565E-08         0.00000E+00
    0.11565E-08        -0.32348E+06         0.00000E+00
    0.00000E+00         0.00000E+00        -0.33916E+05
 
    0.15391E+06         0.00000E+00         0.00000E+00
    0.00000E+00        -0.32348E+06         0.00000E+00
    0.00000E+00         0.00000E+00        -0.33916E+05
 
    0.15391E+06         0.79508E-09         0.00000E+00
    0.79508E-09        -0.32348E+06         0.00000E+00
    0.00000E+00         0.00000E+00        -0.33916E+05
 
    0.15391E+06        -0.57824E-09         0.00000E+00
   -0.57824E-09        -0.32348E+06         0.00000E+00
    0.00000E+00         0.00000E+00        -0.33916E+05
 
    0.15391E+06         0.28912E-09         0.00000E+00
    0.28912E-09        -0.32348E+06         0.00000E+00
    0.00000E+00         0.00000E+00        -0.33916E+05
 
    0.14942E+06        -0.72280E-09         0.00000E+00
   -0.72280E-09        -0.32461E+06         0.00000E+00
    0.00000E+00         0.00000E+00        -0.35038E+05
 
    0.14942E+06         0.14456E-09         0.00000E+00
    0.14456E-09        -0.32461E+06         0.00000E+00
    0.00000E+00         0.00000E+00        -0.35038E+05
 
    0.14942E+06         0.86736E-09         0.00000E+00
    0.86736E-09        -0.32461E+06         0.00000E+00
    0.00000E+00         0.00000E+00        -0.35038E+05
 
    0.14942E+06        -0.50596E-09         0.00000E+00
   -0.50596E-09        -0.32461E+06         0.00000E+00
    0.00000E+00         0.00000E+00        -0.35038E+05
 
    0.14942E+06         0.57824E-09         0.00000E+00
    0.57824E-09        -0.32461E+06         0.00000E+00
    0.00000E+00         0.00000E+00        -0.35038E+05
 
    0.14942E+06         0.14456E-09         0.00000E+00
    0.14456E-09        -0.32461E+06         0.00000E+00
    0.00000E+00         0.00000E+00        -0.35038E+05
 
    0.14942E+06         0.28912E-09         0.00000E+00
    0.28912E-09        -0.32461E+06         0.00000E+00
    0.00000E+00         0.00000E+00        -0.35038E+05
 
    0.14942E+06        -0.57824E-09         0.00000E+00
   -0.57824E-09        -0.32461E+06         0.00000E+00
    0.00000E+00         0.00000E+00        -0.35038E+05
 
    0.14942E+06         0.93964E-09         0.00000E+00
    0.93964E-09        -0.32461E+06         0.00000E+00
    0.00000E+00         0.00000E+00        -0.35038E+05
 
    0.14942E+06        -0.86736E-09         0.00000E+00
   -0.86736E-09        -0.32461E+06         0.00000E+00
    0.00000E+00         0.00000E+00        -0.35038E+05
 
    0.14942E+06         0.00000E+00         0.00000E+00
    0.00000E+00        -0.32461E+06         0.00000E+00
    0.00000E+00         0.00000E+00        -0.35038E+05
 
    0.14942E+06        -0.12288E-08         0.00000E+00
   -0.12288E-08        -0.32461E+06         0.00000E+00
    0.00000E+00         0.00000E+00        -0.35038E+05
 
    0.14942E+06         0.11565E-08         0.00000E+00
    0.11565E-08        -0.32461E+06         0.00000E+00
    0.00000E+00         0.00000E+00        -0.35038E+05
 
    0.14942E+06         0.28912E-09         0.00000E+00
    0.28912E-09        -0.32461E+06         0.00000E+00
    0.00000E+00         0.00000E+00        -0.35038E+05
 
    0.14942E+06         0.14456E-08         0.00000E+00
    0.14456E-08        -0.32461E+06         0.00000E+00
    0.00000E+00         0.00000E+00        -0.35038E+05
 
    0.14481E+06        -0.10842E-08         0.00000E+00
   -0.10842E-08        -0.32576E+06         0.00000E+00
    0.00000E+00         0.00000E+00        -0.36189E+05
 
    0.14481E+06         0.65052E-09         0.00000E+00
    0.65052E-09        -0.32576E+06         0.00000E+00
    0.00000E+00         0.00000E+00        -0.36189E+05
 
    0.14481E+06         0.36140E-09         0.00000E+00
    0.36140E-09        -0.32576E+06         0.00000E+00
    0.00000E+00         0.00000E+00        -0.36189E+05
 
    0.14481E+06         0.28912E-09         0.00000E+00
    0.28912E-09        -0.32576E+06         0.00000E+00
    0.00000E+00         0.00000E+00        -0.36189E+05
 
    0.14481E+06        -0.65052E-09         0.00000E+00
   -0.65052E-09        -0.32576E+06         0.00000E+00
    0.00000E+00         0.00000E+00        -0.36189E+05
 
    0.14481E+06         0.72280E-09         0.00000E+00
    0.72280E-09        -0.32576E+06         0.00000E+00
    0.00000E+00         0.00000E+00        -0.36189E+05
 
    0.14481E+06        -0.72280E-10         0.00000E+00
   -0.72280E-10        -0.32576E+06         0.00000E+00
    0.00000E+00         0.00000E+00        -0.36189E+05
 
    0.14481E+06         0.21684E-09         0.00000E+00
    0.21684E-09        -0.32576E+06         0.00000E+00
    0.00000E+00         0.00000E+00        -0.36189E+05
 
    0.14481E+06         0.86736E-09         0.00000E+00
    0.86736E-09        -0.32576E+06         0.00000E+00
    0.00000E+00         0.00000E+00        -0.36189E+05
 
    0.14481E+06        -0.28912E-09         0.00000E+00
   -0.28912E-09        -0.32576E+06         0.00000E+00
    0.00000E+00         0.00000E+00        -0.36189E+05
 
    0.14481E+06         0.72280E-10         0.00000E+00
    0.72280E-10        -0.32576E+06         0.00000E+00
    0.00000E+00         0.00000E+00        -0.36189E+05
 
    0.14481E+06        -0.65052E-09         0.00000E+00
   -0.65052E-09        -0.32576E+06         0.00000E+00
    0.00000E+00         0.00000E+00        -0.36189E+05
 
    0.14481E+06         0.28912E-09         0.00000E+00
    0.28912E-09        -0.32576E+06         0.00000E+00
    0.00000E+00         0.00000E+00        -0.36189E+05
 
    0.14481E+06         0.28912E-09         0.00000E+00
    0.28912E-09        -0.32576E+06         0.00000E+00
    0.00000E+00         0.00000E+00        -0.36189E+05
 
    0.14481E+06         0.43368E-09         0.00000E+00
    0.43368E-09        -0.32576E+06         0.00000E+00
    0.00000E+00         0.00000E+00        -0.36189E+05
 
    0.14009E+06        -0.21684E-09         0.00000E+00
   -0.21684E-09        -0.32694E+06         0.00000E+00
    0.00000E+00         0.00000E+00        -0.37369E+05
 
    0.14009E+06        -0.21684E-09         0.00000E+00
   -0.21684E-09        -0.32694E+06         0.00000E+00
    0.00000E+00         0.00000E+00        -0.37369E+05
 
    0.14009E+06        -0.57824E-09         0.00000E+00
   -0.57824E-09        -0.32694E+06         0.00000E+00
    0.00000E+00         0.00000E+00        -0.37369E+05
 
    0.14009E+06         0.10119E-08         0.00000E+00
    0.10119E-08        -0.32694E+06         0.00000E+00
    0.00000E+00         0.00000E+00        -0.37369E+05
 
    0.14009E+06        -0.21684E-09         0.00000E+00
   -0.21684E-09        -0.32694E+06         0.00000E+00
    0.00000E+00         0.00000E+00        -0.37369E+05
 
    0.14009E+06         0.14456E-09         0.00000E+00
    0.14456E-09        -0.32694E+06         0.00000E+00
    0.00000E+00         0.00000E+00        -0.37369E+05
 
    0.14009E+06         0.43368E-09         0.00000E+00
    0.43368E-09        -0.32694E+06         0.00000E+00
    0.00000E+00         0.00000E+00        -0.37369E+05
 
    0.14009E+06        -0.43368E-09         0.00000E+00
   -0.43368E-09        -0.32694E+06         0.00000E+00
    0.00000E+00         0.00000E+00        -0.37369E+05
 
    0.14009E+06         0.28912E-09         0.00000E+00
    0.28912E-09        -0.32694E+06         0.00000E+00
    0.00000E+00         0.00000E+00        -0.37369E+05
 
    0.14009E+06        -0.72280E-09         0.00000E+00
   -0.72280E-09        -0.32694E+06         0.00000E+00
    0.00000E+00         0.00000E+00        -0.37369E+05
 
    0.14009E+06         0.21684E-09         0.00000E+00
    0.21684E-09        -0.32694E+06         0.00000E+00
    0.00000E+00         0.00000E+00        -0.37369E+05
 
    0.14009E+06         0.28912E-09         0.00000E+00
    0.28912E-09        -0.32694E+06         0.00000E+00
    0.00000E+00         0.00000E+00        -0.37369E+05
 
    0.14009E+06        -0.14456E-09         0.00000E+00
   -0.14456E-09        -0.32694E+06         0.00000E+00
    0.00000E+00         0.00000E+00        -0.37369E+05
 
    0.14009E+06         0.14456E-09         0.00000E+00
    0.14456E-09        -0.32694E+06         0.00000E+00
    0.00000E+00         0.00000E+00        -0.37369E+05
 
    0.14009E+06         0.43368E-09         0.00000E+00
    0.43368E-09        -0.32694E+06         0.00000E+00
    0.00000E+00         0.00000E+00        -0.37369E+05
 
    0.13526E+06        -0.43368E-09         0.00000E+00
   -0.43368E-09        -0.32815E+06         0.00000E+00
    0.00000E+00         0.00000E+00        -0.38578E+05
 
    0.13526E+06         0.57824E-09         0.00000E+00
    0.57824E-09        -0.32815E+06         0.00000E+00
    0.00000E+00         0.00000E+00        -0.38578E+05
 
    0.13526E+06         0.14456E-09         0.00000E+00
    0.14456E-09        -0.32815E+06         0.00000E+00
    0.00000E+00         0.00000E+00        -0.38578E+05
 
    0.13526E+06         0.14456E-09         0.00000E+00
    0.14456E-09        -0.32815E+06         0.00000E+00
    0.00000E+00         0.00000E+00        -0.38578E+05
 
    0.13526E+06        -0.72280E-09         0.00000E+00
   -0.72280E-09        -0.32815E+06         0.00000E+00
    0.00000E+00         0.00000E+00        -0.38578E+05
 
    0.13526E+06         0.28912E-09         0.00000E+00
    0.28912E-09        -0.32815E+06         0.00000E+00
    0.00000E+00         0.00000E+00        -0.38578E+05
 
    0.13526E+06        -0.65052E-09         0.00000E+00
   -0.65052E-09        -0.32815E+06         0.00000E+00
    0.00000E+00         0.00000E+00        -0.38578E+05
 
    0.13526E+06         0.00000E+00         0.00000E+00
    0.00000E+00        -0.32815E+06         0.00000E+00
    0.00000E+00         0.00000E+00        -0.38578E+05
 
    0.13526E+06        -0.72280E-10         0.00000E+00
   -0.72280E-10        -0.32815E+06         0.00000E+00
    0.00000E+00         0.00000E+00        -0.38578E+05
 
    0.13526E+06         0.28912E-09         0.00000E+00
    0.28912E-09        -0.32815E+06         0.00000E+00
    0.00000E+00         0.00000E+00        -0.38578E+05
 
    0.13526E+06        -0.21684E-09         0.00000E+00
   -0.21684E-09        -0.32815E+06         0.00000E+00
    0.00000E+00         0.00000E+00        -0.38578E+05
 
    0.13526E+06        -0.43368E-09         0.00000E+00
   -0.43368E-09        -0.32815E+06         0.00000E+00
    0.00000E+00         0.00000E+00        -0.38578E+05
 
    0.13526E+06         0.43368E-09         0.00000E+00
    0.43368E-09        -0.32815E+06         0.00000E+00
    0.00000E+00         0.00000E+00        -0.38578E+05
 
    0.13526E+06         0.86736E-09         0.00000E+00
    0.86736E-09        -0.32815E+06         0.00000E+00
    0.00000E+00         0.00000E+00        -0.38578E+05
 
    0.13526E+06         0.14456E-09         0.00000E+00
    0.14456E-09        -0.32815E+06         0.00000E+00
    0.00000E+00         0.00000E+00        -0.38578E+05
 
    0.13031E+06         0.10119E-08         0.00000E+00
    0.10119E-08        -0.32938E+06         0.00000E+00
    0.00000E+00         0.00000E+00        -0.39815E+05
 
    0.13031E+06        -0.43368E-09         0.00000E+00
   -0.43368E-09        -0.32938E+06         0.00000E+00
    0.00000E+00         0.00000E+00        -0.39815E+05
 
    0.13031E+06        -0.14456E-09         0.00000E+00
   -0.14456E-09        -0.32938E+06         0.00000E+00
    0.00000E+00         0.00000E+00        -0.39815E+05
 
    0.13031E+06        -0.10119E-08         0.00000E+00
   -0.10119E-08        -0.32938E+06         0.00000E+00
    0.00000E+00         0.00000E+00        -0.39815E+05
 
    0.13031E+06         0.14456E-08         0.00000E+00
    0.14456E-08        -0.32938E+06         0.00000E+00
    0.00000E+00         0.00000E+00        -0.39815E+05
 
    0.13031E+06        -0.21684E-09         0.00000E+00
   -0.21684E-09        -0.32938E+06         0.00000E+00
    0.00000E+00         0.00000E+00        -0.39815E+05
 
    0.13031E+06        -0.36140E-09         0.00000E+00
   -0.36140E-09        -0.32938E+06         0.00000E+00
    0.00000E+00         0.00000E+00        -0.39815E+05
 
    0.13031E+06         0.43368E-09         0.00000E+00
    0.43368E-09        -0.32938E+06         0.00000E+00
    0.00000E+00         0.00000E+00        -0.39815E+05
 
    0.13031E+06        -0.36140E-09         0.00000E+00
   -0.36140E-09        -0.32938E+06         0.00000E+00
    0.00000E+00         0.00000E+00        -0.39815E+05
 
    0.13031E+06        -0.14456E-09         0.00000E+00
   -0.14456E-09        -0.32938E+06         0.00000E+00
    0.00000E+00         0.00000E+00        -0.39815E+05
 
    0.13031E+06         0.21684E-09         0.00000E+00
    0.21684E-09        -0.32938E+06         0.00000E+00
    0.00000E+00         0.00000E+00        -0.39815E+05
 
    0.13031E+06         0.00000E+00         0.00000E+00
    0.00000E+00        -0.32938E+06         0.00000E+00
    0.00000E+00         0.00000E+00        -0.39815E+05
 
    0.13031E+06        -0.11565E-08         0.00000E+00
   -0.11565E-08        -0.32938E+06         0.00000E+00
    0.00000E+00         0.00000E+00        -0.39815E+05
 
    0.13031E+06        -0.14456E-09         0.00000E+00
   -0.14456E-09        -0.32938E+06         0.00000E+00
    0.00000E+00         0.00000E+00        -0.39815E+05
 
    0.13031E+06         0.13010E-08         0.00000E+00
    0.13010E-08        -0.32938E+06         0.00000E+00
    0.00000E+00         0.00000E+00        -0.39815E+05
 
    0.12524E+06        -0.18793E-08         0.00000E+00
   -0.18793E-08        -0.33065E+06         0.00000E+00
    0.00000E+00         0.00000E+00        -0.41082E+05
 
    0.12524E+06         0.14456E-08         0.00000E+00
    0.14456E-08        -0.33065E+06         0.00000E+00
    0.00000E+00         0.00000E+00        -0.41082E+05
 
    0.12524E+06         0.00000E+00         0.00000E+00
    0.00000E+00        -0.33065E+06         0.00000E+00
    0.00000E+00         0.00000E+00        -0.41082E+05
 
    0.12524E+06        -0.14456E-08         0.00000E+00
   -0.14456E-08        -0.33065E+06         0.00000E+00
    0.00000E+00         0.00000E+00        -0.41082E+05
 
    0.12524E+06         0.93964E-09         0.00000E+00
    0.93964E-09        -0.33065E+06         0.00000E+00
    0.00000E+00         0.00000E+00        -0.41082E+05
 
    0.12524E+06         0.17347E-08         0.00000E+00
    0.17347E-08        -0.33065E+06         0.00000E+00
    0.00000E+00         0.00000E+00        -0.41082E+05
 
    0.12524E+06        -0.16624E-08         0.00000E+00
   -0.16624E-08        -0.33065E+06         0.00000E+00
    0.00000E+00         0.00000E+00        -0.41082E+05
 
    0.12524E+06         0.43368E-09         0.00000E+00
    0.43368E-09        -0.33065E+06         0.00000E+00
    0.00000E+00         0.00000E+00        -0.41082E+05
 
    0.12524E+06        -0.10842E-08         0.00000E+00
   -0.10842E-08        -0.33065E+06         0.00000E+00
    0.00000E+00         0.00000E+00        -0.41082E+05
 
    0.12524E+06         0.43368E-09         0.00000E+00
    0.43368E-09        -0.33065E+06         0.00000E+00
    0.00000E+00         0.00000E+00        -0.41082E+05
 
    0.12524E+06        -0.10119E-08         0.00000E+00
   -0.10119E-08        -0.33065E+06         0.00000E+00
    0.00000E+00         0.00000E+00        -0.41082E+05
 
    0.12524E+06        -0.43368E-09         0.00000E+00
   -0.43368E-09        -0.33065E+06         0.00000E+00
    0.00000E+00         0.00000E+00        -0.41082E+05
 
    0.12524E+06         0.10119E-08         0.00000E+00
    0.10119E-08        -0.33065E+06         0.00000E+00
    0.00000E+00         0.00000E+00        -0.41082E+05
 
    0.12524E+06        -0.28912E-09         0.00000E+00
   -0.28912E-09        -0.33065E+06         0.00000E+00
    0.00000E+00         0.00000E+00        -0.41082E+05
 
    0.12524E+06        -0.72280E-09         0.00000E+00
   -0.72280E-09        -0.33065E+06         0.00000E+00
    0.00000E+00         0.00000E+00        -0.41082E+05
 
    0.12006E+06        -0.36140E-09         0.00000E+00
   -0.36140E-09        -0.33194E+06         0.00000E+00
    0.00000E+00         0.00000E+00        -0.42377E+05
 
    0.12006E+06         0.00000E+00         0.00000E+00
    0.00000E+00        -0.33194E+06         0.00000E+00
    0.00000E+00         0.00000E+00        -0.42377E+05
 
    0.12006E+06        -0.14456E-09         0.00000E+00
   -0.14456E-09        -0.33194E+06         0.00000E+00
    0.00000E+00         0.00000E+00        -0.42377E+05
 
    0.12006E+06        -0.11565E-08         0.00000E+00
   -0.11565E-08        -0.33194E+06         0.00000E+00
    0.00000E+00         0.00000E+00        -0.42377E+05
 
    0.12006E+06         0.13010E-08         0.00000E+00
    0.13010E-08        -0.33194E+06         0.00000E+00
    0.00000E+00         0.00000E+00        -0.42377E+05
 
    0.12006E+06         0.17347E-08         0.00000E+00
    0.17347E-08        -0.33194E+06         0.00000E+00
    0.00000E+00         0.00000E+00        -0.42377E+05
 
    0.12006E+06        -0.86736E-09         0.00000E+00
   -0.86736E-09        -0.33194E+06         0.00000E+00
    0.00000E+00         0.00000E+00        -0.42377E+05
 
    0.12006E+06        -0.57824E-09         0.00000E+00
   -0.57824E-09        -0.33194E+06         0.00000E+00
    0.00000E+00         0.00000E+00        -0.42377E+05
 
    0.12006E+06         0.79508E-09         0.00000E+00
    0.79508E-09        -0.33194E+06         0.00000E+00
    0.00000E+00         0.00000E+00        -0.42377E+05
 
    0.12006E+06         0.57824E-09         0.00000E+00
    0.57824E-09        -0.33194E+06         0.00000E+00
    0.00000E+00         0.00000E+00        -0.42377E+05
 
    0.12006E+06        -0.43368E-09         0.00000E+00
   -0.43368E-09        -0.33194E+06         0.00000E+00
    0.00000E+00         0.00000E+00        -0.42377E+05
 
    0.12006E+06         0.13010E-08         0.00000E+00
    0.13010E-08        -0.33194E+06         0.00000E+00
    0.00000E+00         0.00000E+00        -0.42377E+05
 
    0.12006E+06         0.72280E-09         0.00000E+00
    0.72280E-09        -0.33194E+06         0.00000E+00
    0.00000E+00         0.00000E+00        -0.42377E+05
 
    0.12006E+06         0.14456E-09         0.00000E+00
    0.14456E-09        -0.33194E+06         0.00000E+00
    0.00000E+00         0.00000E+00        -0.42377E+05
 
    0.12006E+06         0.72280E-09         0.00000E+00
    0.72280E-09        -0.33194E+06         0.00000E+00
    0.00000E+00         0.00000E+00        -0.42377E+05
 
    0.11477E+06         0.11565E-08         0.00000E+00
    0.11565E-08        -0.33327E+06         0.00000E+00
    0.00000E+00         0.00000E+00        -0.43700E+05
 
    0.11477E+06        -0.57824E-09         0.00000E+00
   -0.57824E-09        -0.33327E+06         0.00000E+00
    0.00000E+00         0.00000E+00        -0.43700E+05
 
    0.11477E+06         0.57824E-09         0.00000E+00
    0.57824E-09        -0.33327E+06         0.00000E+00
    0.00000E+00         0.00000E+00        -0.43700E+05
 
    0.11477E+06        -0.43368E-09         0.00000E+00
   -0.43368E-09        -0.33327E+06         0.00000E+00
    0.00000E+00         0.00000E+00        -0.43700E+05
 
    0.11477E+06         0.11565E-08         0.00000E+00
    0.11565E-08        -0.33327E+06         0.00000E+00
    0.00000E+00         0.00000E+00        -0.43700E+05
 
    0.11477E+06        -0.50596E-09         0.00000E+00
   -0.50596E-09        -0.33327E+06         0.00000E+00
    0.00000E+00         0.00000E+00        -0.43700E+05
 
    0.11477E+06        -0.10842E-08         0.00000E+00
   -0.10842E-08        -0.33327E+06         0.00000E+00
    0.00000E+00         0.00000E+00        -0.43700E+05
 
    0.11477E+06         0.36140E-09         0.00000E+00
    0.36140E-09        -0.33327E+06         0.00000E+00
    0.00000E+00         0.00000E+00        -0.43700E+05
 
    0.11477E+06        -0.21684E-09         0.00000E+00
   -0.21684E-09        -0.33327E+06         0.00000E+00
    0.00000E+00         0.00000E+00        -0.43700E+05
 
    0.11477E+06         0.43368E-09         0.00000E+00
    0.43368E-09        -0.33327E+06         0.00000E+00
    0.00000E+00         0.00000E+00        -0.43700E+05
 
    0.11477E+06        -0.14456E-09         0.00000E+00
   -0.14456E-09        -0.33327E+06         0.00000E+00
    0.00000E+00         0.00000E+00        -0.43700E+05
 
    0.11477E+06         0.10119E-08         0.00000E+00
    0.10119E-08        -0.33327E+06         0.00000E+00
    0.00000E+00         0.00000E+00        -0.43700E+05
 
    0.11477E+06         0.00000E+00         0.00000E+00
    0.00000E+00        -0.33327E+06         0.00000E+00
    0.00000E+00         0.00000E+00        -0.43700E+05
 
    0.11477E+06         0.86736E-09         0.00000E+00
    0.86736E-09        -0.33327E+06         0.00000E+00
    0.00000E+00         0.00000E+00        -0.43700E+05
 
    0.11477E+06         0.14456E-09         0.00000E+00
    0.14456E-09        -0.33327E+06         0.00000E+00
    0.00000E+00         0.00000E+00        -0.43700E+05
 
    0.10936E+06        -0.14456E-09         0.00000E+00
   -0.14456E-09        -0.33462E+06         0.00000E+00
    0.00000E+00         0.00000E+00        -0.45051E+05
 
    0.10936E+06        -0.14456E-09         0.00000E+00
   -0.14456E-09        -0.33462E+06         0.00000E+00
    0.00000E+00         0.00000E+00        -0.45051E+05
 
    0.10936E+06         0.14456E-09         0.00000E+00
    0.14456E-09        -0.33462E+06         0.00000E+00
    0.00000E+00         0.00000E+00        -0.45051E+05
 
    0.10936E+06        -0.14456E-09         0.00000E+00
   -0.14456E-09        -0.33462E+06         0.00000E+00
    0.00000E+00         0.00000E+00        -0.45051E+05
 
    0.10936E+06         0.28912E-09         0.00000E+00
    0.28912E-09        -0.33462E+06         0.00000E+00
    0.00000E+00         0.00000E+00        -0.45051E+05
 
    0.10936E+06         0.57824E-09         0.00000E+00
    0.57824E-09        -0.33462E+06         0.00000E+00
    0.00000E+00         0.00000E+00        -0.45051E+05
 
    0.10936E+06        -0.14456E-09         0.00000E+00
   -0.14456E-09        -0.33462E+06         0.00000E+00
    0.00000E+00         0.00000E+00        -0.45051E+05
 
    0.10936E+06        -0.13010E-08         0.00000E+00
   -0.13010E-08        -0.33462E+06         0.00000E+00
    0.00000E+00         0.00000E+00        -0.45051E+05
 
    0.10936E+06         0.10119E-08         0.00000E+00
    0.10119E-08        -0.33462E+06         0.00000E+00
    0.00000E+00         0.00000E+00        -0.45051E+05
 
    0.10936E+06        -0.14456E-09         0.00000E+00
   -0.14456E-09        -0.33462E+06         0.00000E+00
    0.00000E+00         0.00000E+00        -0.45051E+05
 
    0.10936E+06         0.28912E-09         0.00000E+00
    0.28912E-09        -0.33462E+06         0.00000E+00
    0.00000E+00         0.00000E+00        -0.45051E+05
 
    0.10936E+06        -0.11565E-08         0.00000E+00
   -0.11565E-08        -0.33462E+06         0.00000E+00
    0.00000E+00         0.00000E+00        -0.45051E+05
 
    0.10936E+06        -0.28912E-09         0.00000E+00
   -0.28912E-09        -0.33462E+06         0.00000E+00
    0.00000E+00         0.00000E+00        -0.45051E+05
 
    0.10936E+06        -0.10119E-08         0.00000E+00
   -0.10119E-08        -0.33462E+06         0.00000E+00
    0.00000E+00         0.00000E+00        -0.45051E+05
 
    0.10936E+06         0.14456E-09         0.00000E+00
    0.14456E-09        -0.33462E+06         0.00000E+00
    0.00000E+00         0.00000E+00        -0.45051E+05
 
    0.10385E+06        -0.43368E-09         0.00000E+00
   -0.43368E-09        -0.33600E+06         0.00000E+00
    0.00000E+00         0.00000E+00        -0.46429E+05
 
    0.10385E+06         0.72280E-09         0.00000E+00
    0.72280E-09        -0.33600E+06         0.00000E+00
    0.00000E+00         0.00000E+00        -0.46429E+05
 
    0.10385E+06         0.11565E-08         0.00000E+00
    0.11565E-08        -0.33600E+06         0.00000E+00
    0.00000E+00         0.00000E+00        -0.46429E+05
 
    0.10385E+06        -0.86736E-09         0.00000E+00
   -0.86736E-09        -0.33600E+06         0.00000E+00
    0.00000E+00         0.00000E+00        -0.46429E+05
 
    0.10385E+06        -0.72280E-10         0.00000E+00
   -0.72280E-10        -0.33600E+06         0.00000E+00
    0.00000E+00         0.00000E+00        -0.46429E+05
 
    0.10385E+06        -0.21684E-09         0.00000E+00
   -0.21684E-09        -0.33600E+06         0.00000E+00
    0.00000E+00         0.00000E+00        -0.46429E+05
 
    0.10385E+06         0.14456E-09         0.00000E+00
    0.14456E-09        -0.33600E+06         0.00000E+00
    0.00000E+00         0.00000E+00        -0.46429E+05
 
    0.10385E+06         0.14456E-09         0.00000E+00
    0.14456E-09        -0.33600E+06         0.00000E+00
    0.00000E+00         0.00000E+00        -0.46429E+05
 
    0.10385E+06         0.10119E-08         0.00000E+00
    0.10119E-08        -0.33600E+06         0.00000E+00
    0.00000E+00         0.00000E+00        -0.46429E+05
 
    0.10385E+06         0.57824E-09         0.00000E+00
    0.57824E-09        -0.33600E+06         0.00000E+00
    0.00000E+00         0.00000E+00        -0.46429E+05
 
    0.10385E+06         0.28912E-09         0.00000E+00
    0.28912E-09        -0.33600E+06         0.00000E+00
    0.00000E+00         0.00000E+00        -0.46429E+05
 
    0.10385E+06         0.10119E-08         0.00000E+00
    0.10119E-08        -0.33600E+06         0.00000E+00
    0.00000E+00         0.00000E+00        -0.46429E+05
 
    0.10385E+06         0.57824E-09         0.00000E+00
    0.57824E-09        -0.33600E+06         0.00000E+00
    0.00000E+00         0.00000E+00        -0.46429E+05
 
    0.10385E+06         0.28912E-09         0.00000E+00
    0.28912E-09        -0.33600E+06         0.00000E+00
    0.00000E+00         0.00000E+00        -0.46429E+05
 
    0.10385E+06         0.18793E-08         0.00000E+00
    0.18793E-08        -0.33600E+06         0.00000E+00
    0.00000E+00         0.00000E+00        -0.46429E+05
 
    0.98229E+05        -0.43368E-09         0.00000E+00
   -0.43368E-09        -0.33740E+06         0.00000E+00
    0.00000E+00         0.00000E+00        -0.47835E+05
 
    0.98229E+05        -0.57824E-09         0.00000E+00
   -0.57824E-09        -0.33740E+06         0.00000E+00
    0.00000E+00         0.00000E+00        -0.47835E+05
 
    0.98229E+05         0.14456E-09         0.00000E+00
    0.14456E-09        -0.33740E+06         0.00000E+00
    0.00000E+00         0.00000E+00        -0.47835E+05
 
    0.98229E+05         0.57824E-09         0.00000E+00
    0.57824E-09        -0.33740E+06         0.00000E+00
    0.00000E+00         0.00000E+00        -0.47835E+05
 
    0.98229E+05         0.43368E-09         0.00000E+00
    0.43368E-09        -0.33740E+06         0.00000E+00
    0.00000E+00         0.00000E+00        -0.47835E+05
 
    0.98229E+05         0.14456E-09         0.00000E+00
    0.14456E-09        -0.33740E+06         0.00000E+00
    0.00000E+00         0.00000E+00        -0.47835E+05
 
    0.98229E+05        -0.14456E-09         0.00000E+00
   -0.14456E-09        -0.33740E+06         0.00000E+00
    0.00000E+00         0.00000E+00        -0.47835E+05
 
    0.98229E+05        -0.10842E-08         0.00000E+00
   -0.10842E-08        -0.33740E+06         0.00000E+00
    0.00000E+00         0.00000E+00        -0.47835E+05
 
    0.98229E+05         0.00000E+00         0.00000E+00
    0.00000E+00        -0.33740E+06         0.00000E+00
    0.00000E+00         0.00000E+00        -0.47835E+05
 
    0.98229E+05         0.72280E-09         0.00000E+00
    0.72280E-09        -0.33740E+06         0.00000E+00
    0.00000E+00         0.00000E+00        -0.47835E+05
 
    0.98229E+05         0.57824E-09         0.00000E+00
    0.57824E-09        -0.33740E+06         0.00000E+00
    0.00000E+00         0.00000E+00        -0.47835E+05
 
    0.98229E+05         0.23130E-08         0.00000E+00
    0.23130E-08        -0.33740E+06         0.00000E+00
    0.00000E+00         0.00000E+00        -0.47835E+05
 
    0.98229E+05        -0.18793E-08         0.00000E+00
   -0.18793E-08        -0.33740E+06         0.00000E+00
    0.00000E+00         0.00000E+00        -0.47835E+05
 
    0.98229E+05         0.28912E-09         0.00000E+00
    0.28912E-09        -0.33740E+06         0.00000E+00
    0.00000E+00         0.00000E+00        -0.47835E+05
 
    0.98229E+05         0.57824E-09         0.00000E+00
    0.57824E-09        -0.33740E+06         0.00000E+00
    0.00000E+00         0.00000E+00        -0.47835E+05
 
    0.92503E+05         0.00000E+00         0.00000E+00
    0.00000E+00        -0.33883E+06         0.00000E+00
    0.00000E+00         0.00000E+00        -0.49266E+05
 
    0.92503E+05        -0.43368E-09         0.00000E+00
   -0.43368E-09        -0.33883E+06         0.00000E+00
    0.00000E+00         0.00000E+00        -0.49266E+05
 
    0.92503E+05         0.14456E-09         0.00000E+00
    0.14456E-09        -0.33883E+06         0.00000E+00
    0.00000E+00         0.00000E+00        -0.49266E+05
 
    0.92503E+05         0.72280E-09         0.00000E+00
    0.72280E-09        -0.33883E+06         0.00000E+00
    0.00000E+00         0.00000E+00        -0.49266E+05
 
    0.92503E+05        -0.72280E-10         0.00000E+00
   -0.72280E-10        -0.33883E+06         0.00000E+00
    0.00000E+00         0.00000E+00        -0.49266E+05
 
    0.92503E+05         0.14456E-09         0.00000E+00
    0.14456E-09        -0.33883E+06         0.00000E+00
    0.00000E+00         0.00000E+00        -0.49266E+05
 
    0.92503E+05         0.43368E-09         0.00000E+00
    0.43368E-09        -0.33883E+06         0.00000E+00
    0.00000E+00         0.00000E+00        -0.49266E+05
 
    0.92503E+05         0.00000E+00         0.00000E+00
    0.00000E+00        -0.33883E+06         0.00000E+00
    0.00000E+00         0.00000E+00        -0.49266E+05
 
    0.92503E+05         0.57824E-09         0.00000E+00
    0.57824E-09        -0.33883E+06         0.00000E+00
    0.00000E+00         0.00000E+00        -0.49266E+05
 
    0.92503E+05        -0.28912E-09         0.00000E+00
   -0.28912E-09        -0.33883E+06         0.00000E+00
    0.00000E+00         0.00000E+00        -0.49266E+05
 
    0.92503E+05        -0.72280E-09         0.00000E+00
   -0.72280E-09        -0.33883E+06         0.00000E+00
    0.00000E+00         0.00000E+00        -0.49266E+05
 
    0.92503E+05         0.57824E-09         0.00000E+00
    0.57824E-09        -0.33883E+06         0.00000E+00
    0.00000E+00         0.00000E+00        -0.49266E+05
 
    0.92503E+05        -0.86736E-09         0.00000E+00
   -0.86736E-09        -0.33883E+06         0.00000E+00
    0.00000E+00         0.00000E+00        -0.49266E+05
 
    0.92503E+05        -0.28912E-09         0.00000E+00
   -0.28912E-09        -0.33883E+06         0.00000E+00
    0.00000E+00         0.00000E+00        -0.49266E+05
 
    0.92503E+05         0.00000E+00         0.00000E+00
    0.00000E+00        -0.33883E+06         0.00000E+00
    0.00000E+00         0.00000E+00        -0.49266E+05
 
    0.86673E+05         0.00000E+00         0.00000E+00
    0.00000E+00        -0.34029E+06         0.00000E+00
    0.00000E+00         0.00000E+00        -0.50724E+05
 
    0.86673E+05        -0.14456E-09         0.00000E+00
   -0.14456E-09        -0.34029E+06         0.00000E+00
    0.00000E+00         0.00000E+00        -0.50724E+05
 
    0.86673E+05         0.72280E-10         0.00000E+00
    0.72280E-10        -0.34029E+06         0.00000E+00
    0.00000E+00         0.00000E+00        -0.50724E+05
 
    0.86673E+05         0.12288E-08         0.00000E+00
    0.12288E-08        -0.34029E+06         0.00000E+00
    0.00000E+00         0.00000E+00        -0.50724E+05
 
    0.86673E+05         0.21684E-09         0.00000E+00
    0.21684E-09        -0.34029E+06         0.00000E+00
    0.00000E+00         0.00000E+00        -0.50724E+05
 
    0.86673E+05        -0.11565E-08         0.00000E+00
   -0.11565E-08        -0.34029E+06         0.00000E+00
    0.00000E+00         0.00000E+00        -0.50724E+05
 
    0.86673E+05         0.10842E-08         0.00000E+00
    0.10842E-08        -0.34029E+06         0.00000E+00
    0.00000E+00         0.00000E+00        -0.50724E+05
 
    0.86673E+05        -0.72280E-09         0.00000E+00
   -0.72280E-09        -0.34029E+06         0.00000E+00
    0.00000E+00         0.00000E+00        -0.50724E+05
 
    0.86673E+05         0.86736E-09         0.00000E+00
    0.86736E-09        -0.34029E+06         0.00000E+00
    0.00000E+00         0.00000E+00        -0.50724E+05
 
    0.86673E+05        -0.28912E-09         0.00000E+00
   -0.28912E-09        -0.34029E+06         0.00000E+00
    0.00000E+00         0.00000E+00        -0.50724E+05
 
    0.86673E+05         0.00000E+00         0.00000E+00
    0.00000E+00        -0.34029E+06         0.00000E+00
    0.00000E+00         0.00000E+00        -0.50724E+05
 
    0.86673E+05         0.14456E-09         0.00000E+00
    0.14456E-09        -0.34029E+06         0.00000E+00
    0.00000E+00         0.00000E+00        -0.50724E+05
 
    0.86673E+05        -0.28912E-09         0.00000E+00
   -0.28912E-09        -0.34029E+06         0.00000E+00
    0.00000E+00         0.00000E+00        -0.50724E+05
 
    0.86673E+05        -0.18793E-08         0.00000E+00
   -0.18793E-08        -0.34029E+06         0.00000E+00
    0.00000E+00         0.00000E+00        -0.50724E+05
 
    0.86673E+05         0.72280E-09         0.00000E+00
    0.72280E-09        -0.34029E+06         0.00000E+00
    0.00000E+00         0.00000E+00        -0.50724E+05
 
    0.80744E+05        -0.43368E-09         0.00000E+00
   -0.43368E-09        -0.34177E+06         0.00000E+00
    0.00000E+00         0.00000E+00        -0.52206E+05
 
    0.80744E+05        -0.21684E-09         0.00000E+00
   -0.21684E-09        -0.34177E+06         0.00000E+00
    0.00000E+00         0.00000E+00        -0.52206E+05
 
    0.80744E+05         0.50596E-09         0.00000E+00
    0.50596E-09        -0.34177E+06         0.00000E+00
    0.00000E+00         0.00000E+00        -0.52206E+05
 
    0.80744E+05         0.72280E-09         0.00000E+00
    0.72280E-09        -0.34177E+06         0.00000E+00
    0.00000E+00         0.00000E+00        -0.52206E+05
 
    0.80744E+05         0.50596E-09         0.00000E+00
    0.50596E-09        -0.34177E+06         0.00000E+00
    0.00000E+00         0.00000E+00        -0.52206E+05
 
    0.80744E+05        -0.17347E-08         0.00000E+00
   -0.17347E-08        -0.34177E+06         0.00000E+00
    0.00000E+00         0.00000E+00        -0.52206E+05
 
    0.80744E+05        -0.72280E-10         0.00000E+00
   -0.72280E-10        -0.34177E+06         0.00000E+00
    0.00000E+00         0.00000E+00        -0.52206E+05
 
    0.80744E+05        -0.72280E-09         0.00000E+00
   -0.72280E-09        -0.34177E+06         0.00000E+00
    0.00000E+00         0.00000E+00        -0.52206E+05
 
    0.80744E+05        -0.28912E-09         0.00000E+00
   -0.28912E-09        -0.34177E+06         0.00000E+00
    0.00000E+00         0.00000E+00        -0.52206E+05
 
    0.80744E+05        -0.10119E-08         0.00000E+00
   -0.10119E-08        -0.34177E+06         0.00000E+00
    0.00000E+00         0.00000E+00        -0.52206E+05
 
    0.80744E+05         0.57824E-09         0.00000E+00
    0.57824E-09        -0.34177E+06         0.00000E+00
    0.00000E+00         0.00000E+00        -0.52206E+05
 
    0.80744E+05         0.00000E+00         0.00000E+00
    0.00000E+00        -0.34177E+06         0.00000E+00
    0.00000E+00         0.00000E+00        -0.52206E+05
 
    0.80744E+05         0.20238E-08         0.00000E+00
    0.20238E-08        -0.34177E+06         0.00000E+00
    0.00000E+00         0.00000E+00        -0.52206E+05
 
    0.80744E+05        -0.43368E-09         0.00000E+00
   -0.43368E-09        -0.34177E+06         0.00000E+00
    0.00000E+00         0.00000E+00        -0.52206E+05
 
    0.80744E+05         0.28912E-09         0.00000E+00
    0.28912E-09        -0.34177E+06         0.00000E+00
    0.00000E+00         0.00000E+00        -0.52206E+05
 
    0.74719E+05         0.72280E-10         0.00000E+00
    0.72280E-10        -0.34328E+06         0.00000E+00
    0.00000E+00         0.00000E+00        -0.53712E+05
 
    0.74719E+05        -0.20238E-08         0.00000E+00
   -0.20238E-08        -0.34328E+06         0.00000E+00
    0.00000E+00         0.00000E+00        -0.53712E+05
 
    0.74719E+05        -0.28912E-09         0.00000E+00
   -0.28912E-09        -0.34328E+06         0.00000E+00
    0.00000E+00         0.00000E+00        -0.53712E+05
 
    0.74719E+05         0.10842E-08         0.00000E+00
    0.10842E-08        -0.34328E+06         0.00000E+00
    0.00000E+00         0.00000E+00        -0.53712E+05
 
    0.74719E+05        -0.79508E-09         0.00000E+00
   -0.79508E-09        -0.34328E+06         0.00000E+00
    0.00000E+00         0.00000E+00        -0.53712E+05
 
    0.74719E+05         0.00000E+00         0.00000E+00
    0.00000E+00        -0.34328E+06         0.00000E+00
    0.00000E+00         0.00000E+00        -0.53712E+05
 
    0.74719E+05        -0.13733E-08         0.00000E+00
   -0.13733E-08        -0.34328E+06         0.00000E+00
    0.00000E+00         0.00000E+00        -0.53712E+05
 
    0.74719E+05         0.28912E-09         0.00000E+00
    0.28912E-09        -0.34328E+06         0.00000E+00
    0.00000E+00         0.00000E+00        -0.53712E+05
 
    0.74719E+05        -0.17347E-08         0.00000E+00
   -0.17347E-08        -0.34328E+06         0.00000E+00
    0.00000E+00         0.00000E+00        -0.53712E+05
 
    0.74719E+05        -0.20238E-08         0.00000E+00
   -0.20238E-08        -0.34328E+06         0.00000E+00
    0.00000E+00         0.00000E+00        -0.53712E+05
 
    0.74719E+05         0.14456E-09         0.00000E+00
    0.14456E-09        -0.34328E+06         0.00000E+00
    0.00000E+00         0.00000E+00        -0.53712E+05
 
    0.74719E+05         0.14456E-09         0.00000E+00
    0.14456E-09        -0.34328E+06         0.00000E+00
    0.00000E+00         0.00000E+00        -0.53712E+05
 
    0.74719E+05         0.13010E-08         0.00000E+00
    0.13010E-08        -0.34328E+06         0.00000E+00
    0.00000E+00         0.00000E+00        -0.53712E+05
 
    0.74719E+05         0.14456E-09         0.00000E+00
    0.14456E-09        -0.34328E+06         0.00000E+00
    0.00000E+00         0.00000E+00        -0.53712E+05
 
    0.74719E+05         0.14456E-09         0.00000E+00
    0.14456E-09        -0.34328E+06         0.00000E+00
    0.00000E+00         0.00000E+00        -0.53712E+05
 
    0.68601E+05        -0.72280E-09         0.00000E+00
   -0.72280E-09        -0.34481E+06         0.00000E+00
    0.00000E+00         0.00000E+00        -0.55242E+05
 
    0.68601E+05         0.17347E-08         0.00000E+00
    0.17347E-08        -0.34481E+06         0.00000E+00
    0.00000E+00         0.00000E+00        -0.55242E+05
 
    0.68601E+05        -0.12288E-08         0.00000E+00
   -0.12288E-08        -0.34481E+06         0.00000E+00
    0.00000E+00         0.00000E+00        -0.55242E+05
 
    0.68601E+05        -0.43368E-09         0.00000E+00
   -0.43368E-09        -0.34481E+06         0.00000E+00
    0.00000E+00         0.00000E+00        -0.55242E+05
 
    0.68601E+05        -0.28912E-09         0.00000E+00
   -0.28912E-09        -0.34481E+06         0.00000E+00
    0.00000E+00         0.00000E+00        -0.55242E+05
 
    0.68601E+05        -0.72280E-09         0.00000E+00
   -0.72280E-09        -0.34481E+06         0.00000E+00
    0.00000E+00         0.00000E+00        -0.55242E+05
 
    0.68601E+05        -0.43368E-09         0.00000E+00
   -0.43368E-09        -0.34481E+06         0.00000E+00
    0.00000E+00         0.00000E+00        -0.55242E+05
 
    0.68601E+05        -0.14456E-09         0.00000E+00
   -0.14456E-09        -0.34481E+06         0.00000E+00
    0.00000E+00         0.00000E+00        -0.55242E+05
 
    0.68601E+05        -0.72280E-09         0.00000E+00
   -0.72280E-09        -0.34481E+06         0.00000E+00
    0.00000E+00         0.00000E+00        -0.55242E+05
 
    0.68601E+05         0.10119E-08         0.00000E+00
    0.10119E-08        -0.34481E+06         0.00000E+00
    0.00000E+00         0.00000E+00        -0.55242E+05
 
    0.68601E+05         0.00000E+00         0.00000E+00
    0.00000E+00        -0.34481E+06         0.00000E+00
    0.00000E+00         0.00000E+00        -0.55242E+05
 
    0.68601E+05         0.10119E-08         0.00000E+00
    0.10119E-08        -0.34481E+06         0.00000E+00
    0.00000E+00         0.00000E+00        -0.55242E+05
 
    0.68601E+05         0.00000E+00         0.00000E+00
    0.00000E+00        -0.34481E+06         0.00000E+00
    0.00000E+00         0.00000E+00        -0.55242E+05
 
    0.68601E+05         0.17347E-08         0.00000E+00
    0.17347E-08        -0.34481E+06         0.00000E+00
    0.00000E+00         0.00000E+00        -0.55242E+05
 
    0.68601E+05        -0.14456E-08         0.00000E+00
   -0.14456E-08        -0.34481E+06         0.00000E+00
    0.00000E+00         0.00000E+00        -0.55242E+05
 
    0.62395E+05         0.43368E-09         0.00000E+00
    0.43368E-09        -0.34636E+06         0.00000E+00
    0.00000E+00         0.00000E+00        -0.56793E+05
 
    0.62395E+05        -0.86736E-09         0.00000E+00
   -0.86736E-09        -0.34636E+06         0.00000E+00
    0.00000E+00         0.00000E+00        -0.56793E+05
 
    0.62395E+05         0.10119E-08         0.00000E+00
    0.10119E-08        -0.34636E+06         0.00000E+00
    0.00000E+00         0.00000E+00        -0.56793E+05
 
    0.62395E+05        -0.17347E-08         0.00000E+00
   -0.17347E-08        -0.34636E+06         0.00000E+00
    0.00000E+00         0.00000E+00        -0.56793E+05
 
    0.62395E+05         0.43368E-09         0.00000E+00
    0.43368E-09        -0.34636E+06         0.00000E+00
    0.00000E+00         0.00000E+00        -0.56793E+05
 
    0.62395E+05         0.28912E-09         0.00000E+00
    0.28912E-09        -0.34636E+06         0.00000E+00
    0.00000E+00         0.00000E+00        -0.56793E+05
 
    0.62395E+05         0.00000E+00         0.00000E+00
    0.00000E+00        -0.34636E+06         0.00000E+00
    0.00000E+00         0.00000E+00        -0.56793E+05
 
    0.62395E+05        -0.28912E-09         0.00000E+00
   -0.28912E-09        -0.34636E+06         0.00000E+00
    0.00000E+00         0.00000E+00        -0.56793E+05
 
    0.62395E+05        -0.28912E-09         0.00000E+00
   -0.28912E-09        -0.34636E+06         0.00000E+00
    0.00000E+00         0.00000E+00        -0.56793E+05
 
    0.62395E+05         0.13010E-08         0.00000E+00
    0.13010E-08        -0.34636E+06         0.00000E+00
    0.00000E+00         0.00000E+00        -0.56793E+05
 
    0.62395E+05        -0.11565E-08         0.00000E+00
   -0.11565E-08        -0.34636E+06         0.00000E+00
    0.00000E+00         0.00000E+00        -0.56793E+05
 
    0.62395E+05        -0.28912E-09         0.00000E+00
   -0.28912E-09        -0.34636E+06         0.00000E+00
    0.00000E+00         0.00000E+00        -0.56793E+05
 
    0.62395E+05         0.14456E-09         0.00000E+00
    0.14456E-09        -0.34636E+06         0.00000E+00
    0.00000E+00         0.00000E+00        -0.56793E+05
 
    0.62395E+05         0.10119E-08         0.00000E+00
    0.10119E-08        -0.34636E+06         0.00000E+00
    0.00000E+00         0.00000E+00        -0.56793E+05
 
    0.62395E+05        -0.13010E-08         0.00000E+00
   -0.13010E-08        -0.34636E+06         0.00000E+00
    0.00000E+00         0.00000E+00        -0.56793E+05
 
    0.56105E+05        -0.14456E-09         0.00000E+00
   -0.14456E-09        -0.34793E+06         0.00000E+00
    0.00000E+00         0.00000E+00        -0.58366E+05
 
    0.56105E+05        -0.57824E-09         0.00000E+00
   -0.57824E-09        -0.34793E+06         0.00000E+00
    0.00000E+00         0.00000E+00        -0.58366E+05
 
    0.56105E+05         0.14456E-09         0.00000E+00
    0.14456E-09        -0.34793E+06         0.00000E+00
    0.00000E+00         0.00000E+00        -0.58366E+05
 
    0.56105E+05        -0.28912E-09         0.00000E+00
   -0.28912E-09        -0.34793E+06         0.00000E+00
    0.00000E+00         0.00000E+00        -0.58366E+05
 
    0.56105E+05        -0.10119E-08         0.00000E+00
   -0.10119E-08        -0.34793E+06         0.00000E+00
    0.00000E+00         0.00000E+00        -0.58366E+05
 
    0.56105E+05        -0.28912E-09         0.00000E+00
   -0.28912E-09        -0.34793E+06         0.00000E+00
    0.00000E+00         0.00000E+00        -0.58366E+05
 
    0.56105E+05         0.72280E-09         0.00000E+00
    0.72280E-09        -0.34793E+06         0.00000E+00
    0.00000E+00         0.00000E+00        -0.58366E+05
 
    0.56105E+05         0.43368E-09         0.00000E+00
    0.43368E-09        -0.34793E+06         0.00000E+00
    0.00000E+00         0.00000E+00        -0.58366E+05
 
    0.56105E+05         0.20238E-08         0.00000E+00
    0.20238E-08        -0.34793E+06         0.00000E+00
    0.00000E+00         0.00000E+00        -0.58366E+05
 
    0.56105E+05        -0.57824E-09         0.00000E+00
   -0.57824E-09        -0.34793E+06         0.00000E+00
    0.00000E+00         0.00000E+00        -0.58366E+05
 
    0.56105E+05        -0.43368E-09         0.00000E+00
   -0.43368E-09        -0.34793E+06         0.00000E+00
    0.00000E+00         0.00000E+00        -0.58366E+05
 
    0.56105E+05        -0.14456E-09         0.00000E+00
   -0.14456E-09        -0.34793E+06         0.00000E+00
    0.00000E+00         0.00000E+00        -0.58366E+05
 
    0.56105E+05         0.14456E-08         0.00000E+00
    0.14456E-08        -0.34793E+06         0.00000E+00
    0.00000E+00         0.00000E+00        -0.58366E+05
 
    0.56105E+05        -0.11565E-08         0.00000E+00
   -0.11565E-08        -0.34793E+06         0.00000E+00
    0.00000E+00         0.00000E+00        -0.58366E+05
 
    0.56105E+05        -0.86736E-09         0.00000E+00
   -0.86736E-09        -0.34793E+06         0.00000E+00
    0.00000E+00         0.00000E+00        -0.58366E+05
 
    0.49736E+05         0.43368E-09         0.00000E+00
    0.43368E-09        -0.34953E+06         0.00000E+00
    0.00000E+00         0.00000E+00        -0.59958E+05
 
    0.49736E+05         0.72280E-10         0.00000E+00
    0.72280E-10        -0.34953E+06         0.00000E+00
    0.00000E+00         0.00000E+00        -0.59958E+05
 
    0.49736E+05         0.00000E+00         0.00000E+00
    0.00000E+00        -0.34953E+06         0.00000E+00
    0.00000E+00         0.00000E+00        -0.59958E+05
 
    0.49736E+05        -0.28912E-09         0.00000E+00
   -0.28912E-09        -0.34953E+06         0.00000E+00
    0.00000E+00         0.00000E+00        -0.59958E+05
 
    0.49736E+05         0.14456E-09         0.00000E+00
    0.14456E-09        -0.34953E+06         0.00000E+00
    0.00000E+00         0.00000E+00        -0.59958E+05
 
    0.49736E+05        -0.12288E-08         0.00000E+00
   -0.12288E-08        -0.34953E+06         0.00000E+00
    0.00000E+00         0.00000E+00        -0.59958E+05
 
    0.49736E+05         0.57824E-09         0.00000E+00
    0.57824E-09        -0.34953E+06         0.00000E+00
    0.00000E+00         0.00000E+00        -0.59958E+05
 
    0.49736E+05        -0.28912E-09         0.00000E+00
   -0.28912E-09        -0.34953E+06         0.00000E+00
    0.00000E+00         0.00000E+00        -0.59958E+05
 
    0.49736E+05        -0.57824E-09         0.00000E+00
   -0.57824E-09        -0.34953E+06         0.00000E+00
    0.00000E+00         0.00000E+00        -0.59958E+05
 
    0.49736E+05         0.28912E-09         0.00000E+00
    0.28912E-09        -0.34953E+06         0.00000E+00
    0.00000E+00         0.00000E+00        -0.59958E+05
 
    0.49736E+05        -0.28912E-09         0.00000E+00
   -0.28912E-09        -0.34953E+06         0.00000E+00
    0.00000E+00         0.00000E+00        -0.59958E+05
 
    0.49736E+05         0.00000E+00         0.00000E+00
    0.00000E+00        -0.34953E+06         0.00000E+00
    0.00000E+00         0.00000E+00        -0.59958E+05
 
    0.49736E+05         0.43368E-09         0.00000E+00
    0.43368E-09        -0.34953E+06         0.00000E+00
    0.00000E+00         0.00000E+00        -0.59958E+05
 
    0.49736E+05        -0.57824E-09         0.00000E+00
   -0.57824E-09        -0.34953E+06         0.00000E+00
    0.00000E+00         0.00000E+00        -0.59958E+05
 
    0.49736E+05         0.43368E-09         0.00000E+00
    0.43368E-09        -0.34953E+06         0.00000E+00
    0.00000E+00         0.00000E+00        -0.59958E+05
 
    0.43293E+05        -0.86736E-09         0.00000E+00
   -0.86736E-09        -0.35114E+06         0.00000E+00
    0.00000E+00         0.00000E+00        -0.61569E+05
 
    0.43293E+05        -0.43368E-09         0.00000E+00
   -0.43368E-09        -0.35114E+06         0.00000E+00
    0.00000E+00         0.00000E+00        -0.61569E+05
 
    0.43293E+05         0.28912E-09         0.00000E+00
    0.28912E-09        -0.35114E+06         0.00000E+00
    0.00000E+00         0.00000E+00        -0.61569E+05
 
    0.43293E+05        -0.57824E-09         0.00000E+00
   -0.57824E-09        -0.35114E+06         0.00000E+00
    0.00000E+00         0.00000E+00        -0.61569E+05
 
    0.43293E+05         0.28912E-09         0.00000E+00
    0.28912E-09        -0.35114E+06         0.00000E+00
    0.00000E+00         0.00000E+00        -0.61569E+05
 
    0.43293E+05         0.43368E-09         0.00000E+00
    0.43368E-09        -0.35114E+06         0.00000E+00
    0.00000E+00         0.00000E+00        -0.61569E+05
 
    0.43293E+05        -0.57824E-09         0.00000E+00
   -0.57824E-09        -0.35114E+06         0.00000E+00
    0.00000E+00         0.00000E+00        -0.61569E+05
 
    0.43293E+05         0.13010E-08         0.00000E+00
    0.13010E-08        -0.35114E+06         0.00000E+00
    0.00000E+00         0.00000E+00        -0.61569E+05
 
    0.43293E+05         0.00000E+00         0.00000E+00
    0.00000E+00        -0.35114E+06         0.00000E+00
    0.00000E+00         0.00000E+00        -0.61569E+05
 
    0.43293E+05        -0.72280E-09         0.00000E+00
   -0.72280E-09        -0.35114E+06         0.00000E+00
    0.00000E+00         0.00000E+00        -0.61569E+05
 
    0.43293E+05         0.28912E-09         0.00000E+00
    0.28912E-09        -0.35114E+06         0.00000E+00
    0.00000E+00         0.00000E+00        -0.61569E+05
 
    0.43293E+05         0.28912E-09         0.00000E+00
    0.28912E-09        -0.35114E+06         0.00000E+00
    0.00000E+00         0.00000E+00        -0.61569E+05
 
    0.43293E+05         0.28912E-09         0.00000E+00
    0.28912E-09        -0.35114E+06         0.00000E+00
    0.00000E+00         0.00000E+00        -0.61569E+05
 
    0.43293E+05         0.00000E+00         0.00000E+00
    0.00000E+00        -0.35114E+06         0.00000E+00
    0.00000E+00         0.00000E+00        -0.61569E+05
 
    0.43293E+05        -0.14456E-09         0.00000E+00
   -0.14456E-09        -0.35114E+06         0.00000E+00
    0.00000E+00         0.00000E+00        -0.61569E+05
 
    0.36781E+05         0.00000E+00         0.00000E+00
    0.00000E+00        -0.35276E+06         0.00000E+00
    0.00000E+00         0.00000E+00        -0.63197E+05
 
    0.36781E+05         0.65052E-09         0.00000E+00
    0.65052E-09        -0.35276E+06         0.00000E+00
    0.00000E+00         0.00000E+00        -0.63197E+05
 
    0.36781E+05         0.00000E+00         0.00000E+00
    0.00000E+00        -0.35276E+06         0.00000E+00
    0.00000E+00         0.00000E+00        -0.63197E+05
 
    0.36781E+05         0.11565E-08         0.00000E+00
    0.11565E-08        -0.35276E+06         0.00000E+00
    0.00000E+00         0.00000E+00        -0.63197E+05
 
    0.36781E+05        -0.43368E-09         0.00000E+00
   -0.43368E-09        -0.35276E+06         0.00000E+00
    0.00000E+00         0.00000E+00        -0.63197E+05
 
    0.36781E+05         0.43368E-09         0.00000E+00
    0.43368E-09        -0.35276E+06         0.00000E+00
    0.00000E+00         0.00000E+00        -0.63197E+05
 
    0.36781E+05        -0.17347E-08         0.00000E+00
   -0.17347E-08        -0.35276E+06         0.00000E+00
    0.00000E+00         0.00000E+00        -0.63197E+05
 
    0.36781E+05         0.20238E-08         0.00000E+00
    0.20238E-08        -0.35276E+06         0.00000E+00
    0.00000E+00         0.00000E+00        -0.63197E+05
 
    0.36781E+05        -0.18793E-08         0.00000E+00
   -0.18793E-08        -0.35276E+06         0.00000E+00
    0.00000E+00         0.00000E+00        -0.63197E+05
 
    0.36781E+05         0.43368E-09         0.00000E+00
    0.43368E-09        -0.35276E+06         0.00000E+00
    0.00000E+00         0.00000E+00        -0.63197E+05
 
    0.36781E+05         0.43368E-09         0.00000E+00
    0.43368E-09        -0.35276E+06         0.00000E+00
    0.00000E+00         0.00000E+00        -0.63197E+05
 
    0.36781E+05         0.00000E+00         0.00000E+00
    0.00000E+00        -0.35276E+06         0.00000E+00
    0.00000E+00         0.00000E+00        -0.63197E+05
 
    0.36781E+05         0.15902E-08         0.00000E+00
    0.15902E-08        -0.35276E+06         0.00000E+00
    0.00000E+00         0.00000E+00        -0.63197E+05
 
    0.36781E+05        -0.15902E-08         0.00000E+00
   -0.15902E-08        -0.35276E+06         0.00000E+00
    0.00000E+00         0.00000E+00        -0.63197E+05
 
    0.36781E+05         0.21684E-08         0.00000E+00
    0.21684E-08        -0.35276E+06         0.00000E+00
    0.00000E+00         0.00000E+00        -0.63197E+05
 
    0.30206E+05        -0.14456E-08         0.00000E+00
   -0.14456E-08        -0.35441E+06         0.00000E+00
    0.00000E+00         0.00000E+00        -0.64841E+05
 
    0.30206E+05         0.72280E-09         0.00000E+00
    0.72280E-09        -0.35441E+06         0.00000E+00
    0.00000E+00         0.00000E+00        -0.64841E+05
 
    0.30206E+05         0.00000E+00         0.00000E+00
    0.00000E+00        -0.35441E+06         0.00000E+00
    0.00000E+00         0.00000E+00        -0.64841E+05
 
    0.30206E+05         0.14456E-09         0.00000E+00
    0.14456E-09        -0.35441E+06         0.00000E+00
    0.00000E+00         0.00000E+00        -0.64841E+05
 
    0.30206E+05        -0.86736E-09         0.00000E+00
   -0.86736E-09        -0.35441E+06         0.00000E+00
    0.00000E+00         0.00000E+00        -0.64841E+05
 
    0.30206E+05        -0.14456E-09         0.00000E+00
   -0.14456E-09        -0.35441E+06         0.00000E+00
    0.00000E+00         0.00000E+00        -0.64841E+05
 
    0.30206E+05         0.00000E+00         0.00000E+00
    0.00000E+00        -0.35441E+06         0.00000E+00
    0.00000E+00         0.00000E+00        -0.64841E+05
 
    0.30206E+05        -0.28912E-09         0.00000E+00
   -0.28912E-09        -0.35441E+06         0.00000E+00
    0.00000E+00         0.00000E+00        -0.64841E+05
 
    0.30206E+05         0.72280E-09         0.00000E+00
    0.72280E-09        -0.35441E+06         0.00000E+00
    0.00000E+00         0.00000E+00        -0.64841E+05
 
    0.30206E+05        -0.28912E-09         0.00000E+00
   -0.28912E-09        -0.35441E+06         0.00000E+00
    0.00000E+00         0.00000E+00        -0.64841E+05
 
    0.30206E+05         0.28912E-09         0.00000E+00
    0.28912E-09        -0.35441E+06         0.00000E+00
    0.00000E+00         0.00000E+00        -0.64841E+05
 
    0.30206E+05         0.28912E-09         0.00000E+00
    0.28912E-09        -0.35441E+06         0.00000E+00
    0.00000E+00         0.00000E+00        -0.64841E+05
 
    0.30206E+05        -0.28912E-09         0.00000E+00
   -0.28912E-09        -0.35441E+06         0.00000E+00
    0.00000E+00         0.00000E+00        -0.64841E+05
 
    0.30206E+05         0.00000E+00         0.00000E+00
    0.00000E+00        -0.35441E+06         0.00000E+00
    0.00000E+00         0.00000E+00        -0.64841E+05
 
    0.30206E+05         0.28912E-09         0.00000E+00
    0.28912E-09        -0.35441E+06         0.00000E+00
    0.00000E+00         0.00000E+00        -0.64841E+05
 
    0.23573E+05         0.11565E-08         0.00000E+00
    0.11565E-08        -0.35607E+06         0.00000E+00
    0.00000E+00         0.00000E+00        -0.66499E+05
 
    0.23573E+05         0.28912E-09         0.00000E+00
    0.28912E-09        -0.35607E+06         0.00000E+00
    0.00000E+00         0.00000E+00        -0.66499E+05
 
    0.23573E+05        -0.43368E-09         0.00000E+00
   -0.43368E-09        -0.35607E+06         0.00000E+00
    0.00000E+00         0.00000E+00        -0.66499E+05
 
    0.23573E+05         0.14456E-09         0.00000E+00
    0.14456E-09        -0.35607E+06         0.00000E+00
    0.00000E+00         0.00000E+00        -0.66499E+05
 
    0.23573E+05         0.00000E+00         0.00000E+00
    0.00000E+00        -0.35607E+06         0.00000E+00
    0.00000E+00         0.00000E+00        -0.66499E+05
 
    0.23573E+05        -0.14456E-09         0.00000E+00
   -0.14456E-09        -0.35607E+06         0.00000E+00
    0.00000E+00         0.00000E+00        -0.66499E+05
 
    0.23573E+05         0.11565E-08         0.00000E+00
    0.11565E-08        -0.35607E+06         0.00000E+00
    0.00000E+00         0.00000E+00        -0.66499E+05
 
    0.23573E+05        -0.23130E-08         0.00000E+00
   -0.23130E-08        -0.35607E+06         0.00000E+00
    0.00000E+00         0.00000E+00        -0.66499E+05
 
    0.23573E+05        -0.43368E-09         0.00000E+00
   -0.43368E-09        -0.35607E+06         0.00000E+00
    0.00000E+00         0.00000E+00        -0.66499E+05
 
    0.23573E+05         0.00000E+00         0.00000E+00
    0.00000E+00        -0.35607E+06         0.00000E+00
    0.00000E+00         0.00000E+00        -0.66499E+05
 
    0.23573E+05        -0.43368E-09         0.00000E+00
   -0.43368E-09        -0.35607E+06         0.00000E+00
    0.00000E+00         0.00000E+00        -0.66499E+05
 
    0.23573E+05         0.10119E-08         0.00000E+00
    0.10119E-08        -0.35607E+06         0.00000E+00
    0.00000E+00         0.00000E+00        -0.66499E+05
 
    0.23573E+05         0.14456E-09         0.00000E+00
    0.14456E-09        -0.35607E+06         0.00000E+00
    0.00000E+00         0.00000E+00        -0.66499E+05
 
    0.23573E+05         0.28912E-09         0.00000E+00
    0.28912E-09        -0.35607E+06         0.00000E+00
    0.00000E+00         0.00000E+00        -0.66499E+05
 
    0.23573E+05         0.28912E-09         0.00000E+00
    0.28912E-09        -0.35607E+06         0.00000E+00
    0.00000E+00         0.00000E+00        -0.66499E+05
 
    0.16889E+05         0.13010E-08         0.00000E+00
    0.13010E-08        -0.35774E+06         0.00000E+00
    0.00000E+00         0.00000E+00        -0.68170E+05
 
    0.16889E+05        -0.13010E-08         0.00000E+00
   -0.13010E-08        -0.35774E+06         0.00000E+00
    0.00000E+00         0.00000E+00        -0.68170E+05
 
    0.16889E+05         0.72280E-09         0.00000E+00
    0.72280E-09        -0.35774E+06         0.00000E+00
    0.00000E+00         0.00000E+00        -0.68170E+05
 
    0.16889E+05         0.00000E+00         0.00000E+00
    0.00000E+00        -0.35774E+06         0.00000E+00
    0.00000E+00         0.00000E+00        -0.68170E+05
 
    0.16889E+05         0.12288E-08         0.00000E+00
    0.12288E-08        -0.35774E+06         0.00000E+00
    0.00000E+00         0.00000E+00        -0.68170E+05
 
    0.16889E+05         0.28912E-09         0.00000E+00
    0.28912E-09        -0.35774E+06         0.00000E+00
    0.00000E+00         0.00000E+00        -0.68170E+05
 
    0.16889E+05         0.14456E-08         0.00000E+00
    0.14456E-08        -0.35774E+06         0.00000E+00
    0.00000E+00         0.00000E+00        -0.68170E+05
 
    0.16889E+05        -0.23130E-08         0.00000E+00
   -0.23130E-08        -0.35774E+06         0.00000E+00
    0.00000E+00         0.00000E+00        -0.68170E+05
 
    0.16889E+05        -0.57824E-09         0.00000E+00
   -0.57824E-09        -0.35774E+06         0.00000E+00
    0.00000E+00         0.00000E+00        -0.68170E+05
 
    0.16889E+05        -0.14456E-09         0.00000E+00
   -0.14456E-09        -0.35774E+06         0.00000E+00
    0.00000E+00         0.00000E+00        -0.68170E+05
 
    0.16889E+05        -0.86736E-09         0.00000E+00
   -0.86736E-09        -0.35774E+06         0.00000E+00
    0.00000E+00         0.00000E+00        -0.68170E+05
 
    0.16889E+05        -0.57824E-09         0.00000E+00
   -0.57824E-09        -0.35774E+06         0.00000E+00
    0.00000E+00         0.00000E+00        -0.68170E+05
 
    0.16889E+05        -0.14456E-09         0.00000E+00
   -0.14456E-09        -0.35774E+06         0.00000E+00
    0.00000E+00         0.00000E+00        -0.68170E+05
 
    0.16889E+05         0.43368E-09         0.00000E+00
    0.43368E-09        -0.35774E+06         0.00000E+00
    0.00000E+00         0.00000E+00        -0.68170E+05
 
    0.16889E+05        -0.72280E-09         0.00000E+00
   -0.72280E-09        -0.35774E+06         0.00000E+00
    0.00000E+00         0.00000E+00        -0.68170E+05
 
    0.10160E+05         0.13010E-08         0.00000E+00
    0.13010E-08        -0.35942E+06         0.00000E+00
    0.00000E+00         0.00000E+00        -0.69852E+05
 
    0.10160E+05        -0.72280E-09         0.00000E+00
   -0.72280E-09        -0.35942E+06         0.00000E+00
    0.00000E+00         0.00000E+00        -0.69852E+05
 
    0.10160E+05         0.14456E-09         0.00000E+00
    0.14456E-09        -0.35942E+06         0.00000E+00
    0.00000E+00         0.00000E+00        -0.69852E+05
 
    0.10160E+05        -0.43368E-09         0.00000E+00
   -0.43368E-09        -0.35942E+06         0.00000E+00
    0.00000E+00         0.00000E+00        -0.69852E+05
 
    0.10160E+05         0.11565E-08         0.00000E+00
    0.11565E-08        -0.35942E+06         0.00000E+00
    0.00000E+00         0.00000E+00        -0.69852E+05
 
    0.10160E+05         0.72280E-09         0.00000E+00
    0.72280E-09        -0.35942E+06         0.00000E+00
    0.00000E+00         0.00000E+00        -0.69852E+05
 
    0.10160E+05        -0.13010E-08         0.00000E+00
   -0.13010E-08        -0.35942E+06         0.00000E+00
    0.00000E+00         0.00000E+00        -0.69852E+05
 
    0.10160E+05        -0.86736E-09         0.00000E+00
   -0.86736E-09        -0.35942E+06         0.00000E+00
    0.00000E+00         0.00000E+00        -0.69852E+05
 
    0.10160E+05        -0.57824E-09         0.00000E+00
   -0.57824E-09        -0.35942E+06         0.00000E+00
    0.00000E+00         0.00000E+00        -0.69852E+05
 
    0.10160E+05        -0.72280E-09         0.00000E+00
   -0.72280E-09        -0.35942E+06         0.00000E+00
    0.00000E+00         0.00000E+00        -0.69852E+05
 
    0.10160E+05        -0.10119E-08         0.00000E+00
   -0.10119E-08        -0.35942E+06         0.00000E+00
    0.00000E+00         0.00000E+00        -0.69852E+05
 
    0.10160E+05        -0.28912E-09         0.00000E+00
   -0.28912E-09        -0.35942E+06         0.00000E+00
    0.00000E+00         0.00000E+00        -0.69852E+05
 
    0.10160E+05        -0.14456E-09         0.00000E+00
   -0.14456E-09        -0.35942E+06         0.00000E+00
    0.00000E+00         0.00000E+00        -0.69852E+05
 
    0.10160E+05        -0.57824E-09         0.00000E+00
   -0.57824E-09        -0.35942E+06         0.00000E+00
    0.00000E+00         0.00000E+00        -0.69852E+05
 
    0.10160E+05         0.28912E-09         0.00000E+00
    0.28912E-09        -0.35942E+06         0.00000E+00
    0.00000E+00         0.00000E+00        -0.69852E+05
 
    0.33926E+04        -0.20238E-08         0.00000E+00
   -0.20238E-08        -0.36111E+06         0.00000E+00
    0.00000E+00         0.00000E+00        -0.71544E+05
 
    0.33926E+04        -0.14456E-08         0.00000E+00
   -0.14456E-08        -0.36111E+06         0.00000E+00
    0.00000E+00         0.00000E+00        -0.71544E+05
 
    0.33926E+04         0.86736E-09         0.00000E+00
    0.86736E-09        -0.36111E+06         0.00000E+00
    0.00000E+00         0.00000E+00        -0.71544E+05
 
    0.33926E+04         0.00000E+00         0.00000E+00
    0.00000E+00        -0.36111E+06         0.00000E+00
    0.00000E+00         0.00000E+00        -0.71544E+05
 
    0.33926E+04         0.14456E-09         0.00000E+00
    0.14456E-09        -0.36111E+06         0.00000E+00
    0.00000E+00         0.00000E+00        -0.71544E+05
 
    0.33926E+04        -0.18793E-08         0.00000E+00
   -0.18793E-08        -0.36111E+06         0.00000E+00
    0.00000E+00         0.00000E+00        -0.71544E+05
 
    0.33926E+04        -0.57824E-09         0.00000E+00
   -0.57824E-09        -0.36111E+06         0.00000E+00
    0.00000E+00         0.00000E+00        -0.71544E+05
 
    0.33926E+04        -0.18793E-08         0.00000E+00
   -0.18793E-08        -0.36111E+06         0.00000E+00
    0.00000E+00         0.00000E+00        -0.71544E+05
 
    0.33926E+04         0.18793E-08         0.00000E+00
    0.18793E-08        -0.36111E+06         0.00000E+00
    0.00000E+00         0.00000E+00        -0.71544E+05
 
    0.33926E+04         0.11565E-08         0.00000E+00
    0.11565E-08        -0.36111E+06         0.00000E+00
    0.00000E+00         0.00000E+00        -0.71544E+05
 
    0.33926E+04         0.57824E-09         0.00000E+00
    0.57824E-09        -0.36111E+06         0.00000E+00
    0.00000E+00         0.00000E+00        -0.71544E+05
 
    0.33926E+04        -0.43368E-09         0.00000E+00
   -0.43368E-09        -0.36111E+06         0.00000E+00
    0.00000E+00         0.00000E+00        -0.71544E+05
 
    0.33926E+04         0.14456E-09         0.00000E+00
    0.14456E-09        -0.36111E+06         0.00000E+00
    0.00000E+00         0.00000E+00        -0.71544E+05
 
    0.33926E+04         0.14456E-08         0.00000E+00
    0.14456E-08        -0.36111E+06         0.00000E+00
    0.00000E+00         0.00000E+00        -0.71544E+05
 
    0.33926E+04        -0.15902E-08         0.00000E+00
   -0.15902E-08        -0.36111E+06         0.00000E+00
    0.00000E+00         0.00000E+00        -0.71544E+05
 
TENSORS stresstot double 
   -0.34925E-09         0.00000E+00         0.00000E+00
    0.00000E+00        -0.56094E+06         0.00000E+00
    0.00000E+00         0.00000E+00        -0.27137E+06
 
   -0.29104E-09        -0.90350E-11         0.00000E+00
   -0.90350E-11        -0.56094E+06         0.00000E+00
    0.00000E+00         0.00000E+00        -0.27137E+06
 
   -0.20373E-09         0.54210E-10         0.00000E+00
    0.54210E-10        -0.56094E+06         0.00000E+00
    0.00000E+00         0.00000E+00        -0.27137E+06
 
   -0.21828E-09        -0.72280E-10         0.00000E+00
   -0.72280E-10        -0.56094E+06         0.00000E+00
    0.00000E+00         0.00000E+00        -0.27137E+06
 
   -0.13097E-09         0.90350E-11         0.00000E+00
    0.90350E-11        -0.56094E+06         0.00000E+00
    0.00000E+00         0.00000E+00        -0.27137E+06
 
   -0.17462E-09         0.00000E+00         0.00000E+00
    0.00000E+00        -0.56094E+06         0.00000E+00
    0.00000E+00         0.00000E+00        -0.27137E+06
 
   -0.17462E-09         0.90350E-11         0.00000E+00
    0.90350E-11        -0.56094E+06         0.00000E+00
    0.00000E+00         0.00000E+00        -0.27137E+06
 
   -0.14552E-09        -0.18070E-10         0.00000E+00
   -0.18070E-10        -0.56094E+06         0.00000E+00
    0.00000E+00         0.00000E+00        -0.27137E+06
 
   -0.11642E-09        -0.27105E-10         0.00000E+00
   -0.27105E-10        -0.56094E+06         0.00000E+00
    0.00000E+00         0.00000E+00        -0.27137E+06
 
   -0.72760E-10        -0.63245E-10         0.00000E+00
   -0.63245E-10        -0.56094E+06         0.00000E+00
    0.00000E+00         0.00000E+00        -0.27137E+06
 
   -0.87311E-10         0.22588E-11         0.00000E+00
    0.22588E-11        -0.56094E+06         0.00000E+00
    0.00000E+00         0.00000E+00        -0.27137E+06
 
   -0.58208E-10         0.36140E-10         0.00000E+00
    0.36140E-10        -0.56094E+06         0.00000E+00
    0.00000E+00         0.00000E+00        -0.27137E+06
 
   -0.17462E-09         0.11294E-10         0.00000E+00
    0.11294E-10        -0.56094E+06         0.00000E+00
    0.00000E+00         0.00000E+00        -0.27137E+06
 
   -0.16007E-09         0.79056E-11         0.00000E+00
    0.79056E-11        -0.56094E+06         0.00000E+00
    0.00000E+00         0.00000E+00        -0.27137E+06
 
   -0.87311E-10         0.16941E-10         0.00000E+00
    0.16941E-10        -0.56094E+06         0.00000E+00
    0.00000E+00         0.00000E+00        -0.27137E+06
 
   -0.37835E-09         0.11746E-09         0.00000E+00
    0.11746E-09        -0.56091E+06         0.00000E+00
    0.00000E+00         0.00000E+00        -0.27134E+06
 
   -0.16007E-09        -0.63245E-10         0.00000E+00
   -0.63245E-10        -0.56091E+06         0.00000E+00
    0.00000E+00         0.00000E+00        -0.27134E+06
 
   -0.18917E-09        -0.36140E-10         0.00000E+00
   -0.36140E-10        -0.56091E+06         0.00000E+00
    0.00000E+00         0.00000E+00        -0.27134E+06
 
   -0.16007E-09         0.10842E-09         0.00000E+00
    0.10842E-09        -0.56091E+06         0.00000E+00
    0.00000E+00         0.00000E+00        -0.27134E+06
 
   -0.16007E-09         0.19877E-09         0.00000E+00
    0.19877E-09        -0.56091E+06         0.00000E+00
    0.00000E+00         0.00000E+00        -0.27134E+06
 
   -0.11642E-09         0.85833E-10         0.00000E+00
    0.85833E-10        -0.56091E+06         0.00000E+00
    0.00000E+00         0.00000E+00        -0.27134E+06
 
   -0.29104E-10         0.54210E-10         0.00000E+00
    0.54210E-10        -0.56091E+06         0.00000E+00
    0.00000E+00         0.00000E+00        -0.27134E+06
 
    0.43656E-10         0.36140E-10         0.00000E+00
    0.36140E-10        -0.56091E+06         0.00000E+00
    0.00000E+00         0.00000E+00        -0.27134E+06
 
   -0.20373E-09         0.18070E-10         0.00000E+00
    0.18070E-10        -0.56091E+06         0.00000E+00
    0.00000E+00         0.00000E+00        -0.27134E+06
 
   -0.29104E-10         0.40658E-10         0.00000E+00
    0.40658E-10        -0.56091E+06         0.00000E+00
    0.00000E+00         0.00000E+00        -0.27134E+06
 
   -0.29104E-10        -0.31623E-10         0.00000E+00
   -0.31623E-10        -0.56091E+06         0.00000E+00
    0.00000E+00         0.00000E+00        -0.27134E+06
 
   -0.29104E-10         0.29364E-10         0.00000E+00
    0.29364E-10        -0.56091E+06         0.00000E+00
    0.00000E+00         0.00000E+00        -0.27134E+06
 
   -0.10186E-09         0.29364E-10         0.00000E+00
    0.29364E-10        -0.56091E+06         0.00000E+00
    0.00000E+00         0.00000E+00        -0.27134E+06
 
   -0.10186E-09        -0.36140E-10         0.00000E+00
   -0.36140E-10        -0.56091E+06         0.00000E+00
    0.00000E+00         0.00000E+00        -0.27134E+06
 
   -0.13097E-09        -0.90350E-11         0.00000E+00
   -0.90350E-11        -0.56091E+06         0.00000E+00
    0.00000E+00         0.00000E+00        -0.27134E+06
 
   -0.32014E-09         0.12197E-09         0.00000E+00
    0.12197E-09        -0.56085E+06         0.00000E+00
    0.00000E+00         0.00000E+00        -0.27128E+06
 
   -0.24738E-09        -0.36140E-10         0.00000E+00
   -0.36140E-10        -0.56085E+06         0.00000E+00
    0.00000E+00         0.00000E+00        -0.27128E+06
 
   -0.29104E-09         0.18070E-10         0.00000E+00
    0.18070E-10        -0.56085E+06         0.00000E+00
    0.00000E+00         0.00000E+00        -0.27128E+06
 
   -0.18917E-09        -0.99385E-10         0.00000E+00
   -0.99385E-10        -0.56085E+06         0.00000E+00
    0.00000E+00         0.00000E+00        -0.27128E+06
 
   -0.29104E-10        -0.27105E-10         0.00000E+00
   -0.27105E-10        -0.56085E+06         0.00000E+00
    0.00000E+00         0.00000E+00        -0.27128E+06
 
   -0.14552E-10         0.18070E-10         0.00000E+00
    0.18070E-10        -0.56085E+06         0.00000E+00
    0.00000E+00         0.00000E+00        -0.27128E+06
 
   -0.58208E-10        -0.14456E-09         0.00000E+00
   -0.14456E-09        -0.56085E+06         0.00000E+00
    0.00000E+00         0.00000E+00        -0.27128E+06
 
   -0.11642E-09        -0.49693E-10         0.00000E+00
   -0.49693E-10        -0.56085E+06         0.00000E+00
    0.00000E+00         0.00000E+00        -0.27128E+06
 
   -0.29104E-10        -0.18070E-10         0.00000E+00
   -0.18070E-10        -0.56085E+06         0.00000E+00
    0.00000E+00         0.00000E+00        -0.27128E+06
 
    0.72760E-10         0.54210E-10         0.00000E+00
    0.54210E-10        -0.56085E+06         0.00000E+00
    0.00000E+00         0.00000E+00        -0.27128E+06
 
   -0.10186E-09         0.58728E-10         0.00000E+00
    0.58728E-10        -0.56085E+06         0.00000E+00
    0.00000E+00         0.00000E+00        -0.27128E+06
 
   -0.17462E-09         0.67763E-10         0.00000E+00
    0.67763E-10        -0.56085E+06         0.00000E+00
    0.00000E+00         0.00000E+00        -0.27128E+06
 
   -0.29104E-10         0.13553E-10         0.00000E+00
    0.13553E-10        -0.56085E+06         0.00000E+00
    0.00000E+00         0.00000E+00        -0.27128E+06
 
   -0.58208E-10        -0.90350E-11         0.00000E+00
   -0.90350E-11        -0.56085E+06         0.00000E+00
    0.00000E+00         0.00000E+00        -0.27128E+06
 
   -0.58208E-10         0.67763E-11         0.00000E+00
    0.67763E-11        -0.56085E+06         0.00000E+00
    0.00000E+00         0.00000E+00        -0.27128E+06
 
   -0.34925E-09         0.81315E-10         0.00000E+00
    0.81315E-10        -0.56076E+06         0.00000E+00
    0.00000E+00         0.00000E+00        -0.27120E+06
 
   -0.10186E-09        -0.21684E-09         0.00000E+00
   -0.21684E-09        -0.56076E+06         0.00000E+00
    0.00000E+00         0.00000E+00        -0.27120E+06
 
   -0.39290E-09        -0.18070E-10         0.00000E+00
   -0.18070E-10        -0.56076E+06         0.00000E+00
    0.00000E+00         0.00000E+00        -0.27120E+06
 
   -0.10186E-09         0.11746E-09         0.00000E+00
    0.11746E-09        -0.56076E+06         0.00000E+00
    0.00000E+00         0.00000E+00        -0.27120E+06
 
   -0.24738E-09         0.26202E-09         0.00000E+00
    0.26202E-09        -0.56076E+06         0.00000E+00
    0.00000E+00         0.00000E+00        -0.27120E+06
 
   -0.32014E-09         0.81315E-10         0.00000E+00
    0.81315E-10        -0.56076E+06         0.00000E+00
    0.00000E+00         0.00000E+00        -0.27120E+06
 
   -0.87311E-10         0.99385E-10         0.00000E+00
    0.99385E-10        -0.56076E+06         0.00000E+00
    0.00000E+00         0.00000E+00        -0.27120E+06
 
   -0.29104E-10        -0.49693E-10         0.00000E+00
   -0.49693E-10        -0.56076E+06         0.00000E+00
    0.00000E+00         0.00000E+00        -0.27120E+06
 
   -0.87311E-10        -0.90350E-11         0.00000E+00
   -0.90350E-11        -0.56076E+06         0.00000E+00
    0.00000E+00         0.00000E+00        -0.27120E+06
 
   -0.16007E-09         0.40658E-10         0.00000E+00
    0.40658E-10        -0.56076E+06         0.00000E+00
    0.00000E+00         0.00000E+00        -0.27120E+06
 
   -0.18917E-09         0.76798E-10         0.00000E+00
    0.76798E-10        -0.56076E+06         0.00000E+00
    0.00000E+00         0.00000E+00        -0.27120E+06
 
   -0.29104E-10        -0.40658E-10         0.00000E+00
   -0.40658E-10        -0.56076E+06         0.00000E+00
    0.00000E+00         0.00000E+00        -0.27120E+06
 
    0.29104E-10        -0.36140E-10         0.00000E+00
   -0.36140E-10        -0.56076E+06         0.00000E+00
    0.00000E+00         0.00000E+00        -0.27120E+06
 
    0.14552E-10        -0.36140E-10         0.00000E+00
   -0.36140E-10        -0.56076E+06         0.00000E+00
    0.00000E+00         0.00000E+00        -0.27120E+06
 
   -0.10186E-09         0.18070E-10         0.00000E+00
    0.18070E-10        -0.56076E+06         0.00000E+00
    0.00000E+00         0.00000E+00        -0.27120E+06
 
    0.00000E+00        -0.90350E-11         0.00000E+00
   -0.90350E-11        -0.56065E+06         0.00000E+00
    0.00000E+00         0.00000E+00        -0.27108E+06
 
   -0.13097E-09         0.13553E-09         0.00000E+00
    0.13553E-09        -0.56065E+06         0.00000E+00
    0.00000E+00         0.00000E+00        -0.27108E+06
 
   -0.72760E-10         0.18974E-09         0.00000E+00
    0.18974E-09        -0.56065E+06         0.00000E+00
    0.00000E+00         0.00000E+00        -0.27108E+06
 
   -0.29104E-10        -0.36140E-10         0.00000E+00
   -0.36140E-10        -0.56065E+06         0.00000E+00
    0.00000E+00         0.00000E+00        -0.27108E+06
 
    0.13097E-09         0.54210E-10         0.00000E+00
    0.54210E-10        -0.56065E+06         0.00000E+00
    0.00000E+00         0.00000E+00        -0.27108E+06
 
   -0.10186E-09        -0.36140E-10         0.00000E+00
   -0.36140E-10        -0.56065E+06         0.00000E+00
    0.00000E+00         0.00000E+00        -0.27108E+06
 
   -0.23283E-09        -0.11746E-09         0.00000E+00
   -0.11746E-09        -0.56065E+06         0.00000E+00
    0.00000E+00         0.00000E+00        -0.27108E+06
 
   -0.58208E-10        -0.85833E-10         0.00000E+00
   -0.85833E-10        -0.56065E+06         0.00000E+00
    0.00000E+00         0.00000E+00        -0.27108E+06
 
    0.16007E-09        -0.19877E-09         0.00000E+00
   -0.19877E-09        -0.56065E+06         0.00000E+00
    0.00000E+00         0.00000E+00        -0.27108E+06
 
    0.26193E-09        -0.13553E-10         0.00000E+00
   -0.13553E-10        -0.56065E+06         0.00000E+00
    0.00000E+00         0.00000E+00        -0.27108E+06
 
   -0.72760E-10         0.15360E-09         0.00000E+00
    0.15360E-09        -0.56065E+06         0.00000E+00
    0.00000E+00         0.00000E+00        -0.27108E+06
 
   -0.14552E-10        -0.72280E-10         0.00000E+00
   -0.72280E-10        -0.56065E+06         0.00000E+00
    0.00000E+00         0.00000E+00        -0.27108E+06
 
   -0.21828E-09        -0.15360E-09         0.00000E+00
   -0.15360E-09        -0.56065E+06         0.00000E+00
    0.00000E+00         0.00000E+00        -0.27108E+06
 
   -0.18917E-09        -0.31623E-10         0.00000E+00
   -0.31623E-10        -0.56065E+06         0.00000E+00
    0.00000E+00         0.00000E+00        -0.27108E+06
 
   -0.72760E-10         0.18070E-10         0.00000E+00
    0.18070E-10        -0.56065E+06         0.00000E+00
    0.00000E+00         0.00000E+00        -0.27108E+06
 
   -0.39290E-09        -0.13553E-09         0.00000E+00
   -0.13553E-09        -0.56050E+06         0.00000E+00
    0.00000E+00         0.00000E+00        -0.27093E+06
 
   -0.20373E-09        -0.11746E-09         0.00000E+00
   -0.11746E-09        -0.56050E+06         0.00000E+00
    0.00000E+00         0.00000E+00        -0.27093E+06
 
   -0.26193E-09         0.45175E-10         0.00000E+00
    0.45175E-10        -0.56050E+06         0.00000E+00
    0.00000E+00         0.00000E+00        -0.27093E+06
 
   -0.21828E-09        -0.20781E-09         0.00000E+00
   -0.20781E-09        -0.56050E+06         0.00000E+00
    0.00000E+00         0.00000E+00        -0.27093E+06
 
   -0.29104E-09         0.14456E-09         0.00000E+00
    0.14456E-09        -0.56050E+06         0.00000E+00
    0.00000E+00         0.00000E+00        -0.27093E+06
 
   -0.32014E-09         0.24395E-09         0.00000E+00
    0.24395E-09        -0.56050E+06         0.00000E+00
    0.00000E+00         0.00000E+00        -0.27093E+06
 
   -0.37835E-09         0.28912E-09         0.00000E+00
    0.28912E-09        -0.56050E+06         0.00000E+00
    0.00000E+00         0.00000E+00        -0.27093E+06
 
   -0.10186E-09         0.13101E-09         0.00000E+00
    0.13101E-09        -0.56050E+06         0.00000E+00
    0.00000E+00         0.00000E+00        -0.27093E+06
 
   -0.27649E-09         0.27105E-10         0.00000E+00
    0.27105E-10        -0.56050E+06         0.00000E+00
    0.00000E+00         0.00000E+00        -0.27093E+06
 
   -0.72760E-10         0.54210E-10         0.00000E+00
    0.54210E-10        -0.56050E+06         0.00000E+00
    0.00000E+00         0.00000E+00        -0.27093E+06
 
   -0.58208E-10        -0.27105E-10         0.00000E+00
   -0.27105E-10        -0.56050E+06         0.00000E+00
    0.00000E+00         0.00000E+00        -0.27093E+06
 
    0.10186E-09         0.81315E-10         0.00000E+00
    0.81315E-10        -0.56050E+06         0.00000E+00
    0.00000E+00         0.00000E+00        -0.27093E+06
 
    0.87311E-10        -0.63245E-10         0.00000E+00
   -0.63245E-10        -0.56050E+06         0.00000E+00
    0.00000E+00         0.00000E+00        -0.27093E+06
 
   -0.46566E-09         0.63245E-10         0.00000E+00
    0.63245E-10        -0.56050E+06         0.00000E+00
    0.00000E+00         0.00000E+00        -0.27093E+06
 
   -0.45111E-09         0.90350E-11         0.00000E+00
    0.90350E-11        -0.56050E+06         0.00000E+00
    0.00000E+00         0.00000E+00        -0.27093E+06
 
   -0.87311E-10         0.11746E-09         0.00000E+00
    0.11746E-09        -0.56032E+06         0.00000E+00
    0.00000E+00         0.00000E+00        -0.27076E+06
 
   -0.58208E-10         0.63245E-10         0.00000E+00
    0.63245E-10        -0.56032E+06         0.00000E+00
    0.00000E+00         0.00000E+00        -0.27076E+06
 
    0.27649E-09        -0.23491E-09         0.00000E+00
   -0.23491E-09        -0.56032E+06         0.00000E+00
    0.00000E+00         0.00000E+00        -0.27076E+06
 
    0.14552E-10         0.00000E+00         0.00000E+00
    0.00000E+00        -0.56032E+06         0.00000E+00
    0.00000E+00         0.00000E+00        -0.27076E+06
 
   -0.29104E-09         0.81315E-10         0.00000E+00
    0.81315E-10        -0.56032E+06         0.00000E+00
    0.00000E+00         0.00000E+00        -0.27076E+06
 
    0.30559E-09        -0.54210E-10         0.00000E+00
   -0.54210E-10        -0.56032E+06         0.00000E+00
    0.00000E+00         0.00000E+00        -0.27076E+06
 
   -0.16007E-09        -0.27105E-10         0.00000E+00
   -0.27105E-10        -0.56032E+06         0.00000E+00
    0.00000E+00         0.00000E+00        -0.27076E+06
 
    0.00000E+00         0.45175E-10         0.00000E+00
    0.45175E-10        -0.56032E+06         0.00000E+00
    0.00000E+00         0.00000E+00        -0.27076E+06
 
    0.87311E-10        -0.54210E-10         0.00000E+00
   -0.54210E-10        -0.56032E+06         0.00000E+00
    0.00000E+00         0.00000E+00        -0.27076E+06
 
   -0.10186E-09        -0.10842E-09         0.00000E+00
   -0.10842E-09        -0.56032E+06         0.00000E+00
    0.00000E+00         0.00000E+00        -0.27076E+06
 
   -0.72760E-10        -0.18070E-10         0.00000E+00
   -0.18070E-10        -0.56032E+06         0.00000E+00
    0.00000E+00         0.00000E+00        -0.27076E+06
 
    0.58208E-10        -0.54210E-10         0.00000E+00
   -0.54210E-10        -0.56032E+06         0.00000E+00
    0.00000E+00         0.00000E+00        -0.27076E+06
 
    0.43656E-10        -0.14456E-09         0.00000E+00
   -0.14456E-09        -0.56032E+06         0.00000E+00
    0.00000E+00         0.00000E+00        -0.27076E+06
 
    0.21828E-09         0.27105E-10         0.00000E+00
    0.27105E-10        -0.56032E+06         0.00000E+00
    0.00000E+00         0.00000E+00        -0.27076E+06
 
   -0.43656E-10         0.36140E-10         0.00000E+00
    0.36140E-10        -0.56032E+06         0.00000E+00
    0.00000E+00         0.00000E+00        -0.27076E+06
 
   -0.14552E-10        -0.63245E-10         0.00000E+00
   -0.63245E-10        -0.56012E+06         0.00000E+00
    0.00000E+00         0.00000E+00        -0.27055E+06
 
   -0.87311E-10        -0.36140E-10         0.00000E+00
   -0.36140E-10        -0.56012E+06         0.00000E+00
    0.00000E+00         0.00000E+00        -0.27055E+06
 
   -0.43656E-09        -0.72280E-10         0.00000E+00
   -0.72280E-10        -0.56012E+06         0.00000E+00
    0.00000E+00         0.00000E+00        -0.27055E+06
 
   -0.13097E-09         0.54210E-10         0.00000E+00
    0.54210E-10        -0.56012E+06         0.00000E+00
    0.00000E+00         0.00000E+00        -0.27055E+06
 
   -0.21828E-09        -0.18070E-09         0.00000E+00
   -0.18070E-09        -0.56012E+06         0.00000E+00
    0.00000E+00         0.00000E+00        -0.27055E+06
 
   -0.17462E-09         0.24395E-09         0.00000E+00
    0.24395E-09        -0.56012E+06         0.00000E+00
    0.00000E+00         0.00000E+00        -0.27055E+06
 
   -0.14552E-09        -0.18070E-10         0.00000E+00
   -0.18070E-10        -0.56012E+06         0.00000E+00
    0.00000E+00         0.00000E+00        -0.27055E+06
 
    0.43656E-10         0.00000E+00         0.00000E+00
    0.00000E+00        -0.56012E+06         0.00000E+00
    0.00000E+00         0.00000E+00        -0.27055E+06
 
    0.32014E-09        -0.11746E-09         0.00000E+00
   -0.11746E-09        -0.56012E+06         0.00000E+00
    0.00000E+00         0.00000E+00        -0.27055E+06
 
   -0.26193E-09         0.16263E-09         0.00000E+00
    0.16263E-09        -0.56012E+06         0.00000E+00
    0.00000E+00         0.00000E+00        -0.27055E+06
 
   -0.62573E-09        -0.90350E-11         0.00000E+00
   -0.90350E-11        -0.56012E+06         0.00000E+00
    0.00000E+00         0.00000E+00        -0.27055E+06
 
    0.87311E-10        -0.18974E-09         0.00000E+00
   -0.18974E-09        -0.56012E+06         0.00000E+00
    0.00000E+00         0.00000E+00        -0.27055E+06
 
    0.30559E-09        -0.22588E-09         0.00000E+00
   -0.22588E-09        -0.56012E+06         0.00000E+00
    0.00000E+00         0.00000E+00        -0.27055E+06
 
    0.00000E+00         0.10842E-09         0.00000E+00
    0.10842E-09        -0.56012E+06         0.00000E+00
    0.00000E+00         0.00000E+00        -0.27055E+06
 
    0.43656E-09        -0.13553E-09         0.00000E+00
   -0.13553E-09        -0.56012E+06         0.00000E+00
    0.00000E+00         0.00000E+00        -0.27055E+06
 
    0.00000E+00         0.30719E-09         0.00000E+00
    0.30719E-09        -0.55988E+06         0.00000E+00
    0.00000E+00         0.00000E+00        -0.27031E+06
 
   -0.87311E-10         0.99385E-10         0.00000E+00
    0.99385E-10        -0.55988E+06         0.00000E+00
    0.00000E+00         0.00000E+00        -0.27031E+06
 
    0.11642E-09        -0.81315E-10         0.00000E+00
   -0.81315E-10        -0.55988E+06         0.00000E+00
    0.00000E+00         0.00000E+00        -0.27031E+06
 
    0.17462E-09        -0.90350E-11         0.00000E+00
   -0.90350E-11        -0.55988E+06         0.00000E+00
    0.00000E+00         0.00000E+00        -0.27031E+06
 
    0.11642E-09        -0.13553E-09         0.00000E+00
   -0.13553E-09        -0.55988E+06         0.00000E+00
    0.00000E+00         0.00000E+00        -0.27031E+06
 
    0.00000E+00        -0.14456E-09         0.00000E+00
   -0.14456E-09        -0.55988E+06         0.00000E+00
    0.00000E+00         0.00000E+00        -0.27031E+06
 
   -0.43656E-10        -0.81315E-10         0.00000E+00
   -0.81315E-10        -0.55988E+06         0.00000E+00
    0.00000E+00         0.00000E+00        -0.27031E+06
 
   -0.14552E-10        -0.90350E-10         0.00000E+00
   -0.90350E-10        -0.55988E+06         0.00000E+00
    0.00000E+00         0.00000E+00        -0.27031E+06
 
    0.58208E-10         0.72280E-10         0.00000E+00
    0.72280E-10        -0.55988E+06         0.00000E+00
    0.00000E+00         0.00000E+00        -0.27031E+06
 
   -0.10186E-09         0.72280E-10         0.00000E+00
    0.72280E-10        -0.55988E+06         0.00000E+00
    0.00000E+00         0.00000E+00        -0.27031E+06
 
    0.46566E-09        -0.36140E-10         0.00000E+00
   -0.36140E-10        -0.55988E+06         0.00000E+00
    0.00000E+00         0.00000E+00        -0.27031E+06
 
    0.45111E-09        -0.28912E-09         0.00000E+00
   -0.28912E-09        -0.55988E+06         0.00000E+00
    0.00000E+00         0.00000E+00        -0.27031E+06
 
    0.18917E-09         0.45175E-10         0.00000E+00
    0.45175E-10        -0.55988E+06         0.00000E+00
    0.00000E+00         0.00000E+00        -0.27031E+06
 
    0.37835E-09        -0.36140E-10         0.00000E+00
   -0.36140E-10        -0.55988E+06         0.00000E+00
    0.00000E+00         0.00000E+00        -0.27031E+06
 
    0.17462E-09         0.00000E+00         0.00000E+00
    0.00000E+00        -0.55988E+06         0.00000E+00
    0.00000E+00         0.00000E+00        -0.27031E+06
 
   -0.53842E-09        -0.27105E-09         0.00000E+00
   -0.27105E-09        -0.55961E+06         0.00000E+00
    0.00000E+00         0.00000E+00        -0.27004E+06
 
   -0.39290E-09         0.99385E-10         0.00000E+00
    0.99385E-10        -0.55961E+06         0.00000E+00
    0.00000E+00         0.00000E+00        -0.27004E+06
 
   -0.65484E-09         0.21684E-09         0.00000E+00
    0.21684E-09        -0.55961E+06         0.00000E+00
    0.00000E+00         0.00000E+00        -0.27004E+06
 
   -0.50932E-09        -0.63245E-10         0.00000E+00
   -0.63245E-10        -0.55961E+06         0.00000E+00
    0.00000E+00         0.00000E+00        -0.27004E+06
 
   -0.13097E-09         0.36140E-10         0.00000E+00
    0.36140E-10        -0.55961E+06         0.00000E+00
    0.00000E+00         0.00000E+00        -0.27004E+06
 
   -0.29104E-09        -0.18070E-10         0.00000E+00
   -0.18070E-10        -0.55961E+06         0.00000E+00
    0.00000E+00         0.00000E+00        -0.27004E+06
 
   -0.52387E-09        -0.27105E-10         0.00000E+00
   -0.27105E-10        -0.55961E+06         0.00000E+00
    0.00000E+00         0.00000E+00        -0.27004E+06
 
   -0.58208E-10        -0.28912E-09         0.00000E+00
   -0.28912E-09        -0.55961E+06         0.00000E+00
    0.00000E+00         0.00000E+00        -0.27004E+06
 
   -0.55297E-09         0.00000E+00         0.00000E+00
    0.00000E+00        -0.55961E+06         0.00000E+00
    0.00000E+00         0.00000E+00        -0.27004E+06
 
   -0.39290E-09        -0.54210E-10         0.00000E+00
   -0.54210E-10        -0.55961E+06         0.00000E+00
    0.00000E+00         0.00000E+00        -0.27004E+06
 
   -0.14552E-10         0.10842E-09         0.00000E+00
    0.10842E-09        -0.55961E+06         0.00000E+00
    0.00000E+00         0.00000E+00        -0.27004E+06
 
    0.00000E+00        -0.13553E-09         0.00000E+00
   -0.13553E-09        -0.55961E+06         0.00000E+00
    0.00000E+00         0.00000E+00        -0.27004E+06
 
   -0.43656E-10         0.90350E-10         0.00000E+00
    0.90350E-10        -0.55961E+06         0.00000E+00
    0.00000E+00         0.00000E+00        -0.27004E+06
 
   -0.72760E-10        -0.12649E-09         0.00000E+00
   -0.12649E-09        -0.55961E+06         0.00000E+00
    0.00000E+00         0.00000E+00        -0.27004E+06
 
   -0.14552E-09         0.00000E+00         0.00000E+00
    0.00000E+00        -0.55961E+06         0.00000E+00
    0.00000E+00         0.00000E+00        -0.27004E+06
 
   -0.10186E-09        -0.37044E-09         0.00000E+00
   -0.37044E-09        -0.55931E+06         0.00000E+00
    0.00000E+00         0.00000E+00        -0.26975E+06
 
    0.53842E-09         0.81315E-10         0.00000E+00
    0.81315E-10        -0.55931E+06         0.00000E+00
    0.00000E+00         0.00000E+00        -0.26975E+06
 
    0.72760E-10         0.26202E-09         0.00000E+00
    0.26202E-09        -0.55931E+06         0.00000E+00
    0.00000E+00         0.00000E+00        -0.26975E+06
 
   -0.53842E-09         0.23491E-09         0.00000E+00
    0.23491E-09        -0.55931E+06         0.00000E+00
    0.00000E+00         0.00000E+00        -0.26975E+06
 
   -0.40745E-09        -0.35237E-09         0.00000E+00
   -0.35237E-09        -0.55931E+06         0.00000E+00
    0.00000E+00         0.00000E+00        -0.26975E+06
 
   -0.11642E-09        -0.14456E-09         0.00000E+00
   -0.14456E-09        -0.55931E+06         0.00000E+00
    0.00000E+00         0.00000E+00        -0.26975E+06
 
   -0.72760E-10        -0.72280E-10         0.00000E+00
   -0.72280E-10        -0.55931E+06         0.00000E+00
    0.00000E+00         0.00000E+00        -0.26975E+06
 
    0.43656E-10         0.10842E-09         0.00000E+00
    0.10842E-09        -0.55931E+06         0.00000E+00
    0.00000E+00         0.00000E+00        -0.26975E+06
 
    0.30559E-09         0.10842E-09         0.00000E+00
    0.10842E-09        -0.55931E+06         0.00000E+00
    0.00000E+00         0.00000E+00        -0.26975E+06
 
   -0.43656E-10        -0.12649E-09         0.00000E+00
   -0.12649E-09        -0.55931E+06         0.00000E+00
    0.00000E+00         0.00000E+00        -0.26975E+06
 
    0.27649E-09        -0.72280E-10         0.00000E+00
   -0.72280E-10        -0.55931E+06         0.00000E+00
    0.00000E+00         0.00000E+00        -0.26975E+06
 
    0.13097E-09         0.45175E-10         0.00000E+00
    0.45175E-10        -0.55931E+06         0.00000E+00
    0.00000E+00         0.00000E+00        -0.26975E+06
 
   -0.37835E-09         0.50596E-09         0.00000E+00
    0.50596E-09        -0.55931E+06         0.00000E+00
    0.00000E+00         0.00000E+00        -0.26975E+06
 
   -0.81491E-09        -0.72280E-10         0.00000E+00
   -0.72280E-10        -0.55931E+06         0.00000E+00
    0.00000E+00         0.00000E+00        -0.26975E+06
 
   -0.36380E-09         0.72280E-10         0.00000E+00
    0.72280E-10        -0.55931E+06         0.00000E+00
    0.00000E+00         0.00000E+00        -0.26975E+06
 
    0.10186E-09        -0.23491E-09         0.00000E+00
   -0.23491E-09        -0.55898E+06         0.00000E+00
    0.00000E+00         0.00000E+00        -0.26942E+06
 
   -0.81491E-09        -0.54210E-10         0.00000E+00
   -0.54210E-10        -0.55898E+06         0.00000E+00
    0.00000E+00         0.00000E+00        -0.26942E+06
 
   -0.18917E-09         0.16263E-09         0.00000E+00
    0.16263E-09        -0.55898E+06         0.00000E+00
    0.00000E+00         0.00000E+00        -0.26942E+06
 
   -0.58208E-10         0.23491E-09         0.00000E+00
    0.23491E-09        -0.55898E+06         0.00000E+00
    0.00000E+00         0.00000E+00        -0.26942E+06
 
    0.14552E-10         0.21684E-09         0.00000E+00
    0.21684E-09        -0.55898E+06         0.00000E+00
    0.00000E+00         0.00000E+00        -0.26942E+06
 
    0.29104E-10         0.54210E-10         0.00000E+00
    0.54210E-10        -0.55898E+06         0.00000E+00
    0.00000E+00         0.00000E+00        -0.26942E+06
 
   -0.39290E-09         0.10842E-09         0.00000E+00
    0.10842E-09        -0.55898E+06         0.00000E+00
    0.00000E+00         0.00000E+00        -0.26942E+06
 
   -0.26193E-09         0.27105E-09         0.00000E+00
    0.27105E-09        -0.55898E+06         0.00000E+00
    0.00000E+00         0.00000E+00        -0.26942E+06
 
   -0.20373E-09         0.16263E-09         0.00000E+00
    0.16263E-09        -0.55898E+06         0.00000E+00
    0.00000E+00         0.00000E+00        -0.26942E+06
 
    0.87311E-10         0.36140E-10         0.00000E+00
    0.36140E-10        -0.55898E+06         0.00000E+00
    0.00000E+00         0.00000E+00        -0.26942E+06
 
   -0.98953E-09         0.54210E-10         0.00000E+00
    0.54210E-10        -0.55898E+06         0.00000E+00
    0.00000E+00         0.00000E+00        -0.26942E+06
 
   -0.34925E-09        -0.26202E-09         0.00000E+00
   -0.26202E-09        -0.55898E+06         0.00000E+00
    0.00000E+00         0.00000E+00        -0.26942E+06
 
    0.29104E-10         0.23491E-09         0.00000E+00
    0.23491E-09        -0.55898E+06         0.00000E+00
    0.00000E+00         0.00000E+00        -0.26942E+06
 
    0.14552E-10        -0.18070E-10         0.00000E+00
   -0.18070E-10        -0.55898E+06         0.00000E+00
    0.00000E+00         0.00000E+00        -0.26942E+06
 
   -0.14552E-10         0.16263E-09         0.00000E+00
    0.16263E-09        -0.55898E+06         0.00000E+00
    0.00000E+00         0.00000E+00        -0.26942E+06
 
   -0.89494E-09         0.72280E-10         0.00000E+00
    0.72280E-10        -0.55862E+06         0.00000E+00
    0.00000E+00         0.00000E+00        -0.26905E+06
 
   -0.17462E-09        -0.36140E-09         0.00000E+00
   -0.36140E-09        -0.55862E+06         0.00000E+00
    0.00000E+00         0.00000E+00        -0.26905E+06
 
   -0.72760E-11         0.23491E-09         0.00000E+00
    0.23491E-09        -0.55862E+06         0.00000E+00
    0.00000E+00         0.00000E+00        -0.26905E+06
 
    0.18917E-09        -0.21684E-09         0.00000E+00
   -0.21684E-09        -0.55862E+06         0.00000E+00
    0.00000E+00         0.00000E+00        -0.26905E+06
 
    0.72760E-10         0.54210E-10         0.00000E+00
    0.54210E-10        -0.55862E+06         0.00000E+00
    0.00000E+00         0.00000E+00        -0.26905E+06
 
   -0.30559E-09         0.19877E-09         0.00000E+00
    0.19877E-09        -0.55862E+06         0.00000E+00
    0.00000E+00         0.00000E+00        -0.26905E+06
 
    0.37107E-09        -0.18070E-10         0.00000E+00
   -0.18070E-10        -0.55862E+06         0.00000E+00
    0.00000E+00         0.00000E+00        -0.26905E+06
 
   -0.29104E-10         0.18070E-10         0.00000E+00
    0.18070E-10        -0.55862E+06         0.00000E+00
    0.00000E+00         0.00000E+00        -0.26905E+06
 
   -0.31287E-09         0.72280E-10         0.00000E+00
    0.72280E-10        -0.55862E+06         0.00000E+00
    0.00000E+00         0.00000E+00        -0.26905E+06
 
   -0.80036E-09         0.18070E-10         0.00000E+00
    0.18070E-10        -0.55862E+06         0.00000E+00
    0.00000E+00         0.00000E+00        -0.26905E+06
 
    0.17462E-09         0.72280E-10         0.00000E+00
    0.72280E-10        -0.55862E+06         0.00000E+00
    0.00000E+00         0.00000E+00        -0.26905E+06
 
    0.17462E-09         0.18070E-10         0.00000E+00
    0.18070E-10        -0.55862E+06         0.00000E+00
    0.00000E+00         0.00000E+00        -0.26905E+06
 
    0.36380E-10        -0.90350E-10         0.00000E+00
   -0.90350E-10        -0.55862E+06         0.00000E+00
    0.00000E+00         0.00000E+00        -0.26905E+06
 
    0.55297E-09         0.14456E-09         0.00000E+00
    0.14456E-09        -0.55862E+06         0.00000E+00
    0.00000E+00         0.00000E+00        -0.26905E+06
 
   -0.21828E-10         0.00000E+00         0.00000E+00
    0.00000E+00        -0.55862E+06         0.00000E+00
    0.00000E+00         0.00000E+00        -0.26905E+06
 
    0.69849E-09         0.21684E-09         0.00000E+00
    0.21684E-09        -0.55823E+06         0.00000E+00
    0.00000E+00         0.00000E+00        -0.26866E+06
 
    0.31287E-09        -0.54210E-10         0.00000E+00
   -0.54210E-10        -0.55823E+06         0.00000E+00
    0.00000E+00         0.00000E+00        -0.26866E+06
 
   -0.39290E-09        -0.72280E-10         0.00000E+00
   -0.72280E-10        -0.55823E+06         0.00000E+00
    0.00000E+00         0.00000E+00        -0.26866E+06
 
   -0.48749E-09         0.10842E-09         0.00000E+00
    0.10842E-09        -0.55823E+06         0.00000E+00
    0.00000E+00         0.00000E+00        -0.26866E+06
 
   -0.82218E-09        -0.10842E-09         0.00000E+00
   -0.10842E-09        -0.55823E+06         0.00000E+00
    0.00000E+00         0.00000E+00        -0.26866E+06
 
   -0.38563E-09        -0.32526E-09         0.00000E+00
   -0.32526E-09        -0.55823E+06         0.00000E+00
    0.00000E+00         0.00000E+00        -0.26866E+06
 
   -0.37107E-09         0.36140E-10         0.00000E+00
    0.36140E-10        -0.55823E+06         0.00000E+00
    0.00000E+00         0.00000E+00        -0.26866E+06
 
   -0.63301E-09         0.10842E-09         0.00000E+00
    0.10842E-09        -0.55823E+06         0.00000E+00
    0.00000E+00         0.00000E+00        -0.26866E+06
 
   -0.11860E-08         0.30719E-09         0.00000E+00
    0.30719E-09        -0.55823E+06         0.00000E+00
    0.00000E+00         0.00000E+00        -0.26866E+06
 
   -0.18917E-09        -0.10842E-09         0.00000E+00
   -0.10842E-09        -0.55823E+06         0.00000E+00
    0.00000E+00         0.00000E+00        -0.26866E+06
 
   -0.19645E-09        -0.25298E-09         0.00000E+00
   -0.25298E-09        -0.55823E+06         0.00000E+00
    0.00000E+00         0.00000E+00        -0.26866E+06
 
   -0.50204E-09         0.19877E-09         0.00000E+00
    0.19877E-09        -0.55823E+06         0.00000E+00
    0.00000E+00         0.00000E+00        -0.26866E+06
 
    0.29831E-09        -0.14456E-09         0.00000E+00
   -0.14456E-09        -0.55823E+06         0.00000E+00
    0.00000E+00         0.00000E+00        -0.26866E+06
 
    0.63301E-09         0.00000E+00         0.00000E+00
    0.00000E+00        -0.55823E+06         0.00000E+00
    0.00000E+00         0.00000E+00        -0.26866E+06
 
    0.25466E-09        -0.90350E-10         0.00000E+00
   -0.90350E-10        -0.55823E+06         0.00000E+00
    0.00000E+00         0.00000E+00        -0.26866E+06
 
    0.31287E-09         0.28912E-09         0.00000E+00
    0.28912E-09        -0.55780E+06         0.00000E+00
    0.00000E+00         0.00000E+00        -0.26823E+06
 
    0.58208E-10        -0.18070E-10         0.00000E+00
   -0.18070E-10        -0.55780E+06         0.00000E+00
    0.00000E+00         0.00000E+00        -0.26823E+06
 
   -0.37835E-09        -0.14456E-09         0.00000E+00
   -0.14456E-09        -0.55780E+06         0.00000E+00
    0.00000E+00         0.00000E+00        -0.26823E+06
 
   -0.14552E-10        -0.50596E-09         0.00000E+00
   -0.50596E-09        -0.55780E+06         0.00000E+00
    0.00000E+00         0.00000E+00        -0.26823E+06
 
   -0.17462E-09         0.10842E-09         0.00000E+00
    0.10842E-09        -0.55780E+06         0.00000E+00
    0.00000E+00         0.00000E+00        -0.26823E+06
 
   -0.65484E-10        -0.30719E-09         0.00000E+00
   -0.30719E-09        -0.55780E+06         0.00000E+00
    0.00000E+00         0.00000E+00        -0.26823E+06
 
   -0.45839E-09         0.10842E-09         0.00000E+00
    0.10842E-09        -0.55780E+06         0.00000E+00
    0.00000E+00         0.00000E+00        -0.26823E+06
 
   -0.72760E-10        -0.25298E-09         0.00000E+00
   -0.25298E-09        -0.55780E+06         0.00000E+00
    0.00000E+00         0.00000E+00        -0.26823E+06
 
   -0.34197E-09         0.30719E-09         0.00000E+00
    0.30719E-09        -0.55780E+06         0.00000E+00
    0.00000E+00         0.00000E+00        -0.26823E+06
 
   -0.40018E-09         0.36140E-10         0.00000E+00
    0.36140E-10        -0.55780E+06         0.00000E+00
    0.00000E+00         0.00000E+00        -0.26823E+06
 
   -0.10186E-09         0.00000E+00         0.00000E+00
    0.00000E+00        -0.55780E+06         0.00000E+00
    0.00000E+00         0.00000E+00        -0.26823E+06
 
   -0.21100E-09         0.30719E-09         0.00000E+00
    0.30719E-09        -0.55780E+06         0.00000E+00
    0.00000E+00         0.00000E+00        -0.26823E+06
 
    0.14552E-10         0.21684E-09         0.00000E+00
    0.21684E-09        -0.55780E+06         0.00000E+00
    0.00000E+00         0.00000E+00        -0.26823E+06
 
    0.58935E-09         0.00000E+00         0.00000E+00
    0.00000E+00        -0.55780E+06         0.00000E+00
    0.00000E+00         0.00000E+00        -0.26823E+06
 
    0.26193E-09         0.14456E-09         0.00000E+00
    0.14456E-09        -0.55780E+06         0.00000E+00
    0.00000E+00         0.00000E+00        -0.26823E+06
 
   -0.36380E-09        -0.25849E-25         0.00000E+00
   -0.25849E-25        -0.55734E+06         0.00000E+00
    0.00000E+00         0.00000E+00        -0.26777E+06
 
   -0.13824E-09        -0.30719E-09         0.00000E+00
   -0.30719E-09        -0.55734E+06         0.00000E+00
    0.00000E+00         0.00000E+00        -0.26777E+06
 
    0.87311E-10         0.25298E-09         0.00000E+00
    0.25298E-09        -0.55734E+06         0.00000E+00
    0.00000E+00         0.00000E+00        -0.26777E+06
 
   -0.46566E-09        -0.57824E-09         0.00000E+00
   -0.57824E-09        -0.55734E+06         0.00000E+00
    0.00000E+00         0.00000E+00        -0.26777E+06
 
   -0.54570E-09        -0.25298E-09         0.00000E+00
   -0.25298E-09        -0.55734E+06         0.00000E+00
    0.00000E+00         0.00000E+00        -0.26777E+06
 
   -0.50932E-09         0.72280E-10         0.00000E+00
    0.72280E-10        -0.55734E+06         0.00000E+00
    0.00000E+00         0.00000E+00        -0.26777E+06
 
   -0.60390E-09        -0.14456E-09         0.00000E+00
   -0.14456E-09        -0.55734E+06         0.00000E+00
    0.00000E+00         0.00000E+00        -0.26777E+06
 
   -0.66939E-09        -0.16263E-09         0.00000E+00
   -0.16263E-09        -0.55734E+06         0.00000E+00
    0.00000E+00         0.00000E+00        -0.26777E+06
 
   -0.38563E-09        -0.14456E-09         0.00000E+00
   -0.14456E-09        -0.55734E+06         0.00000E+00
    0.00000E+00         0.00000E+00        -0.26777E+06
 
   -0.39290E-09        -0.23491E-09         0.00000E+00
   -0.23491E-09        -0.55734E+06         0.00000E+00
    0.00000E+00         0.00000E+00        -0.26777E+06
 
   -0.27649E-09        -0.90350E-10         0.00000E+00
   -0.90350E-10        -0.55734E+06         0.00000E+00
    0.00000E+00         0.00000E+00        -0.26777E+06
 
   -0.18917E-09        -0.12649E-09         0.00000E+00
   -0.12649E-09        -0.55734E+06         0.00000E+00
    0.00000E+00         0.00000E+00        -0.26777E+06
 
   -0.58935E-09        -0.36140E-10         0.00000E+00
   -0.36140E-10        -0.55734E+06         0.00000E+00
    0.00000E+00         0.00000E+00        -0.26777E+06
 
   -0.46566E-09         0.90350E-10         0.00000E+00
    0.90350E-10        -0.55734E+06         0.00000E+00
    0.00000E+00         0.00000E+00        -0.26777E+06
 
   -0.22555E-09        -0.25298E-09         0.00000E+00
   -0.25298E-09        -0.55734E+06         0.00000E+00
    0.00000E+00         0.00000E+00        -0.26777E+06
 
   -0.30559E-09        -0.19877E-09         0.00000E+00
   -0.19877E-09        -0.55685E+06         0.00000E+00
    0.00000E+00         0.00000E+00        -0.26728E+06
 
   -0.72760E-11        -0.21684E-09         0.00000E+00
   -0.21684E-09        -0.55685E+06         0.00000E+00
    0.00000E+00         0.00000E+00        -0.26728E+06
 
    0.45839E-09         0.30719E-09         0.00000E+00
    0.30719E-09        -0.55685E+06         0.00000E+00
    0.00000E+00         0.00000E+00        -0.26728E+06
 
    0.36380E-09         0.00000E+00         0.00000E+00
    0.00000E+00        -0.55685E+06         0.00000E+00
    0.00000E+00         0.00000E+00        -0.26728E+06
 
    0.53842E-09         0.72280E-10         0.00000E+00
    0.72280E-10        -0.55685E+06         0.00000E+00
    0.00000E+00         0.00000E+00        -0.26728E+06
 
    0.29831E-09        -0.36140E-10         0.00000E+00
   -0.36140E-10        -0.55685E+06         0.00000E+00
    0.00000E+00         0.00000E+00        -0.26728E+06
 
    0.26193E-09         0.90350E-10         0.00000E+00
    0.90350E-10        -0.55685E+06         0.00000E+00
    0.00000E+00         0.00000E+00        -0.26728E+06
 
    0.48749E-09         0.10842E-09         0.00000E+00
    0.10842E-09        -0.55685E+06         0.00000E+00
    0.00000E+00         0.00000E+00        -0.26728E+06
 
   -0.10186E-09         0.10842E-09         0.00000E+00
    0.10842E-09        -0.55685E+06         0.00000E+00
    0.00000E+00         0.00000E+00        -0.26728E+06
 
    0.19645E-09         0.14456E-09         0.00000E+00
    0.14456E-09        -0.55685E+06         0.00000E+00
    0.00000E+00         0.00000E+00        -0.26728E+06
 
   -0.58208E-09         0.00000E+00         0.00000E+00
    0.00000E+00        -0.55685E+06         0.00000E+00
    0.00000E+00         0.00000E+00        -0.26728E+06
 
    0.36380E-10        -0.72280E-10         0.00000E+00
   -0.72280E-10        -0.55685E+06         0.00000E+00
    0.00000E+00         0.00000E+00        -0.26728E+06
 
    0.31287E-09         0.34333E-09         0.00000E+00
    0.34333E-09        -0.55685E+06         0.00000E+00
    0.00000E+00         0.00000E+00        -0.26728E+06
 
    0.24738E-09        -0.54210E-09         0.00000E+00
   -0.54210E-09        -0.55685E+06         0.00000E+00
    0.00000E+00         0.00000E+00        -0.26728E+06
 
   -0.10186E-09        -0.10842E-09         0.00000E+00
   -0.10842E-09        -0.55685E+06         0.00000E+00
    0.00000E+00         0.00000E+00        -0.26728E+06
 
   -0.80036E-09        -0.10842E-09         0.00000E+00
   -0.10842E-09        -0.55632E+06         0.00000E+00
    0.00000E+00         0.00000E+00        -0.26675E+06
 
    0.21828E-10        -0.72280E-10         0.00000E+00
   -0.72280E-10        -0.55632E+06         0.00000E+00
    0.00000E+00         0.00000E+00        -0.26675E+06
 
   -0.85129E-09        -0.18070E-09         0.00000E+00
   -0.18070E-09        -0.55632E+06         0.00000E+00
    0.00000E+00         0.00000E+00        -0.26675E+06
 
   -0.27649E-09        -0.25298E-09         0.00000E+00
   -0.25298E-09        -0.55632E+06         0.00000E+00
    0.00000E+00         0.00000E+00        -0.26675E+06
 
   -0.10186E-09        -0.18070E-09         0.00000E+00
   -0.18070E-09        -0.55632E+06         0.00000E+00
    0.00000E+00         0.00000E+00        -0.26675E+06
 
   -0.15280E-09        -0.43368E-09         0.00000E+00
   -0.43368E-09        -0.55632E+06         0.00000E+00
    0.00000E+00         0.00000E+00        -0.26675E+06
 
   -0.36380E-09         0.19877E-09         0.00000E+00
    0.19877E-09        -0.55632E+06         0.00000E+00
    0.00000E+00         0.00000E+00        -0.26675E+06
 
   -0.80036E-10        -0.21684E-09         0.00000E+00
   -0.21684E-09        -0.55632E+06         0.00000E+00
    0.00000E+00         0.00000E+00        -0.26675E+06
 
   -0.87311E-10        -0.19877E-09         0.00000E+00
   -0.19877E-09        -0.55632E+06         0.00000E+00
    0.00000E+00         0.00000E+00        -0.26675E+06
 
   -0.45839E-09        -0.10842E-09         0.00000E+00
   -0.10842E-09        -0.55632E+06         0.00000E+00
    0.00000E+00         0.00000E+00        -0.26675E+06
 
   -0.54570E-09        -0.18070E-10         0.00000E+00
   -0.18070E-10        -0.55632E+06         0.00000E+00
    0.00000E+00         0.00000E+00        -0.26675E+06
 
   -0.53114E-09         0.36140E-10         0.00000E+00
    0.36140E-10        -0.55632E+06         0.00000E+00
    0.00000E+00         0.00000E+00        -0.26675E+06
 
   -0.49477E-09         0.27105E-09         0.00000E+00
    0.27105E-09        -0.55632E+06         0.00000E+00
    0.00000E+00         0.00000E+00        -0.26675E+06
 
   -0.18190E-09        -0.18070E-09         0.00000E+00
   -0.18070E-09        -0.55632E+06         0.00000E+00
    0.00000E+00         0.00000E+00        -0.26675E+06
 
   -0.65484E-10        -0.72280E-10         0.00000E+00
   -0.72280E-10        -0.55632E+06         0.00000E+00
    0.00000E+00         0.00000E+00        -0.26675E+06
 
    0.61846E-09         0.32526E-09         0.00000E+00
    0.32526E-09        -0.55576E+06         0.00000E+00
    0.00000E+00         0.00000E+00        -0.26619E+06
 
   -0.91677E-09         0.36140E-10         0.00000E+00
    0.36140E-10        -0.55576E+06         0.00000E+00
    0.00000E+00         0.00000E+00        -0.26619E+06
 
    0.16007E-09         0.21684E-09         0.00000E+00
    0.21684E-09        -0.55576E+06         0.00000E+00
    0.00000E+00         0.00000E+00        -0.26619E+06
 
   -0.61118E-09         0.21684E-09         0.00000E+00
    0.21684E-09        -0.55576E+06         0.00000E+00
    0.00000E+00         0.00000E+00        -0.26619E+06
 
   -0.58935E-09         0.21684E-09         0.00000E+00
    0.21684E-09        -0.55576E+06         0.00000E+00
    0.00000E+00         0.00000E+00        -0.26619E+06
 
   -0.61846E-09         0.72280E-10         0.00000E+00
    0.72280E-10        -0.55576E+06         0.00000E+00
    0.00000E+00         0.00000E+00        -0.26619E+06
 
   -0.23283E-09         0.25298E-09         0.00000E+00
    0.25298E-09        -0.55576E+06         0.00000E+00
    0.00000E+00         0.00000E+00        -0.26619E+06
 
   -0.50204E-09        -0.28912E-09         0.00000E+00
   -0.28912E-09        -0.55576E+06         0.00000E+00
    0.00000E+00         0.00000E+00        -0.26619E+06
 
    0.56025E-09        -0.48789E-09         0.00000E+00
   -0.48789E-09        -0.55576E+06         0.00000E+00
    0.00000E+00         0.00000E+00        -0.26619E+06
 
    0.15862E-08        -0.12649E-09         0.00000E+00
   -0.12649E-09        -0.55576E+06         0.00000E+00
    0.00000E+00         0.00000E+00        -0.26619E+06
 
    0.63301E-09         0.34333E-09         0.00000E+00
    0.34333E-09        -0.55576E+06         0.00000E+00
    0.00000E+00         0.00000E+00        -0.26619E+06
 
   -0.16007E-09        -0.18070E-09         0.00000E+00
   -0.18070E-09        -0.55576E+06         0.00000E+00
    0.00000E+00         0.00000E+00        -0.26619E+06
 
    0.45839E-09        -0.50596E-09         0.00000E+00
   -0.50596E-09        -0.55576E+06         0.00000E+00
    0.00000E+00         0.00000E+00        -0.26619E+06
 
    0.16662E-08        -0.72280E-10         0.00000E+00
   -0.72280E-10        -0.55576E+06         0.00000E+00
    0.00000E+00         0.00000E+00        -0.26619E+06
 
    0.13897E-08         0.36140E-10         0.00000E+00
    0.36140E-10        -0.55576E+06         0.00000E+00
    0.00000E+00         0.00000E+00        -0.26619E+06
 
   -0.12660E-08         0.75894E-09         0.00000E+00
    0.75894E-09        -0.55516E+06         0.00000E+00
    0.00000E+00         0.00000E+00        -0.26559E+06
 
    0.63301E-09        -0.14456E-09         0.00000E+00
   -0.14456E-09        -0.55516E+06         0.00000E+00
    0.00000E+00         0.00000E+00        -0.26559E+06
 
   -0.58208E-09         0.14456E-09         0.00000E+00
    0.14456E-09        -0.55516E+06         0.00000E+00
    0.00000E+00         0.00000E+00        -0.26559E+06
 
    0.26921E-09        -0.28912E-09         0.00000E+00
   -0.28912E-09        -0.55516E+06         0.00000E+00
    0.00000E+00         0.00000E+00        -0.26559E+06
 
   -0.69849E-09        -0.14456E-09         0.00000E+00
   -0.14456E-09        -0.55516E+06         0.00000E+00
    0.00000E+00         0.00000E+00        -0.26559E+06
 
   -0.39290E-09        -0.32526E-09         0.00000E+00
   -0.32526E-09        -0.55516E+06         0.00000E+00
    0.00000E+00         0.00000E+00        -0.26559E+06
 
   -0.83674E-09        -0.21684E-09         0.00000E+00
   -0.21684E-09        -0.55516E+06         0.00000E+00
    0.00000E+00         0.00000E+00        -0.26559E+06
 
   -0.72760E-10        -0.36140E-10         0.00000E+00
   -0.36140E-10        -0.55516E+06         0.00000E+00
    0.00000E+00         0.00000E+00        -0.26559E+06
 
   -0.80036E-10        -0.39754E-09         0.00000E+00
   -0.39754E-09        -0.55516E+06         0.00000E+00
    0.00000E+00         0.00000E+00        -0.26559E+06
 
   -0.49477E-09        -0.18070E-10         0.00000E+00
   -0.18070E-10        -0.55516E+06         0.00000E+00
    0.00000E+00         0.00000E+00        -0.26559E+06
 
    0.16735E-09         0.30719E-09         0.00000E+00
    0.30719E-09        -0.55516E+06         0.00000E+00
    0.00000E+00         0.00000E+00        -0.26559E+06
 
    0.18917E-09        -0.14456E-09         0.00000E+00
   -0.14456E-09        -0.55516E+06         0.00000E+00
    0.00000E+00         0.00000E+00        -0.26559E+06
 
    0.73487E-09        -0.10481E-08         0.00000E+00
   -0.10481E-08        -0.55516E+06         0.00000E+00
    0.00000E+00         0.00000E+00        -0.26559E+06
 
    0.38563E-09         0.28912E-09         0.00000E+00
    0.28912E-09        -0.55516E+06         0.00000E+00
    0.00000E+00         0.00000E+00        -0.26559E+06
 
    0.36380E-10         0.72280E-10         0.00000E+00
    0.72280E-10        -0.55516E+06         0.00000E+00
    0.00000E+00         0.00000E+00        -0.26559E+06
 
    0.93860E-09        -0.72280E-10         0.00000E+00
   -0.72280E-10        -0.55453E+06         0.00000E+00
    0.00000E+00         0.00000E+00        -0.26496E+06
 
    0.67666E-09         0.65052E-09         0.00000E+00
    0.65052E-09        -0.55453E+06         0.00000E+00
    0.00000E+00         0.00000E+00        -0.26496E+06
 
   -0.33469E-09        -0.36140E-10         0.00000E+00
   -0.36140E-10        -0.55453E+06         0.00000E+00
    0.00000E+00         0.00000E+00        -0.26496E+06
 
    0.21828E-09         0.79508E-09         0.00000E+00
    0.79508E-09        -0.55453E+06         0.00000E+00
    0.00000E+00         0.00000E+00        -0.26496E+06
 
   -0.33469E-09         0.39754E-09         0.00000E+00
    0.39754E-09        -0.55453E+06         0.00000E+00
    0.00000E+00         0.00000E+00        -0.26496E+06
 
   -0.60390E-09        -0.18070E-09         0.00000E+00
   -0.18070E-09        -0.55453E+06         0.00000E+00
    0.00000E+00         0.00000E+00        -0.26496E+06
 
    0.24738E-09        -0.54210E-09         0.00000E+00
   -0.54210E-09        -0.55453E+06         0.00000E+00
    0.00000E+00         0.00000E+00        -0.26496E+06
 
    0.13824E-09         0.19877E-09         0.00000E+00
    0.19877E-09        -0.55453E+06         0.00000E+00
    0.00000E+00         0.00000E+00        -0.26496E+06
 
   -0.41473E-09         0.00000E+00         0.00000E+00
    0.00000E+00        -0.55453E+06         0.00000E+00
    0.00000E+00         0.00000E+00        -0.26496E+06
 
   -0.13897E-08         0.34333E-09         0.00000E+00
    0.34333E-09        -0.55453E+06         0.00000E+00
    0.00000E+00         0.00000E+00        -0.26496E+06
 
    0.46566E-09        -0.10842E-09         0.00000E+00
   -0.10842E-09        -0.55453E+06         0.00000E+00
    0.00000E+00         0.00000E+00        -0.26496E+06
 
    0.42928E-09        -0.43368E-09         0.00000E+00
   -0.43368E-09        -0.55453E+06         0.00000E+00
    0.00000E+00         0.00000E+00        -0.26496E+06
 
    0.67666E-09        -0.32526E-09         0.00000E+00
   -0.32526E-09        -0.55453E+06         0.00000E+00
    0.00000E+00         0.00000E+00        -0.26496E+06
 
    0.28376E-09        -0.36140E-10         0.00000E+00
   -0.36140E-10        -0.55453E+06         0.00000E+00
    0.00000E+00         0.00000E+00        -0.26496E+06
 
    0.49477E-09        -0.72280E-10         0.00000E+00
   -0.72280E-10        -0.55453E+06         0.00000E+00
    0.00000E+00         0.00000E+00        -0.26496E+06
 
   -0.12369E-08         0.18070E-09         0.00000E+00
    0.18070E-09        -0.55385E+06         0.00000E+00
    0.00000E+00         0.00000E+00        -0.26429E+06
 
   -0.87311E-09         0.36140E-09         0.00000E+00
    0.36140E-09        -0.55385E+06         0.00000E+00
    0.00000E+00         0.00000E+00        -0.26429E+06
 
   -0.12733E-08        -0.32526E-09         0.00000E+00
   -0.32526E-09        -0.55385E+06         0.00000E+00
    0.00000E+00         0.00000E+00        -0.26429E+06
 
   -0.90222E-09         0.39754E-09         0.00000E+00
    0.39754E-09        -0.55385E+06         0.00000E+00
    0.00000E+00         0.00000E+00        -0.26429E+06
 
   -0.49477E-09         0.72280E-10         0.00000E+00
    0.72280E-10        -0.55385E+06         0.00000E+00
    0.00000E+00         0.00000E+00        -0.26429E+06
 
   -0.46566E-09        -0.36140E-10         0.00000E+00
   -0.36140E-10        -0.55385E+06         0.00000E+00
    0.00000E+00         0.00000E+00        -0.26429E+06
 
   -0.10186E-09         0.39754E-09         0.00000E+00
    0.39754E-09        -0.55385E+06         0.00000E+00
    0.00000E+00         0.00000E+00        -0.26429E+06
 
    0.64756E-09         0.18070E-10         0.00000E+00
    0.18070E-10        -0.55385E+06         0.00000E+00
    0.00000E+00         0.00000E+00        -0.26429E+06
 
   -0.64028E-09        -0.41561E-09         0.00000E+00
   -0.41561E-09        -0.55385E+06         0.00000E+00
    0.00000E+00         0.00000E+00        -0.26429E+06
 
   -0.56752E-09        -0.23491E-09         0.00000E+00
   -0.23491E-09        -0.55385E+06         0.00000E+00
    0.00000E+00         0.00000E+00        -0.26429E+06
 
    0.13097E-09        -0.50596E-09         0.00000E+00
   -0.50596E-09        -0.55385E+06         0.00000E+00
    0.00000E+00         0.00000E+00        -0.26429E+06
 
    0.46566E-09         0.83122E-09         0.00000E+00
    0.83122E-09        -0.55385E+06         0.00000E+00
    0.00000E+00         0.00000E+00        -0.26429E+06
 
    0.66211E-09        -0.50596E-09         0.00000E+00
   -0.50596E-09        -0.55385E+06         0.00000E+00
    0.00000E+00         0.00000E+00        -0.26429E+06
 
    0.22555E-09         0.14456E-09         0.00000E+00
    0.14456E-09        -0.55385E+06         0.00000E+00
    0.00000E+00         0.00000E+00        -0.26429E+06
 
    0.54570E-09        -0.28912E-09         0.00000E+00
   -0.28912E-09        -0.55385E+06         0.00000E+00
    0.00000E+00         0.00000E+00        -0.26429E+06
 
    0.12369E-09         0.25298E-09         0.00000E+00
    0.25298E-09        -0.55314E+06         0.00000E+00
    0.00000E+00         0.00000E+00        -0.26358E+06
 
    0.15280E-09        -0.36140E-09         0.00000E+00
   -0.36140E-09        -0.55314E+06         0.00000E+00
    0.00000E+00         0.00000E+00        -0.26358E+06
 
   -0.35652E-09         0.14456E-09         0.00000E+00
    0.14456E-09        -0.55314E+06         0.00000E+00
    0.00000E+00         0.00000E+00        -0.26358E+06
 
   -0.76398E-09         0.00000E+00         0.00000E+00
    0.00000E+00        -0.55314E+06         0.00000E+00
    0.00000E+00         0.00000E+00        -0.26358E+06
 
   -0.88039E-09         0.36140E-10         0.00000E+00
    0.36140E-10        -0.55314E+06         0.00000E+00
    0.00000E+00         0.00000E+00        -0.26358E+06
 
   -0.13388E-08         0.10842E-09         0.00000E+00
    0.10842E-09        -0.55314E+06         0.00000E+00
    0.00000E+00         0.00000E+00        -0.26358E+06
 
   -0.43656E-09         0.14456E-09         0.00000E+00
    0.14456E-09        -0.55314E+06         0.00000E+00
    0.00000E+00         0.00000E+00        -0.26358E+06
 
   -0.31287E-09         0.36140E-10         0.00000E+00
    0.36140E-10        -0.55314E+06         0.00000E+00
    0.00000E+00         0.00000E+00        -0.26358E+06
 
    0.21828E-10        -0.41561E-09         0.00000E+00
   -0.41561E-09        -0.55314E+06         0.00000E+00
    0.00000E+00         0.00000E+00        -0.26358E+06
 
    0.38563E-09         0.18070E-09         0.00000E+00
    0.18070E-09        -0.55314E+06         0.00000E+00
    0.00000E+00         0.00000E+00        -0.26358E+06
 
   -0.72032E-09        -0.36140E-09         0.00000E+00
   -0.36140E-09        -0.55314E+06         0.00000E+00
    0.00000E+00         0.00000E+00        -0.26358E+06
 
   -0.12369E-09         0.28912E-09         0.00000E+00
    0.28912E-09        -0.55314E+06         0.00000E+00
    0.00000E+00         0.00000E+00        -0.26358E+06
 
   -0.23283E-09        -0.14456E-09         0.00000E+00
   -0.14456E-09        -0.55314E+06         0.00000E+00
    0.00000E+00         0.00000E+00        -0.26358E+06
 
   -0.15280E-09        -0.83122E-09         0.00000E+00
   -0.83122E-09        -0.55314E+06         0.00000E+00
    0.00000E+00         0.00000E+00        -0.26358E+06
 
    0.16007E-09         0.36140E-09         0.00000E+00
    0.36140E-09        -0.55314E+06         0.00000E+00
    0.00000E+00         0.00000E+00        -0.26358E+06
 
   -0.10186E-08        -0.61438E-09         0.00000E+00
   -0.61438E-09        -0.55240E+06         0.00000E+00
    0.00000E+00         0.00000E+00        -0.26283E+06
 
   -0.81491E-09         0.68666E-09         0.00000E+00
    0.68666E-09        -0.55240E+06         0.00000E+00
    0.00000E+00         0.00000E+00        -0.26283E+06
 
   -0.12369E-09         0.72280E-10         0.00000E+00
    0.72280E-10        -0.55240E+06         0.00000E+00
    0.00000E+00         0.00000E+00        -0.26283E+06
 
   -0.42201E-09        -0.10842E-09         0.00000E+00
   -0.10842E-09        -0.55240E+06         0.00000E+00
    0.00000E+00         0.00000E+00        -0.26283E+06
 
   -0.16735E-09         0.72280E-10         0.00000E+00
    0.72280E-10        -0.55240E+06         0.00000E+00
    0.00000E+00         0.00000E+00        -0.26283E+06
 
   -0.16735E-09        -0.72280E-10         0.00000E+00
   -0.72280E-10        -0.55240E+06         0.00000E+00
    0.00000E+00         0.00000E+00        -0.26283E+06
 
   -0.33469E-09         0.21684E-09         0.00000E+00
    0.21684E-09        -0.55240E+06         0.00000E+00
    0.00000E+00         0.00000E+00        -0.26283E+06
 
    0.19645E-09         0.90350E-10         0.00000E+00
    0.90350E-10        -0.55240E+06         0.00000E+00
    0.00000E+00         0.00000E+00        -0.26283E+06
 
   -0.34925E-09        -0.36140E-09         0.00000E+00
   -0.36140E-09        -0.55240E+06         0.00000E+00
    0.00000E+00         0.00000E+00        -0.26283E+06
 
   -0.76398E-09         0.32526E-09         0.00000E+00
    0.32526E-09        -0.55240E+06         0.00000E+00
    0.00000E+00         0.00000E+00        -0.26283E+06
 
   -0.41473E-09        -0.90350E-09         0.00000E+00
   -0.90350E-09        -0.55240E+06         0.00000E+00
    0.00000E+00         0.00000E+00        -0.26283E+06
 
    0.72760E-11         0.36140E-10         0.00000E+00
    0.36140E-10        -0.55240E+06         0.00000E+00
    0.00000E+00         0.00000E+00        -0.26283E+06
 
    0.10623E-08         0.72280E-10         0.00000E+00
    0.72280E-10        -0.55240E+06         0.00000E+00
    0.00000E+00         0.00000E+00        -0.26283E+06
 
   -0.64756E-09         0.00000E+00         0.00000E+00
    0.00000E+00        -0.55240E+06         0.00000E+00
    0.00000E+00         0.00000E+00        -0.26283E+06
 
   -0.48749E-09        -0.61438E-09         0.00000E+00
   -0.61438E-09        -0.55240E+06         0.00000E+00
    0.00000E+00         0.00000E+00        -0.26283E+06
 
    0.21828E-10         0.10842E-09         0.00000E+00
    0.10842E-09        -0.55161E+06         0.00000E+00
    0.00000E+00         0.00000E+00        -0.26204E+06
 
    0.79308E-09        -0.25298E-09         0.00000E+00
   -0.25298E-09        -0.55161E+06         0.00000E+00
    0.00000E+00         0.00000E+00        -0.26204E+06
 
   -0.47294E-09        -0.72280E-10         0.00000E+00
   -0.72280E-10        -0.55161E+06         0.00000E+00
    0.00000E+00         0.00000E+00        -0.26204E+06
 
   -0.12224E-08         0.14456E-09         0.00000E+00
    0.14456E-09        -0.55161E+06         0.00000E+00
    0.00000E+00         0.00000E+00        -0.26204E+06
 
   -0.77125E-09        -0.43368E-09         0.00000E+00
   -0.43368E-09        -0.55161E+06         0.00000E+00
    0.00000E+00         0.00000E+00        -0.26204E+06
 
   -0.14625E-08         0.00000E+00         0.00000E+00
    0.00000E+00        -0.55161E+06         0.00000E+00
    0.00000E+00         0.00000E+00        -0.26204E+06
 
   -0.74215E-09        -0.32526E-09         0.00000E+00
   -0.32526E-09        -0.55161E+06         0.00000E+00
    0.00000E+00         0.00000E+00        -0.26204E+06
 
   -0.61846E-09        -0.54210E-10         0.00000E+00
   -0.54210E-10        -0.55161E+06         0.00000E+00
    0.00000E+00         0.00000E+00        -0.26204E+06
 
   -0.72760E-09        -0.25298E-09         0.00000E+00
   -0.25298E-09        -0.55161E+06         0.00000E+00
    0.00000E+00         0.00000E+00        -0.26204E+06
 
   -0.31287E-09         0.46982E-09         0.00000E+00
    0.46982E-09        -0.55161E+06         0.00000E+00
    0.00000E+00         0.00000E+00        -0.26204E+06
 
    0.22555E-09         0.21684E-09         0.00000E+00
    0.21684E-09        -0.55161E+06         0.00000E+00
    0.00000E+00         0.00000E+00        -0.26204E+06
 
   -0.66211E-09        -0.14456E-09         0.00000E+00
   -0.14456E-09        -0.55161E+06         0.00000E+00
    0.00000E+00         0.00000E+00        -0.26204E+06
 
    0.23283E-09         0.39754E-09         0.00000E+00
    0.39754E-09        -0.55161E+06         0.00000E+00
    0.00000E+00         0.00000E+00        -0.26204E+06
 
   -0.72760E-10         0.72280E-10         0.00000E+00
    0.72280E-10        -0.55161E+06         0.00000E+00
    0.00000E+00         0.00000E+00        -0.26204E+06
 
    0.50204E-09        -0.36140E-10         0.00000E+00
   -0.36140E-10        -0.55161E+06         0.00000E+00
    0.00000E+00         0.00000E+00        -0.26204E+06
 
   -0.13169E-08        -0.36140E-10         0.00000E+00
   -0.36140E-10        -0.55078E+06         0.00000E+00
    0.00000E+00         0.00000E+00        -0.26121E+06
 
   -0.82218E-09        -0.54210E-09         0.00000E+00
   -0.54210E-09        -0.55078E+06         0.00000E+00
    0.00000E+00         0.00000E+00        -0.26121E+06
 
   -0.87311E-10         0.50596E-09         0.00000E+00
    0.50596E-09        -0.55078E+06         0.00000E+00
    0.00000E+00         0.00000E+00        -0.26121E+06
 
   -0.28376E-09        -0.61438E-09         0.00000E+00
   -0.61438E-09        -0.55078E+06         0.00000E+00
    0.00000E+00         0.00000E+00        -0.26121E+06
 
   -0.51659E-09        -0.18070E-09         0.00000E+00
   -0.18070E-09        -0.55078E+06         0.00000E+00
    0.00000E+00         0.00000E+00        -0.26121E+06
 
   -0.15862E-08         0.25298E-09         0.00000E+00
    0.25298E-09        -0.55078E+06         0.00000E+00
    0.00000E+00         0.00000E+00        -0.26121E+06
 
   -0.36380E-09        -0.18070E-10         0.00000E+00
   -0.18070E-10        -0.55078E+06         0.00000E+00
    0.00000E+00         0.00000E+00        -0.26121E+06
 
   -0.59663E-09        -0.36140E-10         0.00000E+00
   -0.36140E-10        -0.55078E+06         0.00000E+00
    0.00000E+00         0.00000E+00        -0.26121E+06
 
   -0.87311E-10        -0.25298E-09         0.00000E+00
   -0.25298E-09        -0.55078E+06         0.00000E+00
    0.00000E+00         0.00000E+00        -0.26121E+06
 
    0.26921E-09        -0.10842E-09         0.00000E+00
   -0.10842E-09        -0.55078E+06         0.00000E+00
    0.00000E+00         0.00000E+00        -0.26121E+06
 
   -0.14552E-08        -0.36140E-10         0.00000E+00
   -0.36140E-10        -0.55078E+06         0.00000E+00
    0.00000E+00         0.00000E+00        -0.26121E+06
 
    0.35652E-09        -0.14456E-09         0.00000E+00
   -0.14456E-09        -0.55078E+06         0.00000E+00
    0.00000E+00         0.00000E+00        -0.26121E+06
 
   -0.82946E-09         0.32526E-09         0.00000E+00
    0.32526E-09        -0.55078E+06         0.00000E+00
    0.00000E+00         0.00000E+00        -0.26121E+06
 
   -0.90949E-09        -0.50596E-09         0.00000E+00
   -0.50596E-09        -0.55078E+06         0.00000E+00
    0.00000E+00         0.00000E+00        -0.26121E+06
 
   -0.16298E-08         0.43368E-09         0.00000E+00
    0.43368E-09        -0.55078E+06         0.00000E+00
    0.00000E+00         0.00000E+00        -0.26121E+06
 
    0.42928E-09         0.39754E-09         0.00000E+00
    0.39754E-09        -0.54991E+06         0.00000E+00
    0.00000E+00         0.00000E+00        -0.26034E+06
 
    0.58935E-09        -0.18070E-09         0.00000E+00
   -0.18070E-09        -0.54991E+06         0.00000E+00
    0.00000E+00         0.00000E+00        -0.26034E+06
 
    0.51659E-09         0.10842E-09         0.00000E+00
    0.10842E-09        -0.54991E+06         0.00000E+00
    0.00000E+00         0.00000E+00        -0.26034E+06
 
   -0.10550E-08         0.43368E-09         0.00000E+00
    0.43368E-09        -0.54991E+06         0.00000E+00
    0.00000E+00         0.00000E+00        -0.26034E+06
 
    0.80036E-10        -0.36140E-09         0.00000E+00
   -0.36140E-09        -0.54991E+06         0.00000E+00
    0.00000E+00         0.00000E+00        -0.26034E+06
 
   -0.29104E-09         0.00000E+00         0.00000E+00
    0.00000E+00        -0.54991E+06         0.00000E+00
    0.00000E+00         0.00000E+00        -0.26034E+06
 
    0.11642E-09         0.28912E-09         0.00000E+00
    0.28912E-09        -0.54991E+06         0.00000E+00
    0.00000E+00         0.00000E+00        -0.26034E+06
 
   -0.57480E-09         0.72280E-09         0.00000E+00
    0.72280E-09        -0.54991E+06         0.00000E+00
    0.00000E+00         0.00000E+00        -0.26034E+06
 
   -0.64028E-09         0.72280E-10         0.00000E+00
    0.72280E-10        -0.54991E+06         0.00000E+00
    0.00000E+00         0.00000E+00        -0.26034E+06
 
   -0.11787E-08         0.36140E-09         0.00000E+00
    0.36140E-09        -0.54991E+06         0.00000E+00
    0.00000E+00         0.00000E+00        -0.26034E+06
 
   -0.34925E-09         0.86736E-09         0.00000E+00
    0.86736E-09        -0.54991E+06         0.00000E+00
    0.00000E+00         0.00000E+00        -0.26034E+06
 
   -0.65484E-09        -0.32526E-09         0.00000E+00
   -0.32526E-09        -0.54991E+06         0.00000E+00
    0.00000E+00         0.00000E+00        -0.26034E+06
 
    0.17462E-09        -0.36140E-10         0.00000E+00
   -0.36140E-10        -0.54991E+06         0.00000E+00
    0.00000E+00         0.00000E+00        -0.26034E+06
 
    0.24011E-09         0.32526E-09         0.00000E+00
    0.32526E-09        -0.54991E+06         0.00000E+00
    0.00000E+00         0.00000E+00        -0.26034E+06
 
    0.12369E-08        -0.75894E-09         0.00000E+00
   -0.75894E-09        -0.54991E+06         0.00000E+00
    0.00000E+00         0.00000E+00        -0.26034E+06
 
    0.41473E-09        -0.79508E-09         0.00000E+00
   -0.79508E-09        -0.54899E+06         0.00000E+00
    0.00000E+00         0.00000E+00        -0.25943E+06
 
    0.40745E-09        -0.32526E-09         0.00000E+00
   -0.32526E-09        -0.54899E+06         0.00000E+00
    0.00000E+00         0.00000E+00        -0.25943E+06
 
   -0.14115E-08        -0.14456E-09         0.00000E+00
   -0.14456E-09        -0.54899E+06         0.00000E+00
    0.00000E+00         0.00000E+00        -0.25943E+06
 
   -0.80036E-09         0.28912E-09         0.00000E+00
    0.28912E-09        -0.54899E+06         0.00000E+00
    0.00000E+00         0.00000E+00        -0.25943E+06
 
    0.10259E-08        -0.72280E-10         0.00000E+00
   -0.72280E-10        -0.54899E+06         0.00000E+00
    0.00000E+00         0.00000E+00        -0.25943E+06
 
    0.23065E-08         0.00000E+00         0.00000E+00
    0.00000E+00        -0.54899E+06         0.00000E+00
    0.00000E+00         0.00000E+00        -0.25943E+06
 
    0.26121E-08         0.25298E-09         0.00000E+00
    0.25298E-09        -0.54899E+06         0.00000E+00
    0.00000E+00         0.00000E+00        -0.25943E+06
 
    0.18845E-08         0.14456E-09         0.00000E+00
    0.14456E-09        -0.54899E+06         0.00000E+00
    0.00000E+00         0.00000E+00        -0.25943E+06
 
    0.43656E-09        -0.50596E-09         0.00000E+00
   -0.50596E-09        -0.54899E+06         0.00000E+00
    0.00000E+00         0.00000E+00        -0.25943E+06
 
    0.76398E-09        -0.28912E-09         0.00000E+00
   -0.28912E-09        -0.54899E+06         0.00000E+00
    0.00000E+00         0.00000E+00        -0.25943E+06
 
   -0.72760E-10         0.93964E-09         0.00000E+00
    0.93964E-09        -0.54899E+06         0.00000E+00
    0.00000E+00         0.00000E+00        -0.25943E+06
 
    0.10914E-08         0.21684E-09         0.00000E+00
    0.21684E-09        -0.54899E+06         0.00000E+00
    0.00000E+00         0.00000E+00        -0.25943E+06
 
    0.25466E-09         0.21684E-09         0.00000E+00
    0.21684E-09        -0.54899E+06         0.00000E+00
    0.00000E+00         0.00000E+00        -0.25943E+06
 
    0.81491E-09         0.72280E-10         0.00000E+00
    0.72280E-10        -0.54899E+06         0.00000E+00
    0.00000E+00         0.00000E+00        -0.25943E+06
 
   -0.13970E-08         0.72280E-10         0.00000E+00
    0.72280E-10        -0.54899E+06         0.00000E+00
    0.00000E+00         0.00000E+00        -0.25943E+06
 
    0.69122E-09         0.39754E-09         0.00000E+00
    0.39754E-09        -0.54804E+06         0.00000E+00
    0.00000E+00         0.00000E+00        -0.25847E+06
 
   -0.72032E-09        -0.46982E-09         0.00000E+00
   -0.46982E-09        -0.54804E+06         0.00000E+00
    0.00000E+00         0.00000E+00        -0.25847E+06
 
    0.36380E-09         0.28912E-09         0.00000E+00
    0.28912E-09        -0.54804E+06         0.00000E+00
    0.00000E+00         0.00000E+00        -0.25847E+06
 
    0.17462E-09         0.00000E+00         0.00000E+00
    0.00000E+00        -0.54804E+06         0.00000E+00
    0.00000E+00         0.00000E+00        -0.25847E+06
 
   -0.93132E-09        -0.43368E-09         0.00000E+00
   -0.43368E-09        -0.54804E+06         0.00000E+00
    0.00000E+00         0.00000E+00        -0.25847E+06
 
    0.80036E-10        -0.14456E-09         0.00000E+00
   -0.14456E-09        -0.54804E+06         0.00000E+00
    0.00000E+00         0.00000E+00        -0.25847E+06
 
   -0.12369E-08         0.61438E-09         0.00000E+00
    0.61438E-09        -0.54804E+06         0.00000E+00
    0.00000E+00         0.00000E+00        -0.25847E+06
 
    0.54570E-09         0.28912E-09         0.00000E+00
    0.28912E-09        -0.54804E+06         0.00000E+00
    0.00000E+00         0.00000E+00        -0.25847E+06
 
    0.44383E-09        -0.39754E-09         0.00000E+00
   -0.39754E-09        -0.54804E+06         0.00000E+00
    0.00000E+00         0.00000E+00        -0.25847E+06
 
    0.11569E-08         0.32526E-09         0.00000E+00
    0.32526E-09        -0.54804E+06         0.00000E+00
    0.00000E+00         0.00000E+00        -0.25847E+06
 
    0.15498E-08         0.54210E-09         0.00000E+00
    0.54210E-09        -0.54804E+06         0.00000E+00
    0.00000E+00         0.00000E+00        -0.25847E+06
 
    0.17462E-09        -0.18070E-09         0.00000E+00
   -0.18070E-09        -0.54804E+06         0.00000E+00
    0.00000E+00         0.00000E+00        -0.25847E+06
 
   -0.62573E-09         0.43368E-09         0.00000E+00
    0.43368E-09        -0.54804E+06         0.00000E+00
    0.00000E+00         0.00000E+00        -0.25847E+06
 
   -0.18917E-09         0.21684E-09         0.00000E+00
    0.21684E-09        -0.54804E+06         0.00000E+00
    0.00000E+00         0.00000E+00        -0.25847E+06
 
    0.24011E-09         0.18070E-09         0.00000E+00
    0.18070E-09        -0.54804E+06         0.00000E+00
    0.00000E+00         0.00000E+00        -0.25847E+06
 
   -0.31287E-09         0.28912E-09         0.00000E+00
    0.28912E-09        -0.54704E+06         0.00000E+00
    0.00000E+00         0.00000E+00        -0.25747E+06
 
   -0.10114E-08        -0.46982E-09         0.00000E+00
   -0.46982E-09        -0.54704E+06         0.00000E+00
    0.00000E+00         0.00000E+00        -0.25747E+06
 
   -0.11496E-08         0.43368E-09         0.00000E+00
    0.43368E-09        -0.54704E+06         0.00000E+00
    0.00000E+00         0.00000E+00        -0.25747E+06
 
   -0.12151E-08        -0.54210E-09         0.00000E+00
   -0.54210E-09        -0.54704E+06         0.00000E+00
    0.00000E+00         0.00000E+00        -0.25747E+06
 
   -0.39290E-09        -0.57824E-09         0.00000E+00
   -0.57824E-09        -0.54704E+06         0.00000E+00
    0.00000E+00         0.00000E+00        -0.25747E+06
 
   -0.94587E-10         0.14456E-09         0.00000E+00
    0.14456E-09        -0.54704E+06         0.00000E+00
    0.00000E+00         0.00000E+00        -0.25747E+06
 
    0.18917E-09         0.28912E-09         0.00000E+00
    0.28912E-09        -0.54704E+06         0.00000E+00
    0.00000E+00         0.00000E+00        -0.25747E+06
 
    0.21828E-09         0.32526E-09         0.00000E+00
    0.32526E-09        -0.54704E+06         0.00000E+00
    0.00000E+00         0.00000E+00        -0.25747E+06
 
   -0.91677E-09         0.97578E-09         0.00000E+00
    0.97578E-09        -0.54704E+06         0.00000E+00
    0.00000E+00         0.00000E+00        -0.25747E+06
 
   -0.94587E-10         0.36140E-09         0.00000E+00
    0.36140E-09        -0.54704E+06         0.00000E+00
    0.00000E+00         0.00000E+00        -0.25747E+06
 
   -0.13024E-08         0.14456E-09         0.00000E+00
    0.14456E-09        -0.54704E+06         0.00000E+00
    0.00000E+00         0.00000E+00        -0.25747E+06
 
   -0.10696E-08        -0.54210E-09         0.00000E+00
   -0.54210E-09        -0.54704E+06         0.00000E+00
    0.00000E+00         0.00000E+00        -0.25747E+06
 
    0.96043E-09         0.14456E-09         0.00000E+00
    0.14456E-09        -0.54704E+06         0.00000E+00
    0.00000E+00         0.00000E+00        -0.25747E+06
 
    0.96043E-09        -0.72280E-10         0.00000E+00
   -0.72280E-10        -0.54704E+06         0.00000E+00
    0.00000E+00         0.00000E+00        -0.25747E+06
 
   -0.93132E-09         0.72280E-10         0.00000E+00
    0.72280E-10        -0.54704E+06         0.00000E+00
    0.00000E+00         0.00000E+00        -0.25747E+06
 
    0.12951E-08         0.54210E-09         0.00000E+00
    0.54210E-09        -0.54599E+06         0.00000E+00
    0.00000E+00         0.00000E+00        -0.25642E+06
 
    0.17462E-09        -0.32526E-09         0.00000E+00
   -0.32526E-09        -0.54599E+06         0.00000E+00
    0.00000E+00         0.00000E+00        -0.25642E+06
 
    0.10259E-08        -0.14456E-09         0.00000E+00
   -0.14456E-09        -0.54599E+06         0.00000E+00
    0.00000E+00         0.00000E+00        -0.25642E+06
 
    0.67666E-09         0.00000E+00         0.00000E+00
    0.00000E+00        -0.54599E+06         0.00000E+00
    0.00000E+00         0.00000E+00        -0.25642E+06
 
   -0.37107E-09        -0.32526E-09         0.00000E+00
   -0.32526E-09        -0.54599E+06         0.00000E+00
    0.00000E+00         0.00000E+00        -0.25642E+06
 
   -0.14406E-08        -0.32526E-09         0.00000E+00
   -0.32526E-09        -0.54599E+06         0.00000E+00
    0.00000E+00         0.00000E+00        -0.25642E+06
 
   -0.10914E-08         0.36140E-09         0.00000E+00
    0.36140E-09        -0.54599E+06         0.00000E+00
    0.00000E+00         0.00000E+00        -0.25642E+06
 
   -0.49477E-09        -0.43368E-09         0.00000E+00
   -0.43368E-09        -0.54599E+06         0.00000E+00
    0.00000E+00         0.00000E+00        -0.25642E+06
 
    0.32742E-09         0.90350E-09         0.00000E+00
    0.90350E-09        -0.54599E+06         0.00000E+00
    0.00000E+00         0.00000E+00        -0.25642E+06
 
    0.93860E-09        -0.14456E-09         0.00000E+00
   -0.14456E-09        -0.54599E+06         0.00000E+00
    0.00000E+00         0.00000E+00        -0.25642E+06
 
    0.10914E-08        -0.36140E-10         0.00000E+00
   -0.36140E-10        -0.54599E+06         0.00000E+00
    0.00000E+00         0.00000E+00        -0.25642E+06
 
   -0.80763E-09        -0.54210E-09         0.00000E+00
   -0.54210E-09        -0.54599E+06         0.00000E+00
    0.00000E+00         0.00000E+00        -0.25642E+06
 
   -0.39290E-09        -0.10842E-09         0.00000E+00
   -0.10842E-09        -0.54599E+06         0.00000E+00
    0.00000E+00         0.00000E+00        -0.25642E+06
 
   -0.55297E-09        -0.14456E-09         0.00000E+00
   -0.14456E-09        -0.54599E+06         0.00000E+00
    0.00000E+00         0.00000E+00        -0.25642E+06
 
    0.13824E-09         0.00000E+00         0.00000E+00
    0.00000E+00        -0.54599E+06         0.00000E+00
    0.00000E+00         0.00000E+00        -0.25642E+06
 
   -0.10914E-08        -0.36140E-10         0.00000E+00
   -0.36140E-10        -0.54490E+06         0.00000E+00
    0.00000E+00         0.00000E+00        -0.25533E+06
 
   -0.13242E-08        -0.36140E-10         0.00000E+00
   -0.36140E-10        -0.54490E+06         0.00000E+00
    0.00000E+00         0.00000E+00        -0.25533E+06
 
    0.29104E-09         0.36140E-09         0.00000E+00
    0.36140E-09        -0.54490E+06         0.00000E+00
    0.00000E+00         0.00000E+00        -0.25533E+06
 
    0.23283E-09        -0.36140E-09         0.00000E+00
   -0.36140E-09        -0.54490E+06         0.00000E+00
    0.00000E+00         0.00000E+00        -0.25533E+06
 
    0.36380E-10         0.25298E-09         0.00000E+00
    0.25298E-09        -0.54490E+06         0.00000E+00
    0.00000E+00         0.00000E+00        -0.25533E+06
 
    0.32014E-09        -0.18070E-09         0.00000E+00
   -0.18070E-09        -0.54490E+06         0.00000E+00
    0.00000E+00         0.00000E+00        -0.25533E+06
 
    0.74215E-09         0.10119E-08         0.00000E+00
    0.10119E-08        -0.54490E+06         0.00000E+00
    0.00000E+00         0.00000E+00        -0.25533E+06
 
   -0.72760E-11         0.36140E-09         0.00000E+00
    0.36140E-09        -0.54490E+06         0.00000E+00
    0.00000E+00         0.00000E+00        -0.25533E+06
 
    0.50932E-10         0.50596E-09         0.00000E+00
    0.50596E-09        -0.54490E+06         0.00000E+00
    0.00000E+00         0.00000E+00        -0.25533E+06
 
   -0.34197E-09        -0.43368E-09         0.00000E+00
   -0.43368E-09        -0.54490E+06         0.00000E+00
    0.00000E+00         0.00000E+00        -0.25533E+06
 
    0.62573E-09         0.43368E-09         0.00000E+00
    0.43368E-09        -0.54490E+06         0.00000E+00
    0.00000E+00         0.00000E+00        -0.25533E+06
 
   -0.99681E-09        -0.39754E-09         0.00000E+00
   -0.39754E-09        -0.54490E+06         0.00000E+00
    0.00000E+00         0.00000E+00        -0.25533E+06
 
    0.58208E-10        -0.72280E-10         0.00000E+00
   -0.72280E-10        -0.54490E+06         0.00000E+00
    0.00000E+00         0.00000E+00        -0.25533E+06
 
    0.71304E-09         0.14456E-09         0.00000E+00
    0.14456E-09        -0.54490E+06         0.00000E+00
    0.00000E+00         0.00000E+00        -0.25533E+06
 
    0.15498E-08         0.43368E-09         0.00000E+00
    0.43368E-09        -0.54490E+06         0.00000E+00
    0.00000E+00         0.00000E+00        -0.25533E+06
 
   -0.74215E-09         0.14456E-09         0.00000E+00
    0.14456E-09        -0.54375E+06         0.00000E+00
    0.00000E+00         0.00000E+00        -0.25419E+06
 
   -0.12151E-08        -0.14456E-09         0.00000E+00
   -0.14456E-09        -0.54375E+06         0.00000E+00
    0.00000E+00         0.00000E+00        -0.25419E+06
 
   -0.76398E-09        -0.36140E-09         0.00000E+00
   -0.36140E-09        -0.54375E+06         0.00000E+00
    0.00000E+00         0.00000E+00        -0.25419E+06
 
   -0.42928E-09         0.00000E+00         0.00000E+00
    0.00000E+00        -0.54375E+06         0.00000E+00
    0.00000E+00         0.00000E+00        -0.25419E+06
 
   -0.74215E-09        -0.54210E-09         0.00000E+00
   -0.54210E-09        -0.54375E+06         0.00000E+00
    0.00000E+00         0.00000E+00        -0.25419E+06
 
   -0.55297E-09         0.10842E-09         0.00000E+00
    0.10842E-09        -0.54375E+06         0.00000E+00
    0.00000E+00         0.00000E+00        -0.25419E+06
 
   -0.54570E-09        -0.28912E-09         0.00000E+00
   -0.28912E-09        -0.54375E+06         0.00000E+00
    0.00000E+00         0.00000E+00        -0.25419E+06
 
   -0.52387E-09         0.00000E+00         0.00000E+00
    0.00000E+00        -0.54375E+06         0.00000E+00
    0.00000E+00         0.00000E+00        -0.25419E+06
 
    0.11278E-08         0.72280E-10         0.00000E+00
    0.72280E-10        -0.54375E+06         0.00000E+00
    0.00000E+00         0.00000E+00        -0.25419E+06
 
    0.66211E-09        -0.12288E-08         0.00000E+00
   -0.12288E-08        -0.54375E+06         0.00000E+00
    0.00000E+00         0.00000E+00        -0.25419E+06
 
   -0.63301E-09         0.50596E-09         0.00000E+00
    0.50596E-09        -0.54375E+06         0.00000E+00
    0.00000E+00         0.00000E+00        -0.25419E+06
 
   -0.32014E-09         0.36140E-09         0.00000E+00
    0.36140E-09        -0.54375E+06         0.00000E+00
    0.00000E+00         0.00000E+00        -0.25419E+06
 
   -0.79308E-09         0.57824E-09         0.00000E+00
    0.57824E-09        -0.54375E+06         0.00000E+00
    0.00000E+00         0.00000E+00        -0.25419E+06
 
   -0.13097E-08        -0.10842E-08         0.00000E+00
   -0.10842E-08        -0.54375E+06         0.00000E+00
    0.00000E+00         0.00000E+00        -0.25419E+06
 
   -0.13242E-08        -0.36140E-09         0.00000E+00
   -0.36140E-09        -0.54375E+06         0.00000E+00
    0.00000E+00         0.00000E+00        -0.25419E+06
 
   -0.56752E-09        -0.72280E-10         0.00000E+00
   -0.72280E-10        -0.54256E+06         0.00000E+00
    0.00000E+00         0.00000E+00        -0.25300E+06
 
    0.69849E-09         0.36140E-10         0.00000E+00
    0.36140E-10        -0.54256E+06         0.00000E+00
    0.00000E+00         0.00000E+00        -0.25300E+06
 
   -0.47294E-09        -0.43368E-09         0.00000E+00
   -0.43368E-09        -0.54256E+06         0.00000E+00
    0.00000E+00         0.00000E+00        -0.25300E+06
 
   -0.56752E-09         0.72280E-10         0.00000E+00
    0.72280E-10        -0.54256E+06         0.00000E+00
    0.00000E+00         0.00000E+00        -0.25300E+06
 
   -0.30559E-09        -0.72280E-10         0.00000E+00
   -0.72280E-10        -0.54256E+06         0.00000E+00
    0.00000E+00         0.00000E+00        -0.25300E+06
 
    0.18917E-09        -0.25298E-09         0.00000E+00
   -0.25298E-09        -0.54256E+06         0.00000E+00
    0.00000E+00         0.00000E+00        -0.25300E+06
 
   -0.64028E-09         0.39754E-09         0.00000E+00
    0.39754E-09        -0.54256E+06         0.00000E+00
    0.00000E+00         0.00000E+00        -0.25300E+06
 
   -0.10114E-08         0.14456E-09         0.00000E+00
    0.14456E-09        -0.54256E+06         0.00000E+00
    0.00000E+00         0.00000E+00        -0.25300E+06
 
    0.77125E-09         0.50596E-09         0.00000E+00
    0.50596E-09        -0.54256E+06         0.00000E+00
    0.00000E+00         0.00000E+00        -0.25300E+06
 
   -0.21828E-10        -0.57824E-09         0.00000E+00
   -0.57824E-09        -0.54256E+06         0.00000E+00
    0.00000E+00         0.00000E+00        -0.25300E+06
 
    0.43656E-09         0.18793E-08         0.00000E+00
    0.18793E-08        -0.54256E+06         0.00000E+00
    0.00000E+00         0.00000E+00        -0.25300E+06
 
    0.18917E-09        -0.57824E-09         0.00000E+00
   -0.57824E-09        -0.54256E+06         0.00000E+00
    0.00000E+00         0.00000E+00        -0.25300E+06
 
    0.33469E-09        -0.65052E-09         0.00000E+00
   -0.65052E-09        -0.54256E+06         0.00000E+00
    0.00000E+00         0.00000E+00        -0.25300E+06
 
    0.87311E-10         0.79508E-09         0.00000E+00
    0.79508E-09        -0.54256E+06         0.00000E+00
    0.00000E+00         0.00000E+00        -0.25300E+06
 
   -0.16007E-09        -0.36140E-09         0.00000E+00
   -0.36140E-09        -0.54256E+06         0.00000E+00
    0.00000E+00         0.00000E+00        -0.25300E+06
 
   -0.40745E-09         0.36140E-10         0.00000E+00
    0.36140E-10        -0.54132E+06         0.00000E+00
    0.00000E+00         0.00000E+00        -0.25176E+06
 
   -0.54570E-09         0.72280E-10         0.00000E+00
    0.72280E-10        -0.54132E+06         0.00000E+00
    0.00000E+00         0.00000E+00        -0.25176E+06
 
   -0.68394E-09         0.28912E-09         0.00000E+00
    0.28912E-09        -0.54132E+06         0.00000E+00
    0.00000E+00         0.00000E+00        -0.25176E+06
 
   -0.59663E-09        -0.57824E-09         0.00000E+00
   -0.57824E-09        -0.54132E+06         0.00000E+00
    0.00000E+00         0.00000E+00        -0.25176E+06
 
   -0.11642E-09        -0.43368E-09         0.00000E+00
   -0.43368E-09        -0.54132E+06         0.00000E+00
    0.00000E+00         0.00000E+00        -0.25176E+06
 
   -0.17462E-09        -0.18070E-09         0.00000E+00
   -0.18070E-09        -0.54132E+06         0.00000E+00
    0.00000E+00         0.00000E+00        -0.25176E+06
 
    0.53114E-09        -0.10842E-09         0.00000E+00
   -0.10842E-09        -0.54132E+06         0.00000E+00
    0.00000E+00         0.00000E+00        -0.25176E+06
 
   -0.69849E-09        -0.72280E-10         0.00000E+00
   -0.72280E-10        -0.54132E+06         0.00000E+00
    0.00000E+00         0.00000E+00        -0.25176E+06
 
    0.32014E-09        -0.36140E-09         0.00000E+00
   -0.36140E-09        -0.54132E+06         0.00000E+00
    0.00000E+00         0.00000E+00        -0.25176E+06
 
   -0.77853E-09        -0.65052E-09         0.00000E+00
   -0.65052E-09        -0.54132E+06         0.00000E+00
    0.00000E+00         0.00000E+00        -0.25176E+06
 
    0.87311E-10         0.72280E-09         0.00000E+00
    0.72280E-09        -0.54132E+06         0.00000E+00
    0.00000E+00         0.00000E+00        -0.25176E+06
 
    0.65484E-10        -0.72280E-10         0.00000E+00
   -0.72280E-10        -0.54132E+06         0.00000E+00
    0.00000E+00         0.00000E+00        -0.25176E+06
 
    0.10114E-08        -0.65052E-09         0.00000E+00
   -0.65052E-09        -0.54132E+06         0.00000E+00
    0.00000E+00         0.00000E+00        -0.25176E+06
 
   -0.20373E-09        -0.50596E-09         0.00000E+00
   -0.50596E-09        -0.54132E+06         0.00000E+00
    0.00000E+00         0.00000E+00        -0.25176E+06
 
   -0.66939E-09         0.28912E-09         0.00000E+00
    0.28912E-09        -0.54132E+06         0.00000E+00
    0.00000E+00         0.00000E+00        -0.25176E+06
 
   -0.10405E-08         0.36140E-10         0.00000E+00
    0.36140E-10        -0.54003E+06         0.00000E+00
    0.00000E+00         0.00000E+00        -0.25046E+06
 
   -0.14115E-08        -0.50596E-09         0.00000E+00
   -0.50596E-09        -0.54003E+06         0.00000E+00
    0.00000E+00         0.00000E+00        -0.25046E+06
 
   -0.11787E-08        -0.14456E-09         0.00000E+00
   -0.14456E-09        -0.54003E+06         0.00000E+00
    0.00000E+00         0.00000E+00        -0.25046E+06
 
   -0.85856E-09         0.18070E-09         0.00000E+00
    0.18070E-09        -0.54003E+06         0.00000E+00
    0.00000E+00         0.00000E+00        -0.25046E+06
 
   -0.11205E-08         0.00000E+00         0.00000E+00
    0.00000E+00        -0.54003E+06         0.00000E+00
    0.00000E+00         0.00000E+00        -0.25046E+06
 
   -0.72760E-09        -0.28912E-09         0.00000E+00
   -0.28912E-09        -0.54003E+06         0.00000E+00
    0.00000E+00         0.00000E+00        -0.25046E+06
 
   -0.13606E-08        -0.14456E-09         0.00000E+00
   -0.14456E-09        -0.54003E+06         0.00000E+00
    0.00000E+00         0.00000E+00        -0.25046E+06
 
   -0.31287E-09        -0.86736E-09         0.00000E+00
   -0.86736E-09        -0.54003E+06         0.00000E+00
    0.00000E+00         0.00000E+00        -0.25046E+06
 
    0.65484E-10        -0.57824E-09         0.00000E+00
   -0.57824E-09        -0.54003E+06         0.00000E+00
    0.00000E+00         0.00000E+00        -0.25046E+06
 
    0.13169E-08         0.21684E-09         0.00000E+00
    0.21684E-09        -0.54003E+06         0.00000E+00
    0.00000E+00         0.00000E+00        -0.25046E+06
 
   -0.64756E-09         0.57824E-09         0.00000E+00
    0.57824E-09        -0.54003E+06         0.00000E+00
    0.00000E+00         0.00000E+00        -0.25046E+06
 
    0.42201E-09        -0.43368E-09         0.00000E+00
   -0.43368E-09        -0.54003E+06         0.00000E+00
    0.00000E+00         0.00000E+00        -0.25046E+06
 
   -0.22555E-09        -0.14456E-09         0.00000E+00
   -0.14456E-09        -0.54003E+06         0.00000E+00
    0.00000E+00         0.00000E+00        -0.25046E+06
 
    0.65484E-09        -0.65052E-09         0.00000E+00
   -0.65052E-09        -0.54003E+06         0.00000E+00
    0.00000E+00         0.00000E+00        -0.25046E+06
 
    0.52387E-09         0.00000E+00         0.00000E+00
    0.00000E+00        -0.54003E+06         0.00000E+00
    0.00000E+00         0.00000E+00        -0.25046E+06
 
   -0.15280E-09        -0.14456E-09         0.00000E+00
   -0.14456E-09        -0.53869E+06         0.00000E+00
    0.00000E+00         0.00000E+00        -0.24912E+06
 
   -0.25466E-09        -0.50596E-09         0.00000E+00
   -0.50596E-09        -0.53869E+06         0.00000E+00
    0.00000E+00         0.00000E+00        -0.24912E+06
 
    0.30559E-09        -0.72280E-10         0.00000E+00
   -0.72280E-10        -0.53869E+06         0.00000E+00
    0.00000E+00         0.00000E+00        -0.24912E+06
 
    0.29104E-09         0.10842E-09         0.00000E+00
    0.10842E-09        -0.53869E+06         0.00000E+00
    0.00000E+00         0.00000E+00        -0.24912E+06
 
    0.36380E-10         0.10842E-09         0.00000E+00
    0.10842E-09        -0.53869E+06         0.00000E+00
    0.00000E+00         0.00000E+00        -0.24912E+06
 
    0.78580E-09         0.10842E-09         0.00000E+00
    0.10842E-09        -0.53869E+06         0.00000E+00
    0.00000E+00         0.00000E+00        -0.24912E+06
 
    0.10696E-08        -0.36140E-10         0.00000E+00
   -0.36140E-10        -0.53869E+06         0.00000E+00
    0.00000E+00         0.00000E+00        -0.24912E+06
 
    0.13024E-08         0.43368E-09         0.00000E+00
    0.43368E-09        -0.53869E+06         0.00000E+00
    0.00000E+00         0.00000E+00        -0.24912E+06
 
   -0.64756E-09        -0.10842E-08         0.00000E+00
   -0.10842E-08        -0.53869E+06         0.00000E+00
    0.00000E+00         0.00000E+00        -0.24912E+06
 
   -0.10550E-08         0.13010E-08         0.00000E+00
    0.13010E-08        -0.53869E+06         0.00000E+00
    0.00000E+00         0.00000E+00        -0.24912E+06
 
    0.14188E-08        -0.28912E-09         0.00000E+00
   -0.28912E-09        -0.53869E+06         0.00000E+00
    0.00000E+00         0.00000E+00        -0.24912E+06
 
   -0.34925E-09        -0.50596E-09         0.00000E+00
   -0.50596E-09        -0.53869E+06         0.00000E+00
    0.00000E+00         0.00000E+00        -0.24912E+06
 
   -0.11642E-09         0.28912E-09         0.00000E+00
    0.28912E-09        -0.53869E+06         0.00000E+00
    0.00000E+00         0.00000E+00        -0.24912E+06
 
    0.26193E-09         0.28912E-09         0.00000E+00
    0.28912E-09        -0.53869E+06         0.00000E+00
    0.00000E+00         0.00000E+00        -0.24912E+06
 
   -0.30559E-09         0.72280E-10         0.00000E+00
    0.72280E-10        -0.53869E+06         0.00000E+00
    0.00000E+00         0.00000E+00        -0.24912E+06
 
    0.75670E-09        -0.39754E-09         0.00000E+00
   -0.39754E-09        -0.53729E+06         0.00000E+00
    0.00000E+00         0.00000E+00        -0.24772E+06
 
    0.99681E-09        -0.18070E-09         0.00000E+00
   -0.18070E-09        -0.53729E+06         0.00000E+00
    0.00000E+00         0.00000E+00        -0.24772E+06
 
    0.11132E-08         0.18070E-09         0.00000E+00
    0.18070E-09        -0.53729E+06         0.00000E+00
    0.00000E+00         0.00000E+00        -0.24772E+06
 
    0.16007E-08        -0.61438E-09         0.00000E+00
   -0.61438E-09        -0.53729E+06         0.00000E+00
    0.00000E+00         0.00000E+00        -0.24772E+06
 
    0.17099E-08        -0.72280E-10         0.00000E+00
   -0.72280E-10        -0.53729E+06         0.00000E+00
    0.00000E+00         0.00000E+00        -0.24772E+06
 
   -0.29104E-10         0.10842E-08         0.00000E+00
    0.10842E-08        -0.53729E+06         0.00000E+00
    0.00000E+00         0.00000E+00        -0.24772E+06
 
   -0.52387E-09         0.21684E-09         0.00000E+00
    0.21684E-09        -0.53729E+06         0.00000E+00
    0.00000E+00         0.00000E+00        -0.24772E+06
 
    0.81491E-09        -0.93964E-09         0.00000E+00
   -0.93964E-09        -0.53729E+06         0.00000E+00
    0.00000E+00         0.00000E+00        -0.24772E+06
 
    0.47294E-09         0.68666E-09         0.00000E+00
    0.68666E-09        -0.53729E+06         0.00000E+00
    0.00000E+00         0.00000E+00        -0.24772E+06
 
   -0.47294E-09         0.50596E-09         0.00000E+00
    0.50596E-09        -0.53729E+06         0.00000E+00
    0.00000E+00         0.00000E+00        -0.24772E+06
 
   -0.92405E-09         0.28912E-09         0.00000E+00
    0.28912E-09        -0.53729E+06         0.00000E+00
    0.00000E+00         0.00000E+00        -0.24772E+06
 
   -0.48021E-09         0.14456E-09         0.00000E+00
    0.14456E-09        -0.53729E+06         0.00000E+00
    0.00000E+00         0.00000E+00        -0.24772E+06
 
    0.37835E-09        -0.28912E-09         0.00000E+00
   -0.28912E-09        -0.53729E+06         0.00000E+00
    0.00000E+00         0.00000E+00        -0.24772E+06
 
   -0.13461E-08        -0.28912E-09         0.00000E+00
   -0.28912E-09        -0.53729E+06         0.00000E+00
    0.00000E+00         0.00000E+00        -0.24772E+06
 
   -0.12296E-08        -0.14456E-09         0.00000E+00
   -0.14456E-09        -0.53729E+06         0.00000E+00
    0.00000E+00         0.00000E+00        -0.24772E+06
 
   -0.44383E-09        -0.10842E-09         0.00000E+00
   -0.10842E-09        -0.53583E+06         0.00000E+00
    0.00000E+00         0.00000E+00        -0.24626E+06
 
   -0.90222E-09         0.79508E-09         0.00000E+00
    0.79508E-09        -0.53583E+06         0.00000E+00
    0.00000E+00         0.00000E+00        -0.24626E+06
 
   -0.21828E-08        -0.65052E-09         0.00000E+00
   -0.65052E-09        -0.53583E+06         0.00000E+00
    0.00000E+00         0.00000E+00        -0.24626E+06
 
   -0.13752E-08         0.46982E-09         0.00000E+00
    0.46982E-09        -0.53583E+06         0.00000E+00
    0.00000E+00         0.00000E+00        -0.24626E+06
 
   -0.87311E-09         0.72280E-10         0.00000E+00
    0.72280E-10        -0.53583E+06         0.00000E+00
    0.00000E+00         0.00000E+00        -0.24626E+06
 
   -0.47294E-09         0.61438E-09         0.00000E+00
    0.61438E-09        -0.53583E+06         0.00000E+00
    0.00000E+00         0.00000E+00        -0.24626E+06
 
    0.71304E-09         0.21684E-09         0.00000E+00
    0.21684E-09        -0.53583E+06         0.00000E+00
    0.00000E+00         0.00000E+00        -0.24626E+06
 
    0.29104E-10        -0.21684E-09         0.00000E+00
   -0.21684E-09        -0.53583E+06         0.00000E+00
    0.00000E+00         0.00000E+00        -0.24626E+06
 
    0.31287E-09         0.43368E-09         0.00000E+00
    0.43368E-09        -0.53583E+06         0.00000E+00
    0.00000E+00         0.00000E+00        -0.24626E+06
 
    0.19572E-08        -0.65052E-09         0.00000E+00
   -0.65052E-09        -0.53583E+06         0.00000E+00
    0.00000E+00         0.00000E+00        -0.24626E+06
 
    0.28231E-08         0.28912E-09         0.00000E+00
    0.28912E-09        -0.53583E+06         0.00000E+00
    0.00000E+00         0.00000E+00        -0.24626E+06
 
    0.13606E-08        -0.21684E-09         0.00000E+00
   -0.21684E-09        -0.53583E+06         0.00000E+00
    0.00000E+00         0.00000E+00        -0.24626E+06
 
    0.24156E-08        -0.72280E-10         0.00000E+00
   -0.72280E-10        -0.53583E+06         0.00000E+00
    0.00000E+00         0.00000E+00        -0.24626E+06
 
    0.18263E-08         0.00000E+00         0.00000E+00
    0.00000E+00        -0.53583E+06         0.00000E+00
    0.00000E+00         0.00000E+00        -0.24626E+06
 
    0.19281E-08         0.36140E-09         0.00000E+00
    0.36140E-09        -0.53583E+06         0.00000E+00
    0.00000E+00         0.00000E+00        -0.24626E+06
 
   -0.14406E-08        -0.32526E-09         0.00000E+00
   -0.32526E-09        -0.53432E+06         0.00000E+00
    0.00000E+00         0.00000E+00        -0.24475E+06
 
   -0.13169E-08         0.65052E-09         0.00000E+00
    0.65052E-09        -0.53432E+06         0.00000E+00
    0.00000E+00         0.00000E+00        -0.24475E+06
 
   -0.25466E-09         0.21684E-09         0.00000E+00
    0.21684E-09        -0.53432E+06         0.00000E+00
    0.00000E+00         0.00000E+00        -0.24475E+06
 
    0.43656E-10         0.00000E+00         0.00000E+00
    0.00000E+00        -0.53432E+06         0.00000E+00
    0.00000E+00         0.00000E+00        -0.24475E+06
 
    0.28376E-09        -0.14456E-09         0.00000E+00
   -0.14456E-09        -0.53432E+06         0.00000E+00
    0.00000E+00         0.00000E+00        -0.24475E+06
 
    0.39290E-09        -0.10842E-09         0.00000E+00
   -0.10842E-09        -0.53432E+06         0.00000E+00
    0.00000E+00         0.00000E+00        -0.24475E+06
 
    0.17462E-09         0.14456E-09         0.00000E+00
    0.14456E-09        -0.53432E+06         0.00000E+00
    0.00000E+00         0.00000E+00        -0.24475E+06
 
    0.21828E-09         0.14456E-09         0.00000E+00
    0.14456E-09        -0.53432E+06         0.00000E+00
    0.00000E+00         0.00000E+00        -0.24475E+06
 
   -0.69122E-09         0.21684E-09         0.00000E+00
    0.21684E-09        -0.53432E+06         0.00000E+00
    0.00000E+00         0.00000E+00        -0.24475E+06
 
    0.37107E-09        -0.14456E-09         0.00000E+00
   -0.14456E-09        -0.53432E+06         0.00000E+00
    0.00000E+00         0.00000E+00        -0.24475E+06
 
    0.18917E-09        -0.72280E-10         0.00000E+00
   -0.72280E-10        -0.53432E+06         0.00000E+00
    0.00000E+00         0.00000E+00        -0.24475E+06
 
    0.18917E-09        -0.72280E-10         0.00000E+00
   -0.72280E-10        -0.53432E+06         0.00000E+00
    0.00000E+00         0.00000E+00        -0.24475E+06
 
    0.32742E-09        -0.72280E-10         0.00000E+00
   -0.72280E-10        -0.53432E+06         0.00000E+00
    0.00000E+00         0.00000E+00        -0.24475E+06
 
   -0.63301E-09         0.72280E-10         0.00000E+00
    0.72280E-10        -0.53432E+06         0.00000E+00
    0.00000E+00         0.00000E+00        -0.24475E+06
 
    0.37107E-09        -0.28912E-09         0.00000E+00
   -0.28912E-09        -0.53432E+06         0.00000E+00
    0.00000E+00         0.00000E+00        -0.24475E+06
 
    0.14697E-08        -0.25298E-09         0.00000E+00
   -0.25298E-09        -0.53275E+06         0.00000E+00
    0.00000E+00         0.00000E+00        -0.24318E+06
 
    0.19281E-08         0.14456E-09         0.00000E+00
    0.14456E-09        -0.53275E+06         0.00000E+00
    0.00000E+00         0.00000E+00        -0.24318E+06
 
    0.23065E-08         0.00000E+00         0.00000E+00
    0.00000E+00        -0.53275E+06         0.00000E+00
    0.00000E+00         0.00000E+00        -0.24318E+06
 
    0.13097E-08         0.10842E-09         0.00000E+00
    0.10842E-09        -0.53275E+06         0.00000E+00
    0.00000E+00         0.00000E+00        -0.24318E+06
 
   -0.64756E-09         0.32526E-09         0.00000E+00
    0.32526E-09        -0.53275E+06         0.00000E+00
    0.00000E+00         0.00000E+00        -0.24318E+06
 
    0.24011E-09         0.75894E-09         0.00000E+00
    0.75894E-09        -0.53275E+06         0.00000E+00
    0.00000E+00         0.00000E+00        -0.24318E+06
 
   -0.10914E-08        -0.10842E-08         0.00000E+00
   -0.10842E-08        -0.53275E+06         0.00000E+00
    0.00000E+00         0.00000E+00        -0.24318E+06
 
    0.93860E-09         0.14456E-09         0.00000E+00
    0.14456E-09        -0.53275E+06         0.00000E+00
    0.00000E+00         0.00000E+00        -0.24318E+06
 
    0.10259E-08        -0.28912E-09         0.00000E+00
   -0.28912E-09        -0.53275E+06         0.00000E+00
    0.00000E+00         0.00000E+00        -0.24318E+06
 
   -0.72760E-09         0.79508E-09         0.00000E+00
    0.79508E-09        -0.53275E+06         0.00000E+00
    0.00000E+00         0.00000E+00        -0.24318E+06
 
   -0.24811E-08         0.28912E-09         0.00000E+00
    0.28912E-09        -0.53275E+06         0.00000E+00
    0.00000E+00         0.00000E+00        -0.24318E+06
 
   -0.25539E-08        -0.72280E-10         0.00000E+00
   -0.72280E-10        -0.53275E+06         0.00000E+00
    0.00000E+00         0.00000E+00        -0.24318E+06
 
   -0.23210E-08         0.50596E-09         0.00000E+00
    0.50596E-09        -0.53275E+06         0.00000E+00
    0.00000E+00         0.00000E+00        -0.24318E+06
 
   -0.25466E-09         0.36140E-09         0.00000E+00
    0.36140E-09        -0.53275E+06         0.00000E+00
    0.00000E+00         0.00000E+00        -0.24318E+06
 
   -0.12806E-08         0.14456E-09         0.00000E+00
    0.14456E-09        -0.53275E+06         0.00000E+00
    0.00000E+00         0.00000E+00        -0.24318E+06
 
   -0.14843E-08         0.36140E-10         0.00000E+00
    0.36140E-10        -0.53112E+06         0.00000E+00
    0.00000E+00         0.00000E+00        -0.24155E+06
 
   -0.23574E-08        -0.10842E-09         0.00000E+00
   -0.10842E-09        -0.53112E+06         0.00000E+00
    0.00000E+00         0.00000E+00        -0.24155E+06
 
   -0.11714E-08        -0.10842E-09         0.00000E+00
   -0.10842E-09        -0.53112E+06         0.00000E+00
    0.00000E+00         0.00000E+00        -0.24155E+06
 
   -0.20736E-08        -0.28912E-09         0.00000E+00
   -0.28912E-09        -0.53112E+06         0.00000E+00
    0.00000E+00         0.00000E+00        -0.24155E+06
 
   -0.16080E-08         0.25298E-09         0.00000E+00
    0.25298E-09        -0.53112E+06         0.00000E+00
    0.00000E+00         0.00000E+00        -0.24155E+06
 
    0.50932E-10         0.10119E-08         0.00000E+00
    0.10119E-08        -0.53112E+06         0.00000E+00
    0.00000E+00         0.00000E+00        -0.24155E+06
 
   -0.36380E-09        -0.79508E-09         0.00000E+00
   -0.79508E-09        -0.53112E+06         0.00000E+00
    0.00000E+00         0.00000E+00        -0.24155E+06
 
   -0.49477E-09         0.21684E-09         0.00000E+00
    0.21684E-09        -0.53112E+06         0.00000E+00
    0.00000E+00         0.00000E+00        -0.24155E+06
 
   -0.11933E-08         0.28912E-09         0.00000E+00
    0.28912E-09        -0.53112E+06         0.00000E+00
    0.00000E+00         0.00000E+00        -0.24155E+06
 
   -0.16007E-09         0.72280E-09         0.00000E+00
    0.72280E-09        -0.53112E+06         0.00000E+00
    0.00000E+00         0.00000E+00        -0.24155E+06
 
   -0.89494E-09         0.36140E-09         0.00000E+00
    0.36140E-09        -0.53112E+06         0.00000E+00
    0.00000E+00         0.00000E+00        -0.24155E+06
 
   -0.10550E-08         0.28912E-09         0.00000E+00
    0.28912E-09        -0.53112E+06         0.00000E+00
    0.00000E+00         0.00000E+00        -0.24155E+06
 
    0.29831E-09         0.36140E-09         0.00000E+00
    0.36140E-09        -0.53112E+06         0.00000E+00
    0.00000E+00         0.00000E+00        -0.24155E+06
 
    0.63301E-09        -0.21684E-09         0.00000E+00
   -0.21684E-09        -0.53112E+06         0.00000E+00
    0.00000E+00         0.00000E+00        -0.24155E+06
 
   -0.36380E-10        -0.57824E-09         0.00000E+00
   -0.57824E-09        -0.53112E+06         0.00000E+00
    0.00000E+00         0.00000E+00        -0.24155E+06
 
    0.17390E-08        -0.28912E-09         0.00000E+00
   -0.28912E-09        -0.52943E+06         0.00000E+00
    0.00000E+00         0.00000E+00        -0.23986E+06
 
    0.14261E-08        -0.79508E-09         0.00000E+00
   -0.79508E-09        -0.52943E+06         0.00000E+00
    0.00000E+00         0.00000E+00        -0.23986E+06
 
    0.24593E-08         0.43368E-09         0.00000E+00
    0.43368E-09        -0.52943E+06         0.00000E+00
    0.00000E+00         0.00000E+00        -0.23986E+06
 
    0.28449E-08         0.18070E-09         0.00000E+00
    0.18070E-09        -0.52943E+06         0.00000E+00
    0.00000E+00         0.00000E+00        -0.23986E+06
 
    0.10623E-08        -0.18793E-08         0.00000E+00
   -0.18793E-08        -0.52943E+06         0.00000E+00
    0.00000E+00         0.00000E+00        -0.23986E+06
 
    0.15207E-08         0.10842E-09         0.00000E+00
    0.10842E-09        -0.52943E+06         0.00000E+00
    0.00000E+00         0.00000E+00        -0.23986E+06
 
    0.15862E-08         0.14456E-09         0.00000E+00
    0.14456E-09        -0.52943E+06         0.00000E+00
    0.00000E+00         0.00000E+00        -0.23986E+06
 
    0.23429E-08        -0.21684E-09         0.00000E+00
   -0.21684E-09        -0.52943E+06         0.00000E+00
    0.00000E+00         0.00000E+00        -0.23986E+06
 
    0.25611E-08         0.14456E-09         0.00000E+00
    0.14456E-09        -0.52943E+06         0.00000E+00
    0.00000E+00         0.00000E+00        -0.23986E+06
 
    0.22774E-08         0.36140E-09         0.00000E+00
    0.36140E-09        -0.52943E+06         0.00000E+00
    0.00000E+00         0.00000E+00        -0.23986E+06
 
   -0.16735E-09         0.86736E-09         0.00000E+00
    0.86736E-09        -0.52943E+06         0.00000E+00
    0.00000E+00         0.00000E+00        -0.23986E+06
 
   -0.10477E-08         0.43368E-09         0.00000E+00
    0.43368E-09        -0.52943E+06         0.00000E+00
    0.00000E+00         0.00000E+00        -0.23986E+06
 
    0.58208E-10        -0.79508E-09         0.00000E+00
   -0.79508E-09        -0.52943E+06         0.00000E+00
    0.00000E+00         0.00000E+00        -0.23986E+06
 
    0.15934E-08        -0.28912E-09         0.00000E+00
   -0.28912E-09        -0.52943E+06         0.00000E+00
    0.00000E+00         0.00000E+00        -0.23986E+06
 
    0.34197E-09         0.17347E-08         0.00000E+00
    0.17347E-08        -0.52943E+06         0.00000E+00
    0.00000E+00         0.00000E+00        -0.23986E+06
 
   -0.48749E-09        -0.83122E-09         0.00000E+00
   -0.83122E-09        -0.52768E+06         0.00000E+00
    0.00000E+00         0.00000E+00        -0.23811E+06
 
   -0.22410E-08         0.18070E-09         0.00000E+00
    0.18070E-09        -0.52768E+06         0.00000E+00
    0.00000E+00         0.00000E+00        -0.23811E+06
 
   -0.21610E-08         0.32526E-09         0.00000E+00
    0.32526E-09        -0.52768E+06         0.00000E+00
    0.00000E+00         0.00000E+00        -0.23811E+06
 
    0.86584E-09         0.50596E-09         0.00000E+00
    0.50596E-09        -0.52768E+06         0.00000E+00
    0.00000E+00         0.00000E+00        -0.23811E+06
 
    0.47294E-09        -0.15902E-08         0.00000E+00
   -0.15902E-08        -0.52768E+06         0.00000E+00
    0.00000E+00         0.00000E+00        -0.23811E+06
 
    0.24011E-09         0.72280E-10         0.00000E+00
    0.72280E-10        -0.52768E+06         0.00000E+00
    0.00000E+00         0.00000E+00        -0.23811E+06
 
   -0.86584E-09         0.21684E-09         0.00000E+00
    0.21684E-09        -0.52768E+06         0.00000E+00
    0.00000E+00         0.00000E+00        -0.23811E+06
 
   -0.50932E-10        -0.28912E-09         0.00000E+00
   -0.28912E-09        -0.52768E+06         0.00000E+00
    0.00000E+00         0.00000E+00        -0.23811E+06
 
   -0.74942E-09         0.14456E-09         0.00000E+00
    0.14456E-09        -0.52768E+06         0.00000E+00
    0.00000E+00         0.00000E+00        -0.23811E+06
 
    0.25466E-09        -0.21684E-09         0.00000E+00
   -0.21684E-09        -0.52768E+06         0.00000E+00
    0.00000E+00         0.00000E+00        -0.23811E+06
 
    0.00000E+00         0.12288E-08         0.00000E+00
    0.12288E-08        -0.52768E+06         0.00000E+00
    0.00000E+00         0.00000E+00        -0.23811E+06
 
    0.14552E-09         0.21684E-09         0.00000E+00
    0.21684E-09        -0.52768E+06         0.00000E+00
    0.00000E+00         0.00000E+00        -0.23811E+06
 
    0.72760E-11        -0.93964E-09         0.00000E+00
   -0.93964E-09        -0.52768E+06         0.00000E+00
    0.00000E+00         0.00000E+00        -0.23811E+06
 
   -0.16589E-08        -0.28912E-09         0.00000E+00
   -0.28912E-09        -0.52768E+06         0.00000E+00
    0.00000E+00         0.00000E+00        -0.23811E+06
 
   -0.14115E-08         0.43368E-09         0.00000E+00
    0.43368E-09        -0.52768E+06         0.00000E+00
    0.00000E+00         0.00000E+00        -0.23811E+06
 
   -0.10405E-08        -0.28912E-09         0.00000E+00
   -0.28912E-09        -0.52586E+06         0.00000E+00
    0.00000E+00         0.00000E+00        -0.23629E+06
 
   -0.12224E-08         0.14095E-08         0.00000E+00
    0.14095E-08        -0.52586E+06         0.00000E+00
    0.00000E+00         0.00000E+00        -0.23629E+06
 
   -0.13461E-08        -0.36140E-09         0.00000E+00
   -0.36140E-09        -0.52586E+06         0.00000E+00
    0.00000E+00         0.00000E+00        -0.23629E+06
 
    0.21828E-10        -0.25298E-09         0.00000E+00
   -0.25298E-09        -0.52586E+06         0.00000E+00
    0.00000E+00         0.00000E+00        -0.23629E+06
 
   -0.37107E-09         0.93964E-09         0.00000E+00
    0.93964E-09        -0.52586E+06         0.00000E+00
    0.00000E+00         0.00000E+00        -0.23629E+06
 
   -0.19718E-08         0.86736E-09         0.00000E+00
    0.86736E-09        -0.52586E+06         0.00000E+00
    0.00000E+00         0.00000E+00        -0.23629E+06
 
   -0.17972E-08        -0.14456E-08         0.00000E+00
   -0.14456E-08        -0.52586E+06         0.00000E+00
    0.00000E+00         0.00000E+00        -0.23629E+06
 
   -0.21464E-08         0.14456E-09         0.00000E+00
    0.14456E-09        -0.52586E+06         0.00000E+00
    0.00000E+00         0.00000E+00        -0.23629E+06
 
   -0.71304E-09        -0.79508E-09         0.00000E+00
   -0.79508E-09        -0.52586E+06         0.00000E+00
    0.00000E+00         0.00000E+00        -0.23629E+06
 
   -0.58208E-09         0.43368E-09         0.00000E+00
    0.43368E-09        -0.52586E+06         0.00000E+00
    0.00000E+00         0.00000E+00        -0.23629E+06
 
   -0.77853E-09        -0.21684E-09         0.00000E+00
   -0.21684E-09        -0.52586E+06         0.00000E+00
    0.00000E+00         0.00000E+00        -0.23629E+06
 
   -0.11714E-08         0.00000E+00         0.00000E+00
    0.00000E+00        -0.52586E+06         0.00000E+00
    0.00000E+00         0.00000E+00        -0.23629E+06
 
    0.93132E-09        -0.57824E-09         0.00000E+00
   -0.57824E-09        -0.52586E+06         0.00000E+00
    0.00000E+00         0.00000E+00        -0.23629E+06
 
    0.54570E-09         0.11565E-08         0.00000E+00
    0.11565E-08        -0.52586E+06         0.00000E+00
    0.00000E+00         0.00000E+00        -0.23629E+06
 
   -0.56025E-09         0.14456E-09         0.00000E+00
    0.14456E-09        -0.52586E+06         0.00000E+00
    0.00000E+00         0.00000E+00        -0.23629E+06
 
   -0.26193E-09        -0.12288E-08         0.00000E+00
   -0.12288E-08        -0.52398E+06         0.00000E+00
    0.00000E+00         0.00000E+00        -0.23441E+06
 
    0.80036E-09         0.12649E-08         0.00000E+00
    0.12649E-08        -0.52398E+06         0.00000E+00
    0.00000E+00         0.00000E+00        -0.23441E+06
 
    0.10696E-08         0.00000E+00         0.00000E+00
    0.00000E+00        -0.52398E+06         0.00000E+00
    0.00000E+00         0.00000E+00        -0.23441E+06
 
   -0.49477E-09        -0.11926E-08         0.00000E+00
   -0.11926E-08        -0.52398E+06         0.00000E+00
    0.00000E+00         0.00000E+00        -0.23441E+06
 
    0.43656E-09        -0.50596E-09         0.00000E+00
   -0.50596E-09        -0.52398E+06         0.00000E+00
    0.00000E+00         0.00000E+00        -0.23441E+06
 
    0.25248E-08         0.12288E-08         0.00000E+00
    0.12288E-08        -0.52398E+06         0.00000E+00
    0.00000E+00         0.00000E+00        -0.23441E+06
 
    0.27649E-09         0.14456E-08         0.00000E+00
    0.14456E-08        -0.52398E+06         0.00000E+00
    0.00000E+00         0.00000E+00        -0.23441E+06
 
   -0.14552E-10        -0.28912E-09         0.00000E+00
   -0.28912E-09        -0.52398E+06         0.00000E+00
    0.00000E+00         0.00000E+00        -0.23441E+06
 
   -0.18190E-09        -0.86736E-09         0.00000E+00
   -0.86736E-09        -0.52398E+06         0.00000E+00
    0.00000E+00         0.00000E+00        -0.23441E+06
 
   -0.39290E-09         0.36140E-09         0.00000E+00
    0.36140E-09        -0.52398E+06         0.00000E+00
    0.00000E+00         0.00000E+00        -0.23441E+06
 
    0.48749E-09         0.36140E-09         0.00000E+00
    0.36140E-09        -0.52398E+06         0.00000E+00
    0.00000E+00         0.00000E+00        -0.23441E+06
 
   -0.17608E-08        -0.10842E-08         0.00000E+00
   -0.10842E-08        -0.52398E+06         0.00000E+00
    0.00000E+00         0.00000E+00        -0.23441E+06
 
   -0.68394E-09        -0.50596E-09         0.00000E+00
   -0.50596E-09        -0.52398E+06         0.00000E+00
    0.00000E+00         0.00000E+00        -0.23441E+06
 
   -0.21828E-10         0.36140E-09         0.00000E+00
    0.36140E-09        -0.52398E+06         0.00000E+00
    0.00000E+00         0.00000E+00        -0.23441E+06
 
    0.40018E-09         0.21684E-09         0.00000E+00
    0.21684E-09        -0.52398E+06         0.00000E+00
    0.00000E+00         0.00000E+00        -0.23441E+06
 
   -0.26412E-08        -0.75894E-09         0.00000E+00
   -0.75894E-09        -0.52203E+06         0.00000E+00
    0.00000E+00         0.00000E+00        -0.23246E+06
 
   -0.99681E-09        -0.28912E-09         0.00000E+00
   -0.28912E-09        -0.52203E+06         0.00000E+00
    0.00000E+00         0.00000E+00        -0.23246E+06
 
    0.00000E+00        -0.43368E-09         0.00000E+00
   -0.43368E-09        -0.52203E+06         0.00000E+00
    0.00000E+00         0.00000E+00        -0.23246E+06
 
   -0.25466E-09         0.14456E-09         0.00000E+00
    0.14456E-09        -0.52203E+06         0.00000E+00
    0.00000E+00         0.00000E+00        -0.23246E+06
 
   -0.21100E-09         0.28912E-09         0.00000E+00
    0.28912E-09        -0.52203E+06         0.00000E+00
    0.00000E+00         0.00000E+00        -0.23246E+06
 
   -0.19936E-08         0.72280E-09         0.00000E+00
    0.72280E-09        -0.52203E+06         0.00000E+00
    0.00000E+00         0.00000E+00        -0.23246E+06
 
    0.14843E-08         0.43368E-09         0.00000E+00
    0.43368E-09        -0.52203E+06         0.00000E+00
    0.00000E+00         0.00000E+00        -0.23246E+06
 
    0.13606E-08        -0.57824E-09         0.00000E+00
   -0.57824E-09        -0.52203E+06         0.00000E+00
    0.00000E+00         0.00000E+00        -0.23246E+06
 
   -0.48021E-09         0.57824E-09         0.00000E+00
    0.57824E-09        -0.52203E+06         0.00000E+00
    0.00000E+00         0.00000E+00        -0.23246E+06
 
    0.12369E-09        -0.65052E-09         0.00000E+00
   -0.65052E-09        -0.52203E+06         0.00000E+00
    0.00000E+00         0.00000E+00        -0.23246E+06
 
    0.25975E-08         0.21684E-09         0.00000E+00
    0.21684E-09        -0.52203E+06         0.00000E+00
    0.00000E+00         0.00000E+00        -0.23246E+06
 
    0.11423E-08        -0.12288E-08         0.00000E+00
   -0.12288E-08        -0.52203E+06         0.00000E+00
    0.00000E+00         0.00000E+00        -0.23246E+06
 
    0.14552E-09        -0.36140E-09         0.00000E+00
   -0.36140E-09        -0.52203E+06         0.00000E+00
    0.00000E+00         0.00000E+00        -0.23246E+06
 
    0.24011E-09        -0.65052E-09         0.00000E+00
   -0.65052E-09        -0.52203E+06         0.00000E+00
    0.00000E+00         0.00000E+00        -0.23246E+06
 
   -0.65484E-10         0.15179E-08         0.00000E+00
    0.15179E-08        -0.52203E+06         0.00000E+00
    0.00000E+00         0.00000E+00        -0.23246E+06
 
    0.13752E-08         0.57824E-09         0.00000E+00
    0.57824E-09        -0.52001E+06         0.00000E+00
    0.00000E+00         0.00000E+00        -0.23044E+06
 
   -0.73487E-09        -0.43368E-09         0.00000E+00
   -0.43368E-09        -0.52001E+06         0.00000E+00
    0.00000E+00         0.00000E+00        -0.23044E+06
 
   -0.11423E-08        -0.21684E-09         0.00000E+00
   -0.21684E-09        -0.52001E+06         0.00000E+00
    0.00000E+00         0.00000E+00        -0.23044E+06
 
   -0.18554E-08        -0.72280E-10         0.00000E+00
   -0.72280E-10        -0.52001E+06         0.00000E+00
    0.00000E+00         0.00000E+00        -0.23044E+06
 
   -0.14843E-08         0.72280E-10         0.00000E+00
    0.72280E-10        -0.52001E+06         0.00000E+00
    0.00000E+00         0.00000E+00        -0.23044E+06
 
    0.86584E-09         0.79508E-09         0.00000E+00
    0.79508E-09        -0.52001E+06         0.00000E+00
    0.00000E+00         0.00000E+00        -0.23044E+06
 
    0.13970E-08        -0.65052E-09         0.00000E+00
   -0.65052E-09        -0.52001E+06         0.00000E+00
    0.00000E+00         0.00000E+00        -0.23044E+06
 
   -0.14552E-10         0.00000E+00         0.00000E+00
    0.00000E+00        -0.52001E+06         0.00000E+00
    0.00000E+00         0.00000E+00        -0.23044E+06
 
    0.13097E-09        -0.50596E-09         0.00000E+00
   -0.50596E-09        -0.52001E+06         0.00000E+00
    0.00000E+00         0.00000E+00        -0.23044E+06
 
    0.11205E-08         0.14456E-09         0.00000E+00
    0.14456E-09        -0.52001E+06         0.00000E+00
    0.00000E+00         0.00000E+00        -0.23044E+06
 
   -0.13897E-08         0.10842E-08         0.00000E+00
    0.10842E-08        -0.52001E+06         0.00000E+00
    0.00000E+00         0.00000E+00        -0.23044E+06
 
   -0.15571E-08        -0.10119E-08         0.00000E+00
   -0.10119E-08        -0.52001E+06         0.00000E+00
    0.00000E+00         0.00000E+00        -0.23044E+06
 
   -0.94587E-10         0.86736E-09         0.00000E+00
    0.86736E-09        -0.52001E+06         0.00000E+00
    0.00000E+00         0.00000E+00        -0.23044E+06
 
    0.45839E-09         0.36140E-09         0.00000E+00
    0.36140E-09        -0.52001E+06         0.00000E+00
    0.00000E+00         0.00000E+00        -0.23044E+06
 
    0.20373E-08         0.57824E-09         0.00000E+00
    0.57824E-09        -0.52001E+06         0.00000E+00
    0.00000E+00         0.00000E+00        -0.23044E+06
 
    0.27649E-09        -0.39754E-09         0.00000E+00
   -0.39754E-09        -0.51792E+06         0.00000E+00
    0.00000E+00         0.00000E+00        -0.22836E+06
 
    0.53842E-09         0.54210E-09         0.00000E+00
    0.54210E-09        -0.51792E+06         0.00000E+00
    0.00000E+00         0.00000E+00        -0.22836E+06
 
   -0.40018E-09         0.57824E-09         0.00000E+00
    0.57824E-09        -0.51792E+06         0.00000E+00
    0.00000E+00         0.00000E+00        -0.22836E+06
 
   -0.80036E-09         0.57824E-09         0.00000E+00
    0.57824E-09        -0.51792E+06         0.00000E+00
    0.00000E+00         0.00000E+00        -0.22836E+06
 
   -0.63301E-09         0.00000E+00         0.00000E+00
    0.00000E+00        -0.51792E+06         0.00000E+00
    0.00000E+00         0.00000E+00        -0.22836E+06
 
    0.74942E-09        -0.72280E-09         0.00000E+00
   -0.72280E-09        -0.51792E+06         0.00000E+00
    0.00000E+00         0.00000E+00        -0.22836E+06
 
   -0.32742E-09        -0.13733E-08         0.00000E+00
   -0.13733E-08        -0.51792E+06         0.00000E+00
    0.00000E+00         0.00000E+00        -0.22836E+06
 
    0.29904E-08         0.43368E-09         0.00000E+00
    0.43368E-09        -0.51792E+06         0.00000E+00
    0.00000E+00         0.00000E+00        -0.22836E+06
 
   -0.64028E-09        -0.43368E-09         0.00000E+00
   -0.43368E-09        -0.51792E+06         0.00000E+00
    0.00000E+00         0.00000E+00        -0.22836E+06
 
   -0.26557E-08        -0.10842E-08         0.00000E+00
   -0.10842E-08        -0.51792E+06         0.00000E+00
    0.00000E+00         0.00000E+00        -0.22836E+06
 
   -0.50204E-09         0.26744E-08         0.00000E+00
    0.26744E-08        -0.51792E+06         0.00000E+00
    0.00000E+00         0.00000E+00        -0.22836E+06
 
    0.29831E-09         0.00000E+00         0.00000E+00
    0.00000E+00        -0.51792E+06         0.00000E+00
    0.00000E+00         0.00000E+00        -0.22836E+06
 
    0.49477E-09         0.11565E-08         0.00000E+00
    0.11565E-08        -0.51792E+06         0.00000E+00
    0.00000E+00         0.00000E+00        -0.22836E+06
 
   -0.27503E-08         0.72280E-09         0.00000E+00
    0.72280E-09        -0.51792E+06         0.00000E+00
    0.00000E+00         0.00000E+00        -0.22836E+06
 
   -0.98953E-09        -0.14456E-09         0.00000E+00
   -0.14456E-09        -0.51792E+06         0.00000E+00
    0.00000E+00         0.00000E+00        -0.22836E+06
 
    0.14043E-08        -0.50596E-09         0.00000E+00
   -0.50596E-09        -0.51577E+06         0.00000E+00
    0.00000E+00         0.00000E+00        -0.22620E+06
 
    0.14334E-08         0.10842E-08         0.00000E+00
    0.10842E-08        -0.51577E+06         0.00000E+00
    0.00000E+00         0.00000E+00        -0.22620E+06
 
   -0.21828E-09         0.79508E-09         0.00000E+00
    0.79508E-09        -0.51577E+06         0.00000E+00
    0.00000E+00         0.00000E+00        -0.22620E+06
 
    0.65484E-09         0.21684E-09         0.00000E+00
    0.21684E-09        -0.51577E+06         0.00000E+00
    0.00000E+00         0.00000E+00        -0.22620E+06
 
    0.91677E-09        -0.36140E-09         0.00000E+00
   -0.36140E-09        -0.51577E+06         0.00000E+00
    0.00000E+00         0.00000E+00        -0.22620E+06
 
   -0.10405E-08        -0.43368E-09         0.00000E+00
   -0.43368E-09        -0.51577E+06         0.00000E+00
    0.00000E+00         0.00000E+00        -0.22620E+06
 
    0.89494E-09        -0.50596E-09         0.00000E+00
   -0.50596E-09        -0.51577E+06         0.00000E+00
    0.00000E+00         0.00000E+00        -0.22620E+06
 
   -0.97498E-09         0.86736E-09         0.00000E+00
    0.86736E-09        -0.51577E+06         0.00000E+00
    0.00000E+00         0.00000E+00        -0.22620E+06
 
    0.19645E-09         0.13010E-08         0.00000E+00
    0.13010E-08        -0.51577E+06         0.00000E+00
    0.00000E+00         0.00000E+00        -0.22620E+06
 
   -0.70577E-09        -0.12288E-08         0.00000E+00
   -0.12288E-08        -0.51577E+06         0.00000E+00
    0.00000E+00         0.00000E+00        -0.22620E+06
 
    0.16735E-09         0.10842E-08         0.00000E+00
    0.10842E-08        -0.51577E+06         0.00000E+00
    0.00000E+00         0.00000E+00        -0.22620E+06
 
    0.37835E-09        -0.13733E-08         0.00000E+00
   -0.13733E-08        -0.51577E+06         0.00000E+00
    0.00000E+00         0.00000E+00        -0.22620E+06
 
    0.70577E-09         0.00000E+00         0.00000E+00
    0.00000E+00        -0.51577E+06         0.00000E+00
    0.00000E+00         0.00000E+00        -0.22620E+06
 
    0.62573E-09         0.28912E-09         0.00000E+00
    0.28912E-09        -0.51577E+06         0.00000E+00
    0.00000E+00         0.00000E+00        -0.22620E+06
 
   -0.18044E-08        -0.50596E-09         0.00000E+00
   -0.50596E-09        -0.51577E+06         0.00000E+00
    0.00000E+00         0.00000E+00        -0.22620E+06
 
    0.90222E-09         0.10119E-08         0.00000E+00
    0.10119E-08        -0.51354E+06         0.00000E+00
    0.00000E+00         0.00000E+00        -0.22397E+06
 
    0.10914E-08        -0.43368E-09         0.00000E+00
   -0.43368E-09        -0.51354E+06         0.00000E+00
    0.00000E+00         0.00000E+00        -0.22397E+06
 
    0.18554E-08         0.10842E-08         0.00000E+00
    0.10842E-08        -0.51354E+06         0.00000E+00
    0.00000E+00         0.00000E+00        -0.22397E+06
 
    0.20300E-08        -0.16624E-08         0.00000E+00
   -0.16624E-08        -0.51354E+06         0.00000E+00
    0.00000E+00         0.00000E+00        -0.22397E+06
 
    0.13169E-08         0.10842E-08         0.00000E+00
    0.10842E-08        -0.51354E+06         0.00000E+00
    0.00000E+00         0.00000E+00        -0.22397E+06
 
    0.18917E-09         0.72280E-10         0.00000E+00
    0.72280E-10        -0.51354E+06         0.00000E+00
    0.00000E+00         0.00000E+00        -0.22397E+06
 
   -0.35652E-09        -0.72280E-09         0.00000E+00
   -0.72280E-09        -0.51354E+06         0.00000E+00
    0.00000E+00         0.00000E+00        -0.22397E+06
 
   -0.37835E-09        -0.86736E-09         0.00000E+00
   -0.86736E-09        -0.51354E+06         0.00000E+00
    0.00000E+00         0.00000E+00        -0.22397E+06
 
    0.18626E-08         0.36140E-09         0.00000E+00
    0.36140E-09        -0.51354E+06         0.00000E+00
    0.00000E+00         0.00000E+00        -0.22397E+06
 
    0.18481E-08         0.21684E-09         0.00000E+00
    0.21684E-09        -0.51354E+06         0.00000E+00
    0.00000E+00         0.00000E+00        -0.22397E+06
 
    0.46566E-09         0.11565E-08         0.00000E+00
    0.11565E-08        -0.51354E+06         0.00000E+00
    0.00000E+00         0.00000E+00        -0.22397E+06
 
   -0.64028E-09        -0.72280E-10         0.00000E+00
   -0.72280E-10        -0.51354E+06         0.00000E+00
    0.00000E+00         0.00000E+00        -0.22397E+06
 
   -0.18481E-08        -0.86736E-09         0.00000E+00
   -0.86736E-09        -0.51354E+06         0.00000E+00
    0.00000E+00         0.00000E+00        -0.22397E+06
 
    0.12078E-08         0.00000E+00         0.00000E+00
    0.00000E+00        -0.51354E+06         0.00000E+00
    0.00000E+00         0.00000E+00        -0.22397E+06
 
    0.14552E-08         0.00000E+00         0.00000E+00
    0.00000E+00        -0.51354E+06         0.00000E+00
    0.00000E+00         0.00000E+00        -0.22397E+06
 
   -0.76398E-09         0.11565E-08         0.00000E+00
    0.11565E-08        -0.51123E+06         0.00000E+00
    0.00000E+00         0.00000E+00        -0.22167E+06
 
    0.12442E-08        -0.21684E-09         0.00000E+00
   -0.21684E-09        -0.51123E+06         0.00000E+00
    0.00000E+00         0.00000E+00        -0.22167E+06
 
    0.18117E-08        -0.14456E-09         0.00000E+00
   -0.14456E-09        -0.51123E+06         0.00000E+00
    0.00000E+00         0.00000E+00        -0.22167E+06
 
   -0.24738E-09        -0.12288E-08         0.00000E+00
   -0.12288E-08        -0.51123E+06         0.00000E+00
    0.00000E+00         0.00000E+00        -0.22167E+06
 
   -0.37835E-09         0.13733E-08         0.00000E+00
    0.13733E-08        -0.51123E+06         0.00000E+00
    0.00000E+00         0.00000E+00        -0.22167E+06
 
   -0.50204E-09        -0.72280E-09         0.00000E+00
   -0.72280E-09        -0.51123E+06         0.00000E+00
    0.00000E+00         0.00000E+00        -0.22167E+06
 
   -0.50932E-10         0.36140E-09         0.00000E+00
    0.36140E-09        -0.51123E+06         0.00000E+00
    0.00000E+00         0.00000E+00        -0.22167E+06
 
   -0.25466E-09         0.14456E-09         0.00000E+00
    0.14456E-09        -0.51123E+06         0.00000E+00
    0.00000E+00         0.00000E+00        -0.22167E+06
 
    0.49477E-09        -0.21684E-09         0.00000E+00
   -0.21684E-09        -0.51123E+06         0.00000E+00
    0.00000E+00         0.00000E+00        -0.22167E+06
 
   -0.85856E-09        -0.65052E-09         0.00000E+00
   -0.65052E-09        -0.51123E+06         0.00000E+00
    0.00000E+00         0.00000E+00        -0.22167E+06
 
   -0.18917E-09         0.10119E-08         0.00000E+00
    0.10119E-08        -0.51123E+06         0.00000E+00
    0.00000E+00         0.00000E+00        -0.22167E+06
 
    0.14770E-08         0.72280E-10         0.00000E+00
    0.72280E-10        -0.51123E+06         0.00000E+00
    0.00000E+00         0.00000E+00        -0.22167E+06
 
    0.20591E-08         0.72280E-10         0.00000E+00
    0.72280E-10        -0.51123E+06         0.00000E+00
    0.00000E+00         0.00000E+00        -0.22167E+06
 
    0.99681E-09         0.28912E-09         0.00000E+00
    0.28912E-09        -0.51123E+06         0.00000E+00
    0.00000E+00         0.00000E+00        -0.22167E+06
 
   -0.64756E-09        -0.50596E-09         0.00000E+00
   -0.50596E-09        -0.51123E+06         0.00000E+00
    0.00000E+00         0.00000E+00        -0.22167E+06
 
   -0.11860E-08        -0.72280E-10         0.00000E+00
   -0.72280E-10        -0.50885E+06         0.00000E+00
    0.00000E+00         0.00000E+00        -0.21929E+06
 
   -0.36380E-10         0.72280E-10         0.00000E+00
    0.72280E-10        -0.50885E+06         0.00000E+00
    0.00000E+00         0.00000E+00        -0.21929E+06
 
   -0.50932E-10        -0.21684E-09         0.00000E+00
   -0.21684E-09        -0.50885E+06         0.00000E+00
    0.00000E+00         0.00000E+00        -0.21929E+06
 
   -0.10405E-08         0.00000E+00         0.00000E+00
    0.00000E+00        -0.50885E+06         0.00000E+00
    0.00000E+00         0.00000E+00        -0.21929E+06
 
    0.12369E-09         0.43368E-09         0.00000E+00
    0.43368E-09        -0.50885E+06         0.00000E+00
    0.00000E+00         0.00000E+00        -0.21929E+06
 
   -0.22555E-09        -0.36140E-09         0.00000E+00
   -0.36140E-09        -0.50885E+06         0.00000E+00
    0.00000E+00         0.00000E+00        -0.21929E+06
 
   -0.42201E-09         0.72280E-10         0.00000E+00
    0.72280E-10        -0.50885E+06         0.00000E+00
    0.00000E+00         0.00000E+00        -0.21929E+06
 
   -0.38563E-09         0.28912E-09         0.00000E+00
    0.28912E-09        -0.50885E+06         0.00000E+00
    0.00000E+00         0.00000E+00        -0.21929E+06
 
   -0.11132E-08         0.28912E-09         0.00000E+00
    0.28912E-09        -0.50885E+06         0.00000E+00
    0.00000E+00         0.00000E+00        -0.21929E+06
 
   -0.16153E-08        -0.86736E-09         0.00000E+00
   -0.86736E-09        -0.50885E+06         0.00000E+00
    0.00000E+00         0.00000E+00        -0.21929E+06
 
   -0.17535E-08         0.72280E-10         0.00000E+00
    0.72280E-10        -0.50885E+06         0.00000E+00
    0.00000E+00         0.00000E+00        -0.21929E+06
 
   -0.12078E-08         0.72280E-10         0.00000E+00
    0.72280E-10        -0.50885E+06         0.00000E+00
    0.00000E+00         0.00000E+00        -0.21929E+06
 
   -0.10041E-08        -0.36140E-09         0.00000E+00
   -0.36140E-09        -0.50885E+06         0.00000E+00
    0.00000E+00         0.00000E+00        -0.21929E+06
 
    0.12296E-08         0.79508E-09         0.00000E+00
    0.79508E-09        -0.50885E+06         0.00000E+00
    0.00000E+00         0.00000E+00        -0.21929E+06
 
    0.12515E-08        -0.57824E-09         0.00000E+00
   -0.57824E-09        -0.50885E+06         0.00000E+00
    0.00000E+00         0.00000E+00        -0.21929E+06
 
   -0.12806E-08         0.14456E-09         0.00000E+00
    0.14456E-09        -0.50640E+06         0.00000E+00
    0.00000E+00         0.00000E+00        -0.21683E+06
 
   -0.60390E-09        -0.14456E-09         0.00000E+00
   -0.14456E-09        -0.50640E+06         0.00000E+00
    0.00000E+00         0.00000E+00        -0.21683E+06
 
   -0.45111E-09         0.00000E+00         0.00000E+00
    0.00000E+00        -0.50640E+06         0.00000E+00
    0.00000E+00         0.00000E+00        -0.21683E+06
 
   -0.18190E-09        -0.28912E-09         0.00000E+00
   -0.28912E-09        -0.50640E+06         0.00000E+00
    0.00000E+00         0.00000E+00        -0.21683E+06
 
   -0.60390E-09         0.57824E-09         0.00000E+00
    0.57824E-09        -0.50640E+06         0.00000E+00
    0.00000E+00         0.00000E+00        -0.21683E+06
 
   -0.93132E-09        -0.10842E-08         0.00000E+00
   -0.10842E-08        -0.50640E+06         0.00000E+00
    0.00000E+00         0.00000E+00        -0.21683E+06
 
    0.87311E-10         0.14456E-09         0.00000E+00
    0.14456E-09        -0.50640E+06         0.00000E+00
    0.00000E+00         0.00000E+00        -0.21683E+06
 
   -0.21828E-10        -0.65052E-09         0.00000E+00
   -0.65052E-09        -0.50640E+06         0.00000E+00
    0.00000E+00         0.00000E+00        -0.21683E+06
 
    0.45839E-09         0.13733E-08         0.00000E+00
    0.13733E-08        -0.50640E+06         0.00000E+00
    0.00000E+00         0.00000E+00        -0.21683E+06
 
    0.22847E-08         0.00000E+00         0.00000E+00
    0.00000E+00        -0.50640E+06         0.00000E+00
    0.00000E+00         0.00000E+00        -0.21683E+06
 
    0.72032E-09         0.21684E-09         0.00000E+00
    0.21684E-09        -0.50640E+06         0.00000E+00
    0.00000E+00         0.00000E+00        -0.21683E+06
 
   -0.21100E-08         0.72280E-10         0.00000E+00
    0.72280E-10        -0.50640E+06         0.00000E+00
    0.00000E+00         0.00000E+00        -0.21683E+06
 
    0.20373E-09         0.13010E-08         0.00000E+00
    0.13010E-08        -0.50640E+06         0.00000E+00
    0.00000E+00         0.00000E+00        -0.21683E+06
 
   -0.30632E-08         0.00000E+00         0.00000E+00
    0.00000E+00        -0.50640E+06         0.00000E+00
    0.00000E+00         0.00000E+00        -0.21683E+06
 
   -0.51659E-09        -0.36140E-09         0.00000E+00
   -0.36140E-09        -0.50640E+06         0.00000E+00
    0.00000E+00         0.00000E+00        -0.21683E+06
 
   -0.12733E-08         0.21684E-09         0.00000E+00
    0.21684E-09        -0.50387E+06         0.00000E+00
    0.00000E+00         0.00000E+00        -0.21430E+06
 
   -0.10186E-09         0.00000E+00         0.00000E+00
    0.00000E+00        -0.50387E+06         0.00000E+00
    0.00000E+00         0.00000E+00        -0.21430E+06
 
    0.12369E-08        -0.10119E-08         0.00000E+00
   -0.10119E-08        -0.50387E+06         0.00000E+00
    0.00000E+00         0.00000E+00        -0.21430E+06
 
    0.18990E-08        -0.10119E-08         0.00000E+00
   -0.10119E-08        -0.50387E+06         0.00000E+00
    0.00000E+00         0.00000E+00        -0.21430E+06
 
    0.12878E-08         0.57824E-09         0.00000E+00
    0.57824E-09        -0.50387E+06         0.00000E+00
    0.00000E+00         0.00000E+00        -0.21430E+06
 
    0.57480E-09         0.57824E-09         0.00000E+00
    0.57824E-09        -0.50387E+06         0.00000E+00
    0.00000E+00         0.00000E+00        -0.21430E+06
 
    0.15643E-08        -0.14456E-08         0.00000E+00
   -0.14456E-08        -0.50387E+06         0.00000E+00
    0.00000E+00         0.00000E+00        -0.21430E+06
 
    0.54570E-09        -0.72280E-09         0.00000E+00
   -0.72280E-09        -0.50387E+06         0.00000E+00
    0.00000E+00         0.00000E+00        -0.21430E+06
 
   -0.24229E-08        -0.14456E-09         0.00000E+00
   -0.14456E-09        -0.50387E+06         0.00000E+00
    0.00000E+00         0.00000E+00        -0.21430E+06
 
   -0.23720E-08        -0.43368E-09         0.00000E+00
   -0.43368E-09        -0.50387E+06         0.00000E+00
    0.00000E+00         0.00000E+00        -0.21430E+06
 
   -0.13242E-08        -0.36140E-09         0.00000E+00
   -0.36140E-09        -0.50387E+06         0.00000E+00
    0.00000E+00         0.00000E+00        -0.21430E+06
 
   -0.10914E-08        -0.36140E-09         0.00000E+00
   -0.36140E-09        -0.50387E+06         0.00000E+00
    0.00000E+00         0.00000E+00        -0.21430E+06
 
    0.25102E-08         0.10842E-08         0.00000E+00
    0.10842E-08        -0.50387E+06         0.00000E+00
    0.00000E+00         0.00000E+00        -0.21430E+06
 
    0.38344E-08         0.00000E+00         0.00000E+00
    0.00000E+00        -0.50387E+06         0.00000E+00
    0.00000E+00         0.00000E+00        -0.21430E+06
 
    0.47003E-08        -0.28912E-09         0.00000E+00
   -0.28912E-09        -0.50387E+06         0.00000E+00
    0.00000E+00         0.00000E+00        -0.21430E+06
 
    0.17462E-09         0.50596E-09         0.00000E+00
    0.50596E-09        -0.50125E+06         0.00000E+00
    0.00000E+00         0.00000E+00        -0.21169E+06
 
    0.36380E-10         0.72280E-10         0.00000E+00
    0.72280E-10        -0.50125E+06         0.00000E+00
    0.00000E+00         0.00000E+00        -0.21169E+06
 
   -0.10186E-09        -0.65052E-09         0.00000E+00
   -0.65052E-09        -0.50125E+06         0.00000E+00
    0.00000E+00         0.00000E+00        -0.21169E+06
 
   -0.28231E-08        -0.72280E-10         0.00000E+00
   -0.72280E-10        -0.50125E+06         0.00000E+00
    0.00000E+00         0.00000E+00        -0.21169E+06
 
   -0.35725E-08         0.28912E-09         0.00000E+00
    0.28912E-09        -0.50125E+06         0.00000E+00
    0.00000E+00         0.00000E+00        -0.21169E+06
 
    0.74942E-09         0.79508E-09         0.00000E+00
    0.79508E-09        -0.50125E+06         0.00000E+00
    0.00000E+00         0.00000E+00        -0.21169E+06
 
    0.14043E-08        -0.14456E-08         0.00000E+00
   -0.14456E-08        -0.50125E+06         0.00000E+00
    0.00000E+00         0.00000E+00        -0.21169E+06
 
   -0.85129E-09         0.36140E-09         0.00000E+00
    0.36140E-09        -0.50125E+06         0.00000E+00
    0.00000E+00         0.00000E+00        -0.21169E+06
 
   -0.40745E-09        -0.14456E-09         0.00000E+00
   -0.14456E-09        -0.50125E+06         0.00000E+00
    0.00000E+00         0.00000E+00        -0.21169E+06
 
    0.11642E-08        -0.72280E-09         0.00000E+00
   -0.72280E-09        -0.50125E+06         0.00000E+00
    0.00000E+00         0.00000E+00        -0.21169E+06
 
   -0.12660E-08         0.14456E-09         0.00000E+00
    0.14456E-09        -0.50125E+06         0.00000E+00
    0.00000E+00         0.00000E+00        -0.21169E+06
 
   -0.15498E-08         0.72280E-10         0.00000E+00
    0.72280E-10        -0.50125E+06         0.00000E+00
    0.00000E+00         0.00000E+00        -0.21169E+06
 
   -0.19354E-08        -0.43368E-09         0.00000E+00
   -0.43368E-09        -0.50125E+06         0.00000E+00
    0.00000E+00         0.00000E+00        -0.21169E+06
 
   -0.20445E-08         0.72280E-09         0.00000E+00
    0.72280E-09        -0.50125E+06         0.00000E+00
    0.00000E+00         0.00000E+00        -0.21169E+06
 
   -0.27285E-08        -0.10119E-08         0.00000E+00
   -0.10119E-08        -0.50125E+06         0.00000E+00
    0.00000E+00         0.00000E+00        -0.21169E+06
 
    0.11714E-08        -0.21684E-09         0.00000E+00
   -0.21684E-09        -0.49856E+06         0.00000E+00
    0.00000E+00         0.00000E+00        -0.20899E+06
 
    0.25975E-08         0.21684E-09         0.00000E+00
    0.21684E-09        -0.49856E+06         0.00000E+00
    0.00000E+00         0.00000E+00        -0.20899E+06
 
    0.21828E-08        -0.79508E-09         0.00000E+00
   -0.79508E-09        -0.49856E+06         0.00000E+00
    0.00000E+00         0.00000E+00        -0.20899E+06
 
    0.50932E-09         0.13733E-08         0.00000E+00
    0.13733E-08        -0.49856E+06         0.00000E+00
    0.00000E+00         0.00000E+00        -0.20899E+06
 
    0.53842E-09        -0.79508E-09         0.00000E+00
   -0.79508E-09        -0.49856E+06         0.00000E+00
    0.00000E+00         0.00000E+00        -0.20899E+06
 
    0.50204E-09        -0.72280E-09         0.00000E+00
   -0.72280E-09        -0.49856E+06         0.00000E+00
    0.00000E+00         0.00000E+00        -0.20899E+06
 
    0.34925E-09        -0.21684E-09         0.00000E+00
   -0.21684E-09        -0.49856E+06         0.00000E+00
    0.00000E+00         0.00000E+00        -0.20899E+06
 
    0.21828E-10         0.65052E-09         0.00000E+00
    0.65052E-09        -0.49856E+06         0.00000E+00
    0.00000E+00         0.00000E+00        -0.20899E+06
 
    0.94587E-09         0.72280E-10         0.00000E+00
    0.72280E-10        -0.49856E+06         0.00000E+00
    0.00000E+00         0.00000E+00        -0.20899E+06
 
    0.21828E-10        -0.28912E-09         0.00000E+00
   -0.28912E-09        -0.49856E+06         0.00000E+00
    0.00000E+00         0.00000E+00        -0.20899E+06
 
    0.24884E-08         0.72280E-10         0.00000E+00
    0.72280E-10        -0.49856E+06         0.00000E+00
    0.00000E+00         0.00000E+00        -0.20899E+06
 
    0.15061E-08        -0.43368E-09         0.00000E+00
   -0.43368E-09        -0.49856E+06         0.00000E+00
    0.00000E+00         0.00000E+00        -0.20899E+06
 
    0.11933E-08         0.14456E-09         0.00000E+00
    0.14456E-09        -0.49856E+06         0.00000E+00
    0.00000E+00         0.00000E+00        -0.20899E+06
 
    0.18408E-08        -0.36140E-09         0.00000E+00
   -0.36140E-09        -0.49856E+06         0.00000E+00
    0.00000E+00         0.00000E+00        -0.20899E+06
 
    0.22701E-08        -0.28912E-09         0.00000E+00
   -0.28912E-09        -0.49856E+06         0.00000E+00
    0.00000E+00         0.00000E+00        -0.20899E+06
 
    0.43656E-10        -0.43368E-09         0.00000E+00
   -0.43368E-09        -0.49579E+06         0.00000E+00
    0.00000E+00         0.00000E+00        -0.20622E+06
 
   -0.13024E-08        -0.14456E-09         0.00000E+00
   -0.14456E-09        -0.49579E+06         0.00000E+00
    0.00000E+00         0.00000E+00        -0.20622E+06
 
   -0.94587E-10        -0.21684E-09         0.00000E+00
   -0.21684E-09        -0.49579E+06         0.00000E+00
    0.00000E+00         0.00000E+00        -0.20622E+06
 
   -0.27649E-09        -0.43368E-09         0.00000E+00
   -0.43368E-09        -0.49579E+06         0.00000E+00
    0.00000E+00         0.00000E+00        -0.20622E+06
 
    0.53842E-09        -0.57824E-09         0.00000E+00
   -0.57824E-09        -0.49579E+06         0.00000E+00
    0.00000E+00         0.00000E+00        -0.20622E+06
 
    0.57480E-09        -0.57824E-09         0.00000E+00
   -0.57824E-09        -0.49579E+06         0.00000E+00
    0.00000E+00         0.00000E+00        -0.20622E+06
 
   -0.16953E-08         0.21684E-09         0.00000E+00
    0.21684E-09        -0.49579E+06         0.00000E+00
    0.00000E+00         0.00000E+00        -0.20622E+06
 
   -0.11860E-08        -0.72280E-10         0.00000E+00
   -0.72280E-10        -0.49579E+06         0.00000E+00
    0.00000E+00         0.00000E+00        -0.20622E+06
 
   -0.68394E-09         0.14456E-08         0.00000E+00
    0.14456E-08        -0.49579E+06         0.00000E+00
    0.00000E+00         0.00000E+00        -0.20622E+06
 
   -0.64756E-09        -0.15902E-08         0.00000E+00
   -0.15902E-08        -0.49579E+06         0.00000E+00
    0.00000E+00         0.00000E+00        -0.20622E+06
 
    0.14697E-08         0.28912E-09         0.00000E+00
    0.28912E-09        -0.49579E+06         0.00000E+00
    0.00000E+00         0.00000E+00        -0.20622E+06
 
    0.21828E-10        -0.57824E-09         0.00000E+00
   -0.57824E-09        -0.49579E+06         0.00000E+00
    0.00000E+00         0.00000E+00        -0.20622E+06
 
    0.15280E-08         0.79508E-09         0.00000E+00
    0.79508E-09        -0.49579E+06         0.00000E+00
    0.00000E+00         0.00000E+00        -0.20622E+06
 
   -0.78580E-09         0.72280E-10         0.00000E+00
    0.72280E-10        -0.49579E+06         0.00000E+00
    0.00000E+00         0.00000E+00        -0.20622E+06
 
   -0.29831E-09         0.00000E+00         0.00000E+00
    0.00000E+00        -0.49579E+06         0.00000E+00
    0.00000E+00         0.00000E+00        -0.20622E+06
 
   -0.10114E-08         0.36140E-09         0.00000E+00
    0.36140E-09        -0.49293E+06         0.00000E+00
    0.00000E+00         0.00000E+00        -0.20336E+06
 
   -0.62573E-09        -0.43368E-09         0.00000E+00
   -0.43368E-09        -0.49293E+06         0.00000E+00
    0.00000E+00         0.00000E+00        -0.20336E+06
 
    0.88039E-09         0.43368E-09         0.00000E+00
    0.43368E-09        -0.49293E+06         0.00000E+00
    0.00000E+00         0.00000E+00        -0.20336E+06
 
   -0.11569E-08        -0.57824E-09         0.00000E+00
   -0.57824E-09        -0.49293E+06         0.00000E+00
    0.00000E+00         0.00000E+00        -0.20336E+06
 
   -0.12369E-09        -0.21684E-09         0.00000E+00
   -0.21684E-09        -0.49293E+06         0.00000E+00
    0.00000E+00         0.00000E+00        -0.20336E+06
 
    0.13388E-08        -0.21684E-09         0.00000E+00
   -0.21684E-09        -0.49293E+06         0.00000E+00
    0.00000E+00         0.00000E+00        -0.20336E+06
 
    0.90949E-09        -0.21684E-09         0.00000E+00
   -0.21684E-09        -0.49293E+06         0.00000E+00
    0.00000E+00         0.00000E+00        -0.20336E+06
 
    0.94587E-09        -0.72280E-10         0.00000E+00
   -0.72280E-10        -0.49293E+06         0.00000E+00
    0.00000E+00         0.00000E+00        -0.20336E+06
 
    0.95315E-09        -0.86736E-09         0.00000E+00
   -0.86736E-09        -0.49293E+06         0.00000E+00
    0.00000E+00         0.00000E+00        -0.20336E+06
 
   -0.29831E-09         0.00000E+00         0.00000E+00
    0.00000E+00        -0.49293E+06         0.00000E+00
    0.00000E+00         0.00000E+00        -0.20336E+06
 
   -0.25102E-08         0.36140E-09         0.00000E+00
    0.36140E-09        -0.49293E+06         0.00000E+00
    0.00000E+00         0.00000E+00        -0.20336E+06
 
    0.67666E-09         0.36140E-09         0.00000E+00
    0.36140E-09        -0.49293E+06         0.00000E+00
    0.00000E+00         0.00000E+00        -0.20336E+06
 
    0.93860E-09        -0.43368E-09         0.00000E+00
   -0.43368E-09        -0.49293E+06         0.00000E+00
    0.00000E+00         0.00000E+00        -0.20336E+06
 
    0.34925E-09        -0.93964E-09         0.00000E+00
   -0.93964E-09        -0.49293E+06         0.00000E+00
    0.00000E+00         0.00000E+00        -0.20336E+06
 
   -0.16735E-09         0.93964E-09         0.00000E+00
    0.93964E-09        -0.49293E+06         0.00000E+00
    0.00000E+00         0.00000E+00        -0.20336E+06
 
    0.13752E-08         0.11565E-08         0.00000E+00
    0.11565E-08        -0.48999E+06         0.00000E+00
    0.00000E+00         0.00000E+00        -0.20043E+06
 
    0.23501E-08        -0.36140E-09         0.00000E+00
   -0.36140E-09        -0.48999E+06         0.00000E+00
    0.00000E+00         0.00000E+00        -0.20043E+06
 
    0.20518E-08        -0.57824E-09         0.00000E+00
   -0.57824E-09        -0.48999E+06         0.00000E+00
    0.00000E+00         0.00000E+00        -0.20043E+06
 
    0.74942E-09         0.11565E-08         0.00000E+00
    0.11565E-08        -0.48999E+06         0.00000E+00
    0.00000E+00         0.00000E+00        -0.20043E+06
 
   -0.13024E-08        -0.10842E-08         0.00000E+00
   -0.10842E-08        -0.48999E+06         0.00000E+00
    0.00000E+00         0.00000E+00        -0.20043E+06
 
   -0.13242E-08         0.72280E-10         0.00000E+00
    0.72280E-10        -0.48999E+06         0.00000E+00
    0.00000E+00         0.00000E+00        -0.20043E+06
 
    0.16953E-08        -0.21684E-09         0.00000E+00
   -0.21684E-09        -0.48999E+06         0.00000E+00
    0.00000E+00         0.00000E+00        -0.20043E+06
 
   -0.52387E-09         0.11565E-08         0.00000E+00
    0.11565E-08        -0.48999E+06         0.00000E+00
    0.00000E+00         0.00000E+00        -0.20043E+06
 
   -0.22046E-08         0.14456E-09         0.00000E+00
    0.14456E-09        -0.48999E+06         0.00000E+00
    0.00000E+00         0.00000E+00        -0.20043E+06
 
   -0.14406E-08         0.11565E-08         0.00000E+00
    0.11565E-08        -0.48999E+06         0.00000E+00
    0.00000E+00         0.00000E+00        -0.20043E+06
 
   -0.90222E-09        -0.72280E-10         0.00000E+00
   -0.72280E-10        -0.48999E+06         0.00000E+00
    0.00000E+00         0.00000E+00        -0.20043E+06
 
   -0.11642E-08        -0.86736E-09         0.00000E+00
   -0.86736E-09        -0.48999E+06         0.00000E+00
    0.00000E+00         0.00000E+00        -0.20043E+06
 
   -0.14334E-08        -0.72280E-10         0.00000E+00
   -0.72280E-10        -0.48999E+06         0.00000E+00
    0.00000E+00         0.00000E+00        -0.20043E+06
 
   -0.10696E-08        -0.10842E-08         0.00000E+00
   -0.10842E-08        -0.48999E+06         0.00000E+00
    0.00000E+00         0.00000E+00        -0.20043E+06
 
   -0.24811E-08         0.72280E-09         0.00000E+00
    0.72280E-09        -0.48999E+06         0.00000E+00
    0.00000E+00         0.00000E+00        -0.20043E+06
 
    0.18263E-08        -0.43368E-09         0.00000E+00
   -0.43368E-09        -0.48697E+06         0.00000E+00
    0.00000E+00         0.00000E+00        -0.19740E+06
 
    0.32014E-09        -0.12288E-08         0.00000E+00
   -0.12288E-08        -0.48697E+06         0.00000E+00
    0.00000E+00         0.00000E+00        -0.19740E+06
 
   -0.40745E-09        -0.14456E-09         0.00000E+00
   -0.14456E-09        -0.48697E+06         0.00000E+00
    0.00000E+00         0.00000E+00        -0.19740E+06
 
   -0.64756E-09         0.72280E-09         0.00000E+00
    0.72280E-09        -0.48697E+06         0.00000E+00
    0.00000E+00         0.00000E+00        -0.19740E+06
 
    0.19718E-08         0.14456E-09         0.00000E+00
    0.14456E-09        -0.48697E+06         0.00000E+00
    0.00000E+00         0.00000E+00        -0.19740E+06
 
    0.15207E-08        -0.93964E-09         0.00000E+00
   -0.93964E-09        -0.48697E+06         0.00000E+00
    0.00000E+00         0.00000E+00        -0.19740E+06
 
    0.31287E-09        -0.79508E-09         0.00000E+00
   -0.79508E-09        -0.48697E+06         0.00000E+00
    0.00000E+00         0.00000E+00        -0.19740E+06
 
    0.43656E-09         0.13010E-08         0.00000E+00
    0.13010E-08        -0.48697E+06         0.00000E+00
    0.00000E+00         0.00000E+00        -0.19740E+06
 
    0.10186E-08         0.36140E-09         0.00000E+00
    0.36140E-09        -0.48697E+06         0.00000E+00
    0.00000E+00         0.00000E+00        -0.19740E+06
 
    0.69849E-09         0.43368E-09         0.00000E+00
    0.43368E-09        -0.48697E+06         0.00000E+00
    0.00000E+00         0.00000E+00        -0.19740E+06
 
    0.25320E-08         0.14456E-09         0.00000E+00
    0.14456E-09        -0.48697E+06         0.00000E+00
    0.00000E+00         0.00000E+00        -0.19740E+06
 
    0.16516E-08        -0.72280E-10         0.00000E+00
   -0.72280E-10        -0.48697E+06         0.00000E+00
    0.00000E+00         0.00000E+00        -0.19740E+06
 
    0.72760E-09         0.72280E-10         0.00000E+00
    0.72280E-10        -0.48697E+06         0.00000E+00
    0.00000E+00         0.00000E+00        -0.19740E+06
 
   -0.93132E-09        -0.10842E-08         0.00000E+00
   -0.10842E-08        -0.48697E+06         0.00000E+00
    0.00000E+00         0.00000E+00        -0.19740E+06
 
    0.18845E-08        -0.28912E-09         0.00000E+00
   -0.28912E-09        -0.48697E+06         0.00000E+00
    0.00000E+00         0.00000E+00        -0.19740E+06
 
    0.20373E-09         0.36140E-09         0.00000E+00
    0.36140E-09        -0.48386E+06         0.00000E+00
    0.00000E+00         0.00000E+00        -0.19429E+06
 
   -0.68394E-09         0.10842E-08         0.00000E+00
    0.10842E-08        -0.48386E+06         0.00000E+00
    0.00000E+00         0.00000E+00        -0.19429E+06
 
    0.67666E-09         0.86736E-09         0.00000E+00
    0.86736E-09        -0.48386E+06         0.00000E+00
    0.00000E+00         0.00000E+00        -0.19429E+06
 
    0.18772E-08        -0.72280E-10         0.00000E+00
   -0.72280E-10        -0.48386E+06         0.00000E+00
    0.00000E+00         0.00000E+00        -0.19429E+06
 
    0.29104E-09         0.00000E+00         0.00000E+00
    0.00000E+00        -0.48386E+06         0.00000E+00
    0.00000E+00         0.00000E+00        -0.19429E+06
 
   -0.14406E-08        -0.72280E-10         0.00000E+00
   -0.72280E-10        -0.48386E+06         0.00000E+00
    0.00000E+00         0.00000E+00        -0.19429E+06
 
   -0.16153E-08        -0.43368E-09         0.00000E+00
   -0.43368E-09        -0.48386E+06         0.00000E+00
    0.00000E+00         0.00000E+00        -0.19429E+06
 
   -0.14552E-08         0.00000E+00         0.00000E+00
    0.00000E+00        -0.48386E+06         0.00000E+00
    0.00000E+00         0.00000E+00        -0.19429E+06
 
   -0.13606E-08        -0.65052E-09         0.00000E+00
   -0.65052E-09        -0.48386E+06         0.00000E+00
    0.00000E+00         0.00000E+00        -0.19429E+06
 
   -0.25466E-09        -0.28912E-09         0.00000E+00
   -0.28912E-09        -0.48386E+06         0.00000E+00
    0.00000E+00         0.00000E+00        -0.19429E+06
 
   -0.12369E-09        -0.28912E-09         0.00000E+00
   -0.28912E-09        -0.48386E+06         0.00000E+00
    0.00000E+00         0.00000E+00        -0.19429E+06
 
   -0.99681E-09        -0.43368E-09         0.00000E+00
   -0.43368E-09        -0.48386E+06         0.00000E+00
    0.00000E+00         0.00000E+00        -0.19429E+06
 
    0.22555E-09        -0.14456E-09         0.00000E+00
   -0.14456E-09        -0.48386E+06         0.00000E+00
    0.00000E+00         0.00000E+00        -0.19429E+06
 
   -0.82218E-09         0.14456E-09         0.00000E+00
    0.14456E-09        -0.48386E+06         0.00000E+00
    0.00000E+00         0.00000E+00        -0.19429E+06
 
   -0.14697E-08        -0.10119E-08         0.00000E+00
   -0.10119E-08        -0.48386E+06         0.00000E+00
    0.00000E+00         0.00000E+00        -0.19429E+06
 
    0.24011E-09        -0.65052E-09         0.00000E+00
   -0.65052E-09        -0.48067E+06         0.00000E+00
    0.00000E+00         0.00000E+00        -0.19110E+06
 
   -0.99681E-09         0.28912E-09         0.00000E+00
    0.28912E-09        -0.48067E+06         0.00000E+00
    0.00000E+00         0.00000E+00        -0.19110E+06
 
    0.45839E-09        -0.28912E-09         0.00000E+00
   -0.28912E-09        -0.48067E+06         0.00000E+00
    0.00000E+00         0.00000E+00        -0.19110E+06
 
    0.60390E-09         0.72280E-10         0.00000E+00
    0.72280E-10        -0.48067E+06         0.00000E+00
    0.00000E+00         0.00000E+00        -0.19110E+06
 
    0.21973E-08        -0.36140E-09         0.00000E+00
   -0.36140E-09        -0.48067E+06         0.00000E+00
    0.00000E+00         0.00000E+00        -0.19110E+06
 
    0.13097E-08         0.72280E-09         0.00000E+00
    0.72280E-09        -0.48067E+06         0.00000E+00
    0.00000E+00         0.00000E+00        -0.19110E+06
 
    0.11205E-08        -0.57824E-09         0.00000E+00
   -0.57824E-09        -0.48067E+06         0.00000E+00
    0.00000E+00         0.00000E+00        -0.19110E+06
 
    0.58208E-09         0.13010E-08         0.00000E+00
    0.13010E-08        -0.48067E+06         0.00000E+00
    0.00000E+00         0.00000E+00        -0.19110E+06
 
    0.68394E-09        -0.16624E-08         0.00000E+00
   -0.16624E-08        -0.48067E+06         0.00000E+00
    0.00000E+00         0.00000E+00        -0.19110E+06
 
    0.36744E-08        -0.72280E-10         0.00000E+00
   -0.72280E-10        -0.48067E+06         0.00000E+00
    0.00000E+00         0.00000E+00        -0.19110E+06
 
    0.13606E-08         0.72280E-09         0.00000E+00
    0.72280E-09        -0.48067E+06         0.00000E+00
    0.00000E+00         0.00000E+00        -0.19110E+06
 
    0.15207E-08        -0.43368E-09         0.00000E+00
   -0.43368E-09        -0.48067E+06         0.00000E+00
    0.00000E+00         0.00000E+00        -0.19110E+06
 
    0.58208E-09         0.43368E-09         0.00000E+00
    0.43368E-09        -0.48067E+06         0.00000E+00
    0.00000E+00         0.00000E+00        -0.19110E+06
 
    0.96770E-09        -0.43368E-09         0.00000E+00
   -0.43368E-09        -0.48067E+06         0.00000E+00
    0.00000E+00         0.00000E+00        -0.19110E+06
 
   -0.80036E-09        -0.72280E-09         0.00000E+00
   -0.72280E-09        -0.48067E+06         0.00000E+00
    0.00000E+00         0.00000E+00        -0.19110E+06
 
   -0.68394E-09         0.50596E-09         0.00000E+00
    0.50596E-09        -0.47739E+06         0.00000E+00
    0.00000E+00         0.00000E+00        -0.18782E+06
 
    0.32887E-08        -0.15902E-08         0.00000E+00
   -0.15902E-08        -0.47739E+06         0.00000E+00
    0.00000E+00         0.00000E+00        -0.18782E+06
 
    0.43656E-10         0.10119E-08         0.00000E+00
    0.10119E-08        -0.47739E+06         0.00000E+00
    0.00000E+00         0.00000E+00        -0.18782E+06
 
    0.84401E-09        -0.18793E-08         0.00000E+00
   -0.18793E-08        -0.47739E+06         0.00000E+00
    0.00000E+00         0.00000E+00        -0.18782E+06
 
    0.87311E-09        -0.93964E-09         0.00000E+00
   -0.93964E-09        -0.47739E+06         0.00000E+00
    0.00000E+00         0.00000E+00        -0.18782E+06
 
   -0.48749E-09         0.93964E-09         0.00000E+00
    0.93964E-09        -0.47739E+06         0.00000E+00
    0.00000E+00         0.00000E+00        -0.18782E+06
 
   -0.17462E-09        -0.13010E-08         0.00000E+00
   -0.13010E-08        -0.47739E+06         0.00000E+00
    0.00000E+00         0.00000E+00        -0.18782E+06
 
    0.96770E-09         0.00000E+00         0.00000E+00
    0.00000E+00        -0.47739E+06         0.00000E+00
    0.00000E+00         0.00000E+00        -0.18782E+06
 
    0.56752E-09         0.21684E-09         0.00000E+00
    0.21684E-09        -0.47739E+06         0.00000E+00
    0.00000E+00         0.00000E+00        -0.18782E+06
 
   -0.25684E-08         0.43368E-09         0.00000E+00
    0.43368E-09        -0.47739E+06         0.00000E+00
    0.00000E+00         0.00000E+00        -0.18782E+06
 
   -0.14334E-08         0.11565E-08         0.00000E+00
    0.11565E-08        -0.47739E+06         0.00000E+00
    0.00000E+00         0.00000E+00        -0.18782E+06
 
    0.50204E-09         0.00000E+00         0.00000E+00
    0.00000E+00        -0.47739E+06         0.00000E+00
    0.00000E+00         0.00000E+00        -0.18782E+06
 
    0.25611E-08         0.79508E-09         0.00000E+00
    0.79508E-09        -0.47739E+06         0.00000E+00
    0.00000E+00         0.00000E+00        -0.18782E+06
 
   -0.13606E-08        -0.57824E-09         0.00000E+00
   -0.57824E-09        -0.47739E+06         0.00000E+00
    0.00000E+00         0.00000E+00        -0.18782E+06
 
    0.84401E-09         0.28912E-09         0.00000E+00
    0.28912E-09        -0.47739E+06         0.00000E+00
    0.00000E+00         0.00000E+00        -0.18782E+06
 
    0.25248E-08        -0.72280E-09         0.00000E+00
   -0.72280E-09        -0.47402E+06         0.00000E+00
    0.00000E+00         0.00000E+00        -0.18445E+06
 
   -0.10550E-08         0.14456E-09         0.00000E+00
    0.14456E-09        -0.47402E+06         0.00000E+00
    0.00000E+00         0.00000E+00        -0.18445E+06
 
    0.74215E-09         0.86736E-09         0.00000E+00
    0.86736E-09        -0.47402E+06         0.00000E+00
    0.00000E+00         0.00000E+00        -0.18445E+06
 
   -0.15207E-08        -0.50596E-09         0.00000E+00
   -0.50596E-09        -0.47402E+06         0.00000E+00
    0.00000E+00         0.00000E+00        -0.18445E+06
 
   -0.77853E-09         0.57824E-09         0.00000E+00
    0.57824E-09        -0.47402E+06         0.00000E+00
    0.00000E+00         0.00000E+00        -0.18445E+06
 
   -0.21028E-08         0.14456E-09         0.00000E+00
    0.14456E-09        -0.47402E+06         0.00000E+00
    0.00000E+00         0.00000E+00        -0.18445E+06
 
    0.61118E-09         0.28912E-09         0.00000E+00
    0.28912E-09        -0.47402E+06         0.00000E+00
    0.00000E+00         0.00000E+00        -0.18445E+06
 
   -0.13970E-08        -0.57824E-09         0.00000E+00
   -0.57824E-09        -0.47402E+06         0.00000E+00
    0.00000E+00         0.00000E+00        -0.18445E+06
 
   -0.22992E-08         0.93964E-09         0.00000E+00
    0.93964E-09        -0.47402E+06         0.00000E+00
    0.00000E+00         0.00000E+00        -0.18445E+06
 
   -0.31505E-08        -0.86736E-09         0.00000E+00
   -0.86736E-09        -0.47402E+06         0.00000E+00
    0.00000E+00         0.00000E+00        -0.18445E+06
 
   -0.58208E-10         0.00000E+00         0.00000E+00
    0.00000E+00        -0.47402E+06         0.00000E+00
    0.00000E+00         0.00000E+00        -0.18445E+06
 
   -0.25466E-09        -0.12288E-08         0.00000E+00
   -0.12288E-08        -0.47402E+06         0.00000E+00
    0.00000E+00         0.00000E+00        -0.18445E+06
 
   -0.20518E-08         0.11565E-08         0.00000E+00
    0.11565E-08        -0.47402E+06         0.00000E+00
    0.00000E+00         0.00000E+00        -0.18445E+06
 
   -0.85856E-09         0.28912E-09         0.00000E+00
    0.28912E-09        -0.47402E+06         0.00000E+00
    0.00000E+00         0.00000E+00        -0.18445E+06
 
    0.29831E-09         0.14456E-08         0.00000E+00
    0.14456E-08        -0.47402E+06         0.00000E+00
    0.00000E+00         0.00000E+00        -0.18445E+06
 
   -0.88767E-09        -0.10842E-08         0.00000E+00
   -0.10842E-08        -0.47057E+06         0.00000E+00
    0.00000E+00         0.00000E+00        -0.18100E+06
 
   -0.33251E-08         0.65052E-09         0.00000E+00
    0.65052E-09        -0.47057E+06         0.00000E+00
    0.00000E+00         0.00000E+00        -0.18100E+06
 
    0.21682E-08         0.36140E-09         0.00000E+00
    0.36140E-09        -0.47057E+06         0.00000E+00
    0.00000E+00         0.00000E+00        -0.18100E+06
 
    0.29104E-10         0.28912E-09         0.00000E+00
    0.28912E-09        -0.47057E+06         0.00000E+00
    0.00000E+00         0.00000E+00        -0.18100E+06
 
    0.21173E-08        -0.65052E-09         0.00000E+00
   -0.65052E-09        -0.47057E+06         0.00000E+00
    0.00000E+00         0.00000E+00        -0.18100E+06
 
    0.72760E-09         0.72280E-09         0.00000E+00
    0.72280E-09        -0.47057E+06         0.00000E+00
    0.00000E+00         0.00000E+00        -0.18100E+06
 
   -0.61846E-09        -0.72280E-10         0.00000E+00
   -0.72280E-10        -0.47057E+06         0.00000E+00
    0.00000E+00         0.00000E+00        -0.18100E+06
 
   -0.98225E-09         0.21684E-09         0.00000E+00
    0.21684E-09        -0.47057E+06         0.00000E+00
    0.00000E+00         0.00000E+00        -0.18100E+06
 
    0.50932E-10         0.86736E-09         0.00000E+00
    0.86736E-09        -0.47057E+06         0.00000E+00
    0.00000E+00         0.00000E+00        -0.18100E+06
 
    0.28303E-08        -0.28912E-09         0.00000E+00
   -0.28912E-09        -0.47057E+06         0.00000E+00
    0.00000E+00         0.00000E+00        -0.18100E+06
 
    0.48749E-09         0.72280E-10         0.00000E+00
    0.72280E-10        -0.47057E+06         0.00000E+00
    0.00000E+00         0.00000E+00        -0.18100E+06
 
    0.12951E-08        -0.65052E-09         0.00000E+00
   -0.65052E-09        -0.47057E+06         0.00000E+00
    0.00000E+00         0.00000E+00        -0.18100E+06
 
    0.37180E-08         0.28912E-09         0.00000E+00
    0.28912E-09        -0.47057E+06         0.00000E+00
    0.00000E+00         0.00000E+00        -0.18100E+06
 
    0.31359E-08         0.28912E-09         0.00000E+00
    0.28912E-09        -0.47057E+06         0.00000E+00
    0.00000E+00         0.00000E+00        -0.18100E+06
 
   -0.76398E-09         0.43368E-09         0.00000E+00
    0.43368E-09        -0.47057E+06         0.00000E+00
    0.00000E+00         0.00000E+00        -0.18100E+06
 
    0.10332E-08        -0.21684E-09         0.00000E+00
   -0.21684E-09        -0.46703E+06         0.00000E+00
    0.00000E+00         0.00000E+00        -0.17746E+06
 
    0.22410E-08        -0.21684E-09         0.00000E+00
   -0.21684E-09        -0.46703E+06         0.00000E+00
    0.00000E+00         0.00000E+00        -0.17746E+06
 
    0.18481E-08        -0.57824E-09         0.00000E+00
   -0.57824E-09        -0.46703E+06         0.00000E+00
    0.00000E+00         0.00000E+00        -0.17746E+06
 
    0.18481E-08         0.10119E-08         0.00000E+00
    0.10119E-08        -0.46703E+06         0.00000E+00
    0.00000E+00         0.00000E+00        -0.17746E+06
 
   -0.14843E-08        -0.21684E-09         0.00000E+00
   -0.21684E-09        -0.46703E+06         0.00000E+00
    0.00000E+00         0.00000E+00        -0.17746E+06
 
    0.56025E-09         0.14456E-09         0.00000E+00
    0.14456E-09        -0.46703E+06         0.00000E+00
    0.00000E+00         0.00000E+00        -0.17746E+06
 
    0.22774E-08         0.43368E-09         0.00000E+00
    0.43368E-09        -0.46703E+06         0.00000E+00
    0.00000E+00         0.00000E+00        -0.17746E+06
 
    0.22192E-08        -0.43368E-09         0.00000E+00
   -0.43368E-09        -0.46703E+06         0.00000E+00
    0.00000E+00         0.00000E+00        -0.17746E+06
 
   -0.93132E-09         0.28912E-09         0.00000E+00
    0.28912E-09        -0.46703E+06         0.00000E+00
    0.00000E+00         0.00000E+00        -0.17746E+06
 
   -0.12733E-08        -0.72280E-09         0.00000E+00
   -0.72280E-09        -0.46703E+06         0.00000E+00
    0.00000E+00         0.00000E+00        -0.17746E+06
 
    0.74942E-09         0.21684E-09         0.00000E+00
    0.21684E-09        -0.46703E+06         0.00000E+00
    0.00000E+00         0.00000E+00        -0.17746E+06
 
   -0.22483E-08         0.28912E-09         0.00000E+00
    0.28912E-09        -0.46703E+06         0.00000E+00
    0.00000E+00         0.00000E+00        -0.17746E+06
 
   -0.15716E-08        -0.14456E-09         0.00000E+00
   -0.14456E-09        -0.46703E+06         0.00000E+00
    0.00000E+00         0.00000E+00        -0.17746E+06
 
   -0.23065E-08         0.14456E-09         0.00000E+00
    0.14456E-09        -0.46703E+06         0.00000E+00
    0.00000E+00         0.00000E+00        -0.17746E+06
 
    0.21755E-08         0.43368E-09         0.00000E+00
    0.43368E-09        -0.46703E+06         0.00000E+00
    0.00000E+00         0.00000E+00        -0.17746E+06
 
   -0.69122E-09        -0.43368E-09         0.00000E+00
   -0.43368E-09        -0.46340E+06         0.00000E+00
    0.00000E+00         0.00000E+00        -0.17384E+06
 
   -0.29104E-10         0.57824E-09         0.00000E+00
    0.57824E-09        -0.46340E+06         0.00000E+00
    0.00000E+00         0.00000E+00        -0.17384E+06
 
    0.50932E-10         0.14456E-09         0.00000E+00
    0.14456E-09        -0.46340E+06         0.00000E+00
    0.00000E+00         0.00000E+00        -0.17384E+06
 
   -0.24302E-08         0.14456E-09         0.00000E+00
    0.14456E-09        -0.46340E+06         0.00000E+00
    0.00000E+00         0.00000E+00        -0.17384E+06
 
    0.10186E-08        -0.72280E-09         0.00000E+00
   -0.72280E-09        -0.46340E+06         0.00000E+00
    0.00000E+00         0.00000E+00        -0.17384E+06
 
   -0.58208E-10         0.28912E-09         0.00000E+00
    0.28912E-09        -0.46340E+06         0.00000E+00
    0.00000E+00         0.00000E+00        -0.17384E+06
 
    0.14552E-09        -0.65052E-09         0.00000E+00
   -0.65052E-09        -0.46340E+06         0.00000E+00
    0.00000E+00         0.00000E+00        -0.17384E+06
 
   -0.10332E-08         0.00000E+00         0.00000E+00
    0.00000E+00        -0.46340E+06         0.00000E+00
    0.00000E+00         0.00000E+00        -0.17384E+06
 
    0.99681E-09        -0.72280E-10         0.00000E+00
   -0.72280E-10        -0.46340E+06         0.00000E+00
    0.00000E+00         0.00000E+00        -0.17384E+06
 
    0.11132E-08         0.28912E-09         0.00000E+00
    0.28912E-09        -0.46340E+06         0.00000E+00
    0.00000E+00         0.00000E+00        -0.17384E+06
 
   -0.14552E-09        -0.21684E-09         0.00000E+00
   -0.21684E-09        -0.46340E+06         0.00000E+00
    0.00000E+00         0.00000E+00        -0.17384E+06
 
   -0.62573E-09        -0.43368E-09         0.00000E+00
   -0.43368E-09        -0.46340E+06         0.00000E+00
    0.00000E+00         0.00000E+00        -0.17384E+06
 
   -0.23283E-09         0.43368E-09         0.00000E+00
    0.43368E-09        -0.46340E+06         0.00000E+00
    0.00000E+00         0.00000E+00        -0.17384E+06
 
   -0.48021E-09         0.86736E-09         0.00000E+00
    0.86736E-09        -0.46340E+06         0.00000E+00
    0.00000E+00         0.00000E+00        -0.17384E+06
 
   -0.62573E-09         0.14456E-09         0.00000E+00
    0.14456E-09        -0.46340E+06         0.00000E+00
    0.00000E+00         0.00000E+00        -0.17384E+06
 
   -0.14006E-08         0.10119E-08         0.00000E+00
    0.10119E-08        -0.45969E+06         0.00000E+00
    0.00000E+00         0.00000E+00        -0.17012E+06
 
   -0.15607E-08        -0.43368E-09         0.00000E+00
   -0.43368E-09        -0.45969E+06         0.00000E+00
    0.00000E+00         0.00000E+00        -0.17012E+06
 
   -0.13024E-08        -0.14456E-09         0.00000E+00
   -0.14456E-09        -0.45969E+06         0.00000E+00
    0.00000E+00         0.00000E+00        -0.17012E+06
 
    0.99681E-09        -0.10119E-08         0.00000E+00
   -0.10119E-08        -0.45969E+06         0.00000E+00
    0.00000E+00         0.00000E+00        -0.17012E+06
 
   -0.96043E-09         0.14456E-08         0.00000E+00
    0.14456E-08        -0.45969E+06         0.00000E+00
    0.00000E+00         0.00000E+00        -0.17012E+06
 
   -0.16298E-08        -0.21684E-09         0.00000E+00
   -0.21684E-09        -0.45969E+06         0.00000E+00
    0.00000E+00         0.00000E+00        -0.17012E+06
 
   -0.15461E-08        -0.36140E-09         0.00000E+00
   -0.36140E-09        -0.45969E+06         0.00000E+00
    0.00000E+00         0.00000E+00        -0.17012E+06
 
   -0.12406E-08         0.43368E-09         0.00000E+00
    0.43368E-09        -0.45969E+06         0.00000E+00
    0.00000E+00         0.00000E+00        -0.17012E+06
 
   -0.92405E-09        -0.36140E-09         0.00000E+00
   -0.36140E-09        -0.45969E+06         0.00000E+00
    0.00000E+00         0.00000E+00        -0.17012E+06
 
    0.14661E-08        -0.14456E-09         0.00000E+00
   -0.14456E-09        -0.45969E+06         0.00000E+00
    0.00000E+00         0.00000E+00        -0.17012E+06
 
   -0.13824E-08         0.21684E-09         0.00000E+00
    0.21684E-09        -0.45969E+06         0.00000E+00
    0.00000E+00         0.00000E+00        -0.17012E+06
 
   -0.18044E-08         0.00000E+00         0.00000E+00
    0.00000E+00        -0.45969E+06         0.00000E+00
    0.00000E+00         0.00000E+00        -0.17012E+06
 
   -0.17681E-08        -0.11565E-08         0.00000E+00
   -0.11565E-08        -0.45969E+06         0.00000E+00
    0.00000E+00         0.00000E+00        -0.17012E+06
 
   -0.86948E-09        -0.14456E-09         0.00000E+00
   -0.14456E-09        -0.45969E+06         0.00000E+00
    0.00000E+00         0.00000E+00        -0.17012E+06
 
    0.38199E-09         0.13010E-08         0.00000E+00
    0.13010E-08        -0.45969E+06         0.00000E+00
    0.00000E+00         0.00000E+00        -0.17012E+06
 
    0.47294E-09        -0.18793E-08         0.00000E+00
   -0.18793E-08        -0.45589E+06         0.00000E+00
    0.00000E+00         0.00000E+00        -0.16632E+06
 
   -0.32014E-09         0.14456E-08         0.00000E+00
    0.14456E-08        -0.45589E+06         0.00000E+00
    0.00000E+00         0.00000E+00        -0.16632E+06
 
   -0.13279E-08         0.00000E+00         0.00000E+00
    0.00000E+00        -0.45589E+06         0.00000E+00
    0.00000E+00         0.00000E+00        -0.16632E+06
 
   -0.17790E-08        -0.14456E-08         0.00000E+00
   -0.14456E-08        -0.45589E+06         0.00000E+00
    0.00000E+00         0.00000E+00        -0.16632E+06
 
   -0.85856E-09         0.93964E-09         0.00000E+00
    0.93964E-09        -0.45589E+06         0.00000E+00
    0.00000E+00         0.00000E+00        -0.16632E+06
 
    0.54933E-09         0.17347E-08         0.00000E+00
    0.17347E-08        -0.45589E+06         0.00000E+00
    0.00000E+00         0.00000E+00        -0.16632E+06
 
    0.77853E-09        -0.16624E-08         0.00000E+00
   -0.16624E-08        -0.45589E+06         0.00000E+00
    0.00000E+00         0.00000E+00        -0.16632E+06
 
    0.33178E-08         0.43368E-09         0.00000E+00
    0.43368E-09        -0.45589E+06         0.00000E+00
    0.00000E+00         0.00000E+00        -0.16632E+06
 
   -0.59299E-09        -0.10842E-08         0.00000E+00
   -0.10842E-08        -0.45589E+06         0.00000E+00
    0.00000E+00         0.00000E+00        -0.16632E+06
 
    0.33651E-08         0.43368E-09         0.00000E+00
    0.43368E-09        -0.45589E+06         0.00000E+00
    0.00000E+00         0.00000E+00        -0.16632E+06
 
    0.19318E-08        -0.10119E-08         0.00000E+00
   -0.10119E-08        -0.45589E+06         0.00000E+00
    0.00000E+00         0.00000E+00        -0.16632E+06
 
    0.28376E-08        -0.43368E-09         0.00000E+00
   -0.43368E-09        -0.45589E+06         0.00000E+00
    0.00000E+00         0.00000E+00        -0.16632E+06
 
    0.27940E-08         0.10119E-08         0.00000E+00
    0.10119E-08        -0.45589E+06         0.00000E+00
    0.00000E+00         0.00000E+00        -0.16632E+06
 
   -0.36744E-09        -0.28912E-09         0.00000E+00
   -0.28912E-09        -0.45589E+06         0.00000E+00
    0.00000E+00         0.00000E+00        -0.16632E+06
 
    0.47658E-09        -0.72280E-09         0.00000E+00
   -0.72280E-09        -0.45589E+06         0.00000E+00
    0.00000E+00         0.00000E+00        -0.16632E+06
 
   -0.55661E-09        -0.36140E-09         0.00000E+00
   -0.36140E-09        -0.45201E+06         0.00000E+00
    0.00000E+00         0.00000E+00        -0.16244E+06
 
   -0.18190E-10         0.00000E+00         0.00000E+00
    0.00000E+00        -0.45201E+06         0.00000E+00
    0.00000E+00         0.00000E+00        -0.16244E+06
 
   -0.23138E-08        -0.14456E-09         0.00000E+00
   -0.14456E-09        -0.45201E+06         0.00000E+00
    0.00000E+00         0.00000E+00        -0.16244E+06
 
   -0.29104E-10        -0.11565E-08         0.00000E+00
   -0.11565E-08        -0.45201E+06         0.00000E+00
    0.00000E+00         0.00000E+00        -0.16244E+06
 
    0.83674E-10         0.13010E-08         0.00000E+00
    0.13010E-08        -0.45201E+06         0.00000E+00
    0.00000E+00         0.00000E+00        -0.16244E+06
 
   -0.52023E-09         0.17347E-08         0.00000E+00
    0.17347E-08        -0.45201E+06         0.00000E+00
    0.00000E+00         0.00000E+00        -0.16244E+06
 
   -0.16698E-08        -0.86736E-09         0.00000E+00
   -0.86736E-09        -0.45201E+06         0.00000E+00
    0.00000E+00         0.00000E+00        -0.16244E+06
 
   -0.34561E-09        -0.57824E-09         0.00000E+00
   -0.57824E-09        -0.45201E+06         0.00000E+00
    0.00000E+00         0.00000E+00        -0.16244E+06
 
    0.76761E-09         0.79508E-09         0.00000E+00
    0.79508E-09        -0.45201E+06         0.00000E+00
    0.00000E+00         0.00000E+00        -0.16244E+06
 
   -0.22555E-08         0.57824E-09         0.00000E+00
    0.57824E-09        -0.45201E+06         0.00000E+00
    0.00000E+00         0.00000E+00        -0.16244E+06
 
   -0.72760E-11        -0.43368E-09         0.00000E+00
   -0.43368E-09        -0.45201E+06         0.00000E+00
    0.00000E+00         0.00000E+00        -0.16244E+06
 
   -0.48385E-09         0.13010E-08         0.00000E+00
    0.13010E-08        -0.45201E+06         0.00000E+00
    0.00000E+00         0.00000E+00        -0.16244E+06
 
    0.61846E-10         0.72280E-09         0.00000E+00
    0.72280E-09        -0.45201E+06         0.00000E+00
    0.00000E+00         0.00000E+00        -0.16244E+06
 
    0.82582E-09         0.14456E-09         0.00000E+00
    0.14456E-09        -0.45201E+06         0.00000E+00
    0.00000E+00         0.00000E+00        -0.16244E+06
 
    0.62937E-09         0.72280E-09         0.00000E+00
    0.72280E-09        -0.45201E+06         0.00000E+00
    0.00000E+00         0.00000E+00        -0.16244E+06
 
    0.38926E-09         0.11565E-08         0.00000E+00
    0.11565E-08        -0.44804E+06         0.00000E+00
    0.00000E+00         0.00000E+00        -0.15847E+06
 
    0.12915E-08        -0.57824E-09         0.00000E+00
   -0.57824E-09        -0.44804E+06         0.00000E+00
    0.00000E+00         0.00000E+00        -0.15847E+06
 
    0.23283E-08         0.57824E-09         0.00000E+00
    0.57824E-09        -0.44804E+06         0.00000E+00
    0.00000E+00         0.00000E+00        -0.15847E+06
 
    0.21646E-08        -0.43368E-09         0.00000E+00
   -0.43368E-09        -0.44804E+06         0.00000E+00
    0.00000E+00         0.00000E+00        -0.15847E+06
 
   -0.74579E-09         0.11565E-08         0.00000E+00
    0.11565E-08        -0.44804E+06         0.00000E+00
    0.00000E+00         0.00000E+00        -0.15847E+06
 
    0.20736E-08        -0.50596E-09         0.00000E+00
   -0.50596E-09        -0.44804E+06         0.00000E+00
    0.00000E+00         0.00000E+00        -0.15847E+06
 
   -0.12369E-08        -0.10842E-08         0.00000E+00
   -0.10842E-08        -0.44804E+06         0.00000E+00
    0.00000E+00         0.00000E+00        -0.15847E+06
 
   -0.16153E-08         0.36140E-09         0.00000E+00
    0.36140E-09        -0.44804E+06         0.00000E+00
    0.00000E+00         0.00000E+00        -0.15847E+06
 
   -0.21464E-08        -0.21684E-09         0.00000E+00
   -0.21684E-09        -0.44804E+06         0.00000E+00
    0.00000E+00         0.00000E+00        -0.15847E+06
 
    0.26375E-08         0.43368E-09         0.00000E+00
    0.43368E-09        -0.44804E+06         0.00000E+00
    0.00000E+00         0.00000E+00        -0.15847E+06
 
    0.35543E-08        -0.14456E-09         0.00000E+00
   -0.14456E-09        -0.44804E+06         0.00000E+00
    0.00000E+00         0.00000E+00        -0.15847E+06
 
    0.25502E-08         0.10119E-08         0.00000E+00
    0.10119E-08        -0.44804E+06         0.00000E+00
    0.00000E+00         0.00000E+00        -0.15847E+06
 
   -0.17462E-09         0.00000E+00         0.00000E+00
    0.00000E+00        -0.44804E+06         0.00000E+00
    0.00000E+00         0.00000E+00        -0.15847E+06
 
   -0.23210E-08         0.86736E-09         0.00000E+00
    0.86736E-09        -0.44804E+06         0.00000E+00
    0.00000E+00         0.00000E+00        -0.15847E+06
 
   -0.26121E-08         0.14456E-09         0.00000E+00
    0.14456E-09        -0.44804E+06         0.00000E+00
    0.00000E+00         0.00000E+00        -0.15847E+06
 
    0.12369E-08        -0.14456E-09         0.00000E+00
   -0.14456E-09        -0.44398E+06         0.00000E+00
    0.00000E+00         0.00000E+00        -0.15442E+06
 
   -0.78944E-09        -0.14456E-09         0.00000E+00
   -0.14456E-09        -0.44398E+06         0.00000E+00
    0.00000E+00         0.00000E+00        -0.15442E+06
 
    0.11569E-08         0.14456E-09         0.00000E+00
    0.14456E-09        -0.44398E+06         0.00000E+00
    0.00000E+00         0.00000E+00        -0.15442E+06
 
   -0.54570E-09        -0.14456E-09         0.00000E+00
   -0.14456E-09        -0.44398E+06         0.00000E+00
    0.00000E+00         0.00000E+00        -0.15442E+06
 
   -0.57116E-09         0.28912E-09         0.00000E+00
    0.28912E-09        -0.44398E+06         0.00000E+00
    0.00000E+00         0.00000E+00        -0.15442E+06
 
   -0.16553E-08         0.57824E-09         0.00000E+00
    0.57824E-09        -0.44398E+06         0.00000E+00
    0.00000E+00         0.00000E+00        -0.15442E+06
 
   -0.21464E-09        -0.14456E-09         0.00000E+00
   -0.14456E-09        -0.44398E+06         0.00000E+00
    0.00000E+00         0.00000E+00        -0.15442E+06
 
    0.89130E-09        -0.13010E-08         0.00000E+00
   -0.13010E-08        -0.44398E+06         0.00000E+00
    0.00000E+00         0.00000E+00        -0.15442E+06
 
    0.41946E-08         0.10119E-08         0.00000E+00
    0.10119E-08        -0.44398E+06         0.00000E+00
    0.00000E+00         0.00000E+00        -0.15442E+06
 
    0.28376E-09        -0.14456E-09         0.00000E+00
   -0.14456E-09        -0.44398E+06         0.00000E+00
    0.00000E+00         0.00000E+00        -0.15442E+06
 
   -0.41837E-08         0.28912E-09         0.00000E+00
    0.28912E-09        -0.44398E+06         0.00000E+00
    0.00000E+00         0.00000E+00        -0.15442E+06
 
   -0.44674E-08        -0.11565E-08         0.00000E+00
   -0.11565E-08        -0.44398E+06         0.00000E+00
    0.00000E+00         0.00000E+00        -0.15442E+06
 
   -0.63301E-09        -0.28912E-09         0.00000E+00
   -0.28912E-09        -0.44398E+06         0.00000E+00
    0.00000E+00         0.00000E+00        -0.15442E+06
 
    0.86948E-09        -0.10119E-08         0.00000E+00
   -0.10119E-08        -0.44398E+06         0.00000E+00
    0.00000E+00         0.00000E+00        -0.15442E+06
 
   -0.54570E-10         0.14456E-09         0.00000E+00
    0.14456E-09        -0.44398E+06         0.00000E+00
    0.00000E+00         0.00000E+00        -0.15442E+06
 
   -0.57844E-09        -0.43368E-09         0.00000E+00
   -0.43368E-09        -0.43985E+06         0.00000E+00
    0.00000E+00         0.00000E+00        -0.15028E+06
 
   -0.18917E-09         0.72280E-09         0.00000E+00
    0.72280E-09        -0.43985E+06         0.00000E+00
    0.00000E+00         0.00000E+00        -0.15028E+06
 
    0.54570E-10         0.11565E-08         0.00000E+00
    0.11565E-08        -0.43985E+06         0.00000E+00
    0.00000E+00         0.00000E+00        -0.15028E+06
 
   -0.10623E-08        -0.86736E-09         0.00000E+00
   -0.86736E-09        -0.43985E+06         0.00000E+00
    0.00000E+00         0.00000E+00        -0.15028E+06
 
   -0.12624E-08        -0.72280E-10         0.00000E+00
   -0.72280E-10        -0.43985E+06         0.00000E+00
    0.00000E+00         0.00000E+00        -0.15028E+06
 
   -0.65484E-10        -0.21684E-09         0.00000E+00
   -0.21684E-09        -0.43985E+06         0.00000E+00
    0.00000E+00         0.00000E+00        -0.15028E+06
 
   -0.57480E-09         0.14456E-09         0.00000E+00
    0.14456E-09        -0.43985E+06         0.00000E+00
    0.00000E+00         0.00000E+00        -0.15028E+06
 
   -0.19281E-09         0.14456E-09         0.00000E+00
    0.14456E-09        -0.43985E+06         0.00000E+00
    0.00000E+00         0.00000E+00        -0.15028E+06
 
   -0.10441E-08         0.10119E-08         0.00000E+00
    0.10119E-08        -0.43985E+06         0.00000E+00
    0.00000E+00         0.00000E+00        -0.15028E+06
 
   -0.16444E-08         0.57824E-09         0.00000E+00
    0.57824E-09        -0.43985E+06         0.00000E+00
    0.00000E+00         0.00000E+00        -0.15028E+06
 
   -0.22956E-08         0.28912E-09         0.00000E+00
    0.28912E-09        -0.43985E+06         0.00000E+00
    0.00000E+00         0.00000E+00        -0.15028E+06
 
   -0.26994E-08         0.10119E-08         0.00000E+00
    0.10119E-08        -0.43985E+06         0.00000E+00
    0.00000E+00         0.00000E+00        -0.15028E+06
 
    0.39836E-08         0.57824E-09         0.00000E+00
    0.57824E-09        -0.43985E+06         0.00000E+00
    0.00000E+00         0.00000E+00        -0.15028E+06
 
    0.46930E-09         0.28912E-09         0.00000E+00
    0.28912E-09        -0.43985E+06         0.00000E+00
    0.00000E+00         0.00000E+00        -0.15028E+06
 
    0.13824E-09         0.18793E-08         0.00000E+00
    0.18793E-08        -0.43985E+06         0.00000E+00
    0.00000E+00         0.00000E+00        -0.15028E+06
 
   -0.14152E-08        -0.43368E-09         0.00000E+00
   -0.43368E-09        -0.43563E+06         0.00000E+00
    0.00000E+00         0.00000E+00        -0.14606E+06
 
   -0.15789E-08        -0.57824E-09         0.00000E+00
   -0.57824E-09        -0.43563E+06         0.00000E+00
    0.00000E+00         0.00000E+00        -0.14606E+06
 
   -0.10186E-08         0.14456E-09         0.00000E+00
    0.14456E-09        -0.43563E+06         0.00000E+00
    0.00000E+00         0.00000E+00        -0.14606E+06
 
    0.59299E-09         0.57824E-09         0.00000E+00
    0.57824E-09        -0.43563E+06         0.00000E+00
    0.00000E+00         0.00000E+00        -0.14606E+06
 
   -0.30050E-08         0.43368E-09         0.00000E+00
    0.43368E-09        -0.43563E+06         0.00000E+00
    0.00000E+00         0.00000E+00        -0.14606E+06
 
   -0.17535E-08         0.14456E-09         0.00000E+00
    0.14456E-09        -0.43563E+06         0.00000E+00
    0.00000E+00         0.00000E+00        -0.14606E+06
 
   -0.36816E-08        -0.14456E-09         0.00000E+00
   -0.14456E-09        -0.43563E+06         0.00000E+00
    0.00000E+00         0.00000E+00        -0.14606E+06
 
   -0.11278E-09        -0.10842E-08         0.00000E+00
   -0.10842E-08        -0.43563E+06         0.00000E+00
    0.00000E+00         0.00000E+00        -0.14606E+06
 
    0.21319E-08         0.00000E+00         0.00000E+00
    0.00000E+00        -0.43563E+06         0.00000E+00
    0.00000E+00         0.00000E+00        -0.14606E+06
 
   -0.31359E-08         0.72280E-09         0.00000E+00
    0.72280E-09        -0.43563E+06         0.00000E+00
    0.00000E+00         0.00000E+00        -0.14606E+06
 
    0.53842E-09         0.57824E-09         0.00000E+00
    0.57824E-09        -0.43563E+06         0.00000E+00
    0.00000E+00         0.00000E+00        -0.14606E+06
 
   -0.30668E-08         0.23130E-08         0.00000E+00
    0.23130E-08        -0.43563E+06         0.00000E+00
    0.00000E+00         0.00000E+00        -0.14606E+06
 
   -0.38563E-09        -0.18793E-08         0.00000E+00
   -0.18793E-08        -0.43563E+06         0.00000E+00
    0.00000E+00         0.00000E+00        -0.14606E+06
 
    0.14988E-08         0.28912E-09         0.00000E+00
    0.28912E-09        -0.43563E+06         0.00000E+00
    0.00000E+00         0.00000E+00        -0.14606E+06
 
    0.23174E-08         0.57824E-09         0.00000E+00
    0.57824E-09        -0.43563E+06         0.00000E+00
    0.00000E+00         0.00000E+00        -0.14606E+06
 
    0.12915E-08         0.00000E+00         0.00000E+00
    0.00000E+00        -0.43134E+06         0.00000E+00
    0.00000E+00         0.00000E+00        -0.14177E+06
 
   -0.21100E-09        -0.43368E-09         0.00000E+00
   -0.43368E-09        -0.43134E+06         0.00000E+00
    0.00000E+00         0.00000E+00        -0.14177E+06
 
    0.31687E-08         0.14456E-09         0.00000E+00
    0.14456E-09        -0.43134E+06         0.00000E+00
    0.00000E+00         0.00000E+00        -0.14177E+06
 
    0.14115E-08         0.72280E-09         0.00000E+00
    0.72280E-09        -0.43134E+06         0.00000E+00
    0.00000E+00         0.00000E+00        -0.14177E+06
 
    0.27358E-08        -0.72280E-10         0.00000E+00
   -0.72280E-10        -0.43134E+06         0.00000E+00
    0.00000E+00         0.00000E+00        -0.14177E+06
 
    0.36380E-09         0.14456E-09         0.00000E+00
    0.14456E-09        -0.43134E+06         0.00000E+00
    0.00000E+00         0.00000E+00        -0.14177E+06
 
    0.40745E-09         0.43368E-09         0.00000E+00
    0.43368E-09        -0.43134E+06         0.00000E+00
    0.00000E+00         0.00000E+00        -0.14177E+06
 
   -0.62209E-09         0.00000E+00         0.00000E+00
    0.00000E+00        -0.43134E+06         0.00000E+00
    0.00000E+00         0.00000E+00        -0.14177E+06
 
   -0.73487E-09         0.57824E-09         0.00000E+00
    0.57824E-09        -0.43134E+06         0.00000E+00
    0.00000E+00         0.00000E+00        -0.14177E+06
 
   -0.38417E-08        -0.28912E-09         0.00000E+00
   -0.28912E-09        -0.43134E+06         0.00000E+00
    0.00000E+00         0.00000E+00        -0.14177E+06
 
   -0.95315E-09        -0.72280E-09         0.00000E+00
   -0.72280E-09        -0.43134E+06         0.00000E+00
    0.00000E+00         0.00000E+00        -0.14177E+06
 
    0.30086E-08         0.57824E-09         0.00000E+00
    0.57824E-09        -0.43134E+06         0.00000E+00
    0.00000E+00         0.00000E+00        -0.14177E+06
 
   -0.34561E-09        -0.86736E-09         0.00000E+00
   -0.86736E-09        -0.43134E+06         0.00000E+00
    0.00000E+00         0.00000E+00        -0.14177E+06
 
   -0.14988E-08        -0.28912E-09         0.00000E+00
   -0.28912E-09        -0.43134E+06         0.00000E+00
    0.00000E+00         0.00000E+00        -0.14177E+06
 
    0.14043E-08         0.00000E+00         0.00000E+00
    0.00000E+00        -0.43134E+06         0.00000E+00
    0.00000E+00         0.00000E+00        -0.14177E+06
 
    0.16444E-08         0.00000E+00         0.00000E+00
    0.00000E+00        -0.42696E+06         0.00000E+00
    0.00000E+00         0.00000E+00        -0.13740E+06
 
   -0.80036E-10        -0.14456E-09         0.00000E+00
   -0.14456E-09        -0.42696E+06         0.00000E+00
    0.00000E+00         0.00000E+00        -0.13740E+06
 
    0.59663E-09         0.72280E-10         0.00000E+00
    0.72280E-10        -0.42696E+06         0.00000E+00
    0.00000E+00         0.00000E+00        -0.13740E+06
 
   -0.39654E-09         0.12288E-08         0.00000E+00
    0.12288E-08        -0.42696E+06         0.00000E+00
    0.00000E+00         0.00000E+00        -0.13740E+06
 
    0.79308E-09         0.21684E-09         0.00000E+00
    0.21684E-09        -0.42696E+06         0.00000E+00
    0.00000E+00         0.00000E+00        -0.13740E+06
 
   -0.21828E-10        -0.11565E-08         0.00000E+00
   -0.11565E-08        -0.42696E+06         0.00000E+00
    0.00000E+00         0.00000E+00        -0.13740E+06
 
    0.25830E-09         0.10842E-08         0.00000E+00
    0.10842E-08        -0.42696E+06         0.00000E+00
    0.00000E+00         0.00000E+00        -0.13740E+06
 
    0.31287E-09        -0.72280E-09         0.00000E+00
   -0.72280E-09        -0.42696E+06         0.00000E+00
    0.00000E+00         0.00000E+00        -0.13740E+06
 
   -0.24011E-09         0.86736E-09         0.00000E+00
    0.86736E-09        -0.42696E+06         0.00000E+00
    0.00000E+00         0.00000E+00        -0.13740E+06
 
    0.10114E-08        -0.28912E-09         0.00000E+00
   -0.28912E-09        -0.42696E+06         0.00000E+00
    0.00000E+00         0.00000E+00        -0.13740E+06
 
   -0.81855E-09         0.00000E+00         0.00000E+00
    0.00000E+00        -0.42696E+06         0.00000E+00
    0.00000E+00         0.00000E+00        -0.13740E+06
 
   -0.40018E-09         0.14456E-09         0.00000E+00
    0.14456E-09        -0.42696E+06         0.00000E+00
    0.00000E+00         0.00000E+00        -0.13740E+06
 
    0.74579E-09        -0.28912E-09         0.00000E+00
   -0.28912E-09        -0.42696E+06         0.00000E+00
    0.00000E+00         0.00000E+00        -0.13740E+06
 
    0.24738E-09        -0.18793E-08         0.00000E+00
   -0.18793E-08        -0.42696E+06         0.00000E+00
    0.00000E+00         0.00000E+00        -0.13740E+06
 
   -0.54570E-09         0.72280E-09         0.00000E+00
    0.72280E-09        -0.42696E+06         0.00000E+00
    0.00000E+00         0.00000E+00        -0.13740E+06
 
   -0.10259E-08        -0.43368E-09         0.00000E+00
   -0.43368E-09        -0.42252E+06         0.00000E+00
    0.00000E+00         0.00000E+00        -0.13295E+06
 
    0.16480E-08        -0.21684E-09         0.00000E+00
   -0.21684E-09        -0.42252E+06         0.00000E+00
    0.00000E+00         0.00000E+00        -0.13295E+06
 
   -0.41291E-08         0.50596E-09         0.00000E+00
    0.50596E-09        -0.42252E+06         0.00000E+00
    0.00000E+00         0.00000E+00        -0.13295E+06
 
   -0.39290E-08         0.72280E-09         0.00000E+00
    0.72280E-09        -0.42252E+06         0.00000E+00
    0.00000E+00         0.00000E+00        -0.13295E+06
 
   -0.25066E-08         0.50596E-09         0.00000E+00
    0.50596E-09        -0.42252E+06         0.00000E+00
    0.00000E+00         0.00000E+00        -0.13295E+06
 
   -0.17426E-08        -0.17347E-08         0.00000E+00
   -0.17347E-08        -0.42252E+06         0.00000E+00
    0.00000E+00         0.00000E+00        -0.13295E+06
 
    0.57844E-09        -0.72280E-10         0.00000E+00
   -0.72280E-10        -0.42252E+06         0.00000E+00
    0.00000E+00         0.00000E+00        -0.13295E+06
 
    0.00000E+00        -0.72280E-09         0.00000E+00
   -0.72280E-09        -0.42252E+06         0.00000E+00
    0.00000E+00         0.00000E+00        -0.13295E+06
 
    0.65484E-10        -0.28912E-09         0.00000E+00
   -0.28912E-09        -0.42252E+06         0.00000E+00
    0.00000E+00         0.00000E+00        -0.13295E+06
 
    0.58208E-10        -0.10119E-08         0.00000E+00
   -0.10119E-08        -0.42252E+06         0.00000E+00
    0.00000E+00         0.00000E+00        -0.13295E+06
 
    0.67303E-09         0.57824E-09         0.00000E+00
    0.57824E-09        -0.42252E+06         0.00000E+00
    0.00000E+00         0.00000E+00        -0.13295E+06
 
    0.12151E-08         0.00000E+00         0.00000E+00
    0.00000E+00        -0.42252E+06         0.00000E+00
    0.00000E+00         0.00000E+00        -0.13295E+06
 
   -0.26303E-08         0.20238E-08         0.00000E+00
    0.20238E-08        -0.42252E+06         0.00000E+00
    0.00000E+00         0.00000E+00        -0.13295E+06
 
   -0.33469E-08        -0.43368E-09         0.00000E+00
   -0.43368E-09        -0.42252E+06         0.00000E+00
    0.00000E+00         0.00000E+00        -0.13295E+06
 
   -0.39618E-08         0.28912E-09         0.00000E+00
    0.28912E-09        -0.42252E+06         0.00000E+00
    0.00000E+00         0.00000E+00        -0.13295E+06
 
   -0.92768E-09         0.72280E-10         0.00000E+00
    0.72280E-10        -0.41800E+06         0.00000E+00
    0.00000E+00         0.00000E+00        -0.12843E+06
 
   -0.12005E-08        -0.20238E-08         0.00000E+00
   -0.20238E-08        -0.41800E+06         0.00000E+00
    0.00000E+00         0.00000E+00        -0.12843E+06
 
    0.93496E-09        -0.28912E-09         0.00000E+00
   -0.28912E-09        -0.41800E+06         0.00000E+00
    0.00000E+00         0.00000E+00        -0.12843E+06
 
   -0.20009E-09         0.10842E-08         0.00000E+00
    0.10842E-08        -0.41800E+06         0.00000E+00
    0.00000E+00         0.00000E+00        -0.12843E+06
 
    0.24593E-08        -0.79508E-09         0.00000E+00
   -0.79508E-09        -0.41800E+06         0.00000E+00
    0.00000E+00         0.00000E+00        -0.12843E+06
 
    0.24374E-09         0.00000E+00         0.00000E+00
    0.00000E+00        -0.41800E+06         0.00000E+00
    0.00000E+00         0.00000E+00        -0.12843E+06
 
   -0.73123E-09        -0.13733E-08         0.00000E+00
   -0.13733E-08        -0.41800E+06         0.00000E+00
    0.00000E+00         0.00000E+00        -0.12843E+06
 
    0.53114E-09         0.28912E-09         0.00000E+00
    0.28912E-09        -0.41800E+06         0.00000E+00
    0.00000E+00         0.00000E+00        -0.12843E+06
 
    0.46566E-09        -0.17347E-08         0.00000E+00
   -0.17347E-08        -0.41800E+06         0.00000E+00
    0.00000E+00         0.00000E+00        -0.12843E+06
 
    0.74942E-09        -0.20238E-08         0.00000E+00
   -0.20238E-08        -0.41800E+06         0.00000E+00
    0.00000E+00         0.00000E+00        -0.12843E+06
 
   -0.21610E-08         0.14456E-09         0.00000E+00
    0.14456E-09        -0.41800E+06         0.00000E+00
    0.00000E+00         0.00000E+00        -0.12843E+06
 
   -0.84037E-09         0.14456E-09         0.00000E+00
    0.14456E-09        -0.41800E+06         0.00000E+00
    0.00000E+00         0.00000E+00        -0.12843E+06
 
    0.57480E-09         0.13010E-08         0.00000E+00
    0.13010E-08        -0.41800E+06         0.00000E+00
    0.00000E+00         0.00000E+00        -0.12843E+06
 
   -0.94224E-09         0.14456E-09         0.00000E+00
    0.14456E-09        -0.41800E+06         0.00000E+00
    0.00000E+00         0.00000E+00        -0.12843E+06
 
   -0.34634E-08         0.14456E-09         0.00000E+00
    0.14456E-09        -0.41800E+06         0.00000E+00
    0.00000E+00         0.00000E+00        -0.12843E+06
 
    0.10550E-08        -0.72280E-09         0.00000E+00
   -0.72280E-09        -0.41341E+06         0.00000E+00
    0.00000E+00         0.00000E+00        -0.12384E+06
 
   -0.16298E-08         0.17347E-08         0.00000E+00
    0.17347E-08        -0.41341E+06         0.00000E+00
    0.00000E+00         0.00000E+00        -0.12384E+06
 
    0.30195E-08        -0.12288E-08         0.00000E+00
   -0.12288E-08        -0.41341E+06         0.00000E+00
    0.00000E+00         0.00000E+00        -0.12384E+06
 
    0.47658E-09        -0.43368E-09         0.00000E+00
   -0.43368E-09        -0.41341E+06         0.00000E+00
    0.00000E+00         0.00000E+00        -0.12384E+06
 
    0.11423E-08        -0.28912E-09         0.00000E+00
   -0.28912E-09        -0.41341E+06         0.00000E+00
    0.00000E+00         0.00000E+00        -0.12384E+06
 
    0.15280E-09        -0.72280E-09         0.00000E+00
   -0.72280E-09        -0.41341E+06         0.00000E+00
    0.00000E+00         0.00000E+00        -0.12384E+06
 
    0.21064E-08        -0.43368E-09         0.00000E+00
   -0.43368E-09        -0.41341E+06         0.00000E+00
    0.00000E+00         0.00000E+00        -0.12384E+06
 
    0.11751E-08        -0.14456E-09         0.00000E+00
   -0.14456E-09        -0.41341E+06         0.00000E+00
    0.00000E+00         0.00000E+00        -0.12384E+06
 
    0.85493E-09        -0.72280E-09         0.00000E+00
   -0.72280E-09        -0.41341E+06         0.00000E+00
    0.00000E+00         0.00000E+00        -0.12384E+06
 
   -0.33469E-08         0.10119E-08         0.00000E+00
    0.10119E-08        -0.41341E+06         0.00000E+00
    0.00000E+00         0.00000E+00        -0.12384E+06
 
   -0.69849E-09         0.00000E+00         0.00000E+00
    0.00000E+00        -0.41341E+06         0.00000E+00
    0.00000E+00         0.00000E+00        -0.12384E+06
 
    0.39654E-09         0.10119E-08         0.00000E+00
    0.10119E-08        -0.41341E+06         0.00000E+00
    0.00000E+00         0.00000E+00        -0.12384E+06
 
   -0.13861E-08         0.00000E+00         0.00000E+00
    0.00000E+00        -0.41341E+06         0.00000E+00
    0.00000E+00         0.00000E+00        -0.12384E+06
 
   -0.14079E-08         0.17347E-08         0.00000E+00
    0.17347E-08        -0.41341E+06         0.00000E+00
    0.00000E+00         0.00000E+00        -0.12384E+06
 
    0.97134E-09        -0.14456E-08         0.00000E+00
   -0.14456E-08        -0.41341E+06         0.00000E+00
    0.00000E+00         0.00000E+00        -0.12384E+06
 
    0.39108E-09         0.43368E-09         0.00000E+00
    0.43368E-09        -0.40876E+06         0.00000E+00
    0.00000E+00         0.00000E+00        -0.11919E+06
 
    0.11714E-08        -0.86736E-09         0.00000E+00
   -0.86736E-09        -0.40876E+06         0.00000E+00
    0.00000E+00         0.00000E+00        -0.11919E+06
 
    0.38926E-09         0.10119E-08         0.00000E+00
    0.10119E-08        -0.40876E+06         0.00000E+00
    0.00000E+00         0.00000E+00        -0.11919E+06
 
   -0.76943E-09        -0.17347E-08         0.00000E+00
   -0.17347E-08        -0.40876E+06         0.00000E+00
    0.00000E+00         0.00000E+00        -0.11919E+06
 
    0.15971E-08         0.43368E-09         0.00000E+00
    0.43368E-09        -0.40876E+06         0.00000E+00
    0.00000E+00         0.00000E+00        -0.11919E+06
 
    0.42928E-09         0.28912E-09         0.00000E+00
    0.28912E-09        -0.40876E+06         0.00000E+00
    0.00000E+00         0.00000E+00        -0.11919E+06
 
    0.13824E-08         0.00000E+00         0.00000E+00
    0.00000E+00        -0.40876E+06         0.00000E+00
    0.00000E+00         0.00000E+00        -0.11919E+06
 
    0.13770E-08        -0.28912E-09         0.00000E+00
   -0.28912E-09        -0.40876E+06         0.00000E+00
    0.00000E+00         0.00000E+00        -0.11919E+06
 
    0.16280E-08        -0.28912E-09         0.00000E+00
   -0.28912E-09        -0.40876E+06         0.00000E+00
    0.00000E+00         0.00000E+00        -0.11919E+06
 
    0.15225E-08         0.13010E-08         0.00000E+00
    0.13010E-08        -0.40876E+06         0.00000E+00
    0.00000E+00         0.00000E+00        -0.11919E+06
 
   -0.28285E-08        -0.11565E-08         0.00000E+00
   -0.11565E-08        -0.40876E+06         0.00000E+00
    0.00000E+00         0.00000E+00        -0.11919E+06
 
   -0.32942E-08        -0.28912E-09         0.00000E+00
   -0.28912E-09        -0.40876E+06         0.00000E+00
    0.00000E+00         0.00000E+00        -0.11919E+06
 
   -0.20718E-08         0.14456E-09         0.00000E+00
    0.14456E-09        -0.40876E+06         0.00000E+00
    0.00000E+00         0.00000E+00        -0.11919E+06
 
    0.86948E-09         0.10119E-08         0.00000E+00
    0.10119E-08        -0.40876E+06         0.00000E+00
    0.00000E+00         0.00000E+00        -0.11919E+06
 
    0.13606E-08        -0.13010E-08         0.00000E+00
   -0.13010E-08        -0.40876E+06         0.00000E+00
    0.00000E+00         0.00000E+00        -0.11919E+06
 
   -0.25157E-08        -0.14456E-09         0.00000E+00
   -0.14456E-09        -0.40404E+06         0.00000E+00
    0.00000E+00         0.00000E+00        -0.11447E+06
 
   -0.21282E-08        -0.57824E-09         0.00000E+00
   -0.57824E-09        -0.40404E+06         0.00000E+00
    0.00000E+00         0.00000E+00        -0.11447E+06
 
   -0.24520E-08         0.14456E-09         0.00000E+00
    0.14456E-09        -0.40404E+06         0.00000E+00
    0.00000E+00         0.00000E+00        -0.11447E+06
 
   -0.20900E-08        -0.28912E-09         0.00000E+00
   -0.28912E-09        -0.40404E+06         0.00000E+00
    0.00000E+00         0.00000E+00        -0.11447E+06
 
   -0.22028E-08        -0.10119E-08         0.00000E+00
   -0.10119E-08        -0.40404E+06         0.00000E+00
    0.00000E+00         0.00000E+00        -0.11447E+06
 
   -0.16753E-08        -0.28912E-09         0.00000E+00
   -0.28912E-09        -0.40404E+06         0.00000E+00
    0.00000E+00         0.00000E+00        -0.11447E+06
 
   -0.22301E-08         0.72280E-09         0.00000E+00
    0.72280E-09        -0.40404E+06         0.00000E+00
    0.00000E+00         0.00000E+00        -0.11447E+06
 
   -0.31214E-08         0.43368E-09         0.00000E+00
    0.43368E-09        -0.40404E+06         0.00000E+00
    0.00000E+00         0.00000E+00        -0.11447E+06
 
   -0.15607E-08         0.20238E-08         0.00000E+00
    0.20238E-08        -0.40404E+06         0.00000E+00
    0.00000E+00         0.00000E+00        -0.11447E+06
 
    0.26375E-09        -0.57824E-09         0.00000E+00
   -0.57824E-09        -0.40404E+06         0.00000E+00
    0.00000E+00         0.00000E+00        -0.11447E+06
 
    0.20809E-08        -0.43368E-09         0.00000E+00
   -0.43368E-09        -0.40404E+06         0.00000E+00
    0.00000E+00         0.00000E+00        -0.11447E+06
 
    0.23756E-08        -0.14456E-09         0.00000E+00
   -0.14456E-09        -0.40404E+06         0.00000E+00
    0.00000E+00         0.00000E+00        -0.11447E+06
 
   -0.28012E-08         0.14456E-08         0.00000E+00
    0.14456E-08        -0.40404E+06         0.00000E+00
    0.00000E+00         0.00000E+00        -0.11447E+06
 
   -0.47221E-08        -0.11565E-08         0.00000E+00
   -0.11565E-08        -0.40404E+06         0.00000E+00
    0.00000E+00         0.00000E+00        -0.11447E+06
 
   -0.76398E-10        -0.86736E-09         0.00000E+00
   -0.86736E-09        -0.40404E+06         0.00000E+00
    0.00000E+00         0.00000E+00        -0.11447E+06
 
    0.13370E-08         0.43368E-09         0.00000E+00
    0.43368E-09        -0.39926E+06         0.00000E+00
    0.00000E+00         0.00000E+00        -0.10969E+06
 
    0.22374E-09         0.72280E-10         0.00000E+00
    0.72280E-10        -0.39926E+06         0.00000E+00
    0.00000E+00         0.00000E+00        -0.10969E+06
 
   -0.77853E-09         0.00000E+00         0.00000E+00
    0.00000E+00        -0.39926E+06         0.00000E+00
    0.00000E+00         0.00000E+00        -0.10969E+06
 
    0.30377E-09        -0.28912E-09         0.00000E+00
   -0.28912E-09        -0.39926E+06         0.00000E+00
    0.00000E+00         0.00000E+00        -0.10969E+06
 
   -0.11460E-08         0.14456E-09         0.00000E+00
    0.14456E-09        -0.39926E+06         0.00000E+00
    0.00000E+00         0.00000E+00        -0.10969E+06
 
   -0.25466E-09        -0.12288E-08         0.00000E+00
   -0.12288E-08        -0.39926E+06         0.00000E+00
    0.00000E+00         0.00000E+00        -0.10969E+06
 
   -0.30741E-09         0.57824E-09         0.00000E+00
    0.57824E-09        -0.39926E+06         0.00000E+00
    0.00000E+00         0.00000E+00        -0.10969E+06
 
   -0.16571E-08        -0.28912E-09         0.00000E+00
   -0.28912E-09        -0.39926E+06         0.00000E+00
    0.00000E+00         0.00000E+00        -0.10969E+06
 
   -0.19299E-08        -0.57824E-09         0.00000E+00
   -0.57824E-09        -0.39926E+06         0.00000E+00
    0.00000E+00         0.00000E+00        -0.10969E+06
 
   -0.22173E-08         0.28912E-09         0.00000E+00
    0.28912E-09        -0.39926E+06         0.00000E+00
    0.00000E+00         0.00000E+00        -0.10969E+06
 
   -0.17590E-08        -0.28912E-09         0.00000E+00
   -0.28912E-09        -0.39926E+06         0.00000E+00
    0.00000E+00         0.00000E+00        -0.10969E+06
 
   -0.31050E-08         0.00000E+00         0.00000E+00
    0.00000E+00        -0.39926E+06         0.00000E+00
    0.00000E+00         0.00000E+00        -0.10969E+06
 
    0.13606E-08         0.43368E-09         0.00000E+00
    0.43368E-09        -0.39926E+06         0.00000E+00
    0.00000E+00         0.00000E+00        -0.10969E+06
 
   -0.50386E-09        -0.57824E-09         0.00000E+00
   -0.57824E-09        -0.39926E+06         0.00000E+00
    0.00000E+00         0.00000E+00        -0.10969E+06
 
    0.26503E-08         0.43368E-09         0.00000E+00
    0.43368E-09        -0.39926E+06         0.00000E+00
    0.00000E+00         0.00000E+00        -0.10969E+06
 
   -0.49113E-10        -0.86736E-09         0.00000E+00
   -0.86736E-09        -0.39443E+06         0.00000E+00
    0.00000E+00         0.00000E+00        -0.10486E+06
 
    0.16535E-08        -0.43368E-09         0.00000E+00
   -0.43368E-09        -0.39443E+06         0.00000E+00
    0.00000E+00         0.00000E+00        -0.10486E+06
 
   -0.19591E-08         0.28912E-09         0.00000E+00
    0.28912E-09        -0.39443E+06         0.00000E+00
    0.00000E+00         0.00000E+00        -0.10486E+06
 
    0.16316E-08        -0.57824E-09         0.00000E+00
   -0.57824E-09        -0.39443E+06         0.00000E+00
    0.00000E+00         0.00000E+00        -0.10486E+06
 
    0.43292E-09         0.28912E-09         0.00000E+00
    0.28912E-09        -0.39443E+06         0.00000E+00
    0.00000E+00         0.00000E+00        -0.10486E+06
 
   -0.10259E-08         0.43368E-09         0.00000E+00
    0.43368E-09        -0.39443E+06         0.00000E+00
    0.00000E+00         0.00000E+00        -0.10486E+06
 
   -0.10732E-09        -0.57824E-09         0.00000E+00
   -0.57824E-09        -0.39443E+06         0.00000E+00
    0.00000E+00         0.00000E+00        -0.10486E+06
 
    0.10514E-08         0.13010E-08         0.00000E+00
    0.13010E-08        -0.39443E+06         0.00000E+00
    0.00000E+00         0.00000E+00        -0.10486E+06
 
   -0.65847E-09         0.00000E+00         0.00000E+00
    0.00000E+00        -0.39443E+06         0.00000E+00
    0.00000E+00         0.00000E+00        -0.10486E+06
 
    0.87493E-09        -0.72280E-09         0.00000E+00
   -0.72280E-09        -0.39443E+06         0.00000E+00
    0.00000E+00         0.00000E+00        -0.10486E+06
 
    0.22028E-08         0.28912E-09         0.00000E+00
    0.28912E-09        -0.39443E+06         0.00000E+00
    0.00000E+00         0.00000E+00        -0.10486E+06
 
    0.10459E-08         0.28912E-09         0.00000E+00
    0.28912E-09        -0.39443E+06         0.00000E+00
    0.00000E+00         0.00000E+00        -0.10486E+06
 
    0.10605E-08         0.28912E-09         0.00000E+00
    0.28912E-09        -0.39443E+06         0.00000E+00
    0.00000E+00         0.00000E+00        -0.10486E+06
 
    0.11041E-08         0.00000E+00         0.00000E+00
    0.00000E+00        -0.39443E+06         0.00000E+00
    0.00000E+00         0.00000E+00        -0.10486E+06
 
    0.17735E-08        -0.14456E-09         0.00000E+00
   -0.14456E-09        -0.39443E+06         0.00000E+00
    0.00000E+00         0.00000E+00        -0.10486E+06
 
    0.10841E-08         0.00000E+00         0.00000E+00
    0.00000E+00        -0.38955E+06         0.00000E+00
    0.00000E+00         0.00000E+00        -0.99978E+05
 
    0.42728E-08         0.65052E-09         0.00000E+00
    0.65052E-09        -0.38955E+06         0.00000E+00
    0.00000E+00         0.00000E+00        -0.99978E+05
 
    0.35598E-08         0.00000E+00         0.00000E+00
    0.00000E+00        -0.38955E+06         0.00000E+00
    0.00000E+00         0.00000E+00        -0.99978E+05
 
    0.81855E-09         0.11565E-08         0.00000E+00
    0.11565E-08        -0.38955E+06         0.00000E+00
    0.00000E+00         0.00000E+00        -0.99978E+05
 
    0.36398E-08        -0.43368E-09         0.00000E+00
   -0.43368E-09        -0.38955E+06         0.00000E+00
    0.00000E+00         0.00000E+00        -0.99978E+05
 
    0.32906E-08         0.43368E-09         0.00000E+00
    0.43368E-09        -0.38955E+06         0.00000E+00
    0.00000E+00         0.00000E+00        -0.99978E+05
 
    0.39599E-08        -0.17347E-08         0.00000E+00
   -0.17347E-08        -0.38955E+06         0.00000E+00
    0.00000E+00         0.00000E+00        -0.99978E+05
 
    0.21573E-08         0.20238E-08         0.00000E+00
    0.20238E-08        -0.38955E+06         0.00000E+00
    0.00000E+00         0.00000E+00        -0.99978E+05
 
    0.16025E-08        -0.18793E-08         0.00000E+00
   -0.18793E-08        -0.38955E+06         0.00000E+00
    0.00000E+00         0.00000E+00        -0.99978E+05
 
    0.24847E-08         0.43368E-09         0.00000E+00
    0.43368E-09        -0.38955E+06         0.00000E+00
    0.00000E+00         0.00000E+00        -0.99978E+05
 
    0.34852E-08         0.43368E-09         0.00000E+00
    0.43368E-09        -0.38955E+06         0.00000E+00
    0.00000E+00         0.00000E+00        -0.99978E+05
 
    0.28322E-08         0.00000E+00         0.00000E+00
    0.00000E+00        -0.38955E+06         0.00000E+00
    0.00000E+00         0.00000E+00        -0.99978E+05
 
    0.22555E-08         0.15902E-08         0.00000E+00
    0.15902E-08        -0.38955E+06         0.00000E+00
    0.00000E+00         0.00000E+00        -0.99978E+05
 
    0.39290E-09        -0.15902E-08         0.00000E+00
   -0.15902E-08        -0.38955E+06         0.00000E+00
    0.00000E+00         0.00000E+00        -0.99978E+05
 
    0.18499E-08         0.21684E-08         0.00000E+00
    0.21684E-08        -0.38955E+06         0.00000E+00
    0.00000E+00         0.00000E+00        -0.99978E+05
 
    0.25584E-08        -0.14456E-08         0.00000E+00
   -0.14456E-08        -0.38461E+06         0.00000E+00
    0.00000E+00         0.00000E+00        -0.95046E+05
 
   -0.36416E-08         0.72280E-09         0.00000E+00
    0.72280E-09        -0.38461E+06         0.00000E+00
    0.00000E+00         0.00000E+00        -0.95046E+05
 
   -0.35025E-08         0.00000E+00         0.00000E+00
    0.00000E+00        -0.38461E+06         0.00000E+00
    0.00000E+00         0.00000E+00        -0.95046E+05
 
    0.11087E-08         0.14456E-09         0.00000E+00
    0.14456E-09        -0.38461E+06         0.00000E+00
    0.00000E+00         0.00000E+00        -0.95046E+05
 
    0.25557E-09        -0.86736E-09         0.00000E+00
   -0.86736E-09        -0.38461E+06         0.00000E+00
    0.00000E+00         0.00000E+00        -0.95046E+05
 
   -0.26212E-08        -0.14456E-09         0.00000E+00
   -0.14456E-09        -0.38461E+06         0.00000E+00
    0.00000E+00         0.00000E+00        -0.95046E+05
 
   -0.26148E-08         0.00000E+00         0.00000E+00
    0.00000E+00        -0.38461E+06         0.00000E+00
    0.00000E+00         0.00000E+00        -0.95046E+05
 
    0.15980E-08        -0.28912E-09         0.00000E+00
   -0.28912E-09        -0.38461E+06         0.00000E+00
    0.00000E+00         0.00000E+00        -0.95046E+05
 
    0.64665E-09         0.72280E-09         0.00000E+00
    0.72280E-09        -0.38461E+06         0.00000E+00
    0.00000E+00         0.00000E+00        -0.95046E+05
 
   -0.16953E-08        -0.28912E-09         0.00000E+00
   -0.28912E-09        -0.38461E+06         0.00000E+00
    0.00000E+00         0.00000E+00        -0.95046E+05
 
   -0.25611E-08         0.28912E-09         0.00000E+00
    0.28912E-09        -0.38461E+06         0.00000E+00
    0.00000E+00         0.00000E+00        -0.95046E+05
 
   -0.28640E-08         0.28912E-09         0.00000E+00
    0.28912E-09        -0.38461E+06         0.00000E+00
    0.00000E+00         0.00000E+00        -0.95046E+05
 
    0.75670E-09        -0.28912E-09         0.00000E+00
   -0.28912E-09        -0.38461E+06         0.00000E+00
    0.00000E+00         0.00000E+00        -0.95046E+05
 
    0.43929E-09         0.00000E+00         0.00000E+00
    0.00000E+00        -0.38461E+06         0.00000E+00
    0.00000E+00         0.00000E+00        -0.95046E+05
 
   -0.40563E-09         0.28912E-09         0.00000E+00
    0.28912E-09        -0.38461E+06         0.00000E+00
    0.00000E+00         0.00000E+00        -0.95046E+05
 
    0.60027E-10         0.11565E-08         0.00000E+00
    0.11565E-08        -0.37964E+06         0.00000E+00
    0.00000E+00         0.00000E+00        -0.90072E+05
 
    0.41218E-08         0.28912E-09         0.00000E+00
    0.28912E-09        -0.37964E+06         0.00000E+00
    0.00000E+00         0.00000E+00        -0.90072E+05
 
    0.25366E-08        -0.43368E-09         0.00000E+00
   -0.43368E-09        -0.37964E+06         0.00000E+00
    0.00000E+00         0.00000E+00        -0.90072E+05
 
    0.21728E-08         0.14456E-09         0.00000E+00
    0.14456E-09        -0.37964E+06         0.00000E+00
    0.00000E+00         0.00000E+00        -0.90072E+05
 
    0.17862E-08         0.00000E+00         0.00000E+00
    0.00000E+00        -0.37964E+06         0.00000E+00
    0.00000E+00         0.00000E+00        -0.90072E+05
 
    0.22892E-08        -0.14456E-09         0.00000E+00
   -0.14456E-09        -0.37964E+06         0.00000E+00
    0.00000E+00         0.00000E+00        -0.90072E+05
 
   -0.16726E-08         0.11565E-08         0.00000E+00
    0.11565E-08        -0.37964E+06         0.00000E+00
    0.00000E+00         0.00000E+00        -0.90072E+05
 
   -0.10550E-08        -0.23130E-08         0.00000E+00
   -0.23130E-08        -0.37964E+06         0.00000E+00
    0.00000E+00         0.00000E+00        -0.90072E+05
 
    0.27258E-08        -0.43368E-09         0.00000E+00
   -0.43368E-09        -0.37964E+06         0.00000E+00
    0.00000E+00         0.00000E+00        -0.90072E+05
 
    0.23301E-08         0.00000E+00         0.00000E+00
    0.00000E+00        -0.37964E+06         0.00000E+00
    0.00000E+00         0.00000E+00        -0.90072E+05
 
    0.16644E-08        -0.43368E-09         0.00000E+00
   -0.43368E-09        -0.37964E+06         0.00000E+00
    0.00000E+00         0.00000E+00        -0.90072E+05
 
    0.10677E-08         0.10119E-08         0.00000E+00
    0.10119E-08        -0.37964E+06         0.00000E+00
    0.00000E+00         0.00000E+00        -0.90072E+05
 
    0.30141E-08         0.14456E-09         0.00000E+00
    0.14456E-09        -0.37964E+06         0.00000E+00
    0.00000E+00         0.00000E+00        -0.90072E+05
 
    0.29413E-08         0.28912E-09         0.00000E+00
    0.28912E-09        -0.37964E+06         0.00000E+00
    0.00000E+00         0.00000E+00        -0.90072E+05
 
    0.11050E-08         0.28912E-09         0.00000E+00
    0.28912E-09        -0.37964E+06         0.00000E+00
    0.00000E+00         0.00000E+00        -0.90072E+05
 
   -0.24056E-08         0.13010E-08         0.00000E+00
    0.13010E-08        -0.37463E+06         0.00000E+00
    0.00000E+00         0.00000E+00        -0.85059E+05
 
   -0.23851E-08        -0.13010E-08         0.00000E+00
   -0.13010E-08        -0.37463E+06         0.00000E+00
    0.00000E+00         0.00000E+00        -0.85059E+05
 
   -0.57571E-09         0.72280E-09         0.00000E+00
    0.72280E-09        -0.37463E+06         0.00000E+00
    0.00000E+00         0.00000E+00        -0.85059E+05
 
    0.56298E-09         0.00000E+00         0.00000E+00
    0.00000E+00        -0.37463E+06         0.00000E+00
    0.00000E+00         0.00000E+00        -0.85059E+05
 
   -0.25680E-08         0.12288E-08         0.00000E+00
    0.12288E-08        -0.37463E+06         0.00000E+00
    0.00000E+00         0.00000E+00        -0.85059E+05
 
   -0.40031E-08         0.28912E-09         0.00000E+00
    0.28912E-09        -0.37463E+06         0.00000E+00
    0.00000E+00         0.00000E+00        -0.85059E+05
 
    0.11873E-08         0.14456E-08         0.00000E+00
    0.14456E-08        -0.37463E+06         0.00000E+00
    0.00000E+00         0.00000E+00        -0.85059E+05
 
   -0.43656E-10        -0.23130E-08         0.00000E+00
   -0.23130E-08        -0.37463E+06         0.00000E+00
    0.00000E+00         0.00000E+00        -0.85059E+05
 
   -0.43533E-08        -0.57824E-09         0.00000E+00
   -0.57824E-09        -0.37463E+06         0.00000E+00
    0.00000E+00         0.00000E+00        -0.85059E+05
 
   -0.47226E-08        -0.14456E-09         0.00000E+00
   -0.14456E-09        -0.37463E+06         0.00000E+00
    0.00000E+00         0.00000E+00        -0.85059E+05
 
   -0.45652E-08        -0.86736E-09         0.00000E+00
   -0.86736E-09        -0.37463E+06         0.00000E+00
    0.00000E+00         0.00000E+00        -0.85059E+05
 
   -0.44579E-08        -0.57824E-09         0.00000E+00
   -0.57824E-09        -0.37463E+06         0.00000E+00
    0.00000E+00         0.00000E+00        -0.85059E+05
 
   -0.30363E-08        -0.14456E-09         0.00000E+00
   -0.14456E-09        -0.37463E+06         0.00000E+00
    0.00000E+00         0.00000E+00        -0.85059E+05
 
   -0.33597E-08         0.43368E-09         0.00000E+00
    0.43368E-09        -0.37463E+06         0.00000E+00
    0.00000E+00         0.00000E+00        -0.85059E+05
 
   -0.36621E-08        -0.72280E-09         0.00000E+00
   -0.72280E-09        -0.37463E+06         0.00000E+00
    0.00000E+00         0.00000E+00        -0.85059E+05
 
    0.31805E-08         0.13010E-08         0.00000E+00
    0.13010E-08        -0.36958E+06         0.00000E+00
    0.00000E+00         0.00000E+00        -0.80012E+05
 
    0.37180E-08        -0.72280E-09         0.00000E+00
   -0.72280E-09        -0.36958E+06         0.00000E+00
    0.00000E+00         0.00000E+00        -0.80012E+05
 
   -0.32742E-09         0.14456E-09         0.00000E+00
    0.14456E-09        -0.36958E+06         0.00000E+00
    0.00000E+00         0.00000E+00        -0.80012E+05
 
    0.26339E-08        -0.43368E-09         0.00000E+00
   -0.43368E-09        -0.36958E+06         0.00000E+00
    0.00000E+00         0.00000E+00        -0.80012E+05
 
    0.29527E-08         0.11565E-08         0.00000E+00
    0.11565E-08        -0.36958E+06         0.00000E+00
    0.00000E+00         0.00000E+00        -0.80012E+05
 
    0.12733E-09         0.72280E-09         0.00000E+00
    0.72280E-09        -0.36958E+06         0.00000E+00
    0.00000E+00         0.00000E+00        -0.80012E+05
 
   -0.37699E-08        -0.13010E-08         0.00000E+00
   -0.13010E-08        -0.36958E+06         0.00000E+00
    0.00000E+00         0.00000E+00        -0.80012E+05
 
   -0.63710E-09        -0.86736E-09         0.00000E+00
   -0.86736E-09        -0.36958E+06         0.00000E+00
    0.00000E+00         0.00000E+00        -0.80012E+05
 
    0.33788E-09        -0.57824E-09         0.00000E+00
   -0.57824E-09        -0.36958E+06         0.00000E+00
    0.00000E+00         0.00000E+00        -0.80012E+05
 
   -0.27480E-08        -0.72280E-09         0.00000E+00
   -0.72280E-09        -0.36958E+06         0.00000E+00
    0.00000E+00         0.00000E+00        -0.80012E+05
 
   -0.81900E-09        -0.10119E-08         0.00000E+00
   -0.10119E-08        -0.36958E+06         0.00000E+00
    0.00000E+00         0.00000E+00        -0.80012E+05
 
   -0.51205E-09        -0.28912E-09         0.00000E+00
   -0.28912E-09        -0.36958E+06         0.00000E+00
    0.00000E+00         0.00000E+00        -0.80012E+05
 
    0.77489E-09        -0.14456E-09         0.00000E+00
   -0.14456E-09        -0.36958E+06         0.00000E+00
    0.00000E+00         0.00000E+00        -0.80012E+05
 
    0.13929E-08        -0.57824E-09         0.00000E+00
   -0.57824E-09        -0.36958E+06         0.00000E+00
    0.00000E+00         0.00000E+00        -0.80012E+05
 
    0.12378E-08         0.28912E-09         0.00000E+00
    0.28912E-09        -0.36958E+06         0.00000E+00
    0.00000E+00         0.00000E+00        -0.80012E+05
 
    0.33517E-08        -0.20238E-08         0.00000E+00
   -0.20238E-08        -0.36450E+06         0.00000E+00
    0.00000E+00         0.00000E+00        -0.74936E+05
 
   -0.16127E-08        -0.14456E-08         0.00000E+00
   -0.14456E-08        -0.36450E+06         0.00000E+00
    0.00000E+00         0.00000E+00        -0.74936E+05
 
   -0.35769E-08         0.86736E-09         0.00000E+00
    0.86736E-09        -0.36450E+06         0.00000E+00
    0.00000E+00         0.00000E+00        -0.74936E+05
 
    0.22107E-08         0.00000E+00         0.00000E+00
    0.00000E+00        -0.36450E+06         0.00000E+00
    0.00000E+00         0.00000E+00        -0.74936E+05
 
   -0.39086E-09         0.14456E-09         0.00000E+00
    0.14456E-09        -0.36450E+06         0.00000E+00
    0.00000E+00         0.00000E+00        -0.74936E+05
 
    0.67951E-09        -0.18793E-08         0.00000E+00
   -0.18793E-08        -0.36450E+06         0.00000E+00
    0.00000E+00         0.00000E+00        -0.74936E+05
 
    0.34025E-08        -0.57824E-09         0.00000E+00
   -0.57824E-09        -0.36450E+06         0.00000E+00
    0.00000E+00         0.00000E+00        -0.74936E+05
 
   -0.85925E-09        -0.18793E-08         0.00000E+00
   -0.18793E-08        -0.36450E+06         0.00000E+00
    0.00000E+00         0.00000E+00        -0.74936E+05
 
    0.40814E-09         0.18793E-08         0.00000E+00
    0.18793E-08        -0.36450E+06         0.00000E+00
    0.00000E+00         0.00000E+00        -0.74936E+05
 
    0.41399E-09         0.11565E-08         0.00000E+00
    0.11565E-08        -0.36450E+06         0.00000E+00
    0.00000E+00         0.00000E+00        -0.74936E+05
 
    0.24071E-08         0.57824E-09         0.00000E+00
    0.57824E-09        -0.36450E+06         0.00000E+00
    0.00000E+00         0.00000E+00        -0.74936E+05
 
   -0.15438E-08        -0.43368E-09         0.00000E+00
   -0.43368E-09        -0.36450E+06         0.00000E+00
    0.00000E+00         0.00000E+00        -0.74936E+05
 
   -0.55365E-09         0.14456E-09         0.00000E+00
    0.14456E-09        -0.36450E+06         0.00000E+00
    0.00000E+00         0.00000E+00        -0.74936E+05
 
    0.57810E-09         0.14456E-08         0.00000E+00
    0.14456E-08        -0.36450E+06         0.00000E+00
    0.00000E+00         0.00000E+00        -0.74936E+05
 
   -0.15544E-08        -0.15902E-08         0.00000E+00
   -0.15902E-08        -0.36450E+06         0.00000E+00
    0.00000E+00         0.00000E+00        -0.74936E+05
 
SCALARS stressS double 
LOOKUP_TABLE default
  -277437.647872872     
  -277437.647872872     
  -277437.647872871     
  -277437.647872872     
  -277437.647872872     
  -277437.647872872     
  -277437.647872872     
  -277437.647872871     
  -277437.647872872     
  -277437.647872871     
  -277437.647872872     
  -277437.647872871     
  -277437.647872872     
  -277437.647872872     
  -277437.647872872     
  -277418.158791152     
  -277418.158791152     
  -277418.158791152     
  -277418.158791152     
  -277418.158791152     
  -277418.158791152     
  -277418.158791152     
  -277418.158791152     
  -277418.158791152     
  -277418.158791152     
  -277418.158791152     
  -277418.158791152     
  -277418.158791152     
  -277418.158791152     
  -277418.158791152     
  -277379.155573580     
  -277379.155573580     
  -277379.155573580     
  -277379.155573580     
  -277379.155573580     
  -277379.155573580     
  -277379.155573580     
  -277379.155573580     
  -277379.155573580     
  -277379.155573580     
  -277379.155573580     
  -277379.155573580     
  -277379.155573580     
  -277379.155573580     
  -277379.155573580     
  -277320.588106194     
  -277320.588106193     
  -277320.588106193     
  -277320.588106193     
  -277320.588106193     
  -277320.588106193     
  -277320.588106193     
  -277320.588106193     
  -277320.588106193     
  -277320.588106193     
  -277320.588106193     
  -277320.588106193     
  -277320.588106193     
  -277320.588106193     
  -277320.588106193     
  -277242.381203946     
  -277242.381203947     
  -277242.381203947     
  -277242.381203947     
  -277242.381203946     
  -277242.381203947     
  -277242.381203947     
  -277242.381203947     
  -277242.381203946     
  -277242.381203946     
  -277242.381203946     
  -277242.381203946     
  -277242.381203947     
  -277242.381203947     
  -277242.381203947     
  -277144.434594166     
  -277144.434594166     
  -277144.434594165     
  -277144.434594166     
  -277144.434594166     
  -277144.434594166     
  -277144.434594166     
  -277144.434594165     
  -277144.434594166     
  -277144.434594165     
  -277144.434594165     
  -277144.434594165     
  -277144.434594165     
  -277144.434594166     
  -277144.434594166     
  -277026.622895120     
  -277026.622895120     
  -277026.622895120     
  -277026.622895120     
  -277026.622895120     
  -277026.622895120     
  -277026.622895120     
  -277026.622895120     
  -277026.622895120     
  -277026.622895120     
  -277026.622895120     
  -277026.622895120     
  -277026.622895120     
  -277026.622895120     
  -277026.622895120     
  -276888.795590261     
  -276888.795590262     
  -276888.795590262     
  -276888.795590262     
  -276888.795590262     
  -276888.795590261     
  -276888.795590262     
  -276888.795590261     
  -276888.795590261     
  -276888.795590262     
  -276888.795590262     
  -276888.795590261     
  -276888.795590261     
  -276888.795590262     
  -276888.795590261     
  -276730.776998815     
  -276730.776998815     
  -276730.776998815     
  -276730.776998815     
  -276730.776998815     
  -276730.776998815     
  -276730.776998815     
  -276730.776998815     
  -276730.776998815     
  -276730.776998815     
  -276730.776998815     
  -276730.776998815     
  -276730.776998815     
  -276730.776998815     
  -276730.776998815     
  -276552.366243557     
  -276552.366243557     
  -276552.366243557     
  -276552.366243557     
  -276552.366243557     
  -276552.366243557     
  -276552.366243557     
  -276552.366243556     
  -276552.366243557     
  -276552.366243557     
  -276552.366243556     
  -276552.366243556     
  -276552.366243556     
  -276552.366243557     
  -276552.366243557     
  -276353.337216759     
  -276353.337216758     
  -276353.337216758     
  -276353.337216758     
  -276353.337216758     
  -276353.337216758     
  -276353.337216758     
  -276353.337216758     
  -276353.337216758     
  -276353.337216758     
  -276353.337216758     
  -276353.337216758     
  -276353.337216758     
  -276353.337216759     
  -276353.337216758     
  -276133.438545443     
  -276133.438545444     
  -276133.438545444     
  -276133.438545444     
  -276133.438545443     
  -276133.438545443     
  -276133.438545444     
  -276133.438545444     
  -276133.438545444     
  -276133.438545443     
  -276133.438545444     
  -276133.438545444     
  -276133.438545444     
  -276133.438545443     
  -276133.438545443     
  -275892.393557242     
  -275892.393557242     
  -275892.393557242     
  -275892.393557242     
  -275892.393557242     
  -275892.393557242     
  -275892.393557242     
  -275892.393557242     
  -275892.393557242     
  -275892.393557242     
  -275892.393557242     
  -275892.393557242     
  -275892.393557242     
  -275892.393557241     
  -275892.393557242     
  -275629.900248306     
  -275629.900248307     
  -275629.900248307     
  -275629.900248307     
  -275629.900248308     
  -275629.900248307     
  -275629.900248307     
  -275629.900248307     
  -275629.900248308     
  -275629.900248307     
  -275629.900248307     
  -275629.900248307     
  -275629.900248307     
  -275629.900248307     
  -275629.900248307     
  -275345.631254934     
  -275345.631254934     
  -275345.631254934     
  -275345.631254934     
  -275345.631254934     
  -275345.631254934     
  -275345.631254935     
  -275345.631254934     
  -275345.631254934     
  -275345.631254935     
  -275345.631254934     
  -275345.631254934     
  -275345.631254934     
  -275345.631254934     
  -275345.631254934     
  -275039.233830689     
  -275039.233830688     
  -275039.233830688     
  -275039.233830689     
  -275039.233830689     
  -275039.233830689     
  -275039.233830689     
  -275039.233830689     
  -275039.233830689     
  -275039.233830689     
  -275039.233830689     
  -275039.233830689     
  -275039.233830689     
  -275039.233830689     
  -275039.233830688     
  -274710.329831044     
  -274710.329831044     
  -274710.329831044     
  -274710.329831044     
  -274710.329831044     
  -274710.329831044     
  -274710.329831044     
  -274710.329831044     
  -274710.329831044     
  -274710.329831044     
  -274710.329831045     
  -274710.329831044     
  -274710.329831044     
  -274710.329831044     
  -274710.329831044     
  -274358.515707740     
  -274358.515707739     
  -274358.515707740     
  -274358.515707739     
  -274358.515707740     
  -274358.515707740     
  -274358.515707740     
  -274358.515707740     
  -274358.515707740     
  -274358.515707740     
  -274358.515707740     
  -274358.515707740     
  -274358.515707740     
  -274358.515707740     
  -274358.515707740     
  -273983.362515243     
  -273983.362515244     
  -273983.362515243     
  -273983.362515244     
  -273983.362515244     
  -273983.362515244     
  -273983.362515243     
  -273983.362515243     
  -273983.362515243     
  -273983.362515243     
  -273983.362515243     
  -273983.362515244     
  -273983.362515243     
  -273983.362515243     
  -273983.362515243     
  -273584.415931963     
  -273584.415931962     
  -273584.415931963     
  -273584.415931962     
  -273584.415931963     
  -273584.415931963     
  -273584.415931963     
  -273584.415931962     
  -273584.415931963     
  -273584.415931963     
  -273584.415931962     
  -273584.415931962     
  -273584.415931962     
  -273584.415931962     
  -273584.415931963     
  -273161.196299033     
  -273161.196299032     
  -273161.196299033     
  -273161.196299033     
  -273161.196299033     
  -273161.196299033     
  -273161.196299032     
  -273161.196299033     
  -273161.196299033     
  -273161.196299033     
  -273161.196299033     
  -273161.196299032     
  -273161.196299032     
  -273161.196299033     
  -273161.196299033     
  -272713.198679784     
  -272713.198679783     
  -272713.198679783     
  -272713.198679783     
  -272713.198679783     
  -272713.198679783     
  -272713.198679783     
  -272713.198679783     
  -272713.198679783     
  -272713.198679783     
  -272713.198679783     
  -272713.198679783     
  -272713.198679783     
  -272713.198679783     
  -272713.198679783     
  -272239.892943207     
  -272239.892943207     
  -272239.892943208     
  -272239.892943208     
  -272239.892943208     
  -272239.892943208     
  -272239.892943207     
  -272239.892943207     
  -272239.892943207     
  -272239.892943207     
  -272239.892943208     
  -272239.892943207     
  -272239.892943207     
  -272239.892943207     
  -272239.892943207     
  -271740.723875048     
  -271740.723875048     
  -271740.723875048     
  -271740.723875048     
  -271740.723875048     
  -271740.723875048     
  -271740.723875047     
  -271740.723875047     
  -271740.723875048     
  -271740.723875048     
  -271740.723875048     
  -271740.723875047     
  -271740.723875047     
  -271740.723875048     
  -271740.723875048     
  -271215.111320358     
  -271215.111320358     
  -271215.111320358     
  -271215.111320359     
  -271215.111320358     
  -271215.111320359     
  -271215.111320358     
  -271215.111320358     
  -271215.111320358     
  -271215.111320358     
  -271215.111320358     
  -271215.111320358     
  -271215.111320358     
  -271215.111320358     
  -271215.111320357     
  -270662.450361717     
  -270662.450361717     
  -270662.450361716     
  -270662.450361717     
  -270662.450361717     
  -270662.450361717     
  -270662.450361716     
  -270662.450361717     
  -270662.450361717     
  -270662.450361716     
  -270662.450361717     
  -270662.450361716     
  -270662.450361717     
  -270662.450361717     
  -270662.450361717     
  -270082.111537549     
  -270082.111537549     
  -270082.111537549     
  -270082.111537550     
  -270082.111537549     
  -270082.111537550     
  -270082.111537549     
  -270082.111537550     
  -270082.111537550     
  -270082.111537550     
  -270082.111537549     
  -270082.111537550     
  -270082.111537549     
  -270082.111537549     
  -270082.111537549     
  -269473.441105346     
  -269473.441105347     
  -269473.441105348     
  -269473.441105347     
  -269473.441105346     
  -269473.441105346     
  -269473.441105346     
  -269473.441105346     
  -269473.441105347     
  -269473.441105346     
  -269473.441105346     
  -269473.441105346     
  -269473.441105346     
  -269473.441105347     
  -269473.441105348     
  -268835.761354880     
  -268835.761354881     
  -268835.761354880     
  -268835.761354880     
  -268835.761354881     
  -268835.761354880     
  -268835.761354881     
  -268835.761354880     
  -268835.761354880     
  -268835.761354880     
  -268835.761354879     
  -268835.761354880     
  -268835.761354880     
  -268835.761354880     
  -268835.761354880     
  -268168.370976873     
  -268168.370976874     
  -268168.370976873     
  -268168.370976873     
  -268168.370976873     
  -268168.370976873     
  -268168.370976873     
  -268168.370976873     
  -268168.370976873     
  -268168.370976873     
  -268168.370976873     
  -268168.370976873     
  -268168.370976872     
  -268168.370976872     
  -268168.370976873     
  -267470.545492927     
  -267470.545492928     
  -267470.545492927     
  -267470.545492928     
  -267470.545492928     
  -267470.545492929     
  -267470.545492928     
  -267470.545492928     
  -267470.545492928     
  -267470.545492927     
  -267470.545492927     
  -267470.545492928     
  -267470.545492928     
  -267470.545492928     
  -267470.545492928     
  -266741.537752890     
  -266741.537752891     
  -266741.537752890     
  -266741.537752890     
  -266741.537752890     
  -266741.537752890     
  -266741.537752890     
  -266741.537752890     
  -266741.537752890     
  -266741.537752890     
  -266741.537752889     
  -266741.537752890     
  -266741.537752890     
  -266741.537752890     
  -266741.537752889     
  -265980.578506190     
  -265980.578506190     
  -265980.578506190     
  -265980.578506190     
  -265980.578506190     
  -265980.578506190     
  -265980.578506190     
  -265980.578506190     
  -265980.578506189     
  -265980.578506189     
  -265980.578506190     
  -265980.578506190     
  -265980.578506190     
  -265980.578506190     
  -265980.578506190     
  -265186.877054113     
  -265186.877054112     
  -265186.877054113     
  -265186.877054113     
  -265186.877054113     
  -265186.877054113     
  -265186.877054113     
  -265186.877054113     
  -265186.877054112     
  -265186.877054113     
  -265186.877054112     
  -265186.877054113     
  -265186.877054112     
  -265186.877054113     
  -265186.877054113     
  -264359.621990334     
  -264359.621990334     
  -264359.621990334     
  -264359.621990334     
  -264359.621990333     
  -264359.621990334     
  -264359.621990333     
  -264359.621990334     
  -264359.621990333     
  -264359.621990334     
  -264359.621990333     
  -264359.621990333     
  -264359.621990333     
  -264359.621990334     
  -264359.621990333     
  -263497.982037451     
  -263497.982037451     
  -263497.982037451     
  -263497.982037451     
  -263497.982037451     
  -263497.982037451     
  -263497.982037451     
  -263497.982037451     
  -263497.982037450     
  -263497.982037450     
  -263497.982037451     
  -263497.982037450     
  -263497.982037450     
  -263497.982037450     
  -263497.982037450     
  -262601.106987679     
  -262601.106987679     
  -262601.106987678     
  -262601.106987678     
  -262601.106987679     
  -262601.106987678     
  -262601.106987678     
  -262601.106987678     
  -262601.106987679     
  -262601.106987679     
  -262601.106987678     
  -262601.106987679     
  -262601.106987679     
  -262601.106987678     
  -262601.106987678     
  -261668.128756254     
  -261668.128756254     
  -261668.128756254     
  -261668.128756254     
  -261668.128756254     
  -261668.128756254     
  -261668.128756255     
  -261668.128756254     
  -261668.128756254     
  -261668.128756255     
  -261668.128756255     
  -261668.128756255     
  -261668.128756255     
  -261668.128756255     
  -261668.128756255     
  -260698.162556518     
  -260698.162556519     
  -260698.162556519     
  -260698.162556519     
  -260698.162556519     
  -260698.162556518     
  -260698.162556518     
  -260698.162556518     
  -260698.162556518     
  -260698.162556517     
  -260698.162556517     
  -260698.162556517     
  -260698.162556517     
  -260698.162556517     
  -260698.162556517     
  -259690.308206034     
  -259690.308206034     
  -259690.308206034     
  -259690.308206034     
  -259690.308206034     
  -259690.308206034     
  -259690.308206034     
  -259690.308206034     
  -259690.308206034     
  -259690.308206034     
  -259690.308206034     
  -259690.308206034     
  -259690.308206034     
  -259690.308206034     
  -259690.308206034     
  -258643.651573499     
  -258643.651573498     
  -258643.651573498     
  -258643.651573499     
  -258643.651573500     
  -258643.651573500     
  -258643.651573500     
  -258643.651573499     
  -258643.651573499     
  -258643.651573500     
  -258643.651573501     
  -258643.651573501     
  -258643.651573501     
  -258643.651573500     
  -258643.651573500     
  -257557.266176556     
  -257557.266176557     
  -257557.266176556     
  -257557.266176557     
  -257557.266176556     
  -257557.266176556     
  -257557.266176556     
  -257557.266176557     
  -257557.266176557     
  -257557.266176556     
  -257557.266176556     
  -257557.266176557     
  -257557.266176556     
  -257557.266176555     
  -257557.266176556     
  -256430.214940943     
  -256430.214940943     
  -256430.214940943     
  -256430.214940943     
  -256430.214940944     
  -256430.214940944     
  -256430.214940944     
  -256430.214940944     
  -256430.214940943     
  -256430.214940943     
  -256430.214940944     
  -256430.214940945     
  -256430.214940945     
  -256430.214940943     
  -256430.214940944     
  -255261.552131774     
  -255261.552131774     
  -255261.552131774     
  -255261.552131773     
  -255261.552131773     
  -255261.552131773     
  -255261.552131774     
  -255261.552131774     
  -255261.552131774     
  -255261.552131774     
  -255261.552131773     
  -255261.552131773     
  -255261.552131774     
  -255261.552131774     
  -255261.552131774     
  -254050.325467898     
  -254050.325467898     
  -254050.325467898     
  -254050.325467897     
  -254050.325467898     
  -254050.325467898     
  -254050.325467898     
  -254050.325467899     
  -254050.325467898     
  -254050.325467898     
  -254050.325467898     
  -254050.325467898     
  -254050.325467897     
  -254050.325467897     
  -254050.325467898     
  -252795.578430618     
  -252795.578430618     
  -252795.578430617     
  -252795.578430618     
  -252795.578430618     
  -252795.578430617     
  -252795.578430618     
  -252795.578430618     
  -252795.578430618     
  -252795.578430618     
  -252795.578430618     
  -252795.578430619     
  -252795.578430618     
  -252795.578430618     
  -252795.578430618     
  -251496.352778042     
  -251496.352778041     
  -251496.352778040     
  -251496.352778041     
  -251496.352778041     
  -251496.352778042     
  -251496.352778040     
  -251496.352778040     
  -251496.352778041     
  -251496.352778040     
  -251496.352778039     
  -251496.352778040     
  -251496.352778040     
  -251496.352778041     
  -251496.352778041     
  -250151.691276459     
  -250151.691276460     
  -250151.691276460     
  -250151.691276461     
  -250151.691276460     
  -250151.691276460     
  -250151.691276459     
  -250151.691276459     
  -250151.691276459     
  -250151.691276459     
  -250151.691276460     
  -250151.691276460     
  -250151.691276460     
  -250151.691276459     
  -250151.691276458     
  -248760.640660072     
  -248760.640660071     
  -248760.640660072     
  -248760.640660072     
  -248760.640660072     
  -248760.640660071     
  -248760.640660072     
  -248760.640660070     
  -248760.640660072     
  -248760.640660073     
  -248760.640660072     
  -248760.640660071     
  -248760.640660071     
  -248760.640660073     
  -248760.640660072     
  -247322.254830134     
  -247322.254830134     
  -247322.254830135     
  -247322.254830134     
  -247322.254830134     
  -247322.254830135     
  -247322.254830134     
  -247322.254830135     
  -247322.254830134     
  -247322.254830135     
  -247322.254830134     
  -247322.254830134     
  -247322.254830134     
  -247322.254830134     
  -247322.254830135     
  -245835.598304332     
  -245835.598304332     
  -245835.598304332     
  -245835.598304332     
  -245835.598304332     
  -245835.598304333     
  -245835.598304333     
  -245835.598304333     
  -245835.598304332     
  -245835.598304331     
  -245835.598304332     
  -245835.598304333     
  -245835.598304333     
  -245835.598304332     
  -245835.598304332     
  -244299.749926613     
  -244299.749926612     
  -244299.749926611     
  -244299.749926613     
  -244299.749926613     
  -244299.749926612     
  -244299.749926612     
  -244299.749926612     
  -244299.749926612     
  -244299.749926612     
  -244299.749926612     
  -244299.749926612     
  -244299.749926611     
  -244299.749926611     
  -244299.749926612     
  -242713.806847012     
  -242713.806847011     
  -242713.806847011     
  -242713.806847011     
  -242713.806847011     
  -242713.806847011     
  -242713.806847011     
  -242713.806847011     
  -242713.806847011     
  -242713.806847012     
  -242713.806847012     
  -242713.806847011     
  -242713.806847011     
  -242713.806847010     
  -242713.806847010     
  -241076.888780070     
  -241076.888780070     
  -241076.888780070     
  -241076.888780069     
  -241076.888780069     
  -241076.888780070     
  -241076.888780069     
  -241076.888780069     
  -241076.888780069     
  -241076.888780068     
  -241076.888780069     
  -241076.888780070     
  -241076.888780069     
  -241076.888780070     
  -241076.888780069     
  -239388.142549182     
  -239388.142549181     
  -239388.142549180     
  -239388.142549180     
  -239388.142549180     
  -239388.142549180     
  -239388.142549180     
  -239388.142549180     
  -239388.142549182     
  -239388.142549182     
  -239388.142549181     
  -239388.142549181     
  -239388.142549179     
  -239388.142549179     
  -239388.142549178     
  -237646.746922707     
  -237646.746922707     
  -237646.746922707     
  -237646.746922708     
  -237646.746922708     
  -237646.746922707     
  -237646.746922706     
  -237646.746922707     
  -237646.746922707     
  -237646.746922706     
  -237646.746922708     
  -237646.746922708     
  -237646.746922708     
  -237646.746922708     
  -237646.746922708     
  -235851.917745804     
  -235851.917745803     
  -235851.917745803     
  -235851.917745804     
  -235851.917745804     
  -235851.917745804     
  -235851.917745804     
  -235851.917745804     
  -235851.917745804     
  -235851.917745804     
  -235851.917745803     
  -235851.917745803     
  -235851.917745804     
  -235851.917745803     
  -235851.917745803     
  -234002.913369636     
  -234002.913369636     
  -234002.913369636     
  -234002.913369635     
  -234002.913369635     
  -234002.913369635     
  -234002.913369636     
  -234002.913369636     
  -234002.913369636     
  -234002.913369636     
  -234002.913369635     
  -234002.913369636     
  -234002.913369635     
  -234002.913369635     
  -234002.913369636     
  -232099.040376919     
  -232099.040376919     
  -232099.040376919     
  -232099.040376919     
  -232099.040376919     
  -232099.040376918     
  -232099.040376919     
  -232099.040376918     
  -232099.040376918     
  -232099.040376919     
  -232099.040376921     
  -232099.040376919     
  -232099.040376918     
  -232099.040376919     
  -232099.040376919     
  -230139.659599555     
  -230139.659599555     
  -230139.659599554     
  -230139.659599555     
  -230139.659599557     
  -230139.659599557     
  -230139.659599555     
  -230139.659599556     
  -230139.659599557     
  -230139.659599557     
  -230139.659599557     
  -230139.659599557     
  -230139.659599556     
  -230139.659599557     
  -230139.659599557     
  -228124.192420324     
  -228124.192420325     
  -228124.192420325     
  -228124.192420325     
  -228124.192420324     
  -228124.192420324     
  -228124.192420325     
  -228124.192420325     
  -228124.192420325     
  -228124.192420325     
  -228124.192420324     
  -228124.192420324     
  -228124.192420325     
  -228124.192420326     
  -228124.192420324     
  -226052.127346270     
  -226052.127346270     
  -226052.127346269     
  -226052.127346269     
  -226052.127346270     
  -226052.127346271     
  -226052.127346271     
  -226052.127346271     
  -226052.127346271     
  -226052.127346270     
  -226052.127346270     
  -226052.127346271     
  -226052.127346270     
  -226052.127346270     
  -226052.127346270     
  -223923.026836400     
  -223923.026836400     
  -223923.026836399     
  -223923.026836399     
  -223923.026836398     
  -223923.026836399     
  -223923.026836399     
  -223923.026836399     
  -223923.026836399     
  -223923.026836398     
  -223923.026836399     
  -223923.026836399     
  -223923.026836399     
  -223923.026836399     
  -223923.026836400     
  -221736.534360608     
  -221736.534360606     
  -221736.534360608     
  -221736.534360607     
  -221736.534360607     
  -221736.534360608     
  -221736.534360608     
  -221736.534360607     
  -221736.534360607     
  -221736.534360609     
  -221736.534360609     
  -221736.534360608     
  -221736.534360606     
  -221736.534360608     
  -221736.534360607     
  -219492.381660245     
  -219492.381660247     
  -219492.381660246     
  -219492.381660247     
  -219492.381660247     
  -219492.381660247     
  -219492.381660246     
  -219492.381660247     
  -219492.381660248     
  -219492.381660248     
  -219492.381660247     
  -219492.381660247     
  -219492.381660248     
  -219492.381660247     
  -219492.381660246     
  -217190.396173538     
  -217190.396173539     
  -217190.396173537     
  -217190.396173538     
  -217190.396173537     
  -217190.396173537     
  -217190.396173538     
  -217190.396173538     
  -217190.396173537     
  -217190.396173536     
  -217190.396173537     
  -217190.396173537     
  -217190.396173536     
  -217190.396173536     
  -217190.396173538     
  -214830.508580915     
  -214830.508580914     
  -214830.508580914     
  -214830.508580914     
  -214830.508580916     
  -214830.508580914     
  -214830.508580914     
  -214830.508580914     
  -214830.508580915     
  -214830.508580916     
  -214830.508580914     
  -214830.508580916     
  -214830.508580916     
  -214830.508580916     
  -214830.508580914     
  -212412.760416483     
  -212412.760416482     
  -212412.760416482     
  -212412.760416483     
  -212412.760416482     
  -212412.760416482     
  -212412.760416482     
  -212412.760416483     
  -212412.760416481     
  -212412.760416481     
  -212412.760416482     
  -212412.760416482     
  -212412.760416482     
  -212412.760416482     
  -212412.760416482     
  -209937.311682011     
  -209937.311682011     
  -209937.311682010     
  -209937.311682009     
  -209937.311682010     
  -209937.311682011     
  -209937.311682010     
  -209937.311682010     
  -209937.311682010     
  -209937.311682009     
  -209937.311682010     
  -209937.311682011     
  -209937.311682011     
  -209937.311682010     
  -209937.311682010     
  -207404.448389363     
  -207404.448389364     
  -207404.448389364     
  -207404.448389364     
  -207404.448389364     
  -207404.448389363     
  -207404.448389363     
  -207404.448389362     
  -207404.448389363     
  -207404.448389361     
  -207404.448389362     
  -207404.448389362     
  -207404.448389362     
  -207404.448389364     
  -207404.448389363     
  -204814.589945961     
  -204814.589945960     
  -204814.589945961     
  -204814.589945960     
  -204814.589945961     
  -204814.589945961     
  -204814.589945961     
  -204814.589945960     
  -204814.589945960     
  -204814.589945962     
  -204814.589945961     
  -204814.589945961     
  -204814.589945960     
  -204814.589945960     
  -204814.589945960     
  -202168.296285991     
  -202168.296285991     
  -202168.296285990     
  -202168.296285990     
  -202168.296285991     
  -202168.296285990     
  -202168.296285991     
  -202168.296285992     
  -202168.296285992     
  -202168.296285990     
  -202168.296285990     
  -202168.296285990     
  -202168.296285991     
  -202168.296285992     
  -202168.296285992     
  -199466.274637784     
  -199466.274637785     
  -199466.274637784     
  -199466.274637784     
  -199466.274637784     
  -199466.274637785     
  -199466.274637784     
  -199466.274637784     
  -199466.274637782     
  -199466.274637784     
  -199466.274637786     
  -199466.274637787     
  -199466.274637784     
  -199466.274637784     
  -199466.274637784     
  -196709.385805199     
  -196709.385805199     
  -196709.385805199     
  -196709.385805199     
  -196709.385805200     
  -196709.385805199     
  -196709.385805199     
  -196709.385805199     
  -196709.385805199     
  -196709.385805200     
  -196709.385805200     
  -196709.385805200     
  -196709.385805197     
  -196709.385805199     
  -196709.385805199     
  -193898.649828502     
  -193898.649828502     
  -193898.649828502     
  -193898.649828501     
  -193898.649828503     
  -193898.649828502     
  -193898.649828503     
  -193898.649828501     
  -193898.649828500     
  -193898.649828503     
  -193898.649828501     
  -193898.649828503     
  -193898.649828502     
  -193898.649828500     
  -193898.649828500     
  -191035.250878358     
  -191035.250878359     
  -191035.250878356     
  -191035.250878358     
  -191035.250878357     
  -191035.250878358     
  -191035.250878358     
  -191035.250878359     
  -191035.250878359     
  -191035.250878359     
  -191035.250878358     
  -191035.250878357     
  -191035.250878359     
  -191035.250878359     
  -191035.250878358     
  -188120.541225824     
  -188120.541225825     
  -188120.541225824     
  -188120.541225825     
  -188120.541225824     
  -188120.541225825     
  -188120.541225824     
  -188120.541225825     
  -188120.541225824     
  -188120.541225823     
  -188120.541225825     
  -188120.541225825     
  -188120.541225825     
  -188120.541225824     
  -188120.541225825     
  -185156.044122235     
  -185156.044122234     
  -185156.044122236     
  -185156.044122236     
  -185156.044122235     
  -185156.044122235     
  -185156.044122234     
  -185156.044122234     
  -185156.044122233     
  -185156.044122234     
  -185156.044122233     
  -185156.044122233     
  -185156.044122235     
  -185156.044122236     
  -185156.044122236     
  -182143.455416542     
  -182143.455416543     
  -182143.455416541     
  -182143.455416541     
  -182143.455416540     
  -182143.455416541     
  -182143.455416541     
  -182143.455416540     
  -182143.455416541     
  -182143.455416541     
  -182143.455416542     
  -182143.455416542     
  -182143.455416541     
  -182143.455416542     
  -182143.455416543     
  -179084.643734894     
  -179084.643734897     
  -179084.643734895     
  -179084.643734895     
  -179084.643734895     
  -179084.643734895     
  -179084.643734894     
  -179084.643734894     
  -179084.643734895     
  -179084.643734897     
  -179084.643734896     
  -179084.643734895     
  -179084.643734896     
  -179084.643734896     
  -179084.643734895     
  -175981.649049203     
  -175981.649049202     
  -175981.649049203     
  -175981.649049203     
  -175981.649049202     
  -175981.649049203     
  -175981.649049202     
  -175981.649049202     
  -175981.649049202     
  -175981.649049202     
  -175981.649049205     
  -175981.649049204     
  -175981.649049204     
  -175981.649049202     
  -175981.649049202     
  -172836.679469490     
  -172836.679469489     
  -172836.679469489     
  -172836.679469489     
  -172836.679469489     
  -172836.679469489     
  -172836.679469490     
  -172836.679469490     
  -172836.679469489     
  -172836.679469488     
  -172836.679469487     
  -172836.679469487     
  -172836.679469490     
  -172836.679469491     
  -172836.679469488     
  -169652.106110424     
  -169652.106110424     
  -169652.106110425     
  -169652.106110424     
  -169652.106110425     
  -169652.106110425     
  -169652.106110425     
  -169652.106110425     
  -169652.106110425     
  -169652.106110425     
  -169652.106110425     
  -169652.106110426     
  -169652.106110424     
  -169652.106110425     
  -169652.106110423     
  -166430.455906997     
  -166430.455906996     
  -166430.455906998     
  -166430.455906996     
  -166430.455906997     
  -166430.455906997     
  -166430.455906997     
  -166430.455906996     
  -166430.455906997     
  -166430.455906996     
  -166430.455906996     
  -166430.455906996     
  -166430.455906996     
  -166430.455906996     
  -166430.455906996     
  -163174.402289409     
  -163174.402289408     
  -163174.402289408     
  -163174.402289409     
  -163174.402289408     
  -163174.402289408     
  -163174.402289408     
  -163174.402289409     
  -163174.402289409     
  -163174.402289408     
  -163174.402289408     
  -163174.402289408     
  -163174.402289409     
  -163174.402289410     
  -163174.402289409     
  -159886.753674337     
  -159886.753674341     
  -159886.753674340     
  -159886.753674338     
  -159886.753674339     
  -159886.753674340     
  -159886.753674340     
  -159886.753674338     
  -159886.753674339     
  -159886.753674339     
  -159886.753674339     
  -159886.753674340     
  -159886.753674338     
  -159886.753674339     
  -159886.753674339     
  -156570.439789368     
  -156570.439789367     
  -156570.439789367     
  -156570.439789367     
  -156570.439789368     
  -156570.439789367     
  -156570.439789369     
  -156570.439789369     
  -156570.439789367     
  -156570.439789367     
  -156570.439789367     
  -156570.439789368     
  -156570.439789367     
  -156570.439789367     
  -156570.439789368     
  -153228.495919988     
  -153228.495919988     
  -153228.495919988     
  -153228.495919987     
  -153228.495919988     
  -153228.495919989     
  -153228.495919987     
  -153228.495919987     
  -153228.495919989     
  -153228.495919990     
  -153228.495919989     
  -153228.495919989     
  -153228.495919988     
  -153228.495919989     
  -153228.495919989     
  -149864.045252509     
  -149864.045252508     
  -149864.045252510     
  -149864.045252509     
  -149864.045252510     
  -149864.045252511     
  -149864.045252513     
  -149864.045252511     
  -149864.045252510     
  -149864.045252512     
  -149864.045252512     
  -149864.045252511     
  -149864.045252510     
  -149864.045252510     
  -149864.045252510     
  -146480.279578251     
  -146480.279578255     
  -146480.279578257     
  -146480.279578253     
  -146480.279578253     
  -146480.279578253     
  -146480.279578253     
  -146480.279578255     
  -146480.279578256     
  -146480.279578254     
  -146480.279578252     
  -146480.279578255     
  -146480.279578255     
  -146480.279578253     
  -146480.279578254     
SCALARS 2waySource double 
LOOKUP_TABLE default
  4.235720310596067E-006
  4.235720310595762E-006
  4.235720310595670E-006
  4.235720310595641E-006
  4.235720310595791E-006
  4.235720310595952E-006
  4.235720310595716E-006
  4.235720310596030E-006
  4.235720310595593E-006
  4.235720310595810E-006
  4.235720310595703E-006
  4.235720310595730E-006
  4.235720310595649E-006
  4.235720310595754E-006
  4.235720310595770E-006
  4.220688473875102E-006
  4.220688473874893E-006
  4.220688473874912E-006
  4.220688473874839E-006
  4.220688473874795E-006
  4.220688473874947E-006
  4.220688473874355E-006
  4.220688473874941E-006
  4.220688473874953E-006
  4.220688473874912E-006
  4.220688473874720E-006
  4.220688473874853E-006
  4.220688473874753E-006
  4.220688473874806E-006
  4.220688473874878E-006
  4.194379057209225E-006
  4.194379057208522E-006
  4.194379057209266E-006
  4.194379057208861E-006
  4.194379057208748E-006
  4.194379057209022E-006
  4.194379057208326E-006
  4.194379057208903E-006
  4.194379057208852E-006
  4.194379057208840E-006
  4.194379057208787E-006
  4.194379057208865E-006
  4.194379057208796E-006
  4.194379057208895E-006
  4.194379057208881E-006
  4.156786141321058E-006
  4.156786141320700E-006
  4.156786141320558E-006
  4.156786141320345E-006
  4.156786141320577E-006
  4.156786141320842E-006
  4.156786141320617E-006
  4.156786141320462E-006
  4.156786141320562E-006
  4.156786141320504E-006
  4.156786141320558E-006
  4.156786141320514E-006
  4.156786141320585E-006
  4.156786141320533E-006
  4.156786141320619E-006
  4.107901461969978E-006
  4.107901461970410E-006
  4.107901461970112E-006
  4.107901461970297E-006
  4.107901461970298E-006
  4.107901461970744E-006
  4.107901461970332E-006
  4.107901461970254E-006
  4.107901461970231E-006
  4.107901461970006E-006
  4.107901461970283E-006
  4.107901461970178E-006
  4.107901461969983E-006
  4.107901461970204E-006
  4.107901461970160E-006
  4.047714613814433E-006
  4.047714613814040E-006
  4.047714613814064E-006
  4.047714613813900E-006
  4.047714613813667E-006
  4.047714613813986E-006
  4.047714613813948E-006
  4.047714613814045E-006
  4.047714613814274E-006
  4.047714613814128E-006
  4.047714613814024E-006
  4.047714613814260E-006
  4.047714613813779E-006
  4.047714613813749E-006
  4.047714613813876E-006
  3.976213317106577E-006
  3.976213317106958E-006
  3.976213317106845E-006
  3.976213317107090E-006
  3.976213317106648E-006
  3.976213317106951E-006
  3.976213317106667E-006
  3.976213317107062E-006
  3.976213317106916E-006
  3.976213317106758E-006
  3.976213317106514E-006
  3.976213317106526E-006
  3.976213317106381E-006
  3.976213317106750E-006
  3.976213317106559E-006
  3.893383748568599E-006
  3.893383748568355E-006
  3.893383748568853E-006
  3.893383748568334E-006
  3.893383748568538E-006
  3.893383748568667E-006
  3.893383748568822E-006
  3.893383748568773E-006
  3.893383748568874E-006
  3.893383748568780E-006
  3.893383748568872E-006
  3.893383748568632E-006
  3.893383748568708E-006
  3.893383748568332E-006
  3.893383748568641E-006
  3.799210938042241E-006
  3.799210938042203E-006
  3.799210938042190E-006
  3.799210938041716E-006
  3.799210938042077E-006
  3.799210938042275E-006
  3.799210938042174E-006
  3.799210938041927E-006
  3.799210938042199E-006
  3.799210938042015E-006
  3.799210938041962E-006
  3.799210938041866E-006
  3.799210938041764E-006
  3.799210938041914E-006
  3.799210938041757E-006
  3.693679232871835E-006
  3.693679232871499E-006
  3.693679232871691E-006
  3.693679232871826E-006
  3.693679232872028E-006
  3.693679232871670E-006
  3.693679232871687E-006
  3.693679232872191E-006
  3.693679232871700E-006
  3.693679232871853E-006
  3.693679232872064E-006
  3.693679232872095E-006
  3.693679232872250E-006
  3.693679232871997E-006
  3.693679232871903E-006
  3.576772832251952E-006
  3.576772832252477E-006
  3.576772832252259E-006
  3.576772832252177E-006
  3.576772832252090E-006
  3.576772832252112E-006
  3.576772832252245E-006
  3.576772832252792E-006
  3.576772832252026E-006
  3.576772832252174E-006
  3.576772832252273E-006
  3.576772832252466E-006
  3.576772832252512E-006
  3.576772832252265E-006
  3.576772832252508E-006
  3.448476394087459E-006
  3.448476394087705E-006
  3.448476394088099E-006
  3.448476394088169E-006
  3.448476394088184E-006
  3.448476394088320E-006
  3.448476394087638E-006
  3.448476394088079E-006
  3.448476394088546E-006
  3.448476394088300E-006
  3.448476394088400E-006
  3.448476394088198E-006
  3.448476394087824E-006
  3.448476394088057E-006
  3.448476394088071E-006
  3.308775717227262E-006
  3.308775717227396E-006
  3.308775717227819E-006
  3.308775717227535E-006
  3.308775717227834E-006
  3.308775717227886E-006
  3.308775717228177E-006
  3.308775717227988E-006
  3.308775717228115E-006
  3.308775717227994E-006
  3.308775717228153E-006
  3.308775717227832E-006
  3.308775717227812E-006
  3.308775717227671E-006
  3.308775717227690E-006
  3.157658502237920E-006
  3.157658502237907E-006
  3.157658502238608E-006
  3.157658502238272E-006
  3.157658502238091E-006
  3.157658502238244E-006
  3.157658502238573E-006
  3.157658502237951E-006
  3.157658502238397E-006
  3.157658502238119E-006
  3.157658502237695E-006
  3.157658502237943E-006
  3.157658502238351E-006
  3.157658502238634E-006
  3.157658502238538E-006
  2.995115194183136E-006
  2.995115194182310E-006
  2.995115194182838E-006
  2.995115194182488E-006
  2.995115194182511E-006
  2.995115194182752E-006
  2.995115194182928E-006
  2.995115194182659E-006
  2.995115194183024E-006
  2.995115194182311E-006
  2.995115194183013E-006
  2.995115194182969E-006
  2.995115194182813E-006
  2.995115194183101E-006
  2.995115194183443E-006
  2.821139911189348E-006
  2.821139911189741E-006
  2.821139911189149E-006
  2.821139911189542E-006
  2.821139911190054E-006
  2.821139911189543E-006
  2.821139911189865E-006
  2.821139911189728E-006
  2.821139911189860E-006
  2.821139911190178E-006
  2.821139911190273E-006
  2.821139911190094E-006
  2.821139911190260E-006
  2.821139911190529E-006
  2.821139911190540E-006
  2.635731462871007E-006
  2.635731462871350E-006
  2.635731462870546E-006
  2.635731462871539E-006
  2.635731462871142E-006
  2.635731462870775E-006
  2.635731462871464E-006
  2.635731462871348E-006
  2.635731462871610E-006
  2.635731462871395E-006
  2.635731462871199E-006
  2.635731462871343E-006
  2.635731462871333E-006
  2.635731462871277E-006
  2.635731462871795E-006
  2.438894462965654E-006
  2.438894462964894E-006
  2.438894462965542E-006
  2.438894462965552E-006
  2.438894462965188E-006
  2.438894462965582E-006
  2.438894462965361E-006
  2.438894462965659E-006
  2.438894462965694E-006
  2.438894462965624E-006
  2.438894462965814E-006
  2.438894462966446E-006
  2.438894462965914E-006
  2.438894462965718E-006
  2.438894462965596E-006
  2.230640540850280E-006
  2.230640540850671E-006
  2.230640540850432E-006
  2.230640540851185E-006
  2.230640540851048E-006
  2.230640540851078E-006
  2.230640540851393E-006
  2.230640540851321E-006
  2.230640540851019E-006
  2.230640540851241E-006
  2.230640540851179E-006
  2.230640540851003E-006
  2.230640540851345E-006
  2.230640540851525E-006
  2.230640540851694E-006
  2.010989656845173E-006
  2.010989656844882E-006
  2.010989656845223E-006
  2.010989656845547E-006
  2.010989656845323E-006
  2.010989656845229E-006
  2.010989656845066E-006
  2.010989656845246E-006
  2.010989656845541E-006
  2.010989656845452E-006
  2.010989656845713E-006
  2.010989656845920E-006
  2.010989656845526E-006
  2.010989656845854E-006
  2.010989656846071E-006
  1.779971526480093E-006
  1.779971526478601E-006
  1.779971526478855E-006
  1.779971526478862E-006
  1.779971526478909E-006
  1.779971526478700E-006
  1.779971526479322E-006
  1.779971526479450E-006
  1.779971526479277E-006
  1.779971526479374E-006
  1.779971526480520E-006
  1.779971526479811E-006
  1.779971526479629E-006
  1.779971526479300E-006
  1.779971526479750E-006
  1.537627159143230E-006
  1.537627159144109E-006
  1.537627159143506E-006
  1.537627159144348E-006
  1.537627159144427E-006
  1.537627159144138E-006
  1.537627159144010E-006
  1.537627159144145E-006
  1.537627159144065E-006
  1.537627159143948E-006
  1.537627159143644E-006
  1.537627159143407E-006
  1.537627159144237E-006
  1.537627159143545E-006
  1.537627159144263E-006
  1.284010516750356E-006
  1.284010516751905E-006
  1.284010516750701E-006
  1.284010516751290E-006
  1.284010516751387E-006
  1.284010516751857E-006
  1.284010516752163E-006
  1.284010516751737E-006
  1.284010516751925E-006
  1.284010516751691E-006
  1.284010516751544E-006
  1.284010516751572E-006
  1.284010516751423E-006
  1.284010516752187E-006
  1.284010516751798E-006
  1.019190298207376E-006
  1.019190298208006E-006
  1.019190298207493E-006
  1.019190298207300E-006
  1.019190298207173E-006
  1.019190298207978E-006
  1.019190298208136E-006
  1.019190298207542E-006
  1.019190298208151E-006
  1.019190298208104E-006
  1.019190298207344E-006
  1.019190298207087E-006
  1.019190298207068E-006
  1.019190298207289E-006
  1.019190298208243E-006
  7.432518556535920E-007
  7.432518556526864E-007
  7.432518556524196E-007
  7.432518556527783E-007
  7.432518556531146E-007
  7.432518556529636E-007
  7.432518556529314E-007
  7.432518556527923E-007
  7.432518556527265E-007
  7.432518556529796E-007
  7.432518556537823E-007
  7.432518556531017E-007
  7.432518556521937E-007
  7.432518556522147E-007
  7.432518556522473E-007
  4.562992485177321E-007
  4.562992485188804E-007
  4.562992485190435E-007
  4.562992485196585E-007
  4.562992485197186E-007
  4.562992485191833E-007
  4.562992485188013E-007
  4.562992485197993E-007
  4.562992485185805E-007
  4.562992485189933E-007
  4.562992485178522E-007
  4.562992485193619E-007
  4.562992485193641E-007
  4.562992485192420E-007
  4.562992485191254E-007
  1.584574414943115E-007
  1.584574414946000E-007
  1.584574414939857E-007
  1.584574414940433E-007
  1.584574414939974E-007
  1.584574414940155E-007
  1.584574414936723E-007
  1.584574414937844E-007
  1.584574414932519E-007
  1.584574414931348E-007
  1.584574414930313E-007
  1.584574414934858E-007
  1.584574414938584E-007
  1.584574414936392E-007
  1.584574414943093E-007
 -1.501253475383849E-007
 -1.501253475387571E-007
 -1.501253475398132E-007
 -1.501253475397799E-007
 -1.501253475378221E-007
 -1.501253475391578E-007
 -1.501253475382555E-007
 -1.501253475383149E-007
 -1.501253475376313E-007
 -1.501253475384374E-007
 -1.501253475384351E-007
 -1.501253475384365E-007
 -1.501253475384885E-007
 -1.501253475384973E-007
 -1.501253475394987E-007
 -4.692751436278993E-007
 -4.692751436276813E-007
 -4.692751436273309E-007
 -4.692751436266071E-007
 -4.692751436269982E-007
 -4.692751436275704E-007
 -4.692751436275782E-007
 -4.692751436267658E-007
 -4.692751436283748E-007
 -4.692751436283579E-007
 -4.692751436276120E-007
 -4.692751436281670E-007
 -4.692751436282549E-007
 -4.692751436277034E-007
 -4.692751436277995E-007
 -7.987895491791701E-007
 -7.987895491796121E-007
 -7.987895491800929E-007
 -7.987895491792717E-007
 -7.987895491784008E-007
 -7.987895491794551E-007
 -7.987895491784539E-007
 -7.987895491788912E-007
 -7.987895491787752E-007
 -7.987895491775985E-007
 -7.987895491795896E-007
 -7.987895491785795E-007
 -7.987895491790243E-007
 -7.987895491785248E-007
 -7.987895491790123E-007
 -1.138434911237018E-006
 -1.138434911237830E-006
 -1.138434911235506E-006
 -1.138434911238050E-006
 -1.138434911238330E-006
 -1.138434911237174E-006
 -1.138434911237355E-006
 -1.138434911237565E-006
 -1.138434911237406E-006
 -1.138434911237916E-006
 -1.138434911237975E-006
 -1.138434911238386E-006
 -1.138434911237207E-006
 -1.138434911237434E-006
 -1.138434911236388E-006
 -1.487943316605431E-006
 -1.487943316605886E-006
 -1.487943316605114E-006
 -1.487943316605339E-006
 -1.487943316604761E-006
 -1.487943316605700E-006
 -1.487943316605013E-006
 -1.487943316605531E-006
 -1.487943316605566E-006
 -1.487943316604964E-006
 -1.487943316605216E-006
 -1.487943316605025E-006
 -1.487943316604018E-006
 -1.487943316604836E-006
 -1.487943316605389E-006
 -1.847009410399670E-006
 -1.847009410398362E-006
 -1.847009410399700E-006
 -1.847009410398193E-006
 -1.847009410399468E-006
 -1.847009410399375E-006
 -1.847009410398647E-006
 -1.847009410398894E-006
 -1.847009410399417E-006
 -1.847009410398450E-006
 -1.847009410398725E-006
 -1.847009410399396E-006
 -1.847009410399733E-006
 -1.847009410399253E-006
 -1.847009410399769E-006
 -2.215287034390276E-006
 -2.215287034390157E-006
 -2.215287034390734E-006
 -2.215287034390707E-006
 -2.215287034389846E-006
 -2.215287034390501E-006
 -2.215287034390513E-006
 -2.215287034390812E-006
 -2.215287034389956E-006
 -2.215287034389549E-006
 -2.215287034390392E-006
 -2.215287034390478E-006
 -2.215287034391103E-006
 -2.215287034391175E-006
 -2.215287034391051E-006
 -2.592385682499293E-006
 -2.592385682499624E-006
 -2.592385682498954E-006
 -2.592385682499491E-006
 -2.592385682498563E-006
 -2.592385682499265E-006
 -2.592385682498317E-006
 -2.592385682498628E-006
 -2.592385682499230E-006
 -2.592385682500124E-006
 -2.592385682499654E-006
 -2.592385682499596E-006
 -2.592385682499548E-006
 -2.592385682499037E-006
 -2.592385682499214E-006
 -2.977866771977885E-006
 -2.977866771977027E-006
 -2.977866771977011E-006
 -2.977866771977263E-006
 -2.977866771977921E-006
 -2.977866771977291E-006
 -2.977866771977978E-006
 -2.977866771978099E-006
 -2.977866771978169E-006
 -2.977866771976978E-006
 -2.977866771977621E-006
 -2.977866771976964E-006
 -2.977866771977359E-006
 -2.977866771977723E-006
 -2.977866771977613E-006
 -3.371239730379433E-006
 -3.371239730381034E-006
 -3.371239730381571E-006
 -3.371239730381883E-006
 -3.371239730381941E-006
 -3.371239730381280E-006
 -3.371239730381247E-006
 -3.371239730380590E-006
 -3.371239730381186E-006
 -3.371239730382329E-006
 -3.371239730382493E-006
 -3.371239730381203E-006
 -3.371239730380861E-006
 -3.371239730382477E-006
 -3.371239730382719E-006
 -3.771957900190562E-006
 -3.771957900190920E-006
 -3.771957900189913E-006
 -3.771957900190010E-006
 -3.771957900189951E-006
 -3.771957900189914E-006
 -3.771957900191665E-006
 -3.771957900190318E-006
 -3.771957900190323E-006
 -3.771957900190021E-006
 -3.771957900188858E-006
 -3.771957900189245E-006
 -3.771957900189485E-006
 -3.771957900189564E-006
 -3.771957900189089E-006
 -4.179414265139897E-006
 -4.179414265139040E-006
 -4.179414265138491E-006
 -4.179414265139161E-006
 -4.179414265139023E-006
 -4.179414265138141E-006
 -4.179414265138485E-006
 -4.179414265139006E-006
 -4.179414265138661E-006
 -4.179414265139113E-006
 -4.179414265140016E-006
 -4.179414265140007E-006
 -4.179414265139755E-006
 -4.179414265139814E-006
 -4.179414265139359E-006
 -4.592937004914163E-006
 -4.592937004912795E-006
 -4.592937004914506E-006
 -4.592937004914248E-006
 -4.592937004914227E-006
 -4.592937004914588E-006
 -4.592937004913908E-006
 -4.592937004914631E-006
 -4.592937004914063E-006
 -4.592937004914096E-006
 -4.592937004913844E-006
 -4.592937004913856E-006
 -4.592937004913709E-006
 -4.592937004913183E-006
 -4.592937004913048E-006
 -5.011784887912562E-006
 -5.011784887913158E-006
 -5.011784887912740E-006
 -5.011784887913923E-006
 -5.011784887913224E-006
 -5.011784887913566E-006
 -5.011784887913982E-006
 -5.011784887912922E-006
 -5.011784887913195E-006
 -5.011784887912658E-006
 -5.011784887911828E-006
 -5.011784887911166E-006
 -5.011784887910994E-006
 -5.011784887912127E-006
 -5.011784887912405E-006
 -5.435142515372658E-006
 -5.435142515373246E-006
 -5.435142515373156E-006
 -5.435142515373305E-006
 -5.435142515372772E-006
 -5.435142515373090E-006
 -5.435142515372638E-006
 -5.435142515372109E-006
 -5.435142515372321E-006
 -5.435142515372401E-006
 -5.435142515371654E-006
 -5.435142515372775E-006
 -5.435142515372750E-006
 -5.435142515372313E-006
 -5.435142515372428E-006
 -5.862115434316524E-006
 -5.862115434316346E-006
 -5.862115434316147E-006
 -5.862115434316776E-006
 -5.862115434316178E-006
 -5.862115434315970E-006
 -5.862115434316062E-006
 -5.862115434315571E-006
 -5.862115434315196E-006
 -5.862115434314852E-006
 -5.862115434316413E-006
 -5.862115434316410E-006
 -5.862115434315989E-006
 -5.862115434315570E-006
 -5.862115434315985E-006
 -6.291725141687358E-006
 -6.291725141687343E-006
 -6.291725141688503E-006
 -6.291725141687117E-006
 -6.291725141686352E-006
 -6.291725141689263E-006
 -6.291725141689033E-006
 -6.291725141688700E-006
 -6.291725141688403E-006
 -6.291725141687094E-006
 -6.291725141687687E-006
 -6.291725141687065E-006
 -6.291725141687819E-006
 -6.291725141688238E-006
 -6.291725141687814E-006
 -6.722904007555800E-006
 -6.722904007556685E-006
 -6.722904007556861E-006
 -6.722904007557162E-006
 -6.722904007555710E-006
 -6.722904007555263E-006
 -6.722904007556559E-006
 -6.722904007557423E-006
 -6.722904007556865E-006
 -6.722904007556305E-006
 -6.722904007557330E-006
 -6.722904007557469E-006
 -6.722904007555555E-006
 -6.722904007556271E-006
 -6.722904007555015E-006
 -7.154490151780278E-006
 -7.154490151778394E-006
 -7.154490151778390E-006
 -7.154490151779588E-006
 -7.154490151779930E-006
 -7.154490151780163E-006
 -7.154490151779260E-006
 -7.154490151779929E-006
 -7.154490151777957E-006
 -7.154490151778036E-006
 -7.154490151778873E-006
 -7.154490151779178E-006
 -7.154490151778167E-006
 -7.154490151779610E-006
 -7.154490151778801E-006
 -7.585222315812501E-006
 -7.585222315811759E-006
 -7.585222315812097E-006
 -7.585222315812206E-006
 -7.585222315812154E-006
 -7.585222315812351E-006
 -7.585222315811972E-006
 -7.585222315811842E-006
 -7.585222315812885E-006
 -7.585222315812548E-006
 -7.585222315811178E-006
 -7.585222315810939E-006
 -7.585222315811929E-006
 -7.585222315810876E-006
 -7.585222315813129E-006
 -8.013734779723475E-006
 -8.013734779724347E-006
 -8.013734779724371E-006
 -8.013734779724107E-006
 -8.013734779723356E-006
 -8.013734779724135E-006
 -8.013734779722631E-006
 -8.013734779722755E-006
 -8.013734779722983E-006
 -8.013734779722655E-006
 -8.013734779723273E-006
 -8.013734779724352E-006
 -8.013734779724206E-006
 -8.013734779724440E-006
 -8.013734779724782E-006
 -8.438552383941051E-006
 -8.438552383941041E-006
 -8.438552383940377E-006
 -8.438552383940028E-006
 -8.438552383941066E-006
 -8.438552383941823E-006
 -8.438552383943029E-006
 -8.438552383941139E-006
 -8.438552383939723E-006
 -8.438552383941842E-006
 -8.438552383940227E-006
 -8.438552383942213E-006
 -8.438552383940643E-006
 -8.438552383941398E-006
 -8.438552383940920E-006
 -8.858085725889016E-006
 -8.858085725888535E-006
 -8.858085725890147E-006
 -8.858085725890412E-006
 -8.858085725890249E-006
 -8.858085725888853E-006
 -8.858085725890046E-006
 -8.858085725890049E-006
 -8.858085725889024E-006
 -8.858085725889480E-006
 -8.858085725889023E-006
 -8.858085725888724E-006
 -8.858085725889573E-006
 -8.858085725889846E-006
 -8.858085725890151E-006
 -9.270626613653083E-006
 -9.270626613652121E-006
 -9.270626613651230E-006
 -9.270626613651396E-006
 -9.270626613650639E-006
 -9.270626613652609E-006
 -9.270626613650867E-006
 -9.270626613651533E-006
 -9.270626613651799E-006
 -9.270626613651332E-006
 -9.270626613651328E-006
 -9.270626613651381E-006
 -9.270626613650815E-006
 -9.270626613651062E-006
 -9.270626613650019E-006
 -9.674343872067613E-006
 -9.674343872066654E-006
 -9.674343872066773E-006
 -9.674343872065499E-006
 -9.674343872065628E-006
 -9.674343872066204E-006
 -9.674343872066560E-006
 -9.674343872064965E-006
 -9.674343872064947E-006
 -9.674343872065765E-006
 -9.674343872065309E-006
 -9.674343872064994E-006
 -9.674343872066192E-006
 -9.674343872068765E-006
 -9.674343872065458E-006
 -1.006727961145584E-005
 -1.006727961145597E-005
 -1.006727961145630E-005
 -1.006727961145553E-005
 -1.006727961145583E-005
 -1.006727961145563E-005
 -1.006727961145604E-005
 -1.006727961145563E-005
 -1.006727961145647E-005
 -1.006727961145600E-005
 -1.006727961145577E-005
 -1.006727961145542E-005
 -1.006727961145489E-005
 -1.006727961145619E-005
 -1.006727961145498E-005
 -1.044734608541934E-005
 -1.044734608541816E-005
 -1.044734608542107E-005
 -1.044734608541930E-005
 -1.044734608541911E-005
 -1.044734608541851E-005
 -1.044734608541950E-005
 -1.044734608541891E-005
 -1.044734608542015E-005
 -1.044734608542121E-005
 -1.044734608542055E-005
 -1.044734608541892E-005
 -1.044734608542007E-005
 -1.044734608542091E-005
 -1.044734608541980E-005
 -1.081232328188739E-005
 -1.081232328188776E-005
 -1.081232328188714E-005
 -1.081232328188784E-005
 -1.081232328188687E-005
 -1.081232328188757E-005
 -1.081232328188752E-005
 -1.081232328188687E-005
 -1.081232328188831E-005
 -1.081232328188621E-005
 -1.081232328188705E-005
 -1.081232328188727E-005
 -1.081232328188730E-005
 -1.081232328188688E-005
 -1.081232328188675E-005
 -1.115985741096724E-005
 -1.115985741096734E-005
 -1.115985741096661E-005
 -1.115985741096622E-005
 -1.115985741096702E-005
 -1.115985741096733E-005
 -1.115985741096828E-005
 -1.115985741096784E-005
 -1.115985741096717E-005
 -1.115985741096720E-005
 -1.115985741096968E-005
 -1.115985741096888E-005
 -1.115985741096522E-005
 -1.115985741096704E-005
 -1.115985741096709E-005
 -1.148746047379499E-005
 -1.148746047379347E-005
 -1.148746047379502E-005
 -1.148746047379397E-005
 -1.148746047379451E-005
 -1.148746047379394E-005
 -1.148746047379304E-005
 -1.148746047379499E-005
 -1.148746047379340E-005
 -1.148746047379354E-005
 -1.148746047379377E-005
 -1.148746047379291E-005
 -1.148746047379391E-005
 -1.148746047379244E-005
 -1.148746047379013E-005
 -1.179251111876286E-005
 -1.179251111876296E-005
 -1.179251111876250E-005
 -1.179251111876121E-005
 -1.179251111876132E-005
 -1.179251111876285E-005
 -1.179251111876280E-005
 -1.179251111876114E-005
 -1.179251111876291E-005
 -1.179251111876127E-005
 -1.179251111876229E-005
 -1.179251111876230E-005
 -1.179251111876302E-005
 -1.179251111876216E-005
 -1.179251111876231E-005
 -1.207225701464734E-005
 -1.207225701464826E-005
 -1.207225701464813E-005
 -1.207225701464847E-005
 -1.207225701464927E-005
 -1.207225701464867E-005
 -1.207225701464691E-005
 -1.207225701464821E-005
 -1.207225701464870E-005
 -1.207225701464814E-005
 -1.207225701464933E-005
 -1.207225701464771E-005
 -1.207225701464805E-005
 -1.207225701464886E-005
 -1.207225701464721E-005
 -1.232381899420173E-005
 -1.232381899419995E-005
 -1.232381899419907E-005
 -1.232381899420065E-005
 -1.232381899420098E-005
 -1.232381899420186E-005
 -1.232381899420104E-005
 -1.232381899420099E-005
 -1.232381899420151E-005
 -1.232381899420080E-005
 -1.232381899420059E-005
 -1.232381899420063E-005
 -1.232381899420054E-005
 -1.232381899420037E-005
 -1.232381899420178E-005
 -1.254419724618134E-005
 -1.254419724618381E-005
 -1.254419724618369E-005
 -1.254419724618187E-005
 -1.254419724618280E-005
 -1.254419724618249E-005
 -1.254419724618258E-005
 -1.254419724618306E-005
 -1.254419724618252E-005
 -1.254419724618234E-005
 -1.254419724618281E-005
 -1.254419724618221E-005
 -1.254419724618128E-005
 -1.254419724618157E-005
 -1.254419724618249E-005
 -1.273027985790691E-005
 -1.273027985790683E-005
 -1.273027985790510E-005
 -1.273027985790744E-005
 -1.273027985790598E-005
 -1.273027985790501E-005
 -1.273027985790786E-005
 -1.273027985790742E-005
 -1.273027985790572E-005
 -1.273027985790754E-005
 -1.273027985790561E-005
 -1.273027985790692E-005
 -1.273027985790761E-005
 -1.273027985790678E-005
 -1.273027985790799E-005
 -1.287885403347932E-005
 -1.287885403347996E-005
 -1.287885403347937E-005
 -1.287885403347739E-005
 -1.287885403347750E-005
 -1.287885403347784E-005
 -1.287885403347837E-005
 -1.287885403347918E-005
 -1.287885403347766E-005
 -1.287885403347771E-005
 -1.287885403347857E-005
 -1.287885403347944E-005
 -1.287885403347879E-005
 -1.287885403347890E-005
 -1.287885403347912E-005
 -1.298662033372968E-005
 -1.298662033373063E-005
 -1.298662033373087E-005
 -1.298662033373251E-005
 -1.298662033373099E-005
 -1.298662033373285E-005
 -1.298662033373173E-005
 -1.298662033373216E-005
 -1.298662033373132E-005
 -1.298662033372943E-005
 -1.298662033373129E-005
 -1.298662033373244E-005
 -1.298662033373125E-005
 -1.298662033373073E-005
 -1.298662033373184E-005
 -1.305021030130684E-005
 -1.305021030130825E-005
 -1.305021030130790E-005
 -1.305021030130581E-005
 -1.305021030130569E-005
 -1.305021030130765E-005
 -1.305021030130864E-005
 -1.305021030130817E-005
 -1.305021030130954E-005
 -1.305021030130908E-005
 -1.305021030130772E-005
 -1.305021030130688E-005
 -1.305021030130614E-005
 -1.305021030130605E-005
 -1.305021030130741E-005
 -1.306620784635085E-005
 -1.306620784634708E-005
 -1.306620784634745E-005
 -1.306620784634842E-005
 -1.306620784634865E-005
 -1.306620784635025E-005
 -1.306620784634869E-005
 -1.306620784634678E-005
 -1.306620784634914E-005
 -1.306620784634884E-005
 -1.306620784634730E-005
 -1.306620784634772E-005
 -1.306620784634906E-005
 -1.306620784634860E-005
 -1.306620784634887E-005
 -1.303117477289090E-005
 -1.303117477289039E-005
 -1.303117477289012E-005
 -1.303117477289012E-005
 -1.303117477288910E-005
 -1.303117477289026E-005
 -1.303117477289082E-005
 -1.303117477288965E-005
 -1.303117477288851E-005
 -1.303117477288925E-005
 -1.303117477288856E-005
 -1.303117477289029E-005
 -1.303117477288829E-005
 -1.303117477288898E-005
 -1.303117477289016E-005
 -1.294168082053040E-005
 -1.294168082053223E-005
 -1.294168082053219E-005
 -1.294168082053149E-005
 -1.294168082053088E-005
 -1.294168082053108E-005
 -1.294168082053111E-005
 -1.294168082053056E-005
 -1.294168082053196E-005
 -1.294168082053350E-005
 -1.294168082053172E-005
 -1.294168082053160E-005
 -1.294168082053154E-005
 -1.294168082053191E-005
 -1.294168082053254E-005
 -1.279433857701778E-005
 -1.279433857701638E-005
 -1.279433857701548E-005
 -1.279433857701618E-005
 -1.279433857701734E-005
 -1.279433857701766E-005
 -1.279433857701644E-005
 -1.279433857701746E-005
 -1.279433857701592E-005
 -1.279433857701454E-005
 -1.279433857701482E-005
 -1.279433857701364E-005
 -1.279433857701527E-005
 -1.279433857701462E-005
 -1.279433857701382E-005
 -1.258584358119673E-005
 -1.258584358119590E-005
 -1.258584358119620E-005
 -1.258584358119868E-005
 -1.258584358119951E-005
 -1.258584358119761E-005
 -1.258584358119629E-005
 -1.258584358119587E-005
 -1.258584358119710E-005
 -1.258584358119590E-005
 -1.258584358119552E-005
 -1.258584358119897E-005
 -1.258584358119799E-005
 -1.258584358119750E-005
 -1.258584358119750E-005
 -1.231301987779223E-005
 -1.231301987779119E-005
 -1.231301987779080E-005
 -1.231301987779113E-005
 -1.231301987779162E-005
 -1.231301987779218E-005
 -1.231301987779230E-005
 -1.231301987779157E-005
 -1.231301987779197E-005
 -1.231301987779254E-005
 -1.231301987779246E-005
 -1.231301987779236E-005
 -1.231301987778991E-005
 -1.231301987779024E-005
 -1.231301987779114E-005
 -1.197287119999517E-005
 -1.197287119999333E-005
 -1.197287119999669E-005
 -1.197287119999404E-005
 -1.197287119999336E-005
 -1.197287119999445E-005
 -1.197287119999486E-005
 -1.197287119999279E-005
 -1.197287119999376E-005
 -1.197287119999377E-005
 -1.197287119999344E-005
 -1.197287119999432E-005
 -1.197287119999333E-005
 -1.197287119999250E-005
 -1.197287119999483E-005
 -1.156263783745733E-005
 -1.156263783745467E-005
 -1.156263783745645E-005
 -1.156263783745699E-005
 -1.156263783745565E-005
 -1.156263783745596E-005
 -1.156263783745536E-005
 -1.156263783745596E-005
 -1.156263783745538E-005
 -1.156263783745530E-005
 -1.156263783745673E-005
 -1.156263783745644E-005
 -1.156263783745459E-005
 -1.156263783745677E-005
 -1.156263783745675E-005
 -1.107985908825483E-005
 -1.107985908825696E-005
 -1.107985908825552E-005
 -1.107985908825523E-005
 -1.107985908825823E-005
 -1.107985908825864E-005
 -1.107985908825741E-005
 -1.107985908825735E-005
 -1.107985908825672E-005
 -1.107985908825650E-005
 -1.107985908825804E-005
 -1.107985908825538E-005
 -1.107985908825698E-005
 -1.107985908825603E-005
 -1.107985908825713E-005
 -1.052244098705512E-005
 -1.052244098705564E-005
 -1.052244098705698E-005
 -1.052244098705397E-005
 -1.052244098705565E-005
 -1.052244098705550E-005
 -1.052244098705464E-005
 -1.052244098705483E-005
 -1.052244098705710E-005
 -1.052244098705633E-005
 -1.052244098705396E-005
 -1.052244098705380E-005
 -1.052244098705568E-005
 -1.052244098705586E-005
 -1.052244098705477E-005
 -9.888728739781509E-006
 -9.888728739782227E-006
 -9.888728739780933E-006
 -9.888728739781855E-006
 -9.888728739781489E-006
 -9.888728739783117E-006
 -9.888728739783650E-006
 -9.888728739783210E-006
 -9.888728739782031E-006
 -9.888728739781119E-006
 -9.888728739785277E-006
 -9.888728739785448E-006
 -9.888728739782973E-006
 -9.888728739782507E-006
 -9.888728739783764E-006
 -9.177582970195338E-006
 -9.177582970197165E-006
 -9.177582970198481E-006
 -9.177582970199562E-006
 -9.177582970198684E-006
 -9.177582970195765E-006
 -9.177582970197403E-006
 -9.177582970197500E-006
 -9.177582970196805E-006
 -9.177582970196912E-006
 -9.177582970198984E-006
 -9.177582970198781E-006
 -9.177582970197778E-006
 -9.177582970198118E-006
 -9.177582970198574E-006
 -8.388458488728722E-006
 -8.388458488728245E-006
 -8.388458488727088E-006
 -8.388458488727802E-006
 -8.388458488727903E-006
 -8.388458488729104E-006
 -8.388458488728837E-006
 -8.388458488729037E-006
 -8.388458488728644E-006
 -8.388458488728284E-006
 -8.388458488725886E-006
 -8.388458488726790E-006
 -8.388458488728942E-006
 -8.388458488728169E-006
 -8.388458488728749E-006
 -7.521483824064575E-006
 -7.521483824062805E-006
 -7.521483824060548E-006
 -7.521483824061918E-006
 -7.521483824061708E-006
 -7.521483824062155E-006
 -7.521483824063425E-006
 -7.521483824063824E-006
 -7.521483824063519E-006
 -7.521483824062717E-006
 -7.521483824064073E-006
 -7.521483824064420E-006
 -7.521483824062856E-006
 -7.521483824063302E-006
 -7.521483824063132E-006
 -6.577539211764635E-006
 -6.577539211766387E-006
 -6.577539211766113E-006
 -6.577539211765000E-006
 -6.577539211763786E-006
 -6.577539211763301E-006
 -6.577539211763810E-006
 -6.577539211764350E-006
 -6.577539211764810E-006
 -6.577539211763842E-006
 -6.577539211767980E-006
 -6.577539211764050E-006
 -6.577539211765143E-006
 -6.577539211763076E-006
 -6.577539211764461E-006
 -5.558330116165325E-006
 -5.558330116166743E-006
 -5.558330116168617E-006
 -5.558330116167346E-006
 -5.558330116167714E-006
 -5.558330116168200E-006
 -5.558330116168139E-006
 -5.558330116166269E-006
 -5.558330116166058E-006
 -5.558330116168750E-006
 -5.558330116166318E-006
 -5.558330116168490E-006
 -5.558330116169079E-006
 -5.558330116169629E-006
 -5.558330116168536E-006
 -4.466452686273211E-006
 -4.466452686274839E-006
 -4.466452686275995E-006
 -4.466452686278242E-006
 -4.466452686277527E-006
 -4.466452686277109E-006
 -4.466452686275808E-006
 -4.466452686275142E-006
 -4.466452686276837E-006
 -4.466452686276259E-006
 -4.466452686276297E-006
 -4.466452686273699E-006
 -4.466452686274063E-006
 -4.466452686273432E-006
 -4.466452686276567E-006
 -3.305446841705975E-006
 -3.305446841703922E-006
 -3.305446841701789E-006
 -3.305446841701364E-006
 -3.305446841701949E-006
 -3.305446841702700E-006
 -3.305446841703390E-006
 -3.305446841702842E-006
 -3.305446841702509E-006
 -3.305446841701601E-006
 -3.305446841702682E-006
 -3.305446841702687E-006
 -3.305446841703365E-006
 -3.305446841703677E-006
 -3.305446841702750E-006
 -2.079832000968829E-006
 -2.079832000966288E-006
 -2.079832000968982E-006
 -2.079832000970120E-006
 -2.079832000970352E-006
 -2.079832000967084E-006
 -2.079832000967691E-006
 -2.079832000969717E-006
 -2.079832000969830E-006
 -2.079832000969623E-006
 -2.079832000968432E-006
 -2.079832000967273E-006
 -2.079832000968362E-006
 -2.079832000968247E-006
 -2.079832000967800E-006
 -7.951198825520803E-007
 -7.951198825533262E-007
 -7.951198825508784E-007
 -7.951198825512177E-007
 -7.951198825519929E-007
 -7.951198825536742E-007
 -7.951198825513112E-007
 -7.951198825518061E-007
 -7.951198825532427E-007
 -7.951198825521985E-007
 -7.951198825534362E-007
 -7.951198825538549E-007
 -7.951198825526747E-007
 -7.951198825543907E-007
 -7.951198825526540E-007
  5.422015449873581E-007
  5.422015449870665E-007
  5.422015449883336E-007
  5.422015449889500E-007
  5.422015449880120E-007
  5.422015449872784E-007
  5.422015449871361E-007
  5.422015449879066E-007
  5.422015449875510E-007
  5.422015449883035E-007
  5.422015449876383E-007
  5.422015449869401E-007
  5.422015449870306E-007
  5.422015449883563E-007
  5.422015449888898E-007
  1.924718825625057E-006
  1.924718825624788E-006
  1.924718825623298E-006
  1.924718825622803E-006
  1.924718825626277E-006
  1.924718825624379E-006
  1.924718825624753E-006
  1.924718825624319E-006
  1.924718825623829E-006
  1.924718825622132E-006
  1.924718825625192E-006
  1.924718825624541E-006
  1.924718825626078E-006
  1.924718825624800E-006
  1.924718825624528E-006
  3.344183597695605E-006
  3.344183597694413E-006
  3.344183597691722E-006
  3.344183597692118E-006
  3.344183597693846E-006
  3.344183597695000E-006
  3.344183597693771E-006
  3.344183597693065E-006
  3.344183597693147E-006
  3.344183597695369E-006
  3.344183597695344E-006
  3.344183597695210E-006
  3.344183597695153E-006
  3.344183597693224E-006
  3.344183597694065E-006
  4.791646253341714E-006
  4.791646253339897E-006
  4.791646253340638E-006
  4.791646253339724E-006
  4.791646253338340E-006
  4.791646253340512E-006
  4.791646253340387E-006
  4.791646253339149E-006
  4.791646253337767E-006
  4.791646253340274E-006
  4.791646253339487E-006
  4.791646253339296E-006
  4.791646253339534E-006
  4.791646253339343E-006
  4.791646253340769E-006
  6.257632423655988E-006
  6.257632423655790E-006
  6.257632423654148E-006
  6.257632423656413E-006
  6.257632423656451E-006
  6.257632423654612E-006
  6.257632423655169E-006
  6.257632423656410E-006
  6.257632423655895E-006
  6.257632423655517E-006
  6.257632423654961E-006
  6.257632423656730E-006
  6.257632423655646E-006
  6.257632423654416E-006
  6.257632423655370E-006
SCALARS poroP double 
LOOKUP_TABLE default
  0.000000000000000E+000
  0.000000000000000E+000
  0.000000000000000E+000
  0.000000000000000E+000
  0.000000000000000E+000
  0.000000000000000E+000
  0.000000000000000E+000
  0.000000000000000E+000
  0.000000000000000E+000
  0.000000000000000E+000
  0.000000000000000E+000
  0.000000000000000E+000
  0.000000000000000E+000
  0.000000000000000E+000
  0.000000000000000E+000
  0.000000000000000E+000
  0.000000000000000E+000
  0.000000000000000E+000
  0.000000000000000E+000
  0.000000000000000E+000
  0.000000000000000E+000
  0.000000000000000E+000
  0.000000000000000E+000
  0.000000000000000E+000
  0.000000000000000E+000
  0.000000000000000E+000
  0.000000000000000E+000
  0.000000000000000E+000
  0.000000000000000E+000
  0.000000000000000E+000
  0.000000000000000E+000
  0.000000000000000E+000
  0.000000000000000E+000
  0.000000000000000E+000
  0.000000000000000E+000
  0.000000000000000E+000
  0.000000000000000E+000
  0.000000000000000E+000
  0.000000000000000E+000
  0.000000000000000E+000
  0.000000000000000E+000
  0.000000000000000E+000
  0.000000000000000E+000
  0.000000000000000E+000
  0.000000000000000E+000
  0.000000000000000E+000
  0.000000000000000E+000
  0.000000000000000E+000
  0.000000000000000E+000
  0.000000000000000E+000
  0.000000000000000E+000
  0.000000000000000E+000
  0.000000000000000E+000
  0.000000000000000E+000
  0.000000000000000E+000
  0.000000000000000E+000
  0.000000000000000E+000
  0.000000000000000E+000
  0.000000000000000E+000
  0.000000000000000E+000
  0.000000000000000E+000
  0.000000000000000E+000
  0.000000000000000E+000
  0.000000000000000E+000
  0.000000000000000E+000
  0.000000000000000E+000
  0.000000000000000E+000
  0.000000000000000E+000
  0.000000000000000E+000
  0.000000000000000E+000
  0.000000000000000E+000
  0.000000000000000E+000
  0.000000000000000E+000
  0.000000000000000E+000
  0.000000000000000E+000
  0.000000000000000E+000
  0.000000000000000E+000
  0.000000000000000E+000
  0.000000000000000E+000
  0.000000000000000E+000
  0.000000000000000E+000
  0.000000000000000E+000
  0.000000000000000E+000
  0.000000000000000E+000
  0.000000000000000E+000
  0.000000000000000E+000
  0.000000000000000E+000
  0.000000000000000E+000
  0.000000000000000E+000
  0.000000000000000E+000
  0.000000000000000E+000
  0.000000000000000E+000
  0.000000000000000E+000
  0.000000000000000E+000
  0.000000000000000E+000
  0.000000000000000E+000
  0.000000000000000E+000
  0.000000000000000E+000
  0.000000000000000E+000
  0.000000000000000E+000
  0.000000000000000E+000
  0.000000000000000E+000
  0.000000000000000E+000
  0.000000000000000E+000
  0.000000000000000E+000
  0.000000000000000E+000
  0.000000000000000E+000
  0.000000000000000E+000
  0.000000000000000E+000
  0.000000000000000E+000
  0.000000000000000E+000
  0.000000000000000E+000
  0.000000000000000E+000
  0.000000000000000E+000
  0.000000000000000E+000
  0.000000000000000E+000
  0.000000000000000E+000
  0.000000000000000E+000
  0.000000000000000E+000
  0.000000000000000E+000
  0.000000000000000E+000
  0.000000000000000E+000
  0.000000000000000E+000
  0.000000000000000E+000
  0.000000000000000E+000
  0.000000000000000E+000
  0.000000000000000E+000
  0.000000000000000E+000
  0.000000000000000E+000
  0.000000000000000E+000
  0.000000000000000E+000
  0.000000000000000E+000
  0.000000000000000E+000
  0.000000000000000E+000
  0.000000000000000E+000
  0.000000000000000E+000
  0.000000000000000E+000
  0.000000000000000E+000
  0.000000000000000E+000
  0.000000000000000E+000
  0.000000000000000E+000
  0.000000000000000E+000
  0.000000000000000E+000
  0.000000000000000E+000
  0.000000000000000E+000
  0.000000000000000E+000
  0.000000000000000E+000
  0.000000000000000E+000
  0.000000000000000E+000
  0.000000000000000E+000
  0.000000000000000E+000
  0.000000000000000E+000
  0.000000000000000E+000
  0.000000000000000E+000
  0.000000000000000E+000
  0.000000000000000E+000
  0.000000000000000E+000
  0.000000000000000E+000
  0.000000000000000E+000
  0.000000000000000E+000
  0.000000000000000E+000
  0.000000000000000E+000
  0.000000000000000E+000
  0.000000000000000E+000
  0.000000000000000E+000
  0.000000000000000E+000
  0.000000000000000E+000
  0.000000000000000E+000
  0.000000000000000E+000
  0.000000000000000E+000
  0.000000000000000E+000
  0.000000000000000E+000
  0.000000000000000E+000
  0.000000000000000E+000
  0.000000000000000E+000
  0.000000000000000E+000
  0.000000000000000E+000
  0.000000000000000E+000
  0.000000000000000E+000
  0.000000000000000E+000
  0.000000000000000E+000
  0.000000000000000E+000
  0.000000000000000E+000
  0.000000000000000E+000
  0.000000000000000E+000
  0.000000000000000E+000
  0.000000000000000E+000
  0.000000000000000E+000
  0.000000000000000E+000
  0.000000000000000E+000
  0.000000000000000E+000
  0.000000000000000E+000
  0.000000000000000E+000
  0.000000000000000E+000
  0.000000000000000E+000
  0.000000000000000E+000
  0.000000000000000E+000
  0.000000000000000E+000
  0.000000000000000E+000
  0.000000000000000E+000
  0.000000000000000E+000
  0.000000000000000E+000
  0.000000000000000E+000
  0.000000000000000E+000
  0.000000000000000E+000
  0.000000000000000E+000
  0.000000000000000E+000
  0.000000000000000E+000
  0.000000000000000E+000
  0.000000000000000E+000
  0.000000000000000E+000
  0.000000000000000E+000
  0.000000000000000E+000
  0.000000000000000E+000
  0.000000000000000E+000
  0.000000000000000E+000
  0.000000000000000E+000
  0.000000000000000E+000
  0.000000000000000E+000
  0.000000000000000E+000
  0.000000000000000E+000
  0.000000000000000E+000
  0.000000000000000E+000
  0.000000000000000E+000
  0.000000000000000E+000
  0.000000000000000E+000
  0.000000000000000E+000
  0.000000000000000E+000
  0.000000000000000E+000
  0.000000000000000E+000
  0.000000000000000E+000
  0.000000000000000E+000
  0.000000000000000E+000
  0.000000000000000E+000
  0.000000000000000E+000
  0.000000000000000E+000
  0.000000000000000E+000
  0.000000000000000E+000
  0.000000000000000E+000
  0.000000000000000E+000
  0.000000000000000E+000
  0.000000000000000E+000
  0.000000000000000E+000
  0.000000000000000E+000
  0.000000000000000E+000
  0.000000000000000E+000
  0.000000000000000E+000
  0.000000000000000E+000
  0.000000000000000E+000
  0.000000000000000E+000
  0.000000000000000E+000
  0.000000000000000E+000
  0.000000000000000E+000
  0.000000000000000E+000
  0.000000000000000E+000
  0.000000000000000E+000
  0.000000000000000E+000
  0.000000000000000E+000
  0.000000000000000E+000
  0.000000000000000E+000
  0.000000000000000E+000
  0.000000000000000E+000
  0.000000000000000E+000
  0.000000000000000E+000
  0.000000000000000E+000
  0.000000000000000E+000
  0.000000000000000E+000
  0.000000000000000E+000
  0.000000000000000E+000
  0.000000000000000E+000
  0.000000000000000E+000
  0.000000000000000E+000
  0.000000000000000E+000
  0.000000000000000E+000
  0.000000000000000E+000
  0.000000000000000E+000
  0.000000000000000E+000
  0.000000000000000E+000
  0.000000000000000E+000
  0.000000000000000E+000
  0.000000000000000E+000
  0.000000000000000E+000
  0.000000000000000E+000
  0.000000000000000E+000
  0.000000000000000E+000
  0.000000000000000E+000
  0.000000000000000E+000
  0.000000000000000E+000
  0.000000000000000E+000
  0.000000000000000E+000
  0.000000000000000E+000
  0.000000000000000E+000
  0.000000000000000E+000
  0.000000000000000E+000
  0.000000000000000E+000
  0.000000000000000E+000
  0.000000000000000E+000
  0.000000000000000E+000
  0.000000000000000E+000
  0.000000000000000E+000
  0.000000000000000E+000
  0.000000000000000E+000
  0.000000000000000E+000
  0.000000000000000E+000
  0.000000000000000E+000
  0.000000000000000E+000
  0.000000000000000E+000
  0.000000000000000E+000
  0.000000000000000E+000
  0.000000000000000E+000
  0.000000000000000E+000
  0.000000000000000E+000
  0.000000000000000E+000
  0.000000000000000E+000
  0.000000000000000E+000
  0.000000000000000E+000
  0.000000000000000E+000
  0.000000000000000E+000
  0.000000000000000E+000
  0.000000000000000E+000
  0.000000000000000E+000
  0.000000000000000E+000
  0.000000000000000E+000
  0.000000000000000E+000
  0.000000000000000E+000
  0.000000000000000E+000
  0.000000000000000E+000
  0.000000000000000E+000
  0.000000000000000E+000
  0.000000000000000E+000
  0.000000000000000E+000
  0.000000000000000E+000
  0.000000000000000E+000
  0.000000000000000E+000
  0.000000000000000E+000
  0.000000000000000E+000
  0.000000000000000E+000
  0.000000000000000E+000
  0.000000000000000E+000
  0.000000000000000E+000
  0.000000000000000E+000
  0.000000000000000E+000
  0.000000000000000E+000
  0.000000000000000E+000
  0.000000000000000E+000
  0.000000000000000E+000
  0.000000000000000E+000
  0.000000000000000E+000
  0.000000000000000E+000
  0.000000000000000E+000
  0.000000000000000E+000
  0.000000000000000E+000
  0.000000000000000E+000
  0.000000000000000E+000
  0.000000000000000E+000
  0.000000000000000E+000
  0.000000000000000E+000
  0.000000000000000E+000
  0.000000000000000E+000
  0.000000000000000E+000
  0.000000000000000E+000
  0.000000000000000E+000
  0.000000000000000E+000
  0.000000000000000E+000
  0.000000000000000E+000
  0.000000000000000E+000
  0.000000000000000E+000
  0.000000000000000E+000
  0.000000000000000E+000
  0.000000000000000E+000
  0.000000000000000E+000
  0.000000000000000E+000
  0.000000000000000E+000
  0.000000000000000E+000
  0.000000000000000E+000
  0.000000000000000E+000
  0.000000000000000E+000
  0.000000000000000E+000
  0.000000000000000E+000
  0.000000000000000E+000
  0.000000000000000E+000
  0.000000000000000E+000
  0.000000000000000E+000
  0.000000000000000E+000
  0.000000000000000E+000
  0.000000000000000E+000
  0.000000000000000E+000
  0.000000000000000E+000
  0.000000000000000E+000
  0.000000000000000E+000
  0.000000000000000E+000
  0.000000000000000E+000
  0.000000000000000E+000
  0.000000000000000E+000
  0.000000000000000E+000
  0.000000000000000E+000
  0.000000000000000E+000
  0.000000000000000E+000
  0.000000000000000E+000
  0.000000000000000E+000
  0.000000000000000E+000
  0.000000000000000E+000
  0.000000000000000E+000
  0.000000000000000E+000
  0.000000000000000E+000
  0.000000000000000E+000
  0.000000000000000E+000
  0.000000000000000E+000
  0.000000000000000E+000
  0.000000000000000E+000
  0.000000000000000E+000
  0.000000000000000E+000
  0.000000000000000E+000
  0.000000000000000E+000
  0.000000000000000E+000
  0.000000000000000E+000
  0.000000000000000E+000
  0.000000000000000E+000
  0.000000000000000E+000
  0.000000000000000E+000
  0.000000000000000E+000
  0.000000000000000E+000
  0.000000000000000E+000
  0.000000000000000E+000
  0.000000000000000E+000
  0.000000000000000E+000
  0.000000000000000E+000
  0.000000000000000E+000
  0.000000000000000E+000
  0.000000000000000E+000
  0.000000000000000E+000
  0.000000000000000E+000
  0.000000000000000E+000
  0.000000000000000E+000
  0.000000000000000E+000
  0.000000000000000E+000
  0.000000000000000E+000
  0.000000000000000E+000
  0.000000000000000E+000
  0.000000000000000E+000
  0.000000000000000E+000
  0.000000000000000E+000
  0.000000000000000E+000
  0.000000000000000E+000
  0.000000000000000E+000
  0.000000000000000E+000
  0.000000000000000E+000
  0.000000000000000E+000
  0.000000000000000E+000
  0.000000000000000E+000
  0.000000000000000E+000
  0.000000000000000E+000
  0.000000000000000E+000
  0.000000000000000E+000
  0.000000000000000E+000
  0.000000000000000E+000
  0.000000000000000E+000
  0.000000000000000E+000
  0.000000000000000E+000
  0.000000000000000E+000
  0.000000000000000E+000
  0.000000000000000E+000
  0.000000000000000E+000
  0.000000000000000E+000
  0.000000000000000E+000
  0.000000000000000E+000
  0.000000000000000E+000
  0.000000000000000E+000
  0.000000000000000E+000
  0.000000000000000E+000
  0.000000000000000E+000
  0.000000000000000E+000
  0.000000000000000E+000
  0.000000000000000E+000
  0.000000000000000E+000
  0.000000000000000E+000
  0.000000000000000E+000
  0.000000000000000E+000
  0.000000000000000E+000
  0.000000000000000E+000
  0.000000000000000E+000
  0.000000000000000E+000
  0.000000000000000E+000
  0.000000000000000E+000
  0.000000000000000E+000
  0.000000000000000E+000
  0.000000000000000E+000
  0.000000000000000E+000
  0.000000000000000E+000
  0.000000000000000E+000
  0.000000000000000E+000
  0.000000000000000E+000
  0.000000000000000E+000
  0.000000000000000E+000
  0.000000000000000E+000
  0.000000000000000E+000
  0.000000000000000E+000
  0.000000000000000E+000
  0.000000000000000E+000
  0.000000000000000E+000
  0.000000000000000E+000
  0.000000000000000E+000
  0.000000000000000E+000
  0.000000000000000E+000
  0.000000000000000E+000
  0.000000000000000E+000
  0.000000000000000E+000
  0.000000000000000E+000
  0.000000000000000E+000
  0.000000000000000E+000
  0.000000000000000E+000
  0.000000000000000E+000
  0.000000000000000E+000
  0.000000000000000E+000
  0.000000000000000E+000
  0.000000000000000E+000
  0.000000000000000E+000
  0.000000000000000E+000
  0.000000000000000E+000
  0.000000000000000E+000
  0.000000000000000E+000
  0.000000000000000E+000
  0.000000000000000E+000
  0.000000000000000E+000
  0.000000000000000E+000
  0.000000000000000E+000
  0.000000000000000E+000
  0.000000000000000E+000
  0.000000000000000E+000
  0.000000000000000E+000
  0.000000000000000E+000
  0.000000000000000E+000
  0.000000000000000E+000
  0.000000000000000E+000
  0.000000000000000E+000
  0.000000000000000E+000
  0.000000000000000E+000
  0.000000000000000E+000
  0.000000000000000E+000
  0.000000000000000E+000
  0.000000000000000E+000
  0.000000000000000E+000
  0.000000000000000E+000
  0.000000000000000E+000
  0.000000000000000E+000
  0.000000000000000E+000
  0.000000000000000E+000
  0.000000000000000E+000
  0.000000000000000E+000
  0.000000000000000E+000
  0.000000000000000E+000
  0.000000000000000E+000
  0.000000000000000E+000
  0.000000000000000E+000
  0.000000000000000E+000
  0.000000000000000E+000
  0.000000000000000E+000
  0.000000000000000E+000
  0.000000000000000E+000
  0.000000000000000E+000
  0.000000000000000E+000
  0.000000000000000E+000
  0.000000000000000E+000
  0.000000000000000E+000
  0.000000000000000E+000
  0.000000000000000E+000
  0.000000000000000E+000
  0.000000000000000E+000
  0.000000000000000E+000
  0.000000000000000E+000
  0.000000000000000E+000
  0.000000000000000E+000
  0.000000000000000E+000
  0.000000000000000E+000
  0.000000000000000E+000
  0.000000000000000E+000
  0.000000000000000E+000
  0.000000000000000E+000
  0.000000000000000E+000
  0.000000000000000E+000
  0.000000000000000E+000
  0.000000000000000E+000
  0.000000000000000E+000
  0.000000000000000E+000
  0.000000000000000E+000
  0.000000000000000E+000
  0.000000000000000E+000
  0.000000000000000E+000
  0.000000000000000E+000
  0.000000000000000E+000
  0.000000000000000E+000
  0.000000000000000E+000
  0.000000000000000E+000
  0.000000000000000E+000
  0.000000000000000E+000
  0.000000000000000E+000
  0.000000000000000E+000
  0.000000000000000E+000
  0.000000000000000E+000
  0.000000000000000E+000
  0.000000000000000E+000
  0.000000000000000E+000
  0.000000000000000E+000
  0.000000000000000E+000
  0.000000000000000E+000
  0.000000000000000E+000
  0.000000000000000E+000
  0.000000000000000E+000
  0.000000000000000E+000
  0.000000000000000E+000
  0.000000000000000E+000
  0.000000000000000E+000
  0.000000000000000E+000
  0.000000000000000E+000
  0.000000000000000E+000
  0.000000000000000E+000
  0.000000000000000E+000
  0.000000000000000E+000
  0.000000000000000E+000
  0.000000000000000E+000
  0.000000000000000E+000
  0.000000000000000E+000
  0.000000000000000E+000
  0.000000000000000E+000
  0.000000000000000E+000
  0.000000000000000E+000
  0.000000000000000E+000
  0.000000000000000E+000
  0.000000000000000E+000
  0.000000000000000E+000
  0.000000000000000E+000
  0.000000000000000E+000
  0.000000000000000E+000
  0.000000000000000E+000
  0.000000000000000E+000
  0.000000000000000E+000
  0.000000000000000E+000
  0.000000000000000E+000
  0.000000000000000E+000
  0.000000000000000E+000
  0.000000000000000E+000
  0.000000000000000E+000
  0.000000000000000E+000
  0.000000000000000E+000
  0.000000000000000E+000
  0.000000000000000E+000
  0.000000000000000E+000
  0.000000000000000E+000
  0.000000000000000E+000
  0.000000000000000E+000
  0.000000000000000E+000
  0.000000000000000E+000
  0.000000000000000E+000
  0.000000000000000E+000
  0.000000000000000E+000
  0.000000000000000E+000
  0.000000000000000E+000
  0.000000000000000E+000
  0.000000000000000E+000
  0.000000000000000E+000
  0.000000000000000E+000
  0.000000000000000E+000
  0.000000000000000E+000
  0.000000000000000E+000
  0.000000000000000E+000
  0.000000000000000E+000
  0.000000000000000E+000
  0.000000000000000E+000
  0.000000000000000E+000
  0.000000000000000E+000
  0.000000000000000E+000
  0.000000000000000E+000
  0.000000000000000E+000
  0.000000000000000E+000
  0.000000000000000E+000
  0.000000000000000E+000
  0.000000000000000E+000
  0.000000000000000E+000
  0.000000000000000E+000
  0.000000000000000E+000
  0.000000000000000E+000
  0.000000000000000E+000
  0.000000000000000E+000
  0.000000000000000E+000
  0.000000000000000E+000
  0.000000000000000E+000
  0.000000000000000E+000
  0.000000000000000E+000
  0.000000000000000E+000
  0.000000000000000E+000
  0.000000000000000E+000
  0.000000000000000E+000
  0.000000000000000E+000
  0.000000000000000E+000
  0.000000000000000E+000
  0.000000000000000E+000
  0.000000000000000E+000
  0.000000000000000E+000
  0.000000000000000E+000
  0.000000000000000E+000
  0.000000000000000E+000
  0.000000000000000E+000
  0.000000000000000E+000
  0.000000000000000E+000
  0.000000000000000E+000
  0.000000000000000E+000
  0.000000000000000E+000
  0.000000000000000E+000
  0.000000000000000E+000
  0.000000000000000E+000
  0.000000000000000E+000
  0.000000000000000E+000
  0.000000000000000E+000
  0.000000000000000E+000
  0.000000000000000E+000
  0.000000000000000E+000
  0.000000000000000E+000
  0.000000000000000E+000
  0.000000000000000E+000
  0.000000000000000E+000
  0.000000000000000E+000
  0.000000000000000E+000
  0.000000000000000E+000
  0.000000000000000E+000
  0.000000000000000E+000
  0.000000000000000E+000
  0.000000000000000E+000
  0.000000000000000E+000
  0.000000000000000E+000
  0.000000000000000E+000
  0.000000000000000E+000
  0.000000000000000E+000
  0.000000000000000E+000
  0.000000000000000E+000
  0.000000000000000E+000
  0.000000000000000E+000
  0.000000000000000E+000
  0.000000000000000E+000
  0.000000000000000E+000
  0.000000000000000E+000
  0.000000000000000E+000
  0.000000000000000E+000
  0.000000000000000E+000
  0.000000000000000E+000
  0.000000000000000E+000
  0.000000000000000E+000
  0.000000000000000E+000
  0.000000000000000E+000
  0.000000000000000E+000
  0.000000000000000E+000
  0.000000000000000E+000
  0.000000000000000E+000
  0.000000000000000E+000
  0.000000000000000E+000
  0.000000000000000E+000
  0.000000000000000E+000
  0.000000000000000E+000
  0.000000000000000E+000
  0.000000000000000E+000
  0.000000000000000E+000
  0.000000000000000E+000
  0.000000000000000E+000
  0.000000000000000E+000
  0.000000000000000E+000
  0.000000000000000E+000
  0.000000000000000E+000
  0.000000000000000E+000
  0.000000000000000E+000
  0.000000000000000E+000
  0.000000000000000E+000
  0.000000000000000E+000
  0.000000000000000E+000
  0.000000000000000E+000
  0.000000000000000E+000
  0.000000000000000E+000
  0.000000000000000E+000
  0.000000000000000E+000
  0.000000000000000E+000
  0.000000000000000E+000
  0.000000000000000E+000
  0.000000000000000E+000
  0.000000000000000E+000
  0.000000000000000E+000
  0.000000000000000E+000
  0.000000000000000E+000
  0.000000000000000E+000
  0.000000000000000E+000
  0.000000000000000E+000
  0.000000000000000E+000
  0.000000000000000E+000
  0.000000000000000E+000
  0.000000000000000E+000
  0.000000000000000E+000
  0.000000000000000E+000
  0.000000000000000E+000
  0.000000000000000E+000
  0.000000000000000E+000
  0.000000000000000E+000
  0.000000000000000E+000
  0.000000000000000E+000
  0.000000000000000E+000
  0.000000000000000E+000
  0.000000000000000E+000
  0.000000000000000E+000
  0.000000000000000E+000
  0.000000000000000E+000
  0.000000000000000E+000
  0.000000000000000E+000
  0.000000000000000E+000
  0.000000000000000E+000
  0.000000000000000E+000
  0.000000000000000E+000
  0.000000000000000E+000
  0.000000000000000E+000
  0.000000000000000E+000
  0.000000000000000E+000
  0.000000000000000E+000
  0.000000000000000E+000
  0.000000000000000E+000
  0.000000000000000E+000
  0.000000000000000E+000
  0.000000000000000E+000
  0.000000000000000E+000
  0.000000000000000E+000
  0.000000000000000E+000
  0.000000000000000E+000
  0.000000000000000E+000
  0.000000000000000E+000
  0.000000000000000E+000
  0.000000000000000E+000
  0.000000000000000E+000
  0.000000000000000E+000
  0.000000000000000E+000
  0.000000000000000E+000
  0.000000000000000E+000
  0.000000000000000E+000
  0.000000000000000E+000
  0.000000000000000E+000
  0.000000000000000E+000
  0.000000000000000E+000
  0.000000000000000E+000
  0.000000000000000E+000
  0.000000000000000E+000
  0.000000000000000E+000
  0.000000000000000E+000
  0.000000000000000E+000
  0.000000000000000E+000
  0.000000000000000E+000
  0.000000000000000E+000
  0.000000000000000E+000
  0.000000000000000E+000
  0.000000000000000E+000
  0.000000000000000E+000
  0.000000000000000E+000
  0.000000000000000E+000
  0.000000000000000E+000
  0.000000000000000E+000
  0.000000000000000E+000
  0.000000000000000E+000
  0.000000000000000E+000
  0.000000000000000E+000
  0.000000000000000E+000
  0.000000000000000E+000
  0.000000000000000E+000
  0.000000000000000E+000
  0.000000000000000E+000
  0.000000000000000E+000
  0.000000000000000E+000
  0.000000000000000E+000
  0.000000000000000E+000
  0.000000000000000E+000
  0.000000000000000E+000
  0.000000000000000E+000
  0.000000000000000E+000
  0.000000000000000E+000
  0.000000000000000E+000
  0.000000000000000E+000
  0.000000000000000E+000
  0.000000000000000E+000
  0.000000000000000E+000
  0.000000000000000E+000
  0.000000000000000E+000
  0.000000000000000E+000
  0.000000000000000E+000
  0.000000000000000E+000
  0.000000000000000E+000
  0.000000000000000E+000
  0.000000000000000E+000
  0.000000000000000E+000
  0.000000000000000E+000
  0.000000000000000E+000
  0.000000000000000E+000
  0.000000000000000E+000
  0.000000000000000E+000
  0.000000000000000E+000
  0.000000000000000E+000
  0.000000000000000E+000
  0.000000000000000E+000
  0.000000000000000E+000
  0.000000000000000E+000
  0.000000000000000E+000
  0.000000000000000E+000
  0.000000000000000E+000
  0.000000000000000E+000
  0.000000000000000E+000
  0.000000000000000E+000
  0.000000000000000E+000
  0.000000000000000E+000
  0.000000000000000E+000
  0.000000000000000E+000
  0.000000000000000E+000
  0.000000000000000E+000
  0.000000000000000E+000
  0.000000000000000E+000
  0.000000000000000E+000
  0.000000000000000E+000
  0.000000000000000E+000
  0.000000000000000E+000
  0.000000000000000E+000
  0.000000000000000E+000
  0.000000000000000E+000
  0.000000000000000E+000
  0.000000000000000E+000
  0.000000000000000E+000
  0.000000000000000E+000
  0.000000000000000E+000
  0.000000000000000E+000
  0.000000000000000E+000
  0.000000000000000E+000
  0.000000000000000E+000
  0.000000000000000E+000
  0.000000000000000E+000
  0.000000000000000E+000
  0.000000000000000E+000
  0.000000000000000E+000
  0.000000000000000E+000
  0.000000000000000E+000
  0.000000000000000E+000
  0.000000000000000E+000
  0.000000000000000E+000
  0.000000000000000E+000
  0.000000000000000E+000
  0.000000000000000E+000
  0.000000000000000E+000
  0.000000000000000E+000
  0.000000000000000E+000
  0.000000000000000E+000
  0.000000000000000E+000
  0.000000000000000E+000
  0.000000000000000E+000
  0.000000000000000E+000
  0.000000000000000E+000
  0.000000000000000E+000
  0.000000000000000E+000
  0.000000000000000E+000
  0.000000000000000E+000
  0.000000000000000E+000
  0.000000000000000E+000
  0.000000000000000E+000
  0.000000000000000E+000
  0.000000000000000E+000
  0.000000000000000E+000
  0.000000000000000E+000
  0.000000000000000E+000
  0.000000000000000E+000
  0.000000000000000E+000
  0.000000000000000E+000
  0.000000000000000E+000
  0.000000000000000E+000
  0.000000000000000E+000
  0.000000000000000E+000
  0.000000000000000E+000
  0.000000000000000E+000
  0.000000000000000E+000
  0.000000000000000E+000
  0.000000000000000E+000
  0.000000000000000E+000
  0.000000000000000E+000
  0.000000000000000E+000
  0.000000000000000E+000
  0.000000000000000E+000
  0.000000000000000E+000
  0.000000000000000E+000
  0.000000000000000E+000
  0.000000000000000E+000
  0.000000000000000E+000
  0.000000000000000E+000
  0.000000000000000E+000
  0.000000000000000E+000
  0.000000000000000E+000
  0.000000000000000E+000
  0.000000000000000E+000
  0.000000000000000E+000
  0.000000000000000E+000
  0.000000000000000E+000
  0.000000000000000E+000
  0.000000000000000E+000
  0.000000000000000E+000
  0.000000000000000E+000
  0.000000000000000E+000
  0.000000000000000E+000
  0.000000000000000E+000
  0.000000000000000E+000
  0.000000000000000E+000
  0.000000000000000E+000
  0.000000000000000E+000
  0.000000000000000E+000
  0.000000000000000E+000
  0.000000000000000E+000
  0.000000000000000E+000
  0.000000000000000E+000
  0.000000000000000E+000
  0.000000000000000E+000
  0.000000000000000E+000
  0.000000000000000E+000
  0.000000000000000E+000
  0.000000000000000E+000
  0.000000000000000E+000
  0.000000000000000E+000
  0.000000000000000E+000
  0.000000000000000E+000
  0.000000000000000E+000
  0.000000000000000E+000
  0.000000000000000E+000
  0.000000000000000E+000
  0.000000000000000E+000
  0.000000000000000E+000
  0.000000000000000E+000
  0.000000000000000E+000
  0.000000000000000E+000
  0.000000000000000E+000
  0.000000000000000E+000
  0.000000000000000E+000
  0.000000000000000E+000
  0.000000000000000E+000
  0.000000000000000E+000
  0.000000000000000E+000
  0.000000000000000E+000
  0.000000000000000E+000
  0.000000000000000E+000
  0.000000000000000E+000
  0.000000000000000E+000
  0.000000000000000E+000
  0.000000000000000E+000
  0.000000000000000E+000
  0.000000000000000E+000
  0.000000000000000E+000
  0.000000000000000E+000
  0.000000000000000E+000
  0.000000000000000E+000
  0.000000000000000E+000
  0.000000000000000E+000
  0.000000000000000E+000
  0.000000000000000E+000
  0.000000000000000E+000
  0.000000000000000E+000
  0.000000000000000E+000
  0.000000000000000E+000
  0.000000000000000E+000
  0.000000000000000E+000
  0.000000000000000E+000
  0.000000000000000E+000
  0.000000000000000E+000
  0.000000000000000E+000
  0.000000000000000E+000
  0.000000000000000E+000
  0.000000000000000E+000
  0.000000000000000E+000
  0.000000000000000E+000
  0.000000000000000E+000
  0.000000000000000E+000
  0.000000000000000E+000
  0.000000000000000E+000
  0.000000000000000E+000
  0.000000000000000E+000
  0.000000000000000E+000
  0.000000000000000E+000
  0.000000000000000E+000
  0.000000000000000E+000
  0.000000000000000E+000
  0.000000000000000E+000
  0.000000000000000E+000
  0.000000000000000E+000
  0.000000000000000E+000
  0.000000000000000E+000
  0.000000000000000E+000
  0.000000000000000E+000
  0.000000000000000E+000
  0.000000000000000E+000
  0.000000000000000E+000
  0.000000000000000E+000
  0.000000000000000E+000
  0.000000000000000E+000
  0.000000000000000E+000
  0.000000000000000E+000
  0.000000000000000E+000
  0.000000000000000E+000
  0.000000000000000E+000
  0.000000000000000E+000
  0.000000000000000E+000
  0.000000000000000E+000
  0.000000000000000E+000
  0.000000000000000E+000
  0.000000000000000E+000
  0.000000000000000E+000
  0.000000000000000E+000
  0.000000000000000E+000
  0.000000000000000E+000
  0.000000000000000E+000
  0.000000000000000E+000
  0.000000000000000E+000
  0.000000000000000E+000
  0.000000000000000E+000
  0.000000000000000E+000
  0.000000000000000E+000
  0.000000000000000E+000
  0.000000000000000E+000
  0.000000000000000E+000
  0.000000000000000E+000
  0.000000000000000E+000
  0.000000000000000E+000
  0.000000000000000E+000
  0.000000000000000E+000
  0.000000000000000E+000
  0.000000000000000E+000
  0.000000000000000E+000
  0.000000000000000E+000
  0.000000000000000E+000
  0.000000000000000E+000
  0.000000000000000E+000
  0.000000000000000E+000
  0.000000000000000E+000
  0.000000000000000E+000
  0.000000000000000E+000
  0.000000000000000E+000
  0.000000000000000E+000
  0.000000000000000E+000
  0.000000000000000E+000
  0.000000000000000E+000
  0.000000000000000E+000
  0.000000000000000E+000
  0.000000000000000E+000
  0.000000000000000E+000
  0.000000000000000E+000
  0.000000000000000E+000
  0.000000000000000E+000
  0.000000000000000E+000
  0.000000000000000E+000
  0.000000000000000E+000
  0.000000000000000E+000
  0.000000000000000E+000
  0.000000000000000E+000
  0.000000000000000E+000
  0.000000000000000E+000
  0.000000000000000E+000
  0.000000000000000E+000
  0.000000000000000E+000
  0.000000000000000E+000
  0.000000000000000E+000
  0.000000000000000E+000
  0.000000000000000E+000
  0.000000000000000E+000
  0.000000000000000E+000
  0.000000000000000E+000
  0.000000000000000E+000
  0.000000000000000E+000
  0.000000000000000E+000
  0.000000000000000E+000
  0.000000000000000E+000
  0.000000000000000E+000
  0.000000000000000E+000
  0.000000000000000E+000
  0.000000000000000E+000
  0.000000000000000E+000
  0.000000000000000E+000
  0.000000000000000E+000
  0.000000000000000E+000
  0.000000000000000E+000
  0.000000000000000E+000
  0.000000000000000E+000
  0.000000000000000E+000
  0.000000000000000E+000
  0.000000000000000E+000
  0.000000000000000E+000
  0.000000000000000E+000
  0.000000000000000E+000
  0.000000000000000E+000
  0.000000000000000E+000
  0.000000000000000E+000
  0.000000000000000E+000
  0.000000000000000E+000
  0.000000000000000E+000
  0.000000000000000E+000
  0.000000000000000E+000
  0.000000000000000E+000
  0.000000000000000E+000
  0.000000000000000E+000
  0.000000000000000E+000
  0.000000000000000E+000
  0.000000000000000E+000
  0.000000000000000E+000
  0.000000000000000E+000
  0.000000000000000E+000
  0.000000000000000E+000
  0.000000000000000E+000
  0.000000000000000E+000
  0.000000000000000E+000
  0.000000000000000E+000
  0.000000000000000E+000
  0.000000000000000E+000
  0.000000000000000E+000
  0.000000000000000E+000
  0.000000000000000E+000
  0.000000000000000E+000
  0.000000000000000E+000
  0.000000000000000E+000
  0.000000000000000E+000
  0.000000000000000E+000
  0.000000000000000E+000
  0.000000000000000E+000
  0.000000000000000E+000
  0.000000000000000E+000
  0.000000000000000E+000
  0.000000000000000E+000
  0.000000000000000E+000
  0.000000000000000E+000
  0.000000000000000E+000
  0.000000000000000E+000
  0.000000000000000E+000
  0.000000000000000E+000
  0.000000000000000E+000
  0.000000000000000E+000
  0.000000000000000E+000
  0.000000000000000E+000
  0.000000000000000E+000
  0.000000000000000E+000
  0.000000000000000E+000
  0.000000000000000E+000
  0.000000000000000E+000
  0.000000000000000E+000
  0.000000000000000E+000
  0.000000000000000E+000
  0.000000000000000E+000
  0.000000000000000E+000
  0.000000000000000E+000
  0.000000000000000E+000
  0.000000000000000E+000
  0.000000000000000E+000
  0.000000000000000E+000
  0.000000000000000E+000
  0.000000000000000E+000
  0.000000000000000E+000
  0.000000000000000E+000
  0.000000000000000E+000
  0.000000000000000E+000
  0.000000000000000E+000
  0.000000000000000E+000
  0.000000000000000E+000
  0.000000000000000E+000
  0.000000000000000E+000
  0.000000000000000E+000
  0.000000000000000E+000
  0.000000000000000E+000
  0.000000000000000E+000
  0.000000000000000E+000
  0.000000000000000E+000
  0.000000000000000E+000
  0.000000000000000E+000
  0.000000000000000E+000
  0.000000000000000E+000
  0.000000000000000E+000
  0.000000000000000E+000
  0.000000000000000E+000
  0.000000000000000E+000
  0.000000000000000E+000
  0.000000000000000E+000
  0.000000000000000E+000
  0.000000000000000E+000
  0.000000000000000E+000
  0.000000000000000E+000
  0.000000000000000E+000
  0.000000000000000E+000
  0.000000000000000E+000
  0.000000000000000E+000
  0.000000000000000E+000
  0.000000000000000E+000
  0.000000000000000E+000
  0.000000000000000E+000
  0.000000000000000E+000
  0.000000000000000E+000
  0.000000000000000E+000
  0.000000000000000E+000
  0.000000000000000E+000
  0.000000000000000E+000
  0.000000000000000E+000
  0.000000000000000E+000
  0.000000000000000E+000
  0.000000000000000E+000
  0.000000000000000E+000
  0.000000000000000E+000
  0.000000000000000E+000
  0.000000000000000E+000
  0.000000000000000E+000
  0.000000000000000E+000
  0.000000000000000E+000
  0.000000000000000E+000
  0.000000000000000E+000
  0.000000000000000E+000
  0.000000000000000E+000
  0.000000000000000E+000
  0.000000000000000E+000
  0.000000000000000E+000
  0.000000000000000E+000
  0.000000000000000E+000
  0.000000000000000E+000
  0.000000000000000E+000
  0.000000000000000E+000
  0.000000000000000E+000
  0.000000000000000E+000
  0.000000000000000E+000
  0.000000000000000E+000
  0.000000000000000E+000
  0.000000000000000E+000
  0.000000000000000E+000
  0.000000000000000E+000
  0.000000000000000E+000
  0.000000000000000E+000
  0.000000000000000E+000
  0.000000000000000E+000
  0.000000000000000E+000
  0.000000000000000E+000
  0.000000000000000E+000
  0.000000000000000E+000
  0.000000000000000E+000
  0.000000000000000E+000
  0.000000000000000E+000
  0.000000000000000E+000
  0.000000000000000E+000
  0.000000000000000E+000
  0.000000000000000E+000
  0.000000000000000E+000
  0.000000000000000E+000
  0.000000000000000E+000
  0.000000000000000E+000
  0.000000000000000E+000
  0.000000000000000E+000
  0.000000000000000E+000
  0.000000000000000E+000
  0.000000000000000E+000
  0.000000000000000E+000
SCALARS elementIsPlast double 
LOOKUP_TABLE default
  0.000000000000000E+000
  0.000000000000000E+000
  0.000000000000000E+000
  0.000000000000000E+000
  0.000000000000000E+000
  0.000000000000000E+000
  0.000000000000000E+000
  0.000000000000000E+000
  0.000000000000000E+000
  0.000000000000000E+000
  0.000000000000000E+000
  0.000000000000000E+000
  0.000000000000000E+000
  0.000000000000000E+000
  0.000000000000000E+000
  0.000000000000000E+000
  0.000000000000000E+000
  0.000000000000000E+000
  0.000000000000000E+000
  0.000000000000000E+000
  0.000000000000000E+000
  0.000000000000000E+000
  0.000000000000000E+000
  0.000000000000000E+000
  0.000000000000000E+000
  0.000000000000000E+000
  0.000000000000000E+000
  0.000000000000000E+000
  0.000000000000000E+000
  0.000000000000000E+000
  0.000000000000000E+000
  0.000000000000000E+000
  0.000000000000000E+000
  0.000000000000000E+000
  0.000000000000000E+000
  0.000000000000000E+000
  0.000000000000000E+000
  0.000000000000000E+000
  0.000000000000000E+000
  0.000000000000000E+000
  0.000000000000000E+000
  0.000000000000000E+000
  0.000000000000000E+000
  0.000000000000000E+000
  0.000000000000000E+000
  0.000000000000000E+000
  0.000000000000000E+000
  0.000000000000000E+000
  0.000000000000000E+000
  0.000000000000000E+000
  0.000000000000000E+000
  0.000000000000000E+000
  0.000000000000000E+000
  0.000000000000000E+000
  0.000000000000000E+000
  0.000000000000000E+000
  0.000000000000000E+000
  0.000000000000000E+000
  0.000000000000000E+000
  0.000000000000000E+000
  0.000000000000000E+000
  0.000000000000000E+000
  0.000000000000000E+000
  0.000000000000000E+000
  0.000000000000000E+000
  0.000000000000000E+000
  0.000000000000000E+000
  0.000000000000000E+000
  0.000000000000000E+000
  0.000000000000000E+000
  0.000000000000000E+000
  0.000000000000000E+000
  0.000000000000000E+000
  0.000000000000000E+000
  0.000000000000000E+000
  0.000000000000000E+000
  0.000000000000000E+000
  0.000000000000000E+000
  0.000000000000000E+000
  0.000000000000000E+000
  0.000000000000000E+000
  0.000000000000000E+000
  0.000000000000000E+000
  0.000000000000000E+000
  0.000000000000000E+000
  0.000000000000000E+000
  0.000000000000000E+000
  0.000000000000000E+000
  0.000000000000000E+000
  0.000000000000000E+000
  0.000000000000000E+000
  0.000000000000000E+000
  0.000000000000000E+000
  0.000000000000000E+000
  0.000000000000000E+000
  0.000000000000000E+000
  0.000000000000000E+000
  0.000000000000000E+000
  0.000000000000000E+000
  0.000000000000000E+000
  0.000000000000000E+000
  0.000000000000000E+000
  0.000000000000000E+000
  0.000000000000000E+000
  0.000000000000000E+000
  0.000000000000000E+000
  0.000000000000000E+000
  0.000000000000000E+000
  0.000000000000000E+000
  0.000000000000000E+000
  0.000000000000000E+000
  0.000000000000000E+000
  0.000000000000000E+000
  0.000000000000000E+000
  0.000000000000000E+000
  0.000000000000000E+000
  0.000000000000000E+000
  0.000000000000000E+000
  0.000000000000000E+000
  0.000000000000000E+000
  0.000000000000000E+000
  0.000000000000000E+000
  0.000000000000000E+000
  0.000000000000000E+000
  0.000000000000000E+000
  0.000000000000000E+000
  0.000000000000000E+000
  0.000000000000000E+000
  0.000000000000000E+000
  0.000000000000000E+000
  0.000000000000000E+000
  0.000000000000000E+000
  0.000000000000000E+000
  0.000000000000000E+000
  0.000000000000000E+000
  0.000000000000000E+000
  0.000000000000000E+000
  0.000000000000000E+000
  0.000000000000000E+000
  0.000000000000000E+000
  0.000000000000000E+000
  0.000000000000000E+000
  0.000000000000000E+000
  0.000000000000000E+000
  0.000000000000000E+000
  0.000000000000000E+000
  0.000000000000000E+000
  0.000000000000000E+000
  0.000000000000000E+000
  0.000000000000000E+000
  0.000000000000000E+000
  0.000000000000000E+000
  0.000000000000000E+000
  0.000000000000000E+000
  0.000000000000000E+000
  0.000000000000000E+000
  0.000000000000000E+000
  0.000000000000000E+000
  0.000000000000000E+000
  0.000000000000000E+000
  0.000000000000000E+000
  0.000000000000000E+000
  0.000000000000000E+000
  0.000000000000000E+000
  0.000000000000000E+000
  0.000000000000000E+000
  0.000000000000000E+000
  0.000000000000000E+000
  0.000000000000000E+000
  0.000000000000000E+000
  0.000000000000000E+000
  0.000000000000000E+000
  0.000000000000000E+000
  0.000000000000000E+000
  0.000000000000000E+000
  0.000000000000000E+000
  0.000000000000000E+000
  0.000000000000000E+000
  0.000000000000000E+000
  0.000000000000000E+000
  0.000000000000000E+000
  0.000000000000000E+000
  0.000000000000000E+000
  0.000000000000000E+000
  0.000000000000000E+000
  0.000000000000000E+000
  0.000000000000000E+000
  0.000000000000000E+000
  0.000000000000000E+000
  0.000000000000000E+000
  0.000000000000000E+000
  0.000000000000000E+000
  0.000000000000000E+000
  0.000000000000000E+000
  0.000000000000000E+000
  0.000000000000000E+000
  0.000000000000000E+000
  0.000000000000000E+000
  0.000000000000000E+000
  0.000000000000000E+000
  0.000000000000000E+000
  0.000000000000000E+000
  0.000000000000000E+000
  0.000000000000000E+000
  0.000000000000000E+000
  0.000000000000000E+000
  0.000000000000000E+000
  0.000000000000000E+000
  0.000000000000000E+000
  0.000000000000000E+000
  0.000000000000000E+000
  0.000000000000000E+000
  0.000000000000000E+000
  0.000000000000000E+000
  0.000000000000000E+000
  0.000000000000000E+000
  0.000000000000000E+000
  0.000000000000000E+000
  0.000000000000000E+000
  0.000000000000000E+000
  0.000000000000000E+000
  0.000000000000000E+000
  0.000000000000000E+000
  0.000000000000000E+000
  0.000000000000000E+000
  0.000000000000000E+000
  0.000000000000000E+000
  0.000000000000000E+000
  0.000000000000000E+000
  0.000000000000000E+000
  0.000000000000000E+000
  0.000000000000000E+000
  0.000000000000000E+000
  0.000000000000000E+000
  0.000000000000000E+000
  0.000000000000000E+000
  0.000000000000000E+000
  0.000000000000000E+000
  0.000000000000000E+000
  0.000000000000000E+000
  0.000000000000000E+000
  0.000000000000000E+000
  0.000000000000000E+000
  0.000000000000000E+000
  0.000000000000000E+000
  0.000000000000000E+000
  0.000000000000000E+000
  0.000000000000000E+000
  0.000000000000000E+000
  0.000000000000000E+000
  0.000000000000000E+000
  0.000000000000000E+000
  0.000000000000000E+000
  0.000000000000000E+000
  0.000000000000000E+000
  0.000000000000000E+000
  0.000000000000000E+000
  0.000000000000000E+000
  0.000000000000000E+000
  0.000000000000000E+000
  0.000000000000000E+000
  0.000000000000000E+000
  0.000000000000000E+000
  0.000000000000000E+000
  0.000000000000000E+000
  0.000000000000000E+000
  0.000000000000000E+000
  0.000000000000000E+000
  0.000000000000000E+000
  0.000000000000000E+000
  0.000000000000000E+000
  0.000000000000000E+000
  0.000000000000000E+000
  0.000000000000000E+000
  0.000000000000000E+000
  0.000000000000000E+000
  0.000000000000000E+000
  0.000000000000000E+000
  0.000000000000000E+000
  0.000000000000000E+000
  0.000000000000000E+000
  0.000000000000000E+000
  0.000000000000000E+000
  0.000000000000000E+000
  0.000000000000000E+000
  0.000000000000000E+000
  0.000000000000000E+000
  0.000000000000000E+000
  0.000000000000000E+000
  0.000000000000000E+000
  0.000000000000000E+000
  0.000000000000000E+000
  0.000000000000000E+000
  0.000000000000000E+000
  0.000000000000000E+000
  0.000000000000000E+000
  0.000000000000000E+000
  0.000000000000000E+000
  0.000000000000000E+000
  0.000000000000000E+000
  0.000000000000000E+000
  0.000000000000000E+000
  0.000000000000000E+000
  0.000000000000000E+000
  0.000000000000000E+000
  0.000000000000000E+000
  0.000000000000000E+000
  0.000000000000000E+000
  0.000000000000000E+000
  0.000000000000000E+000
  0.000000000000000E+000
  0.000000000000000E+000
  0.000000000000000E+000
  0.000000000000000E+000
  0.000000000000000E+000
  0.000000000000000E+000
  0.000000000000000E+000
  0.000000000000000E+000
  0.000000000000000E+000
  0.000000000000000E+000
  0.000000000000000E+000
  0.000000000000000E+000
  0.000000000000000E+000
  0.000000000000000E+000
  0.000000000000000E+000
  0.000000000000000E+000
  0.000000000000000E+000
  0.000000000000000E+000
  0.000000000000000E+000
  0.000000000000000E+000
  0.000000000000000E+000
  0.000000000000000E+000
  0.000000000000000E+000
  0.000000000000000E+000
  0.000000000000000E+000
  0.000000000000000E+000
  0.000000000000000E+000
  0.000000000000000E+000
  0.000000000000000E+000
  0.000000000000000E+000
  0.000000000000000E+000
  0.000000000000000E+000
  0.000000000000000E+000
  0.000000000000000E+000
  0.000000000000000E+000
  0.000000000000000E+000
  0.000000000000000E+000
  0.000000000000000E+000
  0.000000000000000E+000
  0.000000000000000E+000
  0.000000000000000E+000
  0.000000000000000E+000
  0.000000000000000E+000
  0.000000000000000E+000
  0.000000000000000E+000
  0.000000000000000E+000
  0.000000000000000E+000
  0.000000000000000E+000
  0.000000000000000E+000
  0.000000000000000E+000
  0.000000000000000E+000
  0.000000000000000E+000
  0.000000000000000E+000
  0.000000000000000E+000
  0.000000000000000E+000
  0.000000000000000E+000
  0.000000000000000E+000
  0.000000000000000E+000
  0.000000000000000E+000
  0.000000000000000E+000
  0.000000000000000E+000
  0.000000000000000E+000
  0.000000000000000E+000
  0.000000000000000E+000
  0.000000000000000E+000
  0.000000000000000E+000
  0.000000000000000E+000
  0.000000000000000E+000
  0.000000000000000E+000
  0.000000000000000E+000
  0.000000000000000E+000
  0.000000000000000E+000
  0.000000000000000E+000
  0.000000000000000E+000
  0.000000000000000E+000
  0.000000000000000E+000
  0.000000000000000E+000
  0.000000000000000E+000
  0.000000000000000E+000
  0.000000000000000E+000
  0.000000000000000E+000
  0.000000000000000E+000
  0.000000000000000E+000
  0.000000000000000E+000
  0.000000000000000E+000
  0.000000000000000E+000
  0.000000000000000E+000
  0.000000000000000E+000
  0.000000000000000E+000
  0.000000000000000E+000
  0.000000000000000E+000
  0.000000000000000E+000
  0.000000000000000E+000
  0.000000000000000E+000
  0.000000000000000E+000
  0.000000000000000E+000
  0.000000000000000E+000
  0.000000000000000E+000
  0.000000000000000E+000
  0.000000000000000E+000
  0.000000000000000E+000
  0.000000000000000E+000
  0.000000000000000E+000
  0.000000000000000E+000
  0.000000000000000E+000
  0.000000000000000E+000
  0.000000000000000E+000
  0.000000000000000E+000
  0.000000000000000E+000
  0.000000000000000E+000
  0.000000000000000E+000
  0.000000000000000E+000
  0.000000000000000E+000
  0.000000000000000E+000
  0.000000000000000E+000
  0.000000000000000E+000
  0.000000000000000E+000
  0.000000000000000E+000
  0.000000000000000E+000
  0.000000000000000E+000
  0.000000000000000E+000
  0.000000000000000E+000
  0.000000000000000E+000
  0.000000000000000E+000
  0.000000000000000E+000
  0.000000000000000E+000
  0.000000000000000E+000
  0.000000000000000E+000
  0.000000000000000E+000
  0.000000000000000E+000
  0.000000000000000E+000
  0.000000000000000E+000
  0.000000000000000E+000
  0.000000000000000E+000
  0.000000000000000E+000
  0.000000000000000E+000
  0.000000000000000E+000
  0.000000000000000E+000
  0.000000000000000E+000
  0.000000000000000E+000
  0.000000000000000E+000
  0.000000000000000E+000
  0.000000000000000E+000
  0.000000000000000E+000
  0.000000000000000E+000
  0.000000000000000E+000
  0.000000000000000E+000
  0.000000000000000E+000
  0.000000000000000E+000
  0.000000000000000E+000
  0.000000000000000E+000
  0.000000000000000E+000
  0.000000000000000E+000
  0.000000000000000E+000
  0.000000000000000E+000
  0.000000000000000E+000
  0.000000000000000E+000
  0.000000000000000E+000
  0.000000000000000E+000
  0.000000000000000E+000
  0.000000000000000E+000
  0.000000000000000E+000
  0.000000000000000E+000
  0.000000000000000E+000
  0.000000000000000E+000
  0.000000000000000E+000
  0.000000000000000E+000
  0.000000000000000E+000
  0.000000000000000E+000
  0.000000000000000E+000
  0.000000000000000E+000
  0.000000000000000E+000
  0.000000000000000E+000
  0.000000000000000E+000
  0.000000000000000E+000
  0.000000000000000E+000
  0.000000000000000E+000
  0.000000000000000E+000
  0.000000000000000E+000
  0.000000000000000E+000
  0.000000000000000E+000
  0.000000000000000E+000
  0.000000000000000E+000
  0.000000000000000E+000
  0.000000000000000E+000
  0.000000000000000E+000
  0.000000000000000E+000
  0.000000000000000E+000
  0.000000000000000E+000
  0.000000000000000E+000
  0.000000000000000E+000
  0.000000000000000E+000
  0.000000000000000E+000
  0.000000000000000E+000
  0.000000000000000E+000
  0.000000000000000E+000
  0.000000000000000E+000
  0.000000000000000E+000
  0.000000000000000E+000
  0.000000000000000E+000
  0.000000000000000E+000
  0.000000000000000E+000
  0.000000000000000E+000
  0.000000000000000E+000
  0.000000000000000E+000
  0.000000000000000E+000
  0.000000000000000E+000
  0.000000000000000E+000
  0.000000000000000E+000
  0.000000000000000E+000
  0.000000000000000E+000
  0.000000000000000E+000
  0.000000000000000E+000
  0.000000000000000E+000
  0.000000000000000E+000
  0.000000000000000E+000
  0.000000000000000E+000
  0.000000000000000E+000
  0.000000000000000E+000
  0.000000000000000E+000
  0.000000000000000E+000
  0.000000000000000E+000
  0.000000000000000E+000
  0.000000000000000E+000
  0.000000000000000E+000
  0.000000000000000E+000
  0.000000000000000E+000
  0.000000000000000E+000
  0.000000000000000E+000
  0.000000000000000E+000
  0.000000000000000E+000
  0.000000000000000E+000
  0.000000000000000E+000
  0.000000000000000E+000
  0.000000000000000E+000
  0.000000000000000E+000
  0.000000000000000E+000
  0.000000000000000E+000
  0.000000000000000E+000
  0.000000000000000E+000
  0.000000000000000E+000
  0.000000000000000E+000
  0.000000000000000E+000
  0.000000000000000E+000
  0.000000000000000E+000
  0.000000000000000E+000
  0.000000000000000E+000
  0.000000000000000E+000
  0.000000000000000E+000
  0.000000000000000E+000
  0.000000000000000E+000
  0.000000000000000E+000
  0.000000000000000E+000
  0.000000000000000E+000
  0.000000000000000E+000
  0.000000000000000E+000
  0.000000000000000E+000
  0.000000000000000E+000
  0.000000000000000E+000
  0.000000000000000E+000
  0.000000000000000E+000
  0.000000000000000E+000
  0.000000000000000E+000
  0.000000000000000E+000
  0.000000000000000E+000
  0.000000000000000E+000
  0.000000000000000E+000
  0.000000000000000E+000
  0.000000000000000E+000
  0.000000000000000E+000
  0.000000000000000E+000
  0.000000000000000E+000
  0.000000000000000E+000
  0.000000000000000E+000
  0.000000000000000E+000
  0.000000000000000E+000
  0.000000000000000E+000
  0.000000000000000E+000
  0.000000000000000E+000
  0.000000000000000E+000
  0.000000000000000E+000
  0.000000000000000E+000
  0.000000000000000E+000
  0.000000000000000E+000
  0.000000000000000E+000
  0.000000000000000E+000
  0.000000000000000E+000
  0.000000000000000E+000
  0.000000000000000E+000
  0.000000000000000E+000
  0.000000000000000E+000
  0.000000000000000E+000
  0.000000000000000E+000
  0.000000000000000E+000
  0.000000000000000E+000
  0.000000000000000E+000
  0.000000000000000E+000
  0.000000000000000E+000
  0.000000000000000E+000
  0.000000000000000E+000
  0.000000000000000E+000
  0.000000000000000E+000
  0.000000000000000E+000
  0.000000000000000E+000
  0.000000000000000E+000
  0.000000000000000E+000
  0.000000000000000E+000
  0.000000000000000E+000
  0.000000000000000E+000
  0.000000000000000E+000
  0.000000000000000E+000
  0.000000000000000E+000
  0.000000000000000E+000
  0.000000000000000E+000
  0.000000000000000E+000
  0.000000000000000E+000
  0.000000000000000E+000
  0.000000000000000E+000
  0.000000000000000E+000
  0.000000000000000E+000
  0.000000000000000E+000
  0.000000000000000E+000
  0.000000000000000E+000
  0.000000000000000E+000
  0.000000000000000E+000
  0.000000000000000E+000
  0.000000000000000E+000
  0.000000000000000E+000
  0.000000000000000E+000
  0.000000000000000E+000
  0.000000000000000E+000
  0.000000000000000E+000
  0.000000000000000E+000
  0.000000000000000E+000
  0.000000000000000E+000
  0.000000000000000E+000
  0.000000000000000E+000
  0.000000000000000E+000
  0.000000000000000E+000
  0.000000000000000E+000
  0.000000000000000E+000
  0.000000000000000E+000
  0.000000000000000E+000
  0.000000000000000E+000
  0.000000000000000E+000
  0.000000000000000E+000
  0.000000000000000E+000
  0.000000000000000E+000
  0.000000000000000E+000
  0.000000000000000E+000
  0.000000000000000E+000
  0.000000000000000E+000
  0.000000000000000E+000
  0.000000000000000E+000
  0.000000000000000E+000
  0.000000000000000E+000
  0.000000000000000E+000
  0.000000000000000E+000
  0.000000000000000E+000
  0.000000000000000E+000
  0.000000000000000E+000
  0.000000000000000E+000
  0.000000000000000E+000
  0.000000000000000E+000
  0.000000000000000E+000
  0.000000000000000E+000
  0.000000000000000E+000
  0.000000000000000E+000
  0.000000000000000E+000
  0.000000000000000E+000
  0.000000000000000E+000
  0.000000000000000E+000
  0.000000000000000E+000
  0.000000000000000E+000
  0.000000000000000E+000
  0.000000000000000E+000
  0.000000000000000E+000
  0.000000000000000E+000
  0.000000000000000E+000
  0.000000000000000E+000
  0.000000000000000E+000
  0.000000000000000E+000
  0.000000000000000E+000
  0.000000000000000E+000
  0.000000000000000E+000
  0.000000000000000E+000
  0.000000000000000E+000
  0.000000000000000E+000
  0.000000000000000E+000
  0.000000000000000E+000
  0.000000000000000E+000
  0.000000000000000E+000
  0.000000000000000E+000
  0.000000000000000E+000
  0.000000000000000E+000
  0.000000000000000E+000
  0.000000000000000E+000
  0.000000000000000E+000
  0.000000000000000E+000
  0.000000000000000E+000
  0.000000000000000E+000
  0.000000000000000E+000
  0.000000000000000E+000
  0.000000000000000E+000
  0.000000000000000E+000
  0.000000000000000E+000
  0.000000000000000E+000
  0.000000000000000E+000
  0.000000000000000E+000
  0.000000000000000E+000
  0.000000000000000E+000
  0.000000000000000E+000
  0.000000000000000E+000
  0.000000000000000E+000
  0.000000000000000E+000
  0.000000000000000E+000
  0.000000000000000E+000
  0.000000000000000E+000
  0.000000000000000E+000
  0.000000000000000E+000
  0.000000000000000E+000
  0.000000000000000E+000
  0.000000000000000E+000
  0.000000000000000E+000
  0.000000000000000E+000
  0.000000000000000E+000
  0.000000000000000E+000
  0.000000000000000E+000
  0.000000000000000E+000
  0.000000000000000E+000
  0.000000000000000E+000
  0.000000000000000E+000
  0.000000000000000E+000
  0.000000000000000E+000
  0.000000000000000E+000
  0.000000000000000E+000
  0.000000000000000E+000
  0.000000000000000E+000
  0.000000000000000E+000
  0.000000000000000E+000
  0.000000000000000E+000
  0.000000000000000E+000
  0.000000000000000E+000
  0.000000000000000E+000
  0.000000000000000E+000
  0.000000000000000E+000
  0.000000000000000E+000
  0.000000000000000E+000
  0.000000000000000E+000
  0.000000000000000E+000
  0.000000000000000E+000
  0.000000000000000E+000
  0.000000000000000E+000
  0.000000000000000E+000
  0.000000000000000E+000
  0.000000000000000E+000
  0.000000000000000E+000
  0.000000000000000E+000
  0.000000000000000E+000
  0.000000000000000E+000
  0.000000000000000E+000
  0.000000000000000E+000
  0.000000000000000E+000
  0.000000000000000E+000
  0.000000000000000E+000
  0.000000000000000E+000
  0.000000000000000E+000
  0.000000000000000E+000
  0.000000000000000E+000
  0.000000000000000E+000
  0.000000000000000E+000
  0.000000000000000E+000
  0.000000000000000E+000
  0.000000000000000E+000
  0.000000000000000E+000
  0.000000000000000E+000
  0.000000000000000E+000
  0.000000000000000E+000
  0.000000000000000E+000
  0.000000000000000E+000
  0.000000000000000E+000
  0.000000000000000E+000
  0.000000000000000E+000
  0.000000000000000E+000
  0.000000000000000E+000
  0.000000000000000E+000
  0.000000000000000E+000
  0.000000000000000E+000
  0.000000000000000E+000
  0.000000000000000E+000
  0.000000000000000E+000
  0.000000000000000E+000
  0.000000000000000E+000
  0.000000000000000E+000
  0.000000000000000E+000
  0.000000000000000E+000
  0.000000000000000E+000
  0.000000000000000E+000
  0.000000000000000E+000
  0.000000000000000E+000
  0.000000000000000E+000
  0.000000000000000E+000
  0.000000000000000E+000
  0.000000000000000E+000
  0.000000000000000E+000
  0.000000000000000E+000
  0.000000000000000E+000
  0.000000000000000E+000
  0.000000000000000E+000
  0.000000000000000E+000
  0.000000000000000E+000
  0.000000000000000E+000
  0.000000000000000E+000
  0.000000000000000E+000
  0.000000000000000E+000
  0.000000000000000E+000
  0.000000000000000E+000
  0.000000000000000E+000
  0.000000000000000E+000
  0.000000000000000E+000
  0.000000000000000E+000
  0.000000000000000E+000
  0.000000000000000E+000
  0.000000000000000E+000
  0.000000000000000E+000
  0.000000000000000E+000
  0.000000000000000E+000
  0.000000000000000E+000
  0.000000000000000E+000
  0.000000000000000E+000
  0.000000000000000E+000
  0.000000000000000E+000
  0.000000000000000E+000
  0.000000000000000E+000
  0.000000000000000E+000
  0.000000000000000E+000
  0.000000000000000E+000
  0.000000000000000E+000
  0.000000000000000E+000
  0.000000000000000E+000
  0.000000000000000E+000
  0.000000000000000E+000
  0.000000000000000E+000
  0.000000000000000E+000
  0.000000000000000E+000
  0.000000000000000E+000
  0.000000000000000E+000
  0.000000000000000E+000
  0.000000000000000E+000
  0.000000000000000E+000
  0.000000000000000E+000
  0.000000000000000E+000
  0.000000000000000E+000
  0.000000000000000E+000
  0.000000000000000E+000
  0.000000000000000E+000
  0.000000000000000E+000
  0.000000000000000E+000
  0.000000000000000E+000
  0.000000000000000E+000
  0.000000000000000E+000
  0.000000000000000E+000
  0.000000000000000E+000
  0.000000000000000E+000
  0.000000000000000E+000
  0.000000000000000E+000
  0.000000000000000E+000
  0.000000000000000E+000
  0.000000000000000E+000
  0.000000000000000E+000
  0.000000000000000E+000
  0.000000000000000E+000
  0.000000000000000E+000
  0.000000000000000E+000
  0.000000000000000E+000
  0.000000000000000E+000
  0.000000000000000E+000
  0.000000000000000E+000
  0.000000000000000E+000
  0.000000000000000E+000
  0.000000000000000E+000
  0.000000000000000E+000
  0.000000000000000E+000
  0.000000000000000E+000
  0.000000000000000E+000
  0.000000000000000E+000
  0.000000000000000E+000
  0.000000000000000E+000
  0.000000000000000E+000
  0.000000000000000E+000
  0.000000000000000E+000
  0.000000000000000E+000
  0.000000000000000E+000
  0.000000000000000E+000
  0.000000000000000E+000
  0.000000000000000E+000
  0.000000000000000E+000
  0.000000000000000E+000
  0.000000000000000E+000
  0.000000000000000E+000
  0.000000000000000E+000
  0.000000000000000E+000
  0.000000000000000E+000
  0.000000000000000E+000
  0.000000000000000E+000
  0.000000000000000E+000
  0.000000000000000E+000
  0.000000000000000E+000
  0.000000000000000E+000
  0.000000000000000E+000
  0.000000000000000E+000
  0.000000000000000E+000
  0.000000000000000E+000
  0.000000000000000E+000
  0.000000000000000E+000
  0.000000000000000E+000
  0.000000000000000E+000
  0.000000000000000E+000
  0.000000000000000E+000
  0.000000000000000E+000
  0.000000000000000E+000
  0.000000000000000E+000
  0.000000000000000E+000
  0.000000000000000E+000
  0.000000000000000E+000
  0.000000000000000E+000
  0.000000000000000E+000
  0.000000000000000E+000
  0.000000000000000E+000
  0.000000000000000E+000
  0.000000000000000E+000
  0.000000000000000E+000
  0.000000000000000E+000
  0.000000000000000E+000
  0.000000000000000E+000
  0.000000000000000E+000
  0.000000000000000E+000
  0.000000000000000E+000
  0.000000000000000E+000
  0.000000000000000E+000
  0.000000000000000E+000
  0.000000000000000E+000
  0.000000000000000E+000
  0.000000000000000E+000
  0.000000000000000E+000
  0.000000000000000E+000
  0.000000000000000E+000
  0.000000000000000E+000
  0.000000000000000E+000
  0.000000000000000E+000
  0.000000000000000E+000
  0.000000000000000E+000
  0.000000000000000E+000
  0.000000000000000E+000
  0.000000000000000E+000
  0.000000000000000E+000
  0.000000000000000E+000
  0.000000000000000E+000
  0.000000000000000E+000
  0.000000000000000E+000
  0.000000000000000E+000
  0.000000000000000E+000
  0.000000000000000E+000
  0.000000000000000E+000
  0.000000000000000E+000
  0.000000000000000E+000
  0.000000000000000E+000
  0.000000000000000E+000
  0.000000000000000E+000
  0.000000000000000E+000
  0.000000000000000E+000
  0.000000000000000E+000
  0.000000000000000E+000
  0.000000000000000E+000
  0.000000000000000E+000
  0.000000000000000E+000
  0.000000000000000E+000
  0.000000000000000E+000
  0.000000000000000E+000
  0.000000000000000E+000
  0.000000000000000E+000
  0.000000000000000E+000
  0.000000000000000E+000
  0.000000000000000E+000
  0.000000000000000E+000
  0.000000000000000E+000
  0.000000000000000E+000
  0.000000000000000E+000
  0.000000000000000E+000
  0.000000000000000E+000
  0.000000000000000E+000
  0.000000000000000E+000
  0.000000000000000E+000
  0.000000000000000E+000
  0.000000000000000E+000
  0.000000000000000E+000
  0.000000000000000E+000
  0.000000000000000E+000
  0.000000000000000E+000
  0.000000000000000E+000
  0.000000000000000E+000
  0.000000000000000E+000
  0.000000000000000E+000
  0.000000000000000E+000
  0.000000000000000E+000
  0.000000000000000E+000
  0.000000000000000E+000
  0.000000000000000E+000
  0.000000000000000E+000
  0.000000000000000E+000
  0.000000000000000E+000
  0.000000000000000E+000
  0.000000000000000E+000
  0.000000000000000E+000
  0.000000000000000E+000
  0.000000000000000E+000
  0.000000000000000E+000
  0.000000000000000E+000
  0.000000000000000E+000
  0.000000000000000E+000
  0.000000000000000E+000
  0.000000000000000E+000
  0.000000000000000E+000
  0.000000000000000E+000
  0.000000000000000E+000
  0.000000000000000E+000
  0.000000000000000E+000
  0.000000000000000E+000
  0.000000000000000E+000
  0.000000000000000E+000
  0.000000000000000E+000
  0.000000000000000E+000
  0.000000000000000E+000
  0.000000000000000E+000
  0.000000000000000E+000
  0.000000000000000E+000
  0.000000000000000E+000
  0.000000000000000E+000
  0.000000000000000E+000
  0.000000000000000E+000
  0.000000000000000E+000
  0.000000000000000E+000
  0.000000000000000E+000
  0.000000000000000E+000
  0.000000000000000E+000
  0.000000000000000E+000
  0.000000000000000E+000
  0.000000000000000E+000
  0.000000000000000E+000
  0.000000000000000E+000
  0.000000000000000E+000
  0.000000000000000E+000
  0.000000000000000E+000
  0.000000000000000E+000
  0.000000000000000E+000
  0.000000000000000E+000
  0.000000000000000E+000
  0.000000000000000E+000
  0.000000000000000E+000
  0.000000000000000E+000
  0.000000000000000E+000
  0.000000000000000E+000
  0.000000000000000E+000
  0.000000000000000E+000
  0.000000000000000E+000
  0.000000000000000E+000
  0.000000000000000E+000
  0.000000000000000E+000
  0.000000000000000E+000
  0.000000000000000E+000
  0.000000000000000E+000
  0.000000000000000E+000
  0.000000000000000E+000
  0.000000000000000E+000
  0.000000000000000E+000
  0.000000000000000E+000
  0.000000000000000E+000
  0.000000000000000E+000
  0.000000000000000E+000
  0.000000000000000E+000
  0.000000000000000E+000
  0.000000000000000E+000
  0.000000000000000E+000
  0.000000000000000E+000
  0.000000000000000E+000
  0.000000000000000E+000
  0.000000000000000E+000
  0.000000000000000E+000
  0.000000000000000E+000
  0.000000000000000E+000
  0.000000000000000E+000
  0.000000000000000E+000
  0.000000000000000E+000
  0.000000000000000E+000
  0.000000000000000E+000
  0.000000000000000E+000
  0.000000000000000E+000
  0.000000000000000E+000
  0.000000000000000E+000
  0.000000000000000E+000
  0.000000000000000E+000
  0.000000000000000E+000
  0.000000000000000E+000
  0.000000000000000E+000
  0.000000000000000E+000
  0.000000000000000E+000
  0.000000000000000E+000
  0.000000000000000E+000
  0.000000000000000E+000
  0.000000000000000E+000
  0.000000000000000E+000
  0.000000000000000E+000
  0.000000000000000E+000
  0.000000000000000E+000
  0.000000000000000E+000
  0.000000000000000E+000
  0.000000000000000E+000
  0.000000000000000E+000
  0.000000000000000E+000
  0.000000000000000E+000
  0.000000000000000E+000
  0.000000000000000E+000
  0.000000000000000E+000
  0.000000000000000E+000
  0.000000000000000E+000
  0.000000000000000E+000
  0.000000000000000E+000
  0.000000000000000E+000
  0.000000000000000E+000
  0.000000000000000E+000
  0.000000000000000E+000
  0.000000000000000E+000
  0.000000000000000E+000
  0.000000000000000E+000
  0.000000000000000E+000
  0.000000000000000E+000
  0.000000000000000E+000
  0.000000000000000E+000
  0.000000000000000E+000
  0.000000000000000E+000
  0.000000000000000E+000
  0.000000000000000E+000
  0.000000000000000E+000
  0.000000000000000E+000
  0.000000000000000E+000
  0.000000000000000E+000
  0.000000000000000E+000
  0.000000000000000E+000
  0.000000000000000E+000
  0.000000000000000E+000
  0.000000000000000E+000
  0.000000000000000E+000
  0.000000000000000E+000
  0.000000000000000E+000
  0.000000000000000E+000
  0.000000000000000E+000
  0.000000000000000E+000
  0.000000000000000E+000
  0.000000000000000E+000
  0.000000000000000E+000
  0.000000000000000E+000
  0.000000000000000E+000
  0.000000000000000E+000
  0.000000000000000E+000
  0.000000000000000E+000
  0.000000000000000E+000
  0.000000000000000E+000
  0.000000000000000E+000
  0.000000000000000E+000
  0.000000000000000E+000
  0.000000000000000E+000
  0.000000000000000E+000
  0.000000000000000E+000
  0.000000000000000E+000
  0.000000000000000E+000
  0.000000000000000E+000
  0.000000000000000E+000
  0.000000000000000E+000
  0.000000000000000E+000
  0.000000000000000E+000
  0.000000000000000E+000
  0.000000000000000E+000
  0.000000000000000E+000
  0.000000000000000E+000
  0.000000000000000E+000
  0.000000000000000E+000
  0.000000000000000E+000
  0.000000000000000E+000
  0.000000000000000E+000
  0.000000000000000E+000
  0.000000000000000E+000
  0.000000000000000E+000
  0.000000000000000E+000
  0.000000000000000E+000
  0.000000000000000E+000
  0.000000000000000E+000
  0.000000000000000E+000
  0.000000000000000E+000
  0.000000000000000E+000
  0.000000000000000E+000
  0.000000000000000E+000
  0.000000000000000E+000
  0.000000000000000E+000
  0.000000000000000E+000
  0.000000000000000E+000
  0.000000000000000E+000
  0.000000000000000E+000
  0.000000000000000E+000
  0.000000000000000E+000
  0.000000000000000E+000
  0.000000000000000E+000
  0.000000000000000E+000
  0.000000000000000E+000
  0.000000000000000E+000
  0.000000000000000E+000
  0.000000000000000E+000
  0.000000000000000E+000
  0.000000000000000E+000
  0.000000000000000E+000
  0.000000000000000E+000
  0.000000000000000E+000
  0.000000000000000E+000
  0.000000000000000E+000
  0.000000000000000E+000
  0.000000000000000E+000
  0.000000000000000E+000
  0.000000000000000E+000
  0.000000000000000E+000
  0.000000000000000E+000
  0.000000000000000E+000
  0.000000000000000E+000
  0.000000000000000E+000
  0.000000000000000E+000
  0.000000000000000E+000
  0.000000000000000E+000
  0.000000000000000E+000
  0.000000000000000E+000
  0.000000000000000E+000
  0.000000000000000E+000
  0.000000000000000E+000
  0.000000000000000E+000
  0.000000000000000E+000
  0.000000000000000E+000
  0.000000000000000E+000
  0.000000000000000E+000
  0.000000000000000E+000
  0.000000000000000E+000
  0.000000000000000E+000
  0.000000000000000E+000
  0.000000000000000E+000
  0.000000000000000E+000
  0.000000000000000E+000
  0.000000000000000E+000
  0.000000000000000E+000
  0.000000000000000E+000
  0.000000000000000E+000
  0.000000000000000E+000
  0.000000000000000E+000
  0.000000000000000E+000
  0.000000000000000E+000
  0.000000000000000E+000
  0.000000000000000E+000
  0.000000000000000E+000
  0.000000000000000E+000
  0.000000000000000E+000
  0.000000000000000E+000
  0.000000000000000E+000
  0.000000000000000E+000
  0.000000000000000E+000
  0.000000000000000E+000
  0.000000000000000E+000
  0.000000000000000E+000
  0.000000000000000E+000
  0.000000000000000E+000
  0.000000000000000E+000
  0.000000000000000E+000
  0.000000000000000E+000
  0.000000000000000E+000
  0.000000000000000E+000
  0.000000000000000E+000
  0.000000000000000E+000
  0.000000000000000E+000
  0.000000000000000E+000
  0.000000000000000E+000
  0.000000000000000E+000
  0.000000000000000E+000
  0.000000000000000E+000
  0.000000000000000E+000
  0.000000000000000E+000
  0.000000000000000E+000
  0.000000000000000E+000
  0.000000000000000E+000
  0.000000000000000E+000
  0.000000000000000E+000
  0.000000000000000E+000
  0.000000000000000E+000
  0.000000000000000E+000
  0.000000000000000E+000
  0.000000000000000E+000
  0.000000000000000E+000
  0.000000000000000E+000
  0.000000000000000E+000
  0.000000000000000E+000
  0.000000000000000E+000
  0.000000000000000E+000
  0.000000000000000E+000
  0.000000000000000E+000
  0.000000000000000E+000
  0.000000000000000E+000
  0.000000000000000E+000
  0.000000000000000E+000
  0.000000000000000E+000
  0.000000000000000E+000
  0.000000000000000E+000
  0.000000000000000E+000
  0.000000000000000E+000
  0.000000000000000E+000
  0.000000000000000E+000
  0.000000000000000E+000
  0.000000000000000E+000
  0.000000000000000E+000
  0.000000000000000E+000
  0.000000000000000E+000
  0.000000000000000E+000
  0.000000000000000E+000
  0.000000000000000E+000
  0.000000000000000E+000
  0.000000000000000E+000
  0.000000000000000E+000
  0.000000000000000E+000
  0.000000000000000E+000
  0.000000000000000E+000
  0.000000000000000E+000
  0.000000000000000E+000
  0.000000000000000E+000
  0.000000000000000E+000
  0.000000000000000E+000
  0.000000000000000E+000
  0.000000000000000E+000
  0.000000000000000E+000
SCALARS poroL double 
LOOKUP_TABLE default
  0.199781654719212     
  0.199781654719212     
  0.199781654719212     
  0.199781654719212     
  0.199781654719212     
  0.199781654719212     
  0.199781654719212     
  0.199781654719212     
  0.199781654719212     
  0.199781654719212     
  0.199781654719212     
  0.199781654719212     
  0.199781654719212     
  0.199781654719212     
  0.199781654719212     
  0.199781303915741     
  0.199781303915741     
  0.199781303915741     
  0.199781303915741     
  0.199781303915741     
  0.199781303915741     
  0.199781303915741     
  0.199781303915741     
  0.199781303915741     
  0.199781303915741     
  0.199781303915741     
  0.199781303915741     
  0.199781303915741     
  0.199781303915741     
  0.199781303915741     
  0.199780601857824     
  0.199780601857824     
  0.199780601857824     
  0.199780601857824     
  0.199780601857824     
  0.199780601857824     
  0.199780601857824     
  0.199780601857824     
  0.199780601857824     
  0.199780601857824     
  0.199780601857824     
  0.199780601857824     
  0.199780601857824     
  0.199780601857824     
  0.199780601857824     
  0.199779547643411     
  0.199779547643411     
  0.199779547643411     
  0.199779547643411     
  0.199779547643411     
  0.199779547643411     
  0.199779547643411     
  0.199779547643411     
  0.199779547643411     
  0.199779547643411     
  0.199779547643411     
  0.199779547643411     
  0.199779547643411     
  0.199779547643411     
  0.199779547643411     
  0.199778139919171     
  0.199778139919171     
  0.199778139919171     
  0.199778139919171     
  0.199778139919171     
  0.199778139919171     
  0.199778139919171     
  0.199778139919171     
  0.199778139919171     
  0.199778139919171     
  0.199778139919171     
  0.199778139919171     
  0.199778139919171     
  0.199778139919171     
  0.199778139919171     
  0.199776376880195     
  0.199776376880195     
  0.199776376880195     
  0.199776376880195     
  0.199776376880195     
  0.199776376880195     
  0.199776376880195     
  0.199776376880195     
  0.199776376880195     
  0.199776376880195     
  0.199776376880195     
  0.199776376880195     
  0.199776376880195     
  0.199776376880195     
  0.199776376880195     
  0.199774256269612     
  0.199774256269612     
  0.199774256269612     
  0.199774256269612     
  0.199774256269612     
  0.199774256269612     
  0.199774256269612     
  0.199774256269612     
  0.199774256269612     
  0.199774256269612     
  0.199774256269612     
  0.199774256269612     
  0.199774256269612     
  0.199774256269612     
  0.199774256269612     
  0.199771775378125     
  0.199771775378125     
  0.199771775378125     
  0.199771775378125     
  0.199771775378125     
  0.199771775378125     
  0.199771775378125     
  0.199771775378125     
  0.199771775378125     
  0.199771775378125     
  0.199771775378125     
  0.199771775378125     
  0.199771775378125     
  0.199771775378125     
  0.199771775378125     
  0.199768931043479     
  0.199768931043479     
  0.199768931043479     
  0.199768931043479     
  0.199768931043479     
  0.199768931043479     
  0.199768931043479     
  0.199768931043479     
  0.199768931043479     
  0.199768931043479     
  0.199768931043479     
  0.199768931043479     
  0.199768931043479     
  0.199768931043479     
  0.199768931043479     
  0.199765719649884     
  0.199765719649884     
  0.199765719649884     
  0.199765719649884     
  0.199765719649884     
  0.199765719649884     
  0.199765719649884     
  0.199765719649884     
  0.199765719649884     
  0.199765719649884     
  0.199765719649884     
  0.199765719649884     
  0.199765719649884     
  0.199765719649884     
  0.199765719649884     
  0.199762137127402     
  0.199762137127402     
  0.199762137127402     
  0.199762137127402     
  0.199762137127402     
  0.199762137127402     
  0.199762137127402     
  0.199762137127402     
  0.199762137127402     
  0.199762137127402     
  0.199762137127402     
  0.199762137127402     
  0.199762137127402     
  0.199762137127402     
  0.199762137127402     
  0.199758178951318     
  0.199758178951318     
  0.199758178951318     
  0.199758178951318     
  0.199758178951318     
  0.199758178951318     
  0.199758178951318     
  0.199758178951318     
  0.199758178951318     
  0.199758178951318     
  0.199758178951318     
  0.199758178951318     
  0.199758178951318     
  0.199758178951318     
  0.199758178951318     
  0.199753840141530     
  0.199753840141530     
  0.199753840141530     
  0.199753840141530     
  0.199753840141530     
  0.199753840141530     
  0.199753840141530     
  0.199753840141530     
  0.199753840141530     
  0.199753840141530     
  0.199753840141530     
  0.199753840141530     
  0.199753840141530     
  0.199753840141530     
  0.199753840141530     
  0.199749115261970     
  0.199749115261970     
  0.199749115261970     
  0.199749115261970     
  0.199749115261970     
  0.199749115261970     
  0.199749115261970     
  0.199749115261970     
  0.199749115261970     
  0.199749115261970     
  0.199749115261970     
  0.199749115261970     
  0.199749115261970     
  0.199749115261970     
  0.199749115261970     
  0.199743998420089     
  0.199743998420089     
  0.199743998420089     
  0.199743998420089     
  0.199743998420089     
  0.199743998420089     
  0.199743998420089     
  0.199743998420089     
  0.199743998420089     
  0.199743998420089     
  0.199743998420089     
  0.199743998420089     
  0.199743998420089     
  0.199743998420089     
  0.199743998420089     
  0.199738483266452     
  0.199738483266452     
  0.199738483266452     
  0.199738483266452     
  0.199738483266452     
  0.199738483266452     
  0.199738483266452     
  0.199738483266452     
  0.199738483266452     
  0.199738483266452     
  0.199738483266452     
  0.199738483266452     
  0.199738483266452     
  0.199738483266452     
  0.199738483266452     
  0.199732562994459     
  0.199732562994459     
  0.199732562994459     
  0.199732562994459     
  0.199732562994459     
  0.199732562994459     
  0.199732562994459     
  0.199732562994459     
  0.199732562994459     
  0.199732562994459     
  0.199732562994459     
  0.199732562994459     
  0.199732562994459     
  0.199732562994459     
  0.199732562994459     
  0.199726230340239     
  0.199726230340239     
  0.199726230340239     
  0.199726230340239     
  0.199726230340239     
  0.199726230340239     
  0.199726230340239     
  0.199726230340239     
  0.199726230340239     
  0.199726230340239     
  0.199726230340239     
  0.199726230340239     
  0.199726230340239     
  0.199726230340239     
  0.199726230340239     
  0.199719477582774     
  0.199719477582774     
  0.199719477582774     
  0.199719477582774     
  0.199719477582774     
  0.199719477582774     
  0.199719477582774     
  0.199719477582774     
  0.199719477582774     
  0.199719477582774     
  0.199719477582774     
  0.199719477582774     
  0.199719477582774     
  0.199719477582774     
  0.199719477582774     
  0.199712296544275     
  0.199712296544275     
  0.199712296544275     
  0.199712296544275     
  0.199712296544275     
  0.199712296544275     
  0.199712296544275     
  0.199712296544275     
  0.199712296544275     
  0.199712296544275     
  0.199712296544275     
  0.199712296544275     
  0.199712296544275     
  0.199712296544275     
  0.199712296544275     
  0.199704678590883     
  0.199704678590883     
  0.199704678590883     
  0.199704678590883     
  0.199704678590883     
  0.199704678590883     
  0.199704678590883     
  0.199704678590883     
  0.199704678590883     
  0.199704678590883     
  0.199704678590883     
  0.199704678590883     
  0.199704678590883     
  0.199704678590883     
  0.199704678590883     
  0.199696614633736     
  0.199696614633736     
  0.199696614633736     
  0.199696614633736     
  0.199696614633736     
  0.199696614633736     
  0.199696614633736     
  0.199696614633736     
  0.199696614633736     
  0.199696614633736     
  0.199696614633736     
  0.199696614633736     
  0.199696614633736     
  0.199696614633736     
  0.199696614633736     
  0.199688095130478     
  0.199688095130478     
  0.199688095130478     
  0.199688095130478     
  0.199688095130478     
  0.199688095130478     
  0.199688095130478     
  0.199688095130478     
  0.199688095130478     
  0.199688095130478     
  0.199688095130478     
  0.199688095130478     
  0.199688095130478     
  0.199688095130478     
  0.199688095130478     
  0.199679110087251     
  0.199679110087251     
  0.199679110087251     
  0.199679110087251     
  0.199679110087251     
  0.199679110087251     
  0.199679110087251     
  0.199679110087251     
  0.199679110087251     
  0.199679110087251     
  0.199679110087251     
  0.199679110087251     
  0.199679110087251     
  0.199679110087251     
  0.199679110087251     
  0.199669649061266     
  0.199669649061266     
  0.199669649061266     
  0.199669649061266     
  0.199669649061266     
  0.199669649061266     
  0.199669649061266     
  0.199669649061266     
  0.199669649061266     
  0.199669649061266     
  0.199669649061266     
  0.199669649061266     
  0.199669649061266     
  0.199669649061266     
  0.199669649061266     
  0.199659701164011     
  0.199659701164011     
  0.199659701164011     
  0.199659701164011     
  0.199659701164011     
  0.199659701164011     
  0.199659701164011     
  0.199659701164011     
  0.199659701164011     
  0.199659701164011     
  0.199659701164011     
  0.199659701164011     
  0.199659701164011     
  0.199659701164011     
  0.199659701164011     
  0.199649255065176     
  0.199649255065176     
  0.199649255065176     
  0.199649255065176     
  0.199649255065176     
  0.199649255065176     
  0.199649255065176     
  0.199649255065176     
  0.199649255065176     
  0.199649255065176     
  0.199649255065176     
  0.199649255065176     
  0.199649255065176     
  0.199649255065176     
  0.199649255065176     
  0.199638298997396     
  0.199638298997396     
  0.199638298997396     
  0.199638298997396     
  0.199638298997396     
  0.199638298997396     
  0.199638298997396     
  0.199638298997396     
  0.199638298997396     
  0.199638298997396     
  0.199638298997396     
  0.199638298997396     
  0.199638298997396     
  0.199638298997396     
  0.199638298997396     
  0.199626820761888     
  0.199626820761888     
  0.199626820761888     
  0.199626820761888     
  0.199626820761888     
  0.199626820761888     
  0.199626820761888     
  0.199626820761888     
  0.199626820761888     
  0.199626820761888     
  0.199626820761888     
  0.199626820761888     
  0.199626820761888     
  0.199626820761888     
  0.199626820761888     
  0.199614807735084     
  0.199614807735084     
  0.199614807735084     
  0.199614807735084     
  0.199614807735084     
  0.199614807735084     
  0.199614807735084     
  0.199614807735084     
  0.199614807735084     
  0.199614807735084     
  0.199614807735084     
  0.199614807735084     
  0.199614807735084     
  0.199614807735084     
  0.199614807735084     
  0.199602246876373     
  0.199602246876373     
  0.199602246876373     
  0.199602246876373     
  0.199602246876373     
  0.199602246876373     
  0.199602246876373     
  0.199602246876373     
  0.199602246876373     
  0.199602246876373     
  0.199602246876373     
  0.199602246876373     
  0.199602246876373     
  0.199602246876373     
  0.199602246876373     
  0.199589124737052     
  0.199589124737052     
  0.199589124737052     
  0.199589124737052     
  0.199589124737052     
  0.199589124737052     
  0.199589124737052     
  0.199589124737052     
  0.199589124737052     
  0.199589124737052     
  0.199589124737052     
  0.199589124737052     
  0.199589124737052     
  0.199589124737052     
  0.199589124737052     
  0.199575427470611     
  0.199575427470611     
  0.199575427470611     
  0.199575427470611     
  0.199575427470611     
  0.199575427470611     
  0.199575427470611     
  0.199575427470611     
  0.199575427470611     
  0.199575427470611     
  0.199575427470611     
  0.199575427470611     
  0.199575427470611     
  0.199575427470611     
  0.199575427470611     
  0.199561140844474     
  0.199561140844474     
  0.199561140844474     
  0.199561140844474     
  0.199561140844474     
  0.199561140844474     
  0.199561140844474     
  0.199561140844474     
  0.199561140844474     
  0.199561140844474     
  0.199561140844474     
  0.199561140844474     
  0.199561140844474     
  0.199561140844474     
  0.199561140844474     
  0.199546250253326     
  0.199546250253326     
  0.199546250253326     
  0.199546250253326     
  0.199546250253326     
  0.199546250253326     
  0.199546250253326     
  0.199546250253326     
  0.199546250253326     
  0.199546250253326     
  0.199546250253326     
  0.199546250253326     
  0.199546250253326     
  0.199546250253326     
  0.199546250253326     
  0.199530740734174     
  0.199530740734174     
  0.199530740734174     
  0.199530740734174     
  0.199530740734174     
  0.199530740734174     
  0.199530740734174     
  0.199530740734174     
  0.199530740734174     
  0.199530740734174     
  0.199530740734174     
  0.199530740734174     
  0.199530740734174     
  0.199530740734174     
  0.199530740734174     
  0.199514596983278     
  0.199514596983278     
  0.199514596983278     
  0.199514596983278     
  0.199514596983278     
  0.199514596983278     
  0.199514596983278     
  0.199514596983278     
  0.199514596983278     
  0.199514596983278     
  0.199514596983278     
  0.199514596983278     
  0.199514596983278     
  0.199514596983278     
  0.199514596983278     
  0.199497803375113     
  0.199497803375113     
  0.199497803375113     
  0.199497803375113     
  0.199497803375113     
  0.199497803375113     
  0.199497803375113     
  0.199497803375113     
  0.199497803375113     
  0.199497803375113     
  0.199497803375113     
  0.199497803375113     
  0.199497803375113     
  0.199497803375113     
  0.199497803375113     
  0.199480343983517     
  0.199480343983517     
  0.199480343983517     
  0.199480343983517     
  0.199480343983517     
  0.199480343983517     
  0.199480343983517     
  0.199480343983517     
  0.199480343983517     
  0.199480343983517     
  0.199480343983517     
  0.199480343983517     
  0.199480343983517     
  0.199480343983517     
  0.199480343983517     
  0.199462202605209     
  0.199462202605209     
  0.199462202605209     
  0.199462202605209     
  0.199462202605209     
  0.199462202605209     
  0.199462202605209     
  0.199462202605209     
  0.199462202605209     
  0.199462202605209     
  0.199462202605209     
  0.199462202605209     
  0.199462202605209     
  0.199462202605209     
  0.199462202605209     
  0.199443362785823     
  0.199443362785823     
  0.199443362785823     
  0.199443362785823     
  0.199443362785823     
  0.199443362785823     
  0.199443362785823     
  0.199443362785823     
  0.199443362785823     
  0.199443362785823     
  0.199443362785823     
  0.199443362785823     
  0.199443362785823     
  0.199443362785823     
  0.199443362785823     
  0.199423807848678     
  0.199423807848678     
  0.199423807848678     
  0.199423807848678     
  0.199423807848678     
  0.199423807848678     
  0.199423807848678     
  0.199423807848678     
  0.199423807848678     
  0.199423807848678     
  0.199423807848678     
  0.199423807848678     
  0.199423807848678     
  0.199423807848678     
  0.199423807848678     
  0.199403520926437     
  0.199403520926437     
  0.199403520926437     
  0.199403520926437     
  0.199403520926437     
  0.199403520926437     
  0.199403520926437     
  0.199403520926437     
  0.199403520926437     
  0.199403520926437     
  0.199403520926437     
  0.199403520926437     
  0.199403520926437     
  0.199403520926437     
  0.199403520926437     
  0.199382484995872     
  0.199382484995872     
  0.199382484995872     
  0.199382484995872     
  0.199382484995872     
  0.199382484995872     
  0.199382484995872     
  0.199382484995872     
  0.199382484995872     
  0.199382484995872     
  0.199382484995872     
  0.199382484995872     
  0.199382484995872     
  0.199382484995872     
  0.199382484995872     
  0.199360682915922     
  0.199360682915922     
  0.199360682915922     
  0.199360682915922     
  0.199360682915922     
  0.199360682915922     
  0.199360682915922     
  0.199360682915922     
  0.199360682915922     
  0.199360682915922     
  0.199360682915922     
  0.199360682915922     
  0.199360682915922     
  0.199360682915922     
  0.199360682915922     
  0.199338097469251     
  0.199338097469251     
  0.199338097469251     
  0.199338097469251     
  0.199338097469251     
  0.199338097469251     
  0.199338097469251     
  0.199338097469251     
  0.199338097469251     
  0.199338097469251     
  0.199338097469251     
  0.199338097469251     
  0.199338097469251     
  0.199338097469251     
  0.199338097469251     
  0.199314711407505     
  0.199314711407505     
  0.199314711407505     
  0.199314711407505     
  0.199314711407505     
  0.199314711407505     
  0.199314711407505     
  0.199314711407505     
  0.199314711407505     
  0.199314711407505     
  0.199314711407505     
  0.199314711407505     
  0.199314711407505     
  0.199314711407505     
  0.199314711407505     
  0.199290507500476     
  0.199290507500476     
  0.199290507500476     
  0.199290507500476     
  0.199290507500476     
  0.199290507500476     
  0.199290507500476     
  0.199290507500476     
  0.199290507500476     
  0.199290507500476     
  0.199290507500476     
  0.199290507500476     
  0.199290507500476     
  0.199290507500476     
  0.199290507500476     
  0.199265468589381     
  0.199265468589381     
  0.199265468589381     
  0.199265468589381     
  0.199265468589381     
  0.199265468589381     
  0.199265468589381     
  0.199265468589381     
  0.199265468589381     
  0.199265468589381     
  0.199265468589381     
  0.199265468589381     
  0.199265468589381     
  0.199265468589381     
  0.199265468589381     
  0.199239577644442     
  0.199239577644442     
  0.199239577644442     
  0.199239577644442     
  0.199239577644442     
  0.199239577644442     
  0.199239577644442     
  0.199239577644442     
  0.199239577644442     
  0.199239577644442     
  0.199239577644442     
  0.199239577644442     
  0.199239577644442     
  0.199239577644442     
  0.199239577644442     
  0.199212817826978     
  0.199212817826978     
  0.199212817826978     
  0.199212817826978     
  0.199212817826978     
  0.199212817826978     
  0.199212817826978     
  0.199212817826978     
  0.199212817826978     
  0.199212817826978     
  0.199212817826978     
  0.199212817826978     
  0.199212817826978     
  0.199212817826978     
  0.199212817826978     
  0.199185172556179     
  0.199185172556179     
  0.199185172556179     
  0.199185172556179     
  0.199185172556179     
  0.199185172556179     
  0.199185172556179     
  0.199185172556179     
  0.199185172556179     
  0.199185172556179     
  0.199185172556179     
  0.199185172556179     
  0.199185172556179     
  0.199185172556179     
  0.199185172556179     
  0.199156625580746     
  0.199156625580746     
  0.199156625580746     
  0.199156625580746     
  0.199156625580746     
  0.199156625580746     
  0.199156625580746     
  0.199156625580746     
  0.199156625580746     
  0.199156625580746     
  0.199156625580746     
  0.199156625580746     
  0.199156625580746     
  0.199156625580746     
  0.199156625580746     
  0.199127161055541     
  0.199127161055541     
  0.199127161055541     
  0.199127161055541     
  0.199127161055541     
  0.199127161055541     
  0.199127161055541     
  0.199127161055541     
  0.199127161055541     
  0.199127161055541     
  0.199127161055541     
  0.199127161055541     
  0.199127161055541     
  0.199127161055541     
  0.199127161055541     
  0.199096763623385     
  0.199096763623385     
  0.199096763623385     
  0.199096763623385     
  0.199096763623385     
  0.199096763623385     
  0.199096763623385     
  0.199096763623385     
  0.199096763623385     
  0.199096763623385     
  0.199096763623385     
  0.199096763623385     
  0.199096763623385     
  0.199096763623385     
  0.199096763623385     
  0.199065418502109     
  0.199065418502109     
  0.199065418502109     
  0.199065418502109     
  0.199065418502109     
  0.199065418502109     
  0.199065418502109     
  0.199065418502109     
  0.199065418502109     
  0.199065418502109     
  0.199065418502109     
  0.199065418502109     
  0.199065418502109     
  0.199065418502109     
  0.199065418502109     
  0.199033111576924     
  0.199033111576924     
  0.199033111576924     
  0.199033111576924     
  0.199033111576924     
  0.199033111576924     
  0.199033111576924     
  0.199033111576924     
  0.199033111576924     
  0.199033111576924     
  0.199033111576925     
  0.199033111576924     
  0.199033111576924     
  0.199033111576924     
  0.199033111576924     
  0.198999829498153     
  0.198999829498153     
  0.198999829498153     
  0.198999829498153     
  0.198999829498153     
  0.198999829498153     
  0.198999829498153     
  0.198999829498153     
  0.198999829498153     
  0.198999829498153     
  0.198999829498153     
  0.198999829498153     
  0.198999829498153     
  0.198999829498153     
  0.198999829498153     
  0.198965559784285     
  0.198965559784285     
  0.198965559784285     
  0.198965559784285     
  0.198965559784285     
  0.198965559784285     
  0.198965559784285     
  0.198965559784285     
  0.198965559784285     
  0.198965559784285     
  0.198965559784285     
  0.198965559784285     
  0.198965559784285     
  0.198965559784285     
  0.198965559784285     
  0.198930290930292     
  0.198930290930292     
  0.198930290930292     
  0.198930290930292     
  0.198930290930292     
  0.198930290930292     
  0.198930290930292     
  0.198930290930292     
  0.198930290930292     
  0.198930290930292     
  0.198930290930292     
  0.198930290930292     
  0.198930290930292     
  0.198930290930292     
  0.198930290930292     
  0.198894012521066     
  0.198894012521066     
  0.198894012521066     
  0.198894012521066     
  0.198894012521066     
  0.198894012521066     
  0.198894012521066     
  0.198894012521066     
  0.198894012521066     
  0.198894012521066     
  0.198894012521066     
  0.198894012521066     
  0.198894012521066     
  0.198894012521066     
  0.198894012521066     
  0.198856715349733     
  0.198856715349733     
  0.198856715349733     
  0.198856715349733     
  0.198856715349733     
  0.198856715349733     
  0.198856715349733     
  0.198856715349733     
  0.198856715349733     
  0.198856715349733     
  0.198856715349733     
  0.198856715349733     
  0.198856715349733     
  0.198856715349733     
  0.198856715349733     
  0.198818391540555     
  0.198818391540555     
  0.198818391540555     
  0.198818391540555     
  0.198818391540555     
  0.198818391540555     
  0.198818391540555     
  0.198818391540555     
  0.198818391540555     
  0.198818391540555     
  0.198818391540555     
  0.198818391540555     
  0.198818391540555     
  0.198818391540555     
  0.198818391540555     
  0.198779034675991     
  0.198779034675991     
  0.198779034675991     
  0.198779034675991     
  0.198779034675991     
  0.198779034675991     
  0.198779034675991     
  0.198779034675991     
  0.198779034675991     
  0.198779034675991     
  0.198779034675991     
  0.198779034675991     
  0.198779034675991     
  0.198779034675991     
  0.198779034675991     
  0.198738639927384     
  0.198738639927384     
  0.198738639927384     
  0.198738639927384     
  0.198738639927384     
  0.198738639927384     
  0.198738639927384     
  0.198738639927384     
  0.198738639927384     
  0.198738639927384     
  0.198738639927384     
  0.198738639927384     
  0.198738639927384     
  0.198738639927384     
  0.198738639927384     
  0.198697204188624     
  0.198697204188624     
  0.198697204188624     
  0.198697204188624     
  0.198697204188624     
  0.198697204188624     
  0.198697204188624     
  0.198697204188624     
  0.198697204188624     
  0.198697204188624     
  0.198697204188624     
  0.198697204188624     
  0.198697204188624     
  0.198697204188624     
  0.198697204188624     
  0.198654726211956     
  0.198654726211957     
  0.198654726211956     
  0.198654726211956     
  0.198654726211956     
  0.198654726211956     
  0.198654726211957     
  0.198654726211956     
  0.198654726211956     
  0.198654726211956     
  0.198654726211956     
  0.198654726211956     
  0.198654726211956     
  0.198654726211956     
  0.198654726211956     
  0.198611206744997     
  0.198611206744997     
  0.198611206744997     
  0.198611206744997     
  0.198611206744997     
  0.198611206744997     
  0.198611206744997     
  0.198611206744997     
  0.198611206744997     
  0.198611206744997     
  0.198611206744997     
  0.198611206744997     
  0.198611206744997     
  0.198611206744997     
  0.198611206744997     
  0.198566648667776     
  0.198566648667776     
  0.198566648667776     
  0.198566648667776     
  0.198566648667776     
  0.198566648667776     
  0.198566648667776     
  0.198566648667776     
  0.198566648667776     
  0.198566648667776     
  0.198566648667776     
  0.198566648667776     
  0.198566648667776     
  0.198566648667776     
  0.198566648667776     
  0.198521057128509     
  0.198521057128509     
  0.198521057128509     
  0.198521057128509     
  0.198521057128509     
  0.198521057128509     
  0.198521057128509     
  0.198521057128509     
  0.198521057128509     
  0.198521057128509     
  0.198521057128509     
  0.198521057128509     
  0.198521057128509     
  0.198521057128509     
  0.198521057128509     
  0.198474439676527     
  0.198474439676527     
  0.198474439676527     
  0.198474439676527     
  0.198474439676527     
  0.198474439676527     
  0.198474439676527     
  0.198474439676527     
  0.198474439676527     
  0.198474439676527     
  0.198474439676527     
  0.198474439676527     
  0.198474439676527     
  0.198474439676527     
  0.198474439676527     
  0.198426806390648     
  0.198426806390648     
  0.198426806390648     
  0.198426806390648     
  0.198426806390648     
  0.198426806390648     
  0.198426806390648     
  0.198426806390648     
  0.198426806390648     
  0.198426806390648     
  0.198426806390648     
  0.198426806390648     
  0.198426806390648     
  0.198426806390648     
  0.198426806390648     
  0.198378170000980     
  0.198378170000980     
  0.198378170000980     
  0.198378170000980     
  0.198378170000980     
  0.198378170000980     
  0.198378170000980     
  0.198378170000980     
  0.198378170000980     
  0.198378170000980     
  0.198378170000980     
  0.198378170000980     
  0.198378170000980     
  0.198378170000980     
  0.198378170000980     
  0.198328546001994     
  0.198328546001994     
  0.198328546001994     
  0.198328546001994     
  0.198328546001994     
  0.198328546001994     
  0.198328546001994     
  0.198328546001994     
  0.198328546001994     
  0.198328546001994     
  0.198328546001994     
  0.198328546001994     
  0.198328546001994     
  0.198328546001994     
  0.198328546001994     
  0.198277952754413     
  0.198277952754413     
  0.198277952754413     
  0.198277952754413     
  0.198277952754413     
  0.198277952754413     
  0.198277952754413     
  0.198277952754413     
  0.198277952754413     
  0.198277952754413     
  0.198277952754413     
  0.198277952754413     
  0.198277952754413     
  0.198277952754413     
  0.198277952754413     
  0.198226411573310     
  0.198226411573310     
  0.198226411573311     
  0.198226411573310     
  0.198226411573310     
  0.198226411573310     
  0.198226411573310     
  0.198226411573310     
  0.198226411573310     
  0.198226411573310     
  0.198226411573310     
  0.198226411573310     
  0.198226411573310     
  0.198226411573310     
  0.198226411573310     
  0.198173946799565     
  0.198173946799565     
  0.198173946799565     
  0.198173946799565     
  0.198173946799565     
  0.198173946799565     
  0.198173946799565     
  0.198173946799565     
  0.198173946799565     
  0.198173946799565     
  0.198173946799565     
  0.198173946799565     
  0.198173946799565     
  0.198173946799565     
  0.198173946799565     
  0.198120585851700     
  0.198120585851700     
  0.198120585851700     
  0.198120585851700     
  0.198120585851700     
  0.198120585851700     
  0.198120585851700     
  0.198120585851700     
  0.198120585851700     
  0.198120585851700     
  0.198120585851700     
  0.198120585851700     
  0.198120585851700     
  0.198120585851700     
  0.198120585851700     
  0.198066359254998     
  0.198066359254998     
  0.198066359254998     
  0.198066359254998     
  0.198066359254998     
  0.198066359254998     
  0.198066359254998     
  0.198066359254998     
  0.198066359254998     
  0.198066359254998     
  0.198066359254998     
  0.198066359254998     
  0.198066359254998     
  0.198066359254998     
  0.198066359254998     
  0.198011300644728     
  0.198011300644728     
  0.198011300644728     
  0.198011300644728     
  0.198011300644728     
  0.198011300644728     
  0.198011300644728     
  0.198011300644728     
  0.198011300644728     
  0.198011300644728     
  0.198011300644728     
  0.198011300644728     
  0.198011300644728     
  0.198011300644728     
  0.198011300644728     
  0.197955446740386     
  0.197955446740386     
  0.197955446740386     
  0.197955446740386     
  0.197955446740386     
  0.197955446740386     
  0.197955446740386     
  0.197955446740386     
  0.197955446740386     
  0.197955446740386     
  0.197955446740386     
  0.197955446740386     
  0.197955446740386     
  0.197955446740386     
  0.197955446740386     
  0.197898837287951     
  0.197898837287951     
  0.197898837287951     
  0.197898837287951     
  0.197898837287951     
  0.197898837287951     
  0.197898837287951     
  0.197898837287951     
  0.197898837287951     
  0.197898837287951     
  0.197898837287951     
  0.197898837287951     
  0.197898837287951     
  0.197898837287951     
  0.197898837287951     
  0.197841514967488     
  0.197841514967488     
  0.197841514967488     
  0.197841514967488     
  0.197841514967488     
  0.197841514967488     
  0.197841514967488     
  0.197841514967488     
  0.197841514967488     
  0.197841514967488     
  0.197841514967488     
  0.197841514967488     
  0.197841514967488     
  0.197841514967488     
  0.197841514967488     
  0.197783525263826     
  0.197783525263826     
  0.197783525263826     
  0.197783525263826     
  0.197783525263826     
  0.197783525263826     
  0.197783525263826     
  0.197783525263826     
  0.197783525263826     
  0.197783525263826     
  0.197783525263826     
  0.197783525263826     
  0.197783525263826     
  0.197783525263826     
  0.197783525263826     
  0.197724916298709     
  0.197724916298709     
  0.197724916298709     
  0.197724916298709     
  0.197724916298709     
  0.197724916298709     
  0.197724916298709     
  0.197724916298709     
  0.197724916298709     
  0.197724916298709     
  0.197724916298709     
  0.197724916298709     
  0.197724916298709     
  0.197724916298709     
  0.197724916298709     
  0.197665738623638     
  0.197665738623638     
  0.197665738623638     
  0.197665738623638     
  0.197665738623638     
  0.197665738623638     
  0.197665738623638     
  0.197665738623638     
  0.197665738623638     
  0.197665738623638     
  0.197665738623638     
  0.197665738623638     
  0.197665738623638     
  0.197665738623638     
  0.197665738623638     
  0.197606044973709     
  0.197606044973709     
  0.197606044973709     
  0.197606044973709     
  0.197606044973709     
  0.197606044973709     
  0.197606044973709     
  0.197606044973709     
  0.197606044973709     
  0.197606044973709     
  0.197606044973709     
  0.197606044973709     
  0.197606044973709     
  0.197606044973709     
  0.197606044973709     
  0.197545889984060     
  0.197545889984060     
  0.197545889984060     
  0.197545889984060     
  0.197545889984060     
  0.197545889984060     
  0.197545889984060     
  0.197545889984060     
  0.197545889984060     
  0.197545889984060     
  0.197545889984060     
  0.197545889984060     
  0.197545889984060     
  0.197545889984060     
  0.197545889984060     
  0.197485329872045     
  0.197485329872045     
  0.197485329872045     
  0.197485329872045     
  0.197485329872045     
  0.197485329872045     
  0.197485329872045     
  0.197485329872045     
  0.197485329872045     
  0.197485329872045     
  0.197485329872045     
  0.197485329872045     
  0.197485329872045     
  0.197485329872045     
  0.197485329872045     
  0.197424422089909     
  0.197424422089909     
  0.197424422089909     
  0.197424422089909     
  0.197424422089909     
  0.197424422089909     
  0.197424422089909     
  0.197424422089909     
  0.197424422089909     
  0.197424422089909     
  0.197424422089909     
  0.197424422089909     
  0.197424422089909     
  0.197424422089909     
  0.197424422089909     
