# vtk DataFile Version 3.0
vtk output
ASCII
DATASET UNSTRUCTURED_GRID
POINTS      1456 double 
  0.00000000E+00  1.00000000E+01  0.00000000E+00
  0.00000000E+00  9.33333333E+00  0.00000000E+00
  0.00000000E+00  8.66666667E+00  0.00000000E+00
  0.00000000E+00  8.00000000E+00  0.00000000E+00
  0.00000000E+00  7.33333333E+00  0.00000000E+00
  0.00000000E+00  6.66666667E+00  0.00000000E+00
  0.00000000E+00  6.00000000E+00  0.00000000E+00
  0.00000000E+00  5.33333333E+00  0.00000000E+00
  0.00000000E+00  4.66666667E+00  0.00000000E+00
  0.00000000E+00  4.00000000E+00  0.00000000E+00
  0.00000000E+00  3.33333333E+00  0.00000000E+00
  0.00000000E+00  2.66666667E+00  0.00000000E+00
  0.00000000E+00  2.00000000E+00  0.00000000E+00
  0.00000000E+00  1.33333333E+00  0.00000000E+00
  0.00000000E+00  6.66666667E-01  0.00000000E+00
  0.00000000E+00  1.66533454E-15  0.00000000E+00
  1.11111111E+00  1.00000000E+01  0.00000000E+00
  1.11111111E+00  9.33333333E+00  0.00000000E+00
  1.11111111E+00  8.66666667E+00  0.00000000E+00
  1.11111111E+00  8.00000000E+00  0.00000000E+00
  1.11111111E+00  7.33333333E+00  0.00000000E+00
  1.11111111E+00  6.66666667E+00  0.00000000E+00
  1.11111111E+00  6.00000000E+00  0.00000000E+00
  1.11111111E+00  5.33333333E+00  0.00000000E+00
  1.11111111E+00  4.66666667E+00  0.00000000E+00
  1.11111111E+00  4.00000000E+00  0.00000000E+00
  1.11111111E+00  3.33333333E+00  0.00000000E+00
  1.11111111E+00  2.66666667E+00  0.00000000E+00
  1.11111111E+00  2.00000000E+00  0.00000000E+00
  1.11111111E+00  1.33333333E+00  0.00000000E+00
  1.11111111E+00  6.66666667E-01  0.00000000E+00
  1.11111111E+00  1.66533454E-15  0.00000000E+00
  2.22222222E+00  1.00000000E+01  0.00000000E+00
  2.22222222E+00  9.33333333E+00  0.00000000E+00
  2.22222222E+00  8.66666667E+00  0.00000000E+00
  2.22222222E+00  8.00000000E+00  0.00000000E+00
  2.22222222E+00  7.33333333E+00  0.00000000E+00
  2.22222222E+00  6.66666667E+00  0.00000000E+00
  2.22222222E+00  6.00000000E+00  0.00000000E+00
  2.22222222E+00  5.33333333E+00  0.00000000E+00
  2.22222222E+00  4.66666667E+00  0.00000000E+00
  2.22222222E+00  4.00000000E+00  0.00000000E+00
  2.22222222E+00  3.33333333E+00  0.00000000E+00
  2.22222222E+00  2.66666667E+00  0.00000000E+00
  2.22222222E+00  2.00000000E+00  0.00000000E+00
  2.22222222E+00  1.33333333E+00  0.00000000E+00
  2.22222222E+00  6.66666667E-01  0.00000000E+00
  2.22222222E+00  1.66533454E-15  0.00000000E+00
  3.33333333E+00  1.00000000E+01  0.00000000E+00
  3.33333333E+00  9.33333333E+00  0.00000000E+00
  3.33333333E+00  8.66666667E+00  0.00000000E+00
  3.33333333E+00  8.00000000E+00  0.00000000E+00
  3.33333333E+00  7.33333333E+00  0.00000000E+00
  3.33333333E+00  6.66666667E+00  0.00000000E+00
  3.33333333E+00  6.00000000E+00  0.00000000E+00
  3.33333333E+00  5.33333333E+00  0.00000000E+00
  3.33333333E+00  4.66666667E+00  0.00000000E+00
  3.33333333E+00  4.00000000E+00  0.00000000E+00
  3.33333333E+00  3.33333333E+00  0.00000000E+00
  3.33333333E+00  2.66666667E+00  0.00000000E+00
  3.33333333E+00  2.00000000E+00  0.00000000E+00
  3.33333333E+00  1.33333333E+00  0.00000000E+00
  3.33333333E+00  6.66666667E-01  0.00000000E+00
  3.33333333E+00  1.66533454E-15  0.00000000E+00
  4.44444444E+00  1.00000000E+01  0.00000000E+00
  4.44444444E+00  9.33333333E+00  0.00000000E+00
  4.44444444E+00  8.66666667E+00  0.00000000E+00
  4.44444444E+00  8.00000000E+00  0.00000000E+00
  4.44444444E+00  7.33333333E+00  0.00000000E+00
  4.44444444E+00  6.66666667E+00  0.00000000E+00
  4.44444444E+00  6.00000000E+00  0.00000000E+00
  4.44444444E+00  5.33333333E+00  0.00000000E+00
  4.44444444E+00  4.66666667E+00  0.00000000E+00
  4.44444444E+00  4.00000000E+00  0.00000000E+00
  4.44444444E+00  3.33333333E+00  0.00000000E+00
  4.44444444E+00  2.66666667E+00  0.00000000E+00
  4.44444444E+00  2.00000000E+00  0.00000000E+00
  4.44444444E+00  1.33333333E+00  0.00000000E+00
  4.44444444E+00  6.66666667E-01  0.00000000E+00
  4.44444444E+00  1.66533454E-15  0.00000000E+00
  5.55555556E+00  1.00000000E+01  0.00000000E+00
  5.55555556E+00  9.33333333E+00  0.00000000E+00
  5.55555556E+00  8.66666667E+00  0.00000000E+00
  5.55555556E+00  8.00000000E+00  0.00000000E+00
  5.55555556E+00  7.33333333E+00  0.00000000E+00
  5.55555556E+00  6.66666667E+00  0.00000000E+00
  5.55555556E+00  6.00000000E+00  0.00000000E+00
  5.55555556E+00  5.33333333E+00  0.00000000E+00
  5.55555556E+00  4.66666667E+00  0.00000000E+00
  5.55555556E+00  4.00000000E+00  0.00000000E+00
  5.55555556E+00  3.33333333E+00  0.00000000E+00
  5.55555556E+00  2.66666667E+00  0.00000000E+00
  5.55555556E+00  2.00000000E+00  0.00000000E+00
  5.55555556E+00  1.33333333E+00  0.00000000E+00
  5.55555556E+00  6.66666667E-01  0.00000000E+00
  5.55555556E+00  1.66533454E-15  0.00000000E+00
  6.66666667E+00  1.00000000E+01  0.00000000E+00
  6.66666667E+00  9.33333333E+00  0.00000000E+00
  6.66666667E+00  8.66666667E+00  0.00000000E+00
  6.66666667E+00  8.00000000E+00  0.00000000E+00
  6.66666667E+00  7.33333333E+00  0.00000000E+00
  6.66666667E+00  6.66666667E+00  0.00000000E+00
  6.66666667E+00  6.00000000E+00  0.00000000E+00
  6.66666667E+00  5.33333333E+00  0.00000000E+00
  6.66666667E+00  4.66666667E+00  0.00000000E+00
  6.66666667E+00  4.00000000E+00  0.00000000E+00
  6.66666667E+00  3.33333333E+00  0.00000000E+00
  6.66666667E+00  2.66666667E+00  0.00000000E+00
  6.66666667E+00  2.00000000E+00  0.00000000E+00
  6.66666667E+00  1.33333333E+00  0.00000000E+00
  6.66666667E+00  6.66666667E-01  0.00000000E+00
  6.66666667E+00  1.66533454E-15  0.00000000E+00
  7.77777778E+00  1.00000000E+01  0.00000000E+00
  7.77777778E+00  9.33333333E+00  0.00000000E+00
  7.77777778E+00  8.66666667E+00  0.00000000E+00
  7.77777778E+00  8.00000000E+00  0.00000000E+00
  7.77777778E+00  7.33333333E+00  0.00000000E+00
  7.77777778E+00  6.66666667E+00  0.00000000E+00
  7.77777778E+00  6.00000000E+00  0.00000000E+00
  7.77777778E+00  5.33333333E+00  0.00000000E+00
  7.77777778E+00  4.66666667E+00  0.00000000E+00
  7.77777778E+00  4.00000000E+00  0.00000000E+00
  7.77777778E+00  3.33333333E+00  0.00000000E+00
  7.77777778E+00  2.66666667E+00  0.00000000E+00
  7.77777778E+00  2.00000000E+00  0.00000000E+00
  7.77777778E+00  1.33333333E+00  0.00000000E+00
  7.77777778E+00  6.66666667E-01  0.00000000E+00
  7.77777778E+00  1.66533454E-15  0.00000000E+00
  8.88888889E+00  1.00000000E+01  0.00000000E+00
  8.88888889E+00  9.33333333E+00  0.00000000E+00
  8.88888889E+00  8.66666667E+00  0.00000000E+00
  8.88888889E+00  8.00000000E+00  0.00000000E+00
  8.88888889E+00  7.33333333E+00  0.00000000E+00
  8.88888889E+00  6.66666667E+00  0.00000000E+00
  8.88888889E+00  6.00000000E+00  0.00000000E+00
  8.88888889E+00  5.33333333E+00  0.00000000E+00
  8.88888889E+00  4.66666667E+00  0.00000000E+00
  8.88888889E+00  4.00000000E+00  0.00000000E+00
  8.88888889E+00  3.33333333E+00  0.00000000E+00
  8.88888889E+00  2.66666667E+00  0.00000000E+00
  8.88888889E+00  2.00000000E+00  0.00000000E+00
  8.88888889E+00  1.33333333E+00  0.00000000E+00
  8.88888889E+00  6.66666667E-01  0.00000000E+00
  8.88888889E+00  1.66533454E-15  0.00000000E+00
  1.00000000E+01  1.00000000E+01  0.00000000E+00
  1.00000000E+01  9.33333333E+00  0.00000000E+00
  1.00000000E+01  8.66666667E+00  0.00000000E+00
  1.00000000E+01  8.00000000E+00  0.00000000E+00
  1.00000000E+01  7.33333333E+00  0.00000000E+00
  1.00000000E+01  6.66666667E+00  0.00000000E+00
  1.00000000E+01  6.00000000E+00  0.00000000E+00
  1.00000000E+01  5.33333333E+00  0.00000000E+00
  1.00000000E+01  4.66666667E+00  0.00000000E+00
  1.00000000E+01  4.00000000E+00  0.00000000E+00
  1.00000000E+01  3.33333333E+00  0.00000000E+00
  1.00000000E+01  2.66666667E+00  0.00000000E+00
  1.00000000E+01  2.00000000E+00  0.00000000E+00
  1.00000000E+01  1.33333333E+00  0.00000000E+00
  1.00000000E+01  6.66666667E-01  0.00000000E+00
  1.00000000E+01  1.66533454E-15  0.00000000E+00
  1.11111111E+01  1.00000000E+01  0.00000000E+00
  1.11111111E+01  9.33333333E+00  0.00000000E+00
  1.11111111E+01  8.66666667E+00  0.00000000E+00
  1.11111111E+01  8.00000000E+00  0.00000000E+00
  1.11111111E+01  7.33333333E+00  0.00000000E+00
  1.11111111E+01  6.66666667E+00  0.00000000E+00
  1.11111111E+01  6.00000000E+00  0.00000000E+00
  1.11111111E+01  5.33333333E+00  0.00000000E+00
  1.11111111E+01  4.66666667E+00  0.00000000E+00
  1.11111111E+01  4.00000000E+00  0.00000000E+00
  1.11111111E+01  3.33333333E+00  0.00000000E+00
  1.11111111E+01  2.66666667E+00  0.00000000E+00
  1.11111111E+01  2.00000000E+00  0.00000000E+00
  1.11111111E+01  1.33333333E+00  0.00000000E+00
  1.11111111E+01  6.66666667E-01  0.00000000E+00
  1.11111111E+01  1.66533454E-15  0.00000000E+00
  1.22222222E+01  1.00000000E+01  0.00000000E+00
  1.22222222E+01  9.33333333E+00  0.00000000E+00
  1.22222222E+01  8.66666667E+00  0.00000000E+00
  1.22222222E+01  8.00000000E+00  0.00000000E+00
  1.22222222E+01  7.33333333E+00  0.00000000E+00
  1.22222222E+01  6.66666667E+00  0.00000000E+00
  1.22222222E+01  6.00000000E+00  0.00000000E+00
  1.22222222E+01  5.33333333E+00  0.00000000E+00
  1.22222222E+01  4.66666667E+00  0.00000000E+00
  1.22222222E+01  4.00000000E+00  0.00000000E+00
  1.22222222E+01  3.33333333E+00  0.00000000E+00
  1.22222222E+01  2.66666667E+00  0.00000000E+00
  1.22222222E+01  2.00000000E+00  0.00000000E+00
  1.22222222E+01  1.33333333E+00  0.00000000E+00
  1.22222222E+01  6.66666667E-01  0.00000000E+00
  1.22222222E+01  1.66533454E-15  0.00000000E+00
  1.33333333E+01  1.00000000E+01  0.00000000E+00
  1.33333333E+01  9.33333333E+00  0.00000000E+00
  1.33333333E+01  8.66666667E+00  0.00000000E+00
  1.33333333E+01  8.00000000E+00  0.00000000E+00
  1.33333333E+01  7.33333333E+00  0.00000000E+00
  1.33333333E+01  6.66666667E+00  0.00000000E+00
  1.33333333E+01  6.00000000E+00  0.00000000E+00
  1.33333333E+01  5.33333333E+00  0.00000000E+00
  1.33333333E+01  4.66666667E+00  0.00000000E+00
  1.33333333E+01  4.00000000E+00  0.00000000E+00
  1.33333333E+01  3.33333333E+00  0.00000000E+00
  1.33333333E+01  2.66666667E+00  0.00000000E+00
  1.33333333E+01  2.00000000E+00  0.00000000E+00
  1.33333333E+01  1.33333333E+00  0.00000000E+00
  1.33333333E+01  6.66666667E-01  0.00000000E+00
  1.33333333E+01  1.66533454E-15  0.00000000E+00
  1.44444444E+01  1.00000000E+01  0.00000000E+00
  1.44444444E+01  9.33333333E+00  0.00000000E+00
  1.44444444E+01  8.66666667E+00  0.00000000E+00
  1.44444444E+01  8.00000000E+00  0.00000000E+00
  1.44444444E+01  7.33333333E+00  0.00000000E+00
  1.44444444E+01  6.66666667E+00  0.00000000E+00
  1.44444444E+01  6.00000000E+00  0.00000000E+00
  1.44444444E+01  5.33333333E+00  0.00000000E+00
  1.44444444E+01  4.66666667E+00  0.00000000E+00
  1.44444444E+01  4.00000000E+00  0.00000000E+00
  1.44444444E+01  3.33333333E+00  0.00000000E+00
  1.44444444E+01  2.66666667E+00  0.00000000E+00
  1.44444444E+01  2.00000000E+00  0.00000000E+00
  1.44444444E+01  1.33333333E+00  0.00000000E+00
  1.44444444E+01  6.66666667E-01  0.00000000E+00
  1.44444444E+01  1.66533454E-15  0.00000000E+00
  1.55555556E+01  1.00000000E+01  0.00000000E+00
  1.55555556E+01  9.33333333E+00  0.00000000E+00
  1.55555556E+01  8.66666667E+00  0.00000000E+00
  1.55555556E+01  8.00000000E+00  0.00000000E+00
  1.55555556E+01  7.33333333E+00  0.00000000E+00
  1.55555556E+01  6.66666667E+00  0.00000000E+00
  1.55555556E+01  6.00000000E+00  0.00000000E+00
  1.55555556E+01  5.33333333E+00  0.00000000E+00
  1.55555556E+01  4.66666667E+00  0.00000000E+00
  1.55555556E+01  4.00000000E+00  0.00000000E+00
  1.55555556E+01  3.33333333E+00  0.00000000E+00
  1.55555556E+01  2.66666667E+00  0.00000000E+00
  1.55555556E+01  2.00000000E+00  0.00000000E+00
  1.55555556E+01  1.33333333E+00  0.00000000E+00
  1.55555556E+01  6.66666667E-01  0.00000000E+00
  1.55555556E+01  1.66533454E-15  0.00000000E+00
  1.66666667E+01  1.00000000E+01  0.00000000E+00
  1.66666667E+01  9.33333333E+00  0.00000000E+00
  1.66666667E+01  8.66666667E+00  0.00000000E+00
  1.66666667E+01  8.00000000E+00  0.00000000E+00
  1.66666667E+01  7.33333333E+00  0.00000000E+00
  1.66666667E+01  6.66666667E+00  0.00000000E+00
  1.66666667E+01  6.00000000E+00  0.00000000E+00
  1.66666667E+01  5.33333333E+00  0.00000000E+00
  1.66666667E+01  4.66666667E+00  0.00000000E+00
  1.66666667E+01  4.00000000E+00  0.00000000E+00
  1.66666667E+01  3.33333333E+00  0.00000000E+00
  1.66666667E+01  2.66666667E+00  0.00000000E+00
  1.66666667E+01  2.00000000E+00  0.00000000E+00
  1.66666667E+01  1.33333333E+00  0.00000000E+00
  1.66666667E+01  6.66666667E-01  0.00000000E+00
  1.66666667E+01  1.66533454E-15  0.00000000E+00
  1.77777778E+01  1.00000000E+01  0.00000000E+00
  1.77777778E+01  9.33333333E+00  0.00000000E+00
  1.77777778E+01  8.66666667E+00  0.00000000E+00
  1.77777778E+01  8.00000000E+00  0.00000000E+00
  1.77777778E+01  7.33333333E+00  0.00000000E+00
  1.77777778E+01  6.66666667E+00  0.00000000E+00
  1.77777778E+01  6.00000000E+00  0.00000000E+00
  1.77777778E+01  5.33333333E+00  0.00000000E+00
  1.77777778E+01  4.66666667E+00  0.00000000E+00
  1.77777778E+01  4.00000000E+00  0.00000000E+00
  1.77777778E+01  3.33333333E+00  0.00000000E+00
  1.77777778E+01  2.66666667E+00  0.00000000E+00
  1.77777778E+01  2.00000000E+00  0.00000000E+00
  1.77777778E+01  1.33333333E+00  0.00000000E+00
  1.77777778E+01  6.66666667E-01  0.00000000E+00
  1.77777778E+01  1.66533454E-15  0.00000000E+00
  1.88888889E+01  1.00000000E+01  0.00000000E+00
  1.88888889E+01  9.33333333E+00  0.00000000E+00
  1.88888889E+01  8.66666667E+00  0.00000000E+00
  1.88888889E+01  8.00000000E+00  0.00000000E+00
  1.88888889E+01  7.33333333E+00  0.00000000E+00
  1.88888889E+01  6.66666667E+00  0.00000000E+00
  1.88888889E+01  6.00000000E+00  0.00000000E+00
  1.88888889E+01  5.33333333E+00  0.00000000E+00
  1.88888889E+01  4.66666667E+00  0.00000000E+00
  1.88888889E+01  4.00000000E+00  0.00000000E+00
  1.88888889E+01  3.33333333E+00  0.00000000E+00
  1.88888889E+01  2.66666667E+00  0.00000000E+00
  1.88888889E+01  2.00000000E+00  0.00000000E+00
  1.88888889E+01  1.33333333E+00  0.00000000E+00
  1.88888889E+01  6.66666667E-01  0.00000000E+00
  1.88888889E+01  1.66533454E-15  0.00000000E+00
  2.00000000E+01  1.00000000E+01  0.00000000E+00
  2.00000000E+01  9.33333333E+00  0.00000000E+00
  2.00000000E+01  8.66666667E+00  0.00000000E+00
  2.00000000E+01  8.00000000E+00  0.00000000E+00
  2.00000000E+01  7.33333333E+00  0.00000000E+00
  2.00000000E+01  6.66666667E+00  0.00000000E+00
  2.00000000E+01  6.00000000E+00  0.00000000E+00
  2.00000000E+01  5.33333333E+00  0.00000000E+00
  2.00000000E+01  4.66666667E+00  0.00000000E+00
  2.00000000E+01  4.00000000E+00  0.00000000E+00
  2.00000000E+01  3.33333333E+00  0.00000000E+00
  2.00000000E+01  2.66666667E+00  0.00000000E+00
  2.00000000E+01  2.00000000E+00  0.00000000E+00
  2.00000000E+01  1.33333333E+00  0.00000000E+00
  2.00000000E+01  6.66666667E-01  0.00000000E+00
  2.00000000E+01  1.66533454E-15  0.00000000E+00
  2.11111111E+01  1.00000000E+01  0.00000000E+00
  2.11111111E+01  9.33333333E+00  0.00000000E+00
  2.11111111E+01  8.66666667E+00  0.00000000E+00
  2.11111111E+01  8.00000000E+00  0.00000000E+00
  2.11111111E+01  7.33333333E+00  0.00000000E+00
  2.11111111E+01  6.66666667E+00  0.00000000E+00
  2.11111111E+01  6.00000000E+00  0.00000000E+00
  2.11111111E+01  5.33333333E+00  0.00000000E+00
  2.11111111E+01  4.66666667E+00  0.00000000E+00
  2.11111111E+01  4.00000000E+00  0.00000000E+00
  2.11111111E+01  3.33333333E+00  0.00000000E+00
  2.11111111E+01  2.66666667E+00  0.00000000E+00
  2.11111111E+01  2.00000000E+00  0.00000000E+00
  2.11111111E+01  1.33333333E+00  0.00000000E+00
  2.11111111E+01  6.66666667E-01  0.00000000E+00
  2.11111111E+01  1.66533454E-15  0.00000000E+00
  2.22222222E+01  1.00000000E+01  0.00000000E+00
  2.22222222E+01  9.33333333E+00  0.00000000E+00
  2.22222222E+01  8.66666667E+00  0.00000000E+00
  2.22222222E+01  8.00000000E+00  0.00000000E+00
  2.22222222E+01  7.33333333E+00  0.00000000E+00
  2.22222222E+01  6.66666667E+00  0.00000000E+00
  2.22222222E+01  6.00000000E+00  0.00000000E+00
  2.22222222E+01  5.33333333E+00  0.00000000E+00
  2.22222222E+01  4.66666667E+00  0.00000000E+00
  2.22222222E+01  4.00000000E+00  0.00000000E+00
  2.22222222E+01  3.33333333E+00  0.00000000E+00
  2.22222222E+01  2.66666667E+00  0.00000000E+00
  2.22222222E+01  2.00000000E+00  0.00000000E+00
  2.22222222E+01  1.33333333E+00  0.00000000E+00
  2.22222222E+01  6.66666667E-01  0.00000000E+00
  2.22222222E+01  1.66533454E-15  0.00000000E+00
  2.33333333E+01  1.00000000E+01  0.00000000E+00
  2.33333333E+01  9.33333333E+00  0.00000000E+00
  2.33333333E+01  8.66666667E+00  0.00000000E+00
  2.33333333E+01  8.00000000E+00  0.00000000E+00
  2.33333333E+01  7.33333333E+00  0.00000000E+00
  2.33333333E+01  6.66666667E+00  0.00000000E+00
  2.33333333E+01  6.00000000E+00  0.00000000E+00
  2.33333333E+01  5.33333333E+00  0.00000000E+00
  2.33333333E+01  4.66666667E+00  0.00000000E+00
  2.33333333E+01  4.00000000E+00  0.00000000E+00
  2.33333333E+01  3.33333333E+00  0.00000000E+00
  2.33333333E+01  2.66666667E+00  0.00000000E+00
  2.33333333E+01  2.00000000E+00  0.00000000E+00
  2.33333333E+01  1.33333333E+00  0.00000000E+00
  2.33333333E+01  6.66666667E-01  0.00000000E+00
  2.33333333E+01  1.66533454E-15  0.00000000E+00
  2.44444444E+01  1.00000000E+01  0.00000000E+00
  2.44444444E+01  9.33333333E+00  0.00000000E+00
  2.44444444E+01  8.66666667E+00  0.00000000E+00
  2.44444444E+01  8.00000000E+00  0.00000000E+00
  2.44444444E+01  7.33333333E+00  0.00000000E+00
  2.44444444E+01  6.66666667E+00  0.00000000E+00
  2.44444444E+01  6.00000000E+00  0.00000000E+00
  2.44444444E+01  5.33333333E+00  0.00000000E+00
  2.44444444E+01  4.66666667E+00  0.00000000E+00
  2.44444444E+01  4.00000000E+00  0.00000000E+00
  2.44444444E+01  3.33333333E+00  0.00000000E+00
  2.44444444E+01  2.66666667E+00  0.00000000E+00
  2.44444444E+01  2.00000000E+00  0.00000000E+00
  2.44444444E+01  1.33333333E+00  0.00000000E+00
  2.44444444E+01  6.66666667E-01  0.00000000E+00
  2.44444444E+01  1.66533454E-15  0.00000000E+00
  2.55555556E+01  1.00000000E+01  0.00000000E+00
  2.55555556E+01  9.33333333E+00  0.00000000E+00
  2.55555556E+01  8.66666667E+00  0.00000000E+00
  2.55555556E+01  8.00000000E+00  0.00000000E+00
  2.55555556E+01  7.33333333E+00  0.00000000E+00
  2.55555556E+01  6.66666667E+00  0.00000000E+00
  2.55555556E+01  6.00000000E+00  0.00000000E+00
  2.55555556E+01  5.33333333E+00  0.00000000E+00
  2.55555556E+01  4.66666667E+00  0.00000000E+00
  2.55555556E+01  4.00000000E+00  0.00000000E+00
  2.55555556E+01  3.33333333E+00  0.00000000E+00
  2.55555556E+01  2.66666667E+00  0.00000000E+00
  2.55555556E+01  2.00000000E+00  0.00000000E+00
  2.55555556E+01  1.33333333E+00  0.00000000E+00
  2.55555556E+01  6.66666667E-01  0.00000000E+00
  2.55555556E+01  1.66533454E-15  0.00000000E+00
  2.66666667E+01  1.00000000E+01  0.00000000E+00
  2.66666667E+01  9.33333333E+00  0.00000000E+00
  2.66666667E+01  8.66666667E+00  0.00000000E+00
  2.66666667E+01  8.00000000E+00  0.00000000E+00
  2.66666667E+01  7.33333333E+00  0.00000000E+00
  2.66666667E+01  6.66666667E+00  0.00000000E+00
  2.66666667E+01  6.00000000E+00  0.00000000E+00
  2.66666667E+01  5.33333333E+00  0.00000000E+00
  2.66666667E+01  4.66666667E+00  0.00000000E+00
  2.66666667E+01  4.00000000E+00  0.00000000E+00
  2.66666667E+01  3.33333333E+00  0.00000000E+00
  2.66666667E+01  2.66666667E+00  0.00000000E+00
  2.66666667E+01  2.00000000E+00  0.00000000E+00
  2.66666667E+01  1.33333333E+00  0.00000000E+00
  2.66666667E+01  6.66666667E-01  0.00000000E+00
  2.66666667E+01  1.66533454E-15  0.00000000E+00
  2.77777778E+01  1.00000000E+01  0.00000000E+00
  2.77777778E+01  9.33333333E+00  0.00000000E+00
  2.77777778E+01  8.66666667E+00  0.00000000E+00
  2.77777778E+01  8.00000000E+00  0.00000000E+00
  2.77777778E+01  7.33333333E+00  0.00000000E+00
  2.77777778E+01  6.66666667E+00  0.00000000E+00
  2.77777778E+01  6.00000000E+00  0.00000000E+00
  2.77777778E+01  5.33333333E+00  0.00000000E+00
  2.77777778E+01  4.66666667E+00  0.00000000E+00
  2.77777778E+01  4.00000000E+00  0.00000000E+00
  2.77777778E+01  3.33333333E+00  0.00000000E+00
  2.77777778E+01  2.66666667E+00  0.00000000E+00
  2.77777778E+01  2.00000000E+00  0.00000000E+00
  2.77777778E+01  1.33333333E+00  0.00000000E+00
  2.77777778E+01  6.66666667E-01  0.00000000E+00
  2.77777778E+01  1.66533454E-15  0.00000000E+00
  2.88888889E+01  1.00000000E+01  0.00000000E+00
  2.88888889E+01  9.33333333E+00  0.00000000E+00
  2.88888889E+01  8.66666667E+00  0.00000000E+00
  2.88888889E+01  8.00000000E+00  0.00000000E+00
  2.88888889E+01  7.33333333E+00  0.00000000E+00
  2.88888889E+01  6.66666667E+00  0.00000000E+00
  2.88888889E+01  6.00000000E+00  0.00000000E+00
  2.88888889E+01  5.33333333E+00  0.00000000E+00
  2.88888889E+01  4.66666667E+00  0.00000000E+00
  2.88888889E+01  4.00000000E+00  0.00000000E+00
  2.88888889E+01  3.33333333E+00  0.00000000E+00
  2.88888889E+01  2.66666667E+00  0.00000000E+00
  2.88888889E+01  2.00000000E+00  0.00000000E+00
  2.88888889E+01  1.33333333E+00  0.00000000E+00
  2.88888889E+01  6.66666667E-01  0.00000000E+00
  2.88888889E+01  1.66533454E-15  0.00000000E+00
  3.00000000E+01  1.00000000E+01  0.00000000E+00
  3.00000000E+01  9.33333333E+00  0.00000000E+00
  3.00000000E+01  8.66666667E+00  0.00000000E+00
  3.00000000E+01  8.00000000E+00  0.00000000E+00
  3.00000000E+01  7.33333333E+00  0.00000000E+00
  3.00000000E+01  6.66666667E+00  0.00000000E+00
  3.00000000E+01  6.00000000E+00  0.00000000E+00
  3.00000000E+01  5.33333333E+00  0.00000000E+00
  3.00000000E+01  4.66666667E+00  0.00000000E+00
  3.00000000E+01  4.00000000E+00  0.00000000E+00
  3.00000000E+01  3.33333333E+00  0.00000000E+00
  3.00000000E+01  2.66666667E+00  0.00000000E+00
  3.00000000E+01  2.00000000E+00  0.00000000E+00
  3.00000000E+01  1.33333333E+00  0.00000000E+00
  3.00000000E+01  6.66666667E-01  0.00000000E+00
  3.00000000E+01  1.66533454E-15  0.00000000E+00
  3.11111111E+01  1.00000000E+01  0.00000000E+00
  3.11111111E+01  9.33333333E+00  0.00000000E+00
  3.11111111E+01  8.66666667E+00  0.00000000E+00
  3.11111111E+01  8.00000000E+00  0.00000000E+00
  3.11111111E+01  7.33333333E+00  0.00000000E+00
  3.11111111E+01  6.66666667E+00  0.00000000E+00
  3.11111111E+01  6.00000000E+00  0.00000000E+00
  3.11111111E+01  5.33333333E+00  0.00000000E+00
  3.11111111E+01  4.66666667E+00  0.00000000E+00
  3.11111111E+01  4.00000000E+00  0.00000000E+00
  3.11111111E+01  3.33333333E+00  0.00000000E+00
  3.11111111E+01  2.66666667E+00  0.00000000E+00
  3.11111111E+01  2.00000000E+00  0.00000000E+00
  3.11111111E+01  1.33333333E+00  0.00000000E+00
  3.11111111E+01  6.66666667E-01  0.00000000E+00
  3.11111111E+01  1.66533454E-15  0.00000000E+00
  3.22222222E+01  1.00000000E+01  0.00000000E+00
  3.22222222E+01  9.33333333E+00  0.00000000E+00
  3.22222222E+01  8.66666667E+00  0.00000000E+00
  3.22222222E+01  8.00000000E+00  0.00000000E+00
  3.22222222E+01  7.33333333E+00  0.00000000E+00
  3.22222222E+01  6.66666667E+00  0.00000000E+00
  3.22222222E+01  6.00000000E+00  0.00000000E+00
  3.22222222E+01  5.33333333E+00  0.00000000E+00
  3.22222222E+01  4.66666667E+00  0.00000000E+00
  3.22222222E+01  4.00000000E+00  0.00000000E+00
  3.22222222E+01  3.33333333E+00  0.00000000E+00
  3.22222222E+01  2.66666667E+00  0.00000000E+00
  3.22222222E+01  2.00000000E+00  0.00000000E+00
  3.22222222E+01  1.33333333E+00  0.00000000E+00
  3.22222222E+01  6.66666667E-01  0.00000000E+00
  3.22222222E+01  1.66533454E-15  0.00000000E+00
  3.33333333E+01  1.00000000E+01  0.00000000E+00
  3.33333333E+01  9.33333333E+00  0.00000000E+00
  3.33333333E+01  8.66666667E+00  0.00000000E+00
  3.33333333E+01  8.00000000E+00  0.00000000E+00
  3.33333333E+01  7.33333333E+00  0.00000000E+00
  3.33333333E+01  6.66666667E+00  0.00000000E+00
  3.33333333E+01  6.00000000E+00  0.00000000E+00
  3.33333333E+01  5.33333333E+00  0.00000000E+00
  3.33333333E+01  4.66666667E+00  0.00000000E+00
  3.33333333E+01  4.00000000E+00  0.00000000E+00
  3.33333333E+01  3.33333333E+00  0.00000000E+00
  3.33333333E+01  2.66666667E+00  0.00000000E+00
  3.33333333E+01  2.00000000E+00  0.00000000E+00
  3.33333333E+01  1.33333333E+00  0.00000000E+00
  3.33333333E+01  6.66666667E-01  0.00000000E+00
  3.33333333E+01  1.66533454E-15  0.00000000E+00
  3.44444444E+01  1.00000000E+01  0.00000000E+00
  3.44444444E+01  9.33333333E+00  0.00000000E+00
  3.44444444E+01  8.66666667E+00  0.00000000E+00
  3.44444444E+01  8.00000000E+00  0.00000000E+00
  3.44444444E+01  7.33333333E+00  0.00000000E+00
  3.44444444E+01  6.66666667E+00  0.00000000E+00
  3.44444444E+01  6.00000000E+00  0.00000000E+00
  3.44444444E+01  5.33333333E+00  0.00000000E+00
  3.44444444E+01  4.66666667E+00  0.00000000E+00
  3.44444444E+01  4.00000000E+00  0.00000000E+00
  3.44444444E+01  3.33333333E+00  0.00000000E+00
  3.44444444E+01  2.66666667E+00  0.00000000E+00
  3.44444444E+01  2.00000000E+00  0.00000000E+00
  3.44444444E+01  1.33333333E+00  0.00000000E+00
  3.44444444E+01  6.66666667E-01  0.00000000E+00
  3.44444444E+01  1.66533454E-15  0.00000000E+00
  3.55555556E+01  1.00000000E+01  0.00000000E+00
  3.55555556E+01  9.33333333E+00  0.00000000E+00
  3.55555556E+01  8.66666667E+00  0.00000000E+00
  3.55555556E+01  8.00000000E+00  0.00000000E+00
  3.55555556E+01  7.33333333E+00  0.00000000E+00
  3.55555556E+01  6.66666667E+00  0.00000000E+00
  3.55555556E+01  6.00000000E+00  0.00000000E+00
  3.55555556E+01  5.33333333E+00  0.00000000E+00
  3.55555556E+01  4.66666667E+00  0.00000000E+00
  3.55555556E+01  4.00000000E+00  0.00000000E+00
  3.55555556E+01  3.33333333E+00  0.00000000E+00
  3.55555556E+01  2.66666667E+00  0.00000000E+00
  3.55555556E+01  2.00000000E+00  0.00000000E+00
  3.55555556E+01  1.33333333E+00  0.00000000E+00
  3.55555556E+01  6.66666667E-01  0.00000000E+00
  3.55555556E+01  1.66533454E-15  0.00000000E+00
  3.66666667E+01  1.00000000E+01  0.00000000E+00
  3.66666667E+01  9.33333333E+00  0.00000000E+00
  3.66666667E+01  8.66666667E+00  0.00000000E+00
  3.66666667E+01  8.00000000E+00  0.00000000E+00
  3.66666667E+01  7.33333333E+00  0.00000000E+00
  3.66666667E+01  6.66666667E+00  0.00000000E+00
  3.66666667E+01  6.00000000E+00  0.00000000E+00
  3.66666667E+01  5.33333333E+00  0.00000000E+00
  3.66666667E+01  4.66666667E+00  0.00000000E+00
  3.66666667E+01  4.00000000E+00  0.00000000E+00
  3.66666667E+01  3.33333333E+00  0.00000000E+00
  3.66666667E+01  2.66666667E+00  0.00000000E+00
  3.66666667E+01  2.00000000E+00  0.00000000E+00
  3.66666667E+01  1.33333333E+00  0.00000000E+00
  3.66666667E+01  6.66666667E-01  0.00000000E+00
  3.66666667E+01  1.66533454E-15  0.00000000E+00
  3.77777778E+01  1.00000000E+01  0.00000000E+00
  3.77777778E+01  9.33333333E+00  0.00000000E+00
  3.77777778E+01  8.66666667E+00  0.00000000E+00
  3.77777778E+01  8.00000000E+00  0.00000000E+00
  3.77777778E+01  7.33333333E+00  0.00000000E+00
  3.77777778E+01  6.66666667E+00  0.00000000E+00
  3.77777778E+01  6.00000000E+00  0.00000000E+00
  3.77777778E+01  5.33333333E+00  0.00000000E+00
  3.77777778E+01  4.66666667E+00  0.00000000E+00
  3.77777778E+01  4.00000000E+00  0.00000000E+00
  3.77777778E+01  3.33333333E+00  0.00000000E+00
  3.77777778E+01  2.66666667E+00  0.00000000E+00
  3.77777778E+01  2.00000000E+00  0.00000000E+00
  3.77777778E+01  1.33333333E+00  0.00000000E+00
  3.77777778E+01  6.66666667E-01  0.00000000E+00
  3.77777778E+01  1.66533454E-15  0.00000000E+00
  3.88888889E+01  1.00000000E+01  0.00000000E+00
  3.88888889E+01  9.33333333E+00  0.00000000E+00
  3.88888889E+01  8.66666667E+00  0.00000000E+00
  3.88888889E+01  8.00000000E+00  0.00000000E+00
  3.88888889E+01  7.33333333E+00  0.00000000E+00
  3.88888889E+01  6.66666667E+00  0.00000000E+00
  3.88888889E+01  6.00000000E+00  0.00000000E+00
  3.88888889E+01  5.33333333E+00  0.00000000E+00
  3.88888889E+01  4.66666667E+00  0.00000000E+00
  3.88888889E+01  4.00000000E+00  0.00000000E+00
  3.88888889E+01  3.33333333E+00  0.00000000E+00
  3.88888889E+01  2.66666667E+00  0.00000000E+00
  3.88888889E+01  2.00000000E+00  0.00000000E+00
  3.88888889E+01  1.33333333E+00  0.00000000E+00
  3.88888889E+01  6.66666667E-01  0.00000000E+00
  3.88888889E+01  1.66533454E-15  0.00000000E+00
  4.00000000E+01  1.00000000E+01  0.00000000E+00
  4.00000000E+01  9.33333333E+00  0.00000000E+00
  4.00000000E+01  8.66666667E+00  0.00000000E+00
  4.00000000E+01  8.00000000E+00  0.00000000E+00
  4.00000000E+01  7.33333333E+00  0.00000000E+00
  4.00000000E+01  6.66666667E+00  0.00000000E+00
  4.00000000E+01  6.00000000E+00  0.00000000E+00
  4.00000000E+01  5.33333333E+00  0.00000000E+00
  4.00000000E+01  4.66666667E+00  0.00000000E+00
  4.00000000E+01  4.00000000E+00  0.00000000E+00
  4.00000000E+01  3.33333333E+00  0.00000000E+00
  4.00000000E+01  2.66666667E+00  0.00000000E+00
  4.00000000E+01  2.00000000E+00  0.00000000E+00
  4.00000000E+01  1.33333333E+00  0.00000000E+00
  4.00000000E+01  6.66666667E-01  0.00000000E+00
  4.00000000E+01  1.66533454E-15  0.00000000E+00
  4.11111111E+01  1.00000000E+01  0.00000000E+00
  4.11111111E+01  9.33333333E+00  0.00000000E+00
  4.11111111E+01  8.66666667E+00  0.00000000E+00
  4.11111111E+01  8.00000000E+00  0.00000000E+00
  4.11111111E+01  7.33333333E+00  0.00000000E+00
  4.11111111E+01  6.66666667E+00  0.00000000E+00
  4.11111111E+01  6.00000000E+00  0.00000000E+00
  4.11111111E+01  5.33333333E+00  0.00000000E+00
  4.11111111E+01  4.66666667E+00  0.00000000E+00
  4.11111111E+01  4.00000000E+00  0.00000000E+00
  4.11111111E+01  3.33333333E+00  0.00000000E+00
  4.11111111E+01  2.66666667E+00  0.00000000E+00
  4.11111111E+01  2.00000000E+00  0.00000000E+00
  4.11111111E+01  1.33333333E+00  0.00000000E+00
  4.11111111E+01  6.66666667E-01  0.00000000E+00
  4.11111111E+01  1.66533454E-15  0.00000000E+00
  4.22222222E+01  1.00000000E+01  0.00000000E+00
  4.22222222E+01  9.33333333E+00  0.00000000E+00
  4.22222222E+01  8.66666667E+00  0.00000000E+00
  4.22222222E+01  8.00000000E+00  0.00000000E+00
  4.22222222E+01  7.33333333E+00  0.00000000E+00
  4.22222222E+01  6.66666667E+00  0.00000000E+00
  4.22222222E+01  6.00000000E+00  0.00000000E+00
  4.22222222E+01  5.33333333E+00  0.00000000E+00
  4.22222222E+01  4.66666667E+00  0.00000000E+00
  4.22222222E+01  4.00000000E+00  0.00000000E+00
  4.22222222E+01  3.33333333E+00  0.00000000E+00
  4.22222222E+01  2.66666667E+00  0.00000000E+00
  4.22222222E+01  2.00000000E+00  0.00000000E+00
  4.22222222E+01  1.33333333E+00  0.00000000E+00
  4.22222222E+01  6.66666667E-01  0.00000000E+00
  4.22222222E+01  1.66533454E-15  0.00000000E+00
  4.33333333E+01  1.00000000E+01  0.00000000E+00
  4.33333333E+01  9.33333333E+00  0.00000000E+00
  4.33333333E+01  8.66666667E+00  0.00000000E+00
  4.33333333E+01  8.00000000E+00  0.00000000E+00
  4.33333333E+01  7.33333333E+00  0.00000000E+00
  4.33333333E+01  6.66666667E+00  0.00000000E+00
  4.33333333E+01  6.00000000E+00  0.00000000E+00
  4.33333333E+01  5.33333333E+00  0.00000000E+00
  4.33333333E+01  4.66666667E+00  0.00000000E+00
  4.33333333E+01  4.00000000E+00  0.00000000E+00
  4.33333333E+01  3.33333333E+00  0.00000000E+00
  4.33333333E+01  2.66666667E+00  0.00000000E+00
  4.33333333E+01  2.00000000E+00  0.00000000E+00
  4.33333333E+01  1.33333333E+00  0.00000000E+00
  4.33333333E+01  6.66666667E-01  0.00000000E+00
  4.33333333E+01  1.66533454E-15  0.00000000E+00
  4.44444444E+01  1.00000000E+01  0.00000000E+00
  4.44444444E+01  9.33333333E+00  0.00000000E+00
  4.44444444E+01  8.66666667E+00  0.00000000E+00
  4.44444444E+01  8.00000000E+00  0.00000000E+00
  4.44444444E+01  7.33333333E+00  0.00000000E+00
  4.44444444E+01  6.66666667E+00  0.00000000E+00
  4.44444444E+01  6.00000000E+00  0.00000000E+00
  4.44444444E+01  5.33333333E+00  0.00000000E+00
  4.44444444E+01  4.66666667E+00  0.00000000E+00
  4.44444444E+01  4.00000000E+00  0.00000000E+00
  4.44444444E+01  3.33333333E+00  0.00000000E+00
  4.44444444E+01  2.66666667E+00  0.00000000E+00
  4.44444444E+01  2.00000000E+00  0.00000000E+00
  4.44444444E+01  1.33333333E+00  0.00000000E+00
  4.44444444E+01  6.66666667E-01  0.00000000E+00
  4.44444444E+01  1.66533454E-15  0.00000000E+00
  4.55555556E+01  1.00000000E+01  0.00000000E+00
  4.55555556E+01  9.33333333E+00  0.00000000E+00
  4.55555556E+01  8.66666667E+00  0.00000000E+00
  4.55555556E+01  8.00000000E+00  0.00000000E+00
  4.55555556E+01  7.33333333E+00  0.00000000E+00
  4.55555556E+01  6.66666667E+00  0.00000000E+00
  4.55555556E+01  6.00000000E+00  0.00000000E+00
  4.55555556E+01  5.33333333E+00  0.00000000E+00
  4.55555556E+01  4.66666667E+00  0.00000000E+00
  4.55555556E+01  4.00000000E+00  0.00000000E+00
  4.55555556E+01  3.33333333E+00  0.00000000E+00
  4.55555556E+01  2.66666667E+00  0.00000000E+00
  4.55555556E+01  2.00000000E+00  0.00000000E+00
  4.55555556E+01  1.33333333E+00  0.00000000E+00
  4.55555556E+01  6.66666667E-01  0.00000000E+00
  4.55555556E+01  1.66533454E-15  0.00000000E+00
  4.66666667E+01  1.00000000E+01  0.00000000E+00
  4.66666667E+01  9.33333333E+00  0.00000000E+00
  4.66666667E+01  8.66666667E+00  0.00000000E+00
  4.66666667E+01  8.00000000E+00  0.00000000E+00
  4.66666667E+01  7.33333333E+00  0.00000000E+00
  4.66666667E+01  6.66666667E+00  0.00000000E+00
  4.66666667E+01  6.00000000E+00  0.00000000E+00
  4.66666667E+01  5.33333333E+00  0.00000000E+00
  4.66666667E+01  4.66666667E+00  0.00000000E+00
  4.66666667E+01  4.00000000E+00  0.00000000E+00
  4.66666667E+01  3.33333333E+00  0.00000000E+00
  4.66666667E+01  2.66666667E+00  0.00000000E+00
  4.66666667E+01  2.00000000E+00  0.00000000E+00
  4.66666667E+01  1.33333333E+00  0.00000000E+00
  4.66666667E+01  6.66666667E-01  0.00000000E+00
  4.66666667E+01  1.66533454E-15  0.00000000E+00
  4.77777778E+01  1.00000000E+01  0.00000000E+00
  4.77777778E+01  9.33333333E+00  0.00000000E+00
  4.77777778E+01  8.66666667E+00  0.00000000E+00
  4.77777778E+01  8.00000000E+00  0.00000000E+00
  4.77777778E+01  7.33333333E+00  0.00000000E+00
  4.77777778E+01  6.66666667E+00  0.00000000E+00
  4.77777778E+01  6.00000000E+00  0.00000000E+00
  4.77777778E+01  5.33333333E+00  0.00000000E+00
  4.77777778E+01  4.66666667E+00  0.00000000E+00
  4.77777778E+01  4.00000000E+00  0.00000000E+00
  4.77777778E+01  3.33333333E+00  0.00000000E+00
  4.77777778E+01  2.66666667E+00  0.00000000E+00
  4.77777778E+01  2.00000000E+00  0.00000000E+00
  4.77777778E+01  1.33333333E+00  0.00000000E+00
  4.77777778E+01  6.66666667E-01  0.00000000E+00
  4.77777778E+01  1.66533454E-15  0.00000000E+00
  4.88888889E+01  1.00000000E+01  0.00000000E+00
  4.88888889E+01  9.33333333E+00  0.00000000E+00
  4.88888889E+01  8.66666667E+00  0.00000000E+00
  4.88888889E+01  8.00000000E+00  0.00000000E+00
  4.88888889E+01  7.33333333E+00  0.00000000E+00
  4.88888889E+01  6.66666667E+00  0.00000000E+00
  4.88888889E+01  6.00000000E+00  0.00000000E+00
  4.88888889E+01  5.33333333E+00  0.00000000E+00
  4.88888889E+01  4.66666667E+00  0.00000000E+00
  4.88888889E+01  4.00000000E+00  0.00000000E+00
  4.88888889E+01  3.33333333E+00  0.00000000E+00
  4.88888889E+01  2.66666667E+00  0.00000000E+00
  4.88888889E+01  2.00000000E+00  0.00000000E+00
  4.88888889E+01  1.33333333E+00  0.00000000E+00
  4.88888889E+01  6.66666667E-01  0.00000000E+00
  4.88888889E+01  1.66533454E-15  0.00000000E+00
  5.00000000E+01  1.00000000E+01  0.00000000E+00
  5.00000000E+01  9.33333333E+00  0.00000000E+00
  5.00000000E+01  8.66666667E+00  0.00000000E+00
  5.00000000E+01  8.00000000E+00  0.00000000E+00
  5.00000000E+01  7.33333333E+00  0.00000000E+00
  5.00000000E+01  6.66666667E+00  0.00000000E+00
  5.00000000E+01  6.00000000E+00  0.00000000E+00
  5.00000000E+01  5.33333333E+00  0.00000000E+00
  5.00000000E+01  4.66666667E+00  0.00000000E+00
  5.00000000E+01  4.00000000E+00  0.00000000E+00
  5.00000000E+01  3.33333333E+00  0.00000000E+00
  5.00000000E+01  2.66666667E+00  0.00000000E+00
  5.00000000E+01  2.00000000E+00  0.00000000E+00
  5.00000000E+01  1.33333333E+00  0.00000000E+00
  5.00000000E+01  6.66666667E-01  0.00000000E+00
  5.00000000E+01  1.66533454E-15  0.00000000E+00
  5.11111111E+01  1.00000000E+01  0.00000000E+00
  5.11111111E+01  9.33333333E+00  0.00000000E+00
  5.11111111E+01  8.66666667E+00  0.00000000E+00
  5.11111111E+01  8.00000000E+00  0.00000000E+00
  5.11111111E+01  7.33333333E+00  0.00000000E+00
  5.11111111E+01  6.66666667E+00  0.00000000E+00
  5.11111111E+01  6.00000000E+00  0.00000000E+00
  5.11111111E+01  5.33333333E+00  0.00000000E+00
  5.11111111E+01  4.66666667E+00  0.00000000E+00
  5.11111111E+01  4.00000000E+00  0.00000000E+00
  5.11111111E+01  3.33333333E+00  0.00000000E+00
  5.11111111E+01  2.66666667E+00  0.00000000E+00
  5.11111111E+01  2.00000000E+00  0.00000000E+00
  5.11111111E+01  1.33333333E+00  0.00000000E+00
  5.11111111E+01  6.66666667E-01  0.00000000E+00
  5.11111111E+01  1.66533454E-15  0.00000000E+00
  5.22222222E+01  1.00000000E+01  0.00000000E+00
  5.22222222E+01  9.33333333E+00  0.00000000E+00
  5.22222222E+01  8.66666667E+00  0.00000000E+00
  5.22222222E+01  8.00000000E+00  0.00000000E+00
  5.22222222E+01  7.33333333E+00  0.00000000E+00
  5.22222222E+01  6.66666667E+00  0.00000000E+00
  5.22222222E+01  6.00000000E+00  0.00000000E+00
  5.22222222E+01  5.33333333E+00  0.00000000E+00
  5.22222222E+01  4.66666667E+00  0.00000000E+00
  5.22222222E+01  4.00000000E+00  0.00000000E+00
  5.22222222E+01  3.33333333E+00  0.00000000E+00
  5.22222222E+01  2.66666667E+00  0.00000000E+00
  5.22222222E+01  2.00000000E+00  0.00000000E+00
  5.22222222E+01  1.33333333E+00  0.00000000E+00
  5.22222222E+01  6.66666667E-01  0.00000000E+00
  5.22222222E+01  1.66533454E-15  0.00000000E+00
  5.33333333E+01  1.00000000E+01  0.00000000E+00
  5.33333333E+01  9.33333333E+00  0.00000000E+00
  5.33333333E+01  8.66666667E+00  0.00000000E+00
  5.33333333E+01  8.00000000E+00  0.00000000E+00
  5.33333333E+01  7.33333333E+00  0.00000000E+00
  5.33333333E+01  6.66666667E+00  0.00000000E+00
  5.33333333E+01  6.00000000E+00  0.00000000E+00
  5.33333333E+01  5.33333333E+00  0.00000000E+00
  5.33333333E+01  4.66666667E+00  0.00000000E+00
  5.33333333E+01  4.00000000E+00  0.00000000E+00
  5.33333333E+01  3.33333333E+00  0.00000000E+00
  5.33333333E+01  2.66666667E+00  0.00000000E+00
  5.33333333E+01  2.00000000E+00  0.00000000E+00
  5.33333333E+01  1.33333333E+00  0.00000000E+00
  5.33333333E+01  6.66666667E-01  0.00000000E+00
  5.33333333E+01  1.66533454E-15  0.00000000E+00
  5.44444444E+01  1.00000000E+01  0.00000000E+00
  5.44444444E+01  9.33333333E+00  0.00000000E+00
  5.44444444E+01  8.66666667E+00  0.00000000E+00
  5.44444444E+01  8.00000000E+00  0.00000000E+00
  5.44444444E+01  7.33333333E+00  0.00000000E+00
  5.44444444E+01  6.66666667E+00  0.00000000E+00
  5.44444444E+01  6.00000000E+00  0.00000000E+00
  5.44444444E+01  5.33333333E+00  0.00000000E+00
  5.44444444E+01  4.66666667E+00  0.00000000E+00
  5.44444444E+01  4.00000000E+00  0.00000000E+00
  5.44444444E+01  3.33333333E+00  0.00000000E+00
  5.44444444E+01  2.66666667E+00  0.00000000E+00
  5.44444444E+01  2.00000000E+00  0.00000000E+00
  5.44444444E+01  1.33333333E+00  0.00000000E+00
  5.44444444E+01  6.66666667E-01  0.00000000E+00
  5.44444444E+01  1.66533454E-15  0.00000000E+00
  5.55555556E+01  1.00000000E+01  0.00000000E+00
  5.55555556E+01  9.33333333E+00  0.00000000E+00
  5.55555556E+01  8.66666667E+00  0.00000000E+00
  5.55555556E+01  8.00000000E+00  0.00000000E+00
  5.55555556E+01  7.33333333E+00  0.00000000E+00
  5.55555556E+01  6.66666667E+00  0.00000000E+00
  5.55555556E+01  6.00000000E+00  0.00000000E+00
  5.55555556E+01  5.33333333E+00  0.00000000E+00
  5.55555556E+01  4.66666667E+00  0.00000000E+00
  5.55555556E+01  4.00000000E+00  0.00000000E+00
  5.55555556E+01  3.33333333E+00  0.00000000E+00
  5.55555556E+01  2.66666667E+00  0.00000000E+00
  5.55555556E+01  2.00000000E+00  0.00000000E+00
  5.55555556E+01  1.33333333E+00  0.00000000E+00
  5.55555556E+01  6.66666667E-01  0.00000000E+00
  5.55555556E+01  1.66533454E-15  0.00000000E+00
  5.66666667E+01  1.00000000E+01  0.00000000E+00
  5.66666667E+01  9.33333333E+00  0.00000000E+00
  5.66666667E+01  8.66666667E+00  0.00000000E+00
  5.66666667E+01  8.00000000E+00  0.00000000E+00
  5.66666667E+01  7.33333333E+00  0.00000000E+00
  5.66666667E+01  6.66666667E+00  0.00000000E+00
  5.66666667E+01  6.00000000E+00  0.00000000E+00
  5.66666667E+01  5.33333333E+00  0.00000000E+00
  5.66666667E+01  4.66666667E+00  0.00000000E+00
  5.66666667E+01  4.00000000E+00  0.00000000E+00
  5.66666667E+01  3.33333333E+00  0.00000000E+00
  5.66666667E+01  2.66666667E+00  0.00000000E+00
  5.66666667E+01  2.00000000E+00  0.00000000E+00
  5.66666667E+01  1.33333333E+00  0.00000000E+00
  5.66666667E+01  6.66666667E-01  0.00000000E+00
  5.66666667E+01  1.66533454E-15  0.00000000E+00
  5.77777778E+01  1.00000000E+01  0.00000000E+00
  5.77777778E+01  9.33333333E+00  0.00000000E+00
  5.77777778E+01  8.66666667E+00  0.00000000E+00
  5.77777778E+01  8.00000000E+00  0.00000000E+00
  5.77777778E+01  7.33333333E+00  0.00000000E+00
  5.77777778E+01  6.66666667E+00  0.00000000E+00
  5.77777778E+01  6.00000000E+00  0.00000000E+00
  5.77777778E+01  5.33333333E+00  0.00000000E+00
  5.77777778E+01  4.66666667E+00  0.00000000E+00
  5.77777778E+01  4.00000000E+00  0.00000000E+00
  5.77777778E+01  3.33333333E+00  0.00000000E+00
  5.77777778E+01  2.66666667E+00  0.00000000E+00
  5.77777778E+01  2.00000000E+00  0.00000000E+00
  5.77777778E+01  1.33333333E+00  0.00000000E+00
  5.77777778E+01  6.66666667E-01  0.00000000E+00
  5.77777778E+01  1.66533454E-15  0.00000000E+00
  5.88888889E+01  1.00000000E+01  0.00000000E+00
  5.88888889E+01  9.33333333E+00  0.00000000E+00
  5.88888889E+01  8.66666667E+00  0.00000000E+00
  5.88888889E+01  8.00000000E+00  0.00000000E+00
  5.88888889E+01  7.33333333E+00  0.00000000E+00
  5.88888889E+01  6.66666667E+00  0.00000000E+00
  5.88888889E+01  6.00000000E+00  0.00000000E+00
  5.88888889E+01  5.33333333E+00  0.00000000E+00
  5.88888889E+01  4.66666667E+00  0.00000000E+00
  5.88888889E+01  4.00000000E+00  0.00000000E+00
  5.88888889E+01  3.33333333E+00  0.00000000E+00
  5.88888889E+01  2.66666667E+00  0.00000000E+00
  5.88888889E+01  2.00000000E+00  0.00000000E+00
  5.88888889E+01  1.33333333E+00  0.00000000E+00
  5.88888889E+01  6.66666667E-01  0.00000000E+00
  5.88888889E+01  1.66533454E-15  0.00000000E+00
  6.00000000E+01  1.00000000E+01  0.00000000E+00
  6.00000000E+01  9.33333333E+00  0.00000000E+00
  6.00000000E+01  8.66666667E+00  0.00000000E+00
  6.00000000E+01  8.00000000E+00  0.00000000E+00
  6.00000000E+01  7.33333333E+00  0.00000000E+00
  6.00000000E+01  6.66666667E+00  0.00000000E+00
  6.00000000E+01  6.00000000E+00  0.00000000E+00
  6.00000000E+01  5.33333333E+00  0.00000000E+00
  6.00000000E+01  4.66666667E+00  0.00000000E+00
  6.00000000E+01  4.00000000E+00  0.00000000E+00
  6.00000000E+01  3.33333333E+00  0.00000000E+00
  6.00000000E+01  2.66666667E+00  0.00000000E+00
  6.00000000E+01  2.00000000E+00  0.00000000E+00
  6.00000000E+01  1.33333333E+00  0.00000000E+00
  6.00000000E+01  6.66666667E-01  0.00000000E+00
  6.00000000E+01  1.66533454E-15  0.00000000E+00
  6.11111111E+01  1.00000000E+01  0.00000000E+00
  6.11111111E+01  9.33333333E+00  0.00000000E+00
  6.11111111E+01  8.66666667E+00  0.00000000E+00
  6.11111111E+01  8.00000000E+00  0.00000000E+00
  6.11111111E+01  7.33333333E+00  0.00000000E+00
  6.11111111E+01  6.66666667E+00  0.00000000E+00
  6.11111111E+01  6.00000000E+00  0.00000000E+00
  6.11111111E+01  5.33333333E+00  0.00000000E+00
  6.11111111E+01  4.66666667E+00  0.00000000E+00
  6.11111111E+01  4.00000000E+00  0.00000000E+00
  6.11111111E+01  3.33333333E+00  0.00000000E+00
  6.11111111E+01  2.66666667E+00  0.00000000E+00
  6.11111111E+01  2.00000000E+00  0.00000000E+00
  6.11111111E+01  1.33333333E+00  0.00000000E+00
  6.11111111E+01  6.66666667E-01  0.00000000E+00
  6.11111111E+01  1.66533454E-15  0.00000000E+00
  6.22222222E+01  1.00000000E+01  0.00000000E+00
  6.22222222E+01  9.33333333E+00  0.00000000E+00
  6.22222222E+01  8.66666667E+00  0.00000000E+00
  6.22222222E+01  8.00000000E+00  0.00000000E+00
  6.22222222E+01  7.33333333E+00  0.00000000E+00
  6.22222222E+01  6.66666667E+00  0.00000000E+00
  6.22222222E+01  6.00000000E+00  0.00000000E+00
  6.22222222E+01  5.33333333E+00  0.00000000E+00
  6.22222222E+01  4.66666667E+00  0.00000000E+00
  6.22222222E+01  4.00000000E+00  0.00000000E+00
  6.22222222E+01  3.33333333E+00  0.00000000E+00
  6.22222222E+01  2.66666667E+00  0.00000000E+00
  6.22222222E+01  2.00000000E+00  0.00000000E+00
  6.22222222E+01  1.33333333E+00  0.00000000E+00
  6.22222222E+01  6.66666667E-01  0.00000000E+00
  6.22222222E+01  1.66533454E-15  0.00000000E+00
  6.33333333E+01  1.00000000E+01  0.00000000E+00
  6.33333333E+01  9.33333333E+00  0.00000000E+00
  6.33333333E+01  8.66666667E+00  0.00000000E+00
  6.33333333E+01  8.00000000E+00  0.00000000E+00
  6.33333333E+01  7.33333333E+00  0.00000000E+00
  6.33333333E+01  6.66666667E+00  0.00000000E+00
  6.33333333E+01  6.00000000E+00  0.00000000E+00
  6.33333333E+01  5.33333333E+00  0.00000000E+00
  6.33333333E+01  4.66666667E+00  0.00000000E+00
  6.33333333E+01  4.00000000E+00  0.00000000E+00
  6.33333333E+01  3.33333333E+00  0.00000000E+00
  6.33333333E+01  2.66666667E+00  0.00000000E+00
  6.33333333E+01  2.00000000E+00  0.00000000E+00
  6.33333333E+01  1.33333333E+00  0.00000000E+00
  6.33333333E+01  6.66666667E-01  0.00000000E+00
  6.33333333E+01  1.66533454E-15  0.00000000E+00
  6.44444444E+01  1.00000000E+01  0.00000000E+00
  6.44444444E+01  9.33333333E+00  0.00000000E+00
  6.44444444E+01  8.66666667E+00  0.00000000E+00
  6.44444444E+01  8.00000000E+00  0.00000000E+00
  6.44444444E+01  7.33333333E+00  0.00000000E+00
  6.44444444E+01  6.66666667E+00  0.00000000E+00
  6.44444444E+01  6.00000000E+00  0.00000000E+00
  6.44444444E+01  5.33333333E+00  0.00000000E+00
  6.44444444E+01  4.66666667E+00  0.00000000E+00
  6.44444444E+01  4.00000000E+00  0.00000000E+00
  6.44444444E+01  3.33333333E+00  0.00000000E+00
  6.44444444E+01  2.66666667E+00  0.00000000E+00
  6.44444444E+01  2.00000000E+00  0.00000000E+00
  6.44444444E+01  1.33333333E+00  0.00000000E+00
  6.44444444E+01  6.66666667E-01  0.00000000E+00
  6.44444444E+01  1.66533454E-15  0.00000000E+00
  6.55555556E+01  1.00000000E+01  0.00000000E+00
  6.55555556E+01  9.33333333E+00  0.00000000E+00
  6.55555556E+01  8.66666667E+00  0.00000000E+00
  6.55555556E+01  8.00000000E+00  0.00000000E+00
  6.55555556E+01  7.33333333E+00  0.00000000E+00
  6.55555556E+01  6.66666667E+00  0.00000000E+00
  6.55555556E+01  6.00000000E+00  0.00000000E+00
  6.55555556E+01  5.33333333E+00  0.00000000E+00
  6.55555556E+01  4.66666667E+00  0.00000000E+00
  6.55555556E+01  4.00000000E+00  0.00000000E+00
  6.55555556E+01  3.33333333E+00  0.00000000E+00
  6.55555556E+01  2.66666667E+00  0.00000000E+00
  6.55555556E+01  2.00000000E+00  0.00000000E+00
  6.55555556E+01  1.33333333E+00  0.00000000E+00
  6.55555556E+01  6.66666667E-01  0.00000000E+00
  6.55555556E+01  1.66533454E-15  0.00000000E+00
  6.66666667E+01  1.00000000E+01  0.00000000E+00
  6.66666667E+01  9.33333333E+00  0.00000000E+00
  6.66666667E+01  8.66666667E+00  0.00000000E+00
  6.66666667E+01  8.00000000E+00  0.00000000E+00
  6.66666667E+01  7.33333333E+00  0.00000000E+00
  6.66666667E+01  6.66666667E+00  0.00000000E+00
  6.66666667E+01  6.00000000E+00  0.00000000E+00
  6.66666667E+01  5.33333333E+00  0.00000000E+00
  6.66666667E+01  4.66666667E+00  0.00000000E+00
  6.66666667E+01  4.00000000E+00  0.00000000E+00
  6.66666667E+01  3.33333333E+00  0.00000000E+00
  6.66666667E+01  2.66666667E+00  0.00000000E+00
  6.66666667E+01  2.00000000E+00  0.00000000E+00
  6.66666667E+01  1.33333333E+00  0.00000000E+00
  6.66666667E+01  6.66666667E-01  0.00000000E+00
  6.66666667E+01  1.66533454E-15  0.00000000E+00
  6.77777778E+01  1.00000000E+01  0.00000000E+00
  6.77777778E+01  9.33333333E+00  0.00000000E+00
  6.77777778E+01  8.66666667E+00  0.00000000E+00
  6.77777778E+01  8.00000000E+00  0.00000000E+00
  6.77777778E+01  7.33333333E+00  0.00000000E+00
  6.77777778E+01  6.66666667E+00  0.00000000E+00
  6.77777778E+01  6.00000000E+00  0.00000000E+00
  6.77777778E+01  5.33333333E+00  0.00000000E+00
  6.77777778E+01  4.66666667E+00  0.00000000E+00
  6.77777778E+01  4.00000000E+00  0.00000000E+00
  6.77777778E+01  3.33333333E+00  0.00000000E+00
  6.77777778E+01  2.66666667E+00  0.00000000E+00
  6.77777778E+01  2.00000000E+00  0.00000000E+00
  6.77777778E+01  1.33333333E+00  0.00000000E+00
  6.77777778E+01  6.66666667E-01  0.00000000E+00
  6.77777778E+01  1.66533454E-15  0.00000000E+00
  6.88888889E+01  1.00000000E+01  0.00000000E+00
  6.88888889E+01  9.33333333E+00  0.00000000E+00
  6.88888889E+01  8.66666667E+00  0.00000000E+00
  6.88888889E+01  8.00000000E+00  0.00000000E+00
  6.88888889E+01  7.33333333E+00  0.00000000E+00
  6.88888889E+01  6.66666667E+00  0.00000000E+00
  6.88888889E+01  6.00000000E+00  0.00000000E+00
  6.88888889E+01  5.33333333E+00  0.00000000E+00
  6.88888889E+01  4.66666667E+00  0.00000000E+00
  6.88888889E+01  4.00000000E+00  0.00000000E+00
  6.88888889E+01  3.33333333E+00  0.00000000E+00
  6.88888889E+01  2.66666667E+00  0.00000000E+00
  6.88888889E+01  2.00000000E+00  0.00000000E+00
  6.88888889E+01  1.33333333E+00  0.00000000E+00
  6.88888889E+01  6.66666667E-01  0.00000000E+00
  6.88888889E+01  1.66533454E-15  0.00000000E+00
  7.00000000E+01  1.00000000E+01  0.00000000E+00
  7.00000000E+01  9.33333333E+00  0.00000000E+00
  7.00000000E+01  8.66666667E+00  0.00000000E+00
  7.00000000E+01  8.00000000E+00  0.00000000E+00
  7.00000000E+01  7.33333333E+00  0.00000000E+00
  7.00000000E+01  6.66666667E+00  0.00000000E+00
  7.00000000E+01  6.00000000E+00  0.00000000E+00
  7.00000000E+01  5.33333333E+00  0.00000000E+00
  7.00000000E+01  4.66666667E+00  0.00000000E+00
  7.00000000E+01  4.00000000E+00  0.00000000E+00
  7.00000000E+01  3.33333333E+00  0.00000000E+00
  7.00000000E+01  2.66666667E+00  0.00000000E+00
  7.00000000E+01  2.00000000E+00  0.00000000E+00
  7.00000000E+01  1.33333333E+00  0.00000000E+00
  7.00000000E+01  6.66666667E-01  0.00000000E+00
  7.00000000E+01  1.66533454E-15  0.00000000E+00
  7.11111111E+01  1.00000000E+01  0.00000000E+00
  7.11111111E+01  9.33333333E+00  0.00000000E+00
  7.11111111E+01  8.66666667E+00  0.00000000E+00
  7.11111111E+01  8.00000000E+00  0.00000000E+00
  7.11111111E+01  7.33333333E+00  0.00000000E+00
  7.11111111E+01  6.66666667E+00  0.00000000E+00
  7.11111111E+01  6.00000000E+00  0.00000000E+00
  7.11111111E+01  5.33333333E+00  0.00000000E+00
  7.11111111E+01  4.66666667E+00  0.00000000E+00
  7.11111111E+01  4.00000000E+00  0.00000000E+00
  7.11111111E+01  3.33333333E+00  0.00000000E+00
  7.11111111E+01  2.66666667E+00  0.00000000E+00
  7.11111111E+01  2.00000000E+00  0.00000000E+00
  7.11111111E+01  1.33333333E+00  0.00000000E+00
  7.11111111E+01  6.66666667E-01  0.00000000E+00
  7.11111111E+01  1.66533454E-15  0.00000000E+00
  7.22222222E+01  1.00000000E+01  0.00000000E+00
  7.22222222E+01  9.33333333E+00  0.00000000E+00
  7.22222222E+01  8.66666667E+00  0.00000000E+00
  7.22222222E+01  8.00000000E+00  0.00000000E+00
  7.22222222E+01  7.33333333E+00  0.00000000E+00
  7.22222222E+01  6.66666667E+00  0.00000000E+00
  7.22222222E+01  6.00000000E+00  0.00000000E+00
  7.22222222E+01  5.33333333E+00  0.00000000E+00
  7.22222222E+01  4.66666667E+00  0.00000000E+00
  7.22222222E+01  4.00000000E+00  0.00000000E+00
  7.22222222E+01  3.33333333E+00  0.00000000E+00
  7.22222222E+01  2.66666667E+00  0.00000000E+00
  7.22222222E+01  2.00000000E+00  0.00000000E+00
  7.22222222E+01  1.33333333E+00  0.00000000E+00
  7.22222222E+01  6.66666667E-01  0.00000000E+00
  7.22222222E+01  1.66533454E-15  0.00000000E+00
  7.33333333E+01  1.00000000E+01  0.00000000E+00
  7.33333333E+01  9.33333333E+00  0.00000000E+00
  7.33333333E+01  8.66666667E+00  0.00000000E+00
  7.33333333E+01  8.00000000E+00  0.00000000E+00
  7.33333333E+01  7.33333333E+00  0.00000000E+00
  7.33333333E+01  6.66666667E+00  0.00000000E+00
  7.33333333E+01  6.00000000E+00  0.00000000E+00
  7.33333333E+01  5.33333333E+00  0.00000000E+00
  7.33333333E+01  4.66666667E+00  0.00000000E+00
  7.33333333E+01  4.00000000E+00  0.00000000E+00
  7.33333333E+01  3.33333333E+00  0.00000000E+00
  7.33333333E+01  2.66666667E+00  0.00000000E+00
  7.33333333E+01  2.00000000E+00  0.00000000E+00
  7.33333333E+01  1.33333333E+00  0.00000000E+00
  7.33333333E+01  6.66666667E-01  0.00000000E+00
  7.33333333E+01  1.66533454E-15  0.00000000E+00
  7.44444444E+01  1.00000000E+01  0.00000000E+00
  7.44444444E+01  9.33333333E+00  0.00000000E+00
  7.44444444E+01  8.66666667E+00  0.00000000E+00
  7.44444444E+01  8.00000000E+00  0.00000000E+00
  7.44444444E+01  7.33333333E+00  0.00000000E+00
  7.44444444E+01  6.66666667E+00  0.00000000E+00
  7.44444444E+01  6.00000000E+00  0.00000000E+00
  7.44444444E+01  5.33333333E+00  0.00000000E+00
  7.44444444E+01  4.66666667E+00  0.00000000E+00
  7.44444444E+01  4.00000000E+00  0.00000000E+00
  7.44444444E+01  3.33333333E+00  0.00000000E+00
  7.44444444E+01  2.66666667E+00  0.00000000E+00
  7.44444444E+01  2.00000000E+00  0.00000000E+00
  7.44444444E+01  1.33333333E+00  0.00000000E+00
  7.44444444E+01  6.66666667E-01  0.00000000E+00
  7.44444444E+01  1.66533454E-15  0.00000000E+00
  7.55555556E+01  1.00000000E+01  0.00000000E+00
  7.55555556E+01  9.33333333E+00  0.00000000E+00
  7.55555556E+01  8.66666667E+00  0.00000000E+00
  7.55555556E+01  8.00000000E+00  0.00000000E+00
  7.55555556E+01  7.33333333E+00  0.00000000E+00
  7.55555556E+01  6.66666667E+00  0.00000000E+00
  7.55555556E+01  6.00000000E+00  0.00000000E+00
  7.55555556E+01  5.33333333E+00  0.00000000E+00
  7.55555556E+01  4.66666667E+00  0.00000000E+00
  7.55555556E+01  4.00000000E+00  0.00000000E+00
  7.55555556E+01  3.33333333E+00  0.00000000E+00
  7.55555556E+01  2.66666667E+00  0.00000000E+00
  7.55555556E+01  2.00000000E+00  0.00000000E+00
  7.55555556E+01  1.33333333E+00  0.00000000E+00
  7.55555556E+01  6.66666667E-01  0.00000000E+00
  7.55555556E+01  1.66533454E-15  0.00000000E+00
  7.66666667E+01  1.00000000E+01  0.00000000E+00
  7.66666667E+01  9.33333333E+00  0.00000000E+00
  7.66666667E+01  8.66666667E+00  0.00000000E+00
  7.66666667E+01  8.00000000E+00  0.00000000E+00
  7.66666667E+01  7.33333333E+00  0.00000000E+00
  7.66666667E+01  6.66666667E+00  0.00000000E+00
  7.66666667E+01  6.00000000E+00  0.00000000E+00
  7.66666667E+01  5.33333333E+00  0.00000000E+00
  7.66666667E+01  4.66666667E+00  0.00000000E+00
  7.66666667E+01  4.00000000E+00  0.00000000E+00
  7.66666667E+01  3.33333333E+00  0.00000000E+00
  7.66666667E+01  2.66666667E+00  0.00000000E+00
  7.66666667E+01  2.00000000E+00  0.00000000E+00
  7.66666667E+01  1.33333333E+00  0.00000000E+00
  7.66666667E+01  6.66666667E-01  0.00000000E+00
  7.66666667E+01  1.66533454E-15  0.00000000E+00
  7.77777778E+01  1.00000000E+01  0.00000000E+00
  7.77777778E+01  9.33333333E+00  0.00000000E+00
  7.77777778E+01  8.66666667E+00  0.00000000E+00
  7.77777778E+01  8.00000000E+00  0.00000000E+00
  7.77777778E+01  7.33333333E+00  0.00000000E+00
  7.77777778E+01  6.66666667E+00  0.00000000E+00
  7.77777778E+01  6.00000000E+00  0.00000000E+00
  7.77777778E+01  5.33333333E+00  0.00000000E+00
  7.77777778E+01  4.66666667E+00  0.00000000E+00
  7.77777778E+01  4.00000000E+00  0.00000000E+00
  7.77777778E+01  3.33333333E+00  0.00000000E+00
  7.77777778E+01  2.66666667E+00  0.00000000E+00
  7.77777778E+01  2.00000000E+00  0.00000000E+00
  7.77777778E+01  1.33333333E+00  0.00000000E+00
  7.77777778E+01  6.66666667E-01  0.00000000E+00
  7.77777778E+01  1.66533454E-15  0.00000000E+00
  7.88888889E+01  1.00000000E+01  0.00000000E+00
  7.88888889E+01  9.33333333E+00  0.00000000E+00
  7.88888889E+01  8.66666667E+00  0.00000000E+00
  7.88888889E+01  8.00000000E+00  0.00000000E+00
  7.88888889E+01  7.33333333E+00  0.00000000E+00
  7.88888889E+01  6.66666667E+00  0.00000000E+00
  7.88888889E+01  6.00000000E+00  0.00000000E+00
  7.88888889E+01  5.33333333E+00  0.00000000E+00
  7.88888889E+01  4.66666667E+00  0.00000000E+00
  7.88888889E+01  4.00000000E+00  0.00000000E+00
  7.88888889E+01  3.33333333E+00  0.00000000E+00
  7.88888889E+01  2.66666667E+00  0.00000000E+00
  7.88888889E+01  2.00000000E+00  0.00000000E+00
  7.88888889E+01  1.33333333E+00  0.00000000E+00
  7.88888889E+01  6.66666667E-01  0.00000000E+00
  7.88888889E+01  1.66533454E-15  0.00000000E+00
  8.00000000E+01  1.00000000E+01  0.00000000E+00
  8.00000000E+01  9.33333333E+00  0.00000000E+00
  8.00000000E+01  8.66666667E+00  0.00000000E+00
  8.00000000E+01  8.00000000E+00  0.00000000E+00
  8.00000000E+01  7.33333333E+00  0.00000000E+00
  8.00000000E+01  6.66666667E+00  0.00000000E+00
  8.00000000E+01  6.00000000E+00  0.00000000E+00
  8.00000000E+01  5.33333333E+00  0.00000000E+00
  8.00000000E+01  4.66666667E+00  0.00000000E+00
  8.00000000E+01  4.00000000E+00  0.00000000E+00
  8.00000000E+01  3.33333333E+00  0.00000000E+00
  8.00000000E+01  2.66666667E+00  0.00000000E+00
  8.00000000E+01  2.00000000E+00  0.00000000E+00
  8.00000000E+01  1.33333333E+00  0.00000000E+00
  8.00000000E+01  6.66666667E-01  0.00000000E+00
  8.00000000E+01  1.66533454E-15  0.00000000E+00
  8.11111111E+01  1.00000000E+01  0.00000000E+00
  8.11111111E+01  9.33333333E+00  0.00000000E+00
  8.11111111E+01  8.66666667E+00  0.00000000E+00
  8.11111111E+01  8.00000000E+00  0.00000000E+00
  8.11111111E+01  7.33333333E+00  0.00000000E+00
  8.11111111E+01  6.66666667E+00  0.00000000E+00
  8.11111111E+01  6.00000000E+00  0.00000000E+00
  8.11111111E+01  5.33333333E+00  0.00000000E+00
  8.11111111E+01  4.66666667E+00  0.00000000E+00
  8.11111111E+01  4.00000000E+00  0.00000000E+00
  8.11111111E+01  3.33333333E+00  0.00000000E+00
  8.11111111E+01  2.66666667E+00  0.00000000E+00
  8.11111111E+01  2.00000000E+00  0.00000000E+00
  8.11111111E+01  1.33333333E+00  0.00000000E+00
  8.11111111E+01  6.66666667E-01  0.00000000E+00
  8.11111111E+01  1.66533454E-15  0.00000000E+00
  8.22222222E+01  1.00000000E+01  0.00000000E+00
  8.22222222E+01  9.33333333E+00  0.00000000E+00
  8.22222222E+01  8.66666667E+00  0.00000000E+00
  8.22222222E+01  8.00000000E+00  0.00000000E+00
  8.22222222E+01  7.33333333E+00  0.00000000E+00
  8.22222222E+01  6.66666667E+00  0.00000000E+00
  8.22222222E+01  6.00000000E+00  0.00000000E+00
  8.22222222E+01  5.33333333E+00  0.00000000E+00
  8.22222222E+01  4.66666667E+00  0.00000000E+00
  8.22222222E+01  4.00000000E+00  0.00000000E+00
  8.22222222E+01  3.33333333E+00  0.00000000E+00
  8.22222222E+01  2.66666667E+00  0.00000000E+00
  8.22222222E+01  2.00000000E+00  0.00000000E+00
  8.22222222E+01  1.33333333E+00  0.00000000E+00
  8.22222222E+01  6.66666667E-01  0.00000000E+00
  8.22222222E+01  1.66533454E-15  0.00000000E+00
  8.33333333E+01  1.00000000E+01  0.00000000E+00
  8.33333333E+01  9.33333333E+00  0.00000000E+00
  8.33333333E+01  8.66666667E+00  0.00000000E+00
  8.33333333E+01  8.00000000E+00  0.00000000E+00
  8.33333333E+01  7.33333333E+00  0.00000000E+00
  8.33333333E+01  6.66666667E+00  0.00000000E+00
  8.33333333E+01  6.00000000E+00  0.00000000E+00
  8.33333333E+01  5.33333333E+00  0.00000000E+00
  8.33333333E+01  4.66666667E+00  0.00000000E+00
  8.33333333E+01  4.00000000E+00  0.00000000E+00
  8.33333333E+01  3.33333333E+00  0.00000000E+00
  8.33333333E+01  2.66666667E+00  0.00000000E+00
  8.33333333E+01  2.00000000E+00  0.00000000E+00
  8.33333333E+01  1.33333333E+00  0.00000000E+00
  8.33333333E+01  6.66666667E-01  0.00000000E+00
  8.33333333E+01  1.66533454E-15  0.00000000E+00
  8.44444444E+01  1.00000000E+01  0.00000000E+00
  8.44444444E+01  9.33333333E+00  0.00000000E+00
  8.44444444E+01  8.66666667E+00  0.00000000E+00
  8.44444444E+01  8.00000000E+00  0.00000000E+00
  8.44444444E+01  7.33333333E+00  0.00000000E+00
  8.44444444E+01  6.66666667E+00  0.00000000E+00
  8.44444444E+01  6.00000000E+00  0.00000000E+00
  8.44444444E+01  5.33333333E+00  0.00000000E+00
  8.44444444E+01  4.66666667E+00  0.00000000E+00
  8.44444444E+01  4.00000000E+00  0.00000000E+00
  8.44444444E+01  3.33333333E+00  0.00000000E+00
  8.44444444E+01  2.66666667E+00  0.00000000E+00
  8.44444444E+01  2.00000000E+00  0.00000000E+00
  8.44444444E+01  1.33333333E+00  0.00000000E+00
  8.44444444E+01  6.66666667E-01  0.00000000E+00
  8.44444444E+01  1.66533454E-15  0.00000000E+00
  8.55555556E+01  1.00000000E+01  0.00000000E+00
  8.55555556E+01  9.33333333E+00  0.00000000E+00
  8.55555556E+01  8.66666667E+00  0.00000000E+00
  8.55555556E+01  8.00000000E+00  0.00000000E+00
  8.55555556E+01  7.33333333E+00  0.00000000E+00
  8.55555556E+01  6.66666667E+00  0.00000000E+00
  8.55555556E+01  6.00000000E+00  0.00000000E+00
  8.55555556E+01  5.33333333E+00  0.00000000E+00
  8.55555556E+01  4.66666667E+00  0.00000000E+00
  8.55555556E+01  4.00000000E+00  0.00000000E+00
  8.55555556E+01  3.33333333E+00  0.00000000E+00
  8.55555556E+01  2.66666667E+00  0.00000000E+00
  8.55555556E+01  2.00000000E+00  0.00000000E+00
  8.55555556E+01  1.33333333E+00  0.00000000E+00
  8.55555556E+01  6.66666667E-01  0.00000000E+00
  8.55555556E+01  1.66533454E-15  0.00000000E+00
  8.66666667E+01  1.00000000E+01  0.00000000E+00
  8.66666667E+01  9.33333333E+00  0.00000000E+00
  8.66666667E+01  8.66666667E+00  0.00000000E+00
  8.66666667E+01  8.00000000E+00  0.00000000E+00
  8.66666667E+01  7.33333333E+00  0.00000000E+00
  8.66666667E+01  6.66666667E+00  0.00000000E+00
  8.66666667E+01  6.00000000E+00  0.00000000E+00
  8.66666667E+01  5.33333333E+00  0.00000000E+00
  8.66666667E+01  4.66666667E+00  0.00000000E+00
  8.66666667E+01  4.00000000E+00  0.00000000E+00
  8.66666667E+01  3.33333333E+00  0.00000000E+00
  8.66666667E+01  2.66666667E+00  0.00000000E+00
  8.66666667E+01  2.00000000E+00  0.00000000E+00
  8.66666667E+01  1.33333333E+00  0.00000000E+00
  8.66666667E+01  6.66666667E-01  0.00000000E+00
  8.66666667E+01  1.66533454E-15  0.00000000E+00
  8.77777778E+01  1.00000000E+01  0.00000000E+00
  8.77777778E+01  9.33333333E+00  0.00000000E+00
  8.77777778E+01  8.66666667E+00  0.00000000E+00
  8.77777778E+01  8.00000000E+00  0.00000000E+00
  8.77777778E+01  7.33333333E+00  0.00000000E+00
  8.77777778E+01  6.66666667E+00  0.00000000E+00
  8.77777778E+01  6.00000000E+00  0.00000000E+00
  8.77777778E+01  5.33333333E+00  0.00000000E+00
  8.77777778E+01  4.66666667E+00  0.00000000E+00
  8.77777778E+01  4.00000000E+00  0.00000000E+00
  8.77777778E+01  3.33333333E+00  0.00000000E+00
  8.77777778E+01  2.66666667E+00  0.00000000E+00
  8.77777778E+01  2.00000000E+00  0.00000000E+00
  8.77777778E+01  1.33333333E+00  0.00000000E+00
  8.77777778E+01  6.66666667E-01  0.00000000E+00
  8.77777778E+01  1.66533454E-15  0.00000000E+00
  8.88888889E+01  1.00000000E+01  0.00000000E+00
  8.88888889E+01  9.33333333E+00  0.00000000E+00
  8.88888889E+01  8.66666667E+00  0.00000000E+00
  8.88888889E+01  8.00000000E+00  0.00000000E+00
  8.88888889E+01  7.33333333E+00  0.00000000E+00
  8.88888889E+01  6.66666667E+00  0.00000000E+00
  8.88888889E+01  6.00000000E+00  0.00000000E+00
  8.88888889E+01  5.33333333E+00  0.00000000E+00
  8.88888889E+01  4.66666667E+00  0.00000000E+00
  8.88888889E+01  4.00000000E+00  0.00000000E+00
  8.88888889E+01  3.33333333E+00  0.00000000E+00
  8.88888889E+01  2.66666667E+00  0.00000000E+00
  8.88888889E+01  2.00000000E+00  0.00000000E+00
  8.88888889E+01  1.33333333E+00  0.00000000E+00
  8.88888889E+01  6.66666667E-01  0.00000000E+00
  8.88888889E+01  1.66533454E-15  0.00000000E+00
  9.00000000E+01  1.00000000E+01  0.00000000E+00
  9.00000000E+01  9.33333333E+00  0.00000000E+00
  9.00000000E+01  8.66666667E+00  0.00000000E+00
  9.00000000E+01  8.00000000E+00  0.00000000E+00
  9.00000000E+01  7.33333333E+00  0.00000000E+00
  9.00000000E+01  6.66666667E+00  0.00000000E+00
  9.00000000E+01  6.00000000E+00  0.00000000E+00
  9.00000000E+01  5.33333333E+00  0.00000000E+00
  9.00000000E+01  4.66666667E+00  0.00000000E+00
  9.00000000E+01  4.00000000E+00  0.00000000E+00
  9.00000000E+01  3.33333333E+00  0.00000000E+00
  9.00000000E+01  2.66666667E+00  0.00000000E+00
  9.00000000E+01  2.00000000E+00  0.00000000E+00
  9.00000000E+01  1.33333333E+00  0.00000000E+00
  9.00000000E+01  6.66666667E-01  0.00000000E+00
  9.00000000E+01  1.66533454E-15  0.00000000E+00
  9.11111111E+01  1.00000000E+01  0.00000000E+00
  9.11111111E+01  9.33333333E+00  0.00000000E+00
  9.11111111E+01  8.66666667E+00  0.00000000E+00
  9.11111111E+01  8.00000000E+00  0.00000000E+00
  9.11111111E+01  7.33333333E+00  0.00000000E+00
  9.11111111E+01  6.66666667E+00  0.00000000E+00
  9.11111111E+01  6.00000000E+00  0.00000000E+00
  9.11111111E+01  5.33333333E+00  0.00000000E+00
  9.11111111E+01  4.66666667E+00  0.00000000E+00
  9.11111111E+01  4.00000000E+00  0.00000000E+00
  9.11111111E+01  3.33333333E+00  0.00000000E+00
  9.11111111E+01  2.66666667E+00  0.00000000E+00
  9.11111111E+01  2.00000000E+00  0.00000000E+00
  9.11111111E+01  1.33333333E+00  0.00000000E+00
  9.11111111E+01  6.66666667E-01  0.00000000E+00
  9.11111111E+01  1.66533454E-15  0.00000000E+00
  9.22222222E+01  1.00000000E+01  0.00000000E+00
  9.22222222E+01  9.33333333E+00  0.00000000E+00
  9.22222222E+01  8.66666667E+00  0.00000000E+00
  9.22222222E+01  8.00000000E+00  0.00000000E+00
  9.22222222E+01  7.33333333E+00  0.00000000E+00
  9.22222222E+01  6.66666667E+00  0.00000000E+00
  9.22222222E+01  6.00000000E+00  0.00000000E+00
  9.22222222E+01  5.33333333E+00  0.00000000E+00
  9.22222222E+01  4.66666667E+00  0.00000000E+00
  9.22222222E+01  4.00000000E+00  0.00000000E+00
  9.22222222E+01  3.33333333E+00  0.00000000E+00
  9.22222222E+01  2.66666667E+00  0.00000000E+00
  9.22222222E+01  2.00000000E+00  0.00000000E+00
  9.22222222E+01  1.33333333E+00  0.00000000E+00
  9.22222222E+01  6.66666667E-01  0.00000000E+00
  9.22222222E+01  1.66533454E-15  0.00000000E+00
  9.33333333E+01  1.00000000E+01  0.00000000E+00
  9.33333333E+01  9.33333333E+00  0.00000000E+00
  9.33333333E+01  8.66666667E+00  0.00000000E+00
  9.33333333E+01  8.00000000E+00  0.00000000E+00
  9.33333333E+01  7.33333333E+00  0.00000000E+00
  9.33333333E+01  6.66666667E+00  0.00000000E+00
  9.33333333E+01  6.00000000E+00  0.00000000E+00
  9.33333333E+01  5.33333333E+00  0.00000000E+00
  9.33333333E+01  4.66666667E+00  0.00000000E+00
  9.33333333E+01  4.00000000E+00  0.00000000E+00
  9.33333333E+01  3.33333333E+00  0.00000000E+00
  9.33333333E+01  2.66666667E+00  0.00000000E+00
  9.33333333E+01  2.00000000E+00  0.00000000E+00
  9.33333333E+01  1.33333333E+00  0.00000000E+00
  9.33333333E+01  6.66666667E-01  0.00000000E+00
  9.33333333E+01  1.66533454E-15  0.00000000E+00
  9.44444444E+01  1.00000000E+01  0.00000000E+00
  9.44444444E+01  9.33333333E+00  0.00000000E+00
  9.44444444E+01  8.66666667E+00  0.00000000E+00
  9.44444444E+01  8.00000000E+00  0.00000000E+00
  9.44444444E+01  7.33333333E+00  0.00000000E+00
  9.44444444E+01  6.66666667E+00  0.00000000E+00
  9.44444444E+01  6.00000000E+00  0.00000000E+00
  9.44444444E+01  5.33333333E+00  0.00000000E+00
  9.44444444E+01  4.66666667E+00  0.00000000E+00
  9.44444444E+01  4.00000000E+00  0.00000000E+00
  9.44444444E+01  3.33333333E+00  0.00000000E+00
  9.44444444E+01  2.66666667E+00  0.00000000E+00
  9.44444444E+01  2.00000000E+00  0.00000000E+00
  9.44444444E+01  1.33333333E+00  0.00000000E+00
  9.44444444E+01  6.66666667E-01  0.00000000E+00
  9.44444444E+01  1.66533454E-15  0.00000000E+00
  9.55555556E+01  1.00000000E+01  0.00000000E+00
  9.55555556E+01  9.33333333E+00  0.00000000E+00
  9.55555556E+01  8.66666667E+00  0.00000000E+00
  9.55555556E+01  8.00000000E+00  0.00000000E+00
  9.55555556E+01  7.33333333E+00  0.00000000E+00
  9.55555556E+01  6.66666667E+00  0.00000000E+00
  9.55555556E+01  6.00000000E+00  0.00000000E+00
  9.55555556E+01  5.33333333E+00  0.00000000E+00
  9.55555556E+01  4.66666667E+00  0.00000000E+00
  9.55555556E+01  4.00000000E+00  0.00000000E+00
  9.55555556E+01  3.33333333E+00  0.00000000E+00
  9.55555556E+01  2.66666667E+00  0.00000000E+00
  9.55555556E+01  2.00000000E+00  0.00000000E+00
  9.55555556E+01  1.33333333E+00  0.00000000E+00
  9.55555556E+01  6.66666667E-01  0.00000000E+00
  9.55555556E+01  1.66533454E-15  0.00000000E+00
  9.66666667E+01  1.00000000E+01  0.00000000E+00
  9.66666667E+01  9.33333333E+00  0.00000000E+00
  9.66666667E+01  8.66666667E+00  0.00000000E+00
  9.66666667E+01  8.00000000E+00  0.00000000E+00
  9.66666667E+01  7.33333333E+00  0.00000000E+00
  9.66666667E+01  6.66666667E+00  0.00000000E+00
  9.66666667E+01  6.00000000E+00  0.00000000E+00
  9.66666667E+01  5.33333333E+00  0.00000000E+00
  9.66666667E+01  4.66666667E+00  0.00000000E+00
  9.66666667E+01  4.00000000E+00  0.00000000E+00
  9.66666667E+01  3.33333333E+00  0.00000000E+00
  9.66666667E+01  2.66666667E+00  0.00000000E+00
  9.66666667E+01  2.00000000E+00  0.00000000E+00
  9.66666667E+01  1.33333333E+00  0.00000000E+00
  9.66666667E+01  6.66666667E-01  0.00000000E+00
  9.66666667E+01  1.66533454E-15  0.00000000E+00
  9.77777778E+01  1.00000000E+01  0.00000000E+00
  9.77777778E+01  9.33333333E+00  0.00000000E+00
  9.77777778E+01  8.66666667E+00  0.00000000E+00
  9.77777778E+01  8.00000000E+00  0.00000000E+00
  9.77777778E+01  7.33333333E+00  0.00000000E+00
  9.77777778E+01  6.66666667E+00  0.00000000E+00
  9.77777778E+01  6.00000000E+00  0.00000000E+00
  9.77777778E+01  5.33333333E+00  0.00000000E+00
  9.77777778E+01  4.66666667E+00  0.00000000E+00
  9.77777778E+01  4.00000000E+00  0.00000000E+00
  9.77777778E+01  3.33333333E+00  0.00000000E+00
  9.77777778E+01  2.66666667E+00  0.00000000E+00
  9.77777778E+01  2.00000000E+00  0.00000000E+00
  9.77777778E+01  1.33333333E+00  0.00000000E+00
  9.77777778E+01  6.66666667E-01  0.00000000E+00
  9.77777778E+01  1.66533454E-15  0.00000000E+00
  9.88888889E+01  1.00000000E+01  0.00000000E+00
  9.88888889E+01  9.33333333E+00  0.00000000E+00
  9.88888889E+01  8.66666667E+00  0.00000000E+00
  9.88888889E+01  8.00000000E+00  0.00000000E+00
  9.88888889E+01  7.33333333E+00  0.00000000E+00
  9.88888889E+01  6.66666667E+00  0.00000000E+00
  9.88888889E+01  6.00000000E+00  0.00000000E+00
  9.88888889E+01  5.33333333E+00  0.00000000E+00
  9.88888889E+01  4.66666667E+00  0.00000000E+00
  9.88888889E+01  4.00000000E+00  0.00000000E+00
  9.88888889E+01  3.33333333E+00  0.00000000E+00
  9.88888889E+01  2.66666667E+00  0.00000000E+00
  9.88888889E+01  2.00000000E+00  0.00000000E+00
  9.88888889E+01  1.33333333E+00  0.00000000E+00
  9.88888889E+01  6.66666667E-01  0.00000000E+00
  9.88888889E+01  1.66533454E-15  0.00000000E+00
  1.00000000E+02  1.00000000E+01  0.00000000E+00
  1.00000000E+02  9.33333333E+00  0.00000000E+00
  1.00000000E+02  8.66666667E+00  0.00000000E+00
  1.00000000E+02  8.00000000E+00  0.00000000E+00
  1.00000000E+02  7.33333333E+00  0.00000000E+00
  1.00000000E+02  6.66666667E+00  0.00000000E+00
  1.00000000E+02  6.00000000E+00  0.00000000E+00
  1.00000000E+02  5.33333333E+00  0.00000000E+00
  1.00000000E+02  4.66666667E+00  0.00000000E+00
  1.00000000E+02  4.00000000E+00  0.00000000E+00
  1.00000000E+02  3.33333333E+00  0.00000000E+00
  1.00000000E+02  2.66666667E+00  0.00000000E+00
  1.00000000E+02  2.00000000E+00  0.00000000E+00
  1.00000000E+02  1.33333333E+00  0.00000000E+00
  1.00000000E+02  6.66666667E-01  0.00000000E+00
  1.00000000E+02  1.66533454E-15  0.00000000E+00
CELLS      1350      6750
         4           0           1          17          16
         4           1           2          18          17
         4           2           3          19          18
         4           3           4          20          19
         4           4           5          21          20
         4           5           6          22          21
         4           6           7          23          22
         4           7           8          24          23
         4           8           9          25          24
         4           9          10          26          25
         4          10          11          27          26
         4          11          12          28          27
         4          12          13          29          28
         4          13          14          30          29
         4          14          15          31          30
         4          16          17          33          32
         4          17          18          34          33
         4          18          19          35          34
         4          19          20          36          35
         4          20          21          37          36
         4          21          22          38          37
         4          22          23          39          38
         4          23          24          40          39
         4          24          25          41          40
         4          25          26          42          41
         4          26          27          43          42
         4          27          28          44          43
         4          28          29          45          44
         4          29          30          46          45
         4          30          31          47          46
         4          32          33          49          48
         4          33          34          50          49
         4          34          35          51          50
         4          35          36          52          51
         4          36          37          53          52
         4          37          38          54          53
         4          38          39          55          54
         4          39          40          56          55
         4          40          41          57          56
         4          41          42          58          57
         4          42          43          59          58
         4          43          44          60          59
         4          44          45          61          60
         4          45          46          62          61
         4          46          47          63          62
         4          48          49          65          64
         4          49          50          66          65
         4          50          51          67          66
         4          51          52          68          67
         4          52          53          69          68
         4          53          54          70          69
         4          54          55          71          70
         4          55          56          72          71
         4          56          57          73          72
         4          57          58          74          73
         4          58          59          75          74
         4          59          60          76          75
         4          60          61          77          76
         4          61          62          78          77
         4          62          63          79          78
         4          64          65          81          80
         4          65          66          82          81
         4          66          67          83          82
         4          67          68          84          83
         4          68          69          85          84
         4          69          70          86          85
         4          70          71          87          86
         4          71          72          88          87
         4          72          73          89          88
         4          73          74          90          89
         4          74          75          91          90
         4          75          76          92          91
         4          76          77          93          92
         4          77          78          94          93
         4          78          79          95          94
         4          80          81          97          96
         4          81          82          98          97
         4          82          83          99          98
         4          83          84         100          99
         4          84          85         101         100
         4          85          86         102         101
         4          86          87         103         102
         4          87          88         104         103
         4          88          89         105         104
         4          89          90         106         105
         4          90          91         107         106
         4          91          92         108         107
         4          92          93         109         108
         4          93          94         110         109
         4          94          95         111         110
         4          96          97         113         112
         4          97          98         114         113
         4          98          99         115         114
         4          99         100         116         115
         4         100         101         117         116
         4         101         102         118         117
         4         102         103         119         118
         4         103         104         120         119
         4         104         105         121         120
         4         105         106         122         121
         4         106         107         123         122
         4         107         108         124         123
         4         108         109         125         124
         4         109         110         126         125
         4         110         111         127         126
         4         112         113         129         128
         4         113         114         130         129
         4         114         115         131         130
         4         115         116         132         131
         4         116         117         133         132
         4         117         118         134         133
         4         118         119         135         134
         4         119         120         136         135
         4         120         121         137         136
         4         121         122         138         137
         4         122         123         139         138
         4         123         124         140         139
         4         124         125         141         140
         4         125         126         142         141
         4         126         127         143         142
         4         128         129         145         144
         4         129         130         146         145
         4         130         131         147         146
         4         131         132         148         147
         4         132         133         149         148
         4         133         134         150         149
         4         134         135         151         150
         4         135         136         152         151
         4         136         137         153         152
         4         137         138         154         153
         4         138         139         155         154
         4         139         140         156         155
         4         140         141         157         156
         4         141         142         158         157
         4         142         143         159         158
         4         144         145         161         160
         4         145         146         162         161
         4         146         147         163         162
         4         147         148         164         163
         4         148         149         165         164
         4         149         150         166         165
         4         150         151         167         166
         4         151         152         168         167
         4         152         153         169         168
         4         153         154         170         169
         4         154         155         171         170
         4         155         156         172         171
         4         156         157         173         172
         4         157         158         174         173
         4         158         159         175         174
         4         160         161         177         176
         4         161         162         178         177
         4         162         163         179         178
         4         163         164         180         179
         4         164         165         181         180
         4         165         166         182         181
         4         166         167         183         182
         4         167         168         184         183
         4         168         169         185         184
         4         169         170         186         185
         4         170         171         187         186
         4         171         172         188         187
         4         172         173         189         188
         4         173         174         190         189
         4         174         175         191         190
         4         176         177         193         192
         4         177         178         194         193
         4         178         179         195         194
         4         179         180         196         195
         4         180         181         197         196
         4         181         182         198         197
         4         182         183         199         198
         4         183         184         200         199
         4         184         185         201         200
         4         185         186         202         201
         4         186         187         203         202
         4         187         188         204         203
         4         188         189         205         204
         4         189         190         206         205
         4         190         191         207         206
         4         192         193         209         208
         4         193         194         210         209
         4         194         195         211         210
         4         195         196         212         211
         4         196         197         213         212
         4         197         198         214         213
         4         198         199         215         214
         4         199         200         216         215
         4         200         201         217         216
         4         201         202         218         217
         4         202         203         219         218
         4         203         204         220         219
         4         204         205         221         220
         4         205         206         222         221
         4         206         207         223         222
         4         208         209         225         224
         4         209         210         226         225
         4         210         211         227         226
         4         211         212         228         227
         4         212         213         229         228
         4         213         214         230         229
         4         214         215         231         230
         4         215         216         232         231
         4         216         217         233         232
         4         217         218         234         233
         4         218         219         235         234
         4         219         220         236         235
         4         220         221         237         236
         4         221         222         238         237
         4         222         223         239         238
         4         224         225         241         240
         4         225         226         242         241
         4         226         227         243         242
         4         227         228         244         243
         4         228         229         245         244
         4         229         230         246         245
         4         230         231         247         246
         4         231         232         248         247
         4         232         233         249         248
         4         233         234         250         249
         4         234         235         251         250
         4         235         236         252         251
         4         236         237         253         252
         4         237         238         254         253
         4         238         239         255         254
         4         240         241         257         256
         4         241         242         258         257
         4         242         243         259         258
         4         243         244         260         259
         4         244         245         261         260
         4         245         246         262         261
         4         246         247         263         262
         4         247         248         264         263
         4         248         249         265         264
         4         249         250         266         265
         4         250         251         267         266
         4         251         252         268         267
         4         252         253         269         268
         4         253         254         270         269
         4         254         255         271         270
         4         256         257         273         272
         4         257         258         274         273
         4         258         259         275         274
         4         259         260         276         275
         4         260         261         277         276
         4         261         262         278         277
         4         262         263         279         278
         4         263         264         280         279
         4         264         265         281         280
         4         265         266         282         281
         4         266         267         283         282
         4         267         268         284         283
         4         268         269         285         284
         4         269         270         286         285
         4         270         271         287         286
         4         272         273         289         288
         4         273         274         290         289
         4         274         275         291         290
         4         275         276         292         291
         4         276         277         293         292
         4         277         278         294         293
         4         278         279         295         294
         4         279         280         296         295
         4         280         281         297         296
         4         281         282         298         297
         4         282         283         299         298
         4         283         284         300         299
         4         284         285         301         300
         4         285         286         302         301
         4         286         287         303         302
         4         288         289         305         304
         4         289         290         306         305
         4         290         291         307         306
         4         291         292         308         307
         4         292         293         309         308
         4         293         294         310         309
         4         294         295         311         310
         4         295         296         312         311
         4         296         297         313         312
         4         297         298         314         313
         4         298         299         315         314
         4         299         300         316         315
         4         300         301         317         316
         4         301         302         318         317
         4         302         303         319         318
         4         304         305         321         320
         4         305         306         322         321
         4         306         307         323         322
         4         307         308         324         323
         4         308         309         325         324
         4         309         310         326         325
         4         310         311         327         326
         4         311         312         328         327
         4         312         313         329         328
         4         313         314         330         329
         4         314         315         331         330
         4         315         316         332         331
         4         316         317         333         332
         4         317         318         334         333
         4         318         319         335         334
         4         320         321         337         336
         4         321         322         338         337
         4         322         323         339         338
         4         323         324         340         339
         4         324         325         341         340
         4         325         326         342         341
         4         326         327         343         342
         4         327         328         344         343
         4         328         329         345         344
         4         329         330         346         345
         4         330         331         347         346
         4         331         332         348         347
         4         332         333         349         348
         4         333         334         350         349
         4         334         335         351         350
         4         336         337         353         352
         4         337         338         354         353
         4         338         339         355         354
         4         339         340         356         355
         4         340         341         357         356
         4         341         342         358         357
         4         342         343         359         358
         4         343         344         360         359
         4         344         345         361         360
         4         345         346         362         361
         4         346         347         363         362
         4         347         348         364         363
         4         348         349         365         364
         4         349         350         366         365
         4         350         351         367         366
         4         352         353         369         368
         4         353         354         370         369
         4         354         355         371         370
         4         355         356         372         371
         4         356         357         373         372
         4         357         358         374         373
         4         358         359         375         374
         4         359         360         376         375
         4         360         361         377         376
         4         361         362         378         377
         4         362         363         379         378
         4         363         364         380         379
         4         364         365         381         380
         4         365         366         382         381
         4         366         367         383         382
         4         368         369         385         384
         4         369         370         386         385
         4         370         371         387         386
         4         371         372         388         387
         4         372         373         389         388
         4         373         374         390         389
         4         374         375         391         390
         4         375         376         392         391
         4         376         377         393         392
         4         377         378         394         393
         4         378         379         395         394
         4         379         380         396         395
         4         380         381         397         396
         4         381         382         398         397
         4         382         383         399         398
         4         384         385         401         400
         4         385         386         402         401
         4         386         387         403         402
         4         387         388         404         403
         4         388         389         405         404
         4         389         390         406         405
         4         390         391         407         406
         4         391         392         408         407
         4         392         393         409         408
         4         393         394         410         409
         4         394         395         411         410
         4         395         396         412         411
         4         396         397         413         412
         4         397         398         414         413
         4         398         399         415         414
         4         400         401         417         416
         4         401         402         418         417
         4         402         403         419         418
         4         403         404         420         419
         4         404         405         421         420
         4         405         406         422         421
         4         406         407         423         422
         4         407         408         424         423
         4         408         409         425         424
         4         409         410         426         425
         4         410         411         427         426
         4         411         412         428         427
         4         412         413         429         428
         4         413         414         430         429
         4         414         415         431         430
         4         416         417         433         432
         4         417         418         434         433
         4         418         419         435         434
         4         419         420         436         435
         4         420         421         437         436
         4         421         422         438         437
         4         422         423         439         438
         4         423         424         440         439
         4         424         425         441         440
         4         425         426         442         441
         4         426         427         443         442
         4         427         428         444         443
         4         428         429         445         444
         4         429         430         446         445
         4         430         431         447         446
         4         432         433         449         448
         4         433         434         450         449
         4         434         435         451         450
         4         435         436         452         451
         4         436         437         453         452
         4         437         438         454         453
         4         438         439         455         454
         4         439         440         456         455
         4         440         441         457         456
         4         441         442         458         457
         4         442         443         459         458
         4         443         444         460         459
         4         444         445         461         460
         4         445         446         462         461
         4         446         447         463         462
         4         448         449         465         464
         4         449         450         466         465
         4         450         451         467         466
         4         451         452         468         467
         4         452         453         469         468
         4         453         454         470         469
         4         454         455         471         470
         4         455         456         472         471
         4         456         457         473         472
         4         457         458         474         473
         4         458         459         475         474
         4         459         460         476         475
         4         460         461         477         476
         4         461         462         478         477
         4         462         463         479         478
         4         464         465         481         480
         4         465         466         482         481
         4         466         467         483         482
         4         467         468         484         483
         4         468         469         485         484
         4         469         470         486         485
         4         470         471         487         486
         4         471         472         488         487
         4         472         473         489         488
         4         473         474         490         489
         4         474         475         491         490
         4         475         476         492         491
         4         476         477         493         492
         4         477         478         494         493
         4         478         479         495         494
         4         480         481         497         496
         4         481         482         498         497
         4         482         483         499         498
         4         483         484         500         499
         4         484         485         501         500
         4         485         486         502         501
         4         486         487         503         502
         4         487         488         504         503
         4         488         489         505         504
         4         489         490         506         505
         4         490         491         507         506
         4         491         492         508         507
         4         492         493         509         508
         4         493         494         510         509
         4         494         495         511         510
         4         496         497         513         512
         4         497         498         514         513
         4         498         499         515         514
         4         499         500         516         515
         4         500         501         517         516
         4         501         502         518         517
         4         502         503         519         518
         4         503         504         520         519
         4         504         505         521         520
         4         505         506         522         521
         4         506         507         523         522
         4         507         508         524         523
         4         508         509         525         524
         4         509         510         526         525
         4         510         511         527         526
         4         512         513         529         528
         4         513         514         530         529
         4         514         515         531         530
         4         515         516         532         531
         4         516         517         533         532
         4         517         518         534         533
         4         518         519         535         534
         4         519         520         536         535
         4         520         521         537         536
         4         521         522         538         537
         4         522         523         539         538
         4         523         524         540         539
         4         524         525         541         540
         4         525         526         542         541
         4         526         527         543         542
         4         528         529         545         544
         4         529         530         546         545
         4         530         531         547         546
         4         531         532         548         547
         4         532         533         549         548
         4         533         534         550         549
         4         534         535         551         550
         4         535         536         552         551
         4         536         537         553         552
         4         537         538         554         553
         4         538         539         555         554
         4         539         540         556         555
         4         540         541         557         556
         4         541         542         558         557
         4         542         543         559         558
         4         544         545         561         560
         4         545         546         562         561
         4         546         547         563         562
         4         547         548         564         563
         4         548         549         565         564
         4         549         550         566         565
         4         550         551         567         566
         4         551         552         568         567
         4         552         553         569         568
         4         553         554         570         569
         4         554         555         571         570
         4         555         556         572         571
         4         556         557         573         572
         4         557         558         574         573
         4         558         559         575         574
         4         560         561         577         576
         4         561         562         578         577
         4         562         563         579         578
         4         563         564         580         579
         4         564         565         581         580
         4         565         566         582         581
         4         566         567         583         582
         4         567         568         584         583
         4         568         569         585         584
         4         569         570         586         585
         4         570         571         587         586
         4         571         572         588         587
         4         572         573         589         588
         4         573         574         590         589
         4         574         575         591         590
         4         576         577         593         592
         4         577         578         594         593
         4         578         579         595         594
         4         579         580         596         595
         4         580         581         597         596
         4         581         582         598         597
         4         582         583         599         598
         4         583         584         600         599
         4         584         585         601         600
         4         585         586         602         601
         4         586         587         603         602
         4         587         588         604         603
         4         588         589         605         604
         4         589         590         606         605
         4         590         591         607         606
         4         592         593         609         608
         4         593         594         610         609
         4         594         595         611         610
         4         595         596         612         611
         4         596         597         613         612
         4         597         598         614         613
         4         598         599         615         614
         4         599         600         616         615
         4         600         601         617         616
         4         601         602         618         617
         4         602         603         619         618
         4         603         604         620         619
         4         604         605         621         620
         4         605         606         622         621
         4         606         607         623         622
         4         608         609         625         624
         4         609         610         626         625
         4         610         611         627         626
         4         611         612         628         627
         4         612         613         629         628
         4         613         614         630         629
         4         614         615         631         630
         4         615         616         632         631
         4         616         617         633         632
         4         617         618         634         633
         4         618         619         635         634
         4         619         620         636         635
         4         620         621         637         636
         4         621         622         638         637
         4         622         623         639         638
         4         624         625         641         640
         4         625         626         642         641
         4         626         627         643         642
         4         627         628         644         643
         4         628         629         645         644
         4         629         630         646         645
         4         630         631         647         646
         4         631         632         648         647
         4         632         633         649         648
         4         633         634         650         649
         4         634         635         651         650
         4         635         636         652         651
         4         636         637         653         652
         4         637         638         654         653
         4         638         639         655         654
         4         640         641         657         656
         4         641         642         658         657
         4         642         643         659         658
         4         643         644         660         659
         4         644         645         661         660
         4         645         646         662         661
         4         646         647         663         662
         4         647         648         664         663
         4         648         649         665         664
         4         649         650         666         665
         4         650         651         667         666
         4         651         652         668         667
         4         652         653         669         668
         4         653         654         670         669
         4         654         655         671         670
         4         656         657         673         672
         4         657         658         674         673
         4         658         659         675         674
         4         659         660         676         675
         4         660         661         677         676
         4         661         662         678         677
         4         662         663         679         678
         4         663         664         680         679
         4         664         665         681         680
         4         665         666         682         681
         4         666         667         683         682
         4         667         668         684         683
         4         668         669         685         684
         4         669         670         686         685
         4         670         671         687         686
         4         672         673         689         688
         4         673         674         690         689
         4         674         675         691         690
         4         675         676         692         691
         4         676         677         693         692
         4         677         678         694         693
         4         678         679         695         694
         4         679         680         696         695
         4         680         681         697         696
         4         681         682         698         697
         4         682         683         699         698
         4         683         684         700         699
         4         684         685         701         700
         4         685         686         702         701
         4         686         687         703         702
         4         688         689         705         704
         4         689         690         706         705
         4         690         691         707         706
         4         691         692         708         707
         4         692         693         709         708
         4         693         694         710         709
         4         694         695         711         710
         4         695         696         712         711
         4         696         697         713         712
         4         697         698         714         713
         4         698         699         715         714
         4         699         700         716         715
         4         700         701         717         716
         4         701         702         718         717
         4         702         703         719         718
         4         704         705         721         720
         4         705         706         722         721
         4         706         707         723         722
         4         707         708         724         723
         4         708         709         725         724
         4         709         710         726         725
         4         710         711         727         726
         4         711         712         728         727
         4         712         713         729         728
         4         713         714         730         729
         4         714         715         731         730
         4         715         716         732         731
         4         716         717         733         732
         4         717         718         734         733
         4         718         719         735         734
         4         720         721         737         736
         4         721         722         738         737
         4         722         723         739         738
         4         723         724         740         739
         4         724         725         741         740
         4         725         726         742         741
         4         726         727         743         742
         4         727         728         744         743
         4         728         729         745         744
         4         729         730         746         745
         4         730         731         747         746
         4         731         732         748         747
         4         732         733         749         748
         4         733         734         750         749
         4         734         735         751         750
         4         736         737         753         752
         4         737         738         754         753
         4         738         739         755         754
         4         739         740         756         755
         4         740         741         757         756
         4         741         742         758         757
         4         742         743         759         758
         4         743         744         760         759
         4         744         745         761         760
         4         745         746         762         761
         4         746         747         763         762
         4         747         748         764         763
         4         748         749         765         764
         4         749         750         766         765
         4         750         751         767         766
         4         752         753         769         768
         4         753         754         770         769
         4         754         755         771         770
         4         755         756         772         771
         4         756         757         773         772
         4         757         758         774         773
         4         758         759         775         774
         4         759         760         776         775
         4         760         761         777         776
         4         761         762         778         777
         4         762         763         779         778
         4         763         764         780         779
         4         764         765         781         780
         4         765         766         782         781
         4         766         767         783         782
         4         768         769         785         784
         4         769         770         786         785
         4         770         771         787         786
         4         771         772         788         787
         4         772         773         789         788
         4         773         774         790         789
         4         774         775         791         790
         4         775         776         792         791
         4         776         777         793         792
         4         777         778         794         793
         4         778         779         795         794
         4         779         780         796         795
         4         780         781         797         796
         4         781         782         798         797
         4         782         783         799         798
         4         784         785         801         800
         4         785         786         802         801
         4         786         787         803         802
         4         787         788         804         803
         4         788         789         805         804
         4         789         790         806         805
         4         790         791         807         806
         4         791         792         808         807
         4         792         793         809         808
         4         793         794         810         809
         4         794         795         811         810
         4         795         796         812         811
         4         796         797         813         812
         4         797         798         814         813
         4         798         799         815         814
         4         800         801         817         816
         4         801         802         818         817
         4         802         803         819         818
         4         803         804         820         819
         4         804         805         821         820
         4         805         806         822         821
         4         806         807         823         822
         4         807         808         824         823
         4         808         809         825         824
         4         809         810         826         825
         4         810         811         827         826
         4         811         812         828         827
         4         812         813         829         828
         4         813         814         830         829
         4         814         815         831         830
         4         816         817         833         832
         4         817         818         834         833
         4         818         819         835         834
         4         819         820         836         835
         4         820         821         837         836
         4         821         822         838         837
         4         822         823         839         838
         4         823         824         840         839
         4         824         825         841         840
         4         825         826         842         841
         4         826         827         843         842
         4         827         828         844         843
         4         828         829         845         844
         4         829         830         846         845
         4         830         831         847         846
         4         832         833         849         848
         4         833         834         850         849
         4         834         835         851         850
         4         835         836         852         851
         4         836         837         853         852
         4         837         838         854         853
         4         838         839         855         854
         4         839         840         856         855
         4         840         841         857         856
         4         841         842         858         857
         4         842         843         859         858
         4         843         844         860         859
         4         844         845         861         860
         4         845         846         862         861
         4         846         847         863         862
         4         848         849         865         864
         4         849         850         866         865
         4         850         851         867         866
         4         851         852         868         867
         4         852         853         869         868
         4         853         854         870         869
         4         854         855         871         870
         4         855         856         872         871
         4         856         857         873         872
         4         857         858         874         873
         4         858         859         875         874
         4         859         860         876         875
         4         860         861         877         876
         4         861         862         878         877
         4         862         863         879         878
         4         864         865         881         880
         4         865         866         882         881
         4         866         867         883         882
         4         867         868         884         883
         4         868         869         885         884
         4         869         870         886         885
         4         870         871         887         886
         4         871         872         888         887
         4         872         873         889         888
         4         873         874         890         889
         4         874         875         891         890
         4         875         876         892         891
         4         876         877         893         892
         4         877         878         894         893
         4         878         879         895         894
         4         880         881         897         896
         4         881         882         898         897
         4         882         883         899         898
         4         883         884         900         899
         4         884         885         901         900
         4         885         886         902         901
         4         886         887         903         902
         4         887         888         904         903
         4         888         889         905         904
         4         889         890         906         905
         4         890         891         907         906
         4         891         892         908         907
         4         892         893         909         908
         4         893         894         910         909
         4         894         895         911         910
         4         896         897         913         912
         4         897         898         914         913
         4         898         899         915         914
         4         899         900         916         915
         4         900         901         917         916
         4         901         902         918         917
         4         902         903         919         918
         4         903         904         920         919
         4         904         905         921         920
         4         905         906         922         921
         4         906         907         923         922
         4         907         908         924         923
         4         908         909         925         924
         4         909         910         926         925
         4         910         911         927         926
         4         912         913         929         928
         4         913         914         930         929
         4         914         915         931         930
         4         915         916         932         931
         4         916         917         933         932
         4         917         918         934         933
         4         918         919         935         934
         4         919         920         936         935
         4         920         921         937         936
         4         921         922         938         937
         4         922         923         939         938
         4         923         924         940         939
         4         924         925         941         940
         4         925         926         942         941
         4         926         927         943         942
         4         928         929         945         944
         4         929         930         946         945
         4         930         931         947         946
         4         931         932         948         947
         4         932         933         949         948
         4         933         934         950         949
         4         934         935         951         950
         4         935         936         952         951
         4         936         937         953         952
         4         937         938         954         953
         4         938         939         955         954
         4         939         940         956         955
         4         940         941         957         956
         4         941         942         958         957
         4         942         943         959         958
         4         944         945         961         960
         4         945         946         962         961
         4         946         947         963         962
         4         947         948         964         963
         4         948         949         965         964
         4         949         950         966         965
         4         950         951         967         966
         4         951         952         968         967
         4         952         953         969         968
         4         953         954         970         969
         4         954         955         971         970
         4         955         956         972         971
         4         956         957         973         972
         4         957         958         974         973
         4         958         959         975         974
         4         960         961         977         976
         4         961         962         978         977
         4         962         963         979         978
         4         963         964         980         979
         4         964         965         981         980
         4         965         966         982         981
         4         966         967         983         982
         4         967         968         984         983
         4         968         969         985         984
         4         969         970         986         985
         4         970         971         987         986
         4         971         972         988         987
         4         972         973         989         988
         4         973         974         990         989
         4         974         975         991         990
         4         976         977         993         992
         4         977         978         994         993
         4         978         979         995         994
         4         979         980         996         995
         4         980         981         997         996
         4         981         982         998         997
         4         982         983         999         998
         4         983         984        1000         999
         4         984         985        1001        1000
         4         985         986        1002        1001
         4         986         987        1003        1002
         4         987         988        1004        1003
         4         988         989        1005        1004
         4         989         990        1006        1005
         4         990         991        1007        1006
         4         992         993        1009        1008
         4         993         994        1010        1009
         4         994         995        1011        1010
         4         995         996        1012        1011
         4         996         997        1013        1012
         4         997         998        1014        1013
         4         998         999        1015        1014
         4         999        1000        1016        1015
         4        1000        1001        1017        1016
         4        1001        1002        1018        1017
         4        1002        1003        1019        1018
         4        1003        1004        1020        1019
         4        1004        1005        1021        1020
         4        1005        1006        1022        1021
         4        1006        1007        1023        1022
         4        1008        1009        1025        1024
         4        1009        1010        1026        1025
         4        1010        1011        1027        1026
         4        1011        1012        1028        1027
         4        1012        1013        1029        1028
         4        1013        1014        1030        1029
         4        1014        1015        1031        1030
         4        1015        1016        1032        1031
         4        1016        1017        1033        1032
         4        1017        1018        1034        1033
         4        1018        1019        1035        1034
         4        1019        1020        1036        1035
         4        1020        1021        1037        1036
         4        1021        1022        1038        1037
         4        1022        1023        1039        1038
         4        1024        1025        1041        1040
         4        1025        1026        1042        1041
         4        1026        1027        1043        1042
         4        1027        1028        1044        1043
         4        1028        1029        1045        1044
         4        1029        1030        1046        1045
         4        1030        1031        1047        1046
         4        1031        1032        1048        1047
         4        1032        1033        1049        1048
         4        1033        1034        1050        1049
         4        1034        1035        1051        1050
         4        1035        1036        1052        1051
         4        1036        1037        1053        1052
         4        1037        1038        1054        1053
         4        1038        1039        1055        1054
         4        1040        1041        1057        1056
         4        1041        1042        1058        1057
         4        1042        1043        1059        1058
         4        1043        1044        1060        1059
         4        1044        1045        1061        1060
         4        1045        1046        1062        1061
         4        1046        1047        1063        1062
         4        1047        1048        1064        1063
         4        1048        1049        1065        1064
         4        1049        1050        1066        1065
         4        1050        1051        1067        1066
         4        1051        1052        1068        1067
         4        1052        1053        1069        1068
         4        1053        1054        1070        1069
         4        1054        1055        1071        1070
         4        1056        1057        1073        1072
         4        1057        1058        1074        1073
         4        1058        1059        1075        1074
         4        1059        1060        1076        1075
         4        1060        1061        1077        1076
         4        1061        1062        1078        1077
         4        1062        1063        1079        1078
         4        1063        1064        1080        1079
         4        1064        1065        1081        1080
         4        1065        1066        1082        1081
         4        1066        1067        1083        1082
         4        1067        1068        1084        1083
         4        1068        1069        1085        1084
         4        1069        1070        1086        1085
         4        1070        1071        1087        1086
         4        1072        1073        1089        1088
         4        1073        1074        1090        1089
         4        1074        1075        1091        1090
         4        1075        1076        1092        1091
         4        1076        1077        1093        1092
         4        1077        1078        1094        1093
         4        1078        1079        1095        1094
         4        1079        1080        1096        1095
         4        1080        1081        1097        1096
         4        1081        1082        1098        1097
         4        1082        1083        1099        1098
         4        1083        1084        1100        1099
         4        1084        1085        1101        1100
         4        1085        1086        1102        1101
         4        1086        1087        1103        1102
         4        1088        1089        1105        1104
         4        1089        1090        1106        1105
         4        1090        1091        1107        1106
         4        1091        1092        1108        1107
         4        1092        1093        1109        1108
         4        1093        1094        1110        1109
         4        1094        1095        1111        1110
         4        1095        1096        1112        1111
         4        1096        1097        1113        1112
         4        1097        1098        1114        1113
         4        1098        1099        1115        1114
         4        1099        1100        1116        1115
         4        1100        1101        1117        1116
         4        1101        1102        1118        1117
         4        1102        1103        1119        1118
         4        1104        1105        1121        1120
         4        1105        1106        1122        1121
         4        1106        1107        1123        1122
         4        1107        1108        1124        1123
         4        1108        1109        1125        1124
         4        1109        1110        1126        1125
         4        1110        1111        1127        1126
         4        1111        1112        1128        1127
         4        1112        1113        1129        1128
         4        1113        1114        1130        1129
         4        1114        1115        1131        1130
         4        1115        1116        1132        1131
         4        1116        1117        1133        1132
         4        1117        1118        1134        1133
         4        1118        1119        1135        1134
         4        1120        1121        1137        1136
         4        1121        1122        1138        1137
         4        1122        1123        1139        1138
         4        1123        1124        1140        1139
         4        1124        1125        1141        1140
         4        1125        1126        1142        1141
         4        1126        1127        1143        1142
         4        1127        1128        1144        1143
         4        1128        1129        1145        1144
         4        1129        1130        1146        1145
         4        1130        1131        1147        1146
         4        1131        1132        1148        1147
         4        1132        1133        1149        1148
         4        1133        1134        1150        1149
         4        1134        1135        1151        1150
         4        1136        1137        1153        1152
         4        1137        1138        1154        1153
         4        1138        1139        1155        1154
         4        1139        1140        1156        1155
         4        1140        1141        1157        1156
         4        1141        1142        1158        1157
         4        1142        1143        1159        1158
         4        1143        1144        1160        1159
         4        1144        1145        1161        1160
         4        1145        1146        1162        1161
         4        1146        1147        1163        1162
         4        1147        1148        1164        1163
         4        1148        1149        1165        1164
         4        1149        1150        1166        1165
         4        1150        1151        1167        1166
         4        1152        1153        1169        1168
         4        1153        1154        1170        1169
         4        1154        1155        1171        1170
         4        1155        1156        1172        1171
         4        1156        1157        1173        1172
         4        1157        1158        1174        1173
         4        1158        1159        1175        1174
         4        1159        1160        1176        1175
         4        1160        1161        1177        1176
         4        1161        1162        1178        1177
         4        1162        1163        1179        1178
         4        1163        1164        1180        1179
         4        1164        1165        1181        1180
         4        1165        1166        1182        1181
         4        1166        1167        1183        1182
         4        1168        1169        1185        1184
         4        1169        1170        1186        1185
         4        1170        1171        1187        1186
         4        1171        1172        1188        1187
         4        1172        1173        1189        1188
         4        1173        1174        1190        1189
         4        1174        1175        1191        1190
         4        1175        1176        1192        1191
         4        1176        1177        1193        1192
         4        1177        1178        1194        1193
         4        1178        1179        1195        1194
         4        1179        1180        1196        1195
         4        1180        1181        1197        1196
         4        1181        1182        1198        1197
         4        1182        1183        1199        1198
         4        1184        1185        1201        1200
         4        1185        1186        1202        1201
         4        1186        1187        1203        1202
         4        1187        1188        1204        1203
         4        1188        1189        1205        1204
         4        1189        1190        1206        1205
         4        1190        1191        1207        1206
         4        1191        1192        1208        1207
         4        1192        1193        1209        1208
         4        1193        1194        1210        1209
         4        1194        1195        1211        1210
         4        1195        1196        1212        1211
         4        1196        1197        1213        1212
         4        1197        1198        1214        1213
         4        1198        1199        1215        1214
         4        1200        1201        1217        1216
         4        1201        1202        1218        1217
         4        1202        1203        1219        1218
         4        1203        1204        1220        1219
         4        1204        1205        1221        1220
         4        1205        1206        1222        1221
         4        1206        1207        1223        1222
         4        1207        1208        1224        1223
         4        1208        1209        1225        1224
         4        1209        1210        1226        1225
         4        1210        1211        1227        1226
         4        1211        1212        1228        1227
         4        1212        1213        1229        1228
         4        1213        1214        1230        1229
         4        1214        1215        1231        1230
         4        1216        1217        1233        1232
         4        1217        1218        1234        1233
         4        1218        1219        1235        1234
         4        1219        1220        1236        1235
         4        1220        1221        1237        1236
         4        1221        1222        1238        1237
         4        1222        1223        1239        1238
         4        1223        1224        1240        1239
         4        1224        1225        1241        1240
         4        1225        1226        1242        1241
         4        1226        1227        1243        1242
         4        1227        1228        1244        1243
         4        1228        1229        1245        1244
         4        1229        1230        1246        1245
         4        1230        1231        1247        1246
         4        1232        1233        1249        1248
         4        1233        1234        1250        1249
         4        1234        1235        1251        1250
         4        1235        1236        1252        1251
         4        1236        1237        1253        1252
         4        1237        1238        1254        1253
         4        1238        1239        1255        1254
         4        1239        1240        1256        1255
         4        1240        1241        1257        1256
         4        1241        1242        1258        1257
         4        1242        1243        1259        1258
         4        1243        1244        1260        1259
         4        1244        1245        1261        1260
         4        1245        1246        1262        1261
         4        1246        1247        1263        1262
         4        1248        1249        1265        1264
         4        1249        1250        1266        1265
         4        1250        1251        1267        1266
         4        1251        1252        1268        1267
         4        1252        1253        1269        1268
         4        1253        1254        1270        1269
         4        1254        1255        1271        1270
         4        1255        1256        1272        1271
         4        1256        1257        1273        1272
         4        1257        1258        1274        1273
         4        1258        1259        1275        1274
         4        1259        1260        1276        1275
         4        1260        1261        1277        1276
         4        1261        1262        1278        1277
         4        1262        1263        1279        1278
         4        1264        1265        1281        1280
         4        1265        1266        1282        1281
         4        1266        1267        1283        1282
         4        1267        1268        1284        1283
         4        1268        1269        1285        1284
         4        1269        1270        1286        1285
         4        1270        1271        1287        1286
         4        1271        1272        1288        1287
         4        1272        1273        1289        1288
         4        1273        1274        1290        1289
         4        1274        1275        1291        1290
         4        1275        1276        1292        1291
         4        1276        1277        1293        1292
         4        1277        1278        1294        1293
         4        1278        1279        1295        1294
         4        1280        1281        1297        1296
         4        1281        1282        1298        1297
         4        1282        1283        1299        1298
         4        1283        1284        1300        1299
         4        1284        1285        1301        1300
         4        1285        1286        1302        1301
         4        1286        1287        1303        1302
         4        1287        1288        1304        1303
         4        1288        1289        1305        1304
         4        1289        1290        1306        1305
         4        1290        1291        1307        1306
         4        1291        1292        1308        1307
         4        1292        1293        1309        1308
         4        1293        1294        1310        1309
         4        1294        1295        1311        1310
         4        1296        1297        1313        1312
         4        1297        1298        1314        1313
         4        1298        1299        1315        1314
         4        1299        1300        1316        1315
         4        1300        1301        1317        1316
         4        1301        1302        1318        1317
         4        1302        1303        1319        1318
         4        1303        1304        1320        1319
         4        1304        1305        1321        1320
         4        1305        1306        1322        1321
         4        1306        1307        1323        1322
         4        1307        1308        1324        1323
         4        1308        1309        1325        1324
         4        1309        1310        1326        1325
         4        1310        1311        1327        1326
         4        1312        1313        1329        1328
         4        1313        1314        1330        1329
         4        1314        1315        1331        1330
         4        1315        1316        1332        1331
         4        1316        1317        1333        1332
         4        1317        1318        1334        1333
         4        1318        1319        1335        1334
         4        1319        1320        1336        1335
         4        1320        1321        1337        1336
         4        1321        1322        1338        1337
         4        1322        1323        1339        1338
         4        1323        1324        1340        1339
         4        1324        1325        1341        1340
         4        1325        1326        1342        1341
         4        1326        1327        1343        1342
         4        1328        1329        1345        1344
         4        1329        1330        1346        1345
         4        1330        1331        1347        1346
         4        1331        1332        1348        1347
         4        1332        1333        1349        1348
         4        1333        1334        1350        1349
         4        1334        1335        1351        1350
         4        1335        1336        1352        1351
         4        1336        1337        1353        1352
         4        1337        1338        1354        1353
         4        1338        1339        1355        1354
         4        1339        1340        1356        1355
         4        1340        1341        1357        1356
         4        1341        1342        1358        1357
         4        1342        1343        1359        1358
         4        1344        1345        1361        1360
         4        1345        1346        1362        1361
         4        1346        1347        1363        1362
         4        1347        1348        1364        1363
         4        1348        1349        1365        1364
         4        1349        1350        1366        1365
         4        1350        1351        1367        1366
         4        1351        1352        1368        1367
         4        1352        1353        1369        1368
         4        1353        1354        1370        1369
         4        1354        1355        1371        1370
         4        1355        1356        1372        1371
         4        1356        1357        1373        1372
         4        1357        1358        1374        1373
         4        1358        1359        1375        1374
         4        1360        1361        1377        1376
         4        1361        1362        1378        1377
         4        1362        1363        1379        1378
         4        1363        1364        1380        1379
         4        1364        1365        1381        1380
         4        1365        1366        1382        1381
         4        1366        1367        1383        1382
         4        1367        1368        1384        1383
         4        1368        1369        1385        1384
         4        1369        1370        1386        1385
         4        1370        1371        1387        1386
         4        1371        1372        1388        1387
         4        1372        1373        1389        1388
         4        1373        1374        1390        1389
         4        1374        1375        1391        1390
         4        1376        1377        1393        1392
         4        1377        1378        1394        1393
         4        1378        1379        1395        1394
         4        1379        1380        1396        1395
         4        1380        1381        1397        1396
         4        1381        1382        1398        1397
         4        1382        1383        1399        1398
         4        1383        1384        1400        1399
         4        1384        1385        1401        1400
         4        1385        1386        1402        1401
         4        1386        1387        1403        1402
         4        1387        1388        1404        1403
         4        1388        1389        1405        1404
         4        1389        1390        1406        1405
         4        1390        1391        1407        1406
         4        1392        1393        1409        1408
         4        1393        1394        1410        1409
         4        1394        1395        1411        1410
         4        1395        1396        1412        1411
         4        1396        1397        1413        1412
         4        1397        1398        1414        1413
         4        1398        1399        1415        1414
         4        1399        1400        1416        1415
         4        1400        1401        1417        1416
         4        1401        1402        1418        1417
         4        1402        1403        1419        1418
         4        1403        1404        1420        1419
         4        1404        1405        1421        1420
         4        1405        1406        1422        1421
         4        1406        1407        1423        1422
         4        1408        1409        1425        1424
         4        1409        1410        1426        1425
         4        1410        1411        1427        1426
         4        1411        1412        1428        1427
         4        1412        1413        1429        1428
         4        1413        1414        1430        1429
         4        1414        1415        1431        1430
         4        1415        1416        1432        1431
         4        1416        1417        1433        1432
         4        1417        1418        1434        1433
         4        1418        1419        1435        1434
         4        1419        1420        1436        1435
         4        1420        1421        1437        1436
         4        1421        1422        1438        1437
         4        1422        1423        1439        1438
         4        1424        1425        1441        1440
         4        1425        1426        1442        1441
         4        1426        1427        1443        1442
         4        1427        1428        1444        1443
         4        1428        1429        1445        1444
         4        1429        1430        1446        1445
         4        1430        1431        1447        1446
         4        1431        1432        1448        1447
         4        1432        1433        1449        1448
         4        1433        1434        1450        1449
         4        1434        1435        1451        1450
         4        1435        1436        1452        1451
         4        1436        1437        1453        1452
         4        1437        1438        1454        1453
         4        1438        1439        1455        1454
CELL_TYPES       1350
9
9
9
9
9
9
9
9
9
9
9
9
9
9
9
9
9
9
9
9
9
9
9
9
9
9
9
9
9
9
9
9
9
9
9
9
9
9
9
9
9
9
9
9
9
9
9
9
9
9
9
9
9
9
9
9
9
9
9
9
9
9
9
9
9
9
9
9
9
9
9
9
9
9
9
9
9
9
9
9
9
9
9
9
9
9
9
9
9
9
9
9
9
9
9
9
9
9
9
9
9
9
9
9
9
9
9
9
9
9
9
9
9
9
9
9
9
9
9
9
9
9
9
9
9
9
9
9
9
9
9
9
9
9
9
9
9
9
9
9
9
9
9
9
9
9
9
9
9
9
9
9
9
9
9
9
9
9
9
9
9
9
9
9
9
9
9
9
9
9
9
9
9
9
9
9
9
9
9
9
9
9
9
9
9
9
9
9
9
9
9
9
9
9
9
9
9
9
9
9
9
9
9
9
9
9
9
9
9
9
9
9
9
9
9
9
9
9
9
9
9
9
9
9
9
9
9
9
9
9
9
9
9
9
9
9
9
9
9
9
9
9
9
9
9
9
9
9
9
9
9
9
9
9
9
9
9
9
9
9
9
9
9
9
9
9
9
9
9
9
9
9
9
9
9
9
9
9
9
9
9
9
9
9
9
9
9
9
9
9
9
9
9
9
9
9
9
9
9
9
9
9
9
9
9
9
9
9
9
9
9
9
9
9
9
9
9
9
9
9
9
9
9
9
9
9
9
9
9
9
9
9
9
9
9
9
9
9
9
9
9
9
9
9
9
9
9
9
9
9
9
9
9
9
9
9
9
9
9
9
9
9
9
9
9
9
9
9
9
9
9
9
9
9
9
9
9
9
9
9
9
9
9
9
9
9
9
9
9
9
9
9
9
9
9
9
9
9
9
9
9
9
9
9
9
9
9
9
9
9
9
9
9
9
9
9
9
9
9
9
9
9
9
9
9
9
9
9
9
9
9
9
9
9
9
9
9
9
9
9
9
9
9
9
9
9
9
9
9
9
9
9
9
9
9
9
9
9
9
9
9
9
9
9
9
9
9
9
9
9
9
9
9
9
9
9
9
9
9
9
9
9
9
9
9
9
9
9
9
9
9
9
9
9
9
9
9
9
9
9
9
9
9
9
9
9
9
9
9
9
9
9
9
9
9
9
9
9
9
9
9
9
9
9
9
9
9
9
9
9
9
9
9
9
9
9
9
9
9
9
9
9
9
9
9
9
9
9
9
9
9
9
9
9
9
9
9
9
9
9
9
9
9
9
9
9
9
9
9
9
9
9
9
9
9
9
9
9
9
9
9
9
9
9
9
9
9
9
9
9
9
9
9
9
9
9
9
9
9
9
9
9
9
9
9
9
9
9
9
9
9
9
9
9
9
9
9
9
9
9
9
9
9
9
9
9
9
9
9
9
9
9
9
9
9
9
9
9
9
9
9
9
9
9
9
9
9
9
9
9
9
9
9
9
9
9
9
9
9
9
9
9
9
9
9
9
9
9
9
9
9
9
9
9
9
9
9
9
9
9
9
9
9
9
9
9
9
9
9
9
9
9
9
9
9
9
9
9
9
9
9
9
9
9
9
9
9
9
9
9
9
9
9
9
9
9
9
9
9
9
9
9
9
9
9
9
9
9
9
9
9
9
9
9
9
9
9
9
9
9
9
9
9
9
9
9
9
9
9
9
9
9
9
9
9
9
9
9
9
9
9
9
9
9
9
9
9
9
9
9
9
9
9
9
9
9
9
9
9
9
9
9
9
9
9
9
9
9
9
9
9
9
9
9
9
9
9
9
9
9
9
9
9
9
9
9
9
9
9
9
9
9
9
9
9
9
9
9
9
9
9
9
9
9
9
9
9
9
9
9
9
9
9
9
9
9
9
9
9
9
9
9
9
9
9
9
9
9
9
9
9
9
9
9
9
9
9
9
9
9
9
9
9
9
9
9
9
9
9
9
9
9
9
9
9
9
9
9
9
9
9
9
9
9
9
9
9
9
9
9
9
9
9
9
9
9
9
9
9
9
9
9
9
9
9
9
9
9
9
9
9
9
9
9
9
9
9
9
9
9
9
9
9
9
9
9
9
9
9
9
9
9
9
9
9
9
9
9
9
9
9
9
9
9
9
9
9
9
9
9
9
9
9
9
9
9
9
9
9
9
9
9
9
9
9
9
9
9
9
9
9
9
9
9
9
9
9
9
9
9
9
9
9
9
9
9
9
9
9
9
9
9
9
9
9
9
9
9
9
9
9
9
9
9
9
9
9
9
9
9
9
9
9
9
9
9
9
9
9
9
9
9
9
9
9
9
9
9
9
9
9
9
9
9
9
9
9
9
9
9
9
9
9
9
9
9
9
9
9
9
9
9
9
9
9
9
9
9
9
9
9
9
9
9
9
9
9
9
9
9
9
9
9
9
9
9
9
9
9
9
9
9
9
9
9
9
9
9
9
9
9
9
9
9
9
9
9
9
9
9
9
9
9
9
9
9
9
9
9
9
9
9
9
9
9
9
9
9
9
9
9
9
9
9
9
9
9
9
9
9
9
9
9
9
9
9
9
9
9
9
9
9
9
9
9
9
9
9
9
9
9
9
9
9
9
9
9
9
9
9
9
9
9
9
9
9
9
9
9
9
9
9
9
9
9
9
9
9
9
9
9
9
9
9
9
9
9
9
9
9
9
9
9
9
9
9
9
9
9
9
9
9
9
9
9
9
9
9
9
9
9
9
9
9
9
9
9
9
9
9
9
9
9
9
9
9
9
9
9
9
9
9
9
9
9
9
9
9
9
9
9
9
9
9
9
9
9
9
9
9
9
9
9
9
9
9
9
9
9
9
9
9
9
9
9
9
9
9
9
9
9
9
9
9
9
9
9
9
9
9
9
9
9
9
9
9
9
9
9
9
9
9
9
9
9
9
9
9
9
9
9
9
9
9
9
9
9
9
9
9
9
9
9
9
9
9
9
9
9
9
9
9
9
9
9
9
9
9
9
9
9
9
9
9
9
9
9
9
9
9
9
9
9
9
9
9
9
9
9
9
POINT_DATA      1456
SCALARS p double 
LOOKUP_TABLE default
   2500019.93491257     
   2500019.93507567     
   2500019.93553061     
   2500019.93622807     
   2500019.93711721     
   2500019.93814652     
   2500019.93926480     
   2500019.94042206     
   2500019.94157050     
   2500019.94266541     
   2500019.94366608     
   2500019.94453655     
   2500019.94524638     
   2500019.94577122     
   2500019.94609333     
   2500019.94620190     
   2500019.93348883     
   2500019.93365560     
   2500019.93412093     
   2500019.93483448     
   2500019.93574432     
   2500019.93679780     
   2500019.93794252     
   2500019.93912730     
   2500019.94030320     
   2500019.94142441     
   2500019.94244920     
   2500019.94334072     
   2500019.94406774     
   2500019.94460533     
   2500019.94493526     
   2500019.94504648     
   2500019.92915721     
   2500019.92933523     
   2500019.92983232     
   2500019.93059508     
   2500019.93156824     
   2500019.93269562     
   2500019.93392118     
   2500019.93519013     
   2500019.93644998     
   2500019.93765158     
   2500019.93875010     
   2500019.93970594     
   2500019.94048554     
   2500019.94106206     
   2500019.94141592     
   2500019.94153520     
   2500019.92173415     
   2500019.92193167     
   2500019.92248375     
   2500019.92333170     
   2500019.92441446     
   2500019.92566972     
   2500019.92703517     
   2500019.92844975     
   2500019.92985484     
   2500019.93119549     
   2500019.93242153     
   2500019.93348862     
   2500019.93435914     
   2500019.93500299     
   2500019.93539821     
   2500019.93553144     
   2500019.91090552     
   2500019.91113190     
   2500019.91176541     
   2500019.91273948     
   2500019.91398444     
   2500019.91542892     
   2500019.91700131     
   2500019.91863126     
   2500019.92025111     
   2500019.92179734     
   2500019.92321189     
   2500019.92444340     
   2500019.92544828     
   2500019.92619162     
   2500019.92664797     
   2500019.92680182     
   2500019.89621390     
   2500019.89648020     
   2500019.89722630     
   2500019.89837468     
   2500019.89984375     
   2500019.90154959     
   2500019.90340772     
   2500019.90533496     
   2500019.90725118     
   2500019.90908104     
   2500019.91075562     
   2500019.91221389     
   2500019.91340405     
   2500019.91428458     
   2500019.91482520     
   2500019.91500747     
   2500019.87704017     
   2500019.87735978     
   2500019.87825611     
   2500019.87963696     
   2500019.88140479     
   2500019.88345890     
   2500019.88569763     
   2500019.88802071     
   2500019.89033140     
   2500019.89253866     
   2500019.89455915     
   2500019.89631901     
   2500019.89775554     
   2500019.89881848     
   2500019.89947114     
   2500019.89969119     
   2500019.85257849     
   2500019.85296783     
   2500019.85406061     
   2500019.85574526     
   2500019.85790330     
   2500019.86041201     
   2500019.86314732     
   2500019.86598662     
   2500019.86881154     
   2500019.87151060     
   2500019.87398170     
   2500019.87613435     
   2500019.87789167     
   2500019.87919207     
   2500019.87999057     
   2500019.88025980     
   2500019.82180358     
   2500019.82228307     
   2500019.82362957     
   2500019.82570633     
   2500019.82836764     
   2500019.83146231     
   2500019.83483728     
   2500019.83834119     
   2500019.84182784     
   2500019.84515950     
   2500019.84821000     
   2500019.85086754     
   2500019.85303712     
   2500019.85464263     
   2500019.85562850     
   2500019.85596091     
   2500019.78342913     
   2500019.78402421     
   2500019.78569580     
   2500019.78827452     
   2500019.79157957     
   2500019.79542318     
   2500019.79961518     
   2500019.80396747     
   2500019.80829835     
   2500019.81243668     
   2500019.81622572     
   2500019.81952659     
   2500019.82222131     
   2500019.82421540     
   2500019.82543987     
   2500019.82585273     
   2500019.73585525     
   2500019.73659774     
   2500019.73868349     
   2500019.74190107     
   2500019.74602467     
   2500019.75081981     
   2500019.75604905     
   2500019.76147761     
   2500019.76687884     
   2500019.77203935     
   2500019.77676380     
   2500019.78087918     
   2500019.78423859     
   2500019.78672439     
   2500019.78825073     
   2500019.78876535     
   2500019.67710285     
   2500019.67803253     
   2500019.68064359     
   2500019.68467058     
   2500019.68983020     
   2500019.69582855     
   2500019.70236825     
   2500019.70915556     
   2500019.71590715     
   2500019.72235649     
   2500019.72825977     
   2500019.73340118     
   2500019.73759761     
   2500019.74070245     
   2500019.74260876     
   2500019.74325148     
   2500019.60473199     
   2500019.60589851     
   2500019.60917333     
   2500019.61422182     
   2500019.62068749     
   2500019.62820110     
   2500019.63638962     
   2500019.64488512     
   2500019.65333311     
   2500019.66140052     
   2500019.66878296     
   2500019.67521125     
   2500019.68045709     
   2500019.68433785     
   2500019.68672036     
   2500019.68752359     
   2500019.51574039     
   2500019.51720551     
   2500019.52131607     
   2500019.52764909     
   2500019.53575515     
   2500019.54516984     
   2500019.55542500     
   2500019.56605966     
   2500019.57663043     
   2500019.58672125     
   2500019.59595233     
   2500019.60398817     
   2500019.61054443     
   2500019.61539383     
   2500019.61837068     
   2500019.61937424     
   2500019.40643750     
   2500019.40827783     
   2500019.41343706     
   2500019.42137962     
   2500019.43153854     
   2500019.44332964     
   2500019.45616552     
   2500019.46946901     
   2500019.48268602     
   2500019.49529743     
   2500019.50683004     
   2500019.51686624     
   2500019.52505250     
   2500019.53110640     
   2500019.53482218     
   2500019.53607476     
   2500019.27228835     
   2500019.27459853     
   2500019.28106889     
   2500019.29102100     
   2500019.30373962     
   2500019.31849035     
   2500019.33453686     
   2500019.35115747     
   2500019.36766077     
   2500019.38340018     
   2500019.39778714     
   2500019.41030294     
   2500019.42050888     
   2500019.42805478     
   2500019.43268568     
   2500019.43424664     
   2500019.10771954     
   2500019.11061594     
   2500019.11871962     
   2500019.13117140     
   2500019.14706973     
   2500019.16549249     
   2500019.18551812     
   2500019.20624582     
   2500019.22681457     
   2500019.24642072     
   2500019.26433393     
   2500019.27991141     
   2500019.29261011     
   2500019.30199693     
   2500019.30775672     
   2500019.30969804     
   2500018.90587834     
   2500018.90950338     
   2500018.91963398     
   2500018.93518311     
   2500018.95501604     
   2500018.97797698     
   2500019.00291485     
   2500019.02870778     
   2500019.05428606     
   2500019.07865330     
   2500019.10090561     
   2500019.12024853     
   2500019.13601169     
   2500019.14766092     
   2500019.15480777     
   2500019.15721640     
   2500018.65833314     
   2500018.66286026     
   2500018.67549617     
   2500018.69486791     
   2500018.71955002     
   2500018.74809706     
   2500018.77907472     
   2500018.81108938     
   2500018.84281561     
   2500018.87302152     
   2500018.90059157     
   2500018.92454677     
   2500018.94406200     
   2500018.95848041     
   2500018.96732467     
   2500018.97030512     
   2500018.35470068     
   2500018.36033997     
   2500018.37605970     
   2500018.40012958     
   2500018.43076334     
   2500018.46615795     
   2500018.50453110     
   2500018.54415650     
   2500018.58339674     
   2500018.62073333     
   2500018.65479374     
   2500018.68437533     
   2500018.70846571     
   2500018.72625972     
   2500018.73717267     
   2500018.74084994     
   2500017.98218196     
   2500017.98918657     
   2500018.00868595     
   2500018.03850540     
   2500018.07641284     
   2500018.12016582     
   2500018.16755626     
   2500018.21645243     
   2500018.26483783     
   2500018.31084666     
   2500018.35279569     
   2500018.38921229     
   2500018.41885835     
   2500018.44075016     
   2500018.45417391     
   2500018.45869683     
   2500017.52498406     
   2500017.53365730     
   2500017.55776876     
   2500017.59459379     
   2500017.64135203     
   2500017.69526353     
   2500017.75360165     
   2500017.81374266     
   2500017.87321142     
   2500017.92972301     
   2500017.98122005     
   2500018.02590531     
   2500018.06226975     
   2500018.08911551     
   2500018.10557404     
   2500018.11111899     
   2500016.96359966     
   2500016.97430297     
   2500017.00401700     
   2500017.04933998     
   2500017.10682074     
   2500017.17302487     
   2500017.24459704     
   2500017.31831907     
   2500017.39116332     
   2500017.46034120     
   2500017.52334652     
   2500017.57799341     
   2500017.62244876     
   2500017.65525892     
   2500017.67537055     
   2500017.68214565     
   2500016.27390932     
   2500016.28707100     
   2500016.32355976     
   2500016.37914476     
   2500016.44955812     
   2500016.53057249     
   2500016.61807381     
   2500016.70812884     
   2500016.79704713     
   2500016.88143719     
   2500016.95825662     
   2500017.02485589     
   2500017.07901575     
   2500017.11897796     
   2500017.14346939     
   2500017.15171923     
   2500015.42606304     
   2500015.44218786     
   2500015.48683129     
   2500015.55475296     
   2500015.64069594     
   2500015.73947684     
   2500015.84607011     
   2500015.95568604     
   2500016.06384228     
   2500016.16642846     
   2500016.25976385     
   2500016.34064768     
   2500016.40640207     
   2500016.45490732     
   2500016.48462958     
   2500016.49464058     
   2500014.38308777     
   2500014.40276750     
   2500014.45718196     
   2500014.53986872     
   2500014.64437940     
   2500014.76438355     
   2500014.89376557     
   2500015.02671426     
   2500015.15780474     
   2500015.28207255     
   2500015.39507956     
   2500015.49297162     
   2500015.57252772     
   2500015.63120036     
   2500015.66714724     
   2500015.67925387     
   2500013.09915510     
   2500013.12308003     
   2500013.18915015     
   2500013.28943234     
   2500013.41605071     
   2500013.56130529     
   2500013.71778265     
   2500013.87845806     
   2500014.03678889     
   2500014.18679911     
   2500014.32315452     
   2500014.44122857     
   2500014.53715851     
   2500014.60789160     
   2500014.65122135     
   2500014.66581344     
   2500011.51742855     
   2500011.54640037     
   2500011.62631466     
   2500011.74747923     
   2500011.90031699     
   2500012.07550062     
   2500012.26407798     
   2500012.45758793     
   2500012.64816648     
   2500012.82864280     
   2500012.99262498     
   2500013.13457510     
   2500013.24987341     
   2500013.33487131     
   2500013.38693282     
   2500013.40446439     
   2500009.56739227     
   2500009.60233855     
   2500009.69863039     
   2500009.84448434     
   2500010.02830682     
   2500010.23884570     
   2500010.46533154     
   2500010.69760854     
   2500010.92625466     
   2500011.14269081     
   2500011.33927847     
   2500011.50940563     
   2500011.64756032     
   2500011.74939148     
   2500011.81175679     
   2500011.83275703     
   2500007.16154160     
   2500007.20353270     
   2500007.31912866     
   2500007.49407512     
   2500007.71440069     
   2500007.96658629     
   2500008.23772364     
   2500008.51566278     
   2500008.78914815     
   2500009.04794276     
   2500009.28293994     
   2500009.48626196     
   2500009.65134493     
   2500009.77300921     
   2500009.84751500     
   2500009.87260227     
   2500004.19129074     
   2500004.24156024     
   2500004.37983931     
   2500004.58897196     
   2500004.85219674     
   2500005.15333496     
   2500005.47696816     
   2500005.80860425     
   2500006.13483211     
   2500006.44346357     
   2500006.72366206     
   2500006.96605688     
   2500007.16284205     
   2500007.30785879     
   2500007.39666071     
   2500007.42656096     
   2500000.52192315     
   2500000.58189345     
   2500000.74676257     
   2500000.99598712     
   2500001.30954677     
   2500001.66815275     
   2500002.05344650     
   2500002.44818773     
   2500002.83643099     
   2500003.20368955     
   2500003.53708510     
   2500003.82548175     
   2500004.05960276     
   2500004.23212839     
   2500004.33777372     
   2500004.37334496     
   2499995.98637498     
   2499996.05769089     
   2499996.25368441     
   2499996.54987998     
   2499996.92246584     
   2499997.34852511     
   2499997.80625915     
   2499998.27520210     
   2499998.73642483     
   2499999.17272653     
   2499999.56881151     
   2499999.91144891     
   2500000.18961277     
   2500000.39460038     
   2500000.52012653     
   2500000.56239224     
   2499990.37760097     
   2499990.46217506     
   2499990.69458988     
   2499991.04582870     
   2499991.48768259     
   2499991.99300791     
   2499992.53597991     
   2499993.09234058     
   2499993.63963805     
   2499994.15745443     
   2499994.62761851     
   2499995.03439969     
   2499995.36467949     
   2499995.60809718     
   2499995.75716655     
   2499995.80736122     
   2499983.43922448     
   2499983.53929983     
   2499983.81438244     
   2499984.23023386     
   2499984.75355588     
   2499985.35228050     
   2499985.99586249     
   2499986.65557106     
   2499987.30477648     
   2499987.91922666     
   2499988.47730845     
   2499988.96028804     
   2499989.35252522     
   2499989.64165637     
   2499989.81874174     
   2499989.87837353     
   2499974.85411750     
   2499974.97235581     
   2499975.29756411     
   2499975.78951925     
   2499976.40903579     
   2499977.11829890     
   2499977.88120903     
   2499978.66373325     
   2499979.43425629     
   2499980.16392404     
   2499980.82697144     
   2499981.40102684     
   2499981.86738491     
   2499982.21124096     
   2499982.42188023     
   2499982.49281713     
   2499964.23049260     
   2499964.37009869     
   2499964.75447019     
   2499965.33653634     
   2499966.07029253     
   2499966.91119234     
   2499967.81656489     
   2499968.74604881     
   2499969.66203285     
   2499970.53009209     
   2499971.31940806     
   2499972.00316134     
   2499972.55888548     
   2499972.96877196     
   2499973.21991730     
   2499973.30450508     
   2499951.08501449     
   2499951.24991208     
   2499951.70458105     
   2499952.39411255     
   2499953.26457480     
   2499954.26348978     
   2499955.34035344     
   2499956.44718612     
   2499957.53909845     
   2499958.57485665     
   2499959.51743066     
   2499960.33450876     
   2499960.99896307     
   2499961.48925179     
   2499961.78974565     
   2499961.89096868     
   2499934.82235333     
   2499935.01743246     
   2499935.55635302     
   2499936.37520657     
   2499937.41078862     
   2499938.60119855     
   2499939.88650688     
   2499941.20947049     
   2499942.51627413     
   2499943.75727553     
   2499944.88773070     
   2499945.86847685     
   2499946.66655128     
   2499947.25572680     
   2499947.61694670     
   2499947.73864573     
   2499914.71050372     
   2499914.94196629     
   2499915.58291630     
   2499916.55904613     
   2499917.79620597     
   2499919.22118386     
   2499920.76258373     
   2499922.35177329     
   2499923.92387117     
   2499925.41874136     
   2499926.78196287     
   2499927.96574340     
   2499928.92974781     
   2499929.64181498     
   2499930.07854022     
   2499930.22570500     
   2499889.85107882     
   2499890.12691727     
   2499890.89288025     
   2499892.06252203     
   2499893.54861913     
   2499895.26421279     
   2499897.12378766     
   2499899.04454665     
   2499900.94773949     
   2499902.76000094     
   2499904.41465492     
   2499905.85294268     
   2499907.02513551     
   2499907.89149689     
   2499908.42306387     
   2499908.60222311     
   2499859.14365719     
   2499859.47431096     
   2499860.39536056     
   2499861.80599376     
   2499863.60314684     
   2499865.68292618     
   2499867.94221221     
   2499870.28039040     
   2499872.60115053     
   2499874.81429514     
   2499876.83749817     
   2499878.59795793     
   2499880.03389245     
   2499881.09583060     
   2499881.74765947     
   2499881.96739599     
   2499821.24310417     
   2499821.64235113     
   2499822.75819525     
   2499824.47252228     
   2499826.66276826     
   2499829.20388252     
   2499831.97052757     
   2499834.83944004     
   2499837.69187361     
   2499840.41604475     
   2499842.90950348     
   2499845.08135551     
   2499846.85426784     
   2499848.16619734     
   2499848.97179093     
   2499849.24341599     
   2499774.50860647     
   2499774.99476038     
   2499776.35814089     
   2499778.45937865     
   2499781.15150362     
   2499784.28267160     
   2499787.69918995     
   2499791.24873995     
   2499794.78369104     
   2499798.16440239     
   2499801.26241031     
   2499803.96340587     
   2499806.16991497     
   2499807.80360329     
   2499808.80713998     
   2499809.14556768     
   2499716.94293766     
   2499717.54043991     
   2499719.22162847     
   2499721.82047346     
   2499725.15896692     
   2499729.05091243     
   2499733.30608190     
   2499737.73460352     
   2499742.15144353     
   2499746.38084580     
   2499750.26059839     
   2499753.64600445     
   2499756.41344551     
   2499758.46343855     
   2499759.72310338     
   2499760.14797370     
   2499646.12020411     
   2499646.86171669     
   2499648.95439774     
   2499652.19809933     
   2499656.37477205     
   2499661.25371543     
   2499666.59726581     
   2499672.16674444     
   2499677.72848746     
   2499683.05978365     
   2499687.95455303     
   2499692.22861107     
   2499695.72437744     
   2499698.31490536     
   2499699.90712742     
   2499700.44423445     
   2499559.09998817     
   2499560.02911610     
   2499562.65800328     
   2499566.74205963     
   2499572.01096144     
   2499578.17588289     
   2499584.93723282     
   2499591.99266770     
   2499599.04515358     
   2499605.81085591     
   2499612.02664748     
   2499617.45703998     
   2499621.90036376     
   2499625.19404196     
   2499627.21883039     
   2499627.90192034     
   2499452.32538691     
   2499453.50018084     
   2499456.83077169     
   2499462.01384598     
   2499468.71021828     
   2499476.55471559     
   2499485.16662339     
   2499494.16040223     
   2499503.15638800     
   2499511.79119928     
   2499519.72759108     
   2499526.66351466     
   2499532.34016745     
   2499536.54884516     
   2499539.13643840     
   2499540.00944941     
   2499321.50191010     
   2499322.99932283     
   2499327.25025509     
   2499333.87299166     
   2499342.43708537     
   2499352.47674927     
   2499363.50484422     
   2499375.02709598     
   2499386.55618470     
   2499397.62536524     
   2499407.80129806     
   2499416.69579766     
   2499423.97623631     
   2499429.37437577     
   2499432.69343714     
   2499433.81325922     
   2499161.45350958     
   2499163.37500215     
   2499168.83352944     
   2499177.34202315     
   2499188.34869514     
   2499201.25501094     
   2499215.43425288     
   2499230.25021932     
   2499245.07562109     
   2499259.30975836     
   2499272.39509046     
   2499283.83234528     
   2499293.19385441     
   2499300.13484262     
   2499304.40244628     
   2499305.84228327     
   2498965.95110845     
   2498968.42961978     
   2498975.47076783     
   2498986.44549529     
   2499000.64055474     
   2499017.28239228     
   2499035.56155347     
   2499054.65705697     
   2499073.76020356     
   2499092.09731941     
   2499108.95097016     
   2499123.67922666     
   2499135.73261119     
   2499144.66840542     
   2499150.16205609     
   2499152.01547091     
   2498727.50780965     
   2498730.71631571     
   2498739.82630401     
   2498754.01734869     
   2498772.36163969     
   2498793.85539699     
   2498817.45064969     
   2498842.08671087     
   2498866.72071184     
   2498890.35660141     
   2498912.07206446     
   2498931.04286934     
   2498946.56421255     
   2498958.06869169     
   2498965.14060234     
   2498967.52632083     
   2498437.13339385     
   2498441.29528294     
   2498453.09978838     
   2498471.46916484     
   2498495.19132175     
   2498522.96071373     
   2498553.41931173     
   2498585.19685945     
   2498616.94966552     
   2498647.39723710     
   2498675.35612256     
   2498699.77039865     
   2498719.73830866     
   2498734.53463200     
   2498743.62844060     
   2498746.69597390     
   2498084.03864157     
   2498089.44011612     
   2498104.73789941     
   2498128.50968137     
   2498159.16834896     
   2498195.01464932     
   2498234.28947758     
   2498275.22485868     
   2498316.09275436     
   2498355.25089787     
   2498391.18493625     
   2498422.54624221     
   2498448.18484210     
   2498467.17699202     
   2498478.84702027     
   2498482.78313986     
   2497655.27727492     
   2497662.28195004     
   2497682.08424246     
   2497712.80299603     
   2497752.35903164     
   2497798.54224266     
   2497849.07763322     
   2497901.68922862     
   2497954.16086865     
   2498004.39298483     
   2498050.45455786     
   2498090.62954931     
   2498123.45720023     
   2498147.76568721     
   2498162.69872265     
   2498167.73478068     
   2497135.30971061     
   2497144.37550568     
   2497169.95133870     
   2497209.54902024     
   2497260.44774619     
   2497319.77863945     
   2497384.60726374     
   2497452.01290056     
   2497519.16348553     
   2497583.38521255     
   2497642.22592901     
   2497693.51156044     
   2497735.39491582     
   2497766.39633411     
   2497785.43573854     
   2497791.85576615     
   2496505.46809787     
   2496517.16639979     
   2496550.09372407     
   2496600.96467892     
   2496666.22757950     
   2496742.16976444     
   2496825.01955384     
   2496911.04351228     
   2496996.63781406     
   2497078.41264449     
   2497153.26870780     
   2497218.46504430     
   2497271.67748681     
   2497311.04720582     
   2497335.21890549     
   2497343.36833829     
   2495743.29597969     
   2495758.33288061     
   2495800.55483032     
   2495865.63777669     
   2495948.96207727     
   2496045.74215147     
   2496151.15100600     
   2496260.43819364     
   2496369.03993113     
   2496472.68026567     
   2496567.46233859     
   2496649.94894491     
   2496717.23172633     
   2496766.98846313     
   2496797.52804608     
   2496807.82281487     
   2494821.72799815     
   2494840.96716341     
   2494894.85213892     
   2494977.71698650     
   2495083.58025089     
   2495206.30259961     
   2495339.73705152     
   2495477.87029093     
   2495614.95376388     
   2495745.62344712     
   2495865.00736122     
   2495968.82006567     
   2496053.44352243     
   2496115.99384504     
   2496154.37356515     
   2496167.30914673     
   2493708.06493859     
   2493732.55132524     
   2493800.95465187     
   2493905.89063307     
   2494039.65580545     
   2494194.41668240     
   2494362.38862402     
   2494536.00291363     
   2494708.06077030     
   2494871.87325061     
   2495021.38619529     
   2495151.28955551     
   2495257.11058681     
   2495335.29052767     
   2495383.24448436     
   2495399.40432888     
   2492362.68658567     
   2492393.66979288     
   2492479.99352653     
   2492612.09335642     
   2492780.10749832     
   2492974.10057741     
   2493184.27358566     
   2493401.15859995     
   2493615.79710574     
   2493819.90102344     
   2494005.99575624     
   2494167.54476403     
   2494299.05532045     
   2494396.16522732     
   2494455.71034844     
   2494475.77288434     
   2490737.42881260     
   2490776.38428704     
   2490884.63024403     
   2491049.86282948     
   2491259.54011674     
   2491501.14271578     
   2491762.41637889     
   2492031.59535002     
   2492297.60552317     
   2492550.24675346     
   2492780.35389881     
   2492979.93635671     
   2493142.29600138     
   2493262.12352346     
   2493335.57323150     
   2493360.31639834     
   2488773.53148167     
   2488822.17711211     
   2488956.98637665     
   2489162.24794244     
   2489422.12427359     
   2489720.94991063     
   2490043.50689289     
   2490375.27638201     
   2490702.66590017     
   2491013.21189554     
   2491295.75758566     
   2491540.60620670     
   2491739.64991400     
   2491886.47464228     
   2491976.44124768     
   2492006.74322685     
   2486399.03955421     
   2486459.34436541     
   2486626.01437058     
   2486879.14476884     
   2487198.88762477     
   2487565.78652470     
   2487961.08296124     
   2488366.99396941     
   2488766.96092415     
   2489145.86971887     
   2489490.24277620     
   2489788.40349541     
   2490030.61382156     
   2490209.18563465     
   2490318.56661284     
   2490355.40112955     
   2483525.51083142     
   2483599.69153349     
   2483804.15934906     
   2484113.90682973     
   2484504.25991028     
   2484951.24466547     
   2485431.92002276     
   2485924.67659067     
   2486409.50216978     
   2486868.21482119     
   2487284.66457614     
   2487644.90498409     
   2487937.33572240     
   2488152.81743840     
   2488284.75987472     
   2488329.18415333     
   2480043.84969832     
   2480134.34978745     
   2480383.12755881     
   2480759.04154205     
   2481231.67938698     
   2481771.74843984     
   2482351.42649837     
   2482944.67371844     
   2483527.50705783     
   2484078.23893094     
   2484577.68191496     
   2485009.32140223     
   2485359.45804664     
   2485617.32171556     
   2485775.15844870     
   2485828.29165353     
   2475819.04719249     
   2475928.49218016     
   2476228.53789511     
   2476680.76554837     
   2477248.02916493     
   2477894.85653521     
   2478587.80511630     
   2479295.77483066     
   2479990.28010752     
   2480645.68375733     
   2481239.39537175     
   2481752.03691502     
   2482167.57803321     
   2482473.44337273     
   2482660.59388560     
   2482723.58372189     
   2470683.56430252     
   2470814.68555531     
   2471173.18971462     
   2471712.14879433     
   2472386.62978823     
   2473154.08614299     
   2473974.70031316     
   2474811.68043598     
   2475631.51451876     
   2476404.18570549     
   2477103.35220116     
   2477706.49530274     
   2478195.03873787     
   2478554.44216672     
   2478774.27127917     
   2478848.24643645     
   2464429.04914223     
   2464584.56787283     
   2465008.63458173     
   2465644.53264511     
   2466438.47125933     
   2467339.93992918     
   2468302.01267363     
   2469281.60609866     
   2470239.69576416     
   2471141.49534211     
   2471956.60295825     
   2472659.11885846     
   2473227.73817431     
   2473645.82210458     
   2473901.45030399     
   2473987.45669445     
   2456796.03240236     
   2456978.49475449     
   2457474.69477945     
   2458216.86435210     
   2459141.32724763     
   2460188.78039353     
   2461304.52752631     
   2462438.67037371     
   2463546.26264001     
   2464587.43200449     
   2465527.47509771     
   2466336.93003755     
   2466991.63062489     
   2467472.74574488     
   2467766.80691900     
   2467865.72632099     
   2447461.20406000     
   2447672.75824750     
   2448246.53245479     
   2449102.55421960     
   2450166.36226074     
   2451369.16878426     
   2452647.98297076     
   2453945.70133478     
   2455211.17063421     
   2456399.22876973     
   2457470.72871525     
   2458392.55001511     
   2459137.60181300     
   2459684.82077375     
   2460019.16664089     
   2460131.61755466     
   2436021.84534520     
   2436263.95280675     
   2436918.84814343     
   2437893.44124949     
   2439101.82792791     
   2440465.27808983     
   2441912.20261165     
   2443378.10430986     
   2444805.51825851     
   2446143.94624360     
   2447349.78960855     
   2448386.28415941     
   2449223.44021029     
   2449837.99028604     
   2450213.34647126     
   2450339.56890574     
   2421976.98501422     
   2422250.06002616     
   2422986.78817260     
   2424080.46036780     
   2425433.46029550     
   2426957.01511294     
   2428570.95424945     
   2430203.48012924     
   2431790.95414181     
   2433277.70056829     
   2434615.83055193     
   2435765.08764212     
   2436692.71597724     
   2437373.35181262     
   2437788.93883848     
   2437928.66755302     
   2404704.88524310     
   2405007.86203853     
   2405823.18479806     
   2407030.65781641     
   2408521.25500861     
   2410196.56465758     
   2411968.28761972     
   2413757.78889721     
   2415495.70168640     
   2417121.58228607     
   2418583.61370689     
   2419838.35551044     
   2420850.53732583     
   2421592.89361324     
   2422046.03752418     
   2422198.37210126     
   2383436.56491865     
   2383766.39892411     
   2384651.86651979     
   2385960.32714837     
   2387572.43826620     
   2389381.22672837     
   2391291.27959448     
   2393218.04672910     
   2395087.24653188     
   2396834.36550926     
   2398404.24227233     
   2399750.72689603     
   2400836.40732817     
   2401632.39558590     
   2402118.16771258     
   2402281.45279687     
   2357225.27263801     
   2357576.39401607     
   2358516.99546363     
   2359904.27372450     
   2361610.70621692     
   2363522.69332225     
   2365539.41192142     
   2367571.85942653     
   2369542.06651098     
   2371382.45671732     
   2373035.33207903     
   2374452.46566350     
   2375594.78429068     
   2376432.12735787     
   2376943.07048808     
   2377114.80546059     
   2324912.17938053     
   2325275.93399422     
   2326248.76592022     
   2327681.61312681     
   2329442.22667872     
   2331413.35723379     
   2333491.27597514     
   2335584.58752076     
   2337613.29195373     
   2339508.05473825     
   2341209.64660360     
   2342668.51999874     
   2343844.49390831     
   2344706.52418543     
   2345232.54171989     
   2345409.34548649     
   2285089.14387296     
   2285453.28073862     
   2286426.40631931     
   2287859.14200120     
   2289619.55779626     
   2291590.93292312     
   2293670.01021042     
   2295765.66704690     
   2297797.92738451     
   2299697.24468638     
   2301403.99373294     
   2302868.11874803     
   2304048.89531659     
   2304914.77316834     
   2305443.27550618     
   2305620.93786780     
   2236060.31424639     
   2236408.61160210     
   2237340.36911275     
   2238714.29120964     
   2240405.63935866     
   2242303.69611745     
   2244309.92080228     
   2246336.66466262     
   2248306.32083292     
   2250150.79758885     
   2251811.22037485     
   2253237.78642072     
   2254389.71362031     
   2255235.24130479     
   2255751.65380660     
   2255925.30802710     
   2175805.71193955     
   2176117.87877367     
   2176957.01403937     
   2178201.12379286     
   2179741.49228745     
   2181480.14491652     
   2183328.23418296     
   2185205.13151416     
   2187038.02776514     
   2188761.87425375     
   2190319.52931016     
   2191662.00850033     
   2192748.76669194     
   2193547.96501898     
   2194036.69474746     
   2194201.14316935     
   2101952.00204923     
   2102204.05124127     
   2102891.19343246     
   2103924.97231345     
   2105223.40801735     
   2106709.02278562     
   2108308.03412153     
   2109950.36783512     
   2111570.19099327     
   2113106.72371955     
   2114505.15045899     
   2115717.50822483     
   2116703.47695024     
   2117431.03320226     
   2117876.95306188     
   2118027.16419463     
   2011758.67796642     
   2011924.04406819     
   2012395.21872407     
   2013134.39423081     
   2014098.47236023     
   2015238.64268747     
   2016501.32968296     
   2017829.96677327     
   2019167.15835901     
   2020456.90614203     
   2021646.68511430     
   2022689.24701982     
   2023544.09931552     
   2024178.65501800     
   2024569.07579796     
   2024700.84125449     
   1902132.28934542     
   1902184.05949077     
   1902377.12337418     
   1902743.52850490     
   1903291.57029576     
   1904008.57537914     
   1904865.08484451     
   1905819.61320731     
   1906823.37861655     
   1907824.61195502     
   1908772.23649684     
   1909618.84871474     
   1910323.02319346     
   1910851.01605020     
   1911177.96084118     
   1911288.64795486     
   1769687.70863472     
   1769602.44587727     
   1769467.48755701     
   1769404.14466277     
   1769482.94412581     
   1769732.28889567     
   1770148.08430691     
   1770703.15183837     
   1771355.67151175     
   1772056.27746610     
   1772753.71452389     
   1773399.14654356     
   1773949.30372157     
   1774368.68851426     
   1774631.05074281     
   1774720.30913004     
   1610884.60909112     
   1610648.34231097     
   1610163.09812245     
   1609655.26782585     
   1609263.31300082     
   1609056.42981047     
   1609052.72348991     
   1609235.30776793     
   1609565.60912607     
   1609993.75949800     
   1610466.33672366     
   1610931.88909698     
   1611344.72229167     
   1611667.39101106     
   1611872.26447818     
   1611942.44896519     
   1422280.50905697     
   1421897.49421432     
   1421088.29641439     
   1420189.82217701     
   1419403.65786742     
   1418830.91870330     
   1418502.76943459     
   1418405.13829103     
   1418497.50480483     
   1418726.46865828     
   1419035.11837970     
   1419369.23060813     
   1419681.19851917     
   1419932.40720133     
   1420094.59430655     
   1420150.57691002     
   1200960.75255492     
   1200465.16796090     
   1199432.05986771     
   1198292.30744275     
   1197288.29628722     
   1196532.64836311     
   1196054.46296873     
   1195833.08738844     
   1195821.46014914     
   1195961.50082503     
   1196193.81012804     
   1196463.49980935     
   1196723.50550185     
   1196936.33766620     
   1197074.91860133     
   1197122.92820441     
   945232.789411013     
   944702.357894532     
   943640.510205679     
   942517.146889842     
   941569.471136972     
   940890.745210162     
   940490.976650520     
   940336.217327543     
   940372.769581283     
   940541.412161641     
   940785.345164105     
   941054.339380075     
   941306.684950422     
   941509.933270352     
   941641.038579029     
   941686.261046700     
   655711.970224622     
   655275.449025724     
   654465.973719001     
   653684.760577193     
   653100.106501764     
   652755.744853542     
   652634.283479705     
   652692.132251185     
   652877.829989722     
   653141.180723439     
   653437.463010946     
   653729.076742394     
   653985.918016299     
   654185.182496701     
   654310.976222107     
   654353.937454213     
   336978.584659996     
   336776.270918416     
   336467.710868604     
   336249.210737841     
   336171.832774440     
   336227.876890508     
   336388.844176433     
   336621.499587504     
   336894.376008242     
   337180.135556848     
   337456.150272393     
   337704.346744617     
   337910.786224185     
   338065.197069609     
   338160.560213294     
   338192.794135269     
  0.000000000000000E+000
  0.000000000000000E+000
  0.000000000000000E+000
  0.000000000000000E+000
  0.000000000000000E+000
  0.000000000000000E+000
  0.000000000000000E+000
  0.000000000000000E+000
  0.000000000000000E+000
  0.000000000000000E+000
  0.000000000000000E+000
  0.000000000000000E+000
  0.000000000000000E+000
  0.000000000000000E+000
  0.000000000000000E+000
  0.000000000000000E+000
VECTORS u double 
    0.00000E+00        -0.30000E+00         0.00000E+00
    0.00000E+00        -0.28000E+00         0.00000E+00
    0.00000E+00        -0.26000E+00         0.00000E+00
    0.00000E+00        -0.24000E+00         0.00000E+00
    0.00000E+00        -0.22000E+00         0.00000E+00
    0.00000E+00        -0.20000E+00         0.00000E+00
    0.00000E+00        -0.18000E+00         0.00000E+00
    0.00000E+00        -0.16000E+00         0.00000E+00
    0.00000E+00        -0.14000E+00         0.00000E+00
    0.00000E+00        -0.12000E+00         0.00000E+00
    0.00000E+00        -0.10000E+00         0.00000E+00
    0.00000E+00        -0.80001E-01         0.00000E+00
    0.00000E+00        -0.60000E-01         0.00000E+00
    0.00000E+00        -0.40000E-01         0.00000E+00
    0.00000E+00        -0.20000E-01         0.00000E+00
    0.00000E+00         0.00000E+00         0.00000E+00
    0.33334E-01        -0.30000E+00         0.00000E+00
    0.33334E-01        -0.28000E+00         0.00000E+00
    0.33334E-01        -0.26000E+00         0.00000E+00
    0.33334E-01        -0.24000E+00         0.00000E+00
    0.33334E-01        -0.22000E+00         0.00000E+00
    0.33334E-01        -0.20000E+00         0.00000E+00
    0.33334E-01        -0.18000E+00         0.00000E+00
    0.33334E-01        -0.16000E+00         0.00000E+00
    0.33334E-01        -0.14000E+00         0.00000E+00
    0.33334E-01        -0.12000E+00         0.00000E+00
    0.33334E-01        -0.10000E+00         0.00000E+00
    0.33334E-01        -0.80001E-01         0.00000E+00
    0.33334E-01        -0.60000E-01         0.00000E+00
    0.33334E-01        -0.40000E-01         0.00000E+00
    0.33334E-01        -0.20000E-01         0.00000E+00
    0.33334E-01         0.00000E+00         0.00000E+00
    0.66667E-01        -0.30000E+00         0.00000E+00
    0.66667E-01        -0.28000E+00         0.00000E+00
    0.66667E-01        -0.26000E+00         0.00000E+00
    0.66667E-01        -0.24000E+00         0.00000E+00
    0.66667E-01        -0.22000E+00         0.00000E+00
    0.66667E-01        -0.20000E+00         0.00000E+00
    0.66667E-01        -0.18000E+00         0.00000E+00
    0.66667E-01        -0.16000E+00         0.00000E+00
    0.66667E-01        -0.14000E+00         0.00000E+00
    0.66667E-01        -0.12000E+00         0.00000E+00
    0.66667E-01        -0.10000E+00         0.00000E+00
    0.66667E-01        -0.80001E-01         0.00000E+00
    0.66667E-01        -0.60000E-01         0.00000E+00
    0.66667E-01        -0.40000E-01         0.00000E+00
    0.66667E-01        -0.20000E-01         0.00000E+00
    0.66667E-01         0.00000E+00         0.00000E+00
    0.10000E+00        -0.30000E+00         0.00000E+00
    0.10000E+00        -0.28000E+00         0.00000E+00
    0.10000E+00        -0.26000E+00         0.00000E+00
    0.10000E+00        -0.24000E+00         0.00000E+00
    0.10000E+00        -0.22000E+00         0.00000E+00
    0.10000E+00        -0.20000E+00         0.00000E+00
    0.10000E+00        -0.18000E+00         0.00000E+00
    0.10000E+00        -0.16000E+00         0.00000E+00
    0.10000E+00        -0.14000E+00         0.00000E+00
    0.10000E+00        -0.12000E+00         0.00000E+00
    0.10000E+00        -0.10000E+00         0.00000E+00
    0.10000E+00        -0.80001E-01         0.00000E+00
    0.10000E+00        -0.60000E-01         0.00000E+00
    0.10000E+00        -0.40000E-01         0.00000E+00
    0.10000E+00        -0.20000E-01         0.00000E+00
    0.10000E+00         0.00000E+00         0.00000E+00
    0.13333E+00        -0.30000E+00         0.00000E+00
    0.13333E+00        -0.28000E+00         0.00000E+00
    0.13333E+00        -0.26000E+00         0.00000E+00
    0.13333E+00        -0.24000E+00         0.00000E+00
    0.13333E+00        -0.22000E+00         0.00000E+00
    0.13333E+00        -0.20000E+00         0.00000E+00
    0.13333E+00        -0.18000E+00         0.00000E+00
    0.13333E+00        -0.16000E+00         0.00000E+00
    0.13333E+00        -0.14000E+00         0.00000E+00
    0.13333E+00        -0.12000E+00         0.00000E+00
    0.13333E+00        -0.10000E+00         0.00000E+00
    0.13333E+00        -0.80001E-01         0.00000E+00
    0.13333E+00        -0.60000E-01         0.00000E+00
    0.13333E+00        -0.40000E-01         0.00000E+00
    0.13333E+00        -0.20000E-01         0.00000E+00
    0.13333E+00         0.00000E+00         0.00000E+00
    0.16667E+00        -0.30000E+00         0.00000E+00
    0.16667E+00        -0.28000E+00         0.00000E+00
    0.16667E+00        -0.26000E+00         0.00000E+00
    0.16667E+00        -0.24000E+00         0.00000E+00
    0.16667E+00        -0.22000E+00         0.00000E+00
    0.16667E+00        -0.20000E+00         0.00000E+00
    0.16667E+00        -0.18000E+00         0.00000E+00
    0.16667E+00        -0.16000E+00         0.00000E+00
    0.16667E+00        -0.14000E+00         0.00000E+00
    0.16667E+00        -0.12000E+00         0.00000E+00
    0.16667E+00        -0.10000E+00         0.00000E+00
    0.16667E+00        -0.80001E-01         0.00000E+00
    0.16667E+00        -0.60000E-01         0.00000E+00
    0.16667E+00        -0.40000E-01         0.00000E+00
    0.16667E+00        -0.20000E-01         0.00000E+00
    0.16667E+00         0.00000E+00         0.00000E+00
    0.20000E+00        -0.30000E+00         0.00000E+00
    0.20000E+00        -0.28000E+00         0.00000E+00
    0.20000E+00        -0.26000E+00         0.00000E+00
    0.20000E+00        -0.24000E+00         0.00000E+00
    0.20000E+00        -0.22000E+00         0.00000E+00
    0.20000E+00        -0.20000E+00         0.00000E+00
    0.20000E+00        -0.18000E+00         0.00000E+00
    0.20000E+00        -0.16000E+00         0.00000E+00
    0.20000E+00        -0.14000E+00         0.00000E+00
    0.20000E+00        -0.12000E+00         0.00000E+00
    0.20000E+00        -0.10000E+00         0.00000E+00
    0.20000E+00        -0.80001E-01         0.00000E+00
    0.20000E+00        -0.60000E-01         0.00000E+00
    0.20000E+00        -0.40000E-01         0.00000E+00
    0.20000E+00        -0.20000E-01         0.00000E+00
    0.20000E+00         0.00000E+00         0.00000E+00
    0.23334E+00        -0.30000E+00         0.00000E+00
    0.23334E+00        -0.28000E+00         0.00000E+00
    0.23334E+00        -0.26000E+00         0.00000E+00
    0.23334E+00        -0.24000E+00         0.00000E+00
    0.23334E+00        -0.22000E+00         0.00000E+00
    0.23334E+00        -0.20000E+00         0.00000E+00
    0.23334E+00        -0.18000E+00         0.00000E+00
    0.23334E+00        -0.16000E+00         0.00000E+00
    0.23334E+00        -0.14000E+00         0.00000E+00
    0.23334E+00        -0.12000E+00         0.00000E+00
    0.23334E+00        -0.10000E+00         0.00000E+00
    0.23334E+00        -0.80001E-01         0.00000E+00
    0.23334E+00        -0.60000E-01         0.00000E+00
    0.23334E+00        -0.40000E-01         0.00000E+00
    0.23334E+00        -0.20000E-01         0.00000E+00
    0.23334E+00         0.00000E+00         0.00000E+00
    0.26667E+00        -0.30000E+00         0.00000E+00
    0.26667E+00        -0.28000E+00         0.00000E+00
    0.26667E+00        -0.26000E+00         0.00000E+00
    0.26667E+00        -0.24000E+00         0.00000E+00
    0.26667E+00        -0.22000E+00         0.00000E+00
    0.26667E+00        -0.20000E+00         0.00000E+00
    0.26667E+00        -0.18000E+00         0.00000E+00
    0.26667E+00        -0.16000E+00         0.00000E+00
    0.26667E+00        -0.14000E+00         0.00000E+00
    0.26667E+00        -0.12000E+00         0.00000E+00
    0.26667E+00        -0.10000E+00         0.00000E+00
    0.26667E+00        -0.80001E-01         0.00000E+00
    0.26667E+00        -0.60000E-01         0.00000E+00
    0.26667E+00        -0.40000E-01         0.00000E+00
    0.26667E+00        -0.20000E-01         0.00000E+00
    0.26667E+00         0.00000E+00         0.00000E+00
    0.30000E+00        -0.30000E+00         0.00000E+00
    0.30000E+00        -0.28000E+00         0.00000E+00
    0.30000E+00        -0.26000E+00         0.00000E+00
    0.30000E+00        -0.24000E+00         0.00000E+00
    0.30000E+00        -0.22000E+00         0.00000E+00
    0.30000E+00        -0.20000E+00         0.00000E+00
    0.30000E+00        -0.18000E+00         0.00000E+00
    0.30000E+00        -0.16000E+00         0.00000E+00
    0.30000E+00        -0.14000E+00         0.00000E+00
    0.30000E+00        -0.12000E+00         0.00000E+00
    0.30000E+00        -0.10000E+00         0.00000E+00
    0.30000E+00        -0.80001E-01         0.00000E+00
    0.30000E+00        -0.60000E-01         0.00000E+00
    0.30000E+00        -0.40000E-01         0.00000E+00
    0.30000E+00        -0.20000E-01         0.00000E+00
    0.30000E+00         0.00000E+00         0.00000E+00
    0.33334E+00        -0.30000E+00         0.00000E+00
    0.33334E+00        -0.28000E+00         0.00000E+00
    0.33334E+00        -0.26000E+00         0.00000E+00
    0.33334E+00        -0.24000E+00         0.00000E+00
    0.33334E+00        -0.22000E+00         0.00000E+00
    0.33334E+00        -0.20000E+00         0.00000E+00
    0.33334E+00        -0.18000E+00         0.00000E+00
    0.33334E+00        -0.16000E+00         0.00000E+00
    0.33334E+00        -0.14000E+00         0.00000E+00
    0.33334E+00        -0.12000E+00         0.00000E+00
    0.33334E+00        -0.10000E+00         0.00000E+00
    0.33334E+00        -0.80001E-01         0.00000E+00
    0.33334E+00        -0.60000E-01         0.00000E+00
    0.33334E+00        -0.40000E-01         0.00000E+00
    0.33334E+00        -0.20000E-01         0.00000E+00
    0.33334E+00         0.00000E+00         0.00000E+00
    0.36667E+00        -0.30000E+00         0.00000E+00
    0.36667E+00        -0.28000E+00         0.00000E+00
    0.36667E+00        -0.26000E+00         0.00000E+00
    0.36667E+00        -0.24000E+00         0.00000E+00
    0.36667E+00        -0.22000E+00         0.00000E+00
    0.36667E+00        -0.20000E+00         0.00000E+00
    0.36667E+00        -0.18000E+00         0.00000E+00
    0.36667E+00        -0.16000E+00         0.00000E+00
    0.36667E+00        -0.14000E+00         0.00000E+00
    0.36667E+00        -0.12000E+00         0.00000E+00
    0.36667E+00        -0.10000E+00         0.00000E+00
    0.36667E+00        -0.80001E-01         0.00000E+00
    0.36667E+00        -0.60000E-01         0.00000E+00
    0.36667E+00        -0.40000E-01         0.00000E+00
    0.36667E+00        -0.20000E-01         0.00000E+00
    0.36667E+00         0.00000E+00         0.00000E+00
    0.40000E+00        -0.30000E+00         0.00000E+00
    0.40000E+00        -0.28000E+00         0.00000E+00
    0.40000E+00        -0.26000E+00         0.00000E+00
    0.40000E+00        -0.24000E+00         0.00000E+00
    0.40000E+00        -0.22000E+00         0.00000E+00
    0.40000E+00        -0.20000E+00         0.00000E+00
    0.40000E+00        -0.18000E+00         0.00000E+00
    0.40000E+00        -0.16000E+00         0.00000E+00
    0.40000E+00        -0.14000E+00         0.00000E+00
    0.40000E+00        -0.12000E+00         0.00000E+00
    0.40000E+00        -0.10000E+00         0.00000E+00
    0.40000E+00        -0.80001E-01         0.00000E+00
    0.40000E+00        -0.60000E-01         0.00000E+00
    0.40000E+00        -0.40000E-01         0.00000E+00
    0.40000E+00        -0.20000E-01         0.00000E+00
    0.40000E+00         0.00000E+00         0.00000E+00
    0.43334E+00        -0.30000E+00         0.00000E+00
    0.43334E+00        -0.28000E+00         0.00000E+00
    0.43334E+00        -0.26000E+00         0.00000E+00
    0.43334E+00        -0.24000E+00         0.00000E+00
    0.43334E+00        -0.22000E+00         0.00000E+00
    0.43334E+00        -0.20000E+00         0.00000E+00
    0.43334E+00        -0.18000E+00         0.00000E+00
    0.43334E+00        -0.16000E+00         0.00000E+00
    0.43334E+00        -0.14000E+00         0.00000E+00
    0.43334E+00        -0.12000E+00         0.00000E+00
    0.43334E+00        -0.10000E+00         0.00000E+00
    0.43334E+00        -0.80001E-01         0.00000E+00
    0.43334E+00        -0.60000E-01         0.00000E+00
    0.43334E+00        -0.40000E-01         0.00000E+00
    0.43334E+00        -0.20000E-01         0.00000E+00
    0.43334E+00         0.00000E+00         0.00000E+00
    0.46667E+00        -0.30000E+00         0.00000E+00
    0.46667E+00        -0.28000E+00         0.00000E+00
    0.46667E+00        -0.26000E+00         0.00000E+00
    0.46667E+00        -0.24000E+00         0.00000E+00
    0.46667E+00        -0.22000E+00         0.00000E+00
    0.46667E+00        -0.20000E+00         0.00000E+00
    0.46667E+00        -0.18000E+00         0.00000E+00
    0.46667E+00        -0.16000E+00         0.00000E+00
    0.46667E+00        -0.14000E+00         0.00000E+00
    0.46667E+00        -0.12000E+00         0.00000E+00
    0.46667E+00        -0.10000E+00         0.00000E+00
    0.46667E+00        -0.80001E-01         0.00000E+00
    0.46667E+00        -0.60000E-01         0.00000E+00
    0.46667E+00        -0.40000E-01         0.00000E+00
    0.46667E+00        -0.20000E-01         0.00000E+00
    0.46667E+00         0.00000E+00         0.00000E+00
    0.50000E+00        -0.30000E+00         0.00000E+00
    0.50000E+00        -0.28000E+00         0.00000E+00
    0.50000E+00        -0.26000E+00         0.00000E+00
    0.50000E+00        -0.24000E+00         0.00000E+00
    0.50000E+00        -0.22000E+00         0.00000E+00
    0.50000E+00        -0.20000E+00         0.00000E+00
    0.50000E+00        -0.18000E+00         0.00000E+00
    0.50000E+00        -0.16000E+00         0.00000E+00
    0.50000E+00        -0.14000E+00         0.00000E+00
    0.50000E+00        -0.12000E+00         0.00000E+00
    0.50000E+00        -0.10000E+00         0.00000E+00
    0.50000E+00        -0.80001E-01         0.00000E+00
    0.50000E+00        -0.60000E-01         0.00000E+00
    0.50000E+00        -0.40000E-01         0.00000E+00
    0.50000E+00        -0.20000E-01         0.00000E+00
    0.50000E+00         0.00000E+00         0.00000E+00
    0.53334E+00        -0.30000E+00         0.00000E+00
    0.53334E+00        -0.28000E+00         0.00000E+00
    0.53334E+00        -0.26000E+00         0.00000E+00
    0.53334E+00        -0.24000E+00         0.00000E+00
    0.53334E+00        -0.22000E+00         0.00000E+00
    0.53334E+00        -0.20000E+00         0.00000E+00
    0.53334E+00        -0.18000E+00         0.00000E+00
    0.53334E+00        -0.16000E+00         0.00000E+00
    0.53334E+00        -0.14000E+00         0.00000E+00
    0.53334E+00        -0.12000E+00         0.00000E+00
    0.53334E+00        -0.10000E+00         0.00000E+00
    0.53334E+00        -0.80001E-01         0.00000E+00
    0.53334E+00        -0.60000E-01         0.00000E+00
    0.53334E+00        -0.40000E-01         0.00000E+00
    0.53334E+00        -0.20000E-01         0.00000E+00
    0.53334E+00         0.00000E+00         0.00000E+00
    0.56667E+00        -0.30000E+00         0.00000E+00
    0.56667E+00        -0.28000E+00         0.00000E+00
    0.56667E+00        -0.26000E+00         0.00000E+00
    0.56667E+00        -0.24000E+00         0.00000E+00
    0.56667E+00        -0.22000E+00         0.00000E+00
    0.56667E+00        -0.20000E+00         0.00000E+00
    0.56667E+00        -0.18000E+00         0.00000E+00
    0.56667E+00        -0.16000E+00         0.00000E+00
    0.56667E+00        -0.14000E+00         0.00000E+00
    0.56667E+00        -0.12000E+00         0.00000E+00
    0.56667E+00        -0.10000E+00         0.00000E+00
    0.56667E+00        -0.80001E-01         0.00000E+00
    0.56667E+00        -0.60000E-01         0.00000E+00
    0.56667E+00        -0.40000E-01         0.00000E+00
    0.56667E+00        -0.20000E-01         0.00000E+00
    0.56667E+00         0.00000E+00         0.00000E+00
    0.60000E+00        -0.30000E+00         0.00000E+00
    0.60000E+00        -0.28000E+00         0.00000E+00
    0.60000E+00        -0.26000E+00         0.00000E+00
    0.60000E+00        -0.24000E+00         0.00000E+00
    0.60000E+00        -0.22000E+00         0.00000E+00
    0.60000E+00        -0.20000E+00         0.00000E+00
    0.60000E+00        -0.18000E+00         0.00000E+00
    0.60000E+00        -0.16000E+00         0.00000E+00
    0.60000E+00        -0.14000E+00         0.00000E+00
    0.60000E+00        -0.12000E+00         0.00000E+00
    0.60000E+00        -0.10000E+00         0.00000E+00
    0.60000E+00        -0.80001E-01         0.00000E+00
    0.60000E+00        -0.60000E-01         0.00000E+00
    0.60000E+00        -0.40000E-01         0.00000E+00
    0.60000E+00        -0.20000E-01         0.00000E+00
    0.60000E+00         0.00000E+00         0.00000E+00
    0.63334E+00        -0.30000E+00         0.00000E+00
    0.63334E+00        -0.28000E+00         0.00000E+00
    0.63334E+00        -0.26000E+00         0.00000E+00
    0.63334E+00        -0.24000E+00         0.00000E+00
    0.63334E+00        -0.22000E+00         0.00000E+00
    0.63334E+00        -0.20000E+00         0.00000E+00
    0.63334E+00        -0.18000E+00         0.00000E+00
    0.63334E+00        -0.16000E+00         0.00000E+00
    0.63334E+00        -0.14000E+00         0.00000E+00
    0.63334E+00        -0.12000E+00         0.00000E+00
    0.63334E+00        -0.10000E+00         0.00000E+00
    0.63334E+00        -0.80001E-01         0.00000E+00
    0.63334E+00        -0.60000E-01         0.00000E+00
    0.63334E+00        -0.40000E-01         0.00000E+00
    0.63334E+00        -0.20000E-01         0.00000E+00
    0.63334E+00         0.00000E+00         0.00000E+00
    0.66667E+00        -0.30000E+00         0.00000E+00
    0.66667E+00        -0.28000E+00         0.00000E+00
    0.66667E+00        -0.26000E+00         0.00000E+00
    0.66667E+00        -0.24000E+00         0.00000E+00
    0.66667E+00        -0.22000E+00         0.00000E+00
    0.66667E+00        -0.20000E+00         0.00000E+00
    0.66667E+00        -0.18000E+00         0.00000E+00
    0.66667E+00        -0.16000E+00         0.00000E+00
    0.66667E+00        -0.14000E+00         0.00000E+00
    0.66667E+00        -0.12000E+00         0.00000E+00
    0.66667E+00        -0.10000E+00         0.00000E+00
    0.66667E+00        -0.80001E-01         0.00000E+00
    0.66667E+00        -0.60000E-01         0.00000E+00
    0.66667E+00        -0.40000E-01         0.00000E+00
    0.66667E+00        -0.20000E-01         0.00000E+00
    0.66667E+00         0.00000E+00         0.00000E+00
    0.70001E+00        -0.30000E+00         0.00000E+00
    0.70001E+00        -0.28000E+00         0.00000E+00
    0.70001E+00        -0.26000E+00         0.00000E+00
    0.70001E+00        -0.24000E+00         0.00000E+00
    0.70001E+00        -0.22000E+00         0.00000E+00
    0.70001E+00        -0.20000E+00         0.00000E+00
    0.70001E+00        -0.18000E+00         0.00000E+00
    0.70001E+00        -0.16000E+00         0.00000E+00
    0.70001E+00        -0.14000E+00         0.00000E+00
    0.70001E+00        -0.12000E+00         0.00000E+00
    0.70001E+00        -0.10000E+00         0.00000E+00
    0.70001E+00        -0.80001E-01         0.00000E+00
    0.70001E+00        -0.60000E-01         0.00000E+00
    0.70001E+00        -0.40000E-01         0.00000E+00
    0.70001E+00        -0.20000E-01         0.00000E+00
    0.70001E+00         0.00000E+00         0.00000E+00
    0.73334E+00        -0.30000E+00         0.00000E+00
    0.73334E+00        -0.28000E+00         0.00000E+00
    0.73334E+00        -0.26000E+00         0.00000E+00
    0.73334E+00        -0.24000E+00         0.00000E+00
    0.73334E+00        -0.22000E+00         0.00000E+00
    0.73334E+00        -0.20000E+00         0.00000E+00
    0.73334E+00        -0.18000E+00         0.00000E+00
    0.73334E+00        -0.16000E+00         0.00000E+00
    0.73334E+00        -0.14000E+00         0.00000E+00
    0.73334E+00        -0.12000E+00         0.00000E+00
    0.73334E+00        -0.10000E+00         0.00000E+00
    0.73334E+00        -0.80001E-01         0.00000E+00
    0.73334E+00        -0.60000E-01         0.00000E+00
    0.73334E+00        -0.40000E-01         0.00000E+00
    0.73334E+00        -0.20000E-01         0.00000E+00
    0.73334E+00         0.00000E+00         0.00000E+00
    0.76667E+00        -0.30000E+00         0.00000E+00
    0.76667E+00        -0.28000E+00         0.00000E+00
    0.76667E+00        -0.26000E+00         0.00000E+00
    0.76667E+00        -0.24000E+00         0.00000E+00
    0.76667E+00        -0.22000E+00         0.00000E+00
    0.76667E+00        -0.20000E+00         0.00000E+00
    0.76667E+00        -0.18000E+00         0.00000E+00
    0.76667E+00        -0.16000E+00         0.00000E+00
    0.76667E+00        -0.14000E+00         0.00000E+00
    0.76667E+00        -0.12000E+00         0.00000E+00
    0.76667E+00        -0.10000E+00         0.00000E+00
    0.76667E+00        -0.80001E-01         0.00000E+00
    0.76667E+00        -0.60000E-01         0.00000E+00
    0.76667E+00        -0.40000E-01         0.00000E+00
    0.76667E+00        -0.20000E-01         0.00000E+00
    0.76667E+00         0.00000E+00         0.00000E+00
    0.80001E+00        -0.30000E+00         0.00000E+00
    0.80001E+00        -0.28000E+00         0.00000E+00
    0.80001E+00        -0.26000E+00         0.00000E+00
    0.80001E+00        -0.24000E+00         0.00000E+00
    0.80001E+00        -0.22000E+00         0.00000E+00
    0.80001E+00        -0.20000E+00         0.00000E+00
    0.80001E+00        -0.18000E+00         0.00000E+00
    0.80001E+00        -0.16000E+00         0.00000E+00
    0.80001E+00        -0.14000E+00         0.00000E+00
    0.80001E+00        -0.12000E+00         0.00000E+00
    0.80001E+00        -0.10000E+00         0.00000E+00
    0.80001E+00        -0.80001E-01         0.00000E+00
    0.80001E+00        -0.60000E-01         0.00000E+00
    0.80001E+00        -0.40000E-01         0.00000E+00
    0.80001E+00        -0.20000E-01         0.00000E+00
    0.80001E+00         0.00000E+00         0.00000E+00
    0.83334E+00        -0.30000E+00         0.00000E+00
    0.83334E+00        -0.28000E+00         0.00000E+00
    0.83334E+00        -0.26000E+00         0.00000E+00
    0.83334E+00        -0.24000E+00         0.00000E+00
    0.83334E+00        -0.22000E+00         0.00000E+00
    0.83334E+00        -0.20000E+00         0.00000E+00
    0.83334E+00        -0.18000E+00         0.00000E+00
    0.83334E+00        -0.16000E+00         0.00000E+00
    0.83334E+00        -0.14000E+00         0.00000E+00
    0.83334E+00        -0.12000E+00         0.00000E+00
    0.83334E+00        -0.10000E+00         0.00000E+00
    0.83334E+00        -0.80001E-01         0.00000E+00
    0.83334E+00        -0.60000E-01         0.00000E+00
    0.83334E+00        -0.40000E-01         0.00000E+00
    0.83334E+00        -0.20000E-01         0.00000E+00
    0.83334E+00         0.00000E+00         0.00000E+00
    0.86667E+00        -0.30000E+00         0.00000E+00
    0.86667E+00        -0.28000E+00         0.00000E+00
    0.86667E+00        -0.26000E+00         0.00000E+00
    0.86667E+00        -0.24000E+00         0.00000E+00
    0.86667E+00        -0.22000E+00         0.00000E+00
    0.86667E+00        -0.20000E+00         0.00000E+00
    0.86667E+00        -0.18000E+00         0.00000E+00
    0.86667E+00        -0.16000E+00         0.00000E+00
    0.86667E+00        -0.14000E+00         0.00000E+00
    0.86667E+00        -0.12000E+00         0.00000E+00
    0.86667E+00        -0.10000E+00         0.00000E+00
    0.86667E+00        -0.80001E-01         0.00000E+00
    0.86667E+00        -0.60000E-01         0.00000E+00
    0.86667E+00        -0.40000E-01         0.00000E+00
    0.86667E+00        -0.20000E-01         0.00000E+00
    0.86667E+00         0.00000E+00         0.00000E+00
    0.90001E+00        -0.30000E+00         0.00000E+00
    0.90001E+00        -0.28000E+00         0.00000E+00
    0.90001E+00        -0.26000E+00         0.00000E+00
    0.90001E+00        -0.24000E+00         0.00000E+00
    0.90001E+00        -0.22000E+00         0.00000E+00
    0.90001E+00        -0.20000E+00         0.00000E+00
    0.90001E+00        -0.18000E+00         0.00000E+00
    0.90001E+00        -0.16000E+00         0.00000E+00
    0.90001E+00        -0.14000E+00         0.00000E+00
    0.90001E+00        -0.12000E+00         0.00000E+00
    0.90001E+00        -0.10000E+00         0.00000E+00
    0.90001E+00        -0.80001E-01         0.00000E+00
    0.90001E+00        -0.60000E-01         0.00000E+00
    0.90001E+00        -0.40000E-01         0.00000E+00
    0.90001E+00        -0.20000E-01         0.00000E+00
    0.90001E+00         0.00000E+00         0.00000E+00
    0.93334E+00        -0.30000E+00         0.00000E+00
    0.93334E+00        -0.28000E+00         0.00000E+00
    0.93334E+00        -0.26000E+00         0.00000E+00
    0.93334E+00        -0.24000E+00         0.00000E+00
    0.93334E+00        -0.22000E+00         0.00000E+00
    0.93334E+00        -0.20000E+00         0.00000E+00
    0.93334E+00        -0.18000E+00         0.00000E+00
    0.93334E+00        -0.16000E+00         0.00000E+00
    0.93334E+00        -0.14000E+00         0.00000E+00
    0.93334E+00        -0.12000E+00         0.00000E+00
    0.93334E+00        -0.10000E+00         0.00000E+00
    0.93334E+00        -0.80001E-01         0.00000E+00
    0.93334E+00        -0.60000E-01         0.00000E+00
    0.93334E+00        -0.40000E-01         0.00000E+00
    0.93334E+00        -0.20000E-01         0.00000E+00
    0.93334E+00         0.00000E+00         0.00000E+00
    0.96667E+00        -0.30000E+00         0.00000E+00
    0.96667E+00        -0.28000E+00         0.00000E+00
    0.96667E+00        -0.26000E+00         0.00000E+00
    0.96667E+00        -0.24000E+00         0.00000E+00
    0.96667E+00        -0.22000E+00         0.00000E+00
    0.96667E+00        -0.20000E+00         0.00000E+00
    0.96667E+00        -0.18000E+00         0.00000E+00
    0.96667E+00        -0.16000E+00         0.00000E+00
    0.96667E+00        -0.14000E+00         0.00000E+00
    0.96667E+00        -0.12000E+00         0.00000E+00
    0.96667E+00        -0.10000E+00         0.00000E+00
    0.96667E+00        -0.80001E-01         0.00000E+00
    0.96667E+00        -0.60000E-01         0.00000E+00
    0.96667E+00        -0.40000E-01         0.00000E+00
    0.96667E+00        -0.20000E-01         0.00000E+00
    0.96667E+00         0.00000E+00         0.00000E+00
    0.10000E+01        -0.30000E+00         0.00000E+00
    0.10000E+01        -0.28000E+00         0.00000E+00
    0.10000E+01        -0.26000E+00         0.00000E+00
    0.10000E+01        -0.24000E+00         0.00000E+00
    0.10000E+01        -0.22000E+00         0.00000E+00
    0.10000E+01        -0.20000E+00         0.00000E+00
    0.10000E+01        -0.18000E+00         0.00000E+00
    0.10000E+01        -0.16000E+00         0.00000E+00
    0.10000E+01        -0.14000E+00         0.00000E+00
    0.10000E+01        -0.12000E+00         0.00000E+00
    0.10000E+01        -0.10000E+00         0.00000E+00
    0.10000E+01        -0.80001E-01         0.00000E+00
    0.10000E+01        -0.60000E-01         0.00000E+00
    0.10000E+01        -0.40000E-01         0.00000E+00
    0.10000E+01        -0.20000E-01         0.00000E+00
    0.10000E+01         0.00000E+00         0.00000E+00
    0.10333E+01        -0.30000E+00         0.00000E+00
    0.10333E+01        -0.28000E+00         0.00000E+00
    0.10333E+01        -0.26000E+00         0.00000E+00
    0.10333E+01        -0.24000E+00         0.00000E+00
    0.10333E+01        -0.22000E+00         0.00000E+00
    0.10333E+01        -0.20000E+00         0.00000E+00
    0.10333E+01        -0.18000E+00         0.00000E+00
    0.10333E+01        -0.16000E+00         0.00000E+00
    0.10333E+01        -0.14000E+00         0.00000E+00
    0.10333E+01        -0.12000E+00         0.00000E+00
    0.10333E+01        -0.10000E+00         0.00000E+00
    0.10333E+01        -0.80001E-01         0.00000E+00
    0.10333E+01        -0.60001E-01         0.00000E+00
    0.10333E+01        -0.40000E-01         0.00000E+00
    0.10333E+01        -0.20000E-01         0.00000E+00
    0.10333E+01         0.00000E+00         0.00000E+00
    0.10667E+01        -0.30000E+00         0.00000E+00
    0.10667E+01        -0.28000E+00         0.00000E+00
    0.10667E+01        -0.26000E+00         0.00000E+00
    0.10667E+01        -0.24000E+00         0.00000E+00
    0.10667E+01        -0.22000E+00         0.00000E+00
    0.10667E+01        -0.20000E+00         0.00000E+00
    0.10667E+01        -0.18000E+00         0.00000E+00
    0.10667E+01        -0.16000E+00         0.00000E+00
    0.10667E+01        -0.14000E+00         0.00000E+00
    0.10667E+01        -0.12000E+00         0.00000E+00
    0.10667E+01        -0.10000E+00         0.00000E+00
    0.10667E+01        -0.80001E-01         0.00000E+00
    0.10667E+01        -0.60001E-01         0.00000E+00
    0.10667E+01        -0.40000E-01         0.00000E+00
    0.10667E+01        -0.20000E-01         0.00000E+00
    0.10667E+01         0.00000E+00         0.00000E+00
    0.11000E+01        -0.30000E+00         0.00000E+00
    0.11000E+01        -0.28000E+00         0.00000E+00
    0.11000E+01        -0.26000E+00         0.00000E+00
    0.11000E+01        -0.24000E+00         0.00000E+00
    0.11000E+01        -0.22000E+00         0.00000E+00
    0.11000E+01        -0.20000E+00         0.00000E+00
    0.11000E+01        -0.18000E+00         0.00000E+00
    0.11000E+01        -0.16000E+00         0.00000E+00
    0.11000E+01        -0.14000E+00         0.00000E+00
    0.11000E+01        -0.12000E+00         0.00000E+00
    0.11000E+01        -0.10000E+00         0.00000E+00
    0.11000E+01        -0.80001E-01         0.00000E+00
    0.11000E+01        -0.60001E-01         0.00000E+00
    0.11000E+01        -0.40000E-01         0.00000E+00
    0.11000E+01        -0.20000E-01         0.00000E+00
    0.11000E+01         0.00000E+00         0.00000E+00
    0.11333E+01        -0.30000E+00         0.00000E+00
    0.11333E+01        -0.28000E+00         0.00000E+00
    0.11333E+01        -0.26000E+00         0.00000E+00
    0.11333E+01        -0.24000E+00         0.00000E+00
    0.11333E+01        -0.22000E+00         0.00000E+00
    0.11333E+01        -0.20000E+00         0.00000E+00
    0.11333E+01        -0.18000E+00         0.00000E+00
    0.11333E+01        -0.16000E+00         0.00000E+00
    0.11333E+01        -0.14000E+00         0.00000E+00
    0.11333E+01        -0.12000E+00         0.00000E+00
    0.11333E+01        -0.10000E+00         0.00000E+00
    0.11333E+01        -0.80001E-01         0.00000E+00
    0.11333E+01        -0.60001E-01         0.00000E+00
    0.11333E+01        -0.40000E-01         0.00000E+00
    0.11333E+01        -0.20000E-01         0.00000E+00
    0.11333E+01         0.00000E+00         0.00000E+00
    0.11667E+01        -0.30000E+00         0.00000E+00
    0.11667E+01        -0.28000E+00         0.00000E+00
    0.11667E+01        -0.26000E+00         0.00000E+00
    0.11667E+01        -0.24000E+00         0.00000E+00
    0.11667E+01        -0.22000E+00         0.00000E+00
    0.11667E+01        -0.20000E+00         0.00000E+00
    0.11667E+01        -0.18000E+00         0.00000E+00
    0.11667E+01        -0.16000E+00         0.00000E+00
    0.11667E+01        -0.14000E+00         0.00000E+00
    0.11667E+01        -0.12000E+00         0.00000E+00
    0.11667E+01        -0.10000E+00         0.00000E+00
    0.11667E+01        -0.80001E-01         0.00000E+00
    0.11667E+01        -0.60001E-01         0.00000E+00
    0.11667E+01        -0.40000E-01         0.00000E+00
    0.11667E+01        -0.20000E-01         0.00000E+00
    0.11667E+01         0.00000E+00         0.00000E+00
    0.12000E+01        -0.30001E+00         0.00000E+00
    0.12000E+01        -0.28000E+00         0.00000E+00
    0.12000E+01        -0.26000E+00         0.00000E+00
    0.12000E+01        -0.24000E+00         0.00000E+00
    0.12000E+01        -0.22000E+00         0.00000E+00
    0.12000E+01        -0.20000E+00         0.00000E+00
    0.12000E+01        -0.18000E+00         0.00000E+00
    0.12000E+01        -0.16000E+00         0.00000E+00
    0.12000E+01        -0.14000E+00         0.00000E+00
    0.12000E+01        -0.12000E+00         0.00000E+00
    0.12000E+01        -0.10000E+00         0.00000E+00
    0.12000E+01        -0.80001E-01         0.00000E+00
    0.12000E+01        -0.60001E-01         0.00000E+00
    0.12000E+01        -0.40000E-01         0.00000E+00
    0.12000E+01        -0.20000E-01         0.00000E+00
    0.12000E+01         0.00000E+00         0.00000E+00
    0.12333E+01        -0.30001E+00         0.00000E+00
    0.12333E+01        -0.28001E+00         0.00000E+00
    0.12333E+01        -0.26000E+00         0.00000E+00
    0.12333E+01        -0.24000E+00         0.00000E+00
    0.12333E+01        -0.22000E+00         0.00000E+00
    0.12333E+01        -0.20000E+00         0.00000E+00
    0.12333E+01        -0.18000E+00         0.00000E+00
    0.12333E+01        -0.16000E+00         0.00000E+00
    0.12333E+01        -0.14000E+00         0.00000E+00
    0.12333E+01        -0.12000E+00         0.00000E+00
    0.12333E+01        -0.10000E+00         0.00000E+00
    0.12333E+01        -0.80001E-01         0.00000E+00
    0.12333E+01        -0.60001E-01         0.00000E+00
    0.12333E+01        -0.40000E-01         0.00000E+00
    0.12333E+01        -0.20000E-01         0.00000E+00
    0.12333E+01         0.00000E+00         0.00000E+00
    0.12667E+01        -0.30001E+00         0.00000E+00
    0.12667E+01        -0.28001E+00         0.00000E+00
    0.12667E+01        -0.26001E+00         0.00000E+00
    0.12667E+01        -0.24000E+00         0.00000E+00
    0.12667E+01        -0.22000E+00         0.00000E+00
    0.12667E+01        -0.20000E+00         0.00000E+00
    0.12667E+01        -0.18000E+00         0.00000E+00
    0.12667E+01        -0.16000E+00         0.00000E+00
    0.12667E+01        -0.14000E+00         0.00000E+00
    0.12667E+01        -0.12000E+00         0.00000E+00
    0.12667E+01        -0.10000E+00         0.00000E+00
    0.12667E+01        -0.80001E-01         0.00000E+00
    0.12667E+01        -0.60001E-01         0.00000E+00
    0.12667E+01        -0.40000E-01         0.00000E+00
    0.12667E+01        -0.20000E-01         0.00000E+00
    0.12667E+01         0.00000E+00         0.00000E+00
    0.13000E+01        -0.30001E+00         0.00000E+00
    0.13000E+01        -0.28001E+00         0.00000E+00
    0.13000E+01        -0.26001E+00         0.00000E+00
    0.13000E+01        -0.24001E+00         0.00000E+00
    0.13000E+01        -0.22000E+00         0.00000E+00
    0.13000E+01        -0.20000E+00         0.00000E+00
    0.13000E+01        -0.18000E+00         0.00000E+00
    0.13000E+01        -0.16000E+00         0.00000E+00
    0.13000E+01        -0.14000E+00         0.00000E+00
    0.13000E+01        -0.12000E+00         0.00000E+00
    0.13000E+01        -0.10000E+00         0.00000E+00
    0.13000E+01        -0.80001E-01         0.00000E+00
    0.13000E+01        -0.60001E-01         0.00000E+00
    0.13000E+01        -0.40001E-01         0.00000E+00
    0.13000E+01        -0.20000E-01         0.00000E+00
    0.13000E+01         0.00000E+00         0.00000E+00
    0.13333E+01        -0.30001E+00         0.00000E+00
    0.13333E+01        -0.28001E+00         0.00000E+00
    0.13333E+01        -0.26001E+00         0.00000E+00
    0.13333E+01        -0.24001E+00         0.00000E+00
    0.13333E+01        -0.22001E+00         0.00000E+00
    0.13333E+01        -0.20000E+00         0.00000E+00
    0.13333E+01        -0.18000E+00         0.00000E+00
    0.13333E+01        -0.16000E+00         0.00000E+00
    0.13333E+01        -0.14000E+00         0.00000E+00
    0.13333E+01        -0.12000E+00         0.00000E+00
    0.13333E+01        -0.10000E+00         0.00000E+00
    0.13333E+01        -0.80001E-01         0.00000E+00
    0.13333E+01        -0.60001E-01         0.00000E+00
    0.13333E+01        -0.40001E-01         0.00000E+00
    0.13333E+01        -0.20000E-01         0.00000E+00
    0.13333E+01         0.00000E+00         0.00000E+00
    0.13667E+01        -0.30001E+00         0.00000E+00
    0.13667E+01        -0.28001E+00         0.00000E+00
    0.13667E+01        -0.26001E+00         0.00000E+00
    0.13667E+01        -0.24001E+00         0.00000E+00
    0.13667E+01        -0.22001E+00         0.00000E+00
    0.13667E+01        -0.20000E+00         0.00000E+00
    0.13667E+01        -0.18000E+00         0.00000E+00
    0.13667E+01        -0.16000E+00         0.00000E+00
    0.13667E+01        -0.14000E+00         0.00000E+00
    0.13667E+01        -0.12000E+00         0.00000E+00
    0.13667E+01        -0.10000E+00         0.00000E+00
    0.13667E+01        -0.80001E-01         0.00000E+00
    0.13667E+01        -0.60001E-01         0.00000E+00
    0.13667E+01        -0.40001E-01         0.00000E+00
    0.13667E+01        -0.20000E-01         0.00000E+00
    0.13667E+01         0.00000E+00         0.00000E+00
    0.14000E+01        -0.30001E+00         0.00000E+00
    0.14000E+01        -0.28001E+00         0.00000E+00
    0.14000E+01        -0.26001E+00         0.00000E+00
    0.14000E+01        -0.24001E+00         0.00000E+00
    0.14000E+01        -0.22001E+00         0.00000E+00
    0.14000E+01        -0.20001E+00         0.00000E+00
    0.14000E+01        -0.18000E+00         0.00000E+00
    0.14000E+01        -0.16000E+00         0.00000E+00
    0.14000E+01        -0.14000E+00         0.00000E+00
    0.14000E+01        -0.12000E+00         0.00000E+00
    0.14000E+01        -0.10000E+00         0.00000E+00
    0.14000E+01        -0.80001E-01         0.00000E+00
    0.14000E+01        -0.60001E-01         0.00000E+00
    0.14000E+01        -0.40001E-01         0.00000E+00
    0.14000E+01        -0.20000E-01         0.00000E+00
    0.14000E+01         0.00000E+00         0.00000E+00
    0.14333E+01        -0.30001E+00         0.00000E+00
    0.14333E+01        -0.28001E+00         0.00000E+00
    0.14333E+01        -0.26001E+00         0.00000E+00
    0.14333E+01        -0.24001E+00         0.00000E+00
    0.14333E+01        -0.22001E+00         0.00000E+00
    0.14333E+01        -0.20001E+00         0.00000E+00
    0.14333E+01        -0.18000E+00         0.00000E+00
    0.14333E+01        -0.16000E+00         0.00000E+00
    0.14333E+01        -0.14000E+00         0.00000E+00
    0.14333E+01        -0.12000E+00         0.00000E+00
    0.14333E+01        -0.10000E+00         0.00000E+00
    0.14333E+01        -0.80001E-01         0.00000E+00
    0.14333E+01        -0.60001E-01         0.00000E+00
    0.14333E+01        -0.40001E-01         0.00000E+00
    0.14333E+01        -0.20000E-01         0.00000E+00
    0.14333E+01         0.00000E+00         0.00000E+00
    0.14667E+01        -0.30002E+00         0.00000E+00
    0.14667E+01        -0.28001E+00         0.00000E+00
    0.14667E+01        -0.26001E+00         0.00000E+00
    0.14667E+01        -0.24001E+00         0.00000E+00
    0.14667E+01        -0.22001E+00         0.00000E+00
    0.14667E+01        -0.20001E+00         0.00000E+00
    0.14667E+01        -0.18001E+00         0.00000E+00
    0.14667E+01        -0.16000E+00         0.00000E+00
    0.14667E+01        -0.14000E+00         0.00000E+00
    0.14667E+01        -0.12000E+00         0.00000E+00
    0.14667E+01        -0.10000E+00         0.00000E+00
    0.14667E+01        -0.80001E-01         0.00000E+00
    0.14667E+01        -0.60001E-01         0.00000E+00
    0.14667E+01        -0.40000E-01         0.00000E+00
    0.14667E+01        -0.20000E-01         0.00000E+00
    0.14667E+01         0.00000E+00         0.00000E+00
    0.15000E+01        -0.30002E+00         0.00000E+00
    0.15000E+01        -0.28002E+00         0.00000E+00
    0.15000E+01        -0.26001E+00         0.00000E+00
    0.15000E+01        -0.24001E+00         0.00000E+00
    0.15000E+01        -0.22001E+00         0.00000E+00
    0.15000E+01        -0.20001E+00         0.00000E+00
    0.15000E+01        -0.18001E+00         0.00000E+00
    0.15000E+01        -0.16000E+00         0.00000E+00
    0.15000E+01        -0.14000E+00         0.00000E+00
    0.15000E+01        -0.12000E+00         0.00000E+00
    0.15000E+01        -0.10000E+00         0.00000E+00
    0.15000E+01        -0.80001E-01         0.00000E+00
    0.15000E+01        -0.60001E-01         0.00000E+00
    0.15000E+01        -0.40000E-01         0.00000E+00
    0.15000E+01        -0.20000E-01         0.00000E+00
    0.15000E+01         0.00000E+00         0.00000E+00
    0.15333E+01        -0.30002E+00         0.00000E+00
    0.15333E+01        -0.28002E+00         0.00000E+00
    0.15333E+01        -0.26002E+00         0.00000E+00
    0.15333E+01        -0.24001E+00         0.00000E+00
    0.15333E+01        -0.22001E+00         0.00000E+00
    0.15333E+01        -0.20001E+00         0.00000E+00
    0.15333E+01        -0.18001E+00         0.00000E+00
    0.15333E+01        -0.16000E+00         0.00000E+00
    0.15333E+01        -0.14000E+00         0.00000E+00
    0.15333E+01        -0.12000E+00         0.00000E+00
    0.15333E+01        -0.10000E+00         0.00000E+00
    0.15333E+01        -0.80001E-01         0.00000E+00
    0.15333E+01        -0.60000E-01         0.00000E+00
    0.15333E+01        -0.40000E-01         0.00000E+00
    0.15333E+01        -0.20000E-01         0.00000E+00
    0.15333E+01         0.00000E+00         0.00000E+00
    0.15667E+01        -0.30002E+00         0.00000E+00
    0.15667E+01        -0.28002E+00         0.00000E+00
    0.15667E+01        -0.26002E+00         0.00000E+00
    0.15667E+01        -0.24001E+00         0.00000E+00
    0.15667E+01        -0.22001E+00         0.00000E+00
    0.15667E+01        -0.20001E+00         0.00000E+00
    0.15667E+01        -0.18001E+00         0.00000E+00
    0.15667E+01        -0.16000E+00         0.00000E+00
    0.15667E+01        -0.14000E+00         0.00000E+00
    0.15667E+01        -0.12000E+00         0.00000E+00
    0.15666E+01        -0.10000E+00         0.00000E+00
    0.15666E+01        -0.80000E-01         0.00000E+00
    0.15666E+01        -0.60000E-01         0.00000E+00
    0.15666E+01        -0.40000E-01         0.00000E+00
    0.15666E+01        -0.20000E-01         0.00000E+00
    0.15666E+01         0.00000E+00         0.00000E+00
    0.16000E+01        -0.30003E+00         0.00000E+00
    0.16000E+01        -0.28002E+00         0.00000E+00
    0.16000E+01        -0.26002E+00         0.00000E+00
    0.16000E+01        -0.24002E+00         0.00000E+00
    0.16000E+01        -0.22001E+00         0.00000E+00
    0.16000E+01        -0.20001E+00         0.00000E+00
    0.16000E+01        -0.18001E+00         0.00000E+00
    0.16000E+01        -0.16000E+00         0.00000E+00
    0.16000E+01        -0.14000E+00         0.00000E+00
    0.16000E+01        -0.12000E+00         0.00000E+00
    0.16000E+01        -0.10000E+00         0.00000E+00
    0.16000E+01        -0.79999E-01         0.00000E+00
    0.16000E+01        -0.59999E-01         0.00000E+00
    0.16000E+01        -0.39999E-01         0.00000E+00
    0.16000E+01        -0.20000E-01         0.00000E+00
    0.16000E+01         0.00000E+00         0.00000E+00
    0.16333E+01        -0.30003E+00         0.00000E+00
    0.16333E+01        -0.28003E+00         0.00000E+00
    0.16333E+01        -0.26002E+00         0.00000E+00
    0.16333E+01        -0.24002E+00         0.00000E+00
    0.16333E+01        -0.22001E+00         0.00000E+00
    0.16333E+01        -0.20001E+00         0.00000E+00
    0.16333E+01        -0.18001E+00         0.00000E+00
    0.16333E+01        -0.16000E+00         0.00000E+00
    0.16333E+01        -0.14000E+00         0.00000E+00
    0.16333E+01        -0.12000E+00         0.00000E+00
    0.16333E+01        -0.99999E-01         0.00000E+00
    0.16333E+01        -0.79998E-01         0.00000E+00
    0.16333E+01        -0.59998E-01         0.00000E+00
    0.16333E+01        -0.39999E-01         0.00000E+00
    0.16333E+01        -0.19999E-01         0.00000E+00
    0.16333E+01         0.00000E+00         0.00000E+00
    0.16667E+01        -0.30004E+00         0.00000E+00
    0.16667E+01        -0.28003E+00         0.00000E+00
    0.16667E+01        -0.26002E+00         0.00000E+00
    0.16667E+01        -0.24002E+00         0.00000E+00
    0.16667E+01        -0.22001E+00         0.00000E+00
    0.16667E+01        -0.20001E+00         0.00000E+00
    0.16666E+01        -0.18000E+00         0.00000E+00
    0.16666E+01        -0.16000E+00         0.00000E+00
    0.16666E+01        -0.14000E+00         0.00000E+00
    0.16666E+01        -0.12000E+00         0.00000E+00
    0.16666E+01        -0.99997E-01         0.00000E+00
    0.16666E+01        -0.79997E-01         0.00000E+00
    0.16666E+01        -0.59997E-01         0.00000E+00
    0.16666E+01        -0.39998E-01         0.00000E+00
    0.16666E+01        -0.19999E-01         0.00000E+00
    0.16666E+01         0.00000E+00         0.00000E+00
    0.17000E+01        -0.30004E+00         0.00000E+00
    0.17000E+01        -0.28003E+00         0.00000E+00
    0.17000E+01        -0.26003E+00         0.00000E+00
    0.17000E+01        -0.24002E+00         0.00000E+00
    0.17000E+01        -0.22001E+00         0.00000E+00
    0.17000E+01        -0.20001E+00         0.00000E+00
    0.17000E+01        -0.18000E+00         0.00000E+00
    0.17000E+01        -0.16000E+00         0.00000E+00
    0.17000E+01        -0.14000E+00         0.00000E+00
    0.16999E+01        -0.12000E+00         0.00000E+00
    0.16999E+01        -0.99994E-01         0.00000E+00
    0.16999E+01        -0.79994E-01         0.00000E+00
    0.16999E+01        -0.59995E-01         0.00000E+00
    0.16999E+01        -0.39996E-01         0.00000E+00
    0.16999E+01        -0.19998E-01         0.00000E+00
    0.16999E+01         0.00000E+00         0.00000E+00
    0.17333E+01        -0.30005E+00         0.00000E+00
    0.17333E+01        -0.28004E+00         0.00000E+00
    0.17333E+01        -0.26003E+00         0.00000E+00
    0.17333E+01        -0.24002E+00         0.00000E+00
    0.17333E+01        -0.22001E+00         0.00000E+00
    0.17333E+01        -0.20001E+00         0.00000E+00
    0.17333E+01        -0.18000E+00         0.00000E+00
    0.17333E+01        -0.16000E+00         0.00000E+00
    0.17333E+01        -0.13999E+00         0.00000E+00
    0.17333E+01        -0.11999E+00         0.00000E+00
    0.17333E+01        -0.99991E-01         0.00000E+00
    0.17332E+01        -0.79991E-01         0.00000E+00
    0.17332E+01        -0.59993E-01         0.00000E+00
    0.17332E+01        -0.39995E-01         0.00000E+00
    0.17332E+01        -0.19997E-01         0.00000E+00
    0.17332E+01         0.00000E+00         0.00000E+00
    0.17667E+01        -0.30006E+00         0.00000E+00
    0.17667E+01        -0.28004E+00         0.00000E+00
    0.17667E+01        -0.26003E+00         0.00000E+00
    0.17667E+01        -0.24002E+00         0.00000E+00
    0.17666E+01        -0.22001E+00         0.00000E+00
    0.17666E+01        -0.20000E+00         0.00000E+00
    0.17666E+01        -0.18000E+00         0.00000E+00
    0.17666E+01        -0.15999E+00         0.00000E+00
    0.17666E+01        -0.13999E+00         0.00000E+00
    0.17666E+01        -0.11999E+00         0.00000E+00
    0.17666E+01        -0.99986E-01         0.00000E+00
    0.17666E+01        -0.79987E-01         0.00000E+00
    0.17666E+01        -0.59990E-01         0.00000E+00
    0.17665E+01        -0.39993E-01         0.00000E+00
    0.17665E+01        -0.19996E-01         0.00000E+00
    0.17665E+01         0.00000E+00         0.00000E+00
    0.18000E+01        -0.30006E+00         0.00000E+00
    0.18000E+01        -0.28005E+00         0.00000E+00
    0.18000E+01        -0.26004E+00         0.00000E+00
    0.18000E+01        -0.24002E+00         0.00000E+00
    0.18000E+01        -0.22001E+00         0.00000E+00
    0.18000E+01        -0.20000E+00         0.00000E+00
    0.17999E+01        -0.17999E+00         0.00000E+00
    0.17999E+01        -0.15999E+00         0.00000E+00
    0.17999E+01        -0.13998E+00         0.00000E+00
    0.17999E+01        -0.11998E+00         0.00000E+00
    0.17999E+01        -0.99981E-01         0.00000E+00
    0.17999E+01        -0.79982E-01         0.00000E+00
    0.17999E+01        -0.59986E-01         0.00000E+00
    0.17998E+01        -0.39990E-01         0.00000E+00
    0.17998E+01        -0.19995E-01         0.00000E+00
    0.17998E+01         0.00000E+00         0.00000E+00
    0.18334E+01        -0.30007E+00         0.00000E+00
    0.18333E+01        -0.28006E+00         0.00000E+00
    0.18333E+01        -0.26004E+00         0.00000E+00
    0.18333E+01        -0.24002E+00         0.00000E+00
    0.18333E+01        -0.22001E+00         0.00000E+00
    0.18333E+01        -0.20000E+00         0.00000E+00
    0.18333E+01        -0.17999E+00         0.00000E+00
    0.18332E+01        -0.15998E+00         0.00000E+00
    0.18332E+01        -0.13998E+00         0.00000E+00
    0.18332E+01        -0.11997E+00         0.00000E+00
    0.18332E+01        -0.99974E-01         0.00000E+00
    0.18332E+01        -0.79976E-01         0.00000E+00
    0.18331E+01        -0.59980E-01         0.00000E+00
    0.18331E+01        -0.39986E-01         0.00000E+00
    0.18331E+01        -0.19993E-01         0.00000E+00
    0.18331E+01         0.00000E+00         0.00000E+00
    0.18667E+01        -0.30009E+00         0.00000E+00
    0.18667E+01        -0.28006E+00         0.00000E+00
    0.18667E+01        -0.26004E+00         0.00000E+00
    0.18666E+01        -0.24002E+00         0.00000E+00
    0.18666E+01        -0.22001E+00         0.00000E+00
    0.18666E+01        -0.19999E+00         0.00000E+00
    0.18666E+01        -0.17998E+00         0.00000E+00
    0.18665E+01        -0.15997E+00         0.00000E+00
    0.18665E+01        -0.13997E+00         0.00000E+00
    0.18665E+01        -0.11996E+00         0.00000E+00
    0.18665E+01        -0.99965E-01         0.00000E+00
    0.18664E+01        -0.79968E-01         0.00000E+00
    0.18664E+01        -0.59974E-01         0.00000E+00
    0.18664E+01        -0.39982E-01         0.00000E+00
    0.18664E+01        -0.19991E-01         0.00000E+00
    0.18664E+01         0.00000E+00         0.00000E+00
    0.19000E+01        -0.30010E+00         0.00000E+00
    0.19000E+01        -0.28007E+00         0.00000E+00
    0.19000E+01        -0.26005E+00         0.00000E+00
    0.19000E+01        -0.24002E+00         0.00000E+00
    0.19000E+01        -0.22000E+00         0.00000E+00
    0.18999E+01        -0.19998E+00         0.00000E+00
    0.18999E+01        -0.17997E+00         0.00000E+00
    0.18998E+01        -0.15996E+00         0.00000E+00
    0.18998E+01        -0.13995E+00         0.00000E+00
    0.18998E+01        -0.11995E+00         0.00000E+00
    0.18998E+01        -0.99954E-01         0.00000E+00
    0.18997E+01        -0.79959E-01         0.00000E+00
    0.18997E+01        -0.59967E-01         0.00000E+00
    0.18997E+01        -0.39977E-01         0.00000E+00
    0.18997E+01        -0.19988E-01         0.00000E+00
    0.18997E+01         0.00000E+00         0.00000E+00
    0.19334E+01        -0.30012E+00         0.00000E+00
    0.19334E+01        -0.28008E+00         0.00000E+00
    0.19333E+01        -0.26005E+00         0.00000E+00
    0.19333E+01        -0.24002E+00         0.00000E+00
    0.19333E+01        -0.22000E+00         0.00000E+00
    0.19332E+01        -0.19998E+00         0.00000E+00
    0.19332E+01        -0.17996E+00         0.00000E+00
    0.19331E+01        -0.15995E+00         0.00000E+00
    0.19331E+01        -0.13994E+00         0.00000E+00
    0.19331E+01        -0.11994E+00         0.00000E+00
    0.19330E+01        -0.99942E-01         0.00000E+00
    0.19330E+01        -0.79948E-01         0.00000E+00
    0.19330E+01        -0.59958E-01         0.00000E+00
    0.19329E+01        -0.39971E-01         0.00000E+00
    0.19329E+01        -0.19985E-01         0.00000E+00
    0.19329E+01         0.00000E+00         0.00000E+00
    0.19667E+01        -0.30014E+00         0.00000E+00
    0.19667E+01        -0.28010E+00         0.00000E+00
    0.19667E+01        -0.26006E+00         0.00000E+00
    0.19666E+01        -0.24003E+00         0.00000E+00
    0.19666E+01        -0.21999E+00         0.00000E+00
    0.19665E+01        -0.19997E+00         0.00000E+00
    0.19665E+01        -0.17995E+00         0.00000E+00
    0.19664E+01        -0.15993E+00         0.00000E+00
    0.19664E+01        -0.13993E+00         0.00000E+00
    0.19663E+01        -0.11992E+00         0.00000E+00
    0.19663E+01        -0.99928E-01         0.00000E+00
    0.19662E+01        -0.79936E-01         0.00000E+00
    0.19662E+01        -0.59948E-01         0.00000E+00
    0.19662E+01        -0.39964E-01         0.00000E+00
    0.19662E+01        -0.19981E-01         0.00000E+00
    0.19662E+01         0.00000E+00         0.00000E+00
    0.20001E+01        -0.30017E+00         0.00000E+00
    0.20001E+01        -0.28012E+00         0.00000E+00
    0.20000E+01        -0.26008E+00         0.00000E+00
    0.20000E+01        -0.24003E+00         0.00000E+00
    0.19999E+01        -0.21999E+00         0.00000E+00
    0.19999E+01        -0.19996E+00         0.00000E+00
    0.19998E+01        -0.17994E+00         0.00000E+00
    0.19997E+01        -0.15992E+00         0.00000E+00
    0.19996E+01        -0.13991E+00         0.00000E+00
    0.19996E+01        -0.11991E+00         0.00000E+00
    0.19995E+01        -0.99912E-01         0.00000E+00
    0.19995E+01        -0.79922E-01         0.00000E+00
    0.19994E+01        -0.59937E-01         0.00000E+00
    0.19994E+01        -0.39956E-01         0.00000E+00
    0.19994E+01        -0.19977E-01         0.00000E+00
    0.19994E+01         0.00000E+00         0.00000E+00
    0.20335E+01        -0.30022E+00         0.00000E+00
    0.20335E+01        -0.28015E+00         0.00000E+00
    0.20334E+01        -0.26009E+00         0.00000E+00
    0.20333E+01        -0.24004E+00         0.00000E+00
    0.20332E+01        -0.22000E+00         0.00000E+00
    0.20332E+01        -0.19996E+00         0.00000E+00
    0.20331E+01        -0.17993E+00         0.00000E+00
    0.20330E+01        -0.15991E+00         0.00000E+00
    0.20329E+01        -0.13989E+00         0.00000E+00
    0.20328E+01        -0.11989E+00         0.00000E+00
    0.20327E+01        -0.99896E-01         0.00000E+00
    0.20327E+01        -0.79907E-01         0.00000E+00
    0.20326E+01        -0.59925E-01         0.00000E+00
    0.20326E+01        -0.39947E-01         0.00000E+00
    0.20326E+01        -0.19973E-01         0.00000E+00
    0.20326E+01         0.00000E+00         0.00000E+00
    0.20669E+01        -0.30027E+00         0.00000E+00
    0.20668E+01        -0.28020E+00         0.00000E+00
    0.20668E+01        -0.26012E+00         0.00000E+00
    0.20667E+01        -0.24006E+00         0.00000E+00
    0.20666E+01        -0.22000E+00         0.00000E+00
    0.20665E+01        -0.19996E+00         0.00000E+00
    0.20664E+01        -0.17992E+00         0.00000E+00
    0.20662E+01        -0.15989E+00         0.00000E+00
    0.20661E+01        -0.13988E+00         0.00000E+00
    0.20660E+01        -0.11987E+00         0.00000E+00
    0.20659E+01        -0.99879E-01         0.00000E+00
    0.20659E+01        -0.79893E-01         0.00000E+00
    0.20658E+01        -0.59913E-01         0.00000E+00
    0.20657E+01        -0.39939E-01         0.00000E+00
    0.20657E+01        -0.19968E-01         0.00000E+00
    0.20657E+01         0.00000E+00         0.00000E+00
    0.21003E+01        -0.30035E+00         0.00000E+00
    0.21002E+01        -0.28026E+00         0.00000E+00
    0.21001E+01        -0.26017E+00         0.00000E+00
    0.21000E+01        -0.24009E+00         0.00000E+00
    0.20999E+01        -0.22002E+00         0.00000E+00
    0.20998E+01        -0.19996E+00         0.00000E+00
    0.20996E+01        -0.17992E+00         0.00000E+00
    0.20995E+01        -0.15989E+00         0.00000E+00
    0.20993E+01        -0.13987E+00         0.00000E+00
    0.20992E+01        -0.11986E+00         0.00000E+00
    0.20991E+01        -0.99865E-01         0.00000E+00
    0.20990E+01        -0.79879E-01         0.00000E+00
    0.20989E+01        -0.59902E-01         0.00000E+00
    0.20989E+01        -0.39931E-01         0.00000E+00
    0.20988E+01        -0.19964E-01         0.00000E+00
    0.20988E+01         0.00000E+00         0.00000E+00
    0.21337E+01        -0.30046E+00         0.00000E+00
    0.21336E+01        -0.28034E+00         0.00000E+00
    0.21335E+01        -0.26023E+00         0.00000E+00
    0.21334E+01        -0.24014E+00         0.00000E+00
    0.21332E+01        -0.22005E+00         0.00000E+00
    0.21330E+01        -0.19998E+00         0.00000E+00
    0.21329E+01        -0.17993E+00         0.00000E+00
    0.21327E+01        -0.15989E+00         0.00000E+00
    0.21325E+01        -0.13986E+00         0.00000E+00
    0.21324E+01        -0.11985E+00         0.00000E+00
    0.21322E+01        -0.99854E-01         0.00000E+00
    0.21321E+01        -0.79869E-01         0.00000E+00
    0.21320E+01        -0.59893E-01         0.00000E+00
    0.21319E+01        -0.39924E-01         0.00000E+00
    0.21319E+01        -0.19961E-01         0.00000E+00
    0.21319E+01         0.00000E+00         0.00000E+00
    0.21672E+01        -0.30060E+00         0.00000E+00
    0.21671E+01        -0.28046E+00         0.00000E+00
    0.21669E+01        -0.26033E+00         0.00000E+00
    0.21667E+01        -0.24021E+00         0.00000E+00
    0.21665E+01        -0.22011E+00         0.00000E+00
    0.21663E+01        -0.20002E+00         0.00000E+00
    0.21661E+01        -0.17995E+00         0.00000E+00
    0.21659E+01        -0.15990E+00         0.00000E+00
    0.21657E+01        -0.13987E+00         0.00000E+00
    0.21655E+01        -0.11985E+00         0.00000E+00
    0.21653E+01        -0.99852E-01         0.00000E+00
    0.21651E+01        -0.79864E-01         0.00000E+00
    0.21650E+01        -0.59888E-01         0.00000E+00
    0.21649E+01        -0.39920E-01         0.00000E+00
    0.21649E+01        -0.19959E-01         0.00000E+00
    0.21649E+01         0.00000E+00         0.00000E+00
    0.22007E+01        -0.30079E+00         0.00000E+00
    0.22005E+01        -0.28062E+00         0.00000E+00
    0.22003E+01        -0.26046E+00         0.00000E+00
    0.22001E+01        -0.24032E+00         0.00000E+00
    0.21999E+01        -0.22019E+00         0.00000E+00
    0.21996E+01        -0.20009E+00         0.00000E+00
    0.21993E+01        -0.18000E+00         0.00000E+00
    0.21990E+01        -0.15994E+00         0.00000E+00
    0.21988E+01        -0.13989E+00         0.00000E+00
    0.21985E+01        -0.11987E+00         0.00000E+00
    0.21983E+01        -0.99861E-01         0.00000E+00
    0.21981E+01        -0.79870E-01         0.00000E+00
    0.21980E+01        -0.59891E-01         0.00000E+00
    0.21979E+01        -0.39921E-01         0.00000E+00
    0.21978E+01        -0.19959E-01         0.00000E+00
    0.21978E+01         0.00000E+00         0.00000E+00
    0.22342E+01        -0.30105E+00         0.00000E+00
    0.22340E+01        -0.28085E+00         0.00000E+00
    0.22338E+01        -0.26065E+00         0.00000E+00
    0.22335E+01        -0.24048E+00         0.00000E+00
    0.22332E+01        -0.22032E+00         0.00000E+00
    0.22328E+01        -0.20019E+00         0.00000E+00
    0.22325E+01        -0.18009E+00         0.00000E+00
    0.22322E+01        -0.16000E+00         0.00000E+00
    0.22318E+01        -0.13994E+00         0.00000E+00
    0.22316E+01        -0.11991E+00         0.00000E+00
    0.22313E+01        -0.99890E-01         0.00000E+00
    0.22311E+01        -0.79890E-01         0.00000E+00
    0.22309E+01        -0.59904E-01         0.00000E+00
    0.22308E+01        -0.39930E-01         0.00000E+00
    0.22307E+01        -0.19963E-01         0.00000E+00
    0.22307E+01         0.00000E+00         0.00000E+00
    0.22678E+01        -0.30140E+00         0.00000E+00
    0.22676E+01        -0.28115E+00         0.00000E+00
    0.22672E+01        -0.26092E+00         0.00000E+00
    0.22669E+01        -0.24070E+00         0.00000E+00
    0.22665E+01        -0.22052E+00         0.00000E+00
    0.22661E+01        -0.20035E+00         0.00000E+00
    0.22656E+01        -0.18022E+00         0.00000E+00
    0.22652E+01        -0.16011E+00         0.00000E+00
    0.22648E+01        -0.14003E+00         0.00000E+00
    0.22645E+01        -0.11998E+00         0.00000E+00
    0.22642E+01        -0.99946E-01         0.00000E+00
    0.22639E+01        -0.79932E-01         0.00000E+00
    0.22637E+01        -0.59935E-01         0.00000E+00
    0.22635E+01        -0.39949E-01         0.00000E+00
    0.22635E+01        -0.19973E-01         0.00000E+00
    0.22634E+01         0.00000E+00         0.00000E+00
    0.23015E+01        -0.30186E+00         0.00000E+00
    0.23011E+01        -0.28156E+00         0.00000E+00
    0.23007E+01        -0.26128E+00         0.00000E+00
    0.23003E+01        -0.24102E+00         0.00000E+00
    0.22998E+01        -0.22079E+00         0.00000E+00
    0.22992E+01        -0.20059E+00         0.00000E+00
    0.22987E+01        -0.18042E+00         0.00000E+00
    0.22982E+01        -0.16028E+00         0.00000E+00
    0.22978E+01        -0.14018E+00         0.00000E+00
    0.22974E+01        -0.12010E+00         0.00000E+00
    0.22970E+01        -0.10004E+00         0.00000E+00
    0.22967E+01        -0.80005E-01         0.00000E+00
    0.22964E+01        -0.59988E-01         0.00000E+00
    0.22962E+01        -0.39984E-01         0.00000E+00
    0.22961E+01        -0.19990E-01         0.00000E+00
    0.22961E+01         0.00000E+00         0.00000E+00
    0.23352E+01        -0.30248E+00         0.00000E+00
    0.23348E+01        -0.28211E+00         0.00000E+00
    0.23342E+01        -0.26177E+00         0.00000E+00
    0.23336E+01        -0.24145E+00         0.00000E+00
    0.23330E+01        -0.22117E+00         0.00000E+00
    0.23324E+01        -0.20092E+00         0.00000E+00
    0.23318E+01        -0.18071E+00         0.00000E+00
    0.23312E+01        -0.16053E+00         0.00000E+00
    0.23306E+01        -0.14039E+00         0.00000E+00
    0.23301E+01        -0.12027E+00         0.00000E+00
    0.23297E+01        -0.10019E+00         0.00000E+00
    0.23293E+01        -0.80119E-01         0.00000E+00
    0.23290E+01        -0.60073E-01         0.00000E+00
    0.23288E+01        -0.40040E-01         0.00000E+00
    0.23287E+01        -0.20018E-01         0.00000E+00
    0.23286E+01         0.00000E+00         0.00000E+00
    0.23690E+01        -0.30328E+00         0.00000E+00
    0.23684E+01        -0.28284E+00         0.00000E+00
    0.23677E+01        -0.26242E+00         0.00000E+00
    0.23670E+01        -0.24204E+00         0.00000E+00
    0.23663E+01        -0.22170E+00         0.00000E+00
    0.23655E+01        -0.20139E+00         0.00000E+00
    0.23648E+01        -0.18112E+00         0.00000E+00
    0.23641E+01        -0.16089E+00         0.00000E+00
    0.23634E+01        -0.14070E+00         0.00000E+00
    0.23628E+01        -0.12053E+00         0.00000E+00
    0.23623E+01        -0.10040E+00         0.00000E+00
    0.23618E+01        -0.80289E-01         0.00000E+00
    0.23615E+01        -0.60199E-01         0.00000E+00
    0.23612E+01        -0.40124E-01         0.00000E+00
    0.23610E+01        -0.20060E-01         0.00000E+00
    0.23610E+01         0.00000E+00         0.00000E+00
    0.24028E+01        -0.30432E+00         0.00000E+00
    0.24021E+01        -0.28379E+00         0.00000E+00
    0.24012E+01        -0.26329E+00         0.00000E+00
    0.24004E+01        -0.24282E+00         0.00000E+00
    0.23994E+01        -0.22240E+00         0.00000E+00
    0.23985E+01        -0.20202E+00         0.00000E+00
    0.23976E+01        -0.18169E+00         0.00000E+00
    0.23968E+01        -0.16139E+00         0.00000E+00
    0.23960E+01        -0.14113E+00         0.00000E+00
    0.23953E+01        -0.12090E+00         0.00000E+00
    0.23947E+01        -0.10070E+00         0.00000E+00
    0.23942E+01        -0.80532E-01         0.00000E+00
    0.23938E+01        -0.60381E-01         0.00000E+00
    0.23935E+01        -0.40245E-01         0.00000E+00
    0.23933E+01        -0.20120E-01         0.00000E+00
    0.23932E+01         0.00000E+00         0.00000E+00
    0.24368E+01        -0.30567E+00         0.00000E+00
    0.24358E+01        -0.28502E+00         0.00000E+00
    0.24348E+01        -0.26442E+00         0.00000E+00
    0.24337E+01        -0.24386E+00         0.00000E+00
    0.24326E+01        -0.22334E+00         0.00000E+00
    0.24315E+01        -0.20287E+00         0.00000E+00
    0.24304E+01        -0.18244E+00         0.00000E+00
    0.24294E+01        -0.16206E+00         0.00000E+00
    0.24285E+01        -0.14171E+00         0.00000E+00
    0.24277E+01        -0.12140E+00         0.00000E+00
    0.24269E+01        -0.10112E+00         0.00000E+00
    0.24263E+01        -0.80867E-01         0.00000E+00
    0.24259E+01        -0.60632E-01         0.00000E+00
    0.24255E+01        -0.40413E-01         0.00000E+00
    0.24253E+01        -0.20204E-01         0.00000E+00
    0.24252E+01         0.00000E+00         0.00000E+00
    0.24707E+01        -0.30739E+00         0.00000E+00
    0.24695E+01        -0.28661E+00         0.00000E+00
    0.24682E+01        -0.26588E+00         0.00000E+00
    0.24669E+01        -0.24520E+00         0.00000E+00
    0.24656E+01        -0.22457E+00         0.00000E+00
    0.24643E+01        -0.20399E+00         0.00000E+00
    0.24630E+01        -0.18345E+00         0.00000E+00
    0.24619E+01        -0.16295E+00         0.00000E+00
    0.24608E+01        -0.14250E+00         0.00000E+00
    0.24598E+01        -0.12208E+00         0.00000E+00
    0.24590E+01        -0.10169E+00         0.00000E+00
    0.24583E+01        -0.81319E-01         0.00000E+00
    0.24578E+01        -0.60972E-01         0.00000E+00
    0.24574E+01        -0.40639E-01         0.00000E+00
    0.24571E+01        -0.20317E-01         0.00000E+00
    0.24570E+01         0.00000E+00         0.00000E+00
    0.25047E+01        -0.30957E+00         0.00000E+00
    0.25032E+01        -0.28863E+00         0.00000E+00
    0.25017E+01        -0.26775E+00         0.00000E+00
    0.25001E+01        -0.24693E+00         0.00000E+00
    0.24985E+01        -0.22615E+00         0.00000E+00
    0.24969E+01        -0.20543E+00         0.00000E+00
    0.24955E+01        -0.18475E+00         0.00000E+00
    0.24941E+01        -0.16412E+00         0.00000E+00
    0.24929E+01        -0.14352E+00         0.00000E+00
    0.24918E+01        -0.12296E+00         0.00000E+00
    0.24908E+01        -0.10243E+00         0.00000E+00
    0.24900E+01        -0.81913E-01         0.00000E+00
    0.24894E+01        -0.61419E-01         0.00000E+00
    0.24889E+01        -0.40939E-01         0.00000E+00
    0.24887E+01        -0.20467E-01         0.00000E+00
    0.24886E+01         0.00000E+00         0.00000E+00
    0.25388E+01        -0.31230E+00         0.00000E+00
    0.25369E+01        -0.29118E+00         0.00000E+00
    0.25350E+01        -0.27012E+00         0.00000E+00
    0.25331E+01        -0.24912E+00         0.00000E+00
    0.25312E+01        -0.22817E+00         0.00000E+00
    0.25294E+01        -0.20728E+00         0.00000E+00
    0.25277E+01        -0.18643E+00         0.00000E+00
    0.25261E+01        -0.16562E+00         0.00000E+00
    0.25247E+01        -0.14484E+00         0.00000E+00
    0.25234E+01        -0.12410E+00         0.00000E+00
    0.25224E+01        -0.10338E+00         0.00000E+00
    0.25215E+01        -0.82681E-01         0.00000E+00
    0.25207E+01        -0.61998E-01         0.00000E+00
    0.25202E+01        -0.41326E-01         0.00000E+00
    0.25199E+01        -0.20661E-01         0.00000E+00
    0.25198E+01         0.00000E+00         0.00000E+00
    0.25727E+01        -0.31571E+00         0.00000E+00
    0.25704E+01        -0.29436E+00         0.00000E+00
    0.25681E+01        -0.27308E+00         0.00000E+00
    0.25659E+01        -0.25187E+00         0.00000E+00
    0.25637E+01        -0.23071E+00         0.00000E+00
    0.25616E+01        -0.20960E+00         0.00000E+00
    0.25596E+01        -0.18854E+00         0.00000E+00
    0.25578E+01        -0.16751E+00         0.00000E+00
    0.25562E+01        -0.14652E+00         0.00000E+00
    0.25548E+01        -0.12554E+00         0.00000E+00
    0.25536E+01        -0.10459E+00         0.00000E+00
    0.25526E+01        -0.83656E-01         0.00000E+00
    0.25518E+01        -0.62732E-01         0.00000E+00
    0.25512E+01        -0.41817E-01         0.00000E+00
    0.25509E+01        -0.20907E-01         0.00000E+00
    0.25507E+01         0.00000E+00         0.00000E+00
    0.26066E+01        -0.31990E+00         0.00000E+00
    0.26038E+01        -0.29829E+00         0.00000E+00
    0.26011E+01        -0.27675E+00         0.00000E+00
    0.25984E+01        -0.25528E+00         0.00000E+00
    0.25958E+01        -0.23387E+00         0.00000E+00
    0.25934E+01        -0.21250E+00         0.00000E+00
    0.25912E+01        -0.19117E+00         0.00000E+00
    0.25891E+01        -0.16987E+00         0.00000E+00
    0.25873E+01        -0.14860E+00         0.00000E+00
    0.25857E+01        -0.12734E+00         0.00000E+00
    0.25844E+01        -0.10610E+00         0.00000E+00
    0.25833E+01        -0.84870E-01         0.00000E+00
    0.25824E+01        -0.63647E-01         0.00000E+00
    0.25817E+01        -0.42429E-01         0.00000E+00
    0.25814E+01        -0.21214E-01         0.00000E+00
    0.25812E+01         0.00000E+00         0.00000E+00
    0.26402E+01        -0.32501E+00         0.00000E+00
    0.26369E+01        -0.30308E+00         0.00000E+00
    0.26336E+01        -0.28124E+00         0.00000E+00
    0.26305E+01        -0.25946E+00         0.00000E+00
    0.26276E+01        -0.23773E+00         0.00000E+00
    0.26248E+01        -0.21605E+00         0.00000E+00
    0.26223E+01        -0.19439E+00         0.00000E+00
    0.26200E+01        -0.17276E+00         0.00000E+00
    0.26180E+01        -0.15115E+00         0.00000E+00
    0.26162E+01        -0.12955E+00         0.00000E+00
    0.26147E+01        -0.10795E+00         0.00000E+00
    0.26135E+01        -0.86359E-01         0.00000E+00
    0.26125E+01        -0.64768E-01         0.00000E+00
    0.26118E+01        -0.43179E-01         0.00000E+00
    0.26114E+01        -0.21589E-01         0.00000E+00
    0.26113E+01         0.00000E+00         0.00000E+00
    0.26736E+01        -0.33119E+00         0.00000E+00
    0.26696E+01        -0.30888E+00         0.00000E+00
    0.26658E+01        -0.28666E+00         0.00000E+00
    0.26621E+01        -0.26451E+00         0.00000E+00
    0.26588E+01        -0.24241E+00         0.00000E+00
    0.26557E+01        -0.22034E+00         0.00000E+00
    0.26529E+01        -0.19829E+00         0.00000E+00
    0.26503E+01        -0.17626E+00         0.00000E+00
    0.26481E+01        -0.15423E+00         0.00000E+00
    0.26461E+01        -0.13221E+00         0.00000E+00
    0.26445E+01        -0.11018E+00         0.00000E+00
    0.26432E+01        -0.88152E-01         0.00000E+00
    0.26421E+01        -0.66119E-01         0.00000E+00
    0.26414E+01        -0.44081E-01         0.00000E+00
    0.26409E+01        -0.22041E-01         0.00000E+00
    0.26408E+01         0.00000E+00         0.00000E+00
    0.27064E+01        -0.33855E+00         0.00000E+00
    0.27017E+01        -0.31580E+00         0.00000E+00
    0.26972E+01        -0.29314E+00         0.00000E+00
    0.26931E+01        -0.27054E+00         0.00000E+00
    0.26893E+01        -0.24798E+00         0.00000E+00
    0.26859E+01        -0.22545E+00         0.00000E+00
    0.26827E+01        -0.20293E+00         0.00000E+00
    0.26799E+01        -0.18041E+00         0.00000E+00
    0.26775E+01        -0.15789E+00         0.00000E+00
    0.26754E+01        -0.13536E+00         0.00000E+00
    0.26736E+01        -0.11282E+00         0.00000E+00
    0.26722E+01        -0.90276E-01         0.00000E+00
    0.26711E+01        -0.67716E-01         0.00000E+00
    0.26703E+01        -0.45149E-01         0.00000E+00
    0.26698E+01        -0.22576E-01         0.00000E+00
    0.26696E+01         0.00000E+00         0.00000E+00
    0.27384E+01        -0.34724E+00         0.00000E+00
    0.27330E+01        -0.32396E+00         0.00000E+00
    0.27279E+01        -0.30077E+00         0.00000E+00
    0.27233E+01        -0.27764E+00         0.00000E+00
    0.27190E+01        -0.25454E+00         0.00000E+00
    0.27152E+01        -0.23145E+00         0.00000E+00
    0.27118E+01        -0.20837E+00         0.00000E+00
    0.27088E+01        -0.18527E+00         0.00000E+00
    0.27061E+01        -0.16217E+00         0.00000E+00
    0.27039E+01        -0.13904E+00         0.00000E+00
    0.27020E+01        -0.11590E+00         0.00000E+00
    0.27004E+01        -0.92745E-01         0.00000E+00
    0.26993E+01        -0.69573E-01         0.00000E+00
    0.26984E+01        -0.46389E-01         0.00000E+00
    0.26979E+01        -0.23196E-01         0.00000E+00
    0.26977E+01         0.00000E+00         0.00000E+00
    0.27695E+01        -0.35735E+00         0.00000E+00
    0.27633E+01        -0.33345E+00         0.00000E+00
    0.27576E+01        -0.30963E+00         0.00000E+00
    0.27524E+01        -0.28586E+00         0.00000E+00
    0.27477E+01        -0.26212E+00         0.00000E+00
    0.27435E+01        -0.23837E+00         0.00000E+00
    0.27398E+01        -0.21462E+00         0.00000E+00
    0.27366E+01        -0.19086E+00         0.00000E+00
    0.27338E+01        -0.16707E+00         0.00000E+00
    0.27314E+01        -0.14325E+00         0.00000E+00
    0.27294E+01        -0.11942E+00         0.00000E+00
    0.27278E+01        -0.95562E-01         0.00000E+00
    0.27265E+01        -0.71688E-01         0.00000E+00
    0.27256E+01        -0.47800E-01         0.00000E+00
    0.27251E+01        -0.23902E-01         0.00000E+00
    0.27249E+01         0.00000E+00         0.00000E+00
    0.27993E+01        -0.36895E+00         0.00000E+00
    0.27923E+01        -0.34431E+00         0.00000E+00
    0.27859E+01        -0.31975E+00         0.00000E+00
    0.27802E+01        -0.29523E+00         0.00000E+00
    0.27751E+01        -0.27073E+00         0.00000E+00
    0.27706E+01        -0.24622E+00         0.00000E+00
    0.27667E+01        -0.22169E+00         0.00000E+00
    0.27632E+01        -0.19714E+00         0.00000E+00
    0.27603E+01        -0.17257E+00         0.00000E+00
    0.27577E+01        -0.14797E+00         0.00000E+00
    0.27557E+01        -0.12335E+00         0.00000E+00
    0.27540E+01        -0.98708E-01         0.00000E+00
    0.27527E+01        -0.74047E-01         0.00000E+00
    0.27518E+01        -0.49372E-01         0.00000E+00
    0.27512E+01        -0.24689E-01         0.00000E+00
    0.27511E+01         0.00000E+00         0.00000E+00
    0.28275E+01        -0.38203E+00         0.00000E+00
    0.28197E+01        -0.35653E+00         0.00000E+00
    0.28127E+01        -0.33110E+00         0.00000E+00
    0.28065E+01        -0.30570E+00         0.00000E+00
    0.28011E+01        -0.28031E+00         0.00000E+00
    0.27963E+01        -0.25492E+00         0.00000E+00
    0.27921E+01        -0.22950E+00         0.00000E+00
    0.27885E+01        -0.20407E+00         0.00000E+00
    0.27854E+01        -0.17862E+00         0.00000E+00
    0.27828E+01        -0.15314E+00         0.00000E+00
    0.27806E+01        -0.12765E+00         0.00000E+00
    0.27789E+01        -0.10214E+00         0.00000E+00
    0.27775E+01        -0.76618E-01         0.00000E+00
    0.27766E+01        -0.51085E-01         0.00000E+00
    0.27761E+01        -0.25544E-01         0.00000E+00
    0.27759E+01         0.00000E+00         0.00000E+00
    0.28536E+01        -0.39649E+00         0.00000E+00
    0.28451E+01        -0.37000E+00         0.00000E+00
    0.28376E+01        -0.34356E+00         0.00000E+00
    0.28310E+01        -0.31715E+00         0.00000E+00
    0.28252E+01        -0.29074E+00         0.00000E+00
    0.28202E+01        -0.26434E+00         0.00000E+00
    0.28158E+01        -0.23794E+00         0.00000E+00
    0.28121E+01        -0.21152E+00         0.00000E+00
    0.28089E+01        -0.18510E+00         0.00000E+00
    0.28062E+01        -0.15867E+00         0.00000E+00
    0.28040E+01        -0.13223E+00         0.00000E+00
    0.28022E+01        -0.10579E+00         0.00000E+00
    0.28009E+01        -0.79347E-01         0.00000E+00
    0.27999E+01        -0.52899E-01         0.00000E+00
    0.27993E+01        -0.26450E-01         0.00000E+00
    0.27992E+01         0.00000E+00         0.00000E+00
    0.28772E+01        -0.41213E+00         0.00000E+00
    0.28682E+01        -0.38449E+00         0.00000E+00
    0.28603E+01        -0.35690E+00         0.00000E+00
    0.28534E+01        -0.32933E+00         0.00000E+00
    0.28474E+01        -0.30180E+00         0.00000E+00
    0.28422E+01        -0.27428E+00         0.00000E+00
    0.28376E+01        -0.24678E+00         0.00000E+00
    0.28338E+01        -0.21930E+00         0.00000E+00
    0.28305E+01        -0.19184E+00         0.00000E+00
    0.28278E+01        -0.16440E+00         0.00000E+00
    0.28255E+01        -0.13697E+00         0.00000E+00
    0.28237E+01        -0.10955E+00         0.00000E+00
    0.28223E+01        -0.82154E-01         0.00000E+00
    0.28214E+01        -0.54763E-01         0.00000E+00
    0.28208E+01        -0.27380E-01         0.00000E+00
    0.28206E+01         0.00000E+00         0.00000E+00
    0.28980E+01        -0.42860E+00         0.00000E+00
    0.28886E+01        -0.39966E+00         0.00000E+00
    0.28805E+01        -0.37076E+00         0.00000E+00
    0.28734E+01        -0.34192E+00         0.00000E+00
    0.28672E+01        -0.31314E+00         0.00000E+00
    0.28618E+01        -0.28442E+00         0.00000E+00
    0.28572E+01        -0.25575E+00         0.00000E+00
    0.28533E+01        -0.22715E+00         0.00000E+00
    0.28500E+01        -0.19861E+00         0.00000E+00
    0.28472E+01        -0.17012E+00         0.00000E+00
    0.28449E+01        -0.14168E+00         0.00000E+00
    0.28430E+01        -0.11329E+00         0.00000E+00
    0.28417E+01        -0.84931E-01         0.00000E+00
    0.28407E+01        -0.56604E-01         0.00000E+00
    0.28401E+01        -0.28297E-01         0.00000E+00
    0.28399E+01         0.00000E+00         0.00000E+00
    0.29158E+01        -0.44541E+00         0.00000E+00
    0.29063E+01        -0.41502E+00         0.00000E+00
    0.28980E+01        -0.38470E+00         0.00000E+00
    0.28907E+01        -0.35447E+00         0.00000E+00
    0.28844E+01        -0.32435E+00         0.00000E+00
    0.28790E+01        -0.29434E+00         0.00000E+00
    0.28743E+01        -0.26447E+00         0.00000E+00
    0.28703E+01        -0.23471E+00         0.00000E+00
    0.28669E+01        -0.20508E+00         0.00000E+00
    0.28641E+01        -0.17556E+00         0.00000E+00
    0.28618E+01        -0.14614E+00         0.00000E+00
    0.28599E+01        -0.11681E+00         0.00000E+00
    0.28585E+01        -0.87542E-01         0.00000E+00
    0.28575E+01        -0.58331E-01         0.00000E+00
    0.28569E+01        -0.29156E-01         0.00000E+00
    0.28567E+01         0.00000E+00         0.00000E+00
    0.29305E+01        -0.46219E+00         0.00000E+00
    0.29210E+01        -0.43015E+00         0.00000E+00
    0.29127E+01        -0.39820E+00         0.00000E+00
    0.29053E+01        -0.36642E+00         0.00000E+00
    0.28989E+01        -0.33485E+00         0.00000E+00
    0.28934E+01        -0.30352E+00         0.00000E+00
    0.28886E+01        -0.27242E+00         0.00000E+00
    0.28846E+01        -0.24154E+00         0.00000E+00
    0.28811E+01        -0.21087E+00         0.00000E+00
    0.28782E+01        -0.18039E+00         0.00000E+00
    0.28758E+01        -0.15007E+00         0.00000E+00
    0.28740E+01        -0.11989E+00         0.00000E+00
    0.28725E+01        -0.89819E-01         0.00000E+00
    0.28715E+01        -0.59833E-01         0.00000E+00
    0.28709E+01        -0.29903E-01         0.00000E+00
    0.28707E+01         0.00000E+00         0.00000E+00
CELL_DATA       1350
VECTORS vDarcy double 
    0.12797E-12         0.24740E-13         0.00000E+00
    0.12734E-12         0.69020E-13         0.00000E+00
    0.12615E-12         0.10583E-12         0.00000E+00
    0.12449E-12         0.13492E-12         0.00000E+00
    0.12247E-12         0.15621E-12         0.00000E+00
    0.12020E-12         0.16972E-12         0.00000E+00
    0.11777E-12         0.17565E-12         0.00000E+00
    0.11529E-12         0.17433E-12         0.00000E+00
    0.11287E-12         0.16621E-12         0.00000E+00
    0.11060E-12         0.15191E-12         0.00000E+00
    0.10857E-12         0.13215E-12         0.00000E+00
    0.10685E-12         0.10776E-12         0.00000E+00
    0.10550E-12         0.79682E-13         0.00000E+00
    0.10458E-12         0.48903E-13         0.00000E+00
    0.10411E-12         0.16484E-13         0.00000E+00
    0.38934E-12         0.25860E-13         0.00000E+00
    0.38740E-12         0.72181E-13         0.00000E+00
    0.38376E-12         0.11072E-12         0.00000E+00
    0.37870E-12         0.14123E-12         0.00000E+00
    0.37252E-12         0.16356E-12         0.00000E+00
    0.36556E-12         0.17777E-12         0.00000E+00
    0.35813E-12         0.18403E-12         0.00000E+00
    0.35057E-12         0.18268E-12         0.00000E+00
    0.34317E-12         0.17421E-12         0.00000E+00
    0.33624E-12         0.15925E-12         0.00000E+00
    0.33002E-12         0.13855E-12         0.00000E+00
    0.32476E-12         0.11300E-12         0.00000E+00
    0.32065E-12         0.83557E-13         0.00000E+00
    0.31782E-12         0.51284E-13         0.00000E+00
    0.31638E-12         0.17288E-13         0.00000E+00
    0.66720E-12         0.28166E-13         0.00000E+00
    0.66385E-12         0.78687E-13         0.00000E+00
    0.65754E-12         0.12080E-12         0.00000E+00
    0.64877E-12         0.15419E-12         0.00000E+00
    0.63809E-12         0.17870E-12         0.00000E+00
    0.62604E-12         0.19433E-12         0.00000E+00
    0.61319E-12         0.20126E-12         0.00000E+00
    0.60010E-12         0.19987E-12         0.00000E+00
    0.58731E-12         0.19067E-12         0.00000E+00
    0.57531E-12         0.17434E-12         0.00000E+00
    0.56457E-12         0.15172E-12         0.00000E+00
    0.55547E-12         0.12376E-12         0.00000E+00
    0.54835E-12         0.91528E-13         0.00000E+00
    0.54346E-12         0.56181E-13         0.00000E+00
    0.54097E-12         0.18939E-13         0.00000E+00
    0.97328E-12         0.31793E-13         0.00000E+00
    0.96831E-12         0.88919E-13         0.00000E+00
    0.95898E-12         0.13665E-12         0.00000E+00
    0.94600E-12         0.17458E-12         0.00000E+00
    0.93019E-12         0.20248E-12         0.00000E+00
    0.91236E-12         0.22034E-12         0.00000E+00
    0.89336E-12         0.22834E-12         0.00000E+00
    0.87400E-12         0.22687E-12         0.00000E+00
    0.85508E-12         0.21652E-12         0.00000E+00
    0.83735E-12         0.19804E-12         0.00000E+00
    0.82147E-12         0.17239E-12         0.00000E+00
    0.80802E-12         0.14065E-12         0.00000E+00
    0.79750E-12         0.10404E-12         0.00000E+00
    0.79027E-12         0.63868E-13         0.00000E+00
    0.78659E-12         0.21531E-13         0.00000E+00
    0.13204E-11         0.36952E-13         0.00000E+00
    0.13136E-11         0.10347E-12         0.00000E+00
    0.13007E-11         0.15918E-12         0.00000E+00
    0.12827E-11         0.20355E-12         0.00000E+00
    0.12609E-11         0.23627E-12         0.00000E+00
    0.12363E-11         0.25729E-12         0.00000E+00
    0.12100E-11         0.26679E-12         0.00000E+00
    0.11833E-11         0.26520E-12         0.00000E+00
    0.11572E-11         0.25321E-12         0.00000E+00
    0.11328E-11         0.23168E-12         0.00000E+00
    0.11109E-11         0.20173E-12         0.00000E+00
    0.10923E-11         0.16463E-12         0.00000E+00
    0.10778E-11         0.12179E-12         0.00000E+00
    0.10678E-11         0.74773E-13         0.00000E+00
    0.10628E-11         0.25209E-13         0.00000E+00
    0.17232E-11         0.43944E-13         0.00000E+00
    0.17141E-11         0.12318E-12         0.00000E+00
    0.16969E-11         0.18969E-12         0.00000E+00
    0.16730E-11         0.24277E-12         0.00000E+00
    0.16438E-11         0.28200E-12         0.00000E+00
    0.16110E-11         0.30727E-12         0.00000E+00
    0.15761E-11         0.31877E-12         0.00000E+00
    0.15405E-11         0.31702E-12         0.00000E+00
    0.15058E-11         0.30278E-12         0.00000E+00
    0.14732E-11         0.27713E-12         0.00000E+00
    0.14441E-11         0.24136E-12         0.00000E+00
    0.14195E-11         0.19700E-12         0.00000E+00
    0.14002E-11         0.14576E-12         0.00000E+00
    0.13869E-11         0.89496E-13         0.00000E+00
    0.13802E-11         0.30174E-13         0.00000E+00
    0.21984E-11         0.53171E-13         0.00000E+00
    0.21864E-11         0.14918E-12         0.00000E+00
    0.21639E-11         0.22991E-12         0.00000E+00
    0.21327E-11         0.29444E-12         0.00000E+00
    0.20947E-11         0.34221E-12         0.00000E+00
    0.20519E-11         0.37305E-12         0.00000E+00
    0.20063E-11         0.38718E-12         0.00000E+00
    0.19599E-11         0.38517E-12         0.00000E+00
    0.19147E-11         0.36797E-12         0.00000E+00
    0.18722E-11         0.33687E-12         0.00000E+00
    0.18343E-11         0.29344E-12         0.00000E+00
    0.18022E-11         0.23954E-12         0.00000E+00
    0.17771E-11         0.17725E-12         0.00000E+00
    0.17598E-11         0.10884E-12         0.00000E+00
    0.17510E-11         0.36696E-13         0.00000E+00
    0.27657E-11         0.65162E-13         0.00000E+00
    0.27502E-11         0.18295E-12         0.00000E+00
    0.27211E-11         0.28211E-12         0.00000E+00
    0.26809E-11         0.36145E-12         0.00000E+00
    0.26318E-11         0.42025E-12         0.00000E+00
    0.25767E-11         0.45827E-12         0.00000E+00
    0.25180E-11         0.47574E-12         0.00000E+00
    0.24583E-11         0.47337E-12         0.00000E+00
    0.24001E-11         0.45230E-12         0.00000E+00
    0.23455E-11         0.41412E-12         0.00000E+00
    0.22967E-11         0.36076E-12         0.00000E+00
    0.22555E-11         0.29452E-12         0.00000E+00
    0.22232E-11         0.21794E-12         0.00000E+00
    0.22010E-11         0.13383E-12         0.00000E+00
    0.21897E-11         0.45123E-13         0.00000E+00
    0.34485E-11         0.80592E-13         0.00000E+00
    0.34287E-11         0.22636E-12         0.00000E+00
    0.33915E-11         0.34916E-12         0.00000E+00
    0.33399E-11         0.44748E-12         0.00000E+00
    0.32772E-11         0.52037E-12         0.00000E+00
    0.32068E-11         0.56752E-12         0.00000E+00
    0.31318E-11         0.58921E-12         0.00000E+00
    0.30556E-11         0.58631E-12         0.00000E+00
    0.29814E-11         0.56025E-12         0.00000E+00
    0.29118E-11         0.51297E-12         0.00000E+00
    0.28496E-11         0.44688E-12         0.00000E+00
    0.27971E-11         0.36482E-12         0.00000E+00
    0.27559E-11         0.26997E-12         0.00000E+00
    0.27277E-11         0.16578E-12         0.00000E+00
    0.27134E-11         0.55895E-13         0.00000E+00
    0.42750E-11         0.10032E-12         0.00000E+00
    0.42497E-11         0.28180E-12         0.00000E+00
    0.42024E-11         0.43472E-12         0.00000E+00
    0.41368E-11         0.55715E-12         0.00000E+00
    0.40571E-11         0.64791E-12         0.00000E+00
    0.39676E-11         0.70659E-12         0.00000E+00
    0.38725E-11         0.73356E-12         0.00000E+00
    0.37759E-11         0.72991E-12         0.00000E+00
    0.36818E-11         0.69741E-12         0.00000E+00
    0.35937E-11         0.63851E-12         0.00000E+00
    0.35149E-11         0.55622E-12         0.00000E+00
    0.34484E-11         0.45406E-12         0.00000E+00
    0.33963E-11         0.33599E-12         0.00000E+00
    0.33606E-11         0.20631E-12         0.00000E+00
    0.33424E-11         0.69561E-13         0.00000E+00
    0.52793E-11         0.12541E-12         0.00000E+00
    0.52472E-11         0.35226E-12         0.00000E+00
    0.51872E-11         0.54334E-12         0.00000E+00
    0.51041E-11         0.69624E-12         0.00000E+00
    0.50034E-11         0.80951E-12         0.00000E+00
    0.48902E-11         0.88267E-12         0.00000E+00
    0.47701E-11         0.91619E-12         0.00000E+00
    0.46482E-11         0.91146E-12         0.00000E+00
    0.45295E-11         0.87074E-12         0.00000E+00
    0.44184E-11         0.79708E-12         0.00000E+00
    0.43192E-11         0.69426E-12         0.00000E+00
    0.42354E-11         0.56669E-12         0.00000E+00
    0.41698E-11         0.41930E-12         0.00000E+00
    0.41249E-11         0.25745E-12         0.00000E+00
    0.41020E-11         0.86801E-13         0.00000E+00
    0.65027E-11         0.15721E-12         0.00000E+00
    0.64622E-11         0.44144E-12         0.00000E+00
    0.63864E-11         0.68066E-12         0.00000E+00
    0.62816E-11         0.87190E-12         0.00000E+00
    0.61547E-11         0.10134E-11         0.00000E+00
    0.60123E-11         0.11046E-11         0.00000E+00
    0.58612E-11         0.11462E-11         0.00000E+00
    0.57080E-11         0.11400E-11         0.00000E+00
    0.55589E-11         0.10888E-11         0.00000E+00
    0.54195E-11         0.99643E-12         0.00000E+00
    0.52950E-11         0.86773E-12         0.00000E+00
    0.51899E-11         0.70817E-12         0.00000E+00
    0.51077E-11         0.52392E-12         0.00000E+00
    0.50514E-11         0.32166E-12         0.00000E+00
    0.50227E-11         0.10845E-12         0.00000E+00
    0.79958E-11         0.19737E-12         0.00000E+00
    0.79448E-11         0.55390E-12         0.00000E+00
    0.78493E-11         0.85361E-12         0.00000E+00
    0.77177E-11         0.10929E-11         0.00000E+00
    0.75584E-11         0.12696E-11         0.00000E+00
    0.73798E-11         0.13833E-11         0.00000E+00
    0.71906E-11         0.14348E-11         0.00000E+00
    0.69988E-11         0.14264E-11         0.00000E+00
    0.68122E-11         0.13619E-11         0.00000E+00
    0.66379E-11         0.12460E-11         0.00000E+00
    0.64824E-11         0.10848E-11         0.00000E+00
    0.63511E-11         0.88516E-12         0.00000E+00
    0.62486E-11         0.65476E-12         0.00000E+00
    0.61782E-11         0.40195E-12         0.00000E+00
    0.61425E-11         0.13551E-12         0.00000E+00
    0.98204E-11         0.24791E-12         0.00000E+00
    0.97563E-11         0.69523E-12         0.00000E+00
    0.96367E-11         0.10707E-11         0.00000E+00
    0.94719E-11         0.13699E-11         0.00000E+00
    0.92726E-11         0.15904E-11         0.00000E+00
    0.90495E-11         0.17318E-11         0.00000E+00
    0.88133E-11         0.17954E-11         0.00000E+00
    0.85741E-11         0.17841E-11         0.00000E+00
    0.83416E-11         0.17027E-11         0.00000E+00
    0.81246E-11         0.15573E-11         0.00000E+00
    0.79310E-11         0.13554E-11         0.00000E+00
    0.77676E-11         0.11057E-11         0.00000E+00
    0.76401E-11         0.81775E-12         0.00000E+00
    0.75526E-11         0.50195E-12         0.00000E+00
    0.75082E-11         0.16921E-12         0.00000E+00
    0.12052E-10         0.31129E-12         0.00000E+00
    0.11972E-10         0.87222E-12         0.00000E+00
    0.11823E-10         0.13421E-11         0.00000E+00
    0.11617E-10         0.17158E-11         0.00000E+00
    0.11369E-10         0.19906E-11         0.00000E+00
    0.11091E-10         0.21662E-11         0.00000E+00
    0.10797E-10         0.22443E-11         0.00000E+00
    0.10500E-10         0.22290E-11         0.00000E+00
    0.10212E-10         0.21263E-11         0.00000E+00
    0.99423E-11         0.19440E-11         0.00000E+00
    0.97023E-11         0.16914E-11         0.00000E+00
    0.94998E-11         0.13794E-11         0.00000E+00
    0.93418E-11         0.10200E-11         0.00000E+00
    0.92335E-11         0.62600E-12         0.00000E+00
    0.91784E-11         0.21102E-12         0.00000E+00
    0.14785E-10         0.39049E-12         0.00000E+00
    0.14685E-10         0.10931E-11         0.00000E+00
    0.14499E-10         0.16803E-11         0.00000E+00
    0.14243E-10         0.21463E-11         0.00000E+00
    0.13935E-10         0.24880E-11         0.00000E+00
    0.13591E-10         0.27054E-11         0.00000E+00
    0.13227E-10         0.28011E-11         0.00000E+00
    0.12859E-10         0.27804E-11         0.00000E+00
    0.12502E-10         0.26509E-11         0.00000E+00
    0.12169E-10         0.24225E-11         0.00000E+00
    0.11873E-10         0.21070E-11         0.00000E+00
    0.11623E-10         0.17178E-11         0.00000E+00
    0.11428E-10         0.12700E-11         0.00000E+00
    0.11294E-10         0.77930E-12         0.00000E+00
    0.11226E-10         0.26267E-12         0.00000E+00
    0.18133E-10         0.48911E-12         0.00000E+00
    0.18009E-10         0.13676E-11         0.00000E+00
    0.17778E-10         0.21001E-11         0.00000E+00
    0.17462E-10         0.26798E-11         0.00000E+00
    0.17081E-10         0.31038E-11         0.00000E+00
    0.16655E-10         0.33723E-11         0.00000E+00
    0.16206E-10         0.34890E-11         0.00000E+00
    0.15753E-10         0.34610E-11         0.00000E+00
    0.15313E-10         0.32980E-11         0.00000E+00
    0.14904E-10         0.30124E-11         0.00000E+00
    0.14539E-10         0.26190E-11         0.00000E+00
    0.14232E-10         0.21346E-11         0.00000E+00
    0.13992E-10         0.15777E-11         0.00000E+00
    0.13828E-10         0.96800E-12         0.00000E+00
    0.13744E-10         0.32625E-12         0.00000E+00
    0.22238E-10         0.61141E-12         0.00000E+00
    0.22085E-10         0.17075E-11         0.00000E+00
    0.21800E-10         0.26191E-11         0.00000E+00
    0.21410E-10         0.33386E-11         0.00000E+00
    0.20941E-10         0.38631E-11         0.00000E+00
    0.20417E-10         0.41937E-11         0.00000E+00
    0.19866E-10         0.43356E-11         0.00000E+00
    0.19309E-10         0.42978E-11         0.00000E+00
    0.18770E-10         0.40930E-11         0.00000E+00
    0.18268E-10         0.37367E-11         0.00000E+00
    0.17821E-10         0.32474E-11         0.00000E+00
    0.17444E-10         0.26459E-11         0.00000E+00
    0.17151E-10         0.19551E-11         0.00000E+00
    0.16950E-10         0.11993E-11         0.00000E+00
    0.16848E-10         0.40418E-12         0.00000E+00
    0.27277E-10         0.76248E-12         0.00000E+00
    0.27088E-10         0.21267E-11         0.00000E+00
    0.26738E-10         0.32581E-11         0.00000E+00
    0.26259E-10         0.41487E-11         0.00000E+00
    0.25683E-10         0.47956E-11         0.00000E+00
    0.25042E-10         0.52013E-11         0.00000E+00
    0.24366E-10         0.53730E-11         0.00000E+00
    0.23686E-10         0.53225E-11         0.00000E+00
    0.23027E-10         0.50657E-11         0.00000E+00
    0.22414E-10         0.46223E-11         0.00000E+00
    0.21869E-10         0.40153E-11         0.00000E+00
    0.21410E-10         0.32704E-11         0.00000E+00
    0.21052E-10         0.24159E-11         0.00000E+00
    0.20807E-10         0.14818E-11         0.00000E+00
    0.20682E-10         0.49933E-12         0.00000E+00
    0.33465E-10         0.94829E-12         0.00000E+00
    0.33234E-10         0.26414E-11         0.00000E+00
    0.32805E-10         0.40417E-11         0.00000E+00
    0.32219E-10         0.51406E-11         0.00000E+00
    0.31515E-10         0.59361E-11         0.00000E+00
    0.30734E-10         0.64323E-11         0.00000E+00
    0.29911E-10         0.66391E-11         0.00000E+00
    0.29082E-10         0.65719E-11         0.00000E+00
    0.28280E-10         0.62509E-11         0.00000E+00
    0.27535E-10         0.57007E-11         0.00000E+00
    0.26872E-10         0.49499E-11         0.00000E+00
    0.26315E-10         0.40302E-11         0.00000E+00
    0.25880E-10         0.29764E-11         0.00000E+00
    0.25583E-10         0.18253E-11         0.00000E+00
    0.25432E-10         0.61501E-12         0.00000E+00
    0.41073E-10         0.11758E-11         0.00000E+00
    0.40790E-10         0.32708E-11         0.00000E+00
    0.40267E-10         0.49983E-11         0.00000E+00
    0.39554E-10         0.63499E-11         0.00000E+00
    0.38698E-10         0.73248E-11         0.00000E+00
    0.37749E-10         0.79296E-11         0.00000E+00
    0.36750E-10         0.81778E-11         0.00000E+00
    0.35745E-10         0.80891E-11         0.00000E+00
    0.34774E-10         0.76890E-11         0.00000E+00
    0.33871E-10         0.70085E-11         0.00000E+00
    0.33070E-10         0.60826E-11         0.00000E+00
    0.32395E-10         0.49508E-11         0.00000E+00
    0.31870E-10         0.36553E-11         0.00000E+00
    0.31511E-10         0.22412E-11         0.00000E+00
    0.31328E-10         0.75509E-12         0.00000E+00
    0.50433E-10         0.14532E-11         0.00000E+00
    0.50090E-10         0.40369E-11         0.00000E+00
    0.49455E-10         0.61611E-11         0.00000E+00
    0.48590E-10         0.78179E-11         0.00000E+00
    0.47555E-10         0.90087E-11         0.00000E+00
    0.46406E-10         0.97433E-11         0.00000E+00
    0.45199E-10         0.10040E-10         0.00000E+00
    0.43986E-10         0.99235E-11         0.00000E+00
    0.42814E-10         0.94267E-11         0.00000E+00
    0.41726E-10         0.85877E-11         0.00000E+00
    0.40760E-10         0.74499E-11         0.00000E+00
    0.39948E-10         0.60615E-11         0.00000E+00
    0.39315E-10         0.44742E-11         0.00000E+00
    0.38883E-10         0.27428E-11         0.00000E+00
    0.38663E-10         0.92400E-12         0.00000E+00
    0.61962E-10         0.17899E-11         0.00000E+00
    0.61546E-10         0.49652E-11         0.00000E+00
    0.60779E-10         0.75681E-11         0.00000E+00
    0.59736E-10         0.95921E-11         0.00000E+00
    0.58487E-10         0.11041E-10         0.00000E+00
    0.57104E-10         0.11931E-10         0.00000E+00
    0.55652E-10         0.12283E-10         0.00000E+00
    0.54194E-10         0.12132E-10         0.00000E+00
    0.52786E-10         0.11518E-10         0.00000E+00
    0.51480E-10         0.10487E-10         0.00000E+00
    0.50320E-10         0.90935E-11         0.00000E+00
    0.49346E-10         0.73961E-11         0.00000E+00
    0.48587E-10         0.54579E-11         0.00000E+00
    0.48068E-10         0.33452E-11         0.00000E+00
    0.47805E-10         0.11269E-11         0.00000E+00
    0.76173E-10         0.21965E-11         0.00000E+00
    0.75673E-10         0.60849E-11         0.00000E+00
    0.74750E-10         0.92630E-11         0.00000E+00
    0.73496E-10         0.11727E-10         0.00000E+00
    0.71998E-10         0.13485E-10         0.00000E+00
    0.70339E-10         0.14557E-10         0.00000E+00
    0.68600E-10         0.14975E-10         0.00000E+00
    0.66854E-10         0.14781E-10         0.00000E+00
    0.65170E-10         0.14023E-10         0.00000E+00
    0.63608E-10         0.12762E-10         0.00000E+00
    0.62222E-10         0.11061E-10         0.00000E+00
    0.61057E-10         0.89936E-11         0.00000E+00
    0.60151E-10         0.66351E-11         0.00000E+00
    0.59531E-10         0.40660E-11         0.00000E+00
    0.59216E-10         0.13696E-11         0.00000E+00
    0.93708E-10         0.26853E-11         0.00000E+00
    0.93108E-10         0.74293E-11         0.00000E+00
    0.92004E-10         0.11296E-10         0.00000E+00
    0.90504E-10         0.14284E-10         0.00000E+00
    0.88713E-10         0.16409E-10         0.00000E+00
    0.86733E-10         0.17698E-10         0.00000E+00
    0.84657E-10         0.18192E-10         0.00000E+00
    0.82575E-10         0.17944E-10         0.00000E+00
    0.80568E-10         0.17014E-10         0.00000E+00
    0.78707E-10         0.15476E-10         0.00000E+00
    0.77056E-10         0.13408E-10         0.00000E+00
    0.75670E-10         0.10898E-10         0.00000E+00
    0.74591E-10         0.80383E-11         0.00000E+00
    0.73854E-10         0.49252E-11         0.00000E+00
    0.73479E-10         0.16588E-11         0.00000E+00
    0.11536E-09         0.32703E-11         0.00000E+00
    0.11465E-09         0.90363E-11         0.00000E+00
    0.11333E-09         0.13723E-10         0.00000E+00
    0.11154E-09         0.17335E-10         0.00000E+00
    0.10941E-09         0.19894E-10         0.00000E+00
    0.10706E-09         0.21439E-10         0.00000E+00
    0.10459E-09         0.22022E-10         0.00000E+00
    0.10212E-09         0.21707E-10         0.00000E+00
    0.99733E-10         0.20571E-10         0.00000E+00
    0.97524E-10         0.18702E-10         0.00000E+00
    0.95565E-10         0.16197E-10         0.00000E+00
    0.93920E-10         0.13161E-10         0.00000E+00
    0.92641E-10         0.97054E-11         0.00000E+00
    0.91766E-10         0.59457E-11         0.00000E+00
    0.91321E-10         0.20024E-11         0.00000E+00
    0.14213E-09         0.39673E-11         0.00000E+00
    0.14128E-09         0.10949E-10         0.00000E+00
    0.13972E-09         0.16609E-10         0.00000E+00
    0.13760E-09         0.20959E-10         0.00000E+00
    0.13507E-09         0.24033E-10         0.00000E+00
    0.13228E-09         0.25879E-10         0.00000E+00
    0.12936E-09         0.26564E-10         0.00000E+00
    0.12643E-09         0.26168E-10         0.00000E+00
    0.12361E-09         0.24786E-10         0.00000E+00
    0.12099E-09         0.22525E-10         0.00000E+00
    0.11867E-09         0.19502E-10         0.00000E+00
    0.11673E-09         0.15842E-10         0.00000E+00
    0.11521E-09         0.11680E-10         0.00000E+00
    0.11418E-09         0.71543E-11         0.00000E+00
    0.11365E-09         0.24093E-11         0.00000E+00
    0.17523E-09         0.47939E-11         0.00000E+00
    0.17423E-09         0.13215E-10         0.00000E+00
    0.17238E-09         0.20026E-10         0.00000E+00
    0.16988E-09         0.25250E-10         0.00000E+00
    0.16689E-09         0.28929E-10         0.00000E+00
    0.16359E-09         0.31130E-10         0.00000E+00
    0.16014E-09         0.31934E-10         0.00000E+00
    0.15669E-09         0.31442E-10         0.00000E+00
    0.15335E-09         0.29768E-10         0.00000E+00
    0.15027E-09         0.27043E-10         0.00000E+00
    0.14753E-09         0.23406E-10         0.00000E+00
    0.14524E-09         0.19009E-10         0.00000E+00
    0.14345E-09         0.14012E-10         0.00000E+00
    0.14223E-09         0.85820E-11         0.00000E+00
    0.14161E-09         0.28899E-11         0.00000E+00
    0.21621E-09         0.57703E-11         0.00000E+00
    0.21502E-09         0.15892E-10         0.00000E+00
    0.21285E-09         0.24060E-10         0.00000E+00
    0.20989E-09         0.30311E-10         0.00000E+00
    0.20638E-09         0.34704E-10         0.00000E+00
    0.20249E-09         0.37322E-10         0.00000E+00
    0.19843E-09         0.38266E-10         0.00000E+00
    0.19436E-09         0.37660E-10         0.00000E+00
    0.19043E-09         0.35642E-10         0.00000E+00
    0.18680E-09         0.32369E-10         0.00000E+00
    0.18358E-09         0.28009E-10         0.00000E+00
    0.18087E-09         0.22743E-10         0.00000E+00
    0.17877E-09         0.16762E-10         0.00000E+00
    0.17733E-09         0.10265E-10         0.00000E+00
    0.17660E-09         0.34566E-11         0.00000E+00
    0.26695E-09         0.69195E-11         0.00000E+00
    0.26556E-09         0.19041E-10         0.00000E+00
    0.26300E-09         0.28806E-10         0.00000E+00
    0.25953E-09         0.36266E-10         0.00000E+00
    0.25540E-09         0.41499E-10         0.00000E+00
    0.25083E-09         0.44608E-10         0.00000E+00
    0.24605E-09         0.45718E-10         0.00000E+00
    0.24126E-09         0.44978E-10         0.00000E+00
    0.23665E-09         0.42557E-10         0.00000E+00
    0.23237E-09         0.38640E-10         0.00000E+00
    0.22858E-09         0.33429E-10         0.00000E+00
    0.22539E-09         0.27140E-10         0.00000E+00
    0.22291E-09         0.20001E-10         0.00000E+00
    0.22122E-09         0.12248E-10         0.00000E+00
    0.22036E-09         0.41241E-11         0.00000E+00
    0.32981E-09         0.82680E-11         0.00000E+00
    0.32817E-09         0.22736E-10         0.00000E+00
    0.32517E-09         0.34377E-10         0.00000E+00
    0.32110E-09         0.43259E-10         0.00000E+00
    0.31625E-09         0.49481E-10         0.00000E+00
    0.31089E-09         0.53170E-10         0.00000E+00
    0.30528E-09         0.54478E-10         0.00000E+00
    0.29965E-09         0.53585E-10         0.00000E+00
    0.29422E-09         0.50692E-10         0.00000E+00
    0.28919E-09         0.46020E-10         0.00000E+00
    0.28472E-09         0.39809E-10         0.00000E+00
    0.28097E-09         0.32318E-10         0.00000E+00
    0.27805E-09         0.23816E-10         0.00000E+00
    0.27606E-09         0.14584E-10         0.00000E+00
    0.27504E-09         0.49104E-11         0.00000E+00
    0.40769E-09         0.98465E-11         0.00000E+00
    0.40578E-09         0.27065E-10         0.00000E+00
    0.40226E-09         0.40907E-10         0.00000E+00
    0.39749E-09         0.51461E-10         0.00000E+00
    0.39180E-09         0.58850E-10         0.00000E+00
    0.38551E-09         0.63227E-10         0.00000E+00
    0.37891E-09         0.64776E-10         0.00000E+00
    0.37228E-09         0.63710E-10         0.00000E+00
    0.36589E-09         0.60267E-10         0.00000E+00
    0.35997E-09         0.54711E-10         0.00000E+00
    0.35470E-09         0.47328E-10         0.00000E+00
    0.35028E-09         0.38421E-10         0.00000E+00
    0.34684E-09         0.28313E-10         0.00000E+00
    0.34448E-09         0.17338E-10         0.00000E+00
    0.34329E-09         0.58378E-11         0.00000E+00
    0.50419E-09         0.11692E-10         0.00000E+00
    0.50196E-09         0.32131E-10         0.00000E+00
    0.49784E-09         0.48558E-10         0.00000E+00
    0.49225E-09         0.61083E-10         0.00000E+00
    0.48556E-09         0.69854E-10         0.00000E+00
    0.47816E-09         0.75053E-10         0.00000E+00
    0.47039E-09         0.76898E-10         0.00000E+00
    0.46258E-09         0.75639E-10         0.00000E+00
    0.45504E-09         0.71559E-10         0.00000E+00
    0.44804E-09         0.64969E-10         0.00000E+00
    0.44182E-09         0.56206E-10         0.00000E+00
    0.43659E-09         0.45633E-10         0.00000E+00
    0.43251E-09         0.33630E-10         0.00000E+00
    0.42973E-09         0.20595E-10         0.00000E+00
    0.42831E-09         0.69345E-11         0.00000E+00
    0.62376E-09         0.13849E-10         0.00000E+00
    0.62114E-09         0.38062E-10         0.00000E+00
    0.61631E-09         0.57532E-10         0.00000E+00
    0.60974E-09         0.72388E-10         0.00000E+00
    0.60187E-09         0.82804E-10         0.00000E+00
    0.59314E-09         0.88992E-10         0.00000E+00
    0.58396E-09         0.91205E-10         0.00000E+00
    0.57472E-09         0.89738E-10         0.00000E+00
    0.56579E-09         0.84920E-10         0.00000E+00
    0.55748E-09         0.77118E-10         0.00000E+00
    0.55010E-09         0.66732E-10         0.00000E+00
    0.54388E-09         0.54189E-10         0.00000E+00
    0.53904E-09         0.39941E-10         0.00000E+00
    0.53572E-09         0.24462E-10         0.00000E+00
    0.53403E-09         0.82370E-11         0.00000E+00
    0.77184E-09         0.16374E-10         0.00000E+00
    0.76877E-09         0.45022E-10         0.00000E+00
    0.76309E-09         0.68085E-10         0.00000E+00
    0.75534E-09         0.85713E-10         0.00000E+00
    0.74603E-09         0.98099E-10         0.00000E+00
    0.73569E-09         0.10549E-09         0.00000E+00
    0.72479E-09         0.10817E-09         0.00000E+00
    0.71381E-09         0.10648E-09         0.00000E+00
    0.70316E-09         0.10081E-09         0.00000E+00
    0.69325E-09         0.91585E-10         0.00000E+00
    0.68443E-09         0.79278E-10         0.00000E+00
    0.67700E-09         0.64395E-10         0.00000E+00
    0.67120E-09         0.47474E-10         0.00000E+00
    0.66723E-09         0.29079E-10         0.00000E+00
    0.66521E-09         0.97927E-11         0.00000E+00
    0.95516E-09         0.19338E-10         0.00000E+00
    0.95154E-09         0.53218E-10         0.00000E+00
    0.94482E-09         0.80552E-10         0.00000E+00
    0.93563E-09         0.10150E-09         0.00000E+00
    0.92456E-09         0.11626E-09         0.00000E+00
    0.91223E-09         0.12512E-09         0.00000E+00
    0.89920E-09         0.12840E-09         0.00000E+00
    0.88605E-09         0.12649E-09         0.00000E+00
    0.87327E-09         0.11983E-09         0.00000E+00
    0.86136E-09         0.10893E-09         0.00000E+00
    0.85074E-09         0.94336E-10         0.00000E+00
    0.84179E-09         0.76656E-10         0.00000E+00
    0.83479E-09         0.56531E-10         0.00000E+00
    0.83000E-09         0.34634E-10         0.00000E+00
    0.82756E-09         0.11664E-10         0.00000E+00
    0.11820E-08         0.22838E-10         0.00000E+00
    0.11777E-08         0.62928E-10         0.00000E+00
    0.11697E-08         0.95370E-10         0.00000E+00
    0.11587E-08         0.12032E-09         0.00000E+00
    0.11454E-08         0.13799E-09         0.00000E+00
    0.11306E-08         0.14867E-09         0.00000E+00
    0.11149E-08         0.15272E-09         0.00000E+00
    0.10990E-08         0.15059E-09         0.00000E+00
    0.10835E-08         0.14279E-09         0.00000E+00
    0.10691E-08         0.12989E-09         0.00000E+00
    0.10562E-08         0.11256E-09         0.00000E+00
    0.10453E-08         0.91513E-10         0.00000E+00
    0.10368E-08         0.67513E-10         0.00000E+00
    0.10309E-08         0.41373E-10         0.00000E+00
    0.10280E-08         0.13936E-10         0.00000E+00
    0.14623E-08         0.26998E-10         0.00000E+00
    0.14571E-08         0.74519E-10         0.00000E+00
    0.14475E-08         0.11313E-09         0.00000E+00
    0.14343E-08         0.14295E-09         0.00000E+00
    0.14182E-08         0.16420E-09         0.00000E+00
    0.14002E-08         0.17716E-09         0.00000E+00
    0.13811E-08         0.18223E-09         0.00000E+00
    0.13617E-08         0.17990E-09         0.00000E+00
    0.13428E-08         0.17076E-09         0.00000E+00
    0.13251E-08         0.15548E-09         0.00000E+00
    0.13093E-08         0.13484E-09         0.00000E+00
    0.12959E-08         0.10969E-09         0.00000E+00
    0.12855E-08         0.80960E-10         0.00000E+00
    0.12783E-08         0.49629E-10         0.00000E+00
    0.12746E-08         0.16719E-10         0.00000E+00
    0.18084E-08         0.31991E-10         0.00000E+00
    0.18022E-08         0.88490E-10         0.00000E+00
    0.17905E-08         0.13462E-09         0.00000E+00
    0.17744E-08         0.17046E-09         0.00000E+00
    0.17548E-08         0.19615E-09         0.00000E+00
    0.17327E-08         0.21200E-09         0.00000E+00
    0.17092E-08         0.21841E-09         0.00000E+00
    0.16853E-08         0.21592E-09         0.00000E+00
    0.16619E-08         0.20519E-09         0.00000E+00
    0.16400E-08         0.18703E-09         0.00000E+00
    0.16204E-08         0.16234E-09         0.00000E+00
    0.16038E-08         0.13216E-09         0.00000E+00
    0.15908E-08         0.97593E-10         0.00000E+00
    0.15819E-08         0.59846E-10         0.00000E+00
    0.15773E-08         0.20165E-10         0.00000E+00
    0.22354E-08         0.38048E-10         0.00000E+00
    0.22277E-08         0.10552E-09         0.00000E+00
    0.22134E-08         0.16093E-09         0.00000E+00
    0.21935E-08         0.20424E-09         0.00000E+00
    0.21692E-08         0.23554E-09         0.00000E+00
    0.21418E-08         0.25507E-09         0.00000E+00
    0.21126E-08         0.26325E-09         0.00000E+00
    0.20828E-08         0.26065E-09         0.00000E+00
    0.20536E-08         0.24803E-09         0.00000E+00
    0.20262E-08         0.22634E-09         0.00000E+00
    0.20016E-08         0.19666E-09         0.00000E+00
    0.19808E-08         0.16021E-09         0.00000E+00
    0.19645E-08         0.11838E-09         0.00000E+00
    0.19533E-08         0.72622E-10         0.00000E+00
    0.19476E-08         0.24474E-10         0.00000E+00
    0.27612E-08         0.45487E-10         0.00000E+00
    0.27518E-08         0.12653E-09         0.00000E+00
    0.27339E-08         0.19352E-09         0.00000E+00
    0.27091E-08         0.24624E-09         0.00000E+00
    0.26787E-08         0.28465E-09         0.00000E+00
    0.26443E-08         0.30891E-09         0.00000E+00
    0.26076E-08         0.31942E-09         0.00000E+00
    0.25700E-08         0.31680E-09         0.00000E+00
    0.25332E-08         0.30191E-09         0.00000E+00
    0.24985E-08         0.27584E-09         0.00000E+00
    0.24674E-08         0.23991E-09         0.00000E+00
    0.24411E-08         0.19561E-09         0.00000E+00
    0.24204E-08         0.14462E-09         0.00000E+00
    0.24062E-08         0.88755E-10         0.00000E+00
    0.23990E-08         0.29917E-10         0.00000E+00
    0.34080E-08         0.54743E-10         0.00000E+00
    0.33961E-08         0.15277E-09         0.00000E+00
    0.33737E-08         0.23437E-09         0.00000E+00
    0.33423E-08         0.29905E-09         0.00000E+00
    0.33039E-08         0.34657E-09         0.00000E+00
    0.32603E-08         0.37694E-09         0.00000E+00
    0.32136E-08         0.39053E-09         0.00000E+00
    0.31658E-08         0.38799E-09         0.00000E+00
    0.31188E-08         0.37030E-09         0.00000E+00
    0.30747E-08         0.33875E-09         0.00000E+00
    0.30350E-08         0.29492E-09         0.00000E+00
    0.30013E-08         0.24066E-09         0.00000E+00
    0.29749E-08         0.17804E-09         0.00000E+00
    0.29567E-08         0.10931E-09         0.00000E+00
    0.29475E-08         0.36852E-10         0.00000E+00
    0.42022E-08         0.66405E-10         0.00000E+00
    0.41871E-08         0.18594E-09         0.00000E+00
    0.41586E-08         0.28617E-09         0.00000E+00
    0.41186E-08         0.36618E-09         0.00000E+00
    0.40695E-08         0.42542E-09         0.00000E+00
    0.40137E-08         0.46374E-09         0.00000E+00
    0.39538E-08         0.48138E-09         0.00000E+00
    0.38924E-08         0.47905E-09         0.00000E+00
    0.38322E-08         0.45787E-09         0.00000E+00
    0.37754E-08         0.41936E-09         0.00000E+00
    0.37244E-08         0.36546E-09         0.00000E+00
    0.36811E-08         0.29846E-09         0.00000E+00
    0.36471E-08         0.22092E-09         0.00000E+00
    0.36237E-08         0.13568E-09         0.00000E+00
    0.36118E-08         0.45754E-10         0.00000E+00
    0.51759E-08         0.81274E-10         0.00000E+00
    0.51566E-08         0.22834E-09         0.00000E+00
    0.51199E-08         0.35251E-09         0.00000E+00
    0.50684E-08         0.45230E-09         0.00000E+00
    0.50051E-08         0.52673E-09         0.00000E+00
    0.49331E-08         0.57538E-09         0.00000E+00
    0.48558E-08         0.59836E-09         0.00000E+00
    0.47766E-08         0.59638E-09         0.00000E+00
    0.46987E-08         0.57076E-09         0.00000E+00
    0.46253E-08         0.52333E-09         0.00000E+00
    0.45594E-08         0.45648E-09         0.00000E+00
    0.45033E-08         0.37305E-09         0.00000E+00
    0.44593E-08         0.27628E-09         0.00000E+00
    0.44291E-08         0.16974E-09         0.00000E+00
    0.44137E-08         0.57247E-10         0.00000E+00
    0.63676E-08         0.10043E-09         0.00000E+00
    0.63426E-08         0.28304E-09         0.00000E+00
    0.62950E-08         0.43819E-09         0.00000E+00
    0.62283E-08         0.56364E-09         0.00000E+00
    0.61462E-08         0.65782E-09         0.00000E+00
    0.60528E-08         0.71990E-09         0.00000E+00
    0.59525E-08         0.74985E-09         0.00000E+00
    0.58496E-08         0.74839E-09         0.00000E+00
    0.57485E-08         0.71705E-09         0.00000E+00
    0.56532E-08         0.65809E-09         0.00000E+00
    0.55676E-08         0.57446E-09         0.00000E+00
    0.54948E-08         0.46974E-09         0.00000E+00
    0.54377E-08         0.34804E-09         0.00000E+00
    0.53984E-08         0.21389E-09         0.00000E+00
    0.53784E-08         0.72148E-10         0.00000E+00
    0.78234E-08         0.12530E-09         0.00000E+00
    0.77908E-08         0.35412E-09         0.00000E+00
    0.77289E-08         0.54958E-09         0.00000E+00
    0.76419E-08         0.70842E-09         0.00000E+00
    0.75349E-08         0.82829E-09         0.00000E+00
    0.74132E-08         0.90787E-09         0.00000E+00
    0.72825E-08         0.94687E-09         0.00000E+00
    0.71486E-08         0.94607E-09         0.00000E+00
    0.70170E-08         0.90727E-09         0.00000E+00
    0.68930E-08         0.83329E-09         0.00000E+00
    0.67815E-08         0.72783E-09         0.00000E+00
    0.66868E-08         0.59543E-09         0.00000E+00
    0.66125E-08         0.44132E-09         0.00000E+00
    0.65614E-08         0.27128E-09         0.00000E+00
    0.65354E-08         0.91515E-10         0.00000E+00
    0.95987E-08         0.15779E-09         0.00000E+00
    0.95560E-08         0.44696E-09         0.00000E+00
    0.94750E-08         0.69503E-09         0.00000E+00
    0.93613E-08         0.89740E-09         0.00000E+00
    0.92215E-08         0.10507E-08         0.00000E+00
    0.90626E-08         0.11530E-08         0.00000E+00
    0.88921E-08         0.12037E-08         0.00000E+00
    0.87174E-08         0.12036E-08         0.00000E+00
    0.85459E-08         0.11550E-08         0.00000E+00
    0.83843E-08         0.10614E-08         0.00000E+00
    0.82392E-08         0.92747E-09         0.00000E+00
    0.81159E-08         0.75900E-09         0.00000E+00
    0.80192E-08         0.56268E-09         0.00000E+00
    0.79527E-08         0.34593E-09         0.00000E+00
    0.79189E-08         0.11671E-09         0.00000E+00
    0.11760E-07         0.20042E-09         0.00000E+00
    0.11704E-07         0.56861E-09         0.00000E+00
    0.11597E-07         0.88544E-09         0.00000E+00
    0.11449E-07         0.11445E-08         0.00000E+00
    0.11266E-07         0.13413E-08         0.00000E+00
    0.11058E-07         0.14730E-08         0.00000E+00
    0.10836E-07         0.15387E-08         0.00000E+00
    0.10608E-07         0.15394E-08         0.00000E+00
    0.10384E-07         0.14778E-08         0.00000E+00
    0.10174E-07         0.13584E-08         0.00000E+00
    0.99852E-08         0.11873E-08         0.00000E+00
    0.98249E-08         0.97178E-09         0.00000E+00
    0.96992E-08         0.72051E-09         0.00000E+00
    0.96128E-08         0.44300E-09         0.00000E+00
    0.95688E-08         0.14946E-09         0.00000E+00
    0.14385E-07         0.25642E-09         0.00000E+00
    0.14312E-07         0.72821E-09         0.00000E+00
    0.14173E-07         0.11348E-08         0.00000E+00
    0.13978E-07         0.14678E-08         0.00000E+00
    0.13739E-07         0.17209E-08         0.00000E+00
    0.13468E-07         0.18906E-08         0.00000E+00
    0.13178E-07         0.19754E-08         0.00000E+00
    0.12882E-07         0.19766E-08         0.00000E+00
    0.12591E-07         0.18977E-08         0.00000E+00
    0.12317E-07         0.17446E-08         0.00000E+00
    0.12072E-07         0.15249E-08         0.00000E+00
    0.11864E-07         0.12481E-08         0.00000E+00
    0.11701E-07         0.92543E-09         0.00000E+00
    0.11589E-07         0.56900E-09         0.00000E+00
    0.11532E-07         0.19197E-09         0.00000E+00
    0.17570E-07         0.33000E-09         0.00000E+00
    0.17474E-07         0.93748E-09         0.00000E+00
    0.17292E-07         0.14612E-08         0.00000E+00
    0.17037E-07         0.18901E-08         0.00000E+00
    0.16726E-07         0.22161E-08         0.00000E+00
    0.16373E-07         0.24344E-08         0.00000E+00
    0.15996E-07         0.25434E-08         0.00000E+00
    0.15611E-07         0.25446E-08         0.00000E+00
    0.15234E-07         0.24428E-08         0.00000E+00
    0.14880E-07         0.22454E-08         0.00000E+00
    0.14562E-07         0.19624E-08         0.00000E+00
    0.14293E-07         0.16061E-08         0.00000E+00
    0.14082E-07         0.11908E-08         0.00000E+00
    0.13937E-07         0.73209E-09         0.00000E+00
    0.13863E-07         0.24699E-09         0.00000E+00
    0.21427E-07         0.42653E-09         0.00000E+00
    0.21301E-07         0.12113E-08         0.00000E+00
    0.21063E-07         0.18874E-08         0.00000E+00
    0.20732E-07         0.24405E-08         0.00000E+00
    0.20327E-07         0.28602E-08         0.00000E+00
    0.19869E-07         0.31406E-08         0.00000E+00
    0.19381E-07         0.32799E-08         0.00000E+00
    0.18882E-07         0.32803E-08         0.00000E+00
    0.18395E-07         0.31480E-08         0.00000E+00
    0.17938E-07         0.28927E-08         0.00000E+00
    0.17528E-07         0.25274E-08         0.00000E+00
    0.17181E-07         0.20681E-08         0.00000E+00
    0.16910E-07         0.15330E-08         0.00000E+00
    0.16723E-07         0.94242E-09         0.00000E+00
    0.16628E-07         0.31793E-09         0.00000E+00
    0.26091E-07         0.55278E-09         0.00000E+00
    0.25927E-07         0.15686E-08         0.00000E+00
    0.25617E-07         0.24420E-08         0.00000E+00
    0.25187E-07         0.31550E-08         0.00000E+00
    0.24663E-07         0.36947E-08         0.00000E+00
    0.24072E-07         0.40540E-08         0.00000E+00
    0.23441E-07         0.42310E-08         0.00000E+00
    0.22800E-07         0.42290E-08         0.00000E+00
    0.22173E-07         0.40563E-08         0.00000E+00
    0.21585E-07         0.37256E-08         0.00000E+00
    0.21059E-07         0.32539E-08         0.00000E+00
    0.20614E-07         0.26617E-08         0.00000E+00
    0.20266E-07         0.19726E-08         0.00000E+00
    0.20027E-07         0.12124E-08         0.00000E+00
    0.19905E-07         0.40899E-09         0.00000E+00
    0.31723E-07         0.71725E-09         0.00000E+00
    0.31510E-07         0.20327E-08         0.00000E+00
    0.31109E-07         0.31606E-08         0.00000E+00
    0.30554E-07         0.40786E-08         0.00000E+00
    0.29879E-07         0.47712E-08         0.00000E+00
    0.29118E-07         0.52300E-08         0.00000E+00
    0.28310E-07         0.54535E-08         0.00000E+00
    0.27487E-07         0.54466E-08         0.00000E+00
    0.26685E-07         0.52204E-08         0.00000E+00
    0.25934E-07         0.47920E-08         0.00000E+00
    0.25263E-07         0.41832E-08         0.00000E+00
    0.24695E-07         0.34205E-08         0.00000E+00
    0.24251E-07         0.25341E-08         0.00000E+00
    0.23946E-07         0.15573E-08         0.00000E+00
    0.23791E-07         0.52527E-09         0.00000E+00
    0.38516E-07         0.93046E-09         0.00000E+00
    0.38242E-07         0.26325E-08         0.00000E+00
    0.37726E-07         0.40868E-08         0.00000E+00
    0.37013E-07         0.52661E-08         0.00000E+00
    0.36148E-07         0.61522E-08         0.00000E+00
    0.35176E-07         0.67358E-08         0.00000E+00
    0.34144E-07         0.70160E-08         0.00000E+00
    0.33096E-07         0.70005E-08         0.00000E+00
    0.32076E-07         0.67043E-08         0.00000E+00
    0.31121E-07         0.61497E-08         0.00000E+00
    0.30269E-07         0.53652E-08         0.00000E+00
    0.29549E-07         0.43850E-08         0.00000E+00
    0.28986E-07         0.32475E-08         0.00000E+00
    0.28600E-07         0.19952E-08         0.00000E+00
    0.28404E-07         0.67291E-09         0.00000E+00
    0.46704E-07         0.12053E-08         0.00000E+00
    0.46352E-07         0.34034E-08         0.00000E+00
    0.45692E-07         0.52737E-08         0.00000E+00
    0.44782E-07         0.67841E-08         0.00000E+00
    0.43680E-07         0.79136E-08         0.00000E+00
    0.42446E-07         0.86523E-08         0.00000E+00
    0.41137E-07         0.90013E-08         0.00000E+00
    0.39810E-07         0.89717E-08         0.00000E+00
    0.38520E-07         0.85840E-08         0.00000E+00
    0.37316E-07         0.78677E-08         0.00000E+00
    0.36241E-07         0.68595E-08         0.00000E+00
    0.35333E-07         0.56033E-08         0.00000E+00
    0.34624E-07         0.41482E-08         0.00000E+00
    0.34138E-07         0.25479E-08         0.00000E+00
    0.33891E-07         0.85921E-09         0.00000E+00
    0.56567E-07         0.15573E-08         0.00000E+00
    0.56118E-07         0.43877E-08         0.00000E+00
    0.55280E-07         0.67851E-08         0.00000E+00
    0.54126E-07         0.87121E-08         0.00000E+00
    0.52732E-07         0.10145E-07         0.00000E+00
    0.51174E-07         0.11076E-07         0.00000E+00
    0.49525E-07         0.11507E-07         0.00000E+00
    0.47857E-07         0.11456E-07         0.00000E+00
    0.46237E-07         0.10950E-07         0.00000E+00
    0.44727E-07         0.10027E-07         0.00000E+00
    0.43380E-07         0.87361E-08         0.00000E+00
    0.42244E-07         0.71322E-08         0.00000E+00
    0.41358E-07         0.52778E-08         0.00000E+00
    0.40750E-07         0.32408E-08         0.00000E+00
    0.40442E-07         0.10927E-08         0.00000E+00
    0.68445E-07         0.20051E-08         0.00000E+00
    0.67877E-07         0.56362E-08         0.00000E+00
    0.66819E-07         0.86965E-08         0.00000E+00
    0.65367E-07         0.11144E-07         0.00000E+00
    0.63616E-07         0.12954E-07         0.00000E+00
    0.61663E-07         0.14119E-07         0.00000E+00
    0.59601E-07         0.14648E-07         0.00000E+00
    0.57519E-07         0.14565E-07         0.00000E+00
    0.55500E-07         0.13906E-07         0.00000E+00
    0.53619E-07         0.12723E-07         0.00000E+00
    0.51945E-07         0.11076E-07         0.00000E+00
    0.50533E-07         0.90371E-08         0.00000E+00
    0.49433E-07         0.66845E-08         0.00000E+00
    0.48679E-07         0.41033E-08         0.00000E+00
    0.48296E-07         0.13833E-08         0.00000E+00
    0.82752E-07         0.25707E-08         0.00000E+00
    0.82038E-07         0.72080E-08         0.00000E+00
    0.80713E-07         0.11096E-07         0.00000E+00
    0.78899E-07         0.14189E-07         0.00000E+00
    0.76717E-07         0.16463E-07         0.00000E+00
    0.74288E-07         0.17913E-07         0.00000E+00
    0.71729E-07         0.18557E-07         0.00000E+00
    0.69149E-07         0.18426E-07         0.00000E+00
    0.66651E-07         0.17573E-07         0.00000E+00
    0.64328E-07         0.16062E-07         0.00000E+00
    0.62261E-07         0.13972E-07         0.00000E+00
    0.60521E-07         0.11393E-07         0.00000E+00
    0.59165E-07         0.84230E-08         0.00000E+00
    0.58237E-07         0.51689E-08         0.00000E+00
    0.57765E-07         0.17423E-08         0.00000E+00
    0.99994E-07         0.32794E-08         0.00000E+00
    0.99104E-07         0.91716E-08         0.00000E+00
    0.97458E-07         0.14085E-07         0.00000E+00
    0.95209E-07         0.17972E-07         0.00000E+00
    0.92511E-07         0.20811E-07         0.00000E+00
    0.89516E-07         0.22605E-07         0.00000E+00
    0.86365E-07         0.23381E-07         0.00000E+00
    0.83194E-07         0.23186E-07         0.00000E+00
    0.80129E-07         0.22086E-07         0.00000E+00
    0.77282E-07         0.20167E-07         0.00000E+00
    0.74752E-07         0.17529E-07         0.00000E+00
    0.72624E-07         0.14283E-07         0.00000E+00
    0.70967E-07         0.10555E-07         0.00000E+00
    0.69832E-07         0.64750E-08         0.00000E+00
    0.69257E-07         0.21822E-08         0.00000E+00
    0.12079E-06         0.41602E-08         0.00000E+00
    0.11969E-06         0.11605E-07         0.00000E+00
    0.11766E-06         0.17778E-07         0.00000E+00
    0.11490E-06         0.22633E-07         0.00000E+00
    0.11159E-06         0.26157E-07         0.00000E+00
    0.10793E-06         0.28361E-07         0.00000E+00
    0.10408E-06         0.29287E-07         0.00000E+00
    0.10022E-06         0.29002E-07         0.00000E+00
    0.96491E-07         0.27594E-07         0.00000E+00
    0.93031E-07         0.25171E-07         0.00000E+00
    0.89961E-07         0.21859E-07         0.00000E+00
    0.87381E-07         0.17800E-07         0.00000E+00
    0.85373E-07         0.13147E-07         0.00000E+00
    0.84000E-07         0.80624E-08         0.00000E+00
    0.83302E-07         0.27167E-08         0.00000E+00
    0.14591E-06         0.52454E-08         0.00000E+00
    0.14457E-06         0.14593E-07         0.00000E+00
    0.14209E-06         0.22300E-07         0.00000E+00
    0.13873E-06         0.28327E-07         0.00000E+00
    0.13471E-06         0.32670E-07         0.00000E+00
    0.13027E-06         0.35359E-07         0.00000E+00
    0.12561E-06         0.36455E-07         0.00000E+00
    0.12095E-06         0.36049E-07         0.00000E+00
    0.11645E-06         0.34256E-07         0.00000E+00
    0.11229E-06         0.31215E-07         0.00000E+00
    0.10860E-06         0.27085E-07         0.00000E+00
    0.10550E-06         0.22040E-07         0.00000E+00
    0.10309E-06         0.16270E-07         0.00000E+00
    0.10144E-06         0.99746E-08         0.00000E+00
    0.10060E-06         0.33604E-08         0.00000E+00
    0.17631E-06         0.65701E-08         0.00000E+00
    0.17468E-06         0.18229E-07         0.00000E+00
    0.17169E-06         0.27787E-07         0.00000E+00
    0.16763E-06         0.35217E-07         0.00000E+00
    0.16279E-06         0.40532E-07         0.00000E+00
    0.15746E-06         0.43787E-07         0.00000E+00
    0.15189E-06         0.45071E-07         0.00000E+00
    0.14631E-06         0.44505E-07         0.00000E+00
    0.14094E-06         0.42239E-07         0.00000E+00
    0.13597E-06         0.38449E-07         0.00000E+00
    0.13158E-06         0.33332E-07         0.00000E+00
    0.12789E-06         0.27105E-07         0.00000E+00
    0.12502E-06         0.19999E-07         0.00000E+00
    0.12307E-06         0.12256E-07         0.00000E+00
    0.12207E-06         0.41284E-08         0.00000E+00
    0.21318E-06         0.81713E-08         0.00000E+00
    0.21122E-06         0.22611E-07         0.00000E+00
    0.20763E-06         0.34379E-07         0.00000E+00
    0.20279E-06         0.43471E-07         0.00000E+00
    0.19703E-06         0.49929E-07         0.00000E+00
    0.19069E-06         0.53839E-07         0.00000E+00
    0.18408E-06         0.55326E-07         0.00000E+00
    0.17748E-06         0.54552E-07         0.00000E+00
    0.17114E-06         0.51709E-07         0.00000E+00
    0.16528E-06         0.47019E-07         0.00000E+00
    0.16010E-06         0.40726E-07         0.00000E+00
    0.15576E-06         0.33094E-07         0.00000E+00
    0.15238E-06         0.24405E-07         0.00000E+00
    0.15008E-06         0.14951E-07         0.00000E+00
    0.14891E-06         0.50352E-08         0.00000E+00
    0.25799E-06         0.10086E-07         0.00000E+00
    0.25567E-06         0.27835E-07         0.00000E+00
    0.25142E-06         0.42216E-07         0.00000E+00
    0.24569E-06         0.53257E-07         0.00000E+00
    0.23891E-06         0.61041E-07         0.00000E+00
    0.23147E-06         0.65698E-07         0.00000E+00
    0.22372E-06         0.67400E-07         0.00000E+00
    0.21599E-06         0.66359E-07         0.00000E+00
    0.20858E-06         0.62822E-07         0.00000E+00
    0.20175E-06         0.57062E-07         0.00000E+00
    0.19571E-06         0.49380E-07         0.00000E+00
    0.19065E-06         0.40098E-07         0.00000E+00
    0.18673E-06         0.29554E-07         0.00000E+00
    0.18406E-06         0.18099E-07         0.00000E+00
    0.18270E-06         0.60944E-08         0.00000E+00
    0.31262E-06         0.12351E-07         0.00000E+00
    0.30989E-06         0.33993E-07         0.00000E+00
    0.30492E-06         0.51425E-07         0.00000E+00
    0.29824E-06         0.64724E-07         0.00000E+00
    0.29034E-06         0.74029E-07         0.00000E+00
    0.28170E-06         0.79527E-07         0.00000E+00
    0.27272E-06         0.81450E-07         0.00000E+00
    0.26379E-06         0.80074E-07         0.00000E+00
    0.25524E-06         0.75708E-07         0.00000E+00
    0.24736E-06         0.68692E-07         0.00000E+00
    0.24042E-06         0.59391E-07         0.00000E+00
    0.23461E-06         0.48193E-07         0.00000E+00
    0.23010E-06         0.35501E-07         0.00000E+00
    0.22703E-06         0.21733E-07         0.00000E+00
    0.22547E-06         0.73168E-08         0.00000E+00
    0.37938E-06         0.14996E-07         0.00000E+00
    0.37622E-06         0.41162E-07         0.00000E+00
    0.37048E-06         0.62111E-07         0.00000E+00
    0.36279E-06         0.77993E-07         0.00000E+00
    0.35372E-06         0.89017E-07         0.00000E+00
    0.34382E-06         0.95447E-07         0.00000E+00
    0.33356E-06         0.97591E-07         0.00000E+00
    0.32338E-06         0.95800E-07         0.00000E+00
    0.31364E-06         0.90460E-07         0.00000E+00
    0.30469E-06         0.81987E-07         0.00000E+00
    0.29680E-06         0.70821E-07         0.00000E+00
    0.29021E-06         0.57426E-07         0.00000E+00
    0.28511E-06         0.42280E-07         0.00000E+00
    0.28163E-06         0.25874E-07         0.00000E+00
    0.27987E-06         0.87092E-08         0.00000E+00
    0.46122E-06         0.18042E-07         0.00000E+00
    0.45761E-06         0.49391E-07         0.00000E+00
    0.45108E-06         0.74339E-07         0.00000E+00
    0.44235E-06         0.93131E-07         0.00000E+00
    0.43210E-06         0.10607E-06         0.00000E+00
    0.42092E-06         0.11352E-06         0.00000E+00
    0.40937E-06         0.11587E-06         0.00000E+00
    0.39793E-06         0.11358E-06         0.00000E+00
    0.38701E-06         0.10711E-06         0.00000E+00
    0.37699E-06         0.96966E-07         0.00000E+00
    0.36817E-06         0.83684E-07         0.00000E+00
    0.36081E-06         0.67806E-07         0.00000E+00
    0.35512E-06         0.49895E-07         0.00000E+00
    0.35124E-06         0.30523E-07         0.00000E+00
    0.34927E-06         0.10272E-07         0.00000E+00
    0.56181E-06         0.21498E-07         0.00000E+00
    0.55776E-06         0.58693E-07         0.00000E+00
    0.55045E-06         0.88114E-07         0.00000E+00
    0.54071E-06         0.11013E-06         0.00000E+00
    0.52930E-06         0.12517E-06         0.00000E+00
    0.51691E-06         0.13370E-06         0.00000E+00
    0.50412E-06         0.13624E-06         0.00000E+00
    0.49149E-06         0.13334E-06         0.00000E+00
    0.47945E-06         0.12559E-06         0.00000E+00
    0.46842E-06         0.11357E-06         0.00000E+00
    0.45874E-06         0.97924E-07         0.00000E+00
    0.45066E-06         0.79287E-07         0.00000E+00
    0.44442E-06         0.58312E-07         0.00000E+00
    0.44016E-06         0.35659E-07         0.00000E+00
    0.43801E-06         0.11999E-07         0.00000E+00
    0.68576E-06         0.25349E-07         0.00000E+00
    0.68130E-06         0.69020E-07         0.00000E+00
    0.67327E-06         0.10336E-06         0.00000E+00
    0.66262E-06         0.12888E-06         0.00000E+00
    0.65017E-06         0.14617E-06         0.00000E+00
    0.63669E-06         0.15584E-06         0.00000E+00
    0.62282E-06         0.15853E-06         0.00000E+00
    0.60914E-06         0.15493E-06         0.00000E+00
    0.59614E-06         0.14572E-06         0.00000E+00
    0.58424E-06         0.13164E-06         0.00000E+00
    0.57381E-06         0.11340E-06         0.00000E+00
    0.56512E-06         0.91749E-07         0.00000E+00
    0.55841E-06         0.67440E-07         0.00000E+00
    0.55385E-06         0.41227E-07         0.00000E+00
    0.55154E-06         0.13869E-07         0.00000E+00
    0.83883E-06         0.29551E-07         0.00000E+00
    0.83403E-06         0.80248E-07         0.00000E+00
    0.82541E-06         0.11986E-06         0.00000E+00
    0.81402E-06         0.14912E-06         0.00000E+00
    0.80076E-06         0.16877E-06         0.00000E+00
    0.78643E-06         0.17959E-06         0.00000E+00
    0.77173E-06         0.18239E-06         0.00000E+00
    0.75726E-06         0.17798E-06         0.00000E+00
    0.74355E-06         0.16719E-06         0.00000E+00
    0.73102E-06         0.15087E-06         0.00000E+00
    0.72005E-06         0.12985E-06         0.00000E+00
    0.71093E-06         0.10498E-06         0.00000E+00
    0.70389E-06         0.77125E-07         0.00000E+00
    0.69910E-06         0.47131E-07         0.00000E+00
    0.69668E-06         0.15853E-07         0.00000E+00
    0.10282E-05         0.34025E-07         0.00000E+00
    0.10231E-05         0.92150E-07         0.00000E+00
    0.10142E-05         0.13730E-06         0.00000E+00
    0.10023E-05         0.17041E-06         0.00000E+00
    0.98858E-06         0.19247E-06         0.00000E+00
    0.97379E-06         0.20443E-06         0.00000E+00
    0.95865E-06         0.20727E-06         0.00000E+00
    0.94380E-06         0.20197E-06         0.00000E+00
    0.92974E-06         0.18949E-06         0.00000E+00
    0.91693E-06         0.17080E-06         0.00000E+00
    0.90572E-06         0.14687E-06         0.00000E+00
    0.89642E-06         0.11867E-06         0.00000E+00
    0.88924E-06         0.87133E-07         0.00000E+00
    0.88437E-06         0.53228E-07         0.00000E+00
    0.88190E-06         0.17901E-07         0.00000E+00
    0.12626E-05         0.38639E-07         0.00000E+00
    0.12576E-05         0.10437E-06         0.00000E+00
    0.12485E-05         0.15512E-06         0.00000E+00
    0.12367E-05         0.19210E-06         0.00000E+00
    0.12229E-05         0.21653E-06         0.00000E+00
    0.12082E-05         0.22956E-06         0.00000E+00
    0.11932E-05         0.23238E-06         0.00000E+00
    0.11785E-05         0.22612E-06         0.00000E+00
    0.11646E-05         0.21189E-06         0.00000E+00
    0.11520E-05         0.19080E-06         0.00000E+00
    0.11410E-05         0.16393E-06         0.00000E+00
    0.11318E-05         0.13236E-06         0.00000E+00
    0.11248E-05         0.97139E-07         0.00000E+00
    0.11200E-05         0.59321E-07         0.00000E+00
    0.11176E-05         0.19946E-07         0.00000E+00
    0.15531E-05         0.43204E-07         0.00000E+00
    0.15483E-05         0.11640E-06         0.00000E+00
    0.15396E-05         0.17259E-06         0.00000E+00
    0.15283E-05         0.21327E-06         0.00000E+00
    0.15153E-05         0.23991E-06         0.00000E+00
    0.15013E-05         0.25392E-06         0.00000E+00
    0.14872E-05         0.25665E-06         0.00000E+00
    0.14733E-05         0.24940E-06         0.00000E+00
    0.14603E-05         0.23345E-06         0.00000E+00
    0.14485E-05         0.21001E-06         0.00000E+00
    0.14382E-05         0.18030E-06         0.00000E+00
    0.14296E-05         0.14549E-06         0.00000E+00
    0.14230E-05         0.10672E-06         0.00000E+00
    0.14186E-05         0.65155E-07         0.00000E+00
    0.14163E-05         0.21905E-07         0.00000E+00
    0.19129E-05         0.47461E-07         0.00000E+00
    0.19086E-05         0.12756E-06         0.00000E+00
    0.19009E-05         0.18870E-06         0.00000E+00
    0.18909E-05         0.23270E-06         0.00000E+00
    0.18794E-05         0.26131E-06         0.00000E+00
    0.18672E-05         0.27613E-06         0.00000E+00
    0.18548E-05         0.27872E-06         0.00000E+00
    0.18427E-05         0.27053E-06         0.00000E+00
    0.18313E-05         0.25297E-06         0.00000E+00
    0.18210E-05         0.22739E-06         0.00000E+00
    0.18120E-05         0.19509E-06         0.00000E+00
    0.18046E-05         0.15734E-06         0.00000E+00
    0.17989E-05         0.11538E-06         0.00000E+00
    0.17950E-05         0.70419E-07         0.00000E+00
    0.17930E-05         0.23671E-07         0.00000E+00
    0.23581E-05         0.51072E-07         0.00000E+00
    0.23546E-05         0.13696E-06         0.00000E+00
    0.23486E-05         0.20218E-06         0.00000E+00
    0.23408E-05         0.24889E-06         0.00000E+00
    0.23319E-05         0.27906E-06         0.00000E+00
    0.23225E-05         0.29451E-06         0.00000E+00
    0.23129E-05         0.29694E-06         0.00000E+00
    0.23036E-05         0.28796E-06         0.00000E+00
    0.22949E-05         0.26906E-06         0.00000E+00
    0.22869E-05         0.24171E-06         0.00000E+00
    0.22800E-05         0.20727E-06         0.00000E+00
    0.22743E-05         0.16710E-06         0.00000E+00
    0.22699E-05         0.12250E-06         0.00000E+00
    0.22669E-05         0.74754E-07         0.00000E+00
    0.22654E-05         0.25127E-07         0.00000E+00
    0.29076E-05         0.53616E-07         0.00000E+00
    0.29056E-05         0.14351E-06         0.00000E+00
    0.29021E-05         0.21151E-06         0.00000E+00
    0.28976E-05         0.26003E-06         0.00000E+00
    0.28925E-05         0.29123E-06         0.00000E+00
    0.28871E-05         0.30710E-06         0.00000E+00
    0.28816E-05         0.30943E-06         0.00000E+00
    0.28762E-05         0.29992E-06         0.00000E+00
    0.28711E-05         0.28014E-06         0.00000E+00
    0.28665E-05         0.25159E-06         0.00000E+00
    0.28624E-05         0.21570E-06         0.00000E+00
    0.28590E-05         0.17387E-06         0.00000E+00
    0.28564E-05         0.12745E-06         0.00000E+00
    0.28546E-05         0.77772E-07         0.00000E+00
    0.28537E-05         0.26140E-07         0.00000E+00
    0.35841E-05         0.54592E-07         0.00000E+00
    0.35840E-05         0.14595E-06         0.00000E+00
    0.35840E-05         0.21492E-06         0.00000E+00
    0.35840E-05         0.26408E-06         0.00000E+00
    0.35840E-05         0.29569E-06         0.00000E+00
    0.35840E-05         0.31177E-06         0.00000E+00
    0.35838E-05         0.31417E-06         0.00000E+00
    0.35835E-05         0.30457E-06         0.00000E+00
    0.35832E-05         0.28456E-06         0.00000E+00
    0.35827E-05         0.25563E-06         0.00000E+00
    0.35823E-05         0.21922E-06         0.00000E+00
    0.35818E-05         0.17676E-06         0.00000E+00
    0.35814E-05         0.12959E-06         0.00000E+00
    0.35811E-05         0.79089E-07         0.00000E+00
    0.35810E-05         0.26585E-07         0.00000E+00
    0.44133E-05         0.53433E-07         0.00000E+00
    0.44159E-05         0.14287E-06         0.00000E+00
    0.44204E-05         0.21050E-06         0.00000E+00
    0.44261E-05         0.25888E-06         0.00000E+00
    0.44326E-05         0.29021E-06         0.00000E+00
    0.44391E-05         0.30640E-06         0.00000E+00
    0.44455E-05         0.30918E-06         0.00000E+00
    0.44514E-05         0.30014E-06         0.00000E+00
    0.44567E-05         0.28078E-06         0.00000E+00
    0.44613E-05         0.25254E-06         0.00000E+00
    0.44650E-05         0.21680E-06         0.00000E+00
    0.44680E-05         0.17495E-06         0.00000E+00
    0.44702E-05         0.12836E-06         0.00000E+00
    0.44717E-05         0.78369E-07         0.00000E+00
    0.44724E-05         0.26349E-07         0.00000E+00
    0.54245E-05         0.49535E-07         0.00000E+00
    0.54303E-05         0.13282E-06         0.00000E+00
    0.54403E-05         0.19635E-06         0.00000E+00
    0.54530E-05         0.24238E-06         0.00000E+00
    0.54669E-05         0.27275E-06         0.00000E+00
    0.54812E-05         0.28907E-06         0.00000E+00
    0.54951E-05         0.29277E-06         0.00000E+00
    0.55080E-05         0.28519E-06         0.00000E+00
    0.55196E-05         0.26762E-06         0.00000E+00
    0.55296E-05         0.24136E-06         0.00000E+00
    0.55380E-05         0.20768E-06         0.00000E+00
    0.55448E-05         0.16790E-06         0.00000E+00
    0.55498E-05         0.12335E-06         0.00000E+00
    0.55531E-05         0.75386E-07         0.00000E+00
    0.55548E-05         0.25358E-07         0.00000E+00
    0.66495E-05         0.42316E-07         0.00000E+00
    0.66591E-05         0.11447E-06         0.00000E+00
    0.66754E-05         0.17084E-06         0.00000E+00
    0.66957E-05         0.21291E-06         0.00000E+00
    0.67180E-05         0.24182E-06         0.00000E+00
    0.67406E-05         0.25853E-06         0.00000E+00
    0.67624E-05         0.26394E-06         0.00000E+00
    0.67825E-05         0.25895E-06         0.00000E+00
    0.68005E-05         0.24453E-06         0.00000E+00
    0.68161E-05         0.22171E-06         0.00000E+00
    0.68291E-05         0.19161E-06         0.00000E+00
    0.68395E-05         0.15545E-06         0.00000E+00
    0.68473E-05         0.11451E-06         0.00000E+00
    0.68525E-05         0.70099E-07         0.00000E+00
    0.68550E-05         0.23599E-07         0.00000E+00
    0.81213E-05         0.31306E-07         0.00000E+00
    0.81349E-05         0.86874E-07         0.00000E+00
    0.81579E-05         0.13297E-06         0.00000E+00
    0.81862E-05         0.16969E-06         0.00000E+00
    0.82168E-05         0.19693E-06         0.00000E+00
    0.82475E-05         0.21463E-06         0.00000E+00
    0.82767E-05         0.22282E-06         0.00000E+00
    0.83036E-05         0.22178E-06         0.00000E+00
    0.83274E-05         0.21197E-06         0.00000E+00
    0.83479E-05         0.19412E-06         0.00000E+00
    0.83649E-05         0.16912E-06         0.00000E+00
    0.83784E-05         0.13806E-06         0.00000E+00
    0.83885E-05         0.10216E-06         0.00000E+00
    0.83952E-05         0.62726E-07         0.00000E+00
    0.83985E-05         0.21148E-07         0.00000E+00
    0.98715E-05         0.16285E-07         0.00000E+00
    0.98891E-05         0.49818E-07         0.00000E+00
    0.99184E-05         0.82919E-07         0.00000E+00
    0.99539E-05         0.11341E-06         0.00000E+00
    0.99917E-05         0.13929E-06         0.00000E+00
    0.10029E-04         0.15894E-06         0.00000E+00
    0.10064E-04         0.17124E-06         0.00000E+00
    0.10096E-04         0.17557E-06         0.00000E+00
    0.10124E-04         0.17182E-06         0.00000E+00
    0.10148E-04         0.16031E-06         0.00000E+00
    0.10168E-04         0.14169E-06         0.00000E+00
    0.10183E-04         0.11693E-06         0.00000E+00
    0.10195E-04         0.87191E-07         0.00000E+00
    0.10202E-04         0.53802E-07         0.00000E+00
    0.10206E-04         0.18184E-07         0.00000E+00
    0.11926E-04        -0.25119E-08         0.00000E+00
    0.11947E-04         0.43579E-08         0.00000E+00
    0.11981E-04         0.22730E-07         0.00000E+00
    0.12022E-04         0.47013E-07         0.00000E+00
    0.12064E-04         0.72476E-07         0.00000E+00
    0.12105E-04         0.95423E-07         0.00000E+00
    0.12143E-04         0.11322E-06         0.00000E+00
    0.12176E-04         0.12422E-06         0.00000E+00
    0.12206E-04         0.12764E-06         0.00000E+00
    0.12230E-04         0.12338E-06         0.00000E+00
    0.12251E-04         0.11190E-06         0.00000E+00
    0.12267E-04         0.94075E-07         0.00000E+00
    0.12279E-04         0.71053E-07         0.00000E+00
    0.12286E-04         0.44198E-07         0.00000E+00
    0.12290E-04         0.14996E-07         0.00000E+00
    0.14299E-04        -0.24115E-07         0.00000E+00
    0.14322E-04        -0.46515E-07         0.00000E+00
    0.14357E-04        -0.42838E-07         0.00000E+00
    0.14399E-04        -0.23487E-07         0.00000E+00
    0.14440E-04         0.31846E-08         0.00000E+00
    0.14480E-04         0.30907E-07         0.00000E+00
    0.14515E-04         0.55324E-07         0.00000E+00
    0.14547E-04         0.73712E-07         0.00000E+00
    0.14573E-04         0.84657E-07         0.00000E+00
    0.14596E-04         0.87751E-07         0.00000E+00
    0.14614E-04         0.83324E-07         0.00000E+00
    0.14628E-04         0.72224E-07         0.00000E+00
    0.14639E-04         0.55654E-07         0.00000E+00
    0.14646E-04         0.35043E-07         0.00000E+00
    0.14649E-04         0.11958E-07         0.00000E+00
    0.16981E-04        -0.46446E-07         0.00000E+00
    0.17002E-04        -0.97083E-07         0.00000E+00
    0.17034E-04        -0.10547E-06         0.00000E+00
    0.17070E-04        -0.88359E-07         0.00000E+00
    0.17104E-04        -0.58472E-07         0.00000E+00
    0.17135E-04        -0.24889E-07         0.00000E+00
    0.17162E-04         0.63715E-08         0.00000E+00
    0.17185E-04         0.31700E-07         0.00000E+00
    0.17205E-04         0.49284E-07         0.00000E+00
    0.17221E-04         0.58592E-07         0.00000E+00
    0.17235E-04         0.59975E-07         0.00000E+00
    0.17245E-04         0.54360E-07         0.00000E+00
    0.17253E-04         0.43041E-07         0.00000E+00
    0.17258E-04         0.27530E-07         0.00000E+00
    0.17261E-04         0.94625E-08         0.00000E+00
    0.19924E-04        -0.65895E-07         0.00000E+00
    0.19939E-04        -0.13817E-06         0.00000E+00
    0.19960E-04        -0.15287E-06         0.00000E+00
    0.19981E-04        -0.13426E-06         0.00000E+00
    0.19999E-04        -0.99629E-07         0.00000E+00
    0.20014E-04        -0.60475E-07         0.00000E+00
    0.20026E-04        -0.23926E-07         0.00000E+00
    0.20036E-04         0.60554E-08         0.00000E+00
    0.20045E-04         0.27675E-07         0.00000E+00
    0.20052E-04         0.40572E-07         0.00000E+00
    0.20059E-04         0.45285E-07         0.00000E+00
    0.20064E-04         0.42898E-07         0.00000E+00
    0.20068E-04         0.34803E-07         0.00000E+00
    0.20071E-04         0.22558E-07         0.00000E+00
    0.20072E-04         0.77994E-08         0.00000E+00
    0.23017E-04        -0.76951E-07         0.00000E+00
    0.23020E-04        -0.15712E-06         0.00000E+00
    0.23021E-04        -0.16973E-06         0.00000E+00
    0.23017E-04        -0.14638E-06         0.00000E+00
    0.23011E-04        -0.10758E-06         0.00000E+00
    0.23004E-04        -0.65847E-07         0.00000E+00
    0.22998E-04        -0.28210E-07         0.00000E+00
    0.22993E-04         0.18694E-08         0.00000E+00
    0.22989E-04         0.23151E-07         0.00000E+00
    0.22987E-04         0.35718E-07         0.00000E+00
    0.22987E-04         0.40401E-07         0.00000E+00
    0.22987E-04         0.38426E-07         0.00000E+00
    0.22988E-04         0.31206E-07         0.00000E+00
    0.22989E-04         0.20226E-07         0.00000E+00
    0.22989E-04         0.69924E-08         0.00000E+00
    0.26053E-04        -0.72521E-07         0.00000E+00
    0.26037E-04        -0.14035E-06         0.00000E+00
    0.26010E-04        -0.14284E-06         0.00000E+00
    0.25979E-04        -0.11492E-06         0.00000E+00
    0.25947E-04        -0.76732E-07         0.00000E+00
    0.25920E-04        -0.39092E-07         0.00000E+00
    0.25898E-04        -0.72683E-08         0.00000E+00
    0.25881E-04         0.16669E-07         0.00000E+00
    0.25870E-04         0.32399E-07         0.00000E+00
    0.25864E-04         0.40516E-07         0.00000E+00
    0.25860E-04         0.42046E-07         0.00000E+00
    0.25859E-04         0.38189E-07         0.00000E+00
    0.25859E-04         0.30188E-07         0.00000E+00
    0.25859E-04         0.19267E-07         0.00000E+00
    0.25860E-04         0.66138E-08         0.00000E+00
    0.28675E-04        -0.47913E-07         0.00000E+00
    0.28642E-04        -0.83853E-07         0.00000E+00
    0.28595E-04        -0.74978E-07         0.00000E+00
    0.28546E-04        -0.49652E-07         0.00000E+00
    0.28506E-04        -0.21624E-07         0.00000E+00
    0.28475E-04         0.29629E-08         0.00000E+00
    0.28454E-04         0.21788E-07         0.00000E+00
    0.28442E-04         0.34393E-07         0.00000E+00
    0.28438E-04         0.41183E-07         0.00000E+00
    0.28437E-04         0.42922E-07         0.00000E+00
    0.28440E-04         0.40486E-07         0.00000E+00
    0.28444E-04         0.34746E-07         0.00000E+00
    0.28449E-04         0.26526E-07         0.00000E+00
    0.28452E-04         0.16587E-07         0.00000E+00
    0.28454E-04         0.56396E-08         0.00000E+00
    0.30319E-04        -0.15174E-07         0.00000E+00
    0.30296E-04        -0.23142E-07         0.00000E+00
    0.30272E-04        -0.16388E-07         0.00000E+00
    0.30259E-04        -0.58033E-08         0.00000E+00
    0.30258E-04         0.42033E-08         0.00000E+00
    0.30268E-04         0.12073E-07         0.00000E+00
    0.30285E-04         0.17449E-07         0.00000E+00
    0.30308E-04         0.20466E-07         0.00000E+00
    0.30333E-04         0.21432E-07         0.00000E+00
    0.30359E-04         0.20701E-07         0.00000E+00
    0.30382E-04         0.18615E-07         0.00000E+00
    0.30403E-04         0.15483E-07         0.00000E+00
    0.30419E-04         0.11581E-07         0.00000E+00
    0.30430E-04         0.71522E-08         0.00000E+00
    0.30436E-04         0.24175E-08         0.00000E+00
POINT_DATA       1456
VECTORS vDarcyNodal double 
    0.12814E-12         0.24464E-13         0.00000E+00
    0.12781E-12         0.46353E-13         0.00000E+00
    0.12687E-12         0.86430E-13         0.00000E+00
    0.12542E-12         0.11899E-12         0.00000E+00
    0.12356E-12         0.14388E-12         0.00000E+00
    0.12138E-12         0.16107E-12         0.00000E+00
    0.11901E-12         0.17067E-12         0.00000E+00
    0.11653E-12         0.17293E-12         0.00000E+00
    0.11406E-12         0.16825E-12         0.00000E+00
    0.11169E-12         0.15717E-12         0.00000E+00
    0.10952E-12         0.14034E-12         0.00000E+00
    0.10763E-12         0.11852E-12         0.00000E+00
    0.10608E-12         0.92600E-13         0.00000E+00
    0.10493E-12         0.63521E-13         0.00000E+00
    0.10423E-12         0.32301E-13         0.00000E+00
    0.10399E-12         0.16287E-13         0.00000E+00
    0.25899E-12         0.25016E-13         0.00000E+00
    0.25832E-12         0.47408E-13         0.00000E+00
    0.25642E-12         0.88416E-13         0.00000E+00
    0.25348E-12         0.12175E-12         0.00000E+00
    0.24970E-12         0.14725E-12         0.00000E+00
    0.24529E-12         0.16486E-12         0.00000E+00
    0.24046E-12         0.17471E-12         0.00000E+00
    0.23544E-12         0.17705E-12         0.00000E+00
    0.23042E-12         0.17228E-12         0.00000E+00
    0.22562E-12         0.16095E-12         0.00000E+00
    0.22122E-12         0.14372E-12         0.00000E+00
    0.21738E-12         0.12139E-12         0.00000E+00
    0.21424E-12         0.94846E-13         0.00000E+00
    0.21191E-12         0.65064E-13         0.00000E+00
    0.21048E-12         0.33086E-13         0.00000E+00
    0.21000E-12         0.16682E-13         0.00000E+00
    0.52896E-12         0.26704E-13         0.00000E+00
    0.52758E-12         0.50634E-13         0.00000E+00
    0.52367E-12         0.94489E-13         0.00000E+00
    0.51762E-12         0.13019E-12         0.00000E+00
    0.50984E-12         0.15754E-12         0.00000E+00
    0.50076E-12         0.17647E-12         0.00000E+00
    0.49083E-12         0.18709E-12         0.00000E+00
    0.48049E-12         0.18966E-12         0.00000E+00
    0.47018E-12         0.18461E-12         0.00000E+00
    0.46030E-12         0.17251E-12         0.00000E+00
    0.45125E-12         0.15408E-12         0.00000E+00
    0.44334E-12         0.13016E-12         0.00000E+00
    0.43689E-12         0.10171E-12         0.00000E+00
    0.43211E-12         0.69778E-13         0.00000E+00
    0.42917E-12         0.35486E-13         0.00000E+00
    0.42818E-12         0.17893E-13         0.00000E+00
    0.82133E-12         0.29628E-13         0.00000E+00
    0.81915E-12         0.56220E-13         0.00000E+00
    0.81301E-12         0.10500E-12         0.00000E+00
    0.80350E-12         0.14480E-12         0.00000E+00
    0.79127E-12         0.17535E-12         0.00000E+00
    0.77700E-12         0.19655E-12         0.00000E+00
    0.76139E-12         0.20850E-12         0.00000E+00
    0.74515E-12         0.21147E-12         0.00000E+00
    0.72895E-12         0.20593E-12         0.00000E+00
    0.71344E-12         0.19250E-12         0.00000E+00
    0.69922E-12         0.17198E-12         0.00000E+00
    0.68681E-12         0.14532E-12         0.00000E+00
    0.67668E-12         0.11358E-12         0.00000E+00
    0.66917E-12         0.77930E-13         0.00000E+00
    0.66456E-12         0.39634E-13         0.00000E+00
    0.66300E-12         0.19985E-13         0.00000E+00
    0.11484E-11         0.33957E-13         0.00000E+00
    0.11453E-11         0.64492E-13         0.00000E+00
    0.11366E-11         0.12057E-12         0.00000E+00
    0.11231E-11         0.16643E-12         0.00000E+00
    0.11057E-11         0.20171E-12         0.00000E+00
    0.10854E-11         0.22627E-12         0.00000E+00
    0.10632E-11         0.24018E-12         0.00000E+00
    0.10402E-11         0.24373E-12         0.00000E+00
    0.10172E-11         0.23746E-12         0.00000E+00
    0.99515E-12         0.22206E-12         0.00000E+00
    0.97497E-12         0.19845E-12         0.00000E+00
    0.95736E-12         0.16773E-12         0.00000E+00
    0.94298E-12         0.13112E-12         0.00000E+00
    0.93233E-12         0.89977E-13         0.00000E+00
    0.92579E-12         0.45765E-13         0.00000E+00
    0.92358E-12         0.23078E-13         0.00000E+00
    0.15239E-11         0.39946E-13         0.00000E+00
    0.15197E-11         0.75930E-13         0.00000E+00
    0.15079E-11         0.14209E-12         0.00000E+00
    0.14896E-11         0.19631E-12         0.00000E+00
    0.14661E-11         0.23812E-12         0.00000E+00
    0.14387E-11         0.26730E-12         0.00000E+00
    0.14087E-11         0.28390E-12         0.00000E+00
    0.13775E-11         0.28826E-12         0.00000E+00
    0.13464E-11         0.28096E-12         0.00000E+00
    0.13166E-11         0.26283E-12         0.00000E+00
    0.12894E-11         0.23496E-12         0.00000E+00
    0.12656E-11         0.19863E-12         0.00000E+00
    0.12462E-11         0.15530E-12         0.00000E+00
    0.12318E-11         0.10659E-12         0.00000E+00
    0.12230E-11         0.54217E-13         0.00000E+00
    0.12200E-11         0.27341E-13         0.00000E+00
    0.19636E-11         0.47941E-13         0.00000E+00
    0.19581E-11         0.91195E-13         0.00000E+00
    0.19425E-11         0.17079E-12         0.00000E+00
    0.19183E-11         0.23615E-12         0.00000E+00
    0.18873E-11         0.28664E-12         0.00000E+00
    0.18512E-11         0.32196E-12         0.00000E+00
    0.18117E-11         0.34214E-12         0.00000E+00
    0.17707E-11         0.34753E-12         0.00000E+00
    0.17298E-11         0.33885E-12         0.00000E+00
    0.16907E-11         0.31708E-12         0.00000E+00
    0.16548E-11         0.28353E-12         0.00000E+00
    0.16236E-11         0.23973E-12         0.00000E+00
    0.15981E-11         0.18746E-12         0.00000E+00
    0.15792E-11         0.12867E-12         0.00000E+00
    0.15676E-11         0.65454E-13         0.00000E+00
    0.15636E-11         0.33008E-13         0.00000E+00
    0.24856E-11         0.58402E-13         0.00000E+00
    0.24785E-11         0.11116E-12         0.00000E+00
    0.24582E-11         0.20831E-12         0.00000E+00
    0.24269E-11         0.28820E-12         0.00000E+00
    0.23867E-11         0.35001E-12         0.00000E+00
    0.23398E-11         0.39330E-12         0.00000E+00
    0.22887E-11         0.41810E-12         0.00000E+00
    0.22356E-11         0.42482E-12         0.00000E+00
    0.21827E-11         0.41430E-12         0.00000E+00
    0.21321E-11         0.38776E-12         0.00000E+00
    0.20857E-11         0.34678E-12         0.00000E+00
    0.20453E-11         0.29325E-12         0.00000E+00
    0.20123E-11         0.22933E-12         0.00000E+00
    0.19879E-11         0.15742E-12         0.00000E+00
    0.19729E-11         0.80080E-13         0.00000E+00
    0.19679E-11         0.40385E-13         0.00000E+00
    0.31117E-11         0.71922E-13         0.00000E+00
    0.31025E-11         0.13695E-12         0.00000E+00
    0.30764E-11         0.25675E-12         0.00000E+00
    0.30362E-11         0.35536E-12         0.00000E+00
    0.29846E-11         0.43170E-12         0.00000E+00
    0.29245E-11         0.48522E-12         0.00000E+00
    0.28589E-11         0.51592E-12         0.00000E+00
    0.27909E-11         0.52429E-12         0.00000E+00
    0.27231E-11         0.51137E-12         0.00000E+00
    0.26583E-11         0.47866E-12         0.00000E+00
    0.25990E-11         0.42810E-12         0.00000E+00
    0.25473E-11         0.36203E-12         0.00000E+00
    0.25052E-11         0.28313E-12         0.00000E+00
    0.24739E-11         0.19435E-12         0.00000E+00
    0.24548E-11         0.98871E-13         0.00000E+00
    0.24483E-11         0.49861E-13         0.00000E+00
    0.38677E-11         0.89261E-13         0.00000E+00
    0.38558E-11         0.17000E-12         0.00000E+00
    0.38226E-11         0.31877E-12         0.00000E+00
    0.37712E-11         0.44128E-12         0.00000E+00
    0.37054E-11         0.53615E-12         0.00000E+00
    0.36289E-11         0.60267E-12         0.00000E+00
    0.35455E-11         0.64082E-12         0.00000E+00
    0.34589E-11         0.65124E-12         0.00000E+00
    0.33727E-11         0.63519E-12         0.00000E+00
    0.32904E-11         0.59455E-12         0.00000E+00
    0.32151E-11         0.53174E-12         0.00000E+00
    0.31495E-11         0.44967E-12         0.00000E+00
    0.30959E-11         0.35166E-12         0.00000E+00
    0.30563E-11         0.24139E-12         0.00000E+00
    0.30320E-11         0.12280E-12         0.00000E+00
    0.30238E-11         0.61928E-13         0.00000E+00
    0.47847E-11         0.11137E-12         0.00000E+00
    0.47696E-11         0.21212E-12         0.00000E+00
    0.47273E-11         0.39775E-12         0.00000E+00
    0.46622E-11         0.55059E-12         0.00000E+00
    0.45787E-11         0.66891E-12         0.00000E+00
    0.44818E-11         0.75183E-12         0.00000E+00
    0.43761E-11         0.79934E-12         0.00000E+00
    0.42665E-11         0.81223E-12         0.00000E+00
    0.41576E-11         0.79213E-12         0.00000E+00
    0.40536E-11         0.74137E-12         0.00000E+00
    0.39585E-11         0.66299E-12         0.00000E+00
    0.38756E-11         0.56061E-12         0.00000E+00
    0.38081E-11         0.43839E-12         0.00000E+00
    0.37581E-11         0.30091E-12         0.00000E+00
    0.37274E-11         0.15307E-12         0.00000E+00
    0.37171E-11         0.77194E-13         0.00000E+00
    0.59005E-11         0.13945E-12         0.00000E+00
    0.58815E-11         0.26556E-12         0.00000E+00
    0.58280E-11         0.49785E-12         0.00000E+00
    0.57456E-11         0.68900E-12         0.00000E+00
    0.56402E-11         0.83685E-12         0.00000E+00
    0.55178E-11         0.94035E-12         0.00000E+00
    0.53847E-11         0.99953E-12         0.00000E+00
    0.52467E-11         0.10154E-11         0.00000E+00
    0.51096E-11         0.99007E-12         0.00000E+00
    0.49787E-11         0.92645E-12         0.00000E+00
    0.48591E-11         0.82835E-12         0.00000E+00
    0.47551E-11         0.70034E-12         0.00000E+00
    0.46702E-11         0.54759E-12         0.00000E+00
    0.46074E-11         0.37584E-12         0.00000E+00
    0.45689E-11         0.19118E-12         0.00000E+00
    0.45559E-11         0.96408E-13         0.00000E+00
    0.72613E-11         0.17498E-12         0.00000E+00
    0.72372E-11         0.33310E-12         0.00000E+00
    0.71697E-11         0.62425E-12         0.00000E+00
    0.70660E-11         0.86356E-12         0.00000E+00
    0.69334E-11         0.10484E-11         0.00000E+00
    0.67796E-11         0.11777E-11         0.00000E+00
    0.66124E-11         0.12513E-11         0.00000E+00
    0.64393E-11         0.12708E-11         0.00000E+00
    0.62675E-11         0.12387E-11         0.00000E+00
    0.61036E-11         0.11587E-11         0.00000E+00
    0.59538E-11         0.10358E-11         0.00000E+00
    0.58236E-11         0.87556E-12         0.00000E+00
    0.57174E-11         0.68450E-12         0.00000E+00
    0.56389E-11         0.46975E-12         0.00000E+00
    0.55907E-11         0.23893E-12         0.00000E+00
    0.55745E-11         0.12048E-12         0.00000E+00
    0.89233E-11         0.21977E-12         0.00000E+00
    0.88929E-11         0.41818E-12         0.00000E+00
    0.88081E-11         0.78327E-12         0.00000E+00
    0.86779E-11         0.10829E-11         0.00000E+00
    0.85117E-11         0.13141E-11         0.00000E+00
    0.83192E-11         0.14752E-11         0.00000E+00
    0.81101E-11         0.15667E-11         0.00000E+00
    0.78937E-11         0.15904E-11         0.00000E+00
    0.76791E-11         0.15496E-11         0.00000E+00
    0.74746E-11         0.14491E-11         0.00000E+00
    0.72879E-11         0.12950E-11         0.00000E+00
    0.71255E-11         0.10944E-11         0.00000E+00
    0.69932E-11         0.85542E-12         0.00000E+00
    0.68954E-11         0.58697E-12         0.00000E+00
    0.68354E-11         0.29853E-12         0.00000E+00
    0.68152E-11         0.15053E-12         0.00000E+00
    0.10955E-10         0.27605E-12         0.00000E+00
    0.10917E-10         0.52497E-12         0.00000E+00
    0.10811E-10         0.98263E-12         0.00000E+00
    0.10648E-10         0.13576E-11         0.00000E+00
    0.10441E-10         0.16463E-11         0.00000E+00
    0.10201E-10         0.18470E-11         0.00000E+00
    0.99400E-11         0.19605E-11         0.00000E+00
    0.96706E-11         0.19890E-11         0.00000E+00
    0.94036E-11         0.19371E-11         0.00000E+00
    0.91494E-11         0.18108E-11         0.00000E+00
    0.89174E-11         0.16177E-11         0.00000E+00
    0.87158E-11         0.13667E-11         0.00000E+00
    0.85516E-11         0.10680E-11         0.00000E+00
    0.84303E-11         0.73273E-12         0.00000E+00
    0.83558E-11         0.37263E-12         0.00000E+00
    0.83307E-11         0.18789E-12         0.00000E+00
    0.13442E-10         0.34653E-12         0.00000E+00
    0.13395E-10         0.65854E-12         0.00000E+00
    0.13262E-10         0.12317E-11         0.00000E+00
    0.13059E-10         0.17003E-11         0.00000E+00
    0.12801E-10         0.20602E-11         0.00000E+00
    0.12503E-10         0.23098E-11         0.00000E+00
    0.12179E-10         0.24500E-11         0.00000E+00
    0.11845E-10         0.24843E-11         0.00000E+00
    0.11514E-10         0.24182E-11         0.00000E+00
    0.11199E-10         0.22595E-11         0.00000E+00
    0.10912E-10         0.20177E-11         0.00000E+00
    0.10663E-10         0.17041E-11         0.00000E+00
    0.10460E-10         0.13314E-11         0.00000E+00
    0.10310E-10         0.91326E-12         0.00000E+00
    0.10218E-10         0.46439E-12         0.00000E+00
    0.10187E-10         0.23414E-12         0.00000E+00
    0.16488E-10         0.43446E-12         0.00000E+00
    0.16429E-10         0.82501E-12         0.00000E+00
    0.16265E-10         0.15417E-11         0.00000E+00
    0.16013E-10         0.21263E-11         0.00000E+00
    0.15693E-10         0.25741E-11         0.00000E+00
    0.15323E-10         0.28836E-11         0.00000E+00
    0.14923E-10         0.30565E-11         0.00000E+00
    0.14510E-10         0.30972E-11         0.00000E+00
    0.14102E-10         0.30131E-11         0.00000E+00
    0.13714E-10         0.28140E-11         0.00000E+00
    0.13360E-10         0.25118E-11         0.00000E+00
    0.13052E-10         0.21207E-11         0.00000E+00
    0.12802E-10         0.16564E-11         0.00000E+00
    0.12618E-10         0.11360E-11         0.00000E+00
    0.12505E-10         0.57758E-12         0.00000E+00
    0.12466E-10         0.29120E-12         0.00000E+00
    0.20222E-10         0.54376E-12         0.00000E+00
    0.20149E-10         0.10317E-11         0.00000E+00
    0.19945E-10         0.19260E-11         0.00000E+00
    0.19634E-10         0.26537E-11         0.00000E+00
    0.19238E-10         0.32095E-11         0.00000E+00
    0.18783E-10         0.35924E-11         0.00000E+00
    0.18290E-10         0.38048E-11         0.00000E+00
    0.17782E-10         0.38528E-11         0.00000E+00
    0.17280E-10         0.37459E-11         0.00000E+00
    0.16803E-10         0.34965E-11         0.00000E+00
    0.16368E-10         0.31196E-11         0.00000E+00
    0.15991E-10         0.26330E-11         0.00000E+00
    0.15685E-10         0.20559E-11         0.00000E+00
    0.15458E-10         0.14097E-11         0.00000E+00
    0.15319E-10         0.71666E-12         0.00000E+00
    0.15273E-10         0.36130E-12         0.00000E+00
    0.24803E-10         0.67907E-12         0.00000E+00
    0.24712E-10         0.12872E-11         0.00000E+00
    0.24461E-10         0.24006E-11         0.00000E+00
    0.24077E-10         0.33040E-11         0.00000E+00
    0.23591E-10         0.39922E-11         0.00000E+00
    0.23032E-10         0.44644E-11         0.00000E+00
    0.22427E-10         0.47244E-11         0.00000E+00
    0.21805E-10         0.47806E-11         0.00000E+00
    0.21190E-10         0.46449E-11         0.00000E+00
    0.20606E-10         0.43332E-11         0.00000E+00
    0.20075E-10         0.38644E-11         0.00000E+00
    0.19614E-10         0.32603E-11         0.00000E+00
    0.19240E-10         0.25450E-11         0.00000E+00
    0.18963E-10         0.17447E-11         0.00000E+00
    0.18794E-10         0.88685E-12         0.00000E+00
    0.18736E-10         0.44707E-12         0.00000E+00
    0.30427E-10         0.84589E-12         0.00000E+00
    0.30315E-10         0.16019E-11         0.00000E+00
    0.30006E-10         0.29842E-11         0.00000E+00
    0.29536E-10         0.41028E-11         0.00000E+00
    0.28941E-10         0.49521E-11         0.00000E+00
    0.28257E-10         0.55326E-11         0.00000E+00
    0.27518E-10         0.58499E-11         0.00000E+00
    0.26759E-10         0.59149E-11         0.00000E+00
    0.26009E-10         0.57433E-11         0.00000E+00
    0.25298E-10         0.53548E-11         0.00000E+00
    0.24651E-10         0.47732E-11         0.00000E+00
    0.24090E-10         0.40254E-11         0.00000E+00
    0.23634E-10         0.31413E-11         0.00000E+00
    0.23298E-10         0.21530E-11         0.00000E+00
    0.23092E-10         0.10943E-11         0.00000E+00
    0.23022E-10         0.55159E-12         0.00000E+00
    0.37337E-10         0.10507E-11         0.00000E+00
    0.37201E-10         0.19878E-11         0.00000E+00
    0.36823E-10         0.36989E-11         0.00000E+00
    0.36249E-10         0.50795E-11         0.00000E+00
    0.35524E-10         0.61245E-11         0.00000E+00
    0.34690E-10         0.68358E-11         0.00000E+00
    0.33792E-10         0.72215E-11         0.00000E+00
    0.32869E-10         0.72961E-11         0.00000E+00
    0.31958E-10         0.70796E-11         0.00000E+00
    0.31095E-10         0.65968E-11         0.00000E+00
    0.30311E-10         0.58774E-11         0.00000E+00
    0.29631E-10         0.49547E-11         0.00000E+00
    0.29079E-10         0.38653E-11         0.00000E+00
    0.28671E-10         0.26487E-11         0.00000E+00
    0.28422E-10         0.13460E-11         0.00000E+00
    0.28338E-10         0.67844E-12         0.00000E+00
    0.45836E-10         0.13010E-11         0.00000E+00
    0.45670E-10         0.24589E-11         0.00000E+00
    0.45210E-10         0.45702E-11         0.00000E+00
    0.44512E-10         0.62687E-11         0.00000E+00
    0.43632E-10         0.75502E-11         0.00000E+00
    0.42621E-10         0.84187E-11         0.00000E+00
    0.41533E-10         0.88859E-11         0.00000E+00
    0.40416E-10         0.89707E-11         0.00000E+00
    0.39315E-10         0.86985E-11         0.00000E+00
    0.38273E-10         0.81006E-11         0.00000E+00
    0.37325E-10         0.72137E-11         0.00000E+00
    0.36505E-10         0.60787E-11         0.00000E+00
    0.35838E-10         0.47408E-11         0.00000E+00
    0.35347E-10         0.32478E-11         0.00000E+00
    0.35046E-10         0.16503E-11         0.00000E+00
    0.34945E-10         0.83174E-12         0.00000E+00
    0.56298E-10         0.16055E-11         0.00000E+00
    0.56096E-10         0.30313E-11         0.00000E+00
    0.55539E-10         0.56278E-11         0.00000E+00
    0.54695E-10         0.77103E-11         0.00000E+00
    0.53631E-10         0.92764E-11         0.00000E+00
    0.52411E-10         0.10333E-10         0.00000E+00
    0.51099E-10         0.10897E-10         0.00000E+00
    0.49753E-10         0.10992E-10         0.00000E+00
    0.48427E-10         0.10652E-10         0.00000E+00
    0.47173E-10         0.99137E-11         0.00000E+00
    0.46033E-10         0.88239E-11         0.00000E+00
    0.45047E-10         0.74327E-11         0.00000E+00
    0.44246E-10         0.57949E-11         0.00000E+00
    0.43656E-10         0.39691E-11         0.00000E+00
    0.43295E-10         0.20165E-11         0.00000E+00
    0.43173E-10         0.10163E-11         0.00000E+00
    0.69189E-10         0.19743E-11         0.00000E+00
    0.68945E-10         0.37238E-11         0.00000E+00
    0.68273E-10         0.69055E-11         0.00000E+00
    0.67256E-10         0.94499E-11         0.00000E+00
    0.65976E-10         0.11357E-10         0.00000E+00
    0.64510E-10         0.12639E-10         0.00000E+00
    0.62934E-10         0.13317E-10         0.00000E+00
    0.61318E-10         0.13423E-10         0.00000E+00
    0.59729E-10         0.12998E-10         0.00000E+00
    0.58226E-10         0.12091E-10         0.00000E+00
    0.56861E-10         0.10756E-10         0.00000E+00
    0.55681E-10         0.90569E-11         0.00000E+00
    0.54722E-10         0.70592E-11         0.00000E+00
    0.54016E-10         0.48340E-11         0.00000E+00
    0.53583E-10         0.24556E-11         0.00000E+00
    0.53438E-10         0.12375E-11         0.00000E+00
    0.85087E-10         0.24187E-11         0.00000E+00
    0.84794E-10         0.45576E-11         0.00000E+00
    0.83987E-10         0.84424E-11         0.00000E+00
    0.82767E-10         0.11540E-10         0.00000E+00
    0.81233E-10         0.13854E-10         0.00000E+00
    0.79479E-10         0.15403E-10         0.00000E+00
    0.77594E-10         0.16216E-10         0.00000E+00
    0.75664E-10         0.16333E-10         0.00000E+00
    0.73766E-10         0.15806E-10         0.00000E+00
    0.71971E-10         0.14694E-10         0.00000E+00
    0.70343E-10         0.13066E-10         0.00000E+00
    0.68935E-10         0.10998E-10         0.00000E+00
    0.67792E-10         0.85695E-11         0.00000E+00
    0.66950E-10         0.58671E-11         0.00000E+00
    0.66434E-10         0.29800E-11         0.00000E+00
    0.66261E-10         0.15016E-11         0.00000E+00
    0.10471E-09         0.29520E-11         0.00000E+00
    0.10436E-09         0.55571E-11         0.00000E+00
    0.10340E-09         0.10283E-10         0.00000E+00
    0.10194E-09         0.14040E-10         0.00000E+00
    0.10011E-09         0.16839E-10         0.00000E+00
    0.98018E-10         0.18704E-10         0.00000E+00
    0.95773E-10         0.19675E-10         0.00000E+00
    0.93475E-10         0.19803E-10         0.00000E+00
    0.91217E-10         0.19152E-10         0.00000E+00
    0.89083E-10         0.17796E-10         0.00000E+00
    0.87147E-10         0.15817E-10         0.00000E+00
    0.85474E-10         0.13309E-10         0.00000E+00
    0.84116E-10         0.10367E-10         0.00000E+00
    0.83116E-10         0.70965E-11         0.00000E+00
    0.82503E-10         0.36040E-11         0.00000E+00
    0.82297E-10         0.18160E-11         0.00000E+00
    0.12895E-09         0.35887E-11         0.00000E+00
    0.12854E-09         0.67496E-11         0.00000E+00
    0.12739E-09         0.12476E-10         0.00000E+00
    0.12566E-09         0.17018E-10         0.00000E+00
    0.12348E-09         0.20390E-10         0.00000E+00
    0.12100E-09         0.22630E-10         0.00000E+00
    0.11834E-09         0.23786E-10         0.00000E+00
    0.11561E-09         0.23925E-10         0.00000E+00
    0.11293E-09         0.23126E-10         0.00000E+00
    0.11040E-09         0.21477E-10         0.00000E+00
    0.10811E-09         0.19082E-10         0.00000E+00
    0.10613E-09         0.16050E-10         0.00000E+00
    0.10452E-09         0.12500E-10         0.00000E+00
    0.10333E-09         0.85547E-11         0.00000E+00
    0.10261E-09         0.43441E-11         0.00000E+00
    0.10237E-09         0.21888E-11         0.00000E+00
    0.15893E-09         0.43458E-11         0.00000E+00
    0.15843E-09         0.81665E-11         0.00000E+00
    0.15707E-09         0.15081E-10         0.00000E+00
    0.15502E-09         0.20550E-10         0.00000E+00
    0.15245E-09         0.24602E-10         0.00000E+00
    0.14951E-09         0.27282E-10         0.00000E+00
    0.14636E-09         0.28657E-10         0.00000E+00
    0.14314E-09         0.28807E-10         0.00000E+00
    0.13997E-09         0.27829E-10         0.00000E+00
    0.13698E-09         0.25834E-10         0.00000E+00
    0.13427E-09         0.22945E-10         0.00000E+00
    0.13193E-09         0.19294E-10         0.00000E+00
    0.13003E-09         0.15022E-10         0.00000E+00
    0.12863E-09         0.10279E-10         0.00000E+00
    0.12778E-09         0.52195E-11         0.00000E+00
    0.12749E-09         0.26297E-11         0.00000E+00
    0.19601E-09         0.52419E-11         0.00000E+00
    0.19543E-09         0.98429E-11         0.00000E+00
    0.19382E-09         0.18161E-10         0.00000E+00
    0.19140E-09         0.24726E-10         0.00000E+00
    0.18837E-09         0.29577E-10         0.00000E+00
    0.18490E-09         0.32777E-10         0.00000E+00
    0.18119E-09         0.34407E-10         0.00000E+00
    0.17739E-09         0.34569E-10         0.00000E+00
    0.17366E-09         0.33381E-10         0.00000E+00
    0.17013E-09         0.30977E-10         0.00000E+00
    0.16694E-09         0.27504E-10         0.00000E+00
    0.16417E-09         0.23121E-10         0.00000E+00
    0.16193E-09         0.17999E-10         0.00000E+00
    0.16028E-09         0.12315E-10         0.00000E+00
    0.15927E-09         0.62524E-11         0.00000E+00
    0.15893E-09         0.31500E-11         0.00000E+00
    0.24192E-09         0.62987E-11         0.00000E+00
    0.24124E-09         0.11819E-10         0.00000E+00
    0.23935E-09         0.21791E-10         0.00000E+00
    0.23650E-09         0.29645E-10         0.00000E+00
    0.23292E-09         0.35438E-10         0.00000E+00
    0.22885E-09         0.39249E-10         0.00000E+00
    0.22448E-09         0.41181E-10         0.00000E+00
    0.22001E-09         0.41357E-10         0.00000E+00
    0.21561E-09         0.39921E-10         0.00000E+00
    0.21147E-09         0.37034E-10         0.00000E+00
    0.20770E-09         0.32874E-10         0.00000E+00
    0.20445E-09         0.27630E-10         0.00000E+00
    0.20181E-09         0.21506E-10         0.00000E+00
    0.19987E-09         0.14713E-10         0.00000E+00
    0.19868E-09         0.74695E-11         0.00000E+00
    0.19828E-09         0.37631E-11         0.00000E+00
    0.29878E-09         0.75404E-11         0.00000E+00
    0.29797E-09         0.14141E-10         0.00000E+00
    0.29576E-09         0.26056E-10         0.00000E+00
    0.29241E-09         0.35427E-10         0.00000E+00
    0.28822E-09         0.42327E-10         0.00000E+00
    0.28343E-09         0.46858E-10         0.00000E+00
    0.27829E-09         0.49145E-10         0.00000E+00
    0.27304E-09         0.49340E-10         0.00000E+00
    0.26787E-09         0.47614E-10         0.00000E+00
    0.26299E-09         0.44162E-10         0.00000E+00
    0.25856E-09         0.39194E-10         0.00000E+00
    0.25474E-09         0.32938E-10         0.00000E+00
    0.25163E-09         0.25635E-10         0.00000E+00
    0.24934E-09         0.17536E-10         0.00000E+00
    0.24794E-09         0.89027E-11         0.00000E+00
    0.24747E-09         0.44850E-11         0.00000E+00
    0.36922E-09         0.89955E-11         0.00000E+00
    0.36827E-09         0.16863E-10         0.00000E+00
    0.36568E-09         0.31057E-10         0.00000E+00
    0.36176E-09         0.42209E-10         0.00000E+00
    0.35684E-09         0.50412E-10         0.00000E+00
    0.35122E-09         0.55792E-10         0.00000E+00
    0.34518E-09         0.58503E-10         0.00000E+00
    0.33900E-09         0.58724E-10         0.00000E+00
    0.33293E-09         0.56663E-10         0.00000E+00
    0.32718E-09         0.52549E-10         0.00000E+00
    0.32197E-09         0.46634E-10         0.00000E+00
    0.31746E-09         0.39189E-10         0.00000E+00
    0.31380E-09         0.30498E-10         0.00000E+00
    0.31110E-09         0.20863E-10         0.00000E+00
    0.30944E-09         0.10591E-10         0.00000E+00
    0.30889E-09         0.53357E-11         0.00000E+00
    0.45649E-09         0.10697E-10         0.00000E+00
    0.45539E-09         0.20048E-10         0.00000E+00
    0.45235E-09         0.36914E-10         0.00000E+00
    0.44776E-09         0.50159E-10         0.00000E+00
    0.44198E-09         0.59898E-10         0.00000E+00
    0.43538E-09         0.66284E-10         0.00000E+00
    0.42829E-09         0.69501E-10         0.00000E+00
    0.42101E-09         0.69762E-10         0.00000E+00
    0.41386E-09         0.67314E-10         0.00000E+00
    0.40708E-09         0.62429E-10         0.00000E+00
    0.40093E-09         0.55404E-10         0.00000E+00
    0.39560E-09         0.46560E-10         0.00000E+00
    0.39127E-09         0.36236E-10         0.00000E+00
    0.38808E-09         0.24789E-10         0.00000E+00
    0.38613E-09         0.12584E-10         0.00000E+00
    0.38547E-09         0.63399E-11         0.00000E+00
    0.56462E-09         0.12686E-10         0.00000E+00
    0.56333E-09         0.23774E-10         0.00000E+00
    0.55977E-09         0.43774E-10         0.00000E+00
    0.55438E-09         0.59482E-10         0.00000E+00
    0.54760E-09         0.71038E-10         0.00000E+00
    0.53983E-09         0.78622E-10         0.00000E+00
    0.53147E-09         0.82450E-10         0.00000E+00
    0.52288E-09         0.82774E-10         0.00000E+00
    0.51442E-09         0.79884E-10         0.00000E+00
    0.50641E-09         0.74099E-10         0.00000E+00
    0.49912E-09         0.65771E-10         0.00000E+00
    0.49280E-09         0.55280E-10         0.00000E+00
    0.48767E-09         0.43027E-10         0.00000E+00
    0.48388E-09         0.29437E-10         0.00000E+00
    0.48156E-09         0.14945E-10         0.00000E+00
    0.48078E-09         0.75292E-11         0.00000E+00
    0.69856E-09         0.15011E-10         0.00000E+00
    0.69704E-09         0.28137E-10         0.00000E+00
    0.69287E-09         0.51820E-10         0.00000E+00
    0.68653E-09         0.70438E-10         0.00000E+00
    0.67854E-09         0.84153E-10         0.00000E+00
    0.66936E-09         0.93173E-10         0.00000E+00
    0.65946E-09         0.97747E-10         0.00000E+00
    0.64929E-09         0.98169E-10         0.00000E+00
    0.63924E-09         0.94774E-10         0.00000E+00
    0.62971E-09         0.87940E-10         0.00000E+00
    0.62103E-09         0.78080E-10         0.00000E+00
    0.61350E-09         0.65641E-10         0.00000E+00
    0.60738E-09         0.51103E-10         0.00000E+00
    0.60286E-09         0.34966E-10         0.00000E+00
    0.60009E-09         0.17754E-10         0.00000E+00
    0.59915E-09         0.89448E-11         0.00000E+00
    0.86439E-09         0.17736E-10         0.00000E+00
    0.86261E-09         0.33258E-10         0.00000E+00
    0.85770E-09         0.61287E-10         0.00000E+00
    0.85022E-09         0.83360E-10         0.00000E+00
    0.84075E-09         0.99658E-10         0.00000E+00
    0.82985E-09         0.11041E-09         0.00000E+00
    0.81807E-09         0.11591E-09         0.00000E+00
    0.80593E-09         0.11648E-09         0.00000E+00
    0.79392E-09         0.11251E-09         0.00000E+00
    0.78251E-09         0.10445E-09         0.00000E+00
    0.77211E-09         0.92783E-10         0.00000E+00
    0.76307E-09         0.78031E-10         0.00000E+00
    0.75571E-09         0.60766E-10         0.00000E+00
    0.75028E-09         0.41587E-10         0.00000E+00
    0.74695E-09         0.21118E-10         0.00000E+00
    0.74582E-09         0.10641E-10         0.00000E+00
    0.10696E-08         0.20941E-10         0.00000E+00
    0.10675E-08         0.39298E-10         0.00000E+00
    0.10617E-08         0.72483E-10         0.00000E+00
    0.10528E-08         0.98687E-10         0.00000E+00
    0.10415E-08         0.11810E-09         0.00000E+00
    0.10285E-08         0.13097E-09         0.00000E+00
    0.10143E-08         0.13761E-09         0.00000E+00
    0.99974E-09         0.13841E-09         0.00000E+00
    0.98528E-09         0.13380E-09         0.00000E+00
    0.97151E-09         0.12430E-09         0.00000E+00
    0.95893E-09         0.11048E-09         0.00000E+00
    0.94799E-09         0.92961E-10         0.00000E+00
    0.93908E-09         0.72421E-10         0.00000E+00
    0.93249E-09         0.49577E-10         0.00000E+00
    0.92845E-09         0.25180E-10         0.00000E+00
    0.92708E-09         0.12688E-10         0.00000E+00
    0.13234E-08         0.24735E-10         0.00000E+00
    0.13209E-08         0.46467E-10         0.00000E+00
    0.13139E-08         0.85815E-10         0.00000E+00
    0.13033E-08         0.11700E-09         0.00000E+00
    0.12897E-08         0.14020E-09         0.00000E+00
    0.12739E-08         0.15568E-09         0.00000E+00
    0.12569E-08         0.16378E-09         0.00000E+00
    0.12391E-08         0.16491E-09         0.00000E+00
    0.12216E-08         0.15958E-09         0.00000E+00
    0.12048E-08         0.14837E-09         0.00000E+00
    0.11894E-08         0.13197E-09         0.00000E+00
    0.11761E-08         0.11111E-09         0.00000E+00
    0.11652E-08         0.86606E-10         0.00000E+00
    0.11571E-08         0.59309E-10         0.00000E+00
    0.11521E-08         0.30129E-10         0.00000E+00
    0.11505E-08         0.15183E-10         0.00000E+00
    0.16369E-08         0.29262E-10         0.00000E+00
    0.16339E-08         0.55050E-10         0.00000E+00
    0.16255E-08         0.10183E-09         0.00000E+00
    0.16126E-08         0.13908E-09         0.00000E+00
    0.15961E-08         0.16695E-09         0.00000E+00
    0.15769E-08         0.18568E-09         0.00000E+00
    0.15560E-08         0.19562E-09         0.00000E+00
    0.15343E-08         0.19723E-09         0.00000E+00
    0.15127E-08         0.19109E-09         0.00000E+00
    0.14920E-08         0.17786E-09         0.00000E+00
    0.14731E-08         0.15834E-09         0.00000E+00
    0.14566E-08         0.13341E-09         0.00000E+00
    0.14431E-08         0.10404E-09         0.00000E+00
    0.14331E-08         0.71280E-10         0.00000E+00
    0.14270E-08         0.36219E-10         0.00000E+00
    0.14249E-08         0.18255E-10         0.00000E+00
    0.20237E-08         0.34719E-10         0.00000E+00
    0.20201E-08         0.65431E-10         0.00000E+00
    0.20099E-08         0.12128E-09         0.00000E+00
    0.19941E-08         0.16600E-09         0.00000E+00
    0.19738E-08         0.19966E-09         0.00000E+00
    0.19502E-08         0.22248E-09         0.00000E+00
    0.19243E-08         0.23479E-09         0.00000E+00
    0.18974E-08         0.23710E-09         0.00000E+00
    0.18706E-08         0.23002E-09         0.00000E+00
    0.18449E-08         0.21436E-09         0.00000E+00
    0.18213E-08         0.19103E-09         0.00000E+00
    0.18007E-08         0.16108E-09         0.00000E+00
    0.17839E-08         0.12571E-09         0.00000E+00
    0.17714E-08         0.86159E-10         0.00000E+00
    0.17637E-08         0.43792E-10         0.00000E+00
    0.17611E-08         0.22075E-10         0.00000E+00
    0.25005E-08         0.41376E-10         0.00000E+00
    0.24960E-08         0.78135E-10         0.00000E+00
    0.24834E-08         0.14517E-09         0.00000E+00
    0.24639E-08         0.19918E-09         0.00000E+00
    0.24387E-08         0.24013E-09         0.00000E+00
    0.24092E-08         0.26814E-09         0.00000E+00
    0.23769E-08         0.28353E-09         0.00000E+00
    0.23432E-08         0.28680E-09         0.00000E+00
    0.23095E-08         0.27866E-09         0.00000E+00
    0.22772E-08         0.26002E-09         0.00000E+00
    0.22475E-08         0.23197E-09         0.00000E+00
    0.22216E-08         0.19579E-09         0.00000E+00
    0.22003E-08         0.15289E-09         0.00000E+00
    0.21846E-08         0.10484E-09         0.00000E+00
    0.21749E-08         0.53304E-10         0.00000E+00
    0.21716E-08         0.26874E-10         0.00000E+00
    0.30874E-08         0.49598E-10         0.00000E+00
    0.30818E-08         0.93878E-10         0.00000E+00
    0.30661E-08         0.17488E-09         0.00000E+00
    0.30415E-08         0.24058E-09         0.00000E+00
    0.30099E-08         0.29077E-09         0.00000E+00
    0.29727E-08         0.32543E-09         0.00000E+00
    0.29319E-08         0.34481E-09         0.00000E+00
    0.28892E-08         0.34942E-09         0.00000E+00
    0.28465E-08         0.34004E-09         0.00000E+00
    0.28055E-08         0.31773E-09         0.00000E+00
    0.27677E-08         0.28377E-09         0.00000E+00
    0.27347E-08         0.23973E-09         0.00000E+00
    0.27077E-08         0.18734E-09         0.00000E+00
    0.26876E-08         0.12853E-09         0.00000E+00
    0.26753E-08         0.65367E-10         0.00000E+00
    0.26711E-08         0.32960E-10         0.00000E+00
    0.38086E-08         0.59887E-10         0.00000E+00
    0.38016E-08         0.11363E-09         0.00000E+00
    0.37817E-08         0.21226E-09         0.00000E+00
    0.37506E-08         0.29284E-09         0.00000E+00
    0.37103E-08         0.35485E-09         0.00000E+00
    0.36630E-08         0.39808E-09         0.00000E+00
    0.36109E-08         0.42267E-09         0.00000E+00
    0.35564E-08         0.42910E-09         0.00000E+00
    0.35018E-08         0.41825E-09         0.00000E+00
    0.34492E-08         0.39132E-09         0.00000E+00
    0.34009E-08         0.34990E-09         0.00000E+00
    0.33586E-08         0.29586E-09         0.00000E+00
    0.33239E-08         0.23136E-09         0.00000E+00
    0.32982E-08         0.15881E-09         0.00000E+00
    0.32823E-08         0.80791E-10         0.00000E+00
    0.32770E-08         0.40744E-10         0.00000E+00
    0.46935E-08         0.72923E-10         0.00000E+00
    0.46846E-08         0.13872E-09         0.00000E+00
    0.46591E-08         0.25985E-09         0.00000E+00
    0.46193E-08         0.35950E-09         0.00000E+00
    0.45677E-08         0.43675E-09         0.00000E+00
    0.45069E-08         0.49108E-09         0.00000E+00
    0.44399E-08         0.52246E-09         0.00000E+00
    0.43697E-08         0.53134E-09         0.00000E+00
    0.42993E-08         0.51867E-09         0.00000E+00
    0.42316E-08         0.48590E-09         0.00000E+00
    0.41692E-08         0.43493E-09         0.00000E+00
    0.41146E-08         0.36806E-09         0.00000E+00
    0.40698E-08         0.28801E-09         0.00000E+00
    0.40366E-08         0.19779E-09         0.00000E+00
    0.40162E-08         0.10065E-09         0.00000E+00
    0.40093E-08         0.50764E-10         0.00000E+00
    0.57775E-08         0.89625E-10         0.00000E+00
    0.57660E-08         0.17090E-09         0.00000E+00
    0.57332E-08         0.32100E-09         0.00000E+00
    0.56818E-08         0.44530E-09         0.00000E+00
    0.56150E-08         0.54228E-09         0.00000E+00
    0.55363E-08         0.61103E-09         0.00000E+00
    0.54496E-08         0.65128E-09         0.00000E+00
    0.53587E-08         0.66340E-09         0.00000E+00
    0.52675E-08         0.64847E-09         0.00000E+00
    0.51797E-08         0.60819E-09         0.00000E+00
    0.50989E-08         0.54489E-09         0.00000E+00
    0.50281E-08         0.46146E-09         0.00000E+00
    0.49700E-08         0.36131E-09         0.00000E+00
    0.49270E-08         0.24822E-09         0.00000E+00
    0.49005E-08         0.12634E-09         0.00000E+00
    0.48916E-08         0.63731E-10         0.00000E+00
    0.71029E-08         0.11123E-09         0.00000E+00
    0.70880E-08         0.21256E-09         0.00000E+00
    0.70454E-08         0.40023E-09         0.00000E+00
    0.69785E-08         0.55653E-09         0.00000E+00
    0.68917E-08         0.67917E-09         0.00000E+00
    0.67894E-08         0.76669E-09         0.00000E+00
    0.66766E-08         0.81848E-09         0.00000E+00
    0.65584E-08         0.83484E-09         0.00000E+00
    0.64398E-08         0.81698E-09         0.00000E+00
    0.63256E-08         0.76695E-09         0.00000E+00
    0.62205E-08         0.68766E-09         0.00000E+00
    0.61285E-08         0.58274E-09         0.00000E+00
    0.60531E-08         0.45647E-09         0.00000E+00
    0.59971E-08         0.31371E-09         0.00000E+00
    0.59627E-08         0.15970E-09         0.00000E+00
    0.59511E-08         0.80566E-10         0.00000E+00
    0.87208E-08         0.13937E-09         0.00000E+00
    0.87013E-08         0.26685E-09         0.00000E+00
    0.86456E-08         0.50347E-09         0.00000E+00
    0.85583E-08         0.70147E-09         0.00000E+00
    0.84449E-08         0.85754E-09         0.00000E+00
    0.83115E-08         0.96947E-09         0.00000E+00
    0.81644E-08         0.10363E-08         0.00000E+00
    0.80103E-08         0.10581E-08         0.00000E+00
    0.78557E-08         0.10364E-08         0.00000E+00
    0.77071E-08         0.97361E-09         0.00000E+00
    0.75702E-08         0.87346E-09         0.00000E+00
    0.74504E-08         0.74053E-09         0.00000E+00
    0.73523E-08         0.58028E-09         0.00000E+00
    0.72795E-08         0.39888E-09         0.00000E+00
    0.72347E-08         0.20309E-09         0.00000E+00
    0.72196E-08         0.10246E-09         0.00000E+00
    0.10692E-07         0.17622E-09         0.00000E+00
    0.10666E-07         0.33790E-09         0.00000E+00
    0.10593E-07         0.63852E-09         0.00000E+00
    0.10479E-07         0.89096E-09         0.00000E+00
    0.10331E-07         0.10906E-08         0.00000E+00
    0.10156E-07         0.12342E-08         0.00000E+00
    0.99645E-08         0.13204E-08         0.00000E+00
    0.97635E-08         0.13492E-08         0.00000E+00
    0.95620E-08         0.13223E-08         0.00000E+00
    0.93683E-08         0.12428E-08         0.00000E+00
    0.91901E-08         0.11154E-08         0.00000E+00
    0.90343E-08         0.94594E-09         0.00000E+00
    0.89066E-08         0.74140E-09         0.00000E+00
    0.88119E-08         0.50972E-09         0.00000E+00
    0.87536E-08         0.25955E-09         0.00000E+00
    0.87340E-08         0.13095E-09         0.00000E+00
    0.13089E-07         0.22461E-09         0.00000E+00
    0.13056E-07         0.43113E-09         0.00000E+00
    0.12960E-07         0.81553E-09         0.00000E+00
    0.12810E-07         0.11390E-08         0.00000E+00
    0.12616E-07         0.13953E-08         0.00000E+00
    0.12388E-07         0.15801E-08         0.00000E+00
    0.12138E-07         0.16913E-08         0.00000E+00
    0.11876E-07         0.17289E-08         0.00000E+00
    0.11614E-07         0.16949E-08         0.00000E+00
    0.11362E-07         0.15934E-08         0.00000E+00
    0.11130E-07         0.14303E-08         0.00000E+00
    0.10927E-07         0.12131E-08         0.00000E+00
    0.10762E-07         0.95089E-09         0.00000E+00
    0.10639E-07         0.65379E-09         0.00000E+00
    0.10563E-07         0.33292E-09         0.00000E+00
    0.10538E-07         0.16797E-09         0.00000E+00
    0.16000E-07         0.28822E-09         0.00000E+00
    0.15956E-07         0.55350E-09         0.00000E+00
    0.15830E-07         0.10475E-08         0.00000E+00
    0.15634E-07         0.14636E-08         0.00000E+00
    0.15381E-07         0.17935E-08         0.00000E+00
    0.15084E-07         0.20314E-08         0.00000E+00
    0.14757E-07         0.21746E-08         0.00000E+00
    0.14417E-07         0.22231E-08         0.00000E+00
    0.14076E-07         0.21795E-08         0.00000E+00
    0.13749E-07         0.20490E-08         0.00000E+00
    0.13448E-07         0.18392E-08         0.00000E+00
    0.13186E-07         0.15599E-08         0.00000E+00
    0.12971E-07         0.12227E-08         0.00000E+00
    0.12812E-07         0.84064E-09         0.00000E+00
    0.12714E-07         0.42806E-09         0.00000E+00
    0.12681E-07         0.21598E-09         0.00000E+00
    0.19528E-07         0.37178E-09         0.00000E+00
    0.19470E-07         0.71397E-09         0.00000E+00
    0.19305E-07         0.13512E-08         0.00000E+00
    0.19050E-07         0.18877E-08         0.00000E+00
    0.18719E-07         0.23128E-08         0.00000E+00
    0.18333E-07         0.26191E-08         0.00000E+00
    0.17909E-07         0.28031E-08         0.00000E+00
    0.17467E-07         0.28649E-08         0.00000E+00
    0.17026E-07         0.28080E-08         0.00000E+00
    0.16603E-07         0.26393E-08         0.00000E+00
    0.16215E-07         0.23686E-08         0.00000E+00
    0.15876E-07         0.20086E-08         0.00000E+00
    0.15598E-07         0.15742E-08         0.00000E+00
    0.15393E-07         0.10822E-08         0.00000E+00
    0.15267E-07         0.55103E-09         0.00000E+00
    0.15224E-07         0.27801E-09         0.00000E+00
    0.23797E-07         0.48128E-09         0.00000E+00
    0.23721E-07         0.92389E-09         0.00000E+00
    0.23507E-07         0.17476E-08         0.00000E+00
    0.23174E-07         0.24402E-08         0.00000E+00
    0.22745E-07         0.29879E-08         0.00000E+00
    0.22244E-07         0.33817E-08         0.00000E+00
    0.21696E-07         0.36173E-08         0.00000E+00
    0.21126E-07         0.36953E-08         0.00000E+00
    0.20556E-07         0.36202E-08         0.00000E+00
    0.20012E-07         0.34014E-08         0.00000E+00
    0.19512E-07         0.30515E-08         0.00000E+00
    0.19076E-07         0.25869E-08         0.00000E+00
    0.18720E-07         0.20269E-08         0.00000E+00
    0.18456E-07         0.13932E-08         0.00000E+00
    0.18294E-07         0.70932E-09         0.00000E+00
    0.18239E-07         0.35786E-09         0.00000E+00
    0.28956E-07         0.62428E-09         0.00000E+00
    0.28857E-07         0.11975E-08         0.00000E+00
    0.28579E-07         0.22630E-08         0.00000E+00
    0.28148E-07         0.31569E-08         0.00000E+00
    0.27594E-07         0.38619E-08         0.00000E+00
    0.26948E-07         0.43671E-08         0.00000E+00
    0.26242E-07         0.46677E-08         0.00000E+00
    0.25509E-07         0.47648E-08         0.00000E+00
    0.24778E-07         0.46650E-08         0.00000E+00
    0.24080E-07         0.43805E-08         0.00000E+00
    0.23440E-07         0.39280E-08         0.00000E+00
    0.22882E-07         0.33287E-08         0.00000E+00
    0.22427E-07         0.26073E-08         0.00000E+00
    0.22090E-07         0.17918E-08         0.00000E+00
    0.21883E-07         0.91210E-09         0.00000E+00
    0.21813E-07         0.46013E-09         0.00000E+00
    0.35184E-07         0.81022E-09         0.00000E+00
    0.35056E-07         0.15524E-08         0.00000E+00
    0.34696E-07         0.29302E-08         0.00000E+00
    0.34140E-07         0.40823E-08         0.00000E+00
    0.33427E-07         0.49879E-08         0.00000E+00
    0.32599E-07         0.56341E-08         0.00000E+00
    0.31695E-07         0.60158E-08         0.00000E+00
    0.30758E-07         0.61352E-08         0.00000E+00
    0.29825E-07         0.60020E-08         0.00000E+00
    0.28935E-07         0.56319E-08         0.00000E+00
    0.28121E-07         0.50472E-08         0.00000E+00
    0.27411E-07         0.42750E-08         0.00000E+00
    0.26833E-07         0.33473E-08         0.00000E+00
    0.26405E-07         0.22997E-08         0.00000E+00
    0.26142E-07         0.11705E-08         0.00000E+00
    0.26053E-07         0.59042E-09         0.00000E+00
    0.42693E-07         0.10507E-08         0.00000E+00
    0.42528E-07         0.20105E-08         0.00000E+00
    0.42065E-07         0.37891E-08         0.00000E+00
    0.41353E-07         0.52706E-08         0.00000E+00
    0.40442E-07         0.64304E-08         0.00000E+00
    0.39386E-07         0.72539E-08         0.00000E+00
    0.38236E-07         0.77360E-08         0.00000E+00
    0.37045E-07         0.78812E-08         0.00000E+00
    0.35862E-07         0.77028E-08         0.00000E+00
    0.34734E-07         0.72220E-08         0.00000E+00
    0.33703E-07         0.64677E-08         0.00000E+00
    0.32807E-07         0.54752E-08         0.00000E+00
    0.32076E-07         0.42852E-08         0.00000E+00
    0.31535E-07         0.29431E-08         0.00000E+00
    0.31204E-07         0.14977E-08         0.00000E+00
    0.31092E-07         0.75541E-09         0.00000E+00
    0.51741E-07         0.13599E-08         0.00000E+00
    0.51530E-07         0.25981E-08         0.00000E+00
    0.50940E-07         0.48880E-08         0.00000E+00
    0.50033E-07         0.67872E-08         0.00000E+00
    0.48876E-07         0.82672E-08         0.00000E+00
    0.47537E-07         0.93120E-08         0.00000E+00
    0.46083E-07         0.99176E-08         0.00000E+00
    0.44579E-07         0.10092E-07         0.00000E+00
    0.43089E-07         0.98529E-08         0.00000E+00
    0.41669E-07         0.92297E-08         0.00000E+00
    0.40373E-07         0.82595E-08         0.00000E+00
    0.39247E-07         0.69877E-08         0.00000E+00
    0.38330E-07         0.54664E-08         0.00000E+00
    0.37652E-07         0.37531E-08         0.00000E+00
    0.37237E-07         0.19095E-08         0.00000E+00
    0.37096E-07         0.96300E-09         0.00000E+00
    0.62641E-07         0.17547E-08         0.00000E+00
    0.62372E-07         0.33469E-08         0.00000E+00
    0.61623E-07         0.62849E-08         0.00000E+00
    0.60476E-07         0.87100E-08         0.00000E+00
    0.59017E-07         0.10590E-07         0.00000E+00
    0.57332E-07         0.11909E-07         0.00000E+00
    0.55506E-07         0.12666E-07         0.00000E+00
    0.53621E-07         0.12871E-07         0.00000E+00
    0.51756E-07         0.12553E-07         0.00000E+00
    0.49982E-07         0.11747E-07         0.00000E+00
    0.48364E-07         0.10504E-07         0.00000E+00
    0.46960E-07         0.88807E-08         0.00000E+00
    0.45817E-07         0.69437E-08         0.00000E+00
    0.44973E-07         0.47656E-08         0.00000E+00
    0.44456E-07         0.24241E-08         0.00000E+00
    0.44281E-07         0.12224E-08         0.00000E+00
    0.75768E-07         0.22555E-08         0.00000E+00
    0.75429E-07         0.42944E-08         0.00000E+00
    0.74486E-07         0.80479E-08         0.00000E+00
    0.73046E-07         0.11131E-07         0.00000E+00
    0.71219E-07         0.13508E-07         0.00000E+00
    0.69114E-07         0.15164E-07         0.00000E+00
    0.66838E-07         0.16102E-07         0.00000E+00
    0.64493E-07         0.16342E-07         0.00000E+00
    0.62176E-07         0.15918E-07         0.00000E+00
    0.59976E-07         0.14882E-07         0.00000E+00
    0.57972E-07         0.13295E-07         0.00000E+00
    0.56234E-07         0.11233E-07         0.00000E+00
    0.54821E-07         0.87780E-08         0.00000E+00
    0.53777E-07         0.60222E-08         0.00000E+00
    0.53138E-07         0.30626E-08         0.00000E+00
    0.52923E-07         0.15442E-08         0.00000E+00
    0.91585E-07         0.28859E-08         0.00000E+00
    0.91160E-07         0.54843E-08         0.00000E+00
    0.89982E-07         0.10256E-07         0.00000E+00
    0.88189E-07         0.14155E-07         0.00000E+00
    0.85919E-07         0.17144E-07         0.00000E+00
    0.83310E-07         0.19212E-07         0.00000E+00
    0.80494E-07         0.20368E-07         0.00000E+00
    0.77600E-07         0.20641E-07         0.00000E+00
    0.74744E-07         0.20081E-07         0.00000E+00
    0.72036E-07         0.18754E-07         0.00000E+00
    0.69573E-07         0.16740E-07         0.00000E+00
    0.67440E-07         0.14133E-07         0.00000E+00
    0.65705E-07         0.11038E-07         0.00000E+00
    0.64426E-07         0.75698E-08         0.00000E+00
    0.63643E-07         0.38486E-08         0.00000E+00
    0.63379E-07         0.19403E-08         0.00000E+00
    0.11066E-06         0.36730E-08         0.00000E+00
    0.11013E-06         0.69667E-08         0.00000E+00
    0.10867E-06         0.13000E-07         0.00000E+00
    0.10645E-06         0.17903E-07         0.00000E+00
    0.10366E-06         0.21639E-07         0.00000E+00
    0.10045E-06         0.24205E-07         0.00000E+00
    0.96996E-07         0.25619E-07         0.00000E+00
    0.93452E-07         0.25925E-07         0.00000E+00
    0.89962E-07         0.25190E-07         0.00000E+00
    0.86658E-07         0.23499E-07         0.00000E+00
    0.83656E-07         0.20956E-07         0.00000E+00
    0.81057E-07         0.17679E-07         0.00000E+00
    0.78947E-07         0.13800E-07         0.00000E+00
    0.77392E-07         0.94600E-08         0.00000E+00
    0.76440E-07         0.48085E-08         0.00000E+00
    0.76119E-07         0.24240E-08         0.00000E+00
    0.13368E-06         0.46475E-08         0.00000E+00
    0.13303E-06         0.87980E-08         0.00000E+00
    0.13123E-06         0.16382E-07         0.00000E+00
    0.12852E-06         0.22509E-07         0.00000E+00
    0.12511E-06         0.27151E-07         0.00000E+00
    0.12120E-06         0.30312E-07         0.00000E+00
    0.11700E-06         0.32029E-07         0.00000E+00
    0.11270E-06         0.32364E-07         0.00000E+00
    0.10847E-06         0.31406E-07         0.00000E+00
    0.10447E-06         0.29265E-07         0.00000E+00
    0.10085E-06         0.26073E-07         0.00000E+00
    0.97711E-07         0.21979E-07         0.00000E+00
    0.95167E-07         0.17147E-07         0.00000E+00
    0.93293E-07         0.11749E-07         0.00000E+00
    0.92145E-07         0.59706E-08         0.00000E+00
    0.91759E-07         0.30094E-08         0.00000E+00
    0.16151E-06         0.58433E-08         0.00000E+00
    0.16072E-06         0.11040E-07         0.00000E+00
    0.15854E-06         0.20511E-07         0.00000E+00
    0.15524E-06         0.28118E-07         0.00000E+00
    0.15111E-06         0.33846E-07         0.00000E+00
    0.14639E-06         0.37716E-07         0.00000E+00
    0.14133E-06         0.39784E-07         0.00000E+00
    0.13616E-06         0.40139E-07         0.00000E+00
    0.13109E-06         0.38899E-07         0.00000E+00
    0.12630E-06         0.36206E-07         0.00000E+00
    0.12196E-06         0.32227E-07         0.00000E+00
    0.11821E-06         0.27146E-07         0.00000E+00
    0.11517E-06         0.21164E-07         0.00000E+00
    0.11294E-06         0.14496E-07         0.00000E+00
    0.11157E-06         0.73645E-08         0.00000E+00
    0.11111E-06         0.37115E-08         0.00000E+00
    0.19523E-06         0.72968E-08         0.00000E+00
    0.19427E-06         0.13759E-07         0.00000E+00
    0.19164E-06         0.25505E-07         0.00000E+00
    0.18768E-06         0.34885E-07         0.00000E+00
    0.18273E-06         0.41903E-07         0.00000E+00
    0.17709E-06         0.46604E-07         0.00000E+00
    0.17106E-06         0.49074E-07         0.00000E+00
    0.16491E-06         0.49437E-07         0.00000E+00
    0.15888E-06         0.47845E-07         0.00000E+00
    0.15320E-06         0.44482E-07         0.00000E+00
    0.14806E-06         0.39555E-07         0.00000E+00
    0.14362E-06         0.33292E-07         0.00000E+00
    0.14003E-06         0.25940E-07         0.00000E+00
    0.13738E-06         0.17759E-07         0.00000E+00
    0.13577E-06         0.90201E-08         0.00000E+00
    0.13522E-06         0.45453E-08         0.00000E+00
    0.23616E-06         0.90457E-08         0.00000E+00
    0.23501E-06         0.17023E-07         0.00000E+00
    0.23188E-06         0.31485E-07         0.00000E+00
    0.22718E-06         0.42965E-07         0.00000E+00
    0.22130E-06         0.51498E-07         0.00000E+00
    0.21464E-06         0.57165E-07         0.00000E+00
    0.20752E-06         0.60091E-07         0.00000E+00
    0.20028E-06         0.60441E-07         0.00000E+00
    0.19319E-06         0.58416E-07         0.00000E+00
    0.18652E-06         0.54246E-07         0.00000E+00
    0.18050E-06         0.48190E-07         0.00000E+00
    0.17531E-06         0.40528E-07         0.00000E+00
    0.17110E-06         0.31559E-07         0.00000E+00
    0.16801E-06         0.21596E-07         0.00000E+00
    0.16613E-06         0.10966E-07         0.00000E+00
    0.16549E-06         0.55252E-08         0.00000E+00
    0.28598E-06         0.11127E-07         0.00000E+00
    0.28462E-06         0.20899E-07         0.00000E+00
    0.28093E-06         0.38566E-07         0.00000E+00
    0.27540E-06         0.52508E-07         0.00000E+00
    0.26852E-06         0.62800E-07         0.00000E+00
    0.26073E-06         0.69575E-07         0.00000E+00
    0.25243E-06         0.73007E-07         0.00000E+00
    0.24400E-06         0.73319E-07         0.00000E+00
    0.23578E-06         0.70765E-07         0.00000E+00
    0.22804E-06         0.65637E-07         0.00000E+00
    0.22107E-06         0.58252E-07         0.00000E+00
    0.21506E-06         0.48950E-07         0.00000E+00
    0.21020E-06         0.38093E-07         0.00000E+00
    0.20663E-06         0.26057E-07         0.00000E+00
    0.20445E-06         0.13228E-07         0.00000E+00
    0.20372E-06         0.66636E-08         0.00000E+00
    0.34679E-06         0.13575E-07         0.00000E+00
    0.34520E-06         0.25446E-07         0.00000E+00
    0.34090E-06         0.46852E-07         0.00000E+00
    0.33449E-06         0.63641E-07         0.00000E+00
    0.32653E-06         0.75953E-07         0.00000E+00
    0.31754E-06         0.83981E-07         0.00000E+00
    0.30799E-06         0.87969E-07         0.00000E+00
    0.29830E-06         0.88206E-07         0.00000E+00
    0.28886E-06         0.85017E-07         0.00000E+00
    0.28001E-06         0.78763E-07         0.00000E+00
    0.27204E-06         0.69831E-07         0.00000E+00
    0.26518E-06         0.58633E-07         0.00000E+00
    0.25964E-06         0.45600E-07         0.00000E+00
    0.25557E-06         0.31178E-07         0.00000E+00
    0.25309E-06         0.15823E-07         0.00000E+00
    0.25225E-06         0.79700E-08         0.00000E+00
    0.42121E-06         0.16417E-07         0.00000E+00
    0.41938E-06         0.30712E-07         0.00000E+00
    0.41445E-06         0.56421E-07         0.00000E+00
    0.40711E-06         0.76462E-07         0.00000E+00
    0.39803E-06         0.91057E-07         0.00000E+00
    0.38779E-06         0.10048E-06         0.00000E+00
    0.37695E-06         0.10507E-06         0.00000E+00
    0.36598E-06         0.10519E-06         0.00000E+00
    0.35532E-06         0.10124E-06         0.00000E+00
    0.34533E-06         0.93684E-07         0.00000E+00
    0.33634E-06         0.82976E-07         0.00000E+00
    0.32863E-06         0.69614E-07         0.00000E+00
    0.32240E-06         0.54105E-07         0.00000E+00
    0.31783E-06         0.36976E-07         0.00000E+00
    0.31504E-06         0.18761E-07         0.00000E+00
    0.31410E-06         0.94485E-08         0.00000E+00
    0.51255E-06         0.19668E-07         0.00000E+00
    0.51048E-06         0.36722E-07         0.00000E+00
    0.50490E-06         0.67310E-07         0.00000E+00
    0.49663E-06         0.91008E-07         0.00000E+00
    0.48643E-06         0.10815E-06         0.00000E+00
    0.47497E-06         0.11911E-06         0.00000E+00
    0.46286E-06         0.12432E-06         0.00000E+00
    0.45064E-06         0.12426E-06         0.00000E+00
    0.43878E-06         0.11944E-06         0.00000E+00
    0.42769E-06         0.11039E-06         0.00000E+00
    0.41773E-06         0.97673E-07         0.00000E+00
    0.40918E-06         0.81876E-07         0.00000E+00
    0.40229E-06         0.63596E-07         0.00000E+00
    0.39724E-06         0.43442E-07         0.00000E+00
    0.39416E-06         0.22035E-07         0.00000E+00
    0.39313E-06         0.11096E-07         0.00000E+00
    0.62494E-06         0.23328E-07         0.00000E+00
    0.62263E-06         0.43469E-07         0.00000E+00
    0.61643E-06         0.79497E-07         0.00000E+00
    0.60729E-06         0.10724E-06         0.00000E+00
    0.59604E-06         0.12716E-06         0.00000E+00
    0.58344E-06         0.13977E-06         0.00000E+00
    0.57016E-06         0.14562E-06         0.00000E+00
    0.55679E-06         0.14533E-06         0.00000E+00
    0.54384E-06         0.13949E-06         0.00000E+00
    0.53175E-06         0.12877E-06         0.00000E+00
    0.52091E-06         0.11382E-06         0.00000E+00
    0.51163E-06         0.95335E-07         0.00000E+00
    0.50415E-06         0.74003E-07         0.00000E+00
    0.49868E-06         0.50528E-07         0.00000E+00
    0.49534E-06         0.25623E-07         0.00000E+00
    0.49421E-06         0.12901E-07         0.00000E+00
    0.76355E-06         0.27369E-07         0.00000E+00
    0.76103E-06         0.50900E-07         0.00000E+00
    0.75429E-06         0.92878E-07         0.00000E+00
    0.74439E-06         0.12500E-06         0.00000E+00
    0.73224E-06         0.14789E-06         0.00000E+00
    0.71868E-06         0.16224E-06         0.00000E+00
    0.70443E-06         0.16874E-06         0.00000E+00
    0.69012E-06         0.16813E-06         0.00000E+00
    0.67628E-06         0.16116E-06         0.00000E+00
    0.66340E-06         0.14859E-06         0.00000E+00
    0.65186E-06         0.13121E-06         0.00000E+00
    0.64200E-06         0.10981E-06         0.00000E+00
    0.63406E-06         0.85186E-07         0.00000E+00
    0.62825E-06         0.58138E-07         0.00000E+00
    0.62470E-06         0.29474E-07         0.00000E+00
    0.62351E-06         0.14838E-07         0.00000E+00
    0.93484E-06         0.31733E-07         0.00000E+00
    0.93215E-06         0.58900E-07         0.00000E+00
    0.92501E-06         0.10723E-06         0.00000E+00
    0.91455E-06         0.14399E-06         0.00000E+00
    0.90178E-06         0.17000E-06         0.00000E+00
    0.88756E-06         0.18612E-06         0.00000E+00
    0.87265E-06         0.19324E-06         0.00000E+00
    0.85773E-06         0.19224E-06         0.00000E+00
    0.84333E-06         0.18401E-06         0.00000E+00
    0.82996E-06         0.16947E-06         0.00000E+00
    0.81800E-06         0.14950E-06         0.00000E+00
    0.80778E-06         0.12502E-06         0.00000E+00
    0.79957E-06         0.96920E-07         0.00000E+00
    0.79356E-06         0.66117E-07         0.00000E+00
    0.78991E-06         0.33510E-07         0.00000E+00
    0.78868E-06         0.16868E-07         0.00000E+00
    0.11468E-05         0.36316E-07         0.00000E+00
    0.11440E-05         0.67275E-07         0.00000E+00
    0.11367E-05         0.12221E-06         0.00000E+00
    0.11260E-05         0.16372E-06         0.00000E+00
    0.11130E-05         0.19289E-06         0.00000E+00
    0.10985E-05         0.21078E-06         0.00000E+00
    0.10835E-05         0.21846E-06         0.00000E+00
    0.10684E-05         0.21700E-06         0.00000E+00
    0.10539E-05         0.20744E-06         0.00000E+00
    0.10405E-05         0.19082E-06         0.00000E+00
    0.10285E-05         0.16818E-06         0.00000E+00
    0.10182E-05         0.14052E-06         0.00000E+00
    0.10100E-05         0.10888E-06         0.00000E+00
    0.10040E-05         0.74243E-07         0.00000E+00
    0.10004E-05         0.37618E-07         0.00000E+00
    0.99913E-06         0.18933E-07         0.00000E+00
    0.14093E-05         0.40961E-07         0.00000E+00
    0.14065E-05         0.75735E-07         0.00000E+00
    0.13993E-05         0.13728E-06         0.00000E+00
    0.13888E-05         0.18350E-06         0.00000E+00
    0.13761E-05         0.21574E-06         0.00000E+00
    0.13621E-05         0.23531E-06         0.00000E+00
    0.13475E-05         0.24348E-06         0.00000E+00
    0.13329E-05         0.24150E-06         0.00000E+00
    0.13189E-05         0.23057E-06         0.00000E+00
    0.13060E-05         0.21187E-06         0.00000E+00
    0.12945E-05         0.18655E-06         0.00000E+00
    0.12847E-05         0.15577E-06         0.00000E+00
    0.12768E-05         0.12062E-06         0.00000E+00
    0.12710E-05         0.82217E-07         0.00000E+00
    0.12675E-05         0.41649E-07         0.00000E+00
    0.12664E-05         0.20959E-07         0.00000E+00
    0.17343E-05         0.45447E-07         0.00000E+00
    0.17318E-05         0.83872E-07         0.00000E+00
    0.17251E-05         0.15171E-06         0.00000E+00
    0.17154E-05         0.20236E-06         0.00000E+00
    0.17037E-05         0.23744E-06         0.00000E+00
    0.16909E-05         0.25853E-06         0.00000E+00
    0.16776E-05         0.26709E-06         0.00000E+00
    0.16643E-05         0.26456E-06         0.00000E+00
    0.16517E-05         0.25228E-06         0.00000E+00
    0.16400E-05         0.23159E-06         0.00000E+00
    0.16295E-05         0.20376E-06         0.00000E+00
    0.16206E-05         0.17002E-06         0.00000E+00
    0.16135E-05         0.13159E-06         0.00000E+00
    0.16083E-05         0.89663E-07         0.00000E+00
    0.16052E-05         0.45411E-07         0.00000E+00
    0.16041E-05         0.22850E-07         0.00000E+00
    0.21366E-05         0.49475E-07         0.00000E+00
    0.21344E-05         0.91148E-07         0.00000E+00
    0.21288E-05         0.16454E-06         0.00000E+00
    0.21207E-05         0.21904E-06         0.00000E+00
    0.21110E-05         0.25657E-06         0.00000E+00
    0.21003E-05         0.27891E-06         0.00000E+00
    0.20893E-05         0.28776E-06         0.00000E+00
    0.20784E-05         0.28470E-06         0.00000E+00
    0.20679E-05         0.27122E-06         0.00000E+00
    0.20583E-05         0.24877E-06         0.00000E+00
    0.20497E-05         0.21873E-06         0.00000E+00
    0.20424E-05         0.18241E-06         0.00000E+00
    0.20365E-05         0.14113E-06         0.00000E+00
    0.20322E-05         0.96132E-07         0.00000E+00
    0.20296E-05         0.48679E-07         0.00000E+00
    0.20288E-05         0.24493E-07         0.00000E+00
    0.26336E-05         0.52668E-07         0.00000E+00
    0.26321E-05         0.96879E-07         0.00000E+00
    0.26281E-05         0.17459E-06         0.00000E+00
    0.26225E-05         0.23203E-06         0.00000E+00
    0.26159E-05         0.27138E-06         0.00000E+00
    0.26086E-05         0.29465E-06         0.00000E+00
    0.26010E-05         0.30369E-06         0.00000E+00
    0.25935E-05         0.30020E-06         0.00000E+00
    0.25863E-05         0.28579E-06         0.00000E+00
    0.25797E-05         0.26199E-06         0.00000E+00
    0.25738E-05         0.23025E-06         0.00000E+00
    0.25687E-05         0.19196E-06         0.00000E+00
    0.25646E-05         0.14847E-06         0.00000E+00
    0.25617E-05         0.10112E-06         0.00000E+00
    0.25599E-05         0.51201E-07         0.00000E+00
    0.25592E-05         0.25760E-07         0.00000E+00
    0.32461E-05         0.54563E-07         0.00000E+00
    0.32455E-05         0.10024E-06         0.00000E+00
    0.32441E-05         0.18043E-06         0.00000E+00
    0.32420E-05         0.23951E-06         0.00000E+00
    0.32396E-05         0.27988E-06         0.00000E+00
    0.32369E-05         0.30368E-06         0.00000E+00
    0.32341E-05         0.31284E-06         0.00000E+00
    0.32313E-05         0.30915E-06         0.00000E+00
    0.32285E-05         0.29426E-06         0.00000E+00
    0.32258E-05         0.26973E-06         0.00000E+00
    0.32234E-05         0.23703E-06         0.00000E+00
    0.32213E-05         0.19761E-06         0.00000E+00
    0.32196E-05         0.15285E-06         0.00000E+00
    0.32183E-05         0.10410E-06         0.00000E+00
    0.32175E-05         0.52712E-07         0.00000E+00
    0.32172E-05         0.26521E-07         0.00000E+00
    0.39983E-05         0.54621E-07         0.00000E+00
    0.39990E-05         0.10029E-06         0.00000E+00
    0.40009E-05         0.18044E-06         0.00000E+00
    0.40035E-05         0.23949E-06         0.00000E+00
    0.40066E-05         0.27988E-06         0.00000E+00
    0.40099E-05         0.30378E-06         0.00000E+00
    0.40132E-05         0.31311E-06         0.00000E+00
    0.40162E-05         0.30959E-06         0.00000E+00
    0.40188E-05         0.29487E-06         0.00000E+00
    0.40211E-05         0.27045E-06         0.00000E+00
    0.40229E-05         0.23782E-06         0.00000E+00
    0.40244E-05         0.19837E-06         0.00000E+00
    0.40255E-05         0.15350E-06         0.00000E+00
    0.40262E-05         0.10458E-06         0.00000E+00
    0.40266E-05         0.52962E-07         0.00000E+00
    0.40268E-05         0.26649E-07         0.00000E+00
    0.49178E-05         0.52245E-07         0.00000E+00
    0.49201E-05         0.96004E-07         0.00000E+00
    0.49261E-05         0.17293E-06         0.00000E+00
    0.49346E-05         0.22990E-06         0.00000E+00
    0.49445E-05         0.26921E-06         0.00000E+00
    0.49550E-05         0.29282E-06         0.00000E+00
    0.49654E-05         0.30247E-06         0.00000E+00
    0.49752E-05         0.29973E-06         0.00000E+00
    0.49842E-05         0.28606E-06         0.00000E+00
    0.49921E-05         0.26287E-06         0.00000E+00
    0.49988E-05         0.23152E-06         0.00000E+00
    0.50043E-05         0.19339E-06         0.00000E+00
    0.50085E-05         0.14981E-06         0.00000E+00
    0.50115E-05         0.10215E-06         0.00000E+00
    0.50133E-05         0.51755E-07         0.00000E+00
    0.50139E-05         0.26048E-07         0.00000E+00
    0.60349E-05         0.46825E-07         0.00000E+00
    0.60392E-05         0.86348E-07         0.00000E+00
    0.60502E-05         0.15624E-06         0.00000E+00
    0.60655E-05         0.20884E-06         0.00000E+00
    0.60832E-05         0.24593E-06         0.00000E+00
    0.61018E-05         0.26901E-06         0.00000E+00
    0.61201E-05         0.27937E-06         0.00000E+00
    0.61374E-05         0.27823E-06         0.00000E+00
    0.61531E-05         0.26676E-06         0.00000E+00
    0.61670E-05         0.24611E-06         0.00000E+00
    0.61788E-05         0.21751E-06         0.00000E+00
    0.61884E-05         0.18219E-06         0.00000E+00
    0.61959E-05         0.14145E-06         0.00000E+00
    0.62012E-05         0.96595E-07         0.00000E+00
    0.62044E-05         0.48988E-07         0.00000E+00
    0.62054E-05         0.24667E-07         0.00000E+00
    0.73821E-05         0.37807E-07         0.00000E+00
    0.73887E-05         0.70439E-07         0.00000E+00
    0.74053E-05         0.12907E-06         0.00000E+00
    0.74280E-05         0.17492E-06         0.00000E+00
    0.74539E-05         0.20880E-06         0.00000E+00
    0.74809E-05         0.23135E-06         0.00000E+00
    0.75072E-05         0.24310E-06         0.00000E+00
    0.75319E-05         0.24466E-06         0.00000E+00
    0.75542E-05         0.23673E-06         0.00000E+00
    0.75737E-05         0.22012E-06         0.00000E+00
    0.75903E-05         0.19581E-06         0.00000E+00
    0.76038E-05         0.16487E-06         0.00000E+00
    0.76142E-05         0.12851E-06         0.00000E+00
    0.76216E-05         0.88011E-07         0.00000E+00
    0.76260E-05         0.44710E-07         0.00000E+00
    0.76275E-05         0.22532E-07         0.00000E+00
    0.89919E-05         0.24805E-07         0.00000E+00
    0.90009E-05         0.47741E-07         0.00000E+00
    0.90231E-05         0.90776E-07         0.00000E+00
    0.90532E-05         0.12774E-06         0.00000E+00
    0.90869E-05         0.15782E-06         0.00000E+00
    0.91215E-05         0.18021E-06         0.00000E+00
    0.91549E-05         0.19435E-06         0.00000E+00
    0.91859E-05         0.19994E-06         0.00000E+00
    0.92136E-05         0.19702E-06         0.00000E+00
    0.92377E-05         0.18596E-06         0.00000E+00
    0.92580E-05         0.16743E-06         0.00000E+00
    0.92744E-05         0.14231E-06         0.00000E+00
    0.92871E-05         0.11171E-06         0.00000E+00
    0.92961E-05         0.76873E-07         0.00000E+00
    0.93015E-05         0.39164E-07         0.00000E+00
    0.93032E-05         0.19765E-07         0.00000E+00
    0.10893E-04         0.77655E-08         0.00000E+00
    0.10904E-04         0.18363E-07         0.00000E+00
    0.10932E-04         0.41960E-07         0.00000E+00
    0.10968E-04         0.68584E-07         0.00000E+00
    0.11008E-04         0.94879E-07         0.00000E+00
    0.11048E-04         0.11801E-06         0.00000E+00
    0.11086E-04         0.13583E-06         0.00000E+00
    0.11121E-04         0.14687E-06         0.00000E+00
    0.11152E-04         0.15037E-06         0.00000E+00
    0.11178E-04         0.14616E-06         0.00000E+00
    0.11200E-04         0.13457E-06         0.00000E+00
    0.11218E-04         0.11631E-06         0.00000E+00
    0.11232E-04         0.92413E-07         0.00000E+00
    0.11241E-04         0.64120E-07         0.00000E+00
    0.11247E-04         0.32822E-07         0.00000E+00
    0.11249E-04         0.16603E-07         0.00000E+00
    0.13106E-04        -0.12789E-07         0.00000E+00
    0.13119E-04        -0.16517E-07         0.00000E+00
    0.13150E-04        -0.14873E-07         0.00000E+00
    0.13189E-04         0.11592E-08         0.00000E+00
    0.13231E-04         0.24611E-07         0.00000E+00
    0.13273E-04         0.49886E-07         0.00000E+00
    0.13312E-04         0.72815E-07         0.00000E+00
    0.13346E-04         0.90569E-07         0.00000E+00
    0.13377E-04         0.10148E-06         0.00000E+00
    0.13402E-04         0.10485E-06         0.00000E+00
    0.13424E-04         0.10072E-06         0.00000E+00
    0.13441E-04         0.89669E-07         0.00000E+00
    0.13454E-04         0.72716E-07         0.00000E+00
    0.13463E-04         0.51131E-07         0.00000E+00
    0.13469E-04         0.26372E-07         0.00000E+00
    0.13471E-04         0.13389E-07         0.00000E+00
    0.15633E-04        -0.35440E-07         0.00000E+00
    0.15647E-04        -0.54113E-07         0.00000E+00
    0.15677E-04        -0.74481E-07         0.00000E+00
    0.15715E-04        -0.67484E-07         0.00000E+00
    0.15754E-04        -0.44913E-07         0.00000E+00
    0.15791E-04        -0.15794E-07         0.00000E+00
    0.15824E-04         0.13416E-07         0.00000E+00
    0.15853E-04         0.38466E-07         0.00000E+00
    0.15879E-04         0.56884E-07         0.00000E+00
    0.15900E-04         0.67555E-07         0.00000E+00
    0.15917E-04         0.70360E-07         0.00000E+00
    0.15931E-04         0.65879E-07         0.00000E+00
    0.15942E-04         0.55163E-07         0.00000E+00
    0.15950E-04         0.39566E-07         0.00000E+00
    0.15954E-04         0.20629E-07         0.00000E+00
    0.15956E-04         0.10528E-07         0.00000E+00
    0.18447E-04        -0.57452E-07         0.00000E+00
    0.18458E-04        -0.89416E-07         0.00000E+00
    0.18483E-04        -0.12808E-06         0.00000E+00
    0.18511E-04        -0.12635E-06         0.00000E+00
    0.18539E-04        -0.10192E-06         0.00000E+00
    0.18564E-04        -0.67567E-07         0.00000E+00
    0.18585E-04        -0.31934E-07         0.00000E+00
    0.18603E-04        -0.39485E-09         0.00000E+00
    0.18618E-04         0.24100E-07         0.00000E+00
    0.18631E-04         0.40321E-07         0.00000E+00
    0.18642E-04         0.48207E-07         0.00000E+00
    0.18651E-04         0.48456E-07         0.00000E+00
    0.18658E-04         0.42238E-07         0.00000E+00
    0.18663E-04         0.31005E-07         0.00000E+00
    0.18666E-04         0.16363E-07         0.00000E+00
    0.18667E-04         0.83974E-08         0.00000E+00
    0.21467E-04        -0.74338E-07         0.00000E+00
    0.21474E-04        -0.11465E-06         0.00000E+00
    0.21485E-04        -0.16296E-06         0.00000E+00
    0.21495E-04        -0.16078E-06         0.00000E+00
    0.21503E-04        -0.13197E-06         0.00000E+00
    0.21507E-04        -0.92537E-07         0.00000E+00
    0.21511E-04        -0.52467E-07         0.00000E+00
    0.21513E-04        -0.17475E-07         0.00000E+00
    0.21516E-04         0.96310E-08         0.00000E+00
    0.21518E-04         0.27926E-07         0.00000E+00
    0.21521E-04         0.37650E-07         0.00000E+00
    0.21524E-04         0.39727E-07         0.00000E+00
    0.21527E-04         0.35463E-07         0.00000E+00
    0.21529E-04         0.26356E-07         0.00000E+00
    0.21530E-04         0.13994E-07         0.00000E+00
    0.21531E-04         0.72014E-08         0.00000E+00
    0.24536E-04        -0.79565E-07         0.00000E+00
    0.24534E-04        -0.11942E-06         0.00000E+00
    0.24523E-04        -0.16389E-06         0.00000E+00
    0.24507E-04        -0.15533E-06         0.00000E+00
    0.24488E-04        -0.12198E-06         0.00000E+00
    0.24470E-04        -0.80887E-07         0.00000E+00
    0.24454E-04        -0.41590E-07         0.00000E+00
    0.24441E-04        -0.88655E-08         0.00000E+00
    0.24432E-04         0.15390E-07         0.00000E+00
    0.24427E-04         0.30943E-07         0.00000E+00
    0.24424E-04         0.38470E-07         0.00000E+00
    0.24423E-04         0.39100E-07         0.00000E+00
    0.24423E-04         0.34170E-07         0.00000E+00
    0.24424E-04         0.25077E-07         0.00000E+00
    0.24424E-04         0.13225E-07         0.00000E+00
    0.24425E-04         0.67834E-08         0.00000E+00
    0.27371E-04        -0.65478E-07         0.00000E+00
    0.27357E-04        -0.93450E-07         0.00000E+00
    0.27323E-04        -0.11930E-06         0.00000E+00
    0.27282E-04        -0.10244E-06         0.00000E+00
    0.27243E-04        -0.69676E-07         0.00000E+00
    0.27210E-04        -0.34937E-07         0.00000E+00
    0.27185E-04        -0.47709E-08         0.00000E+00
    0.27167E-04         0.18266E-07         0.00000E+00
    0.27157E-04         0.33679E-07         0.00000E+00
    0.27151E-04         0.41972E-07         0.00000E+00
    0.27150E-04         0.44092E-07         0.00000E+00
    0.27151E-04         0.41134E-07         0.00000E+00
    0.27153E-04         0.34208E-07         0.00000E+00
    0.27155E-04         0.24379E-07         0.00000E+00
    0.27157E-04         0.12657E-07         0.00000E+00
    0.27157E-04         0.64442E-08         0.00000E+00
    0.29507E-04        -0.30347E-07         0.00000E+00
    0.29487E-04        -0.38316E-07         0.00000E+00
    0.29451E-04        -0.39530E-07         0.00000E+00
    0.29416E-04        -0.22191E-07         0.00000E+00
    0.29390E-04        -0.16000E-08         0.00000E+00
    0.29374E-04         0.16276E-07         0.00000E+00
    0.29369E-04         0.29522E-07         0.00000E+00
    0.29371E-04         0.37915E-07         0.00000E+00
    0.29380E-04         0.41898E-07         0.00000E+00
    0.29391E-04         0.42133E-07         0.00000E+00
    0.29405E-04         0.39316E-07         0.00000E+00
    0.29418E-04         0.34098E-07         0.00000E+00
    0.29429E-04         0.27064E-07         0.00000E+00
    0.29438E-04         0.18733E-07         0.00000E+00
    0.29444E-04         0.95698E-08         0.00000E+00
    0.29446E-04         0.48351E-08         0.00000E+00
    0.30328E-04         0.64648E-18         0.00000E+00
    0.30310E-04        -0.32305E-18         0.00000E+00
    0.30282E-04        -0.32275E-18         0.00000E+00
    0.30262E-04         0.32254E-18         0.00000E+00
    0.30255E-04         0.32247E-18         0.00000E+00
    0.30261E-04        -0.32252E-18         0.00000E+00
    0.30275E-04        -0.32268E-18         0.00000E+00
    0.30296E-04        -0.43333E-33         0.00000E+00
    0.30320E-04        -0.32316E-18         0.00000E+00
    0.30346E-04         0.32343E-18         0.00000E+00
    0.30371E-04         0.32370E-18         0.00000E+00
    0.30393E-04        -0.32394E-18         0.00000E+00
    0.30412E-04        -0.38519E-33         0.00000E+00
    0.30426E-04         0.32428E-18         0.00000E+00
    0.30434E-04         0.00000E+00         0.00000E+00
    0.30437E-04         0.00000E+00         0.00000E+00
CELL_DATA       1350
TENSORS stressef double 
    0.25000E+07         0.36398E-03         0.00000E+00
    0.36398E-03        -0.25000E+07         0.00000E+00
    0.00000E+00         0.00000E+00        -0.15633E-01
 
    0.25000E+07         0.10401E-02         0.00000E+00
    0.10401E-02        -0.25000E+07         0.00000E+00
    0.00000E+00         0.00000E+00        -0.16599E-01
 
    0.25000E+07         0.16374E-02         0.00000E+00
    0.16374E-02        -0.25000E+07         0.00000E+00
    0.00000E+00         0.00000E+00        -0.17501E-01
 
    0.25000E+07         0.21387E-02         0.00000E+00
    0.21387E-02        -0.25000E+07         0.00000E+00
    0.00000E+00         0.00000E+00        -0.18339E-01
 
    0.25000E+07         0.25301E-02         0.00000E+00
    0.25301E-02        -0.25000E+07         0.00000E+00
    0.00000E+00         0.00000E+00        -0.19112E-01
 
    0.25000E+07         0.28019E-02         0.00000E+00
    0.28019E-02        -0.25000E+07         0.00000E+00
    0.00000E+00         0.00000E+00        -0.19820E-01
 
    0.25000E+07         0.29486E-02         0.00000E+00
    0.29486E-02        -0.25000E+07         0.00000E+00
    0.00000E+00         0.00000E+00        -0.20461E-01
 
    0.25000E+07         0.29691E-02         0.00000E+00
    0.29691E-02        -0.25000E+07         0.00000E+00
    0.00000E+00         0.00000E+00        -0.21034E-01
 
    0.25000E+07         0.28662E-02         0.00000E+00
    0.28662E-02        -0.25000E+07         0.00000E+00
    0.00000E+00         0.00000E+00        -0.21539E-01
 
    0.25000E+07         0.26471E-02         0.00000E+00
    0.26471E-02        -0.25000E+07         0.00000E+00
    0.00000E+00         0.00000E+00        -0.21973E-01
 
    0.25000E+07         0.23225E-02         0.00000E+00
    0.23225E-02        -0.25000E+07         0.00000E+00
    0.00000E+00         0.00000E+00        -0.22338E-01
 
    0.25000E+07         0.19068E-02         0.00000E+00
    0.19068E-02        -0.25000E+07         0.00000E+00
    0.00000E+00         0.00000E+00        -0.22630E-01
 
    0.25000E+07         0.14170E-02         0.00000E+00
    0.14170E-02        -0.25000E+07         0.00000E+00
    0.00000E+00         0.00000E+00        -0.22850E-01
 
    0.25000E+07         0.87254E-03         0.00000E+00
    0.87254E-03        -0.25000E+07         0.00000E+00
    0.00000E+00         0.00000E+00        -0.22997E-01
 
    0.25000E+07         0.29460E-03         0.00000E+00
    0.29460E-03        -0.25000E+07         0.00000E+00
    0.00000E+00         0.00000E+00        -0.23071E-01
 
    0.25000E+07         0.11124E-02         0.00000E+00
    0.11124E-02        -0.25000E+07         0.00000E+00
    0.00000E+00         0.00000E+00        -0.16303E-01
 
    0.25000E+07         0.31786E-02         0.00000E+00
    0.31786E-02        -0.25000E+07         0.00000E+00
    0.00000E+00         0.00000E+00        -0.17300E-01
 
    0.25000E+07         0.50041E-02         0.00000E+00
    0.50041E-02        -0.25000E+07         0.00000E+00
    0.00000E+00         0.00000E+00        -0.18232E-01
 
    0.25000E+07         0.65357E-02         0.00000E+00
    0.65357E-02        -0.25000E+07         0.00000E+00
    0.00000E+00         0.00000E+00        -0.19100E-01
 
    0.25000E+07         0.77315E-02         0.00000E+00
    0.77315E-02        -0.25000E+07         0.00000E+00
    0.00000E+00         0.00000E+00        -0.19901E-01
 
    0.25000E+07         0.85618E-02         0.00000E+00
    0.85618E-02        -0.25000E+07         0.00000E+00
    0.00000E+00         0.00000E+00        -0.20635E-01
 
    0.25000E+07         0.90099E-02         0.00000E+00
    0.90099E-02        -0.25000E+07         0.00000E+00
    0.00000E+00         0.00000E+00        -0.21300E-01
 
    0.25000E+07         0.90721E-02         0.00000E+00
    0.90721E-02        -0.25000E+07         0.00000E+00
    0.00000E+00         0.00000E+00        -0.21896E-01
 
    0.25000E+07         0.87574E-02         0.00000E+00
    0.87574E-02        -0.25000E+07         0.00000E+00
    0.00000E+00         0.00000E+00        -0.22421E-01
 
    0.25000E+07         0.80876E-02         0.00000E+00
    0.80876E-02        -0.25000E+07         0.00000E+00
    0.00000E+00         0.00000E+00        -0.22873E-01
 
    0.25000E+07         0.70959E-02         0.00000E+00
    0.70959E-02        -0.25000E+07         0.00000E+00
    0.00000E+00         0.00000E+00        -0.23252E-01
 
    0.25000E+07         0.58256E-02         0.00000E+00
    0.58256E-02        -0.25000E+07         0.00000E+00
    0.00000E+00         0.00000E+00        -0.23557E-01
 
    0.25000E+07         0.43290E-02         0.00000E+00
    0.43290E-02        -0.25000E+07         0.00000E+00
    0.00000E+00         0.00000E+00        -0.23786E-01
 
    0.25000E+07         0.26657E-02         0.00000E+00
    0.26657E-02        -0.25000E+07         0.00000E+00
    0.00000E+00         0.00000E+00        -0.23939E-01
 
    0.25000E+07         0.90003E-03         0.00000E+00
    0.90003E-03        -0.25000E+07         0.00000E+00
    0.00000E+00         0.00000E+00        -0.24016E-01
 
    0.25000E+07         0.19232E-02         0.00000E+00
    0.19232E-02        -0.25000E+07         0.00000E+00
    0.00000E+00         0.00000E+00        -0.17665E-01
 
    0.25000E+07         0.54954E-02         0.00000E+00
    0.54954E-02        -0.25000E+07         0.00000E+00
    0.00000E+00         0.00000E+00        -0.18726E-01
 
    0.25000E+07         0.86509E-02         0.00000E+00
    0.86509E-02        -0.25000E+07         0.00000E+00
    0.00000E+00         0.00000E+00        -0.19721E-01
 
    0.25000E+07         0.11298E-01         0.00000E+00
    0.11298E-01        -0.25000E+07         0.00000E+00
    0.00000E+00         0.00000E+00        -0.20648E-01
 
    0.25000E+07         0.13364E-01         0.00000E+00
    0.13364E-01        -0.25000E+07         0.00000E+00
    0.00000E+00         0.00000E+00        -0.21507E-01
 
    0.25000E+07         0.14798E-01         0.00000E+00
    0.14798E-01        -0.25000E+07         0.00000E+00
    0.00000E+00         0.00000E+00        -0.22295E-01
 
    0.25000E+07         0.15571E-01         0.00000E+00
    0.15571E-01        -0.25000E+07         0.00000E+00
    0.00000E+00         0.00000E+00        -0.23011E-01
 
    0.25000E+07         0.15678E-01         0.00000E+00
    0.15678E-01        -0.25000E+07         0.00000E+00
    0.00000E+00         0.00000E+00        -0.23653E-01
 
    0.25000E+07         0.15133E-01         0.00000E+00
    0.15133E-01        -0.25000E+07         0.00000E+00
    0.00000E+00         0.00000E+00        -0.24220E-01
 
    0.25000E+07         0.13974E-01         0.00000E+00
    0.13974E-01        -0.25000E+07         0.00000E+00
    0.00000E+00         0.00000E+00        -0.24709E-01
 
    0.25000E+07         0.12260E-01         0.00000E+00
    0.12260E-01        -0.25000E+07         0.00000E+00
    0.00000E+00         0.00000E+00        -0.25119E-01
 
    0.25000E+07         0.10065E-01         0.00000E+00
    0.10065E-01        -0.25000E+07         0.00000E+00
    0.00000E+00         0.00000E+00        -0.25449E-01
 
    0.25000E+07         0.74790E-02         0.00000E+00
    0.74790E-02        -0.25000E+07         0.00000E+00
    0.00000E+00         0.00000E+00        -0.25697E-01
 
    0.25000E+07         0.46052E-02         0.00000E+00
    0.46052E-02        -0.25000E+07         0.00000E+00
    0.00000E+00         0.00000E+00        -0.25863E-01
 
    0.25000E+07         0.15549E-02         0.00000E+00
    0.15549E-02        -0.25000E+07         0.00000E+00
    0.00000E+00         0.00000E+00        -0.25946E-01
 
    0.25000E+07         0.28418E-02         0.00000E+00
    0.28418E-02        -0.25000E+07         0.00000E+00
    0.00000E+00         0.00000E+00        -0.19763E-01
 
    0.25000E+07         0.81197E-02         0.00000E+00
    0.81197E-02        -0.25000E+07         0.00000E+00
    0.00000E+00         0.00000E+00        -0.20925E-01
 
    0.25000E+07         0.12781E-01         0.00000E+00
    0.12781E-01        -0.25000E+07         0.00000E+00
    0.00000E+00         0.00000E+00        -0.22018E-01
 
    0.25000E+07         0.16690E-01         0.00000E+00
    0.16690E-01        -0.25000E+07         0.00000E+00
    0.00000E+00         0.00000E+00        -0.23041E-01
 
    0.25000E+07         0.19739E-01         0.00000E+00
    0.19739E-01        -0.25000E+07         0.00000E+00
    0.00000E+00         0.00000E+00        -0.23990E-01
 
    0.25000E+07         0.21855E-01         0.00000E+00
    0.21855E-01        -0.25000E+07         0.00000E+00
    0.00000E+00         0.00000E+00        -0.24864E-01
 
    0.25000E+07         0.22994E-01         0.00000E+00
    0.22994E-01        -0.25000E+07         0.00000E+00
    0.00000E+00         0.00000E+00        -0.25660E-01
 
    0.25000E+07         0.23148E-01         0.00000E+00
    0.23148E-01        -0.25000E+07         0.00000E+00
    0.00000E+00         0.00000E+00        -0.26375E-01
 
    0.25000E+07         0.22341E-01         0.00000E+00
    0.22341E-01        -0.25000E+07         0.00000E+00
    0.00000E+00         0.00000E+00        -0.27008E-01
 
    0.25000E+07         0.20629E-01         0.00000E+00
    0.20629E-01        -0.25000E+07         0.00000E+00
    0.00000E+00         0.00000E+00        -0.27554E-01
 
    0.25000E+07         0.18096E-01         0.00000E+00
    0.18096E-01        -0.25000E+07         0.00000E+00
    0.00000E+00         0.00000E+00        -0.28013E-01
 
    0.25000E+07         0.14855E-01         0.00000E+00
    0.14855E-01        -0.25000E+07         0.00000E+00
    0.00000E+00         0.00000E+00        -0.28383E-01
 
    0.25000E+07         0.11038E-01         0.00000E+00
    0.11038E-01        -0.25000E+07         0.00000E+00
    0.00000E+00         0.00000E+00        -0.28662E-01
 
    0.25000E+07         0.67963E-02         0.00000E+00
    0.67963E-02        -0.25000E+07         0.00000E+00
    0.00000E+00         0.00000E+00        -0.28848E-01
 
    0.25000E+07         0.22946E-02         0.00000E+00
    0.22946E-02        -0.25000E+07         0.00000E+00
    0.00000E+00         0.00000E+00        -0.28942E-01
 
    0.25000E+07         0.39195E-02         0.00000E+00
    0.39195E-02        -0.25000E+07         0.00000E+00
    0.00000E+00         0.00000E+00        -0.22665E-01
 
    0.25000E+07         0.11197E-01         0.00000E+00
    0.11197E-01        -0.25000E+07         0.00000E+00
    0.00000E+00         0.00000E+00        -0.23970E-01
 
    0.25000E+07         0.17622E-01         0.00000E+00
    0.17622E-01        -0.25000E+07         0.00000E+00
    0.00000E+00         0.00000E+00        -0.25204E-01
 
    0.25000E+07         0.23007E-01         0.00000E+00
    0.23007E-01        -0.25000E+07         0.00000E+00
    0.00000E+00         0.00000E+00        -0.26362E-01
 
    0.25000E+07         0.27206E-01         0.00000E+00
    0.27206E-01        -0.25000E+07         0.00000E+00
    0.00000E+00         0.00000E+00        -0.27442E-01
 
    0.25000E+07         0.30116E-01         0.00000E+00
    0.30116E-01        -0.25000E+07         0.00000E+00
    0.00000E+00         0.00000E+00        -0.28438E-01
 
    0.25000E+07         0.31680E-01         0.00000E+00
    0.31680E-01        -0.25000E+07         0.00000E+00
    0.00000E+00         0.00000E+00        -0.29349E-01
 
    0.25000E+07         0.31886E-01         0.00000E+00
    0.31886E-01        -0.25000E+07         0.00000E+00
    0.00000E+00         0.00000E+00        -0.30169E-01
 
    0.25000E+07         0.30770E-01         0.00000E+00
    0.30770E-01        -0.25000E+07         0.00000E+00
    0.00000E+00         0.00000E+00        -0.30895E-01
 
    0.25000E+07         0.28408E-01         0.00000E+00
    0.28408E-01        -0.25000E+07         0.00000E+00
    0.00000E+00         0.00000E+00        -0.31525E-01
 
    0.25000E+07         0.24917E-01         0.00000E+00
    0.24917E-01        -0.25000E+07         0.00000E+00
    0.00000E+00         0.00000E+00        -0.32054E-01
 
    0.25000E+07         0.20452E-01         0.00000E+00
    0.20452E-01        -0.25000E+07         0.00000E+00
    0.00000E+00         0.00000E+00        -0.32481E-01
 
    0.25000E+07         0.15196E-01         0.00000E+00
    0.15196E-01        -0.25000E+07         0.00000E+00
    0.00000E+00         0.00000E+00        -0.32803E-01
 
    0.25000E+07         0.93559E-02         0.00000E+00
    0.93559E-02        -0.25000E+07         0.00000E+00
    0.00000E+00         0.00000E+00        -0.33018E-01
 
    0.25000E+07         0.31588E-02         0.00000E+00
    0.31588E-02        -0.25000E+07         0.00000E+00
    0.00000E+00         0.00000E+00        -0.33126E-01
 
    0.25000E+07         0.52158E-02         0.00000E+00
    0.52158E-02        -0.25000E+07         0.00000E+00
    0.00000E+00         0.00000E+00        -0.26462E-01
 
    0.25000E+07         0.14897E-01         0.00000E+00
    0.14897E-01        -0.25000E+07         0.00000E+00
    0.00000E+00         0.00000E+00        -0.27963E-01
 
    0.25000E+07         0.23438E-01         0.00000E+00
    0.23438E-01        -0.25000E+07         0.00000E+00
    0.00000E+00         0.00000E+00        -0.29388E-01
 
    0.25000E+07         0.30593E-01         0.00000E+00
    0.30593E-01        -0.25000E+07         0.00000E+00
    0.00000E+00         0.00000E+00        -0.30732E-01
 
    0.25000E+07         0.36166E-01         0.00000E+00
    0.36166E-01        -0.25000E+07         0.00000E+00
    0.00000E+00         0.00000E+00        -0.31988E-01
 
    0.25000E+07         0.40024E-01         0.00000E+00
    0.40024E-01        -0.25000E+07         0.00000E+00
    0.00000E+00         0.00000E+00        -0.33153E-01
 
    0.25000E+07         0.42091E-01         0.00000E+00
    0.42091E-01        -0.25000E+07         0.00000E+00
    0.00000E+00         0.00000E+00        -0.34220E-01
 
    0.25000E+07         0.42356E-01         0.00000E+00
    0.42356E-01        -0.25000E+07         0.00000E+00
    0.00000E+00         0.00000E+00        -0.35183E-01
 
    0.25000E+07         0.40864E-01         0.00000E+00
    0.40864E-01        -0.25000E+07         0.00000E+00
    0.00000E+00         0.00000E+00        -0.36039E-01
 
    0.25000E+07         0.37720E-01         0.00000E+00
    0.37720E-01        -0.25000E+07         0.00000E+00
    0.00000E+00         0.00000E+00        -0.36781E-01
 
    0.25000E+07         0.33081E-01         0.00000E+00
    0.33081E-01        -0.25000E+07         0.00000E+00
    0.00000E+00         0.00000E+00        -0.37407E-01
 
    0.25000E+07         0.27149E-01         0.00000E+00
    0.27149E-01        -0.25000E+07         0.00000E+00
    0.00000E+00         0.00000E+00        -0.37912E-01
 
    0.25000E+07         0.20169E-01         0.00000E+00
    0.20169E-01        -0.25000E+07         0.00000E+00
    0.00000E+00         0.00000E+00        -0.38293E-01
 
    0.25000E+07         0.12417E-01         0.00000E+00
    0.12417E-01        -0.25000E+07         0.00000E+00
    0.00000E+00         0.00000E+00        -0.38548E-01
 
    0.25000E+07         0.41922E-02         0.00000E+00
    0.41922E-02        -0.25000E+07         0.00000E+00
    0.00000E+00         0.00000E+00        -0.38677E-01
 
    0.25000E+07         0.68017E-02         0.00000E+00
    0.68017E-02        -0.25000E+07         0.00000E+00
    0.00000E+00         0.00000E+00        -0.31276E-01
 
    0.25000E+07         0.19419E-01         0.00000E+00
    0.19419E-01        -0.25000E+07         0.00000E+00
    0.00000E+00         0.00000E+00        -0.33037E-01
 
    0.25000E+07         0.30542E-01         0.00000E+00
    0.30542E-01        -0.25000E+07         0.00000E+00
    0.00000E+00         0.00000E+00        -0.34716E-01
 
    0.25000E+07         0.39849E-01         0.00000E+00
    0.39849E-01        -0.25000E+07         0.00000E+00
    0.00000E+00         0.00000E+00        -0.36306E-01
 
    0.25000E+07         0.47092E-01         0.00000E+00
    0.47092E-01        -0.25000E+07         0.00000E+00
    0.00000E+00         0.00000E+00        -0.37800E-01
 
    0.25000E+07         0.52097E-01         0.00000E+00
    0.52097E-01        -0.25000E+07         0.00000E+00
    0.00000E+00         0.00000E+00        -0.39188E-01
 
    0.25000E+07         0.54771E-01         0.00000E+00
    0.54771E-01        -0.25000E+07         0.00000E+00
    0.00000E+00         0.00000E+00        -0.40463E-01
 
    0.25000E+07         0.55098E-01         0.00000E+00
    0.55098E-01        -0.25000E+07         0.00000E+00
    0.00000E+00         0.00000E+00        -0.41618E-01
 
    0.25000E+07         0.53144E-01         0.00000E+00
    0.53144E-01        -0.25000E+07         0.00000E+00
    0.00000E+00         0.00000E+00        -0.42646E-01
 
    0.25000E+07         0.49044E-01         0.00000E+00
    0.49044E-01        -0.25000E+07         0.00000E+00
    0.00000E+00         0.00000E+00        -0.43540E-01
 
    0.25000E+07         0.43003E-01         0.00000E+00
    0.43003E-01        -0.25000E+07         0.00000E+00
    0.00000E+00         0.00000E+00        -0.44294E-01
 
    0.25000E+07         0.35287E-01         0.00000E+00
    0.35287E-01        -0.25000E+07         0.00000E+00
    0.00000E+00         0.00000E+00        -0.44903E-01
 
    0.25000E+07         0.26212E-01         0.00000E+00
    0.26212E-01        -0.25000E+07         0.00000E+00
    0.00000E+00         0.00000E+00        -0.45363E-01
 
    0.25000E+07         0.16136E-01         0.00000E+00
    0.16136E-01        -0.25000E+07         0.00000E+00
    0.00000E+00         0.00000E+00        -0.45672E-01
 
    0.25000E+07         0.54475E-02         0.00000E+00
    0.54475E-02        -0.25000E+07         0.00000E+00
    0.00000E+00         0.00000E+00        -0.45827E-01
 
    0.25000E+07         0.87627E-02         0.00000E+00
    0.87627E-02        -0.25000E+07         0.00000E+00
    0.00000E+00         0.00000E+00        -0.37257E-01
 
    0.25000E+07         0.25003E-01         0.00000E+00
    0.25003E-01        -0.25000E+07         0.00000E+00
    0.00000E+00         0.00000E+00        -0.39358E-01
 
    0.25000E+07         0.39305E-01         0.00000E+00
    0.39305E-01        -0.25000E+07         0.00000E+00
    0.00000E+00         0.00000E+00        -0.41372E-01
 
    0.25000E+07         0.51259E-01         0.00000E+00
    0.51259E-01        -0.25000E+07         0.00000E+00
    0.00000E+00         0.00000E+00        -0.43287E-01
 
    0.25000E+07         0.60547E-01         0.00000E+00
    0.60547E-01        -0.25000E+07         0.00000E+00
    0.00000E+00         0.00000E+00        -0.45092E-01
 
    0.25000E+07         0.66954E-01         0.00000E+00
    0.66954E-01        -0.25000E+07         0.00000E+00
    0.00000E+00         0.00000E+00        -0.46775E-01
 
    0.25000E+07         0.70361E-01         0.00000E+00
    0.70361E-01        -0.25000E+07         0.00000E+00
    0.00000E+00         0.00000E+00        -0.48325E-01
 
    0.25000E+07         0.70757E-01         0.00000E+00
    0.70757E-01        -0.25000E+07         0.00000E+00
    0.00000E+00         0.00000E+00        -0.49733E-01
 
    0.25000E+07         0.68224E-01         0.00000E+00
    0.68224E-01        -0.25000E+07         0.00000E+00
    0.00000E+00         0.00000E+00        -0.50987E-01
 
    0.25000E+07         0.62943E-01         0.00000E+00
    0.62943E-01        -0.25000E+07         0.00000E+00
    0.00000E+00         0.00000E+00        -0.52080E-01
 
    0.25000E+07         0.55177E-01         0.00000E+00
    0.55177E-01        -0.25000E+07         0.00000E+00
    0.00000E+00         0.00000E+00        -0.53003E-01
 
    0.25000E+07         0.45268E-01         0.00000E+00
    0.45268E-01        -0.25000E+07         0.00000E+00
    0.00000E+00         0.00000E+00        -0.53749E-01
 
    0.25000E+07         0.33621E-01         0.00000E+00
    0.33621E-01        -0.25000E+07         0.00000E+00
    0.00000E+00         0.00000E+00        -0.54314E-01
 
    0.25000E+07         0.20695E-01         0.00000E+00
    0.20695E-01        -0.25000E+07         0.00000E+00
    0.00000E+00         0.00000E+00        -0.54693E-01
 
    0.25000E+07         0.69863E-02         0.00000E+00
    0.69863E-02        -0.25000E+07         0.00000E+00
    0.00000E+00         0.00000E+00        -0.54883E-01
 
    0.25000E+07         0.11202E-01         0.00000E+00
    0.11202E-01        -0.25000E+07         0.00000E+00
    0.00000E+00         0.00000E+00        -0.44590E-01
 
    0.25000E+07         0.31941E-01         0.00000E+00
    0.31941E-01        -0.25000E+07         0.00000E+00
    0.00000E+00         0.00000E+00        -0.47137E-01
 
    0.25000E+07         0.50179E-01         0.00000E+00
    0.50179E-01        -0.25000E+07         0.00000E+00
    0.00000E+00         0.00000E+00        -0.49589E-01
 
    0.25000E+07         0.65400E-01         0.00000E+00
    0.65400E-01        -0.25000E+07         0.00000E+00
    0.00000E+00         0.00000E+00        -0.51928E-01
 
    0.25000E+07         0.77208E-01         0.00000E+00
    0.77208E-01        -0.25000E+07         0.00000E+00
    0.00000E+00         0.00000E+00        -0.54140E-01
 
    0.25000E+07         0.85332E-01         0.00000E+00
    0.85332E-01        -0.25000E+07         0.00000E+00
    0.00000E+00         0.00000E+00        -0.56209E-01
 
    0.25000E+07         0.89632E-01         0.00000E+00
    0.89632E-01        -0.25000E+07         0.00000E+00
    0.00000E+00         0.00000E+00        -0.58118E-01
 
    0.25000E+07         0.90096E-01         0.00000E+00
    0.90096E-01        -0.25000E+07         0.00000E+00
    0.00000E+00         0.00000E+00        -0.59855E-01
 
    0.25000E+07         0.86838E-01         0.00000E+00
    0.86838E-01        -0.25000E+07         0.00000E+00
    0.00000E+00         0.00000E+00        -0.61406E-01
 
    0.25000E+07         0.80090E-01         0.00000E+00
    0.80090E-01        -0.25000E+07         0.00000E+00
    0.00000E+00         0.00000E+00        -0.62758E-01
 
    0.25000E+07         0.70189E-01         0.00000E+00
    0.70189E-01        -0.25000E+07         0.00000E+00
    0.00000E+00         0.00000E+00        -0.63902E-01
 
    0.25000E+07         0.57571E-01         0.00000E+00
    0.57571E-01        -0.25000E+07         0.00000E+00
    0.00000E+00         0.00000E+00        -0.64828E-01
 
    0.25000E+07         0.42752E-01         0.00000E+00
    0.42752E-01        -0.25000E+07         0.00000E+00
    0.00000E+00         0.00000E+00        -0.65529E-01
 
    0.25000E+07         0.26312E-01         0.00000E+00
    0.26312E-01        -0.25000E+07         0.00000E+00
    0.00000E+00         0.00000E+00        -0.66000E-01
 
    0.25000E+07         0.88820E-02         0.00000E+00
    0.88820E-02        -0.25000E+07         0.00000E+00
    0.00000E+00         0.00000E+00        -0.66236E-01
 
    0.25000E+07         0.14246E-01         0.00000E+00
    0.14246E-01        -0.25000E+07         0.00000E+00
    0.00000E+00         0.00000E+00        -0.53504E-01
 
    0.25000E+07         0.40583E-01         0.00000E+00
    0.40583E-01        -0.25000E+07         0.00000E+00
    0.00000E+00         0.00000E+00        -0.56631E-01
 
    0.25000E+07         0.63706E-01         0.00000E+00
    0.63706E-01        -0.25000E+07         0.00000E+00
    0.00000E+00         0.00000E+00        -0.59653E-01
 
    0.25000E+07         0.82970E-01         0.00000E+00
    0.82970E-01        -0.25000E+07         0.00000E+00
    0.00000E+00         0.00000E+00        -0.62546E-01
 
    0.25000E+07         0.97884E-01         0.00000E+00
    0.97884E-01        -0.25000E+07         0.00000E+00
    0.00000E+00         0.00000E+00        -0.65288E-01
 
    0.25000E+07         0.10812E+00         0.00000E+00
    0.10812E+00        -0.25000E+07         0.00000E+00
    0.00000E+00         0.00000E+00        -0.67858E-01
 
    0.25000E+07         0.11350E+00         0.00000E+00
    0.11350E+00        -0.25000E+07         0.00000E+00
    0.00000E+00         0.00000E+00        -0.70236E-01
 
    0.25000E+07         0.11403E+00         0.00000E+00
    0.11403E+00        -0.25000E+07         0.00000E+00
    0.00000E+00         0.00000E+00        -0.72402E-01
 
    0.25000E+07         0.10986E+00         0.00000E+00
    0.10986E+00        -0.25000E+07         0.00000E+00
    0.00000E+00         0.00000E+00        -0.74338E-01
 
    0.25000E+07         0.10128E+00         0.00000E+00
    0.10128E+00        -0.25000E+07         0.00000E+00
    0.00000E+00         0.00000E+00        -0.76028E-01
 
    0.25000E+07         0.88735E-01         0.00000E+00
    0.88735E-01        -0.25000E+07         0.00000E+00
    0.00000E+00         0.00000E+00        -0.77459E-01
 
    0.25000E+07         0.72765E-01         0.00000E+00
    0.72765E-01        -0.25000E+07         0.00000E+00
    0.00000E+00         0.00000E+00        -0.78618E-01
 
    0.25000E+07         0.54024E-01         0.00000E+00
    0.54024E-01        -0.25000E+07         0.00000E+00
    0.00000E+00         0.00000E+00        -0.79496E-01
 
    0.25000E+07         0.33246E-01         0.00000E+00
    0.33246E-01        -0.25000E+07         0.00000E+00
    0.00000E+00         0.00000E+00        -0.80085E-01
 
    0.25000E+07         0.11222E-01         0.00000E+00
    0.11222E-01        -0.25000E+07         0.00000E+00
    0.00000E+00         0.00000E+00        -0.80381E-01
 
    0.25000E+07         0.18047E-01         0.00000E+00
    0.18047E-01        -0.25000E+07         0.00000E+00
    0.00000E+00         0.00000E+00        -0.64275E-01
 
    0.25000E+07         0.51354E-01         0.00000E+00
    0.51354E-01        -0.25000E+07         0.00000E+00
    0.00000E+00         0.00000E+00        -0.68158E-01
 
    0.25000E+07         0.80540E-01         0.00000E+00
    0.80540E-01        -0.25000E+07         0.00000E+00
    0.00000E+00         0.00000E+00        -0.71921E-01
 
    0.25000E+07         0.10481E+00         0.00000E+00
    0.10481E+00        -0.25000E+07         0.00000E+00
    0.00000E+00         0.00000E+00        -0.75534E-01
 
    0.25000E+07         0.12355E+00         0.00000E+00
    0.12355E+00        -0.25000E+07         0.00000E+00
    0.00000E+00         0.00000E+00        -0.78966E-01
 
    0.25000E+07         0.13637E+00         0.00000E+00
    0.13637E+00        -0.25000E+07         0.00000E+00
    0.00000E+00         0.00000E+00        -0.82188E-01
 
    0.25000E+07         0.14307E+00         0.00000E+00
    0.14307E+00        -0.25000E+07         0.00000E+00
    0.00000E+00         0.00000E+00        -0.85173E-01
 
    0.25000E+07         0.14366E+00         0.00000E+00
    0.14366E+00        -0.25000E+07         0.00000E+00
    0.00000E+00         0.00000E+00        -0.87895E-01
 
    0.25000E+07         0.13834E+00         0.00000E+00
    0.13834E+00        -0.25000E+07         0.00000E+00
    0.00000E+00         0.00000E+00        -0.90330E-01
 
    0.25000E+07         0.12748E+00         0.00000E+00
    0.12748E+00        -0.25000E+07         0.00000E+00
    0.00000E+00         0.00000E+00        -0.92457E-01
 
    0.25000E+07         0.11165E+00         0.00000E+00
    0.11165E+00        -0.25000E+07         0.00000E+00
    0.00000E+00         0.00000E+00        -0.94259E-01
 
    0.25000E+07         0.91527E-01         0.00000E+00
    0.91527E-01        -0.25000E+07         0.00000E+00
    0.00000E+00         0.00000E+00        -0.95720E-01
 
    0.25000E+07         0.67939E-01         0.00000E+00
    0.67939E-01        -0.25000E+07         0.00000E+00
    0.00000E+00         0.00000E+00        -0.96826E-01
 
    0.25000E+07         0.41804E-01         0.00000E+00
    0.41804E-01        -0.25000E+07         0.00000E+00
    0.00000E+00         0.00000E+00        -0.97569E-01
 
    0.25000E+07         0.14109E-01         0.00000E+00
    0.14109E-01        -0.25000E+07         0.00000E+00
    0.00000E+00         0.00000E+00        -0.97942E-01
 
    0.25000E+07         0.22790E-01         0.00000E+00
    0.22790E-01        -0.25000E+07         0.00000E+00
    0.00000E+00         0.00000E+00        -0.77239E-01
 
    0.25000E+07         0.64767E-01         0.00000E+00
    0.64767E-01        -0.25000E+07         0.00000E+00
    0.00000E+00         0.00000E+00        -0.82106E-01
 
    0.25000E+07         0.10147E+00         0.00000E+00
    0.10147E+00        -0.25000E+07         0.00000E+00
    0.00000E+00         0.00000E+00        -0.86835E-01
 
    0.25000E+07         0.13192E+00         0.00000E+00
    0.13192E+00        -0.25000E+07         0.00000E+00
    0.00000E+00         0.00000E+00        -0.91383E-01
 
    0.25000E+07         0.15537E+00         0.00000E+00
    0.15537E+00        -0.25000E+07         0.00000E+00
    0.00000E+00         0.00000E+00        -0.95710E-01
 
    0.25000E+07         0.17136E+00         0.00000E+00
    0.17136E+00        -0.25000E+07         0.00000E+00
    0.00000E+00         0.00000E+00        -0.99777E-01
 
    0.25000E+07         0.17965E+00         0.00000E+00
    0.17965E+00        -0.25000E+07         0.00000E+00
    0.00000E+00         0.00000E+00        -0.10355E+00
 
    0.25000E+07         0.18028E+00         0.00000E+00
    0.18028E+00        -0.25000E+07         0.00000E+00
    0.00000E+00         0.00000E+00        -0.10699E+00
 
    0.25000E+07         0.17350E+00         0.00000E+00
    0.17350E+00        -0.25000E+07         0.00000E+00
    0.00000E+00         0.00000E+00        -0.11007E+00
 
    0.25000E+07         0.15981E+00         0.00000E+00
    0.15981E+00        -0.25000E+07         0.00000E+00
    0.00000E+00         0.00000E+00        -0.11276E+00
 
    0.25000E+07         0.13991E+00         0.00000E+00
    0.13991E+00        -0.25000E+07         0.00000E+00
    0.00000E+00         0.00000E+00        -0.11504E+00
 
    0.25000E+07         0.11466E+00         0.00000E+00
    0.11466E+00        -0.25000E+07         0.00000E+00
    0.00000E+00         0.00000E+00        -0.11689E+00
 
    0.25000E+07         0.85091E-01         0.00000E+00
    0.85091E-01        -0.25000E+07         0.00000E+00
    0.00000E+00         0.00000E+00        -0.11829E+00
 
    0.25000E+07         0.52349E-01         0.00000E+00
    0.52349E-01        -0.25000E+07         0.00000E+00
    0.00000E+00         0.00000E+00        -0.11923E+00
 
    0.25000E+07         0.17667E-01         0.00000E+00
    0.17667E-01        -0.25000E+07         0.00000E+00
    0.00000E+00         0.00000E+00        -0.11970E+00
 
    0.25000E+07         0.28696E-01         0.00000E+00
    0.28696E-01        -0.25000E+07         0.00000E+00
    0.00000E+00         0.00000E+00        -0.92808E-01
 
    0.25000E+07         0.81438E-01         0.00000E+00
    0.81438E-01        -0.25000E+07         0.00000E+00
    0.00000E+00         0.00000E+00        -0.98958E-01
 
    0.25000E+07         0.12744E+00         0.00000E+00
    0.12744E+00        -0.25000E+07         0.00000E+00
    0.00000E+00         0.00000E+00        -0.10494E+00
 
    0.25000E+07         0.16550E+00         0.00000E+00
    0.16550E+00        -0.25000E+07         0.00000E+00
    0.00000E+00         0.00000E+00        -0.11070E+00
 
    0.25000E+07         0.19474E+00         0.00000E+00
    0.19474E+00        -0.25000E+07         0.00000E+00
    0.00000E+00         0.00000E+00        -0.11619E+00
 
    0.25000E+07         0.21459E+00         0.00000E+00
    0.21459E+00        -0.25000E+07         0.00000E+00
    0.00000E+00         0.00000E+00        -0.12135E+00
 
    0.25000E+07         0.22481E+00         0.00000E+00
    0.22481E+00        -0.25000E+07         0.00000E+00
    0.00000E+00         0.00000E+00        -0.12613E+00
 
    0.25000E+07         0.22543E+00         0.00000E+00
    0.22543E+00        -0.25000E+07         0.00000E+00
    0.00000E+00         0.00000E+00        -0.13050E+00
 
    0.25000E+07         0.21683E+00         0.00000E+00
    0.21683E+00        -0.25000E+07         0.00000E+00
    0.00000E+00         0.00000E+00        -0.13441E+00
 
    0.25000E+07         0.19963E+00         0.00000E+00
    0.19963E+00        -0.25000E+07         0.00000E+00
    0.00000E+00         0.00000E+00        -0.13783E+00
 
    0.25000E+07         0.17469E+00         0.00000E+00
    0.17469E+00        -0.25000E+07         0.00000E+00
    0.00000E+00         0.00000E+00        -0.14073E+00
 
    0.25000E+07         0.14311E+00         0.00000E+00
    0.14311E+00        -0.25000E+07         0.00000E+00
    0.00000E+00         0.00000E+00        -0.14308E+00
 
    0.25000E+07         0.10618E+00         0.00000E+00
    0.10618E+00        -0.25000E+07         0.00000E+00
    0.00000E+00         0.00000E+00        -0.14485E+00
 
    0.25000E+07         0.65313E-01         0.00000E+00
    0.65313E-01        -0.25000E+07         0.00000E+00
    0.00000E+00         0.00000E+00        -0.14605E+00
 
    0.25000E+07         0.22041E-01         0.00000E+00
    0.22041E-01        -0.25000E+07         0.00000E+00
    0.00000E+00         0.00000E+00        -0.14665E+00
 
    0.25000E+07         0.36034E-01         0.00000E+00
    0.36034E-01        -0.25000E+07         0.00000E+00
    0.00000E+00         0.00000E+00        -0.11149E+00
 
    0.25000E+07         0.10210E+00         0.00000E+00
    0.10210E+00        -0.25000E+07         0.00000E+00
    0.00000E+00         0.00000E+00        -0.11931E+00
 
    0.25000E+07         0.15957E+00         0.00000E+00
    0.15957E+00        -0.25000E+07         0.00000E+00
    0.00000E+00         0.00000E+00        -0.12692E+00
 
    0.25000E+07         0.20699E+00         0.00000E+00
    0.20699E+00        -0.25000E+07         0.00000E+00
    0.00000E+00         0.00000E+00        -0.13425E+00
 
    0.25000E+07         0.24331E+00         0.00000E+00
    0.24331E+00        -0.25000E+07         0.00000E+00
    0.00000E+00         0.00000E+00        -0.14124E+00
 
    0.25000E+07         0.26786E+00         0.00000E+00
    0.26786E+00        -0.25000E+07         0.00000E+00
    0.00000E+00         0.00000E+00        -0.14781E+00
 
    0.25000E+07         0.28037E+00         0.00000E+00
    0.28037E+00        -0.25000E+07         0.00000E+00
    0.00000E+00         0.00000E+00        -0.15390E+00
 
    0.25000E+07         0.28095E+00         0.00000E+00
    0.28095E+00        -0.25000E+07         0.00000E+00
    0.00000E+00         0.00000E+00        -0.15946E+00
 
    0.25000E+07         0.27006E+00         0.00000E+00
    0.27006E+00        -0.25000E+07         0.00000E+00
    0.00000E+00         0.00000E+00        -0.16444E+00
 
    0.25000E+07         0.24849E+00         0.00000E+00
    0.24849E+00        -0.25000E+07         0.00000E+00
    0.00000E+00         0.00000E+00        -0.16879E+00
 
    0.25000E+07         0.21735E+00         0.00000E+00
    0.21735E+00        -0.25000E+07         0.00000E+00
    0.00000E+00         0.00000E+00        -0.17248E+00
 
    0.25000E+07         0.17801E+00         0.00000E+00
    0.17801E+00        -0.25000E+07         0.00000E+00
    0.00000E+00         0.00000E+00        -0.17546E+00
 
    0.25000E+07         0.13203E+00         0.00000E+00
    0.13203E+00        -0.25000E+07         0.00000E+00
    0.00000E+00         0.00000E+00        -0.17773E+00
 
    0.25000E+07         0.81200E-01         0.00000E+00
    0.81200E-01        -0.25000E+07         0.00000E+00
    0.00000E+00         0.00000E+00        -0.17925E+00
 
    0.25000E+07         0.27399E-01         0.00000E+00
    0.27399E-01        -0.25000E+07         0.00000E+00
    0.00000E+00         0.00000E+00        -0.18001E+00
 
    0.25000E+07         0.45121E-01         0.00000E+00
    0.45121E-01        -0.25000E+07         0.00000E+00
    0.00000E+00         0.00000E+00        -0.13390E+00
 
    0.25000E+07         0.12763E+00         0.00000E+00
    0.12763E+00        -0.25000E+07         0.00000E+00
    0.00000E+00         0.00000E+00        -0.14389E+00
 
    0.25000E+07         0.19919E+00         0.00000E+00
    0.19919E+00        -0.25000E+07         0.00000E+00
    0.00000E+00         0.00000E+00        -0.15362E+00
 
    0.25000E+07         0.25806E+00         0.00000E+00
    0.25806E+00        -0.25000E+07         0.00000E+00
    0.00000E+00         0.00000E+00        -0.16299E+00
 
    0.25000E+07         0.30301E+00         0.00000E+00
    0.30301E+00        -0.25000E+07         0.00000E+00
    0.00000E+00         0.00000E+00        -0.17191E+00
 
    0.25000E+07         0.33326E+00         0.00000E+00
    0.33326E+00        -0.25000E+07         0.00000E+00
    0.00000E+00         0.00000E+00        -0.18029E+00
 
    0.25000E+07         0.34852E+00         0.00000E+00
    0.34852E+00        -0.25000E+07         0.00000E+00
    0.00000E+00         0.00000E+00        -0.18806E+00
 
    0.25000E+07         0.34897E+00         0.00000E+00
    0.34897E+00        -0.25000E+07         0.00000E+00
    0.00000E+00         0.00000E+00        -0.19516E+00
 
    0.25000E+07         0.33522E+00         0.00000E+00
    0.33522E+00        -0.25000E+07         0.00000E+00
    0.00000E+00         0.00000E+00        -0.20150E+00
 
    0.25000E+07         0.30827E+00         0.00000E+00
    0.30827E+00        -0.25000E+07         0.00000E+00
    0.00000E+00         0.00000E+00        -0.20704E+00
 
    0.25000E+07         0.26952E+00         0.00000E+00
    0.26952E+00        -0.25000E+07         0.00000E+00
    0.00000E+00         0.00000E+00        -0.21174E+00
 
    0.25000E+07         0.22064E+00         0.00000E+00
    0.22064E+00        -0.25000E+07         0.00000E+00
    0.00000E+00         0.00000E+00        -0.21554E+00
 
    0.25000E+07         0.16361E+00         0.00000E+00
    0.16361E+00        -0.25000E+07         0.00000E+00
    0.00000E+00         0.00000E+00        -0.21842E+00
 
    0.25000E+07         0.10060E+00         0.00000E+00
    0.10060E+00        -0.25000E+07         0.00000E+00
    0.00000E+00         0.00000E+00        -0.22035E+00
 
    0.25000E+07         0.33943E-01         0.00000E+00
    0.33943E-01        -0.25000E+07         0.00000E+00
    0.00000E+00         0.00000E+00        -0.22132E+00
 
    0.25000E+07         0.56334E-01         0.00000E+00
    0.56334E-01        -0.25000E+07         0.00000E+00
    0.00000E+00         0.00000E+00        -0.16084E+00
 
    0.25000E+07         0.15906E+00         0.00000E+00
    0.15906E+00        -0.25000E+07         0.00000E+00
    0.00000E+00         0.00000E+00        -0.17365E+00
 
    0.25000E+07         0.24787E+00         0.00000E+00
    0.24787E+00        -0.25000E+07         0.00000E+00
    0.00000E+00         0.00000E+00        -0.18611E+00
 
    0.25000E+07         0.32072E+00         0.00000E+00
    0.32072E+00        -0.25000E+07         0.00000E+00
    0.00000E+00         0.00000E+00        -0.19810E+00
 
    0.25000E+07         0.37614E+00         0.00000E+00
    0.37614E+00        -0.25000E+07         0.00000E+00
    0.00000E+00         0.00000E+00        -0.20950E+00
 
    0.25000E+07         0.41326E+00         0.00000E+00
    0.41326E+00        -0.25000E+07         0.00000E+00
    0.00000E+00         0.00000E+00        -0.22022E+00
 
    0.25000E+07         0.43179E+00         0.00000E+00
    0.43179E+00        -0.25000E+07         0.00000E+00
    0.00000E+00         0.00000E+00        -0.23014E+00
 
    0.25000E+07         0.43199E+00         0.00000E+00
    0.43199E+00        -0.25000E+07         0.00000E+00
    0.00000E+00         0.00000E+00        -0.23919E+00
 
    0.25000E+07         0.41468E+00         0.00000E+00
    0.41468E+00        -0.25000E+07         0.00000E+00
    0.00000E+00         0.00000E+00        -0.24728E+00
 
    0.25000E+07         0.38112E+00         0.00000E+00
    0.38112E+00        -0.25000E+07         0.00000E+00
    0.00000E+00         0.00000E+00        -0.25434E+00
 
    0.25000E+07         0.33304E+00         0.00000E+00
    0.33304E+00        -0.25000E+07         0.00000E+00
    0.00000E+00         0.00000E+00        -0.26032E+00
 
    0.25000E+07         0.27254E+00         0.00000E+00
    0.27254E+00        -0.25000E+07         0.00000E+00
    0.00000E+00         0.00000E+00        -0.26516E+00
 
    0.25000E+07         0.20204E+00         0.00000E+00
    0.20204E+00        -0.25000E+07         0.00000E+00
    0.00000E+00         0.00000E+00        -0.26882E+00
 
    0.25000E+07         0.12421E+00         0.00000E+00
    0.12421E+00        -0.25000E+07         0.00000E+00
    0.00000E+00         0.00000E+00        -0.27128E+00
 
    0.25000E+07         0.41903E-01         0.00000E+00
    0.41903E-01        -0.25000E+07         0.00000E+00
    0.00000E+00         0.00000E+00        -0.27252E+00
 
    0.25000E+07         0.70116E-01         0.00000E+00
    0.70116E-01        -0.25000E+07         0.00000E+00
    0.00000E+00         0.00000E+00        -0.19329E+00
 
    0.25000E+07         0.19759E+00         0.00000E+00
    0.19759E+00        -0.25000E+07         0.00000E+00
    0.00000E+00         0.00000E+00        -0.20974E+00
 
    0.25000E+07         0.30745E+00         0.00000E+00
    0.30745E+00        -0.25000E+07         0.00000E+00
    0.00000E+00         0.00000E+00        -0.22572E+00
 
    0.25000E+07         0.39727E+00         0.00000E+00
    0.39727E+00        -0.25000E+07         0.00000E+00
    0.00000E+00         0.00000E+00        -0.24109E+00
 
    0.25000E+07         0.46535E+00         0.00000E+00
    0.46535E+00        -0.25000E+07         0.00000E+00
    0.00000E+00         0.00000E+00        -0.25568E+00
 
    0.25000E+07         0.51072E+00         0.00000E+00
    0.51072E+00        -0.25000E+07         0.00000E+00
    0.00000E+00         0.00000E+00        -0.26937E+00
 
    0.25000E+07         0.53311E+00         0.00000E+00
    0.53311E+00        -0.25000E+07         0.00000E+00
    0.00000E+00         0.00000E+00        -0.28205E+00
 
    0.25000E+07         0.53292E+00         0.00000E+00
    0.53292E+00        -0.25000E+07         0.00000E+00
    0.00000E+00         0.00000E+00        -0.29358E+00
 
    0.25000E+07         0.51119E+00         0.00000E+00
    0.51119E+00        -0.25000E+07         0.00000E+00
    0.00000E+00         0.00000E+00        -0.30389E+00
 
    0.25000E+07         0.46954E+00         0.00000E+00
    0.46954E+00        -0.25000E+07         0.00000E+00
    0.00000E+00         0.00000E+00        -0.31288E+00
 
    0.25000E+07         0.41010E+00         0.00000E+00
    0.41010E+00        -0.25000E+07         0.00000E+00
    0.00000E+00         0.00000E+00        -0.32048E+00
 
    0.25000E+07         0.33546E+00         0.00000E+00
    0.33546E+00        -0.25000E+07         0.00000E+00
    0.00000E+00         0.00000E+00        -0.32664E+00
 
    0.25000E+07         0.24861E+00         0.00000E+00
    0.24861E+00        -0.25000E+07         0.00000E+00
    0.00000E+00         0.00000E+00        -0.33129E+00
 
    0.25000E+07         0.15280E+00         0.00000E+00
    0.15280E+00        -0.25000E+07         0.00000E+00
    0.00000E+00         0.00000E+00        -0.33442E+00
 
    0.25000E+07         0.51546E-01         0.00000E+00
    0.51546E-01        -0.25000E+07         0.00000E+00
    0.00000E+00         0.00000E+00        -0.33599E+00
 
    0.25000E+07         0.86986E-01         0.00000E+00
    0.86986E-01        -0.25000E+07         0.00000E+00
    0.00000E+00         0.00000E+00        -0.23249E+00
 
    0.25000E+07         0.24465E+00         0.00000E+00
    0.24465E+00        -0.25000E+07         0.00000E+00
    0.00000E+00         0.00000E+00        -0.25365E+00
 
    0.25000E+07         0.38007E+00         0.00000E+00
    0.38007E+00        -0.25000E+07         0.00000E+00
    0.00000E+00         0.00000E+00        -0.27417E+00
 
    0.25000E+07         0.49041E+00         0.00000E+00
    0.49041E+00        -0.25000E+07         0.00000E+00
    0.00000E+00         0.00000E+00        -0.29385E+00
 
    0.25000E+07         0.57373E+00         0.00000E+00
    0.57373E+00        -0.25000E+07         0.00000E+00
    0.00000E+00         0.00000E+00        -0.31252E+00
 
    0.25000E+07         0.62897E+00         0.00000E+00
    0.62897E+00        -0.25000E+07         0.00000E+00
    0.00000E+00         0.00000E+00        -0.33001E+00
 
    0.25000E+07         0.65590E+00         0.00000E+00
    0.65590E+00        -0.25000E+07         0.00000E+00
    0.00000E+00         0.00000E+00        -0.34617E+00
 
    0.25000E+07         0.65511E+00         0.00000E+00
    0.65511E+00        -0.25000E+07         0.00000E+00
    0.00000E+00         0.00000E+00        -0.36087E+00
 
    0.25000E+07         0.62793E+00         0.00000E+00
    0.62793E+00        -0.25000E+07         0.00000E+00
    0.00000E+00         0.00000E+00        -0.37398E+00
 
    0.25000E+07         0.57640E+00         0.00000E+00
    0.57640E+00        -0.25000E+07         0.00000E+00
    0.00000E+00         0.00000E+00        -0.38541E+00
 
    0.25000E+07         0.50317E+00         0.00000E+00
    0.50317E+00        -0.25000E+07         0.00000E+00
    0.00000E+00         0.00000E+00        -0.39507E+00
 
    0.25000E+07         0.41143E+00         0.00000E+00
    0.41143E+00        -0.25000E+07         0.00000E+00
    0.00000E+00         0.00000E+00        -0.40288E+00
 
    0.25000E+07         0.30481E+00         0.00000E+00
    0.30481E+00        -0.25000E+07         0.00000E+00
    0.00000E+00         0.00000E+00        -0.40878E+00
 
    0.25000E+07         0.18731E+00         0.00000E+00
    0.18731E+00        -0.25000E+07         0.00000E+00
    0.00000E+00         0.00000E+00        -0.41275E+00
 
    0.25000E+07         0.63181E-01         0.00000E+00
    0.63181E-01        -0.25000E+07         0.00000E+00
    0.00000E+00         0.00000E+00        -0.41473E+00
 
    0.25000E+07         0.10755E+00         0.00000E+00
    0.10755E+00        -0.25000E+07         0.00000E+00
    0.00000E+00         0.00000E+00        -0.28007E+00
 
    0.25000E+07         0.30187E+00         0.00000E+00
    0.30187E+00        -0.25000E+07         0.00000E+00
    0.00000E+00         0.00000E+00        -0.30727E+00
 
    0.25000E+07         0.46819E+00         0.00000E+00
    0.46819E+00        -0.25000E+07         0.00000E+00
    0.00000E+00         0.00000E+00        -0.33359E+00
 
    0.25000E+07         0.60324E+00         0.00000E+00
    0.60324E+00        -0.25000E+07         0.00000E+00
    0.00000E+00         0.00000E+00        -0.35879E+00
 
    0.25000E+07         0.70484E+00         0.00000E+00
    0.70484E+00        -0.25000E+07         0.00000E+00
    0.00000E+00         0.00000E+00        -0.38265E+00
 
    0.25000E+07         0.77182E+00         0.00000E+00
    0.77182E+00        -0.25000E+07         0.00000E+00
    0.00000E+00         0.00000E+00        -0.40496E+00
 
    0.25000E+07         0.80407E+00         0.00000E+00
    0.80407E+00        -0.25000E+07         0.00000E+00
    0.00000E+00         0.00000E+00        -0.42553E+00
 
    0.25000E+07         0.80240E+00         0.00000E+00
    0.80240E+00        -0.25000E+07         0.00000E+00
    0.00000E+00         0.00000E+00        -0.44422E+00
 
    0.25000E+07         0.76853E+00         0.00000E+00
    0.76853E+00        -0.25000E+07         0.00000E+00
    0.00000E+00         0.00000E+00        -0.46087E+00
 
    0.25000E+07         0.70502E+00         0.00000E+00
    0.70502E+00        -0.25000E+07         0.00000E+00
    0.00000E+00         0.00000E+00        -0.47537E+00
 
    0.25000E+07         0.61513E+00         0.00000E+00
    0.61513E+00        -0.25000E+07         0.00000E+00
    0.00000E+00         0.00000E+00        -0.48760E+00
 
    0.25000E+07         0.50277E+00         0.00000E+00
    0.50277E+00        -0.25000E+07         0.00000E+00
    0.00000E+00         0.00000E+00        -0.49749E+00
 
    0.25000E+07         0.37237E+00         0.00000E+00
    0.37237E+00        -0.25000E+07         0.00000E+00
    0.00000E+00         0.00000E+00        -0.50497E+00
 
    0.25000E+07         0.22878E+00         0.00000E+00
    0.22878E+00        -0.25000E+07         0.00000E+00
    0.00000E+00         0.00000E+00        -0.50998E+00
 
    0.25000E+07         0.77160E-01         0.00000E+00
    0.77160E-01        -0.25000E+07         0.00000E+00
    0.00000E+00         0.00000E+00        -0.51250E+00
 
    0.25000E+07         0.13249E+00         0.00000E+00
    0.13249E+00        -0.25000E+07         0.00000E+00
    0.00000E+00         0.00000E+00        -0.33809E+00
 
    0.25000E+07         0.37112E+00         0.00000E+00
    0.37112E+00        -0.25000E+07         0.00000E+00
    0.00000E+00         0.00000E+00        -0.37303E+00
 
    0.25000E+07         0.57464E+00         0.00000E+00
    0.57464E+00        -0.25000E+07         0.00000E+00
    0.00000E+00         0.00000E+00        -0.40676E+00
 
    0.25000E+07         0.73933E+00         0.00000E+00
    0.73933E+00        -0.25000E+07         0.00000E+00
    0.00000E+00         0.00000E+00        -0.43896E+00
 
    0.25000E+07         0.86274E+00         0.00000E+00
    0.86274E+00        -0.25000E+07         0.00000E+00
    0.00000E+00         0.00000E+00        -0.46938E+00
 
    0.25000E+07         0.94365E+00         0.00000E+00
    0.94365E+00        -0.25000E+07         0.00000E+00
    0.00000E+00         0.00000E+00        -0.49777E+00
 
    0.25000E+07         0.98209E+00         0.00000E+00
    0.98209E+00        -0.25000E+07         0.00000E+00
    0.00000E+00         0.00000E+00        -0.52392E+00
 
    0.25000E+07         0.97919E+00         0.00000E+00
    0.97919E+00        -0.25000E+07         0.00000E+00
    0.00000E+00         0.00000E+00        -0.54762E+00
 
    0.25000E+07         0.93716E+00         0.00000E+00
    0.93716E+00        -0.25000E+07         0.00000E+00
    0.00000E+00         0.00000E+00        -0.56871E+00
 
    0.25000E+07         0.85917E+00         0.00000E+00
    0.85917E+00        -0.25000E+07         0.00000E+00
    0.00000E+00         0.00000E+00        -0.58705E+00
 
    0.25000E+07         0.74924E+00         0.00000E+00
    0.74924E+00        -0.25000E+07         0.00000E+00
    0.00000E+00         0.00000E+00        -0.60251E+00
 
    0.25000E+07         0.61213E+00         0.00000E+00
    0.61213E+00        -0.25000E+07         0.00000E+00
    0.00000E+00         0.00000E+00        -0.61500E+00
 
    0.25000E+07         0.45322E+00         0.00000E+00
    0.45322E+00        -0.25000E+07         0.00000E+00
    0.00000E+00         0.00000E+00        -0.62443E+00
 
    0.25000E+07         0.27840E+00         0.00000E+00
    0.27840E+00        -0.25000E+07         0.00000E+00
    0.00000E+00         0.00000E+00        -0.63075E+00
 
    0.25000E+07         0.93886E-01         0.00000E+00
    0.93886E-01        -0.25000E+07         0.00000E+00
    0.00000E+00         0.00000E+00        -0.63392E+00
 
    0.25000E+07         0.16262E+00         0.00000E+00
    0.16262E+00        -0.25000E+07         0.00000E+00
    0.00000E+00         0.00000E+00        -0.40924E+00
 
    0.25000E+07         0.45456E+00         0.00000E+00
    0.45456E+00        -0.25000E+07         0.00000E+00
    0.00000E+00         0.00000E+00        -0.45405E+00
 
    0.25000E+07         0.70268E+00         0.00000E+00
    0.70268E+00        -0.25000E+07         0.00000E+00
    0.00000E+00         0.00000E+00        -0.49716E+00
 
    0.25000E+07         0.90275E+00         0.00000E+00
    0.90275E+00        -0.25000E+07         0.00000E+00
    0.00000E+00         0.00000E+00        -0.53823E+00
 
    0.25000E+07         0.10521E+01         0.00000E+00
    0.10521E+01        -0.25000E+07         0.00000E+00
    0.00000E+00         0.00000E+00        -0.57693E+00
 
    0.25000E+07         0.11494E+01         0.00000E+00
    0.11494E+01        -0.25000E+07         0.00000E+00
    0.00000E+00         0.00000E+00        -0.61296E+00
 
    0.25000E+07         0.11951E+01         0.00000E+00
    0.11951E+01        -0.25000E+07         0.00000E+00
    0.00000E+00         0.00000E+00        -0.64608E+00
 
    0.25000E+07         0.11905E+01         0.00000E+00
    0.11905E+01        -0.25000E+07         0.00000E+00
    0.00000E+00         0.00000E+00        -0.67605E+00
 
    0.25000E+07         0.11386E+01         0.00000E+00
    0.11386E+01        -0.25000E+07         0.00000E+00
    0.00000E+00         0.00000E+00        -0.70268E+00
 
    0.25000E+07         0.10431E+01         0.00000E+00
    0.10431E+01        -0.25000E+07         0.00000E+00
    0.00000E+00         0.00000E+00        -0.72581E+00
 
    0.25000E+07         0.90921E+00         0.00000E+00
    0.90921E+00        -0.25000E+07         0.00000E+00
    0.00000E+00         0.00000E+00        -0.74529E+00
 
    0.25000E+07         0.74252E+00         0.00000E+00
    0.74252E+00        -0.25000E+07         0.00000E+00
    0.00000E+00         0.00000E+00        -0.76100E+00
 
    0.25000E+07         0.54960E+00         0.00000E+00
    0.54960E+00        -0.25000E+07         0.00000E+00
    0.00000E+00         0.00000E+00        -0.77286E+00
 
    0.25000E+07         0.33754E+00         0.00000E+00
    0.33754E+00        -0.25000E+07         0.00000E+00
    0.00000E+00         0.00000E+00        -0.78081E+00
 
    0.25000E+07         0.11382E+00         0.00000E+00
    0.11382E+00        -0.25000E+07         0.00000E+00
    0.00000E+00         0.00000E+00        -0.78479E+00
 
    0.25000E+07         0.19885E+00         0.00000E+00
    0.19885E+00        -0.25000E+07         0.00000E+00
    0.00000E+00         0.00000E+00        -0.49702E+00
 
    0.25000E+07         0.55465E+00         0.00000E+00
    0.55465E+00        -0.25000E+07         0.00000E+00
    0.00000E+00         0.00000E+00        -0.55432E+00
 
    0.25000E+07         0.85599E+00         0.00000E+00
    0.85599E+00        -0.25000E+07         0.00000E+00
    0.00000E+00         0.00000E+00        -0.60930E+00
 
    0.25000E+07         0.10981E+01         0.00000E+00
    0.10981E+01        -0.25000E+07         0.00000E+00
    0.00000E+00         0.00000E+00        -0.66151E+00
 
    0.25000E+07         0.12781E+01         0.00000E+00
    0.12781E+01        -0.25000E+07         0.00000E+00
    0.00000E+00         0.00000E+00        -0.71059E+00
 
    0.25000E+07         0.13948E+01         0.00000E+00
    0.13948E+01        -0.25000E+07         0.00000E+00
    0.00000E+00         0.00000E+00        -0.75618E+00
 
    0.25000E+07         0.14488E+01         0.00000E+00
    0.14488E+01        -0.25000E+07         0.00000E+00
    0.00000E+00         0.00000E+00        -0.79800E+00
 
    0.25000E+07         0.14420E+01         0.00000E+00
    0.14420E+01        -0.25000E+07         0.00000E+00
    0.00000E+00         0.00000E+00        -0.83577E+00
 
    0.25000E+07         0.13781E+01         0.00000E+00
    0.13781E+01        -0.25000E+07         0.00000E+00
    0.00000E+00         0.00000E+00        -0.86928E+00
 
    0.25000E+07         0.12618E+01         0.00000E+00
    0.12618E+01        -0.25000E+07         0.00000E+00
    0.00000E+00         0.00000E+00        -0.89834E+00
 
    0.25000E+07         0.10993E+01         0.00000E+00
    0.10993E+01        -0.25000E+07         0.00000E+00
    0.00000E+00         0.00000E+00        -0.92278E+00
 
    0.25000E+07         0.89738E+00         0.00000E+00
    0.89738E+00        -0.25000E+07         0.00000E+00
    0.00000E+00         0.00000E+00        -0.94249E+00
 
    0.25000E+07         0.66403E+00         0.00000E+00
    0.66403E+00        -0.25000E+07         0.00000E+00
    0.00000E+00         0.00000E+00        -0.95735E+00
 
    0.25000E+07         0.40773E+00         0.00000E+00
    0.40773E+00        -0.25000E+07         0.00000E+00
    0.00000E+00         0.00000E+00        -0.96730E+00
 
    0.25000E+07         0.13747E+00         0.00000E+00
    0.13747E+00        -0.25000E+07         0.00000E+00
    0.00000E+00         0.00000E+00        -0.97229E+00
 
    0.25000E+07         0.24219E+00         0.00000E+00
    0.24219E+00        -0.25000E+07         0.00000E+00
    0.00000E+00         0.00000E+00        -0.60597E+00
 
    0.25000E+07         0.67416E+00         0.00000E+00
    0.67416E+00        -0.25000E+07         0.00000E+00
    0.00000E+00         0.00000E+00        -0.67904E+00
 
    0.25000E+07         0.10387E+01         0.00000E+00
    0.10387E+01        -0.25000E+07         0.00000E+00
    0.00000E+00         0.00000E+00        -0.74890E+00
 
    0.25000E+07         0.13307E+01         0.00000E+00
    0.13307E+01        -0.25000E+07         0.00000E+00
    0.00000E+00         0.00000E+00        -0.81507E+00
 
    0.25000E+07         0.15468E+01         0.00000E+00
    0.15468E+01        -0.25000E+07         0.00000E+00
    0.00000E+00         0.00000E+00        -0.87709E+00
 
    0.25000E+07         0.16862E+01         0.00000E+00
    0.16862E+01        -0.25000E+07         0.00000E+00
    0.00000E+00         0.00000E+00        -0.93457E+00
 
    0.25000E+07         0.17498E+01         0.00000E+00
    0.17498E+01        -0.25000E+07         0.00000E+00
    0.00000E+00         0.00000E+00        -0.98717E+00
 
    0.25000E+07         0.17402E+01         0.00000E+00
    0.17402E+01        -0.25000E+07         0.00000E+00
    0.00000E+00         0.00000E+00        -0.10346E+01
 
    0.25000E+07         0.16619E+01         0.00000E+00
    0.16619E+01        -0.25000E+07         0.00000E+00
    0.00000E+00         0.00000E+00        -0.10766E+01
 
    0.25000E+07         0.15208E+01         0.00000E+00
    0.15208E+01        -0.25000E+07         0.00000E+00
    0.00000E+00         0.00000E+00        -0.11130E+01
 
    0.25000E+07         0.13242E+01         0.00000E+00
    0.13242E+01        -0.25000E+07         0.00000E+00
    0.00000E+00         0.00000E+00        -0.11435E+01
 
    0.25000E+07         0.10806E+01         0.00000E+00
    0.10806E+01        -0.25000E+07         0.00000E+00
    0.00000E+00         0.00000E+00        -0.11681E+01
 
    0.25000E+07         0.79939E+00         0.00000E+00
    0.79939E+00        -0.25000E+07         0.00000E+00
    0.00000E+00         0.00000E+00        -0.11867E+01
 
    0.25000E+07         0.49076E+00         0.00000E+00
    0.49076E+00        -0.25000E+07         0.00000E+00
    0.00000E+00         0.00000E+00        -0.11991E+01
 
    0.25000E+07         0.16545E+00         0.00000E+00
    0.16545E+00        -0.25000E+07         0.00000E+00
    0.00000E+00         0.00000E+00        -0.12053E+01
 
    0.25000E+07         0.29381E+00         0.00000E+00
    0.29381E+00        -0.25000E+07         0.00000E+00
    0.00000E+00         0.00000E+00        -0.74203E+00
 
    0.25000E+07         0.81623E+00         0.00000E+00
    0.81623E+00        -0.25000E+07         0.00000E+00
    0.00000E+00         0.00000E+00        -0.83485E+00
 
    0.25000E+07         0.12556E+01         0.00000E+00
    0.12556E+01        -0.25000E+07         0.00000E+00
    0.00000E+00         0.00000E+00        -0.92332E+00
 
    0.25000E+07         0.16063E+01         0.00000E+00
    0.16063E+01        -0.25000E+07         0.00000E+00
    0.00000E+00         0.00000E+00        -0.10068E+01
 
    0.25000E+07         0.18650E+01         0.00000E+00
    0.18650E+01        -0.25000E+07         0.00000E+00
    0.00000E+00         0.00000E+00        -0.10849E+01
 
    0.25000E+07         0.20310E+01         0.00000E+00
    0.20310E+01        -0.25000E+07         0.00000E+00
    0.00000E+00         0.00000E+00        -0.11571E+01
 
    0.25000E+07         0.21056E+01         0.00000E+00
    0.21056E+01        -0.25000E+07         0.00000E+00
    0.00000E+00         0.00000E+00        -0.12230E+01
 
    0.25000E+07         0.20924E+01         0.00000E+00
    0.20924E+01        -0.25000E+07         0.00000E+00
    0.00000E+00         0.00000E+00        -0.12823E+01
 
    0.25000E+07         0.19970E+01         0.00000E+00
    0.19970E+01        -0.25000E+07         0.00000E+00
    0.00000E+00         0.00000E+00        -0.13347E+01
 
    0.25000E+07         0.18264E+01         0.00000E+00
    0.18264E+01        -0.25000E+07         0.00000E+00
    0.00000E+00         0.00000E+00        -0.13800E+01
 
    0.25000E+07         0.15896E+01         0.00000E+00
    0.15896E+01        -0.25000E+07         0.00000E+00
    0.00000E+00         0.00000E+00        -0.14181E+01
 
    0.25000E+07         0.12967E+01         0.00000E+00
    0.12967E+01        -0.25000E+07         0.00000E+00
    0.00000E+00         0.00000E+00        -0.14487E+01
 
    0.25000E+07         0.95900E+00         0.00000E+00
    0.95900E+00        -0.25000E+07         0.00000E+00
    0.00000E+00         0.00000E+00        -0.14717E+01
 
    0.25000E+07         0.58864E+00         0.00000E+00
    0.58864E+00        -0.25000E+07         0.00000E+00
    0.00000E+00         0.00000E+00        -0.14871E+01
 
    0.25000E+07         0.19843E+00         0.00000E+00
    0.19843E+00        -0.25000E+07         0.00000E+00
    0.00000E+00         0.00000E+00        -0.14948E+01
 
    0.25000E+07         0.35503E+00         0.00000E+00
    0.35503E+00        -0.25000E+07         0.00000E+00
    0.00000E+00         0.00000E+00        -0.91293E+00
 
    0.25000E+07         0.98438E+00         0.00000E+00
    0.98438E+00        -0.25000E+07         0.00000E+00
    0.00000E+00         0.00000E+00        -0.10304E+01
 
    0.25000E+07         0.15120E+01         0.00000E+00
    0.15120E+01        -0.25000E+07         0.00000E+00
    0.00000E+00         0.00000E+00        -0.11419E+01
 
    0.25000E+07         0.19318E+01         0.00000E+00
    0.19318E+01        -0.25000E+07         0.00000E+00
    0.00000E+00         0.00000E+00        -0.12469E+01
 
    0.25000E+07         0.22404E+01         0.00000E+00
    0.22404E+01        -0.25000E+07         0.00000E+00
    0.00000E+00         0.00000E+00        -0.13447E+01
 
    0.25000E+07         0.24374E+01         0.00000E+00
    0.24374E+01        -0.25000E+07         0.00000E+00
    0.00000E+00         0.00000E+00        -0.14350E+01
 
    0.25000E+07         0.25248E+01         0.00000E+00
    0.25248E+01        -0.25000E+07         0.00000E+00
    0.00000E+00         0.00000E+00        -0.15172E+01
 
    0.25000E+07         0.25072E+01         0.00000E+00
    0.25072E+01        -0.25000E+07         0.00000E+00
    0.00000E+00         0.00000E+00        -0.15910E+01
 
    0.25000E+07         0.23913E+01         0.00000E+00
    0.23913E+01        -0.25000E+07         0.00000E+00
    0.00000E+00         0.00000E+00        -0.16561E+01
 
    0.25000E+07         0.21860E+01         0.00000E+00
    0.21860E+01        -0.25000E+07         0.00000E+00
    0.00000E+00         0.00000E+00        -0.17124E+01
 
    0.25000E+07         0.19018E+01         0.00000E+00
    0.19018E+01        -0.25000E+07         0.00000E+00
    0.00000E+00         0.00000E+00        -0.17595E+01
 
    0.25000E+07         0.15508E+01         0.00000E+00
    0.15508E+01        -0.25000E+07         0.00000E+00
    0.00000E+00         0.00000E+00        -0.17973E+01
 
    0.25000E+07         0.11467E+01         0.00000E+00
    0.11467E+01        -0.25000E+07         0.00000E+00
    0.00000E+00         0.00000E+00        -0.18258E+01
 
    0.25000E+07         0.70373E+00         0.00000E+00
    0.70373E+00        -0.25000E+07         0.00000E+00
    0.00000E+00         0.00000E+00        -0.18449E+01
 
    0.25000E+07         0.23721E+00         0.00000E+00
    0.23721E+00        -0.25000E+07         0.00000E+00
    0.00000E+00         0.00000E+00        -0.18544E+01
 
    0.25000E+07         0.42730E+00         0.00000E+00
    0.42730E+00        -0.25000E+07         0.00000E+00
    0.00000E+00         0.00000E+00        -0.11287E+01
 
    0.25000E+07         0.11826E+01         0.00000E+00
    0.11826E+01        -0.25000E+07         0.00000E+00
    0.00000E+00         0.00000E+00        -0.12767E+01
 
    0.25000E+07         0.18140E+01         0.00000E+00
    0.18140E+01        -0.25000E+07         0.00000E+00
    0.00000E+00         0.00000E+00        -0.14167E+01
 
    0.25000E+07         0.23148E+01         0.00000E+00
    0.23148E+01        -0.25000E+07         0.00000E+00
    0.00000E+00         0.00000E+00        -0.15480E+01
 
    0.25000E+07         0.26818E+01         0.00000E+00
    0.26818E+01        -0.25000E+07         0.00000E+00
    0.00000E+00         0.00000E+00        -0.16701E+01
 
    0.25000E+07         0.29149E+01         0.00000E+00
    0.29149E+01        -0.25000E+07         0.00000E+00
    0.00000E+00         0.00000E+00        -0.17824E+01
 
    0.25000E+07         0.30172E+01         0.00000E+00
    0.30172E+01        -0.25000E+07         0.00000E+00
    0.00000E+00         0.00000E+00        -0.18844E+01
 
    0.25000E+07         0.29942E+01         0.00000E+00
    0.29942E+01        -0.25000E+07         0.00000E+00
    0.00000E+00         0.00000E+00        -0.19759E+01
 
    0.25000E+07         0.28543E+01         0.00000E+00
    0.28543E+01        -0.25000E+07         0.00000E+00
    0.00000E+00         0.00000E+00        -0.20564E+01
 
    0.25000E+07         0.26080E+01         0.00000E+00
    0.26080E+01        -0.25000E+07         0.00000E+00
    0.00000E+00         0.00000E+00        -0.21258E+01
 
    0.25000E+07         0.22681E+01         0.00000E+00
    0.22681E+01        -0.25000E+07         0.00000E+00
    0.00000E+00         0.00000E+00        -0.21840E+01
 
    0.25000E+07         0.18491E+01         0.00000E+00
    0.18491E+01        -0.25000E+07         0.00000E+00
    0.00000E+00         0.00000E+00        -0.22306E+01
 
    0.25000E+07         0.13669E+01         0.00000E+00
    0.13669E+01        -0.25000E+07         0.00000E+00
    0.00000E+00         0.00000E+00        -0.22657E+01
 
    0.25000E+07         0.83876E+00         0.00000E+00
    0.83876E+00        -0.25000E+07         0.00000E+00
    0.00000E+00         0.00000E+00        -0.22891E+01
 
    0.25000E+07         0.28271E+00         0.00000E+00
    0.28271E+00        -0.25000E+07         0.00000E+00
    0.00000E+00         0.00000E+00        -0.23008E+01
 
    0.25000E+07         0.51230E+00         0.00000E+00
    0.51230E+00        -0.25000E+07         0.00000E+00
    0.00000E+00         0.00000E+00        -0.14024E+01
 
    0.25000E+07         0.14155E+01         0.00000E+00
    0.14155E+01        -0.25000E+07         0.00000E+00
    0.00000E+00         0.00000E+00        -0.15879E+01
 
    0.25000E+07         0.21684E+01         0.00000E+00
    0.21684E+01        -0.25000E+07         0.00000E+00
    0.00000E+00         0.00000E+00        -0.17628E+01
 
    0.25000E+07         0.27640E+01         0.00000E+00
    0.27640E+01        -0.25000E+07         0.00000E+00
    0.00000E+00         0.00000E+00        -0.19263E+01
 
    0.25000E+07         0.31994E+01         0.00000E+00
    0.31994E+01        -0.25000E+07         0.00000E+00
    0.00000E+00         0.00000E+00        -0.20779E+01
 
    0.25000E+07         0.34748E+01         0.00000E+00
    0.34748E+01        -0.25000E+07         0.00000E+00
    0.00000E+00         0.00000E+00        -0.22169E+01
 
    0.25000E+07         0.35943E+01         0.00000E+00
    0.35943E+01        -0.25000E+07         0.00000E+00
    0.00000E+00         0.00000E+00        -0.23430E+01
 
    0.25000E+07         0.35650E+01         0.00000E+00
    0.35650E+01        -0.25000E+07         0.00000E+00
    0.00000E+00         0.00000E+00        -0.24557E+01
 
    0.25000E+07         0.33968E+01         0.00000E+00
    0.33968E+01        -0.25000E+07         0.00000E+00
    0.00000E+00         0.00000E+00        -0.25548E+01
 
    0.25000E+07         0.31026E+01         0.00000E+00
    0.31026E+01        -0.25000E+07         0.00000E+00
    0.00000E+00         0.00000E+00        -0.26401E+01
 
    0.25000E+07         0.26974E+01         0.00000E+00
    0.26974E+01        -0.25000E+07         0.00000E+00
    0.00000E+00         0.00000E+00        -0.27114E+01
 
    0.25000E+07         0.21986E+01         0.00000E+00
    0.21986E+01        -0.25000E+07         0.00000E+00
    0.00000E+00         0.00000E+00        -0.27686E+01
 
    0.25000E+07         0.16250E+01         0.00000E+00
    0.16250E+01        -0.25000E+07         0.00000E+00
    0.00000E+00         0.00000E+00        -0.28115E+01
 
    0.25000E+07         0.99703E+00         0.00000E+00
    0.99703E+00        -0.25000E+07         0.00000E+00
    0.00000E+00         0.00000E+00        -0.28402E+01
 
    0.25000E+07         0.33604E+00         0.00000E+00
    0.33604E+00        -0.25000E+07         0.00000E+00
    0.00000E+00         0.00000E+00        -0.28545E+01
 
    0.25000E+07         0.61191E+00         0.00000E+00
    0.61191E+00        -0.25000E+07         0.00000E+00
    0.00000E+00         0.00000E+00        -0.17509E+01
 
    0.25000E+07         0.16882E+01         0.00000E+00
    0.16882E+01        -0.25000E+07         0.00000E+00
    0.00000E+00         0.00000E+00        -0.19822E+01
 
    0.25000E+07         0.25833E+01         0.00000E+00
    0.25833E+01        -0.25000E+07         0.00000E+00
    0.00000E+00         0.00000E+00        -0.21995E+01
 
    0.25000E+07         0.32899E+01         0.00000E+00
    0.32899E+01        -0.25000E+07         0.00000E+00
    0.00000E+00         0.00000E+00        -0.24021E+01
 
    0.25000E+07         0.38051E+01         0.00000E+00
    0.38051E+01        -0.25000E+07         0.00000E+00
    0.00000E+00         0.00000E+00        -0.25893E+01
 
    0.25000E+07         0.41301E+01         0.00000E+00
    0.41301E+01        -0.25000E+07         0.00000E+00
    0.00000E+00         0.00000E+00        -0.27606E+01
 
    0.25000E+07         0.42699E+01         0.00000E+00
    0.42699E+01        -0.25000E+07         0.00000E+00
    0.00000E+00         0.00000E+00        -0.29155E+01
 
    0.25000E+07         0.42332E+01         0.00000E+00
    0.42332E+01        -0.25000E+07         0.00000E+00
    0.00000E+00         0.00000E+00        -0.30537E+01
 
    0.25000E+07         0.40322E+01         0.00000E+00
    0.40322E+01        -0.25000E+07         0.00000E+00
    0.00000E+00         0.00000E+00        -0.31751E+01
 
    0.25000E+07         0.36819E+01         0.00000E+00
    0.36819E+01        -0.25000E+07         0.00000E+00
    0.00000E+00         0.00000E+00        -0.32793E+01
 
    0.25000E+07         0.32004E+01         0.00000E+00
    0.32004E+01        -0.25000E+07         0.00000E+00
    0.00000E+00         0.00000E+00        -0.33663E+01
 
    0.25000E+07         0.26081E+01         0.00000E+00
    0.26081E+01        -0.25000E+07         0.00000E+00
    0.00000E+00         0.00000E+00        -0.34360E+01
 
    0.25000E+07         0.19275E+01         0.00000E+00
    0.19275E+01        -0.25000E+07         0.00000E+00
    0.00000E+00         0.00000E+00        -0.34883E+01
 
    0.25000E+07         0.11825E+01         0.00000E+00
    0.11825E+01        -0.25000E+07         0.00000E+00
    0.00000E+00         0.00000E+00        -0.35232E+01
 
    0.25000E+07         0.39854E+00         0.00000E+00
    0.39854E+00        -0.25000E+07         0.00000E+00
    0.00000E+00         0.00000E+00        -0.35407E+01
 
    0.25000E+07         0.72831E+00         0.00000E+00
    0.72831E+00        -0.25000E+07         0.00000E+00
    0.00000E+00         0.00000E+00        -0.21959E+01
 
    0.25000E+07         0.20069E+01         0.00000E+00
    0.20069E+01        -0.25000E+07         0.00000E+00
    0.00000E+00         0.00000E+00        -0.24827E+01
 
    0.25000E+07         0.30682E+01         0.00000E+00
    0.30682E+01        -0.25000E+07         0.00000E+00
    0.00000E+00         0.00000E+00        -0.27514E+01
 
    0.25000E+07         0.39046E+01         0.00000E+00
    0.39046E+01        -0.25000E+07         0.00000E+00
    0.00000E+00         0.00000E+00        -0.30010E+01
 
    0.25000E+07         0.45134E+01         0.00000E+00
    0.45134E+01        -0.25000E+07         0.00000E+00
    0.00000E+00         0.00000E+00        -0.32309E+01
 
    0.25000E+07         0.48967E+01         0.00000E+00
    0.48967E+01        -0.25000E+07         0.00000E+00
    0.00000E+00         0.00000E+00        -0.34408E+01
 
    0.25000E+07         0.50606E+01         0.00000E+00
    0.50606E+01        -0.25000E+07         0.00000E+00
    0.00000E+00         0.00000E+00        -0.36301E+01
 
    0.25000E+07         0.50157E+01         0.00000E+00
    0.50157E+01        -0.25000E+07         0.00000E+00
    0.00000E+00         0.00000E+00        -0.37988E+01
 
    0.25000E+07         0.47765E+01         0.00000E+00
    0.47765E+01        -0.25000E+07         0.00000E+00
    0.00000E+00         0.00000E+00        -0.39465E+01
 
    0.25000E+07         0.43609E+01         0.00000E+00
    0.43609E+01        -0.25000E+07         0.00000E+00
    0.00000E+00         0.00000E+00        -0.40732E+01
 
    0.25000E+07         0.37902E+01         0.00000E+00
    0.37902E+01        -0.25000E+07         0.00000E+00
    0.00000E+00         0.00000E+00        -0.41788E+01
 
    0.25000E+07         0.30885E+01         0.00000E+00
    0.30885E+01        -0.25000E+07         0.00000E+00
    0.00000E+00         0.00000E+00        -0.42633E+01
 
    0.25000E+07         0.22823E+01         0.00000E+00
    0.22823E+01        -0.25000E+07         0.00000E+00
    0.00000E+00         0.00000E+00        -0.43267E+01
 
    0.25000E+07         0.14002E+01         0.00000E+00
    0.14002E+01        -0.25000E+07         0.00000E+00
    0.00000E+00         0.00000E+00        -0.43689E+01
 
    0.25000E+07         0.47190E+00         0.00000E+00
    0.47190E+00        -0.25000E+07         0.00000E+00
    0.00000E+00         0.00000E+00        -0.43901E+01
 
    0.25000E+07         0.86405E+00         0.00000E+00
    0.86405E+00        -0.25000E+07         0.00000E+00
    0.00000E+00         0.00000E+00        -0.27651E+01
 
    0.25000E+07         0.23787E+01         0.00000E+00
    0.23787E+01        -0.25000E+07         0.00000E+00
    0.00000E+00         0.00000E+00        -0.31188E+01
 
    0.25000E+07         0.36343E+01         0.00000E+00
    0.36343E+01        -0.25000E+07         0.00000E+00
    0.00000E+00         0.00000E+00        -0.34490E+01
 
    0.25000E+07         0.46228E+01         0.00000E+00
    0.46228E+01        -0.25000E+07         0.00000E+00
    0.00000E+00         0.00000E+00        -0.37548E+01
 
    0.25000E+07         0.53419E+01         0.00000E+00
    0.53419E+01        -0.25000E+07         0.00000E+00
    0.00000E+00         0.00000E+00        -0.40357E+01
 
    0.25000E+07         0.57941E+01         0.00000E+00
    0.57941E+01        -0.25000E+07         0.00000E+00
    0.00000E+00         0.00000E+00        -0.42914E+01
 
    0.25000E+07         0.59871E+01         0.00000E+00
    0.59871E+01        -0.25000E+07         0.00000E+00
    0.00000E+00         0.00000E+00        -0.45215E+01
 
    0.25000E+07         0.59335E+01         0.00000E+00
    0.59335E+01        -0.25000E+07         0.00000E+00
    0.00000E+00         0.00000E+00        -0.47261E+01
 
    0.25000E+07         0.56502E+01         0.00000E+00
    0.56502E+01        -0.25000E+07         0.00000E+00
    0.00000E+00         0.00000E+00        -0.49049E+01
 
    0.25000E+07         0.51584E+01         0.00000E+00
    0.51584E+01        -0.25000E+07         0.00000E+00
    0.00000E+00         0.00000E+00        -0.50581E+01
 
    0.25000E+07         0.44834E+01         0.00000E+00
    0.44834E+01        -0.25000E+07         0.00000E+00
    0.00000E+00         0.00000E+00        -0.51855E+01
 
    0.25000E+07         0.36534E+01         0.00000E+00
    0.36534E+01        -0.25000E+07         0.00000E+00
    0.00000E+00         0.00000E+00        -0.52874E+01
 
    0.25000E+07         0.26999E+01         0.00000E+00
    0.26999E+01        -0.25000E+07         0.00000E+00
    0.00000E+00         0.00000E+00        -0.53638E+01
 
    0.25000E+07         0.16564E+01         0.00000E+00
    0.16564E+01        -0.25000E+07         0.00000E+00
    0.00000E+00         0.00000E+00        -0.54146E+01
 
    0.25000E+07         0.55823E+00         0.00000E+00
    0.55823E+00        -0.25000E+07         0.00000E+00
    0.00000E+00         0.00000E+00        -0.54401E+01
 
    0.25000E+07         0.10222E+01         0.00000E+00
    0.10222E+01        -0.25000E+07         0.00000E+00
    0.00000E+00         0.00000E+00        -0.34939E+01
 
    0.25000E+07         0.28125E+01         0.00000E+00
    0.28125E+01        -0.25000E+07         0.00000E+00
    0.00000E+00         0.00000E+00        -0.39276E+01
 
    0.25000E+07         0.42956E+01         0.00000E+00
    0.42956E+01        -0.25000E+07         0.00000E+00
    0.00000E+00         0.00000E+00        -0.43310E+01
 
    0.25000E+07         0.54631E+01         0.00000E+00
    0.54631E+01        -0.25000E+07         0.00000E+00
    0.00000E+00         0.00000E+00        -0.47034E+01
 
    0.25000E+07         0.63125E+01         0.00000E+00
    0.63125E+01        -0.25000E+07         0.00000E+00
    0.00000E+00         0.00000E+00        -0.50446E+01
 
    0.25000E+07         0.68470E+01         0.00000E+00
    0.68470E+01        -0.25000E+07         0.00000E+00
    0.00000E+00         0.00000E+00        -0.53543E+01
 
    0.25000E+07         0.70757E+01         0.00000E+00
    0.70757E+01        -0.25000E+07         0.00000E+00
    0.00000E+00         0.00000E+00        -0.56324E+01
 
    0.25000E+07         0.70131E+01         0.00000E+00
    0.70131E+01        -0.25000E+07         0.00000E+00
    0.00000E+00         0.00000E+00        -0.58791E+01
 
    0.25000E+07         0.66792E+01         0.00000E+00
    0.66792E+01        -0.25000E+07         0.00000E+00
    0.00000E+00         0.00000E+00        -0.60943E+01
 
    0.25000E+07         0.60989E+01         0.00000E+00
    0.60989E+01        -0.25000E+07         0.00000E+00
    0.00000E+00         0.00000E+00        -0.62784E+01
 
    0.25000E+07         0.53015E+01         0.00000E+00
    0.53015E+01        -0.25000E+07         0.00000E+00
    0.00000E+00         0.00000E+00        -0.64314E+01
 
    0.25000E+07         0.43206E+01         0.00000E+00
    0.43206E+01        -0.25000E+07         0.00000E+00
    0.00000E+00         0.00000E+00        -0.65535E+01
 
    0.25000E+07         0.31932E+01         0.00000E+00
    0.31932E+01        -0.25000E+07         0.00000E+00
    0.00000E+00         0.00000E+00        -0.66450E+01
 
    0.25000E+07         0.19592E+01         0.00000E+00
    0.19592E+01        -0.25000E+07         0.00000E+00
    0.00000E+00         0.00000E+00        -0.67059E+01
 
    0.25000E+07         0.66032E+00         0.00000E+00
    0.66032E+00        -0.25000E+07         0.00000E+00
    0.00000E+00         0.00000E+00        -0.67363E+01
 
    0.25000E+07         0.12065E+01         0.00000E+00
    0.12065E+01        -0.25000E+07         0.00000E+00
    0.00000E+00         0.00000E+00        -0.44271E+01
 
    0.25000E+07         0.33192E+01         0.00000E+00
    0.33192E+01        -0.25000E+07         0.00000E+00
    0.00000E+00         0.00000E+00        -0.49556E+01
 
    0.25000E+07         0.50698E+01         0.00000E+00
    0.50698E+01        -0.25000E+07         0.00000E+00
    0.00000E+00         0.00000E+00        -0.54455E+01
 
    0.25000E+07         0.64489E+01         0.00000E+00
    0.64489E+01        -0.25000E+07         0.00000E+00
    0.00000E+00         0.00000E+00        -0.58964E+01
 
    0.25000E+07         0.74535E+01         0.00000E+00
    0.74535E+01        -0.25000E+07         0.00000E+00
    0.00000E+00         0.00000E+00        -0.63082E+01
 
    0.25000E+07         0.80873E+01         0.00000E+00
    0.80873E+01        -0.25000E+07         0.00000E+00
    0.00000E+00         0.00000E+00        -0.66811E+01
 
    0.25000E+07         0.83605E+01         0.00000E+00
    0.83605E+01        -0.25000E+07         0.00000E+00
    0.00000E+00         0.00000E+00        -0.70152E+01
 
    0.25000E+07         0.82896E+01         0.00000E+00
    0.82896E+01        -0.25000E+07         0.00000E+00
    0.00000E+00         0.00000E+00        -0.73109E+01
 
    0.25000E+07         0.78978E+01         0.00000E+00
    0.78978E+01        -0.25000E+07         0.00000E+00
    0.00000E+00         0.00000E+00        -0.75684E+01
 
    0.25000E+07         0.72140E+01         0.00000E+00
    0.72140E+01        -0.25000E+07         0.00000E+00
    0.00000E+00         0.00000E+00        -0.77883E+01
 
    0.25000E+07         0.62726E+01         0.00000E+00
    0.62726E+01        -0.25000E+07         0.00000E+00
    0.00000E+00         0.00000E+00        -0.79709E+01
 
    0.25000E+07         0.51134E+01         0.00000E+00
    0.51134E+01        -0.25000E+07         0.00000E+00
    0.00000E+00         0.00000E+00        -0.81165E+01
 
    0.25000E+07         0.37799E+01         0.00000E+00
    0.37799E+01        -0.25000E+07         0.00000E+00
    0.00000E+00         0.00000E+00        -0.82254E+01
 
    0.25000E+07         0.23195E+01         0.00000E+00
    0.23195E+01        -0.25000E+07         0.00000E+00
    0.00000E+00         0.00000E+00        -0.82978E+01
 
    0.25000E+07         0.78179E+00         0.00000E+00
    0.78179E+00        -0.25000E+07         0.00000E+00
    0.00000E+00         0.00000E+00        -0.83340E+01
 
    0.25000E+07         0.14216E+01         0.00000E+00
    0.14216E+01        -0.25000E+07         0.00000E+00
    0.00000E+00         0.00000E+00        -0.56214E+01
 
    0.25000E+07         0.39128E+01         0.00000E+00
    0.39128E+01        -0.25000E+07         0.00000E+00
    0.00000E+00         0.00000E+00        -0.62612E+01
 
    0.25000E+07         0.59796E+01         0.00000E+00
    0.59796E+01        -0.25000E+07         0.00000E+00
    0.00000E+00         0.00000E+00        -0.68523E+01
 
    0.25000E+07         0.76108E+01         0.00000E+00
    0.76108E+01        -0.25000E+07         0.00000E+00
    0.00000E+00         0.00000E+00        -0.73947E+01
 
    0.25000E+07         0.88021E+01         0.00000E+00
    0.88021E+01        -0.25000E+07         0.00000E+00
    0.00000E+00         0.00000E+00        -0.78888E+01
 
    0.25000E+07         0.95570E+01         0.00000E+00
    0.95570E+01        -0.25000E+07         0.00000E+00
    0.00000E+00         0.00000E+00        -0.83350E+01
 
    0.25000E+07         0.98864E+01         0.00000E+00
    0.98864E+01        -0.25000E+07         0.00000E+00
    0.00000E+00         0.00000E+00        -0.87339E+01
 
    0.25000E+07         0.98090E+01         0.00000E+00
    0.98090E+01        -0.25000E+07         0.00000E+00
    0.00000E+00         0.00000E+00        -0.90862E+01
 
    0.25000E+07         0.93510E+01         0.00000E+00
    0.93510E+01        -0.25000E+07         0.00000E+00
    0.00000E+00         0.00000E+00        -0.93925E+01
 
    0.25000E+07         0.85460E+01         0.00000E+00
    0.85460E+01        -0.25000E+07         0.00000E+00
    0.00000E+00         0.00000E+00        -0.96536E+01
 
    0.25000E+07         0.74344E+01         0.00000E+00
    0.74344E+01        -0.25000E+07         0.00000E+00
    0.00000E+00         0.00000E+00        -0.98702E+01
 
    0.25000E+07         0.60628E+01         0.00000E+00
    0.60628E+01        -0.25000E+07         0.00000E+00
    0.00000E+00         0.00000E+00        -0.10043E+02
 
    0.25000E+07         0.44831E+01         0.00000E+00
    0.44831E+01        -0.25000E+07         0.00000E+00
    0.00000E+00         0.00000E+00        -0.10172E+02
 
    0.25000E+07         0.27515E+01         0.00000E+00
    0.27515E+01        -0.25000E+07         0.00000E+00
    0.00000E+00         0.00000E+00        -0.10257E+02
 
    0.25000E+07         0.92751E+00         0.00000E+00
    0.92751E+00        -0.25000E+07         0.00000E+00
    0.00000E+00         0.00000E+00        -0.10300E+02
 
    0.25000E+07         0.16739E+01         0.00000E+00
    0.16739E+01        -0.25001E+07         0.00000E+00
    0.00000E+00         0.00000E+00        -0.71472E+01
 
    0.25000E+07         0.46118E+01         0.00000E+00
    0.46118E+01        -0.25001E+07         0.00000E+00
    0.00000E+00         0.00000E+00        -0.79168E+01
 
    0.25000E+07         0.70550E+01         0.00000E+00
    0.70550E+01        -0.25001E+07         0.00000E+00
    0.00000E+00         0.00000E+00        -0.86254E+01
 
    0.25000E+07         0.89891E+01         0.00000E+00
    0.89891E+01        -0.25001E+07         0.00000E+00
    0.00000E+00         0.00000E+00        -0.92737E+01
 
    0.25000E+07         0.10407E+02         0.00000E+00
    0.10407E+02        -0.25000E+07         0.00000E+00
    0.00000E+00         0.00000E+00        -0.98626E+01
 
    0.25000E+07         0.11312E+02         0.00000E+00
    0.11312E+02        -0.25000E+07         0.00000E+00
    0.00000E+00         0.00000E+00        -0.10393E+02
 
    0.25000E+07         0.11714E+02         0.00000E+00
    0.11714E+02        -0.25000E+07         0.00000E+00
    0.00000E+00         0.00000E+00        -0.10866E+02
 
    0.25000E+07         0.11633E+02         0.00000E+00
    0.11633E+02        -0.25000E+07         0.00000E+00
    0.00000E+00         0.00000E+00        -0.11284E+02
 
    0.25000E+07         0.11099E+02         0.00000E+00
    0.11099E+02        -0.25000E+07         0.00000E+00
    0.00000E+00         0.00000E+00        -0.11646E+02
 
    0.25000E+07         0.10152E+02         0.00000E+00
    0.10152E+02        -0.25000E+07         0.00000E+00
    0.00000E+00         0.00000E+00        -0.11954E+02
 
    0.25000E+07         0.88371E+01         0.00000E+00
    0.88371E+01        -0.25000E+07         0.00000E+00
    0.00000E+00         0.00000E+00        -0.12209E+02
 
    0.25000E+07         0.72106E+01         0.00000E+00
    0.72106E+01        -0.25000E+07         0.00000E+00
    0.00000E+00         0.00000E+00        -0.12412E+02
 
    0.25000E+07         0.53340E+01         0.00000E+00
    0.53340E+01        -0.25000E+07         0.00000E+00
    0.00000E+00         0.00000E+00        -0.12564E+02
 
    0.25000E+07         0.32746E+01         0.00000E+00
    0.32746E+01        -0.25000E+07         0.00000E+00
    0.00000E+00         0.00000E+00        -0.12665E+02
 
    0.25000E+07         0.11040E+01         0.00000E+00
    0.11040E+01        -0.25000E+07         0.00000E+00
    0.00000E+00         0.00000E+00        -0.12715E+02
 
    0.25000E+07         0.19713E+01         0.00000E+00
    0.19713E+01        -0.25001E+07         0.00000E+00
    0.00000E+00         0.00000E+00        -0.90926E+01
 
    0.25000E+07         0.54405E+01         0.00000E+00
    0.54405E+01        -0.25001E+07         0.00000E+00
    0.00000E+00         0.00000E+00        -0.10012E+02
 
    0.25000E+07         0.83362E+01         0.00000E+00
    0.83362E+01        -0.25001E+07         0.00000E+00
    0.00000E+00         0.00000E+00        -0.10856E+02
 
    0.25000E+07         0.10638E+02         0.00000E+00
    0.10638E+02        -0.25001E+07         0.00000E+00
    0.00000E+00         0.00000E+00        -0.11625E+02
 
    0.25000E+07         0.12336E+02         0.00000E+00
    0.12336E+02        -0.25001E+07         0.00000E+00
    0.00000E+00         0.00000E+00        -0.12323E+02
 
    0.25000E+07         0.13427E+02         0.00000E+00
    0.13427E+02        -0.25001E+07         0.00000E+00
    0.00000E+00         0.00000E+00        -0.12950E+02
 
    0.25000E+07         0.13924E+02         0.00000E+00
    0.13924E+02        -0.25001E+07         0.00000E+00
    0.00000E+00         0.00000E+00        -0.13508E+02
 
    0.25000E+07         0.13845E+02         0.00000E+00
    0.13845E+02        -0.25000E+07         0.00000E+00
    0.00000E+00         0.00000E+00        -0.13998E+02
 
    0.25000E+07         0.13225E+02         0.00000E+00
    0.13225E+02        -0.25000E+07         0.00000E+00
    0.00000E+00         0.00000E+00        -0.14424E+02
 
    0.25000E+07         0.12108E+02         0.00000E+00
    0.12108E+02        -0.25000E+07         0.00000E+00
    0.00000E+00         0.00000E+00        -0.14786E+02
 
    0.25000E+07         0.10549E+02         0.00000E+00
    0.10549E+02        -0.25000E+07         0.00000E+00
    0.00000E+00         0.00000E+00        -0.15085E+02
 
    0.25000E+07         0.86131E+01         0.00000E+00
    0.86131E+01        -0.25000E+07         0.00000E+00
    0.00000E+00         0.00000E+00        -0.15322E+02
 
    0.25000E+07         0.63748E+01         0.00000E+00
    0.63748E+01        -0.25000E+07         0.00000E+00
    0.00000E+00         0.00000E+00        -0.15500E+02
 
    0.25000E+07         0.39150E+01         0.00000E+00
    0.39150E+01        -0.25000E+07         0.00000E+00
    0.00000E+00         0.00000E+00        -0.15618E+02
 
    0.25000E+07         0.13201E+01         0.00000E+00
    0.13201E+01        -0.25000E+07         0.00000E+00
    0.00000E+00         0.00000E+00        -0.15677E+02
 
    0.25000E+07         0.23248E+01         0.00000E+00
    0.23248E+01        -0.25001E+07         0.00000E+00
    0.00000E+00         0.00000E+00        -0.11566E+02
 
    0.25000E+07         0.64322E+01         0.00000E+00
    0.64322E+01        -0.25001E+07         0.00000E+00
    0.00000E+00         0.00000E+00        -0.12656E+02
 
    0.25000E+07         0.98774E+01         0.00000E+00
    0.98774E+01        -0.25001E+07         0.00000E+00
    0.00000E+00         0.00000E+00        -0.13654E+02
 
    0.25000E+07         0.12632E+02         0.00000E+00
    0.12632E+02        -0.25001E+07         0.00000E+00
    0.00000E+00         0.00000E+00        -0.14562E+02
 
    0.25000E+07         0.14677E+02         0.00000E+00
    0.14677E+02        -0.25001E+07         0.00000E+00
    0.00000E+00         0.00000E+00        -0.15382E+02
 
    0.25000E+07         0.16006E+02         0.00000E+00
    0.16006E+02        -0.25001E+07         0.00000E+00
    0.00000E+00         0.00000E+00        -0.16118E+02
 
    0.25000E+07         0.16626E+02         0.00000E+00
    0.16626E+02        -0.25001E+07         0.00000E+00
    0.00000E+00         0.00000E+00        -0.16772E+02
 
    0.25000E+07         0.16558E+02         0.00000E+00
    0.16558E+02        -0.25001E+07         0.00000E+00
    0.00000E+00         0.00000E+00        -0.17346E+02
 
    0.25000E+07         0.15839E+02         0.00000E+00
    0.15839E+02        -0.25001E+07         0.00000E+00
    0.00000E+00         0.00000E+00        -0.17842E+02
 
    0.25000E+07         0.14518E+02         0.00000E+00
    0.14518E+02        -0.25001E+07         0.00000E+00
    0.00000E+00         0.00000E+00        -0.18264E+02
 
    0.25000E+07         0.12662E+02         0.00000E+00
    0.12662E+02        -0.25000E+07         0.00000E+00
    0.00000E+00         0.00000E+00        -0.18613E+02
 
    0.25000E+07         0.10347E+02         0.00000E+00
    0.10347E+02        -0.25000E+07         0.00000E+00
    0.00000E+00         0.00000E+00        -0.18889E+02
 
    0.25000E+07         0.76625E+01         0.00000E+00
    0.76625E+01        -0.25000E+07         0.00000E+00
    0.00000E+00         0.00000E+00        -0.19096E+02
 
    0.24999E+07         0.47077E+01         0.00000E+00
    0.47077E+01        -0.25000E+07         0.00000E+00
    0.00000E+00         0.00000E+00        -0.19233E+02
 
    0.24999E+07         0.15878E+01         0.00000E+00
    0.15878E+01        -0.25000E+07         0.00000E+00
    0.00000E+00         0.00000E+00        -0.19301E+02
 
    0.25000E+07         0.27494E+01         0.00000E+00
    0.27494E+01        -0.25001E+07         0.00000E+00
    0.00000E+00         0.00000E+00        -0.14701E+02
 
    0.25000E+07         0.76316E+01         0.00000E+00
    0.76316E+01        -0.25001E+07         0.00000E+00
    0.00000E+00         0.00000E+00        -0.15984E+02
 
    0.25000E+07         0.11752E+02         0.00000E+00
    0.11752E+02        -0.25001E+07         0.00000E+00
    0.00000E+00         0.00000E+00        -0.17156E+02
 
    0.25000E+07         0.15069E+02         0.00000E+00
    0.15069E+02        -0.25001E+07         0.00000E+00
    0.00000E+00         0.00000E+00        -0.18219E+02
 
    0.25000E+07         0.17552E+02         0.00000E+00
    0.17552E+02        -0.25001E+07         0.00000E+00
    0.00000E+00         0.00000E+00        -0.19178E+02
 
    0.25000E+07         0.19185E+02         0.00000E+00
    0.19185E+02        -0.25001E+07         0.00000E+00
    0.00000E+00         0.00000E+00        -0.20035E+02
 
    0.25000E+07         0.19969E+02         0.00000E+00
    0.19969E+02        -0.25001E+07         0.00000E+00
    0.00000E+00         0.00000E+00        -0.20796E+02
 
    0.25000E+07         0.19925E+02         0.00000E+00
    0.19925E+02        -0.25001E+07         0.00000E+00
    0.00000E+00         0.00000E+00        -0.21463E+02
 
    0.25000E+07         0.19090E+02         0.00000E+00
    0.19090E+02        -0.25001E+07         0.00000E+00
    0.00000E+00         0.00000E+00        -0.22040E+02
 
    0.24999E+07         0.17523E+02         0.00000E+00
    0.17523E+02        -0.25001E+07         0.00000E+00
    0.00000E+00         0.00000E+00        -0.22529E+02
 
    0.24999E+07         0.15300E+02         0.00000E+00
    0.15300E+02        -0.25001E+07         0.00000E+00
    0.00000E+00         0.00000E+00        -0.22933E+02
 
    0.24999E+07         0.12514E+02         0.00000E+00
    0.12514E+02        -0.25001E+07         0.00000E+00
    0.00000E+00         0.00000E+00        -0.23253E+02
 
    0.24999E+07         0.92742E+01         0.00000E+00
    0.92742E+01        -0.25001E+07         0.00000E+00
    0.00000E+00         0.00000E+00        -0.23492E+02
 
    0.24999E+07         0.57006E+01         0.00000E+00
    0.57006E+01        -0.25001E+07         0.00000E+00
    0.00000E+00         0.00000E+00        -0.23650E+02
 
    0.24999E+07         0.19231E+01         0.00000E+00
    0.19231E+01        -0.25001E+07         0.00000E+00
    0.00000E+00         0.00000E+00        -0.23730E+02
 
    0.25000E+07         0.32652E+01         0.00000E+00
    0.32652E+01        -0.25001E+07         0.00000E+00
    0.00000E+00         0.00000E+00        -0.18658E+02
 
    0.25000E+07         0.91001E+01         0.00000E+00
    0.91001E+01        -0.25001E+07         0.00000E+00
    0.00000E+00         0.00000E+00        -0.20159E+02
 
    0.25000E+07         0.14062E+02         0.00000E+00
    0.14062E+02        -0.25001E+07         0.00000E+00
    0.00000E+00         0.00000E+00        -0.21524E+02
 
    0.25000E+07         0.18087E+02         0.00000E+00
    0.18087E+02        -0.25001E+07         0.00000E+00
    0.00000E+00         0.00000E+00        -0.22760E+02
 
    0.25000E+07         0.21127E+02         0.00000E+00
    0.21127E+02        -0.25001E+07         0.00000E+00
    0.00000E+00         0.00000E+00        -0.23873E+02
 
    0.25000E+07         0.23153E+02         0.00000E+00
    0.23153E+02        -0.25001E+07         0.00000E+00
    0.00000E+00         0.00000E+00        -0.24867E+02
 
    0.25000E+07         0.24156E+02         0.00000E+00
    0.24156E+02        -0.25001E+07         0.00000E+00
    0.00000E+00         0.00000E+00        -0.25747E+02
 
    0.24999E+07         0.24152E+02         0.00000E+00
    0.24152E+02        -0.25001E+07         0.00000E+00
    0.00000E+00         0.00000E+00        -0.26518E+02
 
    0.24999E+07         0.23182E+02         0.00000E+00
    0.23182E+02        -0.25001E+07         0.00000E+00
    0.00000E+00         0.00000E+00        -0.27183E+02
 
    0.24999E+07         0.21312E+02         0.00000E+00
    0.21312E+02        -0.25001E+07         0.00000E+00
    0.00000E+00         0.00000E+00        -0.27747E+02
 
    0.24999E+07         0.18632E+02         0.00000E+00
    0.18632E+02        -0.25001E+07         0.00000E+00
    0.00000E+00         0.00000E+00        -0.28212E+02
 
    0.24999E+07         0.15255E+02         0.00000E+00
    0.15255E+02        -0.25001E+07         0.00000E+00
    0.00000E+00         0.00000E+00        -0.28581E+02
 
    0.24999E+07         0.11314E+02         0.00000E+00
    0.11314E+02        -0.25001E+07         0.00000E+00
    0.00000E+00         0.00000E+00        -0.28856E+02
 
    0.24999E+07         0.69578E+01         0.00000E+00
    0.69578E+01        -0.25001E+07         0.00000E+00
    0.00000E+00         0.00000E+00        -0.29038E+02
 
    0.24999E+07         0.23478E+01         0.00000E+00
    0.23478E+01        -0.25001E+07         0.00000E+00
    0.00000E+00         0.00000E+00        -0.29129E+02
 
    0.25000E+07         0.39003E+01         0.00000E+00
    0.39003E+01        -0.25001E+07         0.00000E+00
    0.00000E+00         0.00000E+00        -0.23634E+02
 
    0.25000E+07         0.10922E+02         0.00000E+00
    0.10922E+02        -0.25001E+07         0.00000E+00
    0.00000E+00         0.00000E+00        -0.25374E+02
 
    0.25000E+07         0.16943E+02         0.00000E+00
    0.16943E+02        -0.25001E+07         0.00000E+00
    0.00000E+00         0.00000E+00        -0.26954E+02
 
    0.25000E+07         0.21870E+02         0.00000E+00
    0.21870E+02        -0.25001E+07         0.00000E+00
    0.00000E+00         0.00000E+00        -0.28382E+02
 
    0.25000E+07         0.25627E+02         0.00000E+00
    0.25627E+02        -0.25001E+07         0.00000E+00
    0.00000E+00         0.00000E+00        -0.29664E+02
 
    0.24999E+07         0.28165E+02         0.00000E+00
    0.28165E+02        -0.25001E+07         0.00000E+00
    0.00000E+00         0.00000E+00        -0.30809E+02
 
    0.24999E+07         0.29459E+02         0.00000E+00
    0.29459E+02        -0.25001E+07         0.00000E+00
    0.00000E+00         0.00000E+00        -0.31821E+02
 
    0.24999E+07         0.29519E+02         0.00000E+00
    0.29519E+02        -0.25001E+07         0.00000E+00
    0.00000E+00         0.00000E+00        -0.32706E+02
 
    0.24999E+07         0.28387E+02         0.00000E+00
    0.28387E+02        -0.25001E+07         0.00000E+00
    0.00000E+00         0.00000E+00        -0.33470E+02
 
    0.24999E+07         0.26139E+02         0.00000E+00
    0.26139E+02        -0.25001E+07         0.00000E+00
    0.00000E+00         0.00000E+00        -0.34117E+02
 
    0.24999E+07         0.22882E+02         0.00000E+00
    0.22882E+02        -0.25001E+07         0.00000E+00
    0.00000E+00         0.00000E+00        -0.34651E+02
 
    0.24999E+07         0.18755E+02         0.00000E+00
    0.18755E+02        -0.25001E+07         0.00000E+00
    0.00000E+00         0.00000E+00        -0.35074E+02
 
    0.24999E+07         0.13920E+02         0.00000E+00
    0.13920E+02        -0.25001E+07         0.00000E+00
    0.00000E+00         0.00000E+00        -0.35389E+02
 
    0.24999E+07         0.85652E+01         0.00000E+00
    0.85652E+01        -0.25001E+07         0.00000E+00
    0.00000E+00         0.00000E+00        -0.35598E+02
 
    0.24999E+07         0.28909E+01         0.00000E+00
    0.28909E+01        -0.25001E+07         0.00000E+00
    0.00000E+00         0.00000E+00        -0.35703E+02
 
    0.25000E+07         0.46926E+01         0.00000E+00
    0.46926E+01        -0.25001E+07         0.00000E+00
    0.00000E+00         0.00000E+00        -0.29862E+02
 
    0.25000E+07         0.13210E+02         0.00000E+00
    0.13210E+02        -0.25001E+07         0.00000E+00
    0.00000E+00         0.00000E+00        -0.31865E+02
 
    0.25000E+07         0.20581E+02         0.00000E+00
    0.20581E+02        -0.25001E+07         0.00000E+00
    0.00000E+00         0.00000E+00        -0.33679E+02
 
    0.25000E+07         0.26667E+02         0.00000E+00
    0.26667E+02        -0.25001E+07         0.00000E+00
    0.00000E+00         0.00000E+00        -0.35317E+02
 
    0.24999E+07         0.31354E+02         0.00000E+00
    0.31354E+02        -0.25001E+07         0.00000E+00
    0.00000E+00         0.00000E+00        -0.36786E+02
 
    0.24999E+07         0.34561E+02         0.00000E+00
    0.34561E+02        -0.25001E+07         0.00000E+00
    0.00000E+00         0.00000E+00        -0.38096E+02
 
    0.24999E+07         0.36243E+02         0.00000E+00
    0.36243E+02        -0.25001E+07         0.00000E+00
    0.00000E+00         0.00000E+00        -0.39254E+02
 
    0.24999E+07         0.36399E+02         0.00000E+00
    0.36399E+02        -0.25001E+07         0.00000E+00
    0.00000E+00         0.00000E+00        -0.40266E+02
 
    0.24999E+07         0.35071E+02         0.00000E+00
    0.35071E+02        -0.25001E+07         0.00000E+00
    0.00000E+00         0.00000E+00        -0.41139E+02
 
    0.24999E+07         0.32345E+02         0.00000E+00
    0.32345E+02        -0.25001E+07         0.00000E+00
    0.00000E+00         0.00000E+00        -0.41879E+02
 
    0.24999E+07         0.28352E+02         0.00000E+00
    0.28352E+02        -0.25001E+07         0.00000E+00
    0.00000E+00         0.00000E+00        -0.42488E+02
 
    0.24999E+07         0.23262E+02         0.00000E+00
    0.23262E+02        -0.25001E+07         0.00000E+00
    0.00000E+00         0.00000E+00        -0.42972E+02
 
    0.24999E+07         0.17279E+02         0.00000E+00
    0.17279E+02        -0.25001E+07         0.00000E+00
    0.00000E+00         0.00000E+00        -0.43332E+02
 
    0.24999E+07         0.10637E+02         0.00000E+00
    0.10637E+02        -0.25001E+07         0.00000E+00
    0.00000E+00         0.00000E+00        -0.43571E+02
 
    0.24999E+07         0.35912E+01         0.00000E+00
    0.35912E+01        -0.25001E+07         0.00000E+00
    0.00000E+00         0.00000E+00        -0.43690E+02
 
    0.25000E+07         0.56942E+01         0.00000E+00
    0.56942E+01        -0.25002E+07         0.00000E+00
    0.00000E+00         0.00000E+00        -0.37619E+02
 
    0.25000E+07         0.16120E+02         0.00000E+00
    0.16120E+02        -0.25002E+07         0.00000E+00
    0.00000E+00         0.00000E+00        -0.39906E+02
 
    0.24999E+07         0.25227E+02         0.00000E+00
    0.25227E+02        -0.25002E+07         0.00000E+00
    0.00000E+00         0.00000E+00        -0.41976E+02
 
    0.24999E+07         0.32815E+02         0.00000E+00
    0.32815E+02        -0.25002E+07         0.00000E+00
    0.00000E+00         0.00000E+00        -0.43842E+02
 
    0.24999E+07         0.38714E+02         0.00000E+00
    0.38714E+02        -0.25001E+07         0.00000E+00
    0.00000E+00         0.00000E+00        -0.45515E+02
 
    0.24999E+07         0.42799E+02         0.00000E+00
    0.42799E+02        -0.25001E+07         0.00000E+00
    0.00000E+00         0.00000E+00        -0.47006E+02
 
    0.24999E+07         0.44997E+02         0.00000E+00
    0.44997E+02        -0.25001E+07         0.00000E+00
    0.00000E+00         0.00000E+00        -0.48325E+02
 
    0.24999E+07         0.45290E+02         0.00000E+00
    0.45290E+02        -0.25001E+07         0.00000E+00
    0.00000E+00         0.00000E+00        -0.49478E+02
 
    0.24999E+07         0.43718E+02         0.00000E+00
    0.43718E+02        -0.25001E+07         0.00000E+00
    0.00000E+00         0.00000E+00        -0.50472E+02
 
    0.24999E+07         0.40382E+02         0.00000E+00
    0.40382E+02        -0.25001E+07         0.00000E+00
    0.00000E+00         0.00000E+00        -0.51315E+02
 
    0.24998E+07         0.35441E+02         0.00000E+00
    0.35441E+02        -0.25001E+07         0.00000E+00
    0.00000E+00         0.00000E+00        -0.52010E+02
 
    0.24998E+07         0.29106E+02         0.00000E+00
    0.29106E+02        -0.25001E+07         0.00000E+00
    0.00000E+00         0.00000E+00        -0.52562E+02
 
    0.24998E+07         0.21636E+02         0.00000E+00
    0.21636E+02        -0.25001E+07         0.00000E+00
    0.00000E+00         0.00000E+00        -0.52973E+02
 
    0.24998E+07         0.13326E+02         0.00000E+00
    0.13326E+02        -0.25001E+07         0.00000E+00
    0.00000E+00         0.00000E+00        -0.53246E+02
 
    0.24998E+07         0.44998E+01         0.00000E+00
    0.44998E+01        -0.25001E+07         0.00000E+00
    0.00000E+00         0.00000E+00        -0.53382E+02
 
    0.25000E+07         0.69753E+01         0.00000E+00
    0.69753E+01        -0.25002E+07         0.00000E+00
    0.00000E+00         0.00000E+00        -0.47231E+02
 
    0.24999E+07         0.19860E+02         0.00000E+00
    0.19860E+02        -0.25002E+07         0.00000E+00
    0.00000E+00         0.00000E+00        -0.49823E+02
 
    0.24999E+07         0.31219E+02         0.00000E+00
    0.31219E+02        -0.25002E+07         0.00000E+00
    0.00000E+00         0.00000E+00        -0.52168E+02
 
    0.24999E+07         0.40763E+02         0.00000E+00
    0.40763E+02        -0.25002E+07         0.00000E+00
    0.00000E+00         0.00000E+00        -0.54282E+02
 
    0.24999E+07         0.48247E+02         0.00000E+00
    0.48247E+02        -0.25002E+07         0.00000E+00
    0.00000E+00         0.00000E+00        -0.56178E+02
 
    0.24999E+07         0.53488E+02         0.00000E+00
    0.53488E+02        -0.25002E+07         0.00000E+00
    0.00000E+00         0.00000E+00        -0.57869E+02
 
    0.24999E+07         0.56369E+02         0.00000E+00
    0.56369E+02        -0.25002E+07         0.00000E+00
    0.00000E+00         0.00000E+00        -0.59365E+02
 
    0.24998E+07         0.56849E+02         0.00000E+00
    0.56849E+02        -0.25001E+07         0.00000E+00
    0.00000E+00         0.00000E+00        -0.60675E+02
 
    0.24998E+07         0.54968E+02         0.00000E+00
    0.54968E+02        -0.25001E+07         0.00000E+00
    0.00000E+00         0.00000E+00        -0.61806E+02
 
    0.24998E+07         0.50844E+02         0.00000E+00
    0.50844E+02        -0.25001E+07         0.00000E+00
    0.00000E+00         0.00000E+00        -0.62765E+02
 
    0.24998E+07         0.44673E+02         0.00000E+00
    0.44673E+02        -0.25001E+07         0.00000E+00
    0.00000E+00         0.00000E+00        -0.63557E+02
 
    0.24998E+07         0.36720E+02         0.00000E+00
    0.36720E+02        -0.25001E+07         0.00000E+00
    0.00000E+00         0.00000E+00        -0.64186E+02
 
    0.24998E+07         0.27313E+02         0.00000E+00
    0.27313E+02        -0.25001E+07         0.00000E+00
    0.00000E+00         0.00000E+00        -0.64656E+02
 
    0.24998E+07         0.16829E+02         0.00000E+00
    0.16829E+02        -0.25001E+07         0.00000E+00
    0.00000E+00         0.00000E+00        -0.64967E+02
 
    0.24998E+07         0.56841E+01         0.00000E+00
    0.56841E+01        -0.25001E+07         0.00000E+00
    0.00000E+00         0.00000E+00        -0.65123E+02
 
    0.24999E+07         0.86309E+01         0.00000E+00
    0.86309E+01        -0.25002E+07         0.00000E+00
    0.00000E+00         0.00000E+00        -0.59076E+02
 
    0.24999E+07         0.24710E+02         0.00000E+00
    0.24710E+02        -0.25002E+07         0.00000E+00
    0.00000E+00         0.00000E+00        -0.61993E+02
 
    0.24999E+07         0.39005E+02         0.00000E+00
    0.39005E+02        -0.25002E+07         0.00000E+00
    0.00000E+00         0.00000E+00        -0.64634E+02
 
    0.24999E+07         0.51107E+02         0.00000E+00
    0.51107E+02        -0.25002E+07         0.00000E+00
    0.00000E+00         0.00000E+00        -0.67018E+02
 
    0.24999E+07         0.60671E+02         0.00000E+00
    0.60671E+02        -0.25002E+07         0.00000E+00
    0.00000E+00         0.00000E+00        -0.69158E+02
 
    0.24998E+07         0.67429E+02         0.00000E+00
    0.67429E+02        -0.25002E+07         0.00000E+00
    0.00000E+00         0.00000E+00        -0.71070E+02
 
    0.24998E+07         0.71210E+02         0.00000E+00
    0.71210E+02        -0.25002E+07         0.00000E+00
    0.00000E+00         0.00000E+00        -0.72765E+02
 
    0.24998E+07         0.71942E+02         0.00000E+00
    0.71942E+02        -0.25002E+07         0.00000E+00
    0.00000E+00         0.00000E+00        -0.74252E+02
 
    0.24998E+07         0.69662E+02         0.00000E+00
    0.69662E+02        -0.25002E+07         0.00000E+00
    0.00000E+00         0.00000E+00        -0.75539E+02
 
    0.24998E+07         0.64512E+02         0.00000E+00
    0.64512E+02        -0.25001E+07         0.00000E+00
    0.00000E+00         0.00000E+00        -0.76633E+02
 
    0.24997E+07         0.56735E+02         0.00000E+00
    0.56735E+02        -0.25001E+07         0.00000E+00
    0.00000E+00         0.00000E+00        -0.77537E+02
 
    0.24997E+07         0.46669E+02         0.00000E+00
    0.46669E+02        -0.25001E+07         0.00000E+00
    0.00000E+00         0.00000E+00        -0.78257E+02
 
    0.24997E+07         0.34731E+02         0.00000E+00
    0.34731E+02        -0.25001E+07         0.00000E+00
    0.00000E+00         0.00000E+00        -0.78795E+02
 
    0.24997E+07         0.21407E+02         0.00000E+00
    0.21407E+02        -0.25001E+07         0.00000E+00
    0.00000E+00         0.00000E+00        -0.79152E+02
 
    0.24997E+07         0.72316E+01         0.00000E+00
    0.72316E+01        -0.25001E+07         0.00000E+00
    0.00000E+00         0.00000E+00        -0.79330E+02
 
    0.24999E+07         0.10788E+02         0.00000E+00
    0.10788E+02        -0.25003E+07         0.00000E+00
    0.00000E+00         0.00000E+00        -0.73589E+02
 
    0.24999E+07         0.31039E+02         0.00000E+00
    0.31039E+02        -0.25003E+07         0.00000E+00
    0.00000E+00         0.00000E+00        -0.76853E+02
 
    0.24999E+07         0.49179E+02         0.00000E+00
    0.49179E+02        -0.25003E+07         0.00000E+00
    0.00000E+00         0.00000E+00        -0.79813E+02
 
    0.24999E+07         0.64635E+02         0.00000E+00
    0.64635E+02        -0.25003E+07         0.00000E+00
    0.00000E+00         0.00000E+00        -0.82491E+02
 
    0.24998E+07         0.76924E+02         0.00000E+00
    0.76924E+02        -0.25003E+07         0.00000E+00
    0.00000E+00         0.00000E+00        -0.84904E+02
 
    0.24998E+07         0.85672E+02         0.00000E+00
    0.85672E+02        -0.25002E+07         0.00000E+00
    0.00000E+00         0.00000E+00        -0.87065E+02
 
    0.24998E+07         0.90632E+02         0.00000E+00
    0.90632E+02        -0.25002E+07         0.00000E+00
    0.00000E+00         0.00000E+00        -0.88987E+02
 
    0.24998E+07         0.91694E+02         0.00000E+00
    0.91694E+02        -0.25002E+07         0.00000E+00
    0.00000E+00         0.00000E+00        -0.90679E+02
 
    0.24997E+07         0.88891E+02         0.00000E+00
    0.88891E+02        -0.25002E+07         0.00000E+00
    0.00000E+00         0.00000E+00        -0.92148E+02
 
    0.24997E+07         0.82396E+02         0.00000E+00
    0.82396E+02        -0.25002E+07         0.00000E+00
    0.00000E+00         0.00000E+00        -0.93400E+02
 
    0.24997E+07         0.72516E+02         0.00000E+00
    0.72516E+02        -0.25002E+07         0.00000E+00
    0.00000E+00         0.00000E+00        -0.94438E+02
 
    0.24997E+07         0.59683E+02         0.00000E+00
    0.59683E+02        -0.25001E+07         0.00000E+00
    0.00000E+00         0.00000E+00        -0.95266E+02
 
    0.24997E+07         0.44435E+02         0.00000E+00
    0.44435E+02        -0.25001E+07         0.00000E+00
    0.00000E+00         0.00000E+00        -0.95886E+02
 
    0.24996E+07         0.27396E+02         0.00000E+00
    0.27396E+02        -0.25001E+07         0.00000E+00
    0.00000E+00         0.00000E+00        -0.96298E+02
 
    0.24996E+07         0.92557E+01         0.00000E+00
    0.92557E+01        -0.25001E+07         0.00000E+00
    0.00000E+00         0.00000E+00        -0.96504E+02
 
    0.24999E+07         0.13613E+02         0.00000E+00
    0.13613E+02        -0.25004E+07         0.00000E+00
    0.00000E+00         0.00000E+00        -0.91267E+02
 
    0.24999E+07         0.39338E+02         0.00000E+00
    0.39338E+02        -0.25004E+07         0.00000E+00
    0.00000E+00         0.00000E+00        -0.94901E+02
 
    0.24999E+07         0.62521E+02         0.00000E+00
    0.62521E+02        -0.25003E+07         0.00000E+00
    0.00000E+00         0.00000E+00        -0.98209E+02
 
    0.24998E+07         0.82373E+02         0.00000E+00
    0.82373E+02        -0.25003E+07         0.00000E+00
    0.00000E+00         0.00000E+00        -0.10122E+03
 
    0.24998E+07         0.98231E+02         0.00000E+00
    0.98231E+02        -0.25003E+07         0.00000E+00
    0.00000E+00         0.00000E+00        -0.10394E+03
 
    0.24998E+07         0.10958E+03         0.00000E+00
    0.10958E+03        -0.25003E+07         0.00000E+00
    0.00000E+00         0.00000E+00        -0.10638E+03
 
    0.24997E+07         0.11608E+03         0.00000E+00
    0.11608E+03        -0.25003E+07         0.00000E+00
    0.00000E+00         0.00000E+00        -0.10857E+03
 
    0.24997E+07         0.11756E+03         0.00000E+00
    0.11756E+03        -0.25002E+07         0.00000E+00
    0.00000E+00         0.00000E+00        -0.11051E+03
 
    0.24997E+07         0.11406E+03         0.00000E+00
    0.11406E+03        -0.25002E+07         0.00000E+00
    0.00000E+00         0.00000E+00        -0.11220E+03
 
    0.24996E+07         0.10580E+03         0.00000E+00
    0.10580E+03        -0.25002E+07         0.00000E+00
    0.00000E+00         0.00000E+00        -0.11364E+03
 
    0.24996E+07         0.93160E+02         0.00000E+00
    0.93160E+02        -0.25002E+07         0.00000E+00
    0.00000E+00         0.00000E+00        -0.11484E+03
 
    0.24996E+07         0.76704E+02         0.00000E+00
    0.76704E+02        -0.25002E+07         0.00000E+00
    0.00000E+00         0.00000E+00        -0.11581E+03
 
    0.24996E+07         0.57122E+02         0.00000E+00
    0.57122E+02        -0.25002E+07         0.00000E+00
    0.00000E+00         0.00000E+00        -0.11653E+03
 
    0.24996E+07         0.35224E+02         0.00000E+00
    0.35224E+02        -0.25001E+07         0.00000E+00
    0.00000E+00         0.00000E+00        -0.11701E+03
 
    0.24996E+07         0.11902E+02         0.00000E+00
    0.11902E+02        -0.25001E+07         0.00000E+00
    0.00000E+00         0.00000E+00        -0.11725E+03
 
    0.24999E+07         0.17329E+02         0.00000E+00
    0.17329E+02        -0.25004E+07         0.00000E+00
    0.00000E+00         0.00000E+00        -0.11266E+03
 
    0.24998E+07         0.50244E+02         0.00000E+00
    0.50244E+02        -0.25004E+07         0.00000E+00
    0.00000E+00         0.00000E+00        -0.11670E+03
 
    0.24998E+07         0.80044E+02         0.00000E+00
    0.80044E+02        -0.25004E+07         0.00000E+00
    0.00000E+00         0.00000E+00        -0.12040E+03
 
    0.24998E+07         0.10565E+03         0.00000E+00
    0.10565E+03        -0.25004E+07         0.00000E+00
    0.00000E+00         0.00000E+00        -0.12378E+03
 
    0.24997E+07         0.12617E+03         0.00000E+00
    0.12617E+03        -0.25004E+07         0.00000E+00
    0.00000E+00         0.00000E+00        -0.12686E+03
 
    0.24997E+07         0.14091E+03         0.00000E+00
    0.14091E+03        -0.25003E+07         0.00000E+00
    0.00000E+00         0.00000E+00        -0.12965E+03
 
    0.24997E+07         0.14939E+03         0.00000E+00
    0.14939E+03        -0.25003E+07         0.00000E+00
    0.00000E+00         0.00000E+00        -0.13216E+03
 
    0.24996E+07         0.15140E+03         0.00000E+00
    0.15140E+03        -0.25003E+07         0.00000E+00
    0.00000E+00         0.00000E+00        -0.13440E+03
 
    0.24996E+07         0.14697E+03         0.00000E+00
    0.14697E+03        -0.25003E+07         0.00000E+00
    0.00000E+00         0.00000E+00        -0.13636E+03
 
    0.24995E+07         0.13638E+03         0.00000E+00
    0.13638E+03        -0.25002E+07         0.00000E+00
    0.00000E+00         0.00000E+00        -0.13805E+03
 
    0.24995E+07         0.12012E+03         0.00000E+00
    0.12012E+03        -0.25002E+07         0.00000E+00
    0.00000E+00         0.00000E+00        -0.13946E+03
 
    0.24995E+07         0.98926E+02         0.00000E+00
    0.98926E+02        -0.25002E+07         0.00000E+00
    0.00000E+00         0.00000E+00        -0.14059E+03
 
    0.24995E+07         0.73683E+02         0.00000E+00
    0.73683E+02        -0.25002E+07         0.00000E+00
    0.00000E+00         0.00000E+00        -0.14144E+03
 
    0.24995E+07         0.45440E+02         0.00000E+00
    0.45440E+02        -0.25002E+07         0.00000E+00
    0.00000E+00         0.00000E+00        -0.14201E+03
 
    0.24994E+07         0.15354E+02         0.00000E+00
    0.15354E+02        -0.25002E+07         0.00000E+00
    0.00000E+00         0.00000E+00        -0.14230E+03
 
    0.24998E+07         0.22222E+02         0.00000E+00
    0.22222E+02        -0.25005E+07         0.00000E+00
    0.00000E+00         0.00000E+00        -0.13840E+03
 
    0.24998E+07         0.64587E+02         0.00000E+00
    0.64587E+02        -0.25005E+07         0.00000E+00
    0.00000E+00         0.00000E+00        -0.14288E+03
 
    0.24998E+07         0.10306E+03         0.00000E+00
    0.10306E+03        -0.25005E+07         0.00000E+00
    0.00000E+00         0.00000E+00        -0.14703E+03
 
    0.24997E+07         0.13619E+03         0.00000E+00
    0.13619E+03        -0.25005E+07         0.00000E+00
    0.00000E+00         0.00000E+00        -0.15086E+03
 
    0.24997E+07         0.16277E+03         0.00000E+00
    0.16277E+03        -0.25005E+07         0.00000E+00
    0.00000E+00         0.00000E+00        -0.15438E+03
 
    0.24996E+07         0.18189E+03         0.00000E+00
    0.18189E+03        -0.25004E+07         0.00000E+00
    0.00000E+00         0.00000E+00        -0.15760E+03
 
    0.24996E+07         0.19293E+03         0.00000E+00
    0.19293E+03        -0.25004E+07         0.00000E+00
    0.00000E+00         0.00000E+00        -0.16052E+03
 
    0.24995E+07         0.19559E+03         0.00000E+00
    0.19559E+03        -0.25003E+07         0.00000E+00
    0.00000E+00         0.00000E+00        -0.16314E+03
 
    0.24995E+07         0.18991E+03         0.00000E+00
    0.18991E+03        -0.25003E+07         0.00000E+00
    0.00000E+00         0.00000E+00        -0.16545E+03
 
    0.24994E+07         0.17624E+03         0.00000E+00
    0.17624E+03        -0.25003E+07         0.00000E+00
    0.00000E+00         0.00000E+00        -0.16745E+03
 
    0.24994E+07         0.15525E+03         0.00000E+00
    0.15525E+03        -0.25002E+07         0.00000E+00
    0.00000E+00         0.00000E+00        -0.16913E+03
 
    0.24994E+07         0.12786E+03         0.00000E+00
    0.12786E+03        -0.25002E+07         0.00000E+00
    0.00000E+00         0.00000E+00        -0.17049E+03
 
    0.24993E+07         0.95237E+02         0.00000E+00
    0.95237E+02        -0.25002E+07         0.00000E+00
    0.00000E+00         0.00000E+00        -0.17151E+03
 
    0.24993E+07         0.58734E+02         0.00000E+00
    0.58734E+02        -0.25002E+07         0.00000E+00
    0.00000E+00         0.00000E+00        -0.17220E+03
 
    0.24993E+07         0.19846E+02         0.00000E+00
    0.19846E+02        -0.25002E+07         0.00000E+00
    0.00000E+00         0.00000E+00        -0.17254E+03
 
    0.24998E+07         0.28665E+02         0.00000E+00
    0.28665E+02        -0.25007E+07         0.00000E+00
    0.00000E+00         0.00000E+00        -0.16913E+03
 
    0.24998E+07         0.83429E+02         0.00000E+00
    0.83429E+02        -0.25006E+07         0.00000E+00
    0.00000E+00         0.00000E+00        -0.17415E+03
 
    0.24997E+07         0.13323E+03         0.00000E+00
    0.13323E+03        -0.25006E+07         0.00000E+00
    0.00000E+00         0.00000E+00        -0.17884E+03
 
    0.24997E+07         0.17615E+03         0.00000E+00
    0.17615E+03        -0.25006E+07         0.00000E+00
    0.00000E+00         0.00000E+00        -0.18322E+03
 
    0.24996E+07         0.21060E+03         0.00000E+00
    0.21060E+03        -0.25005E+07         0.00000E+00
    0.00000E+00         0.00000E+00        -0.18730E+03
 
    0.24995E+07         0.23538E+03         0.00000E+00
    0.23538E+03        -0.25005E+07         0.00000E+00
    0.00000E+00         0.00000E+00        -0.19107E+03
 
    0.24995E+07         0.24967E+03         0.00000E+00
    0.24967E+03        -0.25005E+07         0.00000E+00
    0.00000E+00         0.00000E+00        -0.19452E+03
 
    0.24994E+07         0.25310E+03         0.00000E+00
    0.25310E+03        -0.25004E+07         0.00000E+00
    0.00000E+00         0.00000E+00        -0.19764E+03
 
    0.24994E+07         0.24573E+03         0.00000E+00
    0.24573E+03        -0.25004E+07         0.00000E+00
    0.00000E+00         0.00000E+00        -0.20042E+03
 
    0.24993E+07         0.22803E+03         0.00000E+00
    0.22803E+03        -0.25003E+07         0.00000E+00
    0.00000E+00         0.00000E+00        -0.20285E+03
 
    0.24992E+07         0.20085E+03         0.00000E+00
    0.20085E+03        -0.25003E+07         0.00000E+00
    0.00000E+00         0.00000E+00        -0.20489E+03
 
    0.24992E+07         0.16540E+03         0.00000E+00
    0.16540E+03        -0.25002E+07         0.00000E+00
    0.00000E+00         0.00000E+00        -0.20655E+03
 
    0.24992E+07         0.12319E+03         0.00000E+00
    0.12319E+03        -0.25002E+07         0.00000E+00
    0.00000E+00         0.00000E+00        -0.20781E+03
 
    0.24991E+07         0.75966E+02         0.00000E+00
    0.75966E+02        -0.25002E+07         0.00000E+00
    0.00000E+00         0.00000E+00        -0.20865E+03
 
    0.24991E+07         0.25668E+02         0.00000E+00
    0.25668E+02        -0.25002E+07         0.00000E+00
    0.00000E+00         0.00000E+00        -0.20908E+03
 
    0.24998E+07         0.37134E+02         0.00000E+00
    0.37134E+02        -0.25008E+07         0.00000E+00
    0.00000E+00         0.00000E+00        -0.20559E+03
 
    0.24997E+07         0.10813E+03         0.00000E+00
    0.10813E+03        -0.25008E+07         0.00000E+00
    0.00000E+00         0.00000E+00        -0.21126E+03
 
    0.24997E+07         0.17268E+03         0.00000E+00
    0.17268E+03        -0.25008E+07         0.00000E+00
    0.00000E+00         0.00000E+00        -0.21665E+03
 
    0.24996E+07         0.22830E+03         0.00000E+00
    0.22830E+03        -0.25007E+07         0.00000E+00
    0.00000E+00         0.00000E+00        -0.22175E+03
 
    0.24995E+07         0.27289E+03         0.00000E+00
    0.27289E+03        -0.25007E+07         0.00000E+00
    0.00000E+00         0.00000E+00        -0.22656E+03
 
    0.24994E+07         0.30490E+03         0.00000E+00
    0.30490E+03        -0.25006E+07         0.00000E+00
    0.00000E+00         0.00000E+00        -0.23107E+03
 
    0.24994E+07         0.32331E+03         0.00000E+00
    0.32331E+03        -0.25005E+07         0.00000E+00
    0.00000E+00         0.00000E+00        -0.23524E+03
 
    0.24993E+07         0.32765E+03         0.00000E+00
    0.32765E+03        -0.25005E+07         0.00000E+00
    0.00000E+00         0.00000E+00        -0.23904E+03
 
    0.24992E+07         0.31801E+03         0.00000E+00
    0.31801E+03        -0.25004E+07         0.00000E+00
    0.00000E+00         0.00000E+00        -0.24246E+03
 
    0.24991E+07         0.29501E+03         0.00000E+00
    0.29501E+03        -0.25004E+07         0.00000E+00
    0.00000E+00         0.00000E+00        -0.24545E+03
 
    0.24991E+07         0.25977E+03         0.00000E+00
    0.25977E+03        -0.25003E+07         0.00000E+00
    0.00000E+00         0.00000E+00        -0.24800E+03
 
    0.24990E+07         0.21387E+03         0.00000E+00
    0.21387E+03        -0.25003E+07         0.00000E+00
    0.00000E+00         0.00000E+00        -0.25007E+03
 
    0.24990E+07         0.15926E+03         0.00000E+00
    0.15926E+03        -0.25002E+07         0.00000E+00
    0.00000E+00         0.00000E+00        -0.25165E+03
 
    0.24989E+07         0.98203E+02         0.00000E+00
    0.98203E+02        -0.25002E+07         0.00000E+00
    0.00000E+00         0.00000E+00        -0.25271E+03
 
    0.24989E+07         0.33180E+02         0.00000E+00
    0.33180E+02        -0.25002E+07         0.00000E+00
    0.00000E+00         0.00000E+00        -0.25324E+03
 
    0.24997E+07         0.48234E+02         0.00000E+00
    0.48234E+02        -0.25010E+07         0.00000E+00
    0.00000E+00         0.00000E+00        -0.24853E+03
 
    0.24997E+07         0.14038E+03         0.00000E+00
    0.14038E+03        -0.25010E+07         0.00000E+00
    0.00000E+00         0.00000E+00        -0.25506E+03
 
    0.24996E+07         0.22408E+03         0.00000E+00
    0.22408E+03        -0.25009E+07         0.00000E+00
    0.00000E+00         0.00000E+00        -0.26137E+03
 
    0.24995E+07         0.29606E+03         0.00000E+00
    0.29606E+03        -0.25009E+07         0.00000E+00
    0.00000E+00         0.00000E+00        -0.26745E+03
 
    0.24994E+07         0.35367E+03         0.00000E+00
    0.35367E+03        -0.25008E+07         0.00000E+00
    0.00000E+00         0.00000E+00        -0.27327E+03
 
    0.24993E+07         0.39490E+03         0.00000E+00
    0.39490E+03        -0.25007E+07         0.00000E+00
    0.00000E+00         0.00000E+00        -0.27877E+03
 
    0.24992E+07         0.41847E+03         0.00000E+00
    0.41847E+03        -0.25006E+07         0.00000E+00
    0.00000E+00         0.00000E+00        -0.28393E+03
 
    0.24991E+07         0.42383E+03         0.00000E+00
    0.42383E+03        -0.25006E+07         0.00000E+00
    0.00000E+00         0.00000E+00        -0.28867E+03
 
    0.24990E+07         0.41113E+03         0.00000E+00
    0.41113E+03        -0.25005E+07         0.00000E+00
    0.00000E+00         0.00000E+00        -0.29297E+03
 
    0.24989E+07         0.38121E+03         0.00000E+00
    0.38121E+03        -0.25004E+07         0.00000E+00
    0.00000E+00         0.00000E+00        -0.29675E+03
 
    0.24988E+07         0.33554E+03         0.00000E+00
    0.33554E+03        -0.25003E+07         0.00000E+00
    0.00000E+00         0.00000E+00        -0.29999E+03
 
    0.24988E+07         0.27616E+03         0.00000E+00
    0.27616E+03        -0.25003E+07         0.00000E+00
    0.00000E+00         0.00000E+00        -0.30263E+03
 
    0.24987E+07         0.20560E+03         0.00000E+00
    0.20560E+03        -0.25002E+07         0.00000E+00
    0.00000E+00         0.00000E+00        -0.30465E+03
 
    0.24987E+07         0.12675E+03         0.00000E+00
    0.12675E+03        -0.25002E+07         0.00000E+00
    0.00000E+00         0.00000E+00        -0.30600E+03
 
    0.24987E+07         0.42821E+02         0.00000E+00
    0.42821E+02        -0.25002E+07         0.00000E+00
    0.00000E+00         0.00000E+00        -0.30669E+03
 
    0.24997E+07         0.62725E+02         0.00000E+00
    0.62725E+02        -0.25012E+07         0.00000E+00
    0.00000E+00         0.00000E+00        -0.29872E+03
 
    0.24996E+07         0.18234E+03         0.00000E+00
    0.18234E+03        -0.25012E+07         0.00000E+00
    0.00000E+00         0.00000E+00        -0.30643E+03
 
    0.24995E+07         0.29074E+03         0.00000E+00
    0.29074E+03        -0.25011E+07         0.00000E+00
    0.00000E+00         0.00000E+00        -0.31403E+03
 
    0.24994E+07         0.38371E+03         0.00000E+00
    0.38371E+03        -0.25010E+07         0.00000E+00
    0.00000E+00         0.00000E+00        -0.32146E+03
 
    0.24993E+07         0.45790E+03         0.00000E+00
    0.45790E+03        -0.25010E+07         0.00000E+00
    0.00000E+00         0.00000E+00        -0.32867E+03
 
    0.24992E+07         0.51078E+03         0.00000E+00
    0.51078E+03        -0.25009E+07         0.00000E+00
    0.00000E+00         0.00000E+00        -0.33558E+03
 
    0.24991E+07         0.54078E+03         0.00000E+00
    0.54078E+03        -0.25008E+07         0.00000E+00
    0.00000E+00         0.00000E+00        -0.34211E+03
 
    0.24989E+07         0.54726E+03         0.00000E+00
    0.54726E+03        -0.25007E+07         0.00000E+00
    0.00000E+00         0.00000E+00        -0.34817E+03
 
    0.24988E+07         0.53048E+03         0.00000E+00
    0.53048E+03        -0.25006E+07         0.00000E+00
    0.00000E+00         0.00000E+00        -0.35368E+03
 
    0.24987E+07         0.49156E+03         0.00000E+00
    0.49156E+03        -0.25005E+07         0.00000E+00
    0.00000E+00         0.00000E+00        -0.35857E+03
 
    0.24986E+07         0.43244E+03         0.00000E+00
    0.43244E+03        -0.25004E+07         0.00000E+00
    0.00000E+00         0.00000E+00        -0.36276E+03
 
    0.24985E+07         0.35576E+03         0.00000E+00
    0.35576E+03        -0.25003E+07         0.00000E+00
    0.00000E+00         0.00000E+00        -0.36620E+03
 
    0.24984E+07         0.26477E+03         0.00000E+00
    0.26477E+03        -0.25002E+07         0.00000E+00
    0.00000E+00         0.00000E+00        -0.36882E+03
 
    0.24983E+07         0.16319E+03         0.00000E+00
    0.16319E+03        -0.25002E+07         0.00000E+00
    0.00000E+00         0.00000E+00        -0.37060E+03
 
    0.24983E+07         0.55127E+02         0.00000E+00
    0.55127E+02        -0.25002E+07         0.00000E+00
    0.00000E+00         0.00000E+00        -0.37149E+03
 
    0.24997E+07         0.81552E+02         0.00000E+00
    0.81552E+02        -0.25015E+07         0.00000E+00
    0.00000E+00         0.00000E+00        -0.35695E+03
 
    0.24996E+07         0.23664E+03         0.00000E+00
    0.23664E+03        -0.25014E+07         0.00000E+00
    0.00000E+00         0.00000E+00        -0.36633E+03
 
    0.24995E+07         0.37672E+03         0.00000E+00
    0.37672E+03        -0.25014E+07         0.00000E+00
    0.00000E+00         0.00000E+00        -0.37575E+03
 
    0.24993E+07         0.49647E+03         0.00000E+00
    0.49647E+03        -0.25013E+07         0.00000E+00
    0.00000E+00         0.00000E+00        -0.38511E+03
 
    0.24992E+07         0.59165E+03         0.00000E+00
    0.59165E+03        -0.25012E+07         0.00000E+00
    0.00000E+00         0.00000E+00        -0.39429E+03
 
    0.24990E+07         0.65916E+03         0.00000E+00
    0.65916E+03        -0.25010E+07         0.00000E+00
    0.00000E+00         0.00000E+00        -0.40317E+03
 
    0.24989E+07         0.69709E+03         0.00000E+00
    0.69709E+03        -0.25009E+07         0.00000E+00
    0.00000E+00         0.00000E+00        -0.41162E+03
 
    0.24987E+07         0.70473E+03         0.00000E+00
    0.70473E+03        -0.25008E+07         0.00000E+00
    0.00000E+00         0.00000E+00        -0.41952E+03
 
    0.24985E+07         0.68251E+03         0.00000E+00
    0.68251E+03        -0.25006E+07         0.00000E+00
    0.00000E+00         0.00000E+00        -0.42673E+03
 
    0.24984E+07         0.63196E+03         0.00000E+00
    0.63196E+03        -0.25005E+07         0.00000E+00
    0.00000E+00         0.00000E+00        -0.43316E+03
 
    0.24982E+07         0.55560E+03         0.00000E+00
    0.55560E+03        -0.25004E+07         0.00000E+00
    0.00000E+00         0.00000E+00        -0.43868E+03
 
    0.24981E+07         0.45685E+03         0.00000E+00
    0.45685E+03        -0.25003E+07         0.00000E+00
    0.00000E+00         0.00000E+00        -0.44322E+03
 
    0.24980E+07         0.33987E+03         0.00000E+00
    0.33987E+03        -0.25002E+07         0.00000E+00
    0.00000E+00         0.00000E+00        -0.44669E+03
 
    0.24979E+07         0.20943E+03         0.00000E+00
    0.20943E+03        -0.25002E+07         0.00000E+00
    0.00000E+00         0.00000E+00        -0.44904E+03
 
    0.24979E+07         0.70738E+02         0.00000E+00
    0.70738E+02        -0.25002E+07         0.00000E+00
    0.00000E+00         0.00000E+00        -0.45022E+03
 
    0.24997E+07         0.10588E+03         0.00000E+00
    0.10588E+03        -0.25018E+07         0.00000E+00
    0.00000E+00         0.00000E+00        -0.42397E+03
 
    0.24996E+07         0.30651E+03         0.00000E+00
    0.30651E+03        -0.25017E+07         0.00000E+00
    0.00000E+00         0.00000E+00        -0.43578E+03
 
    0.24994E+07         0.48700E+03         0.00000E+00
    0.48700E+03        -0.25017E+07         0.00000E+00
    0.00000E+00         0.00000E+00        -0.44782E+03
 
    0.24992E+07         0.64067E+03         0.00000E+00
    0.64067E+03        -0.25015E+07         0.00000E+00
    0.00000E+00         0.00000E+00        -0.45991E+03
 
    0.24990E+07         0.76225E+03         0.00000E+00
    0.76225E+03        -0.25014E+07         0.00000E+00
    0.00000E+00         0.00000E+00        -0.47189E+03
 
    0.24988E+07         0.84799E+03         0.00000E+00
    0.84799E+03        -0.25012E+07         0.00000E+00
    0.00000E+00         0.00000E+00        -0.48354E+03
 
    0.24986E+07         0.89562E+03         0.00000E+00
    0.89562E+03        -0.25011E+07         0.00000E+00
    0.00000E+00         0.00000E+00        -0.49470E+03
 
    0.24984E+07         0.90438E+03         0.00000E+00
    0.90438E+03        -0.25009E+07         0.00000E+00
    0.00000E+00         0.00000E+00        -0.50516E+03
 
    0.24982E+07         0.87498E+03         0.00000E+00
    0.87498E+03        -0.25007E+07         0.00000E+00
    0.00000E+00         0.00000E+00        -0.51476E+03
 
    0.24980E+07         0.80947E+03         0.00000E+00
    0.80947E+03        -0.25006E+07         0.00000E+00
    0.00000E+00         0.00000E+00        -0.52332E+03
 
    0.24978E+07         0.71115E+03         0.00000E+00
    0.71115E+03        -0.25004E+07         0.00000E+00
    0.00000E+00         0.00000E+00        -0.53070E+03
 
    0.24976E+07         0.58441E+03         0.00000E+00
    0.58441E+03        -0.25003E+07         0.00000E+00
    0.00000E+00         0.00000E+00        -0.53676E+03
 
    0.24975E+07         0.43458E+03         0.00000E+00
    0.43458E+03        -0.25002E+07         0.00000E+00
    0.00000E+00         0.00000E+00        -0.54140E+03
 
    0.24974E+07         0.26772E+03         0.00000E+00
    0.26772E+03        -0.25002E+07         0.00000E+00
    0.00000E+00         0.00000E+00        -0.54454E+03
 
    0.24974E+07         0.90411E+02         0.00000E+00
    0.90411E+02        -0.25001E+07         0.00000E+00
    0.00000E+00         0.00000E+00        -0.54613E+03
 
    0.24997E+07         0.13713E+03         0.00000E+00
    0.13713E+03        -0.25022E+07         0.00000E+00
    0.00000E+00         0.00000E+00        -0.50053E+03
 
    0.24995E+07         0.39588E+03         0.00000E+00
    0.39588E+03        -0.25021E+07         0.00000E+00
    0.00000E+00         0.00000E+00        -0.51587E+03
 
    0.24993E+07         0.62756E+03         0.00000E+00
    0.62756E+03        -0.25020E+07         0.00000E+00
    0.00000E+00         0.00000E+00        -0.53167E+03
 
    0.24991E+07         0.82391E+03         0.00000E+00
    0.82391E+03        -0.25019E+07         0.00000E+00
    0.00000E+00         0.00000E+00        -0.54767E+03
 
    0.24989E+07         0.97848E+03         0.00000E+00
    0.97848E+03        -0.25017E+07         0.00000E+00
    0.00000E+00         0.00000E+00        -0.56360E+03
 
    0.24986E+07         0.10867E+04         0.00000E+00
    0.10867E+04        -0.25015E+07         0.00000E+00
    0.00000E+00         0.00000E+00        -0.57917E+03
 
    0.24983E+07         0.11461E+04         0.00000E+00
    0.11461E+04        -0.25013E+07         0.00000E+00
    0.00000E+00         0.00000E+00        -0.59411E+03
 
    0.24980E+07         0.11558E+04         0.00000E+00
    0.11558E+04        -0.25011E+07         0.00000E+00
    0.00000E+00         0.00000E+00        -0.60816E+03
 
    0.24978E+07         0.11170E+04         0.00000E+00
    0.11170E+04        -0.25009E+07         0.00000E+00
    0.00000E+00         0.00000E+00        -0.62106E+03
 
    0.24975E+07         0.10324E+04         0.00000E+00
    0.10324E+04        -0.25007E+07         0.00000E+00
    0.00000E+00         0.00000E+00        -0.63257E+03
 
    0.24973E+07         0.90626E+03         0.00000E+00
    0.90626E+03        -0.25005E+07         0.00000E+00
    0.00000E+00         0.00000E+00        -0.64250E+03
 
    0.24971E+07         0.74428E+03         0.00000E+00
    0.74428E+03        -0.25003E+07         0.00000E+00
    0.00000E+00         0.00000E+00        -0.65067E+03
 
    0.24969E+07         0.55321E+03         0.00000E+00
    0.55321E+03        -0.25002E+07         0.00000E+00
    0.00000E+00         0.00000E+00        -0.65692E+03
 
    0.24968E+07         0.34069E+03         0.00000E+00
    0.34069E+03        -0.25001E+07         0.00000E+00
    0.00000E+00         0.00000E+00        -0.66116E+03
 
    0.24968E+07         0.11504E+03         0.00000E+00
    0.11504E+03        -0.25001E+07         0.00000E+00
    0.00000E+00         0.00000E+00        -0.66329E+03
 
    0.24997E+07         0.17702E+03         0.00000E+00
    0.17702E+03        -0.25026E+07         0.00000E+00
    0.00000E+00         0.00000E+00        -0.58730E+03
 
    0.24995E+07         0.50944E+03         0.00000E+00
    0.50944E+03        -0.25026E+07         0.00000E+00
    0.00000E+00         0.00000E+00        -0.60778E+03
 
    0.24993E+07         0.80554E+03         0.00000E+00
    0.80554E+03        -0.25024E+07         0.00000E+00
    0.00000E+00         0.00000E+00        -0.62898E+03
 
    0.24990E+07         0.10552E+04         0.00000E+00
    0.10552E+04        -0.25023E+07         0.00000E+00
    0.00000E+00         0.00000E+00        -0.65054E+03
 
    0.24987E+07         0.12507E+04         0.00000E+00
    0.12507E+04        -0.25020E+07         0.00000E+00
    0.00000E+00         0.00000E+00        -0.67204E+03
 
    0.24983E+07         0.13865E+04         0.00000E+00
    0.13865E+04        -0.25018E+07         0.00000E+00
    0.00000E+00         0.00000E+00        -0.69309E+03
 
    0.24980E+07         0.14600E+04         0.00000E+00
    0.14600E+04        -0.25015E+07         0.00000E+00
    0.00000E+00         0.00000E+00        -0.71330E+03
 
    0.24976E+07         0.14703E+04         0.00000E+00
    0.14703E+04        -0.25013E+07         0.00000E+00
    0.00000E+00         0.00000E+00        -0.73231E+03
 
    0.24972E+07         0.14192E+04         0.00000E+00
    0.14192E+04        -0.25010E+07         0.00000E+00
    0.00000E+00         0.00000E+00        -0.74976E+03
 
    0.24969E+07         0.13103E+04         0.00000E+00
    0.13103E+04        -0.25007E+07         0.00000E+00
    0.00000E+00         0.00000E+00        -0.76534E+03
 
    0.24966E+07         0.11493E+04         0.00000E+00
    0.11493E+04        -0.25005E+07         0.00000E+00
    0.00000E+00         0.00000E+00        -0.77878E+03
 
    0.24964E+07         0.94321E+03         0.00000E+00
    0.94321E+03        -0.25003E+07         0.00000E+00
    0.00000E+00         0.00000E+00        -0.78982E+03
 
    0.24962E+07         0.70071E+03         0.00000E+00
    0.70071E+03        -0.25002E+07         0.00000E+00
    0.00000E+00         0.00000E+00        -0.79828E+03
 
    0.24961E+07         0.43138E+03         0.00000E+00
    0.43138E+03        -0.25001E+07         0.00000E+00
    0.00000E+00         0.00000E+00        -0.80401E+03
 
    0.24960E+07         0.14563E+03         0.00000E+00
    0.14563E+03        -0.25000E+07         0.00000E+00
    0.00000E+00         0.00000E+00        -0.80689E+03
 
    0.24998E+07         0.22759E+03         0.00000E+00
    0.22759E+03        -0.25032E+07         0.00000E+00
    0.00000E+00         0.00000E+00        -0.68494E+03
 
    0.24996E+07         0.65274E+03         0.00000E+00
    0.65274E+03        -0.25031E+07         0.00000E+00
    0.00000E+00         0.00000E+00        -0.71282E+03
 
    0.24992E+07         0.10293E+04         0.00000E+00
    0.10293E+04        -0.25030E+07         0.00000E+00
    0.00000E+00         0.00000E+00        -0.74173E+03
 
    0.24989E+07         0.13451E+04         0.00000E+00
    0.13451E+04        -0.25027E+07         0.00000E+00
    0.00000E+00         0.00000E+00        -0.77112E+03
 
    0.24985E+07         0.15908E+04         0.00000E+00
    0.15908E+04        -0.25025E+07         0.00000E+00
    0.00000E+00         0.00000E+00        -0.80042E+03
 
    0.24980E+07         0.17603E+04         0.00000E+00
    0.17603E+04        -0.25021E+07         0.00000E+00
    0.00000E+00         0.00000E+00        -0.82908E+03
 
    0.24975E+07         0.18503E+04         0.00000E+00
    0.18503E+04        -0.25018E+07         0.00000E+00
    0.00000E+00         0.00000E+00        -0.85658E+03
 
    0.24971E+07         0.18607E+04         0.00000E+00
    0.18607E+04        -0.25015E+07         0.00000E+00
    0.00000E+00         0.00000E+00        -0.88241E+03
 
    0.24966E+07         0.17937E+04         0.00000E+00
    0.17937E+04        -0.25011E+07         0.00000E+00
    0.00000E+00         0.00000E+00        -0.90611E+03
 
    0.24962E+07         0.16543E+04         0.00000E+00
    0.16543E+04        -0.25008E+07         0.00000E+00
    0.00000E+00         0.00000E+00        -0.92724E+03
 
    0.24958E+07         0.14496E+04         0.00000E+00
    0.14496E+04        -0.25006E+07         0.00000E+00
    0.00000E+00         0.00000E+00        -0.94545E+03
 
    0.24955E+07         0.11889E+04         0.00000E+00
    0.11889E+04        -0.25003E+07         0.00000E+00
    0.00000E+00         0.00000E+00        -0.96040E+03
 
    0.24953E+07         0.88274E+03         0.00000E+00
    0.88274E+03        -0.25001E+07         0.00000E+00
    0.00000E+00         0.00000E+00        -0.97185E+03
 
    0.24951E+07         0.54325E+03         0.00000E+00
    0.54325E+03        -0.25000E+07         0.00000E+00
    0.00000E+00         0.00000E+00        -0.97959E+03
 
    0.24950E+07         0.18337E+03         0.00000E+00
    0.18337E+03        -0.25000E+07         0.00000E+00
    0.00000E+00         0.00000E+00        -0.98350E+03
 
    0.24999E+07         0.29124E+03         0.00000E+00
    0.29124E+03        -0.25039E+07         0.00000E+00
    0.00000E+00         0.00000E+00        -0.79407E+03
 
    0.24996E+07         0.83227E+03         0.00000E+00
    0.83227E+03        -0.25038E+07         0.00000E+00
    0.00000E+00         0.00000E+00        -0.83254E+03
 
    0.24992E+07         0.13086E+04         0.00000E+00
    0.13086E+04        -0.25036E+07         0.00000E+00
    0.00000E+00         0.00000E+00        -0.87233E+03
 
    0.24987E+07         0.17057E+04         0.00000E+00
    0.17057E+04        -0.25033E+07         0.00000E+00
    0.00000E+00         0.00000E+00        -0.91267E+03
 
    0.24982E+07         0.20128E+04         0.00000E+00
    0.20128E+04        -0.25030E+07         0.00000E+00
    0.00000E+00         0.00000E+00        -0.95280E+03
 
    0.24976E+07         0.22227E+04         0.00000E+00
    0.22227E+04        -0.25026E+07         0.00000E+00
    0.00000E+00         0.00000E+00        -0.99196E+03
 
    0.24970E+07         0.23322E+04         0.00000E+00
    0.23322E+04        -0.25022E+07         0.00000E+00
    0.00000E+00         0.00000E+00        -0.10294E+04
 
    0.24964E+07         0.23415E+04         0.00000E+00
    0.23415E+04        -0.25017E+07         0.00000E+00
    0.00000E+00         0.00000E+00        -0.10646E+04
 
    0.24959E+07         0.22542E+04         0.00000E+00
    0.22542E+04        -0.25013E+07         0.00000E+00
    0.00000E+00         0.00000E+00        -0.10967E+04
 
    0.24953E+07         0.20766E+04         0.00000E+00
    0.20766E+04        -0.25010E+07         0.00000E+00
    0.00000E+00         0.00000E+00        -0.11254E+04
 
    0.24949E+07         0.18180E+04         0.00000E+00
    0.18180E+04        -0.25006E+07         0.00000E+00
    0.00000E+00         0.00000E+00        -0.11500E+04
 
    0.24945E+07         0.14899E+04         0.00000E+00
    0.14899E+04        -0.25003E+07         0.00000E+00
    0.00000E+00         0.00000E+00        -0.11703E+04
 
    0.24942E+07         0.11056E+04         0.00000E+00
    0.11056E+04        -0.25001E+07         0.00000E+00
    0.00000E+00         0.00000E+00        -0.11857E+04
 
    0.24940E+07         0.68014E+03         0.00000E+00
    0.68014E+03        -0.24999E+07         0.00000E+00
    0.00000E+00         0.00000E+00        -0.11962E+04
 
    0.24939E+07         0.22953E+03         0.00000E+00
    0.22953E+03        -0.24999E+07         0.00000E+00
    0.00000E+00         0.00000E+00        -0.12015E+04
 
    0.25002E+07         0.37075E+03         0.00000E+00
    0.37075E+03        -0.25047E+07         0.00000E+00
    0.00000E+00         0.00000E+00        -0.91539E+03
 
    0.24997E+07         0.10555E+04         0.00000E+00
    0.10555E+04        -0.25046E+07         0.00000E+00
    0.00000E+00         0.00000E+00        -0.96882E+03
 
    0.24992E+07         0.16546E+04         0.00000E+00
    0.16546E+04        -0.25043E+07         0.00000E+00
    0.00000E+00         0.00000E+00        -0.10238E+04
 
    0.24986E+07         0.21509E+04         0.00000E+00
    0.21509E+04        -0.25040E+07         0.00000E+00
    0.00000E+00         0.00000E+00        -0.10793E+04
 
    0.24979E+07         0.25320E+04         0.00000E+00
    0.25320E+04        -0.25036E+07         0.00000E+00
    0.00000E+00         0.00000E+00        -0.11343E+04
 
    0.24972E+07         0.27902E+04         0.00000E+00
    0.27902E+04        -0.25031E+07         0.00000E+00
    0.00000E+00         0.00000E+00        -0.11878E+04
 
    0.24964E+07         0.29222E+04         0.00000E+00
    0.29222E+04        -0.25026E+07         0.00000E+00
    0.00000E+00         0.00000E+00        -0.12389E+04
 
    0.24956E+07         0.29291E+04         0.00000E+00
    0.29291E+04        -0.25021E+07         0.00000E+00
    0.00000E+00         0.00000E+00        -0.12866E+04
 
    0.24949E+07         0.28159E+04         0.00000E+00
    0.28159E+04        -0.25016E+07         0.00000E+00
    0.00000E+00         0.00000E+00        -0.13302E+04
 
    0.24943E+07         0.25909E+04         0.00000E+00
    0.25909E+04        -0.25011E+07         0.00000E+00
    0.00000E+00         0.00000E+00        -0.13689E+04
 
    0.24937E+07         0.22660E+04         0.00000E+00
    0.22660E+04        -0.25007E+07         0.00000E+00
    0.00000E+00         0.00000E+00        -0.14022E+04
 
    0.24932E+07         0.18556E+04         0.00000E+00
    0.18556E+04        -0.25003E+07         0.00000E+00
    0.00000E+00         0.00000E+00        -0.14294E+04
 
    0.24928E+07         0.13762E+04         0.00000E+00
    0.13762E+04        -0.25001E+07         0.00000E+00
    0.00000E+00         0.00000E+00        -0.14502E+04
 
    0.24925E+07         0.84626E+03         0.00000E+00
    0.84626E+03        -0.24999E+07         0.00000E+00
    0.00000E+00         0.00000E+00        -0.14643E+04
 
    0.24924E+07         0.28554E+03         0.00000E+00
    0.28554E+03        -0.24998E+07         0.00000E+00
    0.00000E+00         0.00000E+00        -0.14714E+04
 
    0.25005E+07         0.46931E+03         0.00000E+00
    0.46931E+03        -0.25057E+07         0.00000E+00
    0.00000E+00         0.00000E+00        -0.10498E+04
 
    0.25000E+07         0.13308E+04         0.00000E+00
    0.13308E+04        -0.25056E+07         0.00000E+00
    0.00000E+00         0.00000E+00        -0.11241E+04
 
    0.24993E+07         0.20796E+04         0.00000E+00
    0.20796E+04        -0.25053E+07         0.00000E+00
    0.00000E+00         0.00000E+00        -0.12002E+04
 
    0.24984E+07         0.26959E+04         0.00000E+00
    0.26959E+04        -0.25048E+07         0.00000E+00
    0.00000E+00         0.00000E+00        -0.12765E+04
 
    0.24976E+07         0.31658E+04         0.00000E+00
    0.31658E+04        -0.25043E+07         0.00000E+00
    0.00000E+00         0.00000E+00        -0.13517E+04
 
    0.24966E+07         0.34809E+04         0.00000E+00
    0.34809E+04        -0.25037E+07         0.00000E+00
    0.00000E+00         0.00000E+00        -0.14246E+04
 
    0.24956E+07         0.36386E+04         0.00000E+00
    0.36386E+04        -0.25031E+07         0.00000E+00
    0.00000E+00         0.00000E+00        -0.14939E+04
 
    0.24947E+07         0.36410E+04         0.00000E+00
    0.36410E+04        -0.25025E+07         0.00000E+00
    0.00000E+00         0.00000E+00        -0.15584E+04
 
    0.24938E+07         0.34950E+04         0.00000E+00
    0.34950E+04        -0.25019E+07         0.00000E+00
    0.00000E+00         0.00000E+00        -0.16172E+04
 
    0.24930E+07         0.32118E+04         0.00000E+00
    0.32118E+04        -0.25013E+07         0.00000E+00
    0.00000E+00         0.00000E+00        -0.16694E+04
 
    0.24922E+07         0.28062E+04         0.00000E+00
    0.28062E+04        -0.25008E+07         0.00000E+00
    0.00000E+00         0.00000E+00        -0.17141E+04
 
    0.24916E+07         0.22960E+04         0.00000E+00
    0.22960E+04        -0.25004E+07         0.00000E+00
    0.00000E+00         0.00000E+00        -0.17506E+04
 
    0.24911E+07         0.17018E+04         0.00000E+00
    0.17018E+04        -0.25000E+07         0.00000E+00
    0.00000E+00         0.00000E+00        -0.17785E+04
 
    0.24908E+07         0.10461E+04         0.00000E+00
    0.10461E+04        -0.24998E+07         0.00000E+00
    0.00000E+00         0.00000E+00        -0.17974E+04
 
    0.24907E+07         0.35288E+03         0.00000E+00
    0.35288E+03        -0.24997E+07         0.00000E+00
    0.00000E+00         0.00000E+00        -0.18069E+04
 
    0.25010E+07         0.59046E+03         0.00000E+00
    0.59046E+03        -0.25070E+07         0.00000E+00
    0.00000E+00         0.00000E+00        -0.11986E+04
 
    0.25002E+07         0.16676E+04         0.00000E+00
    0.16676E+04        -0.25068E+07         0.00000E+00
    0.00000E+00         0.00000E+00        -0.13018E+04
 
    0.24993E+07         0.25974E+04         0.00000E+00
    0.25974E+04        -0.25064E+07         0.00000E+00
    0.00000E+00         0.00000E+00        -0.14066E+04
 
    0.24983E+07         0.33575E+04         0.00000E+00
    0.33575E+04        -0.25058E+07         0.00000E+00
    0.00000E+00         0.00000E+00        -0.15111E+04
 
    0.24971E+07         0.39325E+04         0.00000E+00
    0.39325E+04        -0.25052E+07         0.00000E+00
    0.00000E+00         0.00000E+00        -0.16136E+04
 
    0.24959E+07         0.43142E+04         0.00000E+00
    0.43142E+04        -0.25045E+07         0.00000E+00
    0.00000E+00         0.00000E+00        -0.17125E+04
 
    0.24947E+07         0.45005E+04         0.00000E+00
    0.45005E+04        -0.25038E+07         0.00000E+00
    0.00000E+00         0.00000E+00        -0.18061E+04
 
    0.24935E+07         0.44955E+04         0.00000E+00
    0.44955E+04        -0.25030E+07         0.00000E+00
    0.00000E+00         0.00000E+00        -0.18930E+04
 
    0.24924E+07         0.43087E+04         0.00000E+00
    0.43087E+04        -0.25023E+07         0.00000E+00
    0.00000E+00         0.00000E+00        -0.19719E+04
 
    0.24914E+07         0.39545E+04         0.00000E+00
    0.39545E+04        -0.25016E+07         0.00000E+00
    0.00000E+00         0.00000E+00        -0.20417E+04
 
    0.24905E+07         0.34514E+04         0.00000E+00
    0.34514E+04        -0.25010E+07         0.00000E+00
    0.00000E+00         0.00000E+00        -0.21014E+04
 
    0.24897E+07         0.28215E+04         0.00000E+00
    0.28215E+04        -0.25004E+07         0.00000E+00
    0.00000E+00         0.00000E+00        -0.21502E+04
 
    0.24891E+07         0.20899E+04         0.00000E+00
    0.20899E+04        -0.25000E+07         0.00000E+00
    0.00000E+00         0.00000E+00        -0.21874E+04
 
    0.24887E+07         0.12841E+04         0.00000E+00
    0.12841E+04        -0.24998E+07         0.00000E+00
    0.00000E+00         0.00000E+00        -0.22124E+04
 
    0.24885E+07         0.43309E+03         0.00000E+00
    0.43309E+03        -0.24996E+07         0.00000E+00
    0.00000E+00         0.00000E+00        -0.22251E+04
 
    0.25016E+07         0.73811E+03         0.00000E+00
    0.73811E+03        -0.25084E+07         0.00000E+00
    0.00000E+00         0.00000E+00        -0.13639E+04
 
    0.25007E+07         0.20758E+04         0.00000E+00
    0.20758E+04        -0.25082E+07         0.00000E+00
    0.00000E+00         0.00000E+00        -0.15065E+04
 
    0.24995E+07         0.32225E+04         0.00000E+00
    0.32225E+04        -0.25077E+07         0.00000E+00
    0.00000E+00         0.00000E+00        -0.16502E+04
 
    0.24981E+07         0.41532E+04         0.00000E+00
    0.41532E+04        -0.25071E+07         0.00000E+00
    0.00000E+00         0.00000E+00        -0.17926E+04
 
    0.24967E+07         0.48516E+04         0.00000E+00
    0.48516E+04        -0.25063E+07         0.00000E+00
    0.00000E+00         0.00000E+00        -0.19315E+04
 
    0.24951E+07         0.53099E+04         0.00000E+00
    0.53099E+04        -0.25055E+07         0.00000E+00
    0.00000E+00         0.00000E+00        -0.20648E+04
 
    0.24936E+07         0.55277E+04         0.00000E+00
    0.55277E+04        -0.25046E+07         0.00000E+00
    0.00000E+00         0.00000E+00        -0.21904E+04
 
    0.24921E+07         0.55115E+04         0.00000E+00
    0.55115E+04        -0.25036E+07         0.00000E+00
    0.00000E+00         0.00000E+00        -0.23067E+04
 
    0.24907E+07         0.52742E+04         0.00000E+00
    0.52742E+04        -0.25028E+07         0.00000E+00
    0.00000E+00         0.00000E+00        -0.24120E+04
 
    0.24894E+07         0.48341E+04         0.00000E+00
    0.48341E+04        -0.25019E+07         0.00000E+00
    0.00000E+00         0.00000E+00        -0.25049E+04
 
    0.24883E+07         0.42143E+04         0.00000E+00
    0.42143E+04        -0.25012E+07         0.00000E+00
    0.00000E+00         0.00000E+00        -0.25842E+04
 
    0.24874E+07         0.34421E+04         0.00000E+00
    0.34421E+04        -0.25006E+07         0.00000E+00
    0.00000E+00         0.00000E+00        -0.26488E+04
 
    0.24866E+07         0.25480E+04         0.00000E+00
    0.25480E+04        -0.25001E+07         0.00000E+00
    0.00000E+00         0.00000E+00        -0.26980E+04
 
    0.24861E+07         0.15649E+04         0.00000E+00
    0.15649E+04        -0.24998E+07         0.00000E+00
    0.00000E+00         0.00000E+00        -0.27312E+04
 
    0.24859E+07         0.52767E+03         0.00000E+00
    0.52767E+03        -0.24996E+07         0.00000E+00
    0.00000E+00         0.00000E+00        -0.27478E+04
 
    0.25025E+07         0.91641E+03         0.00000E+00
    0.91641E+03        -0.25102E+07         0.00000E+00
    0.00000E+00         0.00000E+00        -0.15492E+04
 
    0.25012E+07         0.25662E+04         0.00000E+00
    0.25662E+04        -0.25099E+07         0.00000E+00
    0.00000E+00         0.00000E+00        -0.17450E+04
 
    0.24996E+07         0.39700E+04         0.00000E+00
    0.39700E+04        -0.25094E+07         0.00000E+00
    0.00000E+00         0.00000E+00        -0.19407E+04
 
    0.24979E+07         0.51009E+04         0.00000E+00
    0.51009E+04        -0.25086E+07         0.00000E+00
    0.00000E+00         0.00000E+00        -0.21335E+04
 
    0.24961E+07         0.59425E+04         0.00000E+00
    0.59425E+04        -0.25077E+07         0.00000E+00
    0.00000E+00         0.00000E+00        -0.23204E+04
 
    0.24942E+07         0.64880E+04         0.00000E+00
    0.64880E+04        -0.25066E+07         0.00000E+00
    0.00000E+00         0.00000E+00        -0.24989E+04
 
    0.24922E+07         0.67395E+04         0.00000E+00
    0.67395E+04        -0.25056E+07         0.00000E+00
    0.00000E+00         0.00000E+00        -0.26665E+04
 
    0.24904E+07         0.67070E+04         0.00000E+00
    0.67070E+04        -0.25045E+07         0.00000E+00
    0.00000E+00         0.00000E+00        -0.28210E+04
 
    0.24886E+07         0.64076E+04         0.00000E+00
    0.64076E+04        -0.25034E+07         0.00000E+00
    0.00000E+00         0.00000E+00        -0.29605E+04
 
    0.24871E+07         0.58647E+04         0.00000E+00
    0.58647E+04        -0.25025E+07         0.00000E+00
    0.00000E+00         0.00000E+00        -0.30833E+04
 
    0.24857E+07         0.51069E+04         0.00000E+00
    0.51069E+04        -0.25016E+07         0.00000E+00
    0.00000E+00         0.00000E+00        -0.31878E+04
 
    0.24845E+07         0.41673E+04         0.00000E+00
    0.41673E+04        -0.25009E+07         0.00000E+00
    0.00000E+00         0.00000E+00        -0.32729E+04
 
    0.24836E+07         0.30827E+04         0.00000E+00
    0.30827E+04        -0.25003E+07         0.00000E+00
    0.00000E+00         0.00000E+00        -0.33376E+04
 
    0.24830E+07         0.18924E+04         0.00000E+00
    0.18924E+04        -0.24999E+07         0.00000E+00
    0.00000E+00         0.00000E+00        -0.33811E+04
 
    0.24827E+07         0.63797E+03         0.00000E+00
    0.63797E+03        -0.24997E+07         0.00000E+00
    0.00000E+00         0.00000E+00        -0.34030E+04
 
    0.25036E+07         0.11296E+04         0.00000E+00
    0.11296E+04        -0.25124E+07         0.00000E+00
    0.00000E+00         0.00000E+00        -0.17604E+04
 
    0.25019E+07         0.31494E+04         0.00000E+00
    0.31494E+04        -0.25120E+07         0.00000E+00
    0.00000E+00         0.00000E+00        -0.20270E+04
 
    0.24999E+07         0.48548E+04         0.00000E+00
    0.48548E+04        -0.25113E+07         0.00000E+00
    0.00000E+00         0.00000E+00        -0.22916E+04
 
    0.24977E+07         0.62180E+04         0.00000E+00
    0.62180E+04        -0.25104E+07         0.00000E+00
    0.00000E+00         0.00000E+00        -0.25506E+04
 
    0.24953E+07         0.72234E+04         0.00000E+00
    0.72234E+04        -0.25093E+07         0.00000E+00
    0.00000E+00         0.00000E+00        -0.28003E+04
 
    0.24929E+07         0.78666E+04         0.00000E+00
    0.78666E+04        -0.25081E+07         0.00000E+00
    0.00000E+00         0.00000E+00        -0.30376E+04
 
    0.24906E+07         0.81532E+04         0.00000E+00
    0.81532E+04        -0.25069E+07         0.00000E+00
    0.00000E+00         0.00000E+00        -0.32595E+04
 
    0.24883E+07         0.80979E+04         0.00000E+00
    0.80979E+04        -0.25056E+07         0.00000E+00
    0.00000E+00         0.00000E+00        -0.34633E+04
 
    0.24861E+07         0.77232E+04         0.00000E+00
    0.77232E+04        -0.25044E+07         0.00000E+00
    0.00000E+00         0.00000E+00        -0.36468E+04
 
    0.24842E+07         0.70586E+04         0.00000E+00
    0.70586E+04        -0.25032E+07         0.00000E+00
    0.00000E+00         0.00000E+00        -0.38078E+04
 
    0.24825E+07         0.61391E+04         0.00000E+00
    0.61391E+04        -0.25022E+07         0.00000E+00
    0.00000E+00         0.00000E+00        -0.39446E+04
 
    0.24811E+07         0.50048E+04         0.00000E+00
    0.50048E+04        -0.25014E+07         0.00000E+00
    0.00000E+00         0.00000E+00        -0.40558E+04
 
    0.24800E+07         0.36995E+04         0.00000E+00
    0.36995E+04        -0.25007E+07         0.00000E+00
    0.00000E+00         0.00000E+00        -0.41402E+04
 
    0.24793E+07         0.22700E+04         0.00000E+00
    0.22700E+04        -0.25003E+07         0.00000E+00
    0.00000E+00         0.00000E+00        -0.41969E+04
 
    0.24789E+07         0.76507E+03         0.00000E+00
    0.76507E+03        -0.25000E+07         0.00000E+00
    0.00000E+00         0.00000E+00        -0.42254E+04
 
    0.25049E+07         0.13820E+04         0.00000E+00
    0.13820E+04        -0.25150E+07         0.00000E+00
    0.00000E+00         0.00000E+00        -0.20066E+04
 
    0.25027E+07         0.38354E+04         0.00000E+00
    0.38354E+04        -0.25145E+07         0.00000E+00
    0.00000E+00         0.00000E+00        -0.23666E+04
 
    0.25001E+07         0.58906E+04         0.00000E+00
    0.58906E+04        -0.25138E+07         0.00000E+00
    0.00000E+00         0.00000E+00        -0.27215E+04
 
    0.24973E+07         0.75200E+04         0.00000E+00
    0.75200E+04        -0.25127E+07         0.00000E+00
    0.00000E+00         0.00000E+00        -0.30666E+04
 
    0.24944E+07         0.87103E+04         0.00000E+00
    0.87103E+04        -0.25114E+07         0.00000E+00
    0.00000E+00         0.00000E+00        -0.33976E+04
 
    0.24914E+07         0.94609E+04         0.00000E+00
    0.94609E+04        -0.25100E+07         0.00000E+00
    0.00000E+00         0.00000E+00        -0.37106E+04
 
    0.24885E+07         0.97827E+04         0.00000E+00
    0.97827E+04        -0.25085E+07         0.00000E+00
    0.00000E+00         0.00000E+00        -0.40021E+04
 
    0.24857E+07         0.96963E+04         0.00000E+00
    0.96963E+04        -0.25070E+07         0.00000E+00
    0.00000E+00         0.00000E+00        -0.42690E+04
 
    0.24830E+07         0.92312E+04         0.00000E+00
    0.92312E+04        -0.25056E+07         0.00000E+00
    0.00000E+00         0.00000E+00        -0.45084E+04
 
    0.24807E+07         0.84239E+04         0.00000E+00
    0.84239E+04        -0.25043E+07         0.00000E+00
    0.00000E+00         0.00000E+00        -0.47180E+04
 
    0.24786E+07         0.73173E+04         0.00000E+00
    0.73173E+04        -0.25031E+07         0.00000E+00
    0.00000E+00         0.00000E+00        -0.48956E+04
 
    0.24769E+07         0.59593E+04         0.00000E+00
    0.59593E+04        -0.25021E+07         0.00000E+00
    0.00000E+00         0.00000E+00        -0.50398E+04
 
    0.24756E+07         0.44018E+04         0.00000E+00
    0.44018E+04        -0.25014E+07         0.00000E+00
    0.00000E+00         0.00000E+00        -0.51490E+04
 
    0.24747E+07         0.26995E+04         0.00000E+00
    0.26995E+04        -0.25008E+07         0.00000E+00
    0.00000E+00         0.00000E+00        -0.52224E+04
 
    0.24743E+07         0.90962E+03         0.00000E+00
    0.90962E+03        -0.25006E+07         0.00000E+00
    0.00000E+00         0.00000E+00        -0.52593E+04
 
    0.25066E+07         0.16773E+04         0.00000E+00
    0.16773E+04        -0.25181E+07         0.00000E+00
    0.00000E+00         0.00000E+00        -0.23021E+04
 
    0.25037E+07         0.46332E+04         0.00000E+00
    0.46332E+04        -0.25176E+07         0.00000E+00
    0.00000E+00         0.00000E+00        -0.27841E+04
 
    0.25004E+07         0.70886E+04         0.00000E+00
    0.70886E+04        -0.25167E+07         0.00000E+00
    0.00000E+00         0.00000E+00        -0.32559E+04
 
    0.24969E+07         0.90186E+04         0.00000E+00
    0.90186E+04        -0.25154E+07         0.00000E+00
    0.00000E+00         0.00000E+00        -0.37120E+04
 
    0.24932E+07         0.10414E+05         0.00000E+00
    0.10414E+05        -0.25139E+07         0.00000E+00
    0.00000E+00         0.00000E+00        -0.41471E+04
 
    0.24895E+07         0.11281E+05         0.00000E+00
    0.11281E+05        -0.25123E+07         0.00000E+00
    0.00000E+00         0.00000E+00        -0.45567E+04
 
    0.24859E+07         0.11636E+05         0.00000E+00
    0.11636E+05        -0.25106E+07         0.00000E+00
    0.00000E+00         0.00000E+00        -0.49366E+04
 
    0.24825E+07         0.11508E+05         0.00000E+00
    0.11508E+05        -0.25089E+07         0.00000E+00
    0.00000E+00         0.00000E+00        -0.52832E+04
 
    0.24793E+07         0.10936E+05         0.00000E+00
    0.10936E+05        -0.25073E+07         0.00000E+00
    0.00000E+00         0.00000E+00        -0.55931E+04
 
    0.24764E+07         0.99634E+04         0.00000E+00
    0.99634E+04        -0.25057E+07         0.00000E+00
    0.00000E+00         0.00000E+00        -0.58637E+04
 
    0.24739E+07         0.86431E+04         0.00000E+00
    0.86431E+04        -0.25044E+07         0.00000E+00
    0.00000E+00         0.00000E+00        -0.60927E+04
 
    0.24719E+07         0.70316E+04         0.00000E+00
    0.70316E+04        -0.25033E+07         0.00000E+00
    0.00000E+00         0.00000E+00        -0.62781E+04
 
    0.24703E+07         0.51896E+04         0.00000E+00
    0.51896E+04        -0.25024E+07         0.00000E+00
    0.00000E+00         0.00000E+00        -0.64185E+04
 
    0.24693E+07         0.31810E+04         0.00000E+00
    0.31810E+04        -0.25018E+07         0.00000E+00
    0.00000E+00         0.00000E+00        -0.65126E+04
 
    0.24687E+07         0.10716E+04         0.00000E+00
    0.10716E+04        -0.25015E+07         0.00000E+00
    0.00000E+00         0.00000E+00        -0.65599E+04
 
    0.25086E+07         0.20186E+04         0.00000E+00
    0.20186E+04        -0.25220E+07         0.00000E+00
    0.00000E+00         0.00000E+00        -0.26688E+04
 
    0.25048E+07         0.55489E+04         0.00000E+00
    0.55489E+04        -0.25214E+07         0.00000E+00
    0.00000E+00         0.00000E+00        -0.33082E+04
 
    0.25006E+07         0.84559E+04         0.00000E+00
    0.84559E+04        -0.25203E+07         0.00000E+00
    0.00000E+00         0.00000E+00        -0.39300E+04
 
    0.24962E+07         0.10720E+05         0.00000E+00
    0.10720E+05        -0.25188E+07         0.00000E+00
    0.00000E+00         0.00000E+00        -0.45275E+04
 
    0.24917E+07         0.12339E+05         0.00000E+00
    0.12339E+05        -0.25171E+07         0.00000E+00
    0.00000E+00         0.00000E+00        -0.50947E+04
 
    0.24871E+07         0.13327E+05         0.00000E+00
    0.13327E+05        -0.25153E+07         0.00000E+00
    0.00000E+00         0.00000E+00        -0.56262E+04
 
    0.24827E+07         0.13712E+05         0.00000E+00
    0.13712E+05        -0.25133E+07         0.00000E+00
    0.00000E+00         0.00000E+00        -0.61173E+04
 
    0.24786E+07         0.13531E+05         0.00000E+00
    0.13531E+05        -0.25114E+07         0.00000E+00
    0.00000E+00         0.00000E+00        -0.65637E+04
 
    0.24747E+07         0.12832E+05         0.00000E+00
    0.12832E+05        -0.25095E+07         0.00000E+00
    0.00000E+00         0.00000E+00        -0.69617E+04
 
    0.24713E+07         0.11671E+05         0.00000E+00
    0.11671E+05        -0.25078E+07         0.00000E+00
    0.00000E+00         0.00000E+00        -0.73083E+04
 
    0.24683E+07         0.10111E+05         0.00000E+00
    0.10111E+05        -0.25063E+07         0.00000E+00
    0.00000E+00         0.00000E+00        -0.76010E+04
 
    0.24658E+07         0.82162E+04         0.00000E+00
    0.82162E+04        -0.25050E+07         0.00000E+00
    0.00000E+00         0.00000E+00        -0.78375E+04
 
    0.24640E+07         0.60589E+04         0.00000E+00
    0.60589E+04        -0.25041E+07         0.00000E+00
    0.00000E+00         0.00000E+00        -0.80164E+04
 
    0.24627E+07         0.37117E+04         0.00000E+00
    0.37117E+04        -0.25034E+07         0.00000E+00
    0.00000E+00         0.00000E+00        -0.81362E+04
 
    0.24621E+07         0.12500E+04         0.00000E+00
    0.12500E+04        -0.25031E+07         0.00000E+00
    0.00000E+00         0.00000E+00        -0.81964E+04
 
    0.25109E+07         0.24078E+04         0.00000E+00
    0.24078E+04        -0.25266E+07         0.00000E+00
    0.00000E+00         0.00000E+00        -0.31388E+04
 
    0.25060E+07         0.65849E+04         0.00000E+00
    0.65849E+04        -0.25259E+07         0.00000E+00
    0.00000E+00         0.00000E+00        -0.39792E+04
 
    0.25008E+07         0.99931E+04         0.00000E+00
    0.99931E+04        -0.25247E+07         0.00000E+00
    0.00000E+00         0.00000E+00        -0.47913E+04
 
    0.24952E+07         0.12622E+05         0.00000E+00
    0.12622E+05        -0.25231E+07         0.00000E+00
    0.00000E+00         0.00000E+00        -0.55674E+04
 
    0.24896E+07         0.14479E+05         0.00000E+00
    0.14479E+05        -0.25211E+07         0.00000E+00
    0.00000E+00         0.00000E+00        -0.63005E+04
 
    0.24841E+07         0.15591E+05         0.00000E+00
    0.15591E+05        -0.25190E+07         0.00000E+00
    0.00000E+00         0.00000E+00        -0.69844E+04
 
    0.24787E+07         0.15997E+05         0.00000E+00
    0.15997E+05        -0.25168E+07         0.00000E+00
    0.00000E+00         0.00000E+00        -0.76138E+04
 
    0.24737E+07         0.15748E+05         0.00000E+00
    0.15748E+05        -0.25146E+07         0.00000E+00
    0.00000E+00         0.00000E+00        -0.81839E+04
 
    0.24691E+07         0.14903E+05         0.00000E+00
    0.14903E+05        -0.25126E+07         0.00000E+00
    0.00000E+00         0.00000E+00        -0.86908E+04
 
    0.24650E+07         0.13531E+05         0.00000E+00
    0.13531E+05        -0.25107E+07         0.00000E+00
    0.00000E+00         0.00000E+00        -0.91311E+04
 
    0.24615E+07         0.11704E+05         0.00000E+00
    0.11704E+05        -0.25090E+07         0.00000E+00
    0.00000E+00         0.00000E+00        -0.95021E+04
 
    0.24586E+07         0.94999E+04         0.00000E+00
    0.94999E+04        -0.25076E+07         0.00000E+00
    0.00000E+00         0.00000E+00        -0.98014E+04
 
    0.24564E+07         0.69992E+04         0.00000E+00
    0.69992E+04        -0.25065E+07         0.00000E+00
    0.00000E+00         0.00000E+00        -0.10027E+05
 
    0.24549E+07         0.42853E+04         0.00000E+00
    0.42853E+04        -0.25058E+07         0.00000E+00
    0.00000E+00         0.00000E+00        -0.10179E+05
 
    0.24541E+07         0.14427E+04         0.00000E+00
    0.14427E+04        -0.25054E+07         0.00000E+00
    0.00000E+00         0.00000E+00        -0.10254E+05
 
    0.25135E+07         0.28446E+04         0.00000E+00
    0.28446E+04        -0.25323E+07         0.00000E+00
    0.00000E+00         0.00000E+00        -0.37592E+04
 
    0.25073E+07         0.77381E+04         0.00000E+00
    0.77381E+04        -0.25315E+07         0.00000E+00
    0.00000E+00         0.00000E+00        -0.48535E+04
 
    0.25006E+07         0.11692E+05         0.00000E+00
    0.11692E+05        -0.25301E+07         0.00000E+00
    0.00000E+00         0.00000E+00        -0.59046E+04
 
    0.24938E+07         0.14709E+05         0.00000E+00
    0.14709E+05        -0.25283E+07         0.00000E+00
    0.00000E+00         0.00000E+00        -0.69036E+04
 
    0.24869E+07         0.16813E+05         0.00000E+00
    0.16813E+05        -0.25261E+07         0.00000E+00
    0.00000E+00         0.00000E+00        -0.78428E+04
 
    0.24802E+07         0.18046E+05         0.00000E+00
    0.18046E+05        -0.25238E+07         0.00000E+00
    0.00000E+00         0.00000E+00        -0.87152E+04
 
    0.24738E+07         0.18463E+05         0.00000E+00
    0.18463E+05        -0.25213E+07         0.00000E+00
    0.00000E+00         0.00000E+00        -0.95149E+04
 
    0.24678E+07         0.18128E+05         0.00000E+00
    0.18128E+05        -0.25189E+07         0.00000E+00
    0.00000E+00         0.00000E+00        -0.10237E+05
 
    0.24623E+07         0.17118E+05         0.00000E+00
    0.17118E+05        -0.25167E+07         0.00000E+00
    0.00000E+00         0.00000E+00        -0.10877E+05
 
    0.24574E+07         0.15512E+05         0.00000E+00
    0.15512E+05        -0.25146E+07         0.00000E+00
    0.00000E+00         0.00000E+00        -0.11431E+05
 
    0.24532E+07         0.13396E+05         0.00000E+00
    0.13396E+05        -0.25127E+07         0.00000E+00
    0.00000E+00         0.00000E+00        -0.11898E+05
 
    0.24498E+07         0.10859E+05         0.00000E+00
    0.10859E+05        -0.25112E+07         0.00000E+00
    0.00000E+00         0.00000E+00        -0.12273E+05
 
    0.24472E+07         0.79930E+04         0.00000E+00
    0.79930E+04        -0.25100E+07         0.00000E+00
    0.00000E+00         0.00000E+00        -0.12556E+05
 
    0.24455E+07         0.48905E+04         0.00000E+00
    0.48905E+04        -0.25092E+07         0.00000E+00
    0.00000E+00         0.00000E+00        -0.12745E+05
 
    0.24446E+07         0.16460E+04         0.00000E+00
    0.16460E+04        -0.25088E+07         0.00000E+00
    0.00000E+00         0.00000E+00        -0.12840E+05
 
    0.25162E+07         0.33262E+04         0.00000E+00
    0.33262E+04        -0.25392E+07         0.00000E+00
    0.00000E+00         0.00000E+00        -0.45967E+04
 
    0.25083E+07         0.89974E+04         0.00000E+00
    0.89974E+04        -0.25384E+07         0.00000E+00
    0.00000E+00         0.00000E+00        -0.60081E+04
 
    0.25000E+07         0.13531E+05         0.00000E+00
    0.13531E+05        -0.25368E+07         0.00000E+00
    0.00000E+00         0.00000E+00        -0.73561E+04
 
    0.24916E+07         0.16952E+05         0.00000E+00
    0.16952E+05        -0.25348E+07         0.00000E+00
    0.00000E+00         0.00000E+00        -0.86306E+04
 
    0.24833E+07         0.19303E+05         0.00000E+00
    0.19303E+05        -0.25324E+07         0.00000E+00
    0.00000E+00         0.00000E+00        -0.98230E+04
 
    0.24752E+07         0.20647E+05         0.00000E+00
    0.20647E+05        -0.25298E+07         0.00000E+00
    0.00000E+00         0.00000E+00        -0.10926E+05
 
    0.24675E+07         0.21058E+05         0.00000E+00
    0.21058E+05        -0.25272E+07         0.00000E+00
    0.00000E+00         0.00000E+00        -0.11933E+05
 
    0.24604E+07         0.20619E+05         0.00000E+00
    0.20619E+05        -0.25246E+07         0.00000E+00
    0.00000E+00         0.00000E+00        -0.12839E+05
 
    0.24539E+07         0.19423E+05         0.00000E+00
    0.19423E+05        -0.25221E+07         0.00000E+00
    0.00000E+00         0.00000E+00        -0.13640E+05
 
    0.24482E+07         0.17564E+05         0.00000E+00
    0.17564E+05        -0.25199E+07         0.00000E+00
    0.00000E+00         0.00000E+00        -0.14333E+05
 
    0.24433E+07         0.15142E+05         0.00000E+00
    0.15142E+05        -0.25179E+07         0.00000E+00
    0.00000E+00         0.00000E+00        -0.14913E+05
 
    0.24394E+07         0.12258E+05         0.00000E+00
    0.12258E+05        -0.25163E+07         0.00000E+00
    0.00000E+00         0.00000E+00        -0.15380E+05
 
    0.24364E+07         0.90129E+04         0.00000E+00
    0.90129E+04        -0.25150E+07         0.00000E+00
    0.00000E+00         0.00000E+00        -0.15732E+05
 
    0.24343E+07         0.55108E+04         0.00000E+00
    0.55108E+04        -0.25142E+07         0.00000E+00
    0.00000E+00         0.00000E+00        -0.15967E+05
 
    0.24333E+07         0.18541E+04         0.00000E+00
    0.18541E+04        -0.25137E+07         0.00000E+00
    0.00000E+00         0.00000E+00        -0.16084E+05
 
    0.25190E+07         0.38460E+04         0.00000E+00
    0.38460E+04        -0.25477E+07         0.00000E+00
    0.00000E+00         0.00000E+00        -0.57443E+04
 
    0.25090E+07         0.10341E+05         0.00000E+00
    0.10341E+05        -0.25467E+07         0.00000E+00
    0.00000E+00         0.00000E+00        -0.75477E+04
 
    0.24987E+07         0.15475E+05         0.00000E+00
    0.15475E+05        -0.25450E+07         0.00000E+00
    0.00000E+00         0.00000E+00        -0.92602E+04
 
    0.24885E+07         0.19299E+05         0.00000E+00
    0.19299E+05        -0.25428E+07         0.00000E+00
    0.00000E+00         0.00000E+00        -0.10871E+05
 
    0.24784E+07         0.21886E+05         0.00000E+00
    0.21886E+05        -0.25403E+07         0.00000E+00
    0.00000E+00         0.00000E+00        -0.12371E+05
 
    0.24688E+07         0.23322E+05         0.00000E+00
    0.23322E+05        -0.25375E+07         0.00000E+00
    0.00000E+00         0.00000E+00        -0.13753E+05
 
    0.24597E+07         0.23706E+05         0.00000E+00
    0.23706E+05        -0.25347E+07         0.00000E+00
    0.00000E+00         0.00000E+00        -0.15010E+05
 
    0.24513E+07         0.23143E+05         0.00000E+00
    0.23143E+05        -0.25320E+07         0.00000E+00
    0.00000E+00         0.00000E+00        -0.16138E+05
 
    0.24437E+07         0.21742E+05         0.00000E+00
    0.21742E+05        -0.25294E+07         0.00000E+00
    0.00000E+00         0.00000E+00        -0.17131E+05
 
    0.24371E+07         0.19617E+05         0.00000E+00
    0.19617E+05        -0.25270E+07         0.00000E+00
    0.00000E+00         0.00000E+00        -0.17987E+05
 
    0.24314E+07         0.16880E+05         0.00000E+00
    0.16880E+05        -0.25250E+07         0.00000E+00
    0.00000E+00         0.00000E+00        -0.18704E+05
 
    0.24269E+07         0.13644E+05         0.00000E+00
    0.13644E+05        -0.25233E+07         0.00000E+00
    0.00000E+00         0.00000E+00        -0.19279E+05
 
    0.24234E+07         0.10021E+05         0.00000E+00
    0.10021E+05        -0.25220E+07         0.00000E+00
    0.00000E+00         0.00000E+00        -0.19712E+05
 
    0.24211E+07         0.61223E+04         0.00000E+00
    0.61223E+04        -0.25211E+07         0.00000E+00
    0.00000E+00         0.00000E+00        -0.20000E+05
 
    0.24199E+07         0.20591E+04         0.00000E+00
    0.20591E+04        -0.25206E+07         0.00000E+00
    0.00000E+00         0.00000E+00        -0.20145E+05
 
    0.25214E+07         0.43927E+04         0.00000E+00
    0.43927E+04        -0.25580E+07         0.00000E+00
    0.00000E+00         0.00000E+00        -0.73304E+04
 
    0.25090E+07         0.11735E+05         0.00000E+00
    0.11735E+05        -0.25570E+07         0.00000E+00
    0.00000E+00         0.00000E+00        -0.96123E+04
 
    0.24964E+07         0.17467E+05         0.00000E+00
    0.17467E+05        -0.25552E+07         0.00000E+00
    0.00000E+00         0.00000E+00        -0.11767E+05
 
    0.24840E+07         0.21676E+05         0.00000E+00
    0.21676E+05        -0.25529E+07         0.00000E+00
    0.00000E+00         0.00000E+00        -0.13785E+05
 
    0.24719E+07         0.24471E+05         0.00000E+00
    0.24471E+05        -0.25502E+07         0.00000E+00
    0.00000E+00         0.00000E+00        -0.15655E+05
 
    0.24605E+07         0.25970E+05         0.00000E+00
    0.25970E+05        -0.25473E+07         0.00000E+00
    0.00000E+00         0.00000E+00        -0.17370E+05
 
    0.24498E+07         0.26300E+05         0.00000E+00
    0.26300E+05        -0.25444E+07         0.00000E+00
    0.00000E+00         0.00000E+00        -0.18924E+05
 
    0.24400E+07         0.25590E+05         0.00000E+00
    0.25590E+05        -0.25416E+07         0.00000E+00
    0.00000E+00         0.00000E+00        -0.20313E+05
 
    0.24313E+07         0.23972E+05         0.00000E+00
    0.23972E+05        -0.25389E+07         0.00000E+00
    0.00000E+00         0.00000E+00        -0.21533E+05
 
    0.24236E+07         0.21575E+05         0.00000E+00
    0.21575E+05        -0.25365E+07         0.00000E+00
    0.00000E+00         0.00000E+00        -0.22583E+05
 
    0.24172E+07         0.18526E+05         0.00000E+00
    0.18526E+05        -0.25344E+07         0.00000E+00
    0.00000E+00         0.00000E+00        -0.23459E+05
 
    0.24119E+07         0.14949E+05         0.00000E+00
    0.14949E+05        -0.25327E+07         0.00000E+00
    0.00000E+00         0.00000E+00        -0.24161E+05
 
    0.24080E+07         0.10965E+05         0.00000E+00
    0.10965E+05        -0.25314E+07         0.00000E+00
    0.00000E+00         0.00000E+00        -0.24687E+05
 
    0.24053E+07         0.66938E+04         0.00000E+00
    0.66938E+04        -0.25305E+07         0.00000E+00
    0.00000E+00         0.00000E+00        -0.25039E+05
 
    0.24040E+07         0.22503E+04         0.00000E+00
    0.22503E+04        -0.25300E+07         0.00000E+00
    0.00000E+00         0.00000E+00        -0.25215E+05
 
    0.25231E+07         0.49488E+04         0.00000E+00
    0.49488E+04        -0.25708E+07         0.00000E+00
    0.00000E+00         0.00000E+00        -0.95282E+04
 
    0.25078E+07         0.13128E+05         0.00000E+00
    0.13128E+05        -0.25697E+07         0.00000E+00
    0.00000E+00         0.00000E+00        -0.12387E+05
 
    0.24925E+07         0.19425E+05         0.00000E+00
    0.19425E+05        -0.25678E+07         0.00000E+00
    0.00000E+00         0.00000E+00        -0.15073E+05
 
    0.24776E+07         0.23976E+05         0.00000E+00
    0.23976E+05        -0.25654E+07         0.00000E+00
    0.00000E+00         0.00000E+00        -0.17575E+05
 
    0.24633E+07         0.26933E+05         0.00000E+00
    0.26933E+05        -0.25627E+07         0.00000E+00
    0.00000E+00         0.00000E+00        -0.19883E+05
 
    0.24498E+07         0.28454E+05         0.00000E+00
    0.28454E+05        -0.25598E+07         0.00000E+00
    0.00000E+00         0.00000E+00        -0.21991E+05
 
    0.24374E+07         0.28697E+05         0.00000E+00
    0.28697E+05        -0.25569E+07         0.00000E+00
    0.00000E+00         0.00000E+00        -0.23894E+05
 
    0.24261E+07         0.27819E+05         0.00000E+00
    0.27819E+05        -0.25541E+07         0.00000E+00
    0.00000E+00         0.00000E+00        -0.25589E+05
 
    0.24161E+07         0.25976E+05         0.00000E+00
    0.25976E+05        -0.25514E+07         0.00000E+00
    0.00000E+00         0.00000E+00        -0.27073E+05
 
    0.24073E+07         0.23312E+05         0.00000E+00
    0.23312E+05        -0.25491E+07         0.00000E+00
    0.00000E+00         0.00000E+00        -0.28346E+05
 
    0.24000E+07         0.19971E+05         0.00000E+00
    0.19971E+05        -0.25470E+07         0.00000E+00
    0.00000E+00         0.00000E+00        -0.29407E+05
 
    0.23941E+07         0.16084E+05         0.00000E+00
    0.16084E+05        -0.25453E+07         0.00000E+00
    0.00000E+00         0.00000E+00        -0.30255E+05
 
    0.23896E+07         0.11782E+05         0.00000E+00
    0.11782E+05        -0.25441E+07         0.00000E+00
    0.00000E+00         0.00000E+00        -0.30890E+05
 
    0.23866E+07         0.71852E+04         0.00000E+00
    0.71852E+04        -0.25432E+07         0.00000E+00
    0.00000E+00         0.00000E+00        -0.31314E+05
 
    0.23851E+07         0.24144E+04         0.00000E+00
    0.24144E+04        -0.25427E+07         0.00000E+00
    0.00000E+00         0.00000E+00        -0.31526E+05
 
    0.25236E+07         0.54896E+04         0.00000E+00
    0.54896E+04        -0.25864E+07         0.00000E+00
    0.00000E+00         0.00000E+00        -0.12569E+05
 
    0.25048E+07         0.14450E+05         0.00000E+00
    0.14450E+05        -0.25853E+07         0.00000E+00
    0.00000E+00         0.00000E+00        -0.16115E+05
 
    0.24863E+07         0.21240E+05         0.00000E+00
    0.21240E+05        -0.25835E+07         0.00000E+00
    0.00000E+00         0.00000E+00        -0.19429E+05
 
    0.24686E+07         0.26059E+05         0.00000E+00
    0.26059E+05        -0.25811E+07         0.00000E+00
    0.00000E+00         0.00000E+00        -0.22499E+05
 
    0.24518E+07         0.29110E+05         0.00000E+00
    0.29110E+05        -0.25784E+07         0.00000E+00
    0.00000E+00         0.00000E+00        -0.25320E+05
 
    0.24362E+07         0.30596E+05         0.00000E+00
    0.30596E+05        -0.25756E+07         0.00000E+00
    0.00000E+00         0.00000E+00        -0.27885E+05
 
    0.24218E+07         0.30713E+05         0.00000E+00
    0.30713E+05        -0.25728E+07         0.00000E+00
    0.00000E+00         0.00000E+00        -0.30191E+05
 
    0.24089E+07         0.29650E+05         0.00000E+00
    0.29650E+05        -0.25701E+07         0.00000E+00
    0.00000E+00         0.00000E+00        -0.32238E+05
 
    0.23975E+07         0.27582E+05         0.00000E+00
    0.27582E+05        -0.25676E+07         0.00000E+00
    0.00000E+00         0.00000E+00        -0.34025E+05
 
    0.23877E+07         0.24675E+05         0.00000E+00
    0.24675E+05        -0.25654E+07         0.00000E+00
    0.00000E+00         0.00000E+00        -0.35553E+05
 
    0.23794E+07         0.21081E+05         0.00000E+00
    0.21081E+05        -0.25635E+07         0.00000E+00
    0.00000E+00         0.00000E+00        -0.36823E+05
 
    0.23728E+07         0.16942E+05         0.00000E+00
    0.16942E+05        -0.25620E+07         0.00000E+00
    0.00000E+00         0.00000E+00        -0.37837E+05
 
    0.23678E+07         0.12390E+05         0.00000E+00
    0.12390E+05        -0.25608E+07         0.00000E+00
    0.00000E+00         0.00000E+00        -0.38596E+05
 
    0.23645E+07         0.75477E+04         0.00000E+00
    0.75477E+04        -0.25600E+07         0.00000E+00
    0.00000E+00         0.00000E+00        -0.39101E+05
 
    0.23628E+07         0.25348E+04         0.00000E+00
    0.25348E+04        -0.25596E+07         0.00000E+00
    0.00000E+00         0.00000E+00        -0.39353E+05
 
    0.25219E+07         0.59816E+04         0.00000E+00
    0.59816E+04        -0.26057E+07         0.00000E+00
    0.00000E+00         0.00000E+00        -0.16755E+05
 
    0.24991E+07         0.15607E+05         0.00000E+00
    0.15607E+05        -0.26046E+07         0.00000E+00
    0.00000E+00         0.00000E+00        -0.21108E+05
 
    0.24771E+07         0.22771E+05         0.00000E+00
    0.22771E+05        -0.26029E+07         0.00000E+00
    0.00000E+00         0.00000E+00        -0.25154E+05
 
    0.24562E+07         0.27745E+05         0.00000E+00
    0.27745E+05        -0.26006E+07         0.00000E+00
    0.00000E+00         0.00000E+00        -0.28884E+05
 
    0.24367E+07         0.30796E+05         0.00000E+00
    0.30796E+05        -0.25981E+07         0.00000E+00
    0.00000E+00         0.00000E+00        -0.32294E+05
 
    0.24187E+07         0.32177E+05         0.00000E+00
    0.32177E+05        -0.25956E+07         0.00000E+00
    0.00000E+00         0.00000E+00        -0.35381E+05
 
    0.24023E+07         0.32127E+05         0.00000E+00
    0.32127E+05        -0.25931E+07         0.00000E+00
    0.00000E+00         0.00000E+00        -0.38147E+05
 
    0.23877E+07         0.30864E+05         0.00000E+00
    0.30864E+05        -0.25907E+07         0.00000E+00
    0.00000E+00         0.00000E+00        -0.40592E+05
 
    0.23749E+07         0.28588E+05         0.00000E+00
    0.28588E+05        -0.25885E+07         0.00000E+00
    0.00000E+00         0.00000E+00        -0.42720E+05
 
    0.23639E+07         0.25479E+05         0.00000E+00
    0.25479E+05        -0.25866E+07         0.00000E+00
    0.00000E+00         0.00000E+00        -0.44534E+05
 
    0.23547E+07         0.21699E+05         0.00000E+00
    0.21699E+05        -0.25849E+07         0.00000E+00
    0.00000E+00         0.00000E+00        -0.46038E+05
 
    0.23474E+07         0.17394E+05         0.00000E+00
    0.17394E+05        -0.25836E+07         0.00000E+00
    0.00000E+00         0.00000E+00        -0.47236E+05
 
    0.23419E+07         0.12696E+05         0.00000E+00
    0.12696E+05        -0.25826E+07         0.00000E+00
    0.00000E+00         0.00000E+00        -0.48131E+05
 
    0.23383E+07         0.77243E+04         0.00000E+00
    0.77243E+04        -0.25819E+07         0.00000E+00
    0.00000E+00         0.00000E+00        -0.48726E+05
 
    0.23365E+07         0.25924E+04         0.00000E+00
    0.25924E+04        -0.25816E+07         0.00000E+00
    0.00000E+00         0.00000E+00        -0.49023E+05
 
    0.25170E+07         0.63814E+04         0.00000E+00
    0.63814E+04        -0.26294E+07         0.00000E+00
    0.00000E+00         0.00000E+00        -0.22481E+05
 
    0.24896E+07         0.16482E+05         0.00000E+00
    0.16482E+05        -0.26285E+07         0.00000E+00
    0.00000E+00         0.00000E+00        -0.27765E+05
 
    0.24636E+07         0.23841E+05         0.00000E+00
    0.23841E+05        -0.26269E+07         0.00000E+00
    0.00000E+00         0.00000E+00        -0.32650E+05
 
    0.24393E+07         0.28815E+05         0.00000E+00
    0.28815E+05        -0.26250E+07         0.00000E+00
    0.00000E+00         0.00000E+00        -0.37131E+05
 
    0.24168E+07         0.31743E+05         0.00000E+00
    0.31743E+05        -0.26228E+07         0.00000E+00
    0.00000E+00         0.00000E+00        -0.41207E+05
 
    0.23963E+07         0.32935E+05         0.00000E+00
    0.32935E+05        -0.26207E+07         0.00000E+00
    0.00000E+00         0.00000E+00        -0.44882E+05
 
    0.23779E+07         0.32673E+05         0.00000E+00
    0.32673E+05        -0.26187E+07         0.00000E+00
    0.00000E+00         0.00000E+00        -0.48159E+05
 
    0.23615E+07         0.31206E+05         0.00000E+00
    0.31206E+05        -0.26168E+07         0.00000E+00
    0.00000E+00         0.00000E+00        -0.51046E+05
 
    0.23473E+07         0.28755E+05         0.00000E+00
    0.28755E+05        -0.26151E+07         0.00000E+00
    0.00000E+00         0.00000E+00        -0.53549E+05
 
    0.23352E+07         0.25512E+05         0.00000E+00
    0.25512E+05        -0.26136E+07         0.00000E+00
    0.00000E+00         0.00000E+00        -0.55677E+05
 
    0.23252E+07         0.21645E+05         0.00000E+00
    0.21645E+05        -0.26124E+07         0.00000E+00
    0.00000E+00         0.00000E+00        -0.57437E+05
 
    0.23172E+07         0.17297E+05         0.00000E+00
    0.17297E+05        -0.26114E+07         0.00000E+00
    0.00000E+00         0.00000E+00        -0.58835E+05
 
    0.23113E+07         0.12595E+05         0.00000E+00
    0.12595E+05        -0.26107E+07         0.00000E+00
    0.00000E+00         0.00000E+00        -0.59878E+05
 
    0.23073E+07         0.76511E+04         0.00000E+00
    0.76511E+04        -0.26102E+07         0.00000E+00
    0.00000E+00         0.00000E+00        -0.60571E+05
 
    0.23054E+07         0.25658E+04         0.00000E+00
    0.25658E+04        -0.26099E+07         0.00000E+00
    0.00000E+00         0.00000E+00        -0.60917E+05
 
    0.25075E+07         0.66347E+04         0.00000E+00
    0.66347E+04        -0.26587E+07         0.00000E+00
    0.00000E+00         0.00000E+00        -0.30246E+05
 
    0.24750E+07         0.16932E+05         0.00000E+00
    0.16932E+05        -0.26579E+07         0.00000E+00
    0.00000E+00         0.00000E+00        -0.36588E+05
 
    0.24446E+07         0.24238E+05         0.00000E+00
    0.24238E+05        -0.26567E+07         0.00000E+00
    0.00000E+00         0.00000E+00        -0.42417E+05
 
    0.24165E+07         0.29010E+05         0.00000E+00
    0.29010E+05        -0.26552E+07         0.00000E+00
    0.00000E+00         0.00000E+00        -0.47736E+05
 
    0.23910E+07         0.31665E+05         0.00000E+00
    0.31665E+05        -0.26537E+07         0.00000E+00
    0.00000E+00         0.00000E+00        -0.52550E+05
 
    0.23679E+07         0.32572E+05         0.00000E+00
    0.32572E+05        -0.26522E+07         0.00000E+00
    0.00000E+00         0.00000E+00        -0.56870E+05
 
    0.23474E+07         0.32055E+05         0.00000E+00
    0.32055E+05        -0.26509E+07         0.00000E+00
    0.00000E+00         0.00000E+00        -0.60706E+05
 
    0.23293E+07         0.30394E+05         0.00000E+00
    0.30394E+05        -0.26497E+07         0.00000E+00
    0.00000E+00         0.00000E+00        -0.64071E+05
 
    0.23138E+07         0.27824E+05         0.00000E+00
    0.27824E+05        -0.26487E+07         0.00000E+00
    0.00000E+00         0.00000E+00        -0.66978E+05
 
    0.23007E+07         0.24546E+05         0.00000E+00
    0.24546E+05        -0.26479E+07         0.00000E+00
    0.00000E+00         0.00000E+00        -0.69442E+05
 
    0.22898E+07         0.20724E+05         0.00000E+00
    0.20724E+05        -0.26472E+07         0.00000E+00
    0.00000E+00         0.00000E+00        -0.71473E+05
 
    0.22813E+07         0.16495E+05         0.00000E+00
    0.16495E+05        -0.26467E+07         0.00000E+00
    0.00000E+00         0.00000E+00        -0.73083E+05
 
    0.22749E+07         0.11976E+05         0.00000E+00
    0.11976E+05        -0.26463E+07         0.00000E+00
    0.00000E+00         0.00000E+00        -0.74283E+05
 
    0.22707E+07         0.72600E+04         0.00000E+00
    0.72600E+04        -0.26461E+07         0.00000E+00
    0.00000E+00         0.00000E+00        -0.75078E+05
 
    0.22686E+07         0.24322E+04         0.00000E+00
    0.24322E+04        -0.26460E+07         0.00000E+00
    0.00000E+00         0.00000E+00        -0.75474E+05
 
    0.24914E+07         0.66763E+04         0.00000E+00
    0.66763E+04        -0.26948E+07         0.00000E+00
    0.00000E+00         0.00000E+00        -0.40682E+05
 
    0.24533E+07         0.16786E+05         0.00000E+00
    0.16786E+05        -0.26943E+07         0.00000E+00
    0.00000E+00         0.00000E+00        -0.48197E+05
 
    0.24182E+07         0.23717E+05         0.00000E+00
    0.23717E+05        -0.26936E+07         0.00000E+00
    0.00000E+00         0.00000E+00        -0.55066E+05
 
    0.23863E+07         0.28036E+05         0.00000E+00
    0.28036E+05        -0.26928E+07         0.00000E+00
    0.00000E+00         0.00000E+00        -0.61299E+05
 
    0.23576E+07         0.30241E+05         0.00000E+00
    0.30241E+05        -0.26921E+07         0.00000E+00
    0.00000E+00         0.00000E+00        -0.66910E+05
 
    0.23319E+07         0.30760E+05         0.00000E+00
    0.30760E+05        -0.26915E+07         0.00000E+00
    0.00000E+00         0.00000E+00        -0.71920E+05
 
    0.23094E+07         0.29956E+05         0.00000E+00
    0.29956E+05        -0.26911E+07         0.00000E+00
    0.00000E+00         0.00000E+00        -0.76349E+05
 
    0.22898E+07         0.28129E+05         0.00000E+00
    0.28129E+05        -0.26909E+07         0.00000E+00
    0.00000E+00         0.00000E+00        -0.80216E+05
 
    0.22731E+07         0.25526E+05         0.00000E+00
    0.25526E+05        -0.26908E+07         0.00000E+00
    0.00000E+00         0.00000E+00        -0.83545E+05
 
    0.22590E+07         0.22344E+05         0.00000E+00
    0.22344E+05        -0.26908E+07         0.00000E+00
    0.00000E+00         0.00000E+00        -0.86356E+05
 
    0.22475E+07         0.18740E+05         0.00000E+00
    0.18740E+05        -0.26909E+07         0.00000E+00
    0.00000E+00         0.00000E+00        -0.88667E+05
 
    0.22385E+07         0.14836E+05         0.00000E+00
    0.14836E+05        -0.26910E+07         0.00000E+00
    0.00000E+00         0.00000E+00        -0.90494E+05
 
    0.22318E+07         0.10726E+05         0.00000E+00
    0.10726E+05        -0.26911E+07         0.00000E+00
    0.00000E+00         0.00000E+00        -0.91852E+05
 
    0.22274E+07         0.64844E+04         0.00000E+00
    0.64844E+04        -0.26911E+07         0.00000E+00
    0.00000E+00         0.00000E+00        -0.92751E+05
 
    0.22252E+07         0.21693E+04         0.00000E+00
    0.21693E+04        -0.26912E+07         0.00000E+00
    0.00000E+00         0.00000E+00        -0.93199E+05
 
    0.24665E+07         0.64303E+04         0.00000E+00
    0.64303E+04        -0.27393E+07         0.00000E+00
    0.00000E+00         0.00000E+00        -0.54569E+05
 
    0.24224E+07         0.15854E+05         0.00000E+00
    0.15854E+05        -0.27392E+07         0.00000E+00
    0.00000E+00         0.00000E+00        -0.63355E+05
 
    0.23825E+07         0.22010E+05         0.00000E+00
    0.22010E+05        -0.27391E+07         0.00000E+00
    0.00000E+00         0.00000E+00        -0.71336E+05
 
    0.23466E+07         0.25579E+05         0.00000E+00
    0.25579E+05        -0.27393E+07         0.00000E+00
    0.00000E+00         0.00000E+00        -0.78536E+05
 
    0.23148E+07         0.27139E+05         0.00000E+00
    0.27139E+05        -0.27397E+07         0.00000E+00
    0.00000E+00         0.00000E+00        -0.84983E+05
 
    0.22868E+07         0.27168E+05         0.00000E+00
    0.27168E+05        -0.27403E+07         0.00000E+00
    0.00000E+00         0.00000E+00        -0.90707E+05
 
    0.22624E+07         0.26059E+05         0.00000E+00
    0.26059E+05        -0.27411E+07         0.00000E+00
    0.00000E+00         0.00000E+00        -0.95742E+05
 
    0.22415E+07         0.24123E+05         0.00000E+00
    0.24123E+05        -0.27420E+07         0.00000E+00
    0.00000E+00         0.00000E+00        -0.10012E+06
 
    0.22237E+07         0.21605E+05         0.00000E+00
    0.21605E+05        -0.27431E+07         0.00000E+00
    0.00000E+00         0.00000E+00        -0.10387E+06
 
    0.22089E+07         0.18690E+05         0.00000E+00
    0.18690E+05        -0.27441E+07         0.00000E+00
    0.00000E+00         0.00000E+00        -0.10702E+06
 
    0.21970E+07         0.15515E+05         0.00000E+00
    0.15515E+05        -0.27450E+07         0.00000E+00
    0.00000E+00         0.00000E+00        -0.10961E+06
 
    0.21876E+07         0.12179E+05         0.00000E+00
    0.12179E+05        -0.27458E+07         0.00000E+00
    0.00000E+00         0.00000E+00        -0.11165E+06
 
    0.21807E+07         0.87479E+04         0.00000E+00
    0.87479E+04        -0.27465E+07         0.00000E+00
    0.00000E+00         0.00000E+00        -0.11316E+06
 
    0.21762E+07         0.52649E+04         0.00000E+00
    0.52649E+04        -0.27470E+07         0.00000E+00
    0.00000E+00         0.00000E+00        -0.11416E+06
 
    0.21739E+07         0.17574E+04         0.00000E+00
    0.17574E+04        -0.27472E+07         0.00000E+00
    0.00000E+00         0.00000E+00        -0.11466E+06
 
    0.24297E+07         0.58126E+04         0.00000E+00
    0.58126E+04        -0.27940E+07         0.00000E+00
    0.00000E+00         0.00000E+00        -0.72856E+05
 
    0.23795E+07         0.13930E+05         0.00000E+00
    0.13930E+05        -0.27944E+07         0.00000E+00
    0.00000E+00         0.00000E+00        -0.82974E+05
 
    0.23347E+07         0.18838E+05         0.00000E+00
    0.18838E+05        -0.27953E+07         0.00000E+00
    0.00000E+00         0.00000E+00        -0.92106E+05
 
    0.22951E+07         0.21325E+05         0.00000E+00
    0.21325E+05        -0.27966E+07         0.00000E+00
    0.00000E+00         0.00000E+00        -0.10029E+06
 
    0.22605E+07         0.22036E+05         0.00000E+00
    0.22036E+05        -0.27983E+07         0.00000E+00
    0.00000E+00         0.00000E+00        -0.10758E+06
 
    0.22303E+07         0.21487E+05         0.00000E+00
    0.21487E+05        -0.28004E+07         0.00000E+00
    0.00000E+00         0.00000E+00        -0.11401E+06
 
    0.22045E+07         0.20081E+05         0.00000E+00
    0.20081E+05        -0.28026E+07         0.00000E+00
    0.00000E+00         0.00000E+00        -0.11963E+06
 
    0.21825E+07         0.18126E+05         0.00000E+00
    0.18126E+05        -0.28050E+07         0.00000E+00
    0.00000E+00         0.00000E+00        -0.12450E+06
 
    0.21640E+07         0.15849E+05         0.00000E+00
    0.15849E+05        -0.28073E+07         0.00000E+00
    0.00000E+00         0.00000E+00        -0.12865E+06
 
    0.21488E+07         0.13409E+05         0.00000E+00
    0.13409E+05        -0.28094E+07         0.00000E+00
    0.00000E+00         0.00000E+00        -0.13212E+06
 
    0.21366E+07         0.10912E+05         0.00000E+00
    0.10912E+05        -0.28114E+07         0.00000E+00
    0.00000E+00         0.00000E+00        -0.13496E+06
 
    0.21271E+07         0.84222E+04         0.00000E+00
    0.84222E+04        -0.28130E+07         0.00000E+00
    0.00000E+00         0.00000E+00        -0.13719E+06
 
    0.21201E+07         0.59694E+04         0.00000E+00
    0.59694E+04        -0.28143E+07         0.00000E+00
    0.00000E+00         0.00000E+00        -0.13884E+06
 
    0.21156E+07         0.35598E+04         0.00000E+00
    0.35598E+04        -0.28152E+07         0.00000E+00
    0.00000E+00         0.00000E+00        -0.13993E+06
 
    0.21133E+07         0.11827E+04         0.00000E+00
    0.11827E+04        -0.28157E+07         0.00000E+00
    0.00000E+00         0.00000E+00        -0.14047E+06
 
    0.23778E+07         0.47352E+04         0.00000E+00
    0.47352E+04        -0.28612E+07         0.00000E+00
    0.00000E+00         0.00000E+00        -0.96679E+05
 
    0.23216E+07         0.10811E+05         0.00000E+00
    0.10811E+05        -0.28622E+07         0.00000E+00
    0.00000E+00         0.00000E+00        -0.10813E+06
 
    0.22722E+07         0.13938E+05         0.00000E+00
    0.13938E+05        -0.28642E+07         0.00000E+00
    0.00000E+00         0.00000E+00        -0.11840E+06
 
    0.22292E+07         0.14994E+05         0.00000E+00
    0.14994E+05        -0.28669E+07         0.00000E+00
    0.00000E+00         0.00000E+00        -0.12754E+06
 
    0.21921E+07         0.14665E+05         0.00000E+00
    0.14665E+05        -0.28702E+07         0.00000E+00
    0.00000E+00         0.00000E+00        -0.13561E+06
 
    0.21604E+07         0.13478E+05         0.00000E+00
    0.13478E+05        -0.28739E+07         0.00000E+00
    0.00000E+00         0.00000E+00        -0.14270E+06
 
    0.21335E+07         0.11823E+05         0.00000E+00
    0.11823E+05        -0.28778E+07         0.00000E+00
    0.00000E+00         0.00000E+00        -0.14886E+06
 
    0.21109E+07         0.99796E+04         0.00000E+00
    0.99796E+04        -0.28816E+07         0.00000E+00
    0.00000E+00         0.00000E+00        -0.15415E+06
 
    0.20921E+07         0.81368E+04         0.00000E+00
    0.81368E+04        -0.28854E+07         0.00000E+00
    0.00000E+00         0.00000E+00        -0.15865E+06
 
    0.20768E+07         0.64127E+04         0.00000E+00
    0.64127E+04        -0.28888E+07         0.00000E+00
    0.00000E+00         0.00000E+00        -0.16240E+06
 
    0.20646E+07         0.48691E+04         0.00000E+00
    0.48691E+04        -0.28918E+07         0.00000E+00
    0.00000E+00         0.00000E+00        -0.16544E+06
 
    0.20552E+07         0.35249E+04         0.00000E+00
    0.35249E+04        -0.28943E+07         0.00000E+00
    0.00000E+00         0.00000E+00        -0.16783E+06
 
    0.20483E+07         0.23663E+04         0.00000E+00
    0.23663E+04        -0.28963E+07         0.00000E+00
    0.00000E+00         0.00000E+00        -0.16959E+06
 
    0.20438E+07         0.13562E+04         0.00000E+00
    0.13562E+04        -0.28976E+07         0.00000E+00
    0.00000E+00         0.00000E+00        -0.17075E+06
 
    0.20416E+07         0.44115E+03         0.00000E+00
    0.44115E+03        -0.28983E+07         0.00000E+00
    0.00000E+00         0.00000E+00        -0.17133E+06
 
    0.23065E+07         0.31141E+04         0.00000E+00
    0.31141E+04        -0.29434E+07         0.00000E+00
    0.00000E+00         0.00000E+00        -0.12737E+06
 
    0.22448E+07         0.63192E+04         0.00000E+00
    0.63192E+04        -0.29451E+07         0.00000E+00
    0.00000E+00         0.00000E+00        -0.14008E+06
 
    0.21915E+07         0.71048E+04         0.00000E+00
    0.71048E+04        -0.29484E+07         0.00000E+00
    0.00000E+00         0.00000E+00        -0.15138E+06
 
    0.21459E+07         0.63937E+04         0.00000E+00
    0.63937E+04        -0.29527E+07         0.00000E+00
    0.00000E+00         0.00000E+00        -0.16136E+06
 
    0.21071E+07         0.48733E+04         0.00000E+00
    0.48733E+04        -0.29577E+07         0.00000E+00
    0.00000E+00         0.00000E+00        -0.17012E+06
 
    0.20744E+07         0.30387E+04         0.00000E+00
    0.30387E+04        -0.29631E+07         0.00000E+00
    0.00000E+00         0.00000E+00        -0.17775E+06
 
    0.20470E+07         0.12313E+04         0.00000E+00
    0.12313E+04        -0.29687E+07         0.00000E+00
    0.00000E+00         0.00000E+00        -0.18433E+06
 
    0.20244E+07        -0.32724E+03         0.00000E+00
   -0.32724E+03        -0.29742E+07         0.00000E+00
    0.00000E+00         0.00000E+00        -0.18996E+06
 
    0.20058E+07        -0.15083E+04         0.00000E+00
   -0.15083E+04        -0.29793E+07         0.00000E+00
    0.00000E+00         0.00000E+00        -0.19471E+06
 
    0.19908E+07        -0.22539E+04         0.00000E+00
   -0.22539E+04        -0.29840E+07         0.00000E+00
    0.00000E+00         0.00000E+00        -0.19864E+06
 
    0.19789E+07        -0.25590E+04         0.00000E+00
   -0.25590E+04        -0.29880E+07         0.00000E+00
    0.00000E+00         0.00000E+00        -0.20182E+06
 
    0.19698E+07        -0.24586E+04         0.00000E+00
   -0.24586E+04        -0.29913E+07         0.00000E+00
    0.00000E+00         0.00000E+00        -0.20431E+06
 
    0.19632E+07        -0.20163E+04         0.00000E+00
   -0.20163E+04        -0.29939E+07         0.00000E+00
    0.00000E+00         0.00000E+00        -0.20613E+06
 
    0.19590E+07        -0.13164E+04         0.00000E+00
   -0.13164E+04        -0.29956E+07         0.00000E+00
    0.00000E+00         0.00000E+00        -0.20733E+06
 
    0.19569E+07        -0.45683E+03         0.00000E+00
   -0.45683E+03        -0.29965E+07         0.00000E+00
    0.00000E+00         0.00000E+00        -0.20793E+06
 
    0.22113E+07         0.88209E+03         0.00000E+00
    0.88209E+03        -0.30434E+07         0.00000E+00
    0.00000E+00         0.00000E+00        -0.16642E+06
 
    0.21451E+07         0.34077E+03         0.00000E+00
    0.34077E+03        -0.30461E+07         0.00000E+00
    0.00000E+00         0.00000E+00        -0.18019E+06
 
    0.20890E+07        -0.17549E+04         0.00000E+00
   -0.17549E+04        -0.30506E+07         0.00000E+00
    0.00000E+00         0.00000E+00        -0.19233E+06
 
    0.20418E+07        -0.45075E+04         0.00000E+00
   -0.45075E+04        -0.30566E+07         0.00000E+00
    0.00000E+00         0.00000E+00        -0.20296E+06
 
    0.20023E+07        -0.72971E+04         0.00000E+00
   -0.72971E+04        -0.30633E+07         0.00000E+00
    0.00000E+00         0.00000E+00        -0.21220E+06
 
    0.19696E+07        -0.97171E+04         0.00000E+00
   -0.97171E+04        -0.30705E+07         0.00000E+00
    0.00000E+00         0.00000E+00        -0.22019E+06
 
    0.19425E+07        -0.11521E+05         0.00000E+00
   -0.11521E+05        -0.30777E+07         0.00000E+00
    0.00000E+00         0.00000E+00        -0.22702E+06
 
    0.19204E+07        -0.12581E+05         0.00000E+00
   -0.12581E+05        -0.30846E+07         0.00000E+00
    0.00000E+00         0.00000E+00        -0.23282E+06
 
    0.19026E+07        -0.12853E+05         0.00000E+00
   -0.12853E+05        -0.30909E+07         0.00000E+00
    0.00000E+00         0.00000E+00        -0.23768E+06
 
    0.18883E+07        -0.12357E+05         0.00000E+00
   -0.12357E+05        -0.30967E+07         0.00000E+00
    0.00000E+00         0.00000E+00        -0.24168E+06
 
    0.18771E+07        -0.11156E+05         0.00000E+00
   -0.11156E+05        -0.31016E+07         0.00000E+00
    0.00000E+00         0.00000E+00        -0.24490E+06
 
    0.18686E+07        -0.93448E+04         0.00000E+00
   -0.93448E+04        -0.31056E+07         0.00000E+00
    0.00000E+00         0.00000E+00        -0.24740E+06
 
    0.18626E+07        -0.70391E+04         0.00000E+00
   -0.70391E+04        -0.31087E+07         0.00000E+00
    0.00000E+00         0.00000E+00        -0.24923E+06
 
    0.18586E+07        -0.43710E+04         0.00000E+00
   -0.43710E+04        -0.31108E+07         0.00000E+00
    0.00000E+00         0.00000E+00        -0.25042E+06
 
    0.18567E+07        -0.14817E+04         0.00000E+00
   -0.14817E+04        -0.31118E+07         0.00000E+00
    0.00000E+00         0.00000E+00        -0.25102E+06
 
    0.20871E+07        -0.19906E+04         0.00000E+00
   -0.19906E+04        -0.31647E+07         0.00000E+00
    0.00000E+00         0.00000E+00        -0.21550E+06
 
    0.20182E+07        -0.71169E+04         0.00000E+00
   -0.71169E+04        -0.31681E+07         0.00000E+00
    0.00000E+00         0.00000E+00        -0.22999E+06
 
    0.19609E+07        -0.12532E+05         0.00000E+00
   -0.12532E+05        -0.31740E+07         0.00000E+00
    0.00000E+00         0.00000E+00        -0.24262E+06
 
    0.19136E+07        -0.17478E+05         0.00000E+00
   -0.17478E+05        -0.31815E+07         0.00000E+00
    0.00000E+00         0.00000E+00        -0.25357E+06
 
    0.18747E+07        -0.21499E+05         0.00000E+00
   -0.21499E+05        -0.31897E+07         0.00000E+00
    0.00000E+00         0.00000E+00        -0.26300E+06
 
    0.18430E+07        -0.24351E+05         0.00000E+00
   -0.24351E+05        -0.31983E+07         0.00000E+00
    0.00000E+00         0.00000E+00        -0.27107E+06
 
    0.18172E+07        -0.25937E+05         0.00000E+00
   -0.25937E+05        -0.32067E+07         0.00000E+00
    0.00000E+00         0.00000E+00        -0.27791E+06
 
    0.17964E+07        -0.26260E+05         0.00000E+00
   -0.26260E+05        -0.32147E+07         0.00000E+00
    0.00000E+00         0.00000E+00        -0.28366E+06
 
    0.17798E+07        -0.25384E+05         0.00000E+00
   -0.25384E+05        -0.32219E+07         0.00000E+00
    0.00000E+00         0.00000E+00        -0.28843E+06
 
    0.17667E+07        -0.23418E+05         0.00000E+00
   -0.23418E+05        -0.32283E+07         0.00000E+00
    0.00000E+00         0.00000E+00        -0.29233E+06
 
    0.17566E+07        -0.20501E+05         0.00000E+00
   -0.20501E+05        -0.32338E+07         0.00000E+00
    0.00000E+00         0.00000E+00        -0.29544E+06
 
    0.17490E+07        -0.16787E+05         0.00000E+00
   -0.16787E+05        -0.32382E+07         0.00000E+00
    0.00000E+00         0.00000E+00        -0.29785E+06
 
    0.17436E+07        -0.12445E+05         0.00000E+00
   -0.12445E+05        -0.32416E+07         0.00000E+00
    0.00000E+00         0.00000E+00        -0.29960E+06
 
    0.17401E+07        -0.76492E+04         0.00000E+00
   -0.76492E+04        -0.32438E+07         0.00000E+00
    0.00000E+00         0.00000E+00        -0.30074E+06
 
    0.17384E+07        -0.25802E+04         0.00000E+00
   -0.25802E+04        -0.32450E+07         0.00000E+00
    0.00000E+00         0.00000E+00        -0.30131E+06
 
    0.19288E+07        -0.54641E+04         0.00000E+00
   -0.54641E+04        -0.33105E+07         0.00000E+00
    0.00000E+00         0.00000E+00        -0.27634E+06
 
    0.18597E+07        -0.15839E+05         0.00000E+00
   -0.15839E+05        -0.33147E+07         0.00000E+00
    0.00000E+00         0.00000E+00        -0.29099E+06
 
    0.18035E+07        -0.24797E+05         0.00000E+00
   -0.24797E+05        -0.33216E+07         0.00000E+00
    0.00000E+00         0.00000E+00        -0.30362E+06
 
    0.17580E+07        -0.31887E+05         0.00000E+00
   -0.31887E+05        -0.33301E+07         0.00000E+00
    0.00000E+00         0.00000E+00        -0.31443E+06
 
    0.17212E+07        -0.36946E+05         0.00000E+00
   -0.36946E+05        -0.33394E+07         0.00000E+00
    0.00000E+00         0.00000E+00        -0.32363E+06
 
    0.16917E+07        -0.39979E+05         0.00000E+00
   -0.39979E+05        -0.33487E+07         0.00000E+00
    0.00000E+00         0.00000E+00        -0.33139E+06
 
    0.16681E+07        -0.41094E+05         0.00000E+00
   -0.41094E+05        -0.33576E+07         0.00000E+00
    0.00000E+00         0.00000E+00        -0.33791E+06
 
    0.16494E+07        -0.40450E+05         0.00000E+00
   -0.40450E+05        -0.33659E+07         0.00000E+00
    0.00000E+00         0.00000E+00        -0.34332E+06
 
    0.16346E+07        -0.38237E+05         0.00000E+00
   -0.38237E+05        -0.33734E+07         0.00000E+00
    0.00000E+00         0.00000E+00        -0.34775E+06
 
    0.16232E+07        -0.34658E+05         0.00000E+00
   -0.34658E+05        -0.33799E+07         0.00000E+00
    0.00000E+00         0.00000E+00        -0.35134E+06
 
    0.16145E+07        -0.29923E+05         0.00000E+00
   -0.29923E+05        -0.33854E+07         0.00000E+00
    0.00000E+00         0.00000E+00        -0.35418E+06
 
    0.16080E+07        -0.24245E+05         0.00000E+00
   -0.24245E+05        -0.33898E+07         0.00000E+00
    0.00000E+00         0.00000E+00        -0.35635E+06
 
    0.16035E+07        -0.17837E+05         0.00000E+00
   -0.17837E+05        -0.33931E+07         0.00000E+00
    0.00000E+00         0.00000E+00        -0.35792E+06
 
    0.16006E+07        -0.10910E+05         0.00000E+00
   -0.10910E+05        -0.33953E+07         0.00000E+00
    0.00000E+00         0.00000E+00        -0.35894E+06
 
    0.15991E+07        -0.36711E+04         0.00000E+00
   -0.36711E+04        -0.33964E+07         0.00000E+00
    0.00000E+00         0.00000E+00        -0.35945E+06
 
    0.17314E+07        -0.93768E+04         0.00000E+00
   -0.93768E+04        -0.34843E+07         0.00000E+00
    0.00000E+00         0.00000E+00        -0.35057E+06
 
    0.16658E+07        -0.25272E+05         0.00000E+00
   -0.25272E+05        -0.34889E+07         0.00000E+00
    0.00000E+00         0.00000E+00        -0.36463E+06
 
    0.16135E+07        -0.37627E+05         0.00000E+00
   -0.37627E+05        -0.34963E+07         0.00000E+00
    0.00000E+00         0.00000E+00        -0.37655E+06
 
    0.15720E+07        -0.46533E+05         0.00000E+00
   -0.46533E+05        -0.35050E+07         0.00000E+00
    0.00000E+00         0.00000E+00        -0.38661E+06
 
    0.15390E+07        -0.52261E+05         0.00000E+00
   -0.52261E+05        -0.35142E+07         0.00000E+00
    0.00000E+00         0.00000E+00        -0.39503E+06
 
    0.15130E+07        -0.55152E+05         0.00000E+00
   -0.55152E+05        -0.35231E+07         0.00000E+00
    0.00000E+00         0.00000E+00        -0.40203E+06
 
    0.14925E+07        -0.55548E+05         0.00000E+00
   -0.55548E+05        -0.35315E+07         0.00000E+00
    0.00000E+00         0.00000E+00        -0.40780E+06
 
    0.14765E+07        -0.53778E+05         0.00000E+00
   -0.53778E+05        -0.35391E+07         0.00000E+00
    0.00000E+00         0.00000E+00        -0.41252E+06
 
    0.14642E+07        -0.50151E+05         0.00000E+00
   -0.50151E+05        -0.35458E+07         0.00000E+00
    0.00000E+00         0.00000E+00        -0.41632E+06
 
    0.14548E+07        -0.44959E+05         0.00000E+00
   -0.44959E+05        -0.35515E+07         0.00000E+00
    0.00000E+00         0.00000E+00        -0.41935E+06
 
    0.14477E+07        -0.38478E+05         0.00000E+00
   -0.38478E+05        -0.35562E+07         0.00000E+00
    0.00000E+00         0.00000E+00        -0.42170E+06
 
    0.14426E+07        -0.30966E+05         0.00000E+00
   -0.30966E+05        -0.35600E+07         0.00000E+00
    0.00000E+00         0.00000E+00        -0.42348E+06
 
    0.14390E+07        -0.22669E+05         0.00000E+00
   -0.22669E+05        -0.35628E+07         0.00000E+00
    0.00000E+00         0.00000E+00        -0.42475E+06
 
    0.14368E+07        -0.13819E+05         0.00000E+00
   -0.13819E+05        -0.35646E+07         0.00000E+00
    0.00000E+00         0.00000E+00        -0.42557E+06
 
    0.14357E+07        -0.46426E+04         0.00000E+00
   -0.46426E+04        -0.35655E+07         0.00000E+00
    0.00000E+00         0.00000E+00        -0.42597E+06
 
    0.14915E+07        -0.13360E+05         0.00000E+00
   -0.13360E+05        -0.36893E+07         0.00000E+00
    0.00000E+00         0.00000E+00        -0.43955E+06
 
    0.14338E+07        -0.34333E+05         0.00000E+00
   -0.34333E+05        -0.36937E+07         0.00000E+00
    0.00000E+00         0.00000E+00        -0.45198E+06
 
    0.13887E+07        -0.49392E+05         0.00000E+00
   -0.49392E+05        -0.37004E+07         0.00000E+00
    0.00000E+00         0.00000E+00        -0.46232E+06
 
    0.13535E+07        -0.59446E+05         0.00000E+00
   -0.59446E+05        -0.37078E+07         0.00000E+00
    0.00000E+00         0.00000E+00        -0.47087E+06
 
    0.13259E+07        -0.65339E+05         0.00000E+00
   -0.65339E+05        -0.37152E+07         0.00000E+00
    0.00000E+00         0.00000E+00        -0.47787E+06
 
    0.13045E+07        -0.67763E+05         0.00000E+00
   -0.67763E+05        -0.37222E+07         0.00000E+00
    0.00000E+00         0.00000E+00        -0.48355E+06
 
    0.12879E+07        -0.67282E+05         0.00000E+00
   -0.67282E+05        -0.37285E+07         0.00000E+00
    0.00000E+00         0.00000E+00        -0.48811E+06
 
    0.12753E+07        -0.64369E+05         0.00000E+00
   -0.64369E+05        -0.37339E+07         0.00000E+00
    0.00000E+00         0.00000E+00        -0.49172E+06
 
    0.12658E+07        -0.59436E+05         0.00000E+00
   -0.59436E+05        -0.37385E+07         0.00000E+00
    0.00000E+00         0.00000E+00        -0.49455E+06
 
    0.12587E+07        -0.52849E+05         0.00000E+00
   -0.52849E+05        -0.37423E+07         0.00000E+00
    0.00000E+00         0.00000E+00        -0.49673E+06
 
    0.12535E+07        -0.44929E+05         0.00000E+00
   -0.44929E+05        -0.37453E+07         0.00000E+00
    0.00000E+00         0.00000E+00        -0.49837E+06
 
    0.12497E+07        -0.35969E+05         0.00000E+00
   -0.35969E+05        -0.37476E+07         0.00000E+00
    0.00000E+00         0.00000E+00        -0.49957E+06
 
    0.12472E+07        -0.26229E+05         0.00000E+00
   -0.26229E+05        -0.37492E+07         0.00000E+00
    0.00000E+00         0.00000E+00        -0.50041E+06
 
    0.12456E+07        -0.15949E+05         0.00000E+00
   -0.15949E+05        -0.37503E+07         0.00000E+00
    0.00000E+00         0.00000E+00        -0.50093E+06
 
    0.12449E+07        -0.53511E+04         0.00000E+00
   -0.53511E+04        -0.37508E+07         0.00000E+00
    0.00000E+00         0.00000E+00        -0.50119E+06
 
    0.12080E+07        -0.16686E+05         0.00000E+00
   -0.16686E+05        -0.39275E+07         0.00000E+00
    0.00000E+00         0.00000E+00        -0.54390E+06
 
    0.11632E+07        -0.41121E+05         0.00000E+00
   -0.41121E+05        -0.39306E+07         0.00000E+00
    0.00000E+00         0.00000E+00        -0.55348E+06
 
    0.11285E+07        -0.57474E+05         0.00000E+00
   -0.57474E+05        -0.39347E+07         0.00000E+00
    0.00000E+00         0.00000E+00        -0.56123E+06
 
    0.11014E+07        -0.67752E+05         0.00000E+00
   -0.67752E+05        -0.39387E+07         0.00000E+00
    0.00000E+00         0.00000E+00        -0.56744E+06
 
    0.10805E+07        -0.73300E+05         0.00000E+00
   -0.73300E+05        -0.39422E+07         0.00000E+00
    0.00000E+00         0.00000E+00        -0.57233E+06
 
    0.10646E+07        -0.75048E+05         0.00000E+00
   -0.75048E+05        -0.39451E+07         0.00000E+00
    0.00000E+00         0.00000E+00        -0.57610E+06
 
    0.10526E+07        -0.73705E+05         0.00000E+00
   -0.73705E+05        -0.39473E+07         0.00000E+00
    0.00000E+00         0.00000E+00        -0.57894E+06
 
    0.10436E+07        -0.69848E+05         0.00000E+00
   -0.69848E+05        -0.39488E+07         0.00000E+00
    0.00000E+00         0.00000E+00        -0.58102E+06
 
    0.10371E+07        -0.63969E+05         0.00000E+00
   -0.63969E+05        -0.39496E+07         0.00000E+00
    0.00000E+00         0.00000E+00        -0.58250E+06
 
    0.10324E+07        -0.56482E+05         0.00000E+00
   -0.56482E+05        -0.39500E+07         0.00000E+00
    0.00000E+00         0.00000E+00        -0.58353E+06
 
    0.10291E+07        -0.47739E+05         0.00000E+00
   -0.47739E+05        -0.39501E+07         0.00000E+00
    0.00000E+00         0.00000E+00        -0.58421E+06
 
    0.10268E+07        -0.38041E+05         0.00000E+00
   -0.38041E+05        -0.39500E+07         0.00000E+00
    0.00000E+00         0.00000E+00        -0.58464E+06
 
    0.10253E+07        -0.27643E+05         0.00000E+00
   -0.27643E+05        -0.39498E+07         0.00000E+00
    0.00000E+00         0.00000E+00        -0.58491E+06
 
    0.10243E+07        -0.16770E+05         0.00000E+00
   -0.16770E+05        -0.39496E+07         0.00000E+00
    0.00000E+00         0.00000E+00        -0.58505E+06
 
    0.10239E+07        -0.56201E+04         0.00000E+00
   -0.56201E+04        -0.39495E+07         0.00000E+00
    0.00000E+00         0.00000E+00        -0.58512E+06
 
    0.88482E+06        -0.17995E+05         0.00000E+00
   -0.17995E+05        -0.41996E+07         0.00000E+00
    0.00000E+00         0.00000E+00        -0.66295E+06
 
    0.85722E+06        -0.42455E+05         0.00000E+00
   -0.42455E+05        -0.41991E+07         0.00000E+00
    0.00000E+00         0.00000E+00        -0.66838E+06
 
    0.83463E+06        -0.58217E+05         0.00000E+00
   -0.58217E+05        -0.41979E+07         0.00000E+00
    0.00000E+00         0.00000E+00        -0.67265E+06
 
    0.81677E+06        -0.67810E+05         0.00000E+00
   -0.67810E+05        -0.41958E+07         0.00000E+00
    0.00000E+00         0.00000E+00        -0.67581E+06
 
    0.80317E+06        -0.72621E+05         0.00000E+00
   -0.72621E+05        -0.41929E+07         0.00000E+00
    0.00000E+00         0.00000E+00        -0.67795E+06
 
    0.79309E+06        -0.73635E+05         0.00000E+00
   -0.73635E+05        -0.41892E+07         0.00000E+00
    0.00000E+00         0.00000E+00        -0.67923E+06
 
    0.78580E+06        -0.71643E+05         0.00000E+00
   -0.71643E+05        -0.41850E+07         0.00000E+00
    0.00000E+00         0.00000E+00        -0.67983E+06
 
    0.78063E+06        -0.67303E+05         0.00000E+00
   -0.67303E+05        -0.41803E+07         0.00000E+00
    0.00000E+00         0.00000E+00        -0.67993E+06
 
    0.77702E+06        -0.61151E+05         0.00000E+00
   -0.61151E+05        -0.41755E+07         0.00000E+00
    0.00000E+00         0.00000E+00        -0.67970E+06
 
    0.77456E+06        -0.53620E+05         0.00000E+00
   -0.53620E+05        -0.41709E+07         0.00000E+00
    0.00000E+00         0.00000E+00        -0.67927E+06
 
    0.77291E+06        -0.45057E+05         0.00000E+00
   -0.45057E+05        -0.41667E+07         0.00000E+00
    0.00000E+00         0.00000E+00        -0.67875E+06
 
    0.77184E+06        -0.35736E+05         0.00000E+00
   -0.35736E+05        -0.41630E+07         0.00000E+00
    0.00000E+00         0.00000E+00        -0.67823E+06
 
    0.77118E+06        -0.25877E+05         0.00000E+00
   -0.25877E+05        -0.41601E+07         0.00000E+00
    0.00000E+00         0.00000E+00        -0.67779E+06
 
    0.77080E+06        -0.15662E+05         0.00000E+00
   -0.15662E+05        -0.41581E+07         0.00000E+00
    0.00000E+00         0.00000E+00        -0.67747E+06
 
    0.77063E+06        -0.52426E+04         0.00000E+00
   -0.52426E+04        -0.41571E+07         0.00000E+00
    0.00000E+00         0.00000E+00        -0.67730E+06
 
    0.53389E+06        -0.14337E+05         0.00000E+00
   -0.14337E+05        -0.45014E+07         0.00000E+00
    0.00000E+00         0.00000E+00        -0.79350E+06
 
    0.52305E+06        -0.34496E+05         0.00000E+00
   -0.34496E+05        -0.44956E+07         0.00000E+00
    0.00000E+00         0.00000E+00        -0.79452E+06
 
    0.51205E+06        -0.47752E+05         0.00000E+00
   -0.47752E+05        -0.44870E+07         0.00000E+00
    0.00000E+00         0.00000E+00        -0.79498E+06
 
    0.50322E+06        -0.55564E+05         0.00000E+00
   -0.55564E+05        -0.44762E+07         0.00000E+00
    0.00000E+00         0.00000E+00        -0.79459E+06
 
    0.49675E+06        -0.59079E+05         0.00000E+00
   -0.59079E+05        -0.44638E+07         0.00000E+00
    0.00000E+00         0.00000E+00        -0.79340E+06
 
    0.49222E+06        -0.59310E+05         0.00000E+00
   -0.59310E+05        -0.44504E+07         0.00000E+00
    0.00000E+00         0.00000E+00        -0.79164E+06
 
    0.48916E+06        -0.57097E+05         0.00000E+00
   -0.57097E+05        -0.44367E+07         0.00000E+00
    0.00000E+00         0.00000E+00        -0.78951E+06
 
    0.48716E+06        -0.53096E+05         0.00000E+00
   -0.53096E+05        -0.44232E+07         0.00000E+00
    0.00000E+00         0.00000E+00        -0.78722E+06
 
    0.48589E+06        -0.47805E+05         0.00000E+00
   -0.47805E+05        -0.44105E+07         0.00000E+00
    0.00000E+00         0.00000E+00        -0.78492E+06
 
    0.48512E+06        -0.41589E+05         0.00000E+00
   -0.41589E+05        -0.43989E+07         0.00000E+00
    0.00000E+00         0.00000E+00        -0.78276E+06
 
    0.48468E+06        -0.34720E+05         0.00000E+00
   -0.34720E+05        -0.43888E+07         0.00000E+00
    0.00000E+00         0.00000E+00        -0.78083E+06
 
    0.48445E+06        -0.27395E+05         0.00000E+00
   -0.27395E+05        -0.43805E+07         0.00000E+00
    0.00000E+00         0.00000E+00        -0.77920E+06
 
    0.48435E+06        -0.19762E+05         0.00000E+00
   -0.19762E+05        -0.43740E+07         0.00000E+00
    0.00000E+00         0.00000E+00        -0.77794E+06
 
    0.48430E+06        -0.11930E+05         0.00000E+00
   -0.11930E+05        -0.43697E+07         0.00000E+00
    0.00000E+00         0.00000E+00        -0.77708E+06
 
    0.48429E+06        -0.39884E+04         0.00000E+00
   -0.39884E+04        -0.43675E+07         0.00000E+00
    0.00000E+00         0.00000E+00        -0.77664E+06
 
    0.17650E+06        -0.52993E+04         0.00000E+00
   -0.52993E+04        -0.48324E+07         0.00000E+00
    0.00000E+00         0.00000E+00        -0.93118E+06
 
    0.17476E+06        -0.15041E+05         0.00000E+00
   -0.15041E+05        -0.48212E+07         0.00000E+00
    0.00000E+00         0.00000E+00        -0.92928E+06
 
    0.17206E+06        -0.21521E+05         0.00000E+00
   -0.21521E+05        -0.48017E+07         0.00000E+00
    0.00000E+00         0.00000E+00        -0.92593E+06
 
    0.16990E+06        -0.24974E+05         0.00000E+00
   -0.24974E+05        -0.47772E+07         0.00000E+00
    0.00000E+00         0.00000E+00        -0.92145E+06
 
    0.16843E+06        -0.26203E+05         0.00000E+00
   -0.26203E+05        -0.47500E+07         0.00000E+00
    0.00000E+00         0.00000E+00        -0.91632E+06
 
    0.16749E+06        -0.25901E+05         0.00000E+00
   -0.25901E+05        -0.47221E+07         0.00000E+00
    0.00000E+00         0.00000E+00        -0.91093E+06
 
    0.16692E+06        -0.24571E+05         0.00000E+00
   -0.24571E+05        -0.46949E+07         0.00000E+00
    0.00000E+00         0.00000E+00        -0.90560E+06
 
    0.16661E+06        -0.22557E+05         0.00000E+00
   -0.22557E+05        -0.46694E+07         0.00000E+00
    0.00000E+00         0.00000E+00        -0.90055E+06
 
    0.16645E+06        -0.20088E+05         0.00000E+00
   -0.20088E+05        -0.46461E+07         0.00000E+00
    0.00000E+00         0.00000E+00        -0.89592E+06
 
    0.16640E+06        -0.17320E+05         0.00000E+00
   -0.17320E+05        -0.46255E+07         0.00000E+00
    0.00000E+00         0.00000E+00        -0.89182E+06
 
    0.16641E+06        -0.14355E+05         0.00000E+00
   -0.14355E+05        -0.46081E+07         0.00000E+00
    0.00000E+00         0.00000E+00        -0.88833E+06
 
    0.16645E+06        -0.11264E+05         0.00000E+00
   -0.11264E+05        -0.45939E+07         0.00000E+00
    0.00000E+00         0.00000E+00        -0.88549E+06
 
    0.16649E+06        -0.80925E+04         0.00000E+00
   -0.80925E+04        -0.45832E+07         0.00000E+00
    0.00000E+00         0.00000E+00        -0.88333E+06
 
    0.16652E+06        -0.48725E+04         0.00000E+00
   -0.48725E+04        -0.45760E+07         0.00000E+00
    0.00000E+00         0.00000E+00        -0.88189E+06
 
    0.16654E+06        -0.16268E+04         0.00000E+00
   -0.16268E+04        -0.45723E+07         0.00000E+00
    0.00000E+00         0.00000E+00        -0.88116E+06
 
TENSORS stresstot double 
    0.53089E-01         0.36398E-03         0.00000E+00
    0.36398E-03        -0.50000E+07         0.00000E+00
    0.00000E+00         0.00000E+00        -0.25000E+07
 
    0.46781E-01         0.10401E-02         0.00000E+00
    0.10401E-02        -0.50000E+07         0.00000E+00
    0.00000E+00         0.00000E+00        -0.25000E+07
 
    0.39482E-01         0.16374E-02         0.00000E+00
    0.16374E-02        -0.50000E+07         0.00000E+00
    0.00000E+00         0.00000E+00        -0.25000E+07
 
    0.31400E-01         0.21387E-02         0.00000E+00
    0.21387E-02        -0.50000E+07         0.00000E+00
    0.00000E+00         0.00000E+00        -0.25000E+07
 
    0.22767E-01         0.25301E-02         0.00000E+00
    0.25301E-02        -0.50000E+07         0.00000E+00
    0.00000E+00         0.00000E+00        -0.25000E+07
 
    0.13829E-01         0.28019E-02         0.00000E+00
    0.28019E-02        -0.50000E+07         0.00000E+00
    0.00000E+00         0.00000E+00        -0.25000E+07
 
    0.48415E-02         0.29486E-02         0.00000E+00
    0.29486E-02        -0.50000E+07         0.00000E+00
    0.00000E+00         0.00000E+00        -0.25000E+07
 
   -0.39390E-02         0.29691E-02         0.00000E+00
    0.29691E-02        -0.50000E+07         0.00000E+00
    0.00000E+00         0.00000E+00        -0.25000E+07
 
   -0.12263E-01         0.28662E-02         0.00000E+00
    0.28662E-02        -0.50000E+07         0.00000E+00
    0.00000E+00         0.00000E+00        -0.25000E+07
 
   -0.19893E-01         0.26471E-02         0.00000E+00
    0.26471E-02        -0.50000E+07         0.00000E+00
    0.00000E+00         0.00000E+00        -0.25000E+07
 
   -0.26614E-01         0.23225E-02         0.00000E+00
    0.23225E-02        -0.50000E+07         0.00000E+00
    0.00000E+00         0.00000E+00        -0.25000E+07
 
   -0.32234E-01         0.19068E-02         0.00000E+00
    0.19068E-02        -0.50000E+07         0.00000E+00
    0.00000E+00         0.00000E+00        -0.25000E+07
 
   -0.36594E-01         0.14170E-02         0.00000E+00
    0.14170E-02        -0.50000E+07         0.00000E+00
    0.00000E+00         0.00000E+00        -0.25000E+07
 
   -0.39571E-01         0.87254E-03         0.00000E+00
    0.87254E-03        -0.50000E+07         0.00000E+00
    0.00000E+00         0.00000E+00        -0.25000E+07
 
   -0.41081E-01         0.29460E-03         0.00000E+00
    0.29460E-03        -0.50000E+07         0.00000E+00
    0.00000E+00         0.00000E+00        -0.25000E+07
 
    0.55476E-01         0.11124E-02         0.00000E+00
    0.11124E-02        -0.50000E+07         0.00000E+00
    0.00000E+00         0.00000E+00        -0.25000E+07
 
    0.48936E-01         0.31786E-02         0.00000E+00
    0.31786E-02        -0.50000E+07         0.00000E+00
    0.00000E+00         0.00000E+00        -0.25000E+07
 
    0.41341E-01         0.50041E-02         0.00000E+00
    0.50041E-02        -0.50000E+07         0.00000E+00
    0.00000E+00         0.00000E+00        -0.25000E+07
 
    0.32910E-01         0.65357E-02         0.00000E+00
    0.65357E-02        -0.50000E+07         0.00000E+00
    0.00000E+00         0.00000E+00        -0.25000E+07
 
    0.23888E-01         0.77315E-02         0.00000E+00
    0.77315E-02        -0.50000E+07         0.00000E+00
    0.00000E+00         0.00000E+00        -0.25000E+07
 
    0.14536E-01         0.85618E-02         0.00000E+00
    0.85618E-02        -0.50000E+07         0.00000E+00
    0.00000E+00         0.00000E+00        -0.25000E+07
 
    0.51234E-02         0.90099E-02         0.00000E+00
    0.90099E-02        -0.50000E+07         0.00000E+00
    0.00000E+00         0.00000E+00        -0.25000E+07
 
   -0.40797E-02         0.90721E-02         0.00000E+00
    0.90721E-02        -0.50000E+07         0.00000E+00
    0.00000E+00         0.00000E+00        -0.25000E+07
 
   -0.12809E-01         0.87574E-02         0.00000E+00
    0.87574E-02        -0.50000E+07         0.00000E+00
    0.00000E+00         0.00000E+00        -0.25000E+07
 
   -0.20814E-01         0.80876E-02         0.00000E+00
    0.80876E-02        -0.50000E+07         0.00000E+00
    0.00000E+00         0.00000E+00        -0.25000E+07
 
   -0.27868E-01         0.70959E-02         0.00000E+00
    0.70959E-02        -0.50000E+07         0.00000E+00
    0.00000E+00         0.00000E+00        -0.25000E+07
 
   -0.33767E-01         0.58256E-02         0.00000E+00
    0.58256E-02        -0.50000E+07         0.00000E+00
    0.00000E+00         0.00000E+00        -0.25000E+07
 
   -0.38345E-01         0.43290E-02         0.00000E+00
    0.43290E-02        -0.50000E+07         0.00000E+00
    0.00000E+00         0.00000E+00        -0.25000E+07
 
   -0.41471E-01         0.26657E-02         0.00000E+00
    0.26657E-02        -0.50000E+07         0.00000E+00
    0.00000E+00         0.00000E+00        -0.25000E+07
 
   -0.43057E-01         0.90003E-03         0.00000E+00
    0.90003E-03        -0.50000E+07         0.00000E+00
    0.00000E+00         0.00000E+00        -0.25000E+07
 
    0.60385E-01         0.19232E-02         0.00000E+00
    0.19232E-02        -0.50000E+07         0.00000E+00
    0.00000E+00         0.00000E+00        -0.25000E+07
 
    0.53367E-01         0.54954E-02         0.00000E+00
    0.54954E-02        -0.50000E+07         0.00000E+00
    0.00000E+00         0.00000E+00        -0.25000E+07
 
    0.45162E-01         0.86509E-02         0.00000E+00
    0.86509E-02        -0.50000E+07         0.00000E+00
    0.00000E+00         0.00000E+00        -0.25000E+07
 
    0.36014E-01         0.11298E-01         0.00000E+00
    0.11298E-01        -0.50000E+07         0.00000E+00
    0.00000E+00         0.00000E+00        -0.25000E+07
 
    0.26193E-01         0.13364E-01         0.00000E+00
    0.13364E-01        -0.50000E+07         0.00000E+00
    0.00000E+00         0.00000E+00        -0.25000E+07
 
    0.15989E-01         0.14798E-01         0.00000E+00
    0.14798E-01        -0.50000E+07         0.00000E+00
    0.00000E+00         0.00000E+00        -0.25000E+07
 
    0.57016E-02         0.15571E-01         0.00000E+00
    0.15571E-01        -0.50000E+07         0.00000E+00
    0.00000E+00         0.00000E+00        -0.25000E+07
 
   -0.43700E-02         0.15678E-01         0.00000E+00
    0.15678E-01        -0.50000E+07         0.00000E+00
    0.00000E+00         0.00000E+00        -0.25000E+07
 
   -0.13932E-01         0.15133E-01         0.00000E+00
    0.15133E-01        -0.50000E+07         0.00000E+00
    0.00000E+00         0.00000E+00        -0.25000E+07
 
   -0.22709E-01         0.13974E-01         0.00000E+00
    0.13974E-01        -0.50000E+07         0.00000E+00
    0.00000E+00         0.00000E+00        -0.25000E+07
 
   -0.30445E-01         0.12260E-01         0.00000E+00
    0.12260E-01        -0.50000E+07         0.00000E+00
    0.00000E+00         0.00000E+00        -0.25000E+07
 
   -0.36919E-01         0.10065E-01         0.00000E+00
    0.10065E-01        -0.50000E+07         0.00000E+00
    0.00000E+00         0.00000E+00        -0.25000E+07
 
   -0.41944E-01         0.74790E-02         0.00000E+00
    0.74790E-02        -0.50000E+07         0.00000E+00
    0.00000E+00         0.00000E+00        -0.25000E+07
 
   -0.45377E-01         0.46052E-02         0.00000E+00
    0.46052E-02        -0.50000E+07         0.00000E+00
    0.00000E+00         0.00000E+00        -0.25000E+07
 
   -0.47118E-01         0.15549E-02         0.00000E+00
    0.15549E-02        -0.50000E+07         0.00000E+00
    0.00000E+00         0.00000E+00        -0.25000E+07
 
    0.68090E-01         0.28418E-02         0.00000E+00
    0.28418E-02        -0.50000E+07         0.00000E+00
    0.00000E+00         0.00000E+00        -0.25000E+07
 
    0.60322E-01         0.81197E-02         0.00000E+00
    0.81197E-02        -0.50000E+07         0.00000E+00
    0.00000E+00         0.00000E+00        -0.25000E+07
 
    0.51159E-01         0.12781E-01         0.00000E+00
    0.12781E-01        -0.50000E+07         0.00000E+00
    0.00000E+00         0.00000E+00        -0.25000E+07
 
    0.40883E-01         0.16690E-01         0.00000E+00
    0.16690E-01        -0.50000E+07         0.00000E+00
    0.00000E+00         0.00000E+00        -0.25000E+07
 
    0.29807E-01         0.19739E-01         0.00000E+00
    0.19739E-01        -0.50000E+07         0.00000E+00
    0.00000E+00         0.00000E+00        -0.25000E+07
 
    0.18266E-01         0.21855E-01         0.00000E+00
    0.21855E-01        -0.50000E+07         0.00000E+00
    0.00000E+00         0.00000E+00        -0.25000E+07
 
    0.66054E-02         0.22994E-01         0.00000E+00
    0.22994E-01        -0.50000E+07         0.00000E+00
    0.00000E+00         0.00000E+00        -0.25000E+07
 
   -0.48284E-02         0.23148E-01         0.00000E+00
    0.23148E-01        -0.50000E+07         0.00000E+00
    0.00000E+00         0.00000E+00        -0.25000E+07
 
   -0.15697E-01         0.22341E-01         0.00000E+00
    0.22341E-01        -0.50000E+07         0.00000E+00
    0.00000E+00         0.00000E+00        -0.25000E+07
 
   -0.25681E-01         0.20629E-01         0.00000E+00
    0.20629E-01        -0.50000E+07         0.00000E+00
    0.00000E+00         0.00000E+00        -0.25000E+07
 
   -0.34489E-01         0.18096E-01         0.00000E+00
    0.18096E-01        -0.50000E+07         0.00000E+00
    0.00000E+00         0.00000E+00        -0.25000E+07
 
   -0.41863E-01         0.14855E-01         0.00000E+00
    0.14855E-01        -0.50000E+07         0.00000E+00
    0.00000E+00         0.00000E+00        -0.25000E+07
 
   -0.47589E-01         0.11038E-01         0.00000E+00
    0.11038E-01        -0.50000E+07         0.00000E+00
    0.00000E+00         0.00000E+00        -0.25000E+07
 
   -0.51500E-01         0.67963E-02         0.00000E+00
    0.67963E-02        -0.50000E+07         0.00000E+00
    0.00000E+00         0.00000E+00        -0.25000E+07
 
   -0.53485E-01         0.22946E-02         0.00000E+00
    0.22946E-02        -0.50000E+07         0.00000E+00
    0.00000E+00         0.00000E+00        -0.25000E+07
 
    0.79023E-01         0.39195E-02         0.00000E+00
    0.39195E-02        -0.50000E+07         0.00000E+00
    0.00000E+00         0.00000E+00        -0.25000E+07
 
    0.70187E-01         0.11197E-01         0.00000E+00
    0.11197E-01        -0.50000E+07         0.00000E+00
    0.00000E+00         0.00000E+00        -0.25000E+07
 
    0.59662E-01         0.17622E-01         0.00000E+00
    0.17622E-01        -0.50000E+07         0.00000E+00
    0.00000E+00         0.00000E+00        -0.25000E+07
 
    0.47784E-01         0.23007E-01         0.00000E+00
    0.23007E-01        -0.50000E+07         0.00000E+00
    0.00000E+00         0.00000E+00        -0.25000E+07
 
    0.34926E-01         0.27206E-01         0.00000E+00
    0.27206E-01        -0.50000E+07         0.00000E+00
    0.00000E+00         0.00000E+00        -0.25000E+07
 
    0.21488E-01         0.30116E-01         0.00000E+00
    0.30116E-01        -0.50000E+07         0.00000E+00
    0.00000E+00         0.00000E+00        -0.25000E+07
 
    0.78798E-02         0.31680E-01         0.00000E+00
    0.31680E-01        -0.50000E+07         0.00000E+00
    0.00000E+00         0.00000E+00        -0.25000E+07
 
   -0.54848E-02         0.31886E-01         0.00000E+00
    0.31886E-01        -0.50000E+07         0.00000E+00
    0.00000E+00         0.00000E+00        -0.25000E+07
 
   -0.18204E-01         0.30770E-01         0.00000E+00
    0.30770E-01        -0.50000E+07         0.00000E+00
    0.00000E+00         0.00000E+00        -0.25000E+07
 
   -0.29899E-01         0.28408E-01         0.00000E+00
    0.28408E-01        -0.50000E+07         0.00000E+00
    0.00000E+00         0.00000E+00        -0.25000E+07
 
   -0.40222E-01         0.24917E-01         0.00000E+00
    0.24917E-01        -0.50000E+07         0.00000E+00
    0.00000E+00         0.00000E+00        -0.25000E+07
 
   -0.48870E-01         0.20452E-01         0.00000E+00
    0.20452E-01        -0.50000E+07         0.00000E+00
    0.00000E+00         0.00000E+00        -0.25000E+07
 
   -0.55587E-01         0.15196E-01         0.00000E+00
    0.15196E-01        -0.50000E+07         0.00000E+00
    0.00000E+00         0.00000E+00        -0.25000E+07
 
   -0.60177E-01         0.93559E-02         0.00000E+00
    0.93559E-02        -0.50000E+07         0.00000E+00
    0.00000E+00         0.00000E+00        -0.25000E+07
 
   -0.62506E-01         0.31588E-02         0.00000E+00
    0.31588E-02        -0.50000E+07         0.00000E+00
    0.00000E+00         0.00000E+00        -0.25000E+07
 
    0.93792E-01         0.52158E-02         0.00000E+00
    0.52158E-02        -0.50000E+07         0.00000E+00
    0.00000E+00         0.00000E+00        -0.25000E+07
 
    0.83509E-01         0.14897E-01         0.00000E+00
    0.14897E-01        -0.50000E+07         0.00000E+00
    0.00000E+00         0.00000E+00        -0.25000E+07
 
    0.71138E-01         0.23438E-01         0.00000E+00
    0.23438E-01        -0.50000E+07         0.00000E+00
    0.00000E+00         0.00000E+00        -0.25000E+07
 
    0.57091E-01         0.30593E-01         0.00000E+00
    0.30593E-01        -0.50000E+07         0.00000E+00
    0.00000E+00         0.00000E+00        -0.25000E+07
 
    0.41824E-01         0.36166E-01         0.00000E+00
    0.36166E-01        -0.50000E+07         0.00000E+00
    0.00000E+00         0.00000E+00        -0.25000E+07
 
    0.25822E-01         0.40024E-01         0.00000E+00
    0.40024E-01        -0.50000E+07         0.00000E+00
    0.00000E+00         0.00000E+00        -0.25000E+07
 
    0.95865E-02         0.42091E-01         0.00000E+00
    0.42091E-01        -0.50000E+07         0.00000E+00
    0.00000E+00         0.00000E+00        -0.25000E+07
 
   -0.63823E-02         0.42356E-01         0.00000E+00
    0.42356E-01        -0.50000E+07         0.00000E+00
    0.00000E+00         0.00000E+00        -0.25000E+07
 
   -0.21596E-01         0.40864E-01         0.00000E+00
    0.40864E-01        -0.50000E+07         0.00000E+00
    0.00000E+00         0.00000E+00        -0.25000E+07
 
   -0.35595E-01         0.37720E-01         0.00000E+00
    0.37720E-01        -0.50000E+07         0.00000E+00
    0.00000E+00         0.00000E+00        -0.25000E+07
 
   -0.47960E-01         0.33081E-01         0.00000E+00
    0.33081E-01        -0.50000E+07         0.00000E+00
    0.00000E+00         0.00000E+00        -0.25000E+07
 
   -0.58321E-01         0.27149E-01         0.00000E+00
    0.27149E-01        -0.50000E+07         0.00000E+00
    0.00000E+00         0.00000E+00        -0.25000E+07
 
   -0.66371E-01         0.20169E-01         0.00000E+00
    0.20169E-01        -0.50000E+07         0.00000E+00
    0.00000E+00         0.00000E+00        -0.25000E+07
 
   -0.71873E-01         0.12417E-01         0.00000E+00
    0.12417E-01        -0.50000E+07         0.00000E+00
    0.00000E+00         0.00000E+00        -0.25000E+07
 
   -0.74666E-01         0.41922E-02         0.00000E+00
    0.41922E-02        -0.50000E+07         0.00000E+00
    0.00000E+00         0.00000E+00        -0.25000E+07
 
    0.11322E+00         0.68017E-02         0.00000E+00
    0.68017E-02        -0.50000E+07         0.00000E+00
    0.00000E+00         0.00000E+00        -0.25000E+07
 
    0.10102E+00         0.19419E-01         0.00000E+00
    0.19419E-01        -0.50000E+07         0.00000E+00
    0.00000E+00         0.00000E+00        -0.25000E+07
 
    0.86211E-01         0.30542E-01         0.00000E+00
    0.30542E-01        -0.50000E+07         0.00000E+00
    0.00000E+00         0.00000E+00        -0.25000E+07
 
    0.69305E-01         0.39849E-01         0.00000E+00
    0.39849E-01        -0.50000E+07         0.00000E+00
    0.00000E+00         0.00000E+00        -0.25000E+07
 
    0.50866E-01         0.47092E-01         0.00000E+00
    0.47092E-01        -0.50000E+07         0.00000E+00
    0.00000E+00         0.00000E+00        -0.25000E+07
 
    0.31493E-01         0.52097E-01         0.00000E+00
    0.52097E-01        -0.50000E+07         0.00000E+00
    0.00000E+00         0.00000E+00        -0.25000E+07
 
    0.11805E-01         0.54771E-01         0.00000E+00
    0.54771E-01        -0.50000E+07         0.00000E+00
    0.00000E+00         0.00000E+00        -0.25000E+07
 
   -0.75808E-02         0.55098E-01         0.00000E+00
    0.55098E-01        -0.50000E+07         0.00000E+00
    0.00000E+00         0.00000E+00        -0.25000E+07
 
   -0.26065E-01         0.53144E-01         0.00000E+00
    0.53144E-01        -0.50000E+07         0.00000E+00
    0.00000E+00         0.00000E+00        -0.25000E+07
 
   -0.43083E-01         0.49044E-01         0.00000E+00
    0.49044E-01        -0.50000E+07         0.00000E+00
    0.00000E+00         0.00000E+00        -0.25000E+07
 
   -0.58120E-01         0.43003E-01         0.00000E+00
    0.43003E-01        -0.50000E+07         0.00000E+00
    0.00000E+00         0.00000E+00        -0.25000E+07
 
   -0.70723E-01         0.35287E-01         0.00000E+00
    0.35287E-01        -0.50000E+07         0.00000E+00
    0.00000E+00         0.00000E+00        -0.25000E+07
 
   -0.80518E-01         0.26212E-01         0.00000E+00
    0.26212E-01        -0.50000E+07         0.00000E+00
    0.00000E+00         0.00000E+00        -0.25000E+07
 
   -0.87214E-01         0.16136E-01         0.00000E+00
    0.16136E-01        -0.50000E+07         0.00000E+00
    0.00000E+00         0.00000E+00        -0.25000E+07
 
   -0.90612E-01         0.54475E-02         0.00000E+00
    0.54475E-02        -0.50000E+07         0.00000E+00
    0.00000E+00         0.00000E+00        -0.25000E+07
 
    0.13837E+00         0.87627E-02         0.00000E+00
    0.87627E-02        -0.50000E+07         0.00000E+00
    0.00000E+00         0.00000E+00        -0.25000E+07
 
    0.12367E+00         0.25003E-01         0.00000E+00
    0.25003E-01        -0.50000E+07         0.00000E+00
    0.00000E+00         0.00000E+00        -0.25000E+07
 
    0.10569E+00         0.39305E-01         0.00000E+00
    0.39305E-01        -0.50000E+07         0.00000E+00
    0.00000E+00         0.00000E+00        -0.25000E+07
 
    0.85071E-01         0.51259E-01         0.00000E+00
    0.51259E-01        -0.50000E+07         0.00000E+00
    0.00000E+00         0.00000E+00        -0.25000E+07
 
    0.62519E-01         0.60547E-01         0.00000E+00
    0.60547E-01        -0.50000E+07         0.00000E+00
    0.00000E+00         0.00000E+00        -0.25000E+07
 
    0.38784E-01         0.66954E-01         0.00000E+00
    0.66954E-01        -0.50000E+07         0.00000E+00
    0.00000E+00         0.00000E+00        -0.25000E+07
 
    0.14635E-01         0.70361E-01         0.00000E+00
    0.70361E-01        -0.50000E+07         0.00000E+00
    0.00000E+00         0.00000E+00        -0.25000E+07
 
   -0.91613E-02         0.70757E-01         0.00000E+00
    0.70757E-01        -0.50000E+07         0.00000E+00
    0.00000E+00         0.00000E+00        -0.25000E+07
 
   -0.31863E-01         0.68224E-01         0.00000E+00
    0.68224E-01        -0.50000E+07         0.00000E+00
    0.00000E+00         0.00000E+00        -0.25000E+07
 
   -0.52770E-01         0.62943E-01         0.00000E+00
    0.62943E-01        -0.50000E+07         0.00000E+00
    0.00000E+00         0.00000E+00        -0.25000E+07
 
   -0.71247E-01         0.55177E-01         0.00000E+00
    0.55177E-01        -0.50000E+07         0.00000E+00
    0.00000E+00         0.00000E+00        -0.25000E+07
 
   -0.86736E-01         0.45268E-01         0.00000E+00
    0.45268E-01        -0.50000E+07         0.00000E+00
    0.00000E+00         0.00000E+00        -0.25000E+07
 
   -0.98775E-01         0.33621E-01         0.00000E+00
    0.33621E-01        -0.50000E+07         0.00000E+00
    0.00000E+00         0.00000E+00        -0.25000E+07
 
   -0.10700E+00         0.20695E-01         0.00000E+00
    0.20695E-01        -0.50000E+07         0.00000E+00
    0.00000E+00         0.00000E+00        -0.25000E+07
 
   -0.11118E+00         0.69863E-02         0.00000E+00
    0.69863E-02        -0.50000E+07         0.00000E+00
    0.00000E+00         0.00000E+00        -0.25000E+07
 
    0.17062E+00         0.11202E-01         0.00000E+00
    0.11202E-01        -0.50000E+07         0.00000E+00
    0.00000E+00         0.00000E+00        -0.25000E+07
 
    0.15268E+00         0.31941E-01         0.00000E+00
    0.31941E-01        -0.50000E+07         0.00000E+00
    0.00000E+00         0.00000E+00        -0.25000E+07
 
    0.13060E+00         0.50179E-01         0.00000E+00
    0.50179E-01        -0.50000E+07         0.00000E+00
    0.00000E+00         0.00000E+00        -0.25000E+07
 
    0.10521E+00         0.65400E-01         0.00000E+00
    0.65400E-01        -0.50000E+07         0.00000E+00
    0.00000E+00         0.00000E+00        -0.25000E+07
 
    0.77377E-01         0.77208E-01         0.00000E+00
    0.77208E-01        -0.50000E+07         0.00000E+00
    0.00000E+00         0.00000E+00        -0.25000E+07
 
    0.48053E-01         0.85332E-01         0.00000E+00
    0.85332E-01        -0.50000E+07         0.00000E+00
    0.00000E+00         0.00000E+00        -0.25000E+07
 
    0.18198E-01         0.89632E-01         0.00000E+00
    0.89632E-01        -0.50000E+07         0.00000E+00
    0.00000E+00         0.00000E+00        -0.25000E+07
 
   -0.11232E-01         0.90096E-01         0.00000E+00
    0.90096E-01        -0.50000E+07         0.00000E+00
    0.00000E+00         0.00000E+00        -0.25000E+07
 
   -0.39313E-01         0.86838E-01         0.00000E+00
    0.86838E-01        -0.50000E+07         0.00000E+00
    0.00000E+00         0.00000E+00        -0.25000E+07
 
   -0.65176E-01         0.80090E-01         0.00000E+00
    0.80090E-01        -0.50000E+07         0.00000E+00
    0.00000E+00         0.00000E+00        -0.25000E+07
 
   -0.88034E-01         0.70189E-01         0.00000E+00
    0.70189E-01        -0.50000E+07         0.00000E+00
    0.00000E+00         0.00000E+00        -0.25000E+07
 
   -0.10720E+00         0.57571E-01         0.00000E+00
    0.57571E-01        -0.50000E+07         0.00000E+00
    0.00000E+00         0.00000E+00        -0.25000E+07
 
   -0.12209E+00         0.42752E-01         0.00000E+00
    0.42752E-01        -0.50000E+07         0.00000E+00
    0.00000E+00         0.00000E+00        -0.25000E+07
 
   -0.13227E+00         0.26312E-01         0.00000E+00
    0.26312E-01        -0.50000E+07         0.00000E+00
    0.00000E+00         0.00000E+00        -0.25000E+07
 
   -0.13743E+00         0.88820E-02         0.00000E+00
    0.88820E-02        -0.50000E+07         0.00000E+00
    0.00000E+00         0.00000E+00        -0.25000E+07
 
    0.21170E+00         0.14246E-01         0.00000E+00
    0.14246E-01        -0.50000E+07         0.00000E+00
    0.00000E+00         0.00000E+00        -0.25000E+07
 
    0.18958E+00         0.40583E-01         0.00000E+00
    0.40583E-01        -0.50000E+07         0.00000E+00
    0.00000E+00         0.00000E+00        -0.25000E+07
 
    0.16225E+00         0.63706E-01         0.00000E+00
    0.63706E-01        -0.50000E+07         0.00000E+00
    0.00000E+00         0.00000E+00        -0.25000E+07
 
    0.13074E+00         0.82970E-01         0.00000E+00
    0.82970E-01        -0.50000E+07         0.00000E+00
    0.00000E+00         0.00000E+00        -0.25000E+07
 
    0.96176E-01         0.97884E-01         0.00000E+00
    0.97884E-01        -0.50000E+07         0.00000E+00
    0.00000E+00         0.00000E+00        -0.25000E+07
 
    0.59741E-01         0.10812E+00         0.00000E+00
    0.10812E+00        -0.50000E+07         0.00000E+00
    0.00000E+00         0.00000E+00        -0.25000E+07
 
    0.22639E-01         0.11350E+00         0.00000E+00
    0.11350E+00        -0.50000E+07         0.00000E+00
    0.00000E+00         0.00000E+00        -0.25000E+07
 
   -0.13933E-01         0.11403E+00         0.00000E+00
    0.11403E+00        -0.50000E+07         0.00000E+00
    0.00000E+00         0.00000E+00        -0.25000E+07
 
   -0.48826E-01         0.10986E+00         0.00000E+00
    0.10986E+00        -0.50000E+07         0.00000E+00
    0.00000E+00         0.00000E+00        -0.25000E+07
 
   -0.80958E-01         0.10128E+00         0.00000E+00
    0.10128E+00        -0.50000E+07         0.00000E+00
    0.00000E+00         0.00000E+00        -0.25000E+07
 
   -0.10935E+00         0.88735E-01         0.00000E+00
    0.88735E-01        -0.50000E+07         0.00000E+00
    0.00000E+00         0.00000E+00        -0.25000E+07
 
   -0.13315E+00         0.72765E-01         0.00000E+00
    0.72765E-01        -0.50000E+07         0.00000E+00
    0.00000E+00         0.00000E+00        -0.25000E+07
 
   -0.15164E+00         0.54024E-01         0.00000E+00
    0.54024E-01        -0.50000E+07         0.00000E+00
    0.00000E+00         0.00000E+00        -0.25000E+07
 
   -0.16428E+00         0.33246E-01         0.00000E+00
    0.33246E-01        -0.50000E+07         0.00000E+00
    0.00000E+00         0.00000E+00        -0.25000E+07
 
   -0.17069E+00         0.11222E-01         0.00000E+00
    0.11222E-01        -0.50000E+07         0.00000E+00
    0.00000E+00         0.00000E+00        -0.25000E+07
 
    0.26381E+00         0.18047E-01         0.00000E+00
    0.18047E-01        -0.50000E+07         0.00000E+00
    0.00000E+00         0.00000E+00        -0.25000E+07
 
    0.23630E+00         0.51354E-01         0.00000E+00
    0.51354E-01        -0.50000E+07         0.00000E+00
    0.00000E+00         0.00000E+00        -0.25000E+07
 
    0.20223E+00         0.80540E-01         0.00000E+00
    0.80540E-01        -0.50000E+07         0.00000E+00
    0.00000E+00         0.00000E+00        -0.25000E+07
 
    0.16294E+00         0.10481E+00         0.00000E+00
    0.10481E+00        -0.50000E+07         0.00000E+00
    0.00000E+00         0.00000E+00        -0.25000E+07
 
    0.11982E+00         0.12355E+00         0.00000E+00
    0.12355E+00        -0.50000E+07         0.00000E+00
    0.00000E+00         0.00000E+00        -0.25000E+07
 
    0.74385E-01         0.13637E+00         0.00000E+00
    0.13637E+00        -0.50000E+07         0.00000E+00
    0.00000E+00         0.00000E+00        -0.25000E+07
 
    0.28129E-01         0.14307E+00         0.00000E+00
    0.14307E+00        -0.50000E+07         0.00000E+00
    0.00000E+00         0.00000E+00        -0.25000E+07
 
   -0.17451E-01         0.14366E+00         0.00000E+00
    0.14366E+00        -0.50000E+07         0.00000E+00
    0.00000E+00         0.00000E+00        -0.25000E+07
 
   -0.60919E-01         0.13834E+00         0.00000E+00
    0.13834E+00        -0.50000E+07         0.00000E+00
    0.00000E+00         0.00000E+00        -0.25000E+07
 
   -0.10093E+00         0.12748E+00         0.00000E+00
    0.12748E+00        -0.50000E+07         0.00000E+00
    0.00000E+00         0.00000E+00        -0.25000E+07
 
   -0.13628E+00         0.11165E+00         0.00000E+00
    0.11165E+00        -0.50000E+07         0.00000E+00
    0.00000E+00         0.00000E+00        -0.25000E+07
 
   -0.16590E+00         0.91527E-01         0.00000E+00
    0.91527E-01        -0.50000E+07         0.00000E+00
    0.00000E+00         0.00000E+00        -0.25000E+07
 
   -0.18890E+00         0.67939E-01         0.00000E+00
    0.67939E-01        -0.50000E+07         0.00000E+00
    0.00000E+00         0.00000E+00        -0.25000E+07
 
   -0.20463E+00         0.41804E-01         0.00000E+00
    0.41804E-01        -0.50000E+07         0.00000E+00
    0.00000E+00         0.00000E+00        -0.25000E+07
 
   -0.21261E+00         0.14109E-01         0.00000E+00
    0.14109E-01        -0.50000E+07         0.00000E+00
    0.00000E+00         0.00000E+00        -0.25000E+07
 
    0.32965E+00         0.22790E-01         0.00000E+00
    0.22790E-01        -0.50000E+07         0.00000E+00
    0.00000E+00         0.00000E+00        -0.25000E+07
 
    0.29520E+00         0.64767E-01         0.00000E+00
    0.64767E-01        -0.50000E+07         0.00000E+00
    0.00000E+00         0.00000E+00        -0.25000E+07
 
    0.25255E+00         0.10147E+00         0.00000E+00
    0.10147E+00        -0.50000E+07         0.00000E+00
    0.00000E+00         0.00000E+00        -0.25000E+07
 
    0.20336E+00         0.13192E+00         0.00000E+00
    0.13192E+00        -0.50000E+07         0.00000E+00
    0.00000E+00         0.00000E+00        -0.25000E+07
 
    0.14943E+00         0.15537E+00         0.00000E+00
    0.15537E+00        -0.50000E+07         0.00000E+00
    0.00000E+00         0.00000E+00        -0.25000E+07
 
    0.92638E-01         0.17136E+00         0.00000E+00
    0.17136E+00        -0.50000E+07         0.00000E+00
    0.00000E+00         0.00000E+00        -0.25000E+07
 
    0.34865E-01         0.17965E+00         0.00000E+00
    0.17965E+00        -0.50000E+07         0.00000E+00
    0.00000E+00         0.00000E+00        -0.25000E+07
 
   -0.22023E-01         0.18028E+00         0.00000E+00
    0.18028E+00        -0.50000E+07         0.00000E+00
    0.00000E+00         0.00000E+00        -0.25000E+07
 
   -0.76239E-01         0.17350E+00         0.00000E+00
    0.17350E+00        -0.50000E+07         0.00000E+00
    0.00000E+00         0.00000E+00        -0.25000E+07
 
   -0.12612E+00         0.15981E+00         0.00000E+00
    0.15981E+00        -0.50000E+07         0.00000E+00
    0.00000E+00         0.00000E+00        -0.25000E+07
 
   -0.17016E+00         0.13991E+00         0.00000E+00
    0.13991E+00        -0.50000E+07         0.00000E+00
    0.00000E+00         0.00000E+00        -0.25000E+07
 
   -0.20704E+00         0.11466E+00         0.00000E+00
    0.11466E+00        -0.50000E+07         0.00000E+00
    0.00000E+00         0.00000E+00        -0.25000E+07
 
   -0.23569E+00         0.85091E-01         0.00000E+00
    0.85091E-01        -0.50000E+07         0.00000E+00
    0.00000E+00         0.00000E+00        -0.25000E+07
 
   -0.25526E+00         0.52349E-01         0.00000E+00
    0.52349E-01        -0.50000E+07         0.00000E+00
    0.00000E+00         0.00000E+00        -0.25000E+07
 
   -0.26519E+00         0.17667E-01         0.00000E+00
    0.17667E-01        -0.50000E+07         0.00000E+00
    0.00000E+00         0.00000E+00        -0.25000E+07
 
    0.41259E+00         0.28696E-01         0.00000E+00
    0.28696E-01        -0.50000E+07         0.00000E+00
    0.00000E+00         0.00000E+00        -0.25000E+07
 
    0.36923E+00         0.81438E-01         0.00000E+00
    0.81438E-01        -0.50000E+07         0.00000E+00
    0.00000E+00         0.00000E+00        -0.25000E+07
 
    0.31563E+00         0.12744E+00         0.00000E+00
    0.12744E+00        -0.50000E+07         0.00000E+00
    0.00000E+00         0.00000E+00        -0.25000E+07
 
    0.25392E+00         0.16550E+00         0.00000E+00
    0.16550E+00        -0.50000E+07         0.00000E+00
    0.00000E+00         0.00000E+00        -0.25000E+07
 
    0.18635E+00         0.19474E+00         0.00000E+00
    0.19474E+00        -0.50000E+07         0.00000E+00
    0.00000E+00         0.00000E+00        -0.25000E+07
 
    0.11528E+00         0.21459E+00         0.00000E+00
    0.21459E+00        -0.50000E+07         0.00000E+00
    0.00000E+00         0.00000E+00        -0.25000E+07
 
    0.43075E-01         0.22481E+00         0.00000E+00
    0.22481E+00        -0.50000E+07         0.00000E+00
    0.00000E+00         0.00000E+00        -0.25000E+07
 
   -0.27954E-01         0.22543E+00         0.00000E+00
    0.22543E+00        -0.50000E+07         0.00000E+00
    0.00000E+00         0.00000E+00        -0.25000E+07
 
   -0.95587E-01         0.21683E+00         0.00000E+00
    0.21683E+00        -0.50000E+07         0.00000E+00
    0.00000E+00         0.00000E+00        -0.25000E+07
 
   -0.15776E+00         0.19963E+00         0.00000E+00
    0.19963E+00        -0.50000E+07         0.00000E+00
    0.00000E+00         0.00000E+00        -0.25000E+07
 
   -0.21262E+00         0.17469E+00         0.00000E+00
    0.17469E+00        -0.50000E+07         0.00000E+00
    0.00000E+00         0.00000E+00        -0.25000E+07
 
   -0.25854E+00         0.14311E+00         0.00000E+00
    0.14311E+00        -0.50000E+07         0.00000E+00
    0.00000E+00         0.00000E+00        -0.25000E+07
 
   -0.29419E+00         0.10618E+00         0.00000E+00
    0.10618E+00        -0.50000E+07         0.00000E+00
    0.00000E+00         0.00000E+00        -0.25000E+07
 
   -0.31854E+00         0.65313E-01         0.00000E+00
    0.65313E-01        -0.50000E+07         0.00000E+00
    0.00000E+00         0.00000E+00        -0.25000E+07
 
   -0.33089E+00         0.22041E-01         0.00000E+00
    0.22041E-01        -0.50000E+07         0.00000E+00
    0.00000E+00         0.00000E+00        -0.25000E+07
 
    0.51677E+00         0.36034E-01         0.00000E+00
    0.36034E-01        -0.50000E+07         0.00000E+00
    0.00000E+00         0.00000E+00        -0.25000E+07
 
    0.46197E+00         0.10210E+00         0.00000E+00
    0.10210E+00        -0.50000E+07         0.00000E+00
    0.00000E+00         0.00000E+00        -0.25000E+07
 
    0.39446E+00         0.15957E+00         0.00000E+00
    0.15957E+00        -0.50000E+07         0.00000E+00
    0.00000E+00         0.00000E+00        -0.25000E+07
 
    0.31692E+00         0.20699E+00         0.00000E+00
    0.20699E+00        -0.50000E+07         0.00000E+00
    0.00000E+00         0.00000E+00        -0.25000E+07
 
    0.23220E+00         0.24331E+00         0.00000E+00
    0.24331E+00        -0.50000E+07         0.00000E+00
    0.00000E+00         0.00000E+00        -0.25000E+07
 
    0.14325E+00         0.26786E+00         0.00000E+00
    0.26786E+00        -0.50000E+07         0.00000E+00
    0.00000E+00         0.00000E+00        -0.25000E+07
 
    0.53016E-01         0.28037E+00         0.00000E+00
    0.28037E+00        -0.50000E+07         0.00000E+00
    0.00000E+00         0.00000E+00        -0.25000E+07
 
   -0.35632E-01         0.28095E+00         0.00000E+00
    0.28095E+00        -0.50000E+07         0.00000E+00
    0.00000E+00         0.00000E+00        -0.25000E+07
 
   -0.11995E+00         0.27006E+00         0.00000E+00
    0.27006E+00        -0.50000E+07         0.00000E+00
    0.00000E+00         0.00000E+00        -0.25000E+07
 
   -0.19739E+00         0.24849E+00         0.00000E+00
    0.24849E+00        -0.50000E+07         0.00000E+00
    0.00000E+00         0.00000E+00        -0.25000E+07
 
   -0.26566E+00         0.21735E+00         0.00000E+00
    0.21735E+00        -0.50000E+07         0.00000E+00
    0.00000E+00         0.00000E+00        -0.25000E+07
 
   -0.32278E+00         0.17801E+00         0.00000E+00
    0.17801E+00        -0.50000E+07         0.00000E+00
    0.00000E+00         0.00000E+00        -0.25000E+07
 
   -0.36710E+00         0.13203E+00         0.00000E+00
    0.13203E+00        -0.50000E+07         0.00000E+00
    0.00000E+00         0.00000E+00        -0.25000E+07
 
   -0.39736E+00         0.81200E-01         0.00000E+00
    0.81200E-01        -0.50000E+07         0.00000E+00
    0.00000E+00         0.00000E+00        -0.25000E+07
 
   -0.41271E+00         0.27399E-01         0.00000E+00
    0.27399E-01        -0.50000E+07         0.00000E+00
    0.00000E+00         0.00000E+00        -0.25000E+07
 
    0.64725E+00         0.45121E-01         0.00000E+00
    0.45121E-01        -0.50000E+07         0.00000E+00
    0.00000E+00         0.00000E+00        -0.25000E+07
 
    0.57780E+00         0.12763E+00         0.00000E+00
    0.12763E+00        -0.50000E+07         0.00000E+00
    0.00000E+00         0.00000E+00        -0.25000E+07
 
    0.49262E+00         0.19919E+00         0.00000E+00
    0.19919E+00        -0.50000E+07         0.00000E+00
    0.00000E+00         0.00000E+00        -0.25000E+07
 
    0.39514E+00         0.25806E+00         0.00000E+00
    0.25806E+00        -0.50000E+07         0.00000E+00
    0.00000E+00         0.00000E+00        -0.25000E+07
 
    0.28893E+00         0.30301E+00         0.00000E+00
    0.30301E+00        -0.50000E+07         0.00000E+00
    0.00000E+00         0.00000E+00        -0.25000E+07
 
    0.17766E+00         0.33326E+00         0.00000E+00
    0.33326E+00        -0.50000E+07         0.00000E+00
    0.00000E+00         0.00000E+00        -0.25000E+07
 
    0.64976E-01         0.34852E+00         0.00000E+00
    0.34852E+00        -0.50000E+07         0.00000E+00
    0.00000E+00         0.00000E+00        -0.25000E+07
 
   -0.45550E-01         0.34897E+00         0.00000E+00
    0.34897E+00        -0.50000E+07         0.00000E+00
    0.00000E+00         0.00000E+00        -0.25000E+07
 
   -0.15054E+00         0.33522E+00         0.00000E+00
    0.33522E+00        -0.50000E+07         0.00000E+00
    0.00000E+00         0.00000E+00        -0.25000E+07
 
   -0.24686E+00         0.30827E+00         0.00000E+00
    0.30827E+00        -0.50000E+07         0.00000E+00
    0.00000E+00         0.00000E+00        -0.25000E+07
 
   -0.33171E+00         0.26952E+00         0.00000E+00
    0.26952E+00        -0.50000E+07         0.00000E+00
    0.00000E+00         0.00000E+00        -0.25000E+07
 
   -0.40264E+00         0.22064E+00         0.00000E+00
    0.22064E+00        -0.50000E+07         0.00000E+00
    0.00000E+00         0.00000E+00        -0.25000E+07
 
   -0.45765E+00         0.16361E+00         0.00000E+00
    0.16361E+00        -0.50000E+07         0.00000E+00
    0.00000E+00         0.00000E+00        -0.25000E+07
 
   -0.49520E+00         0.10060E+00         0.00000E+00
    0.10060E+00        -0.50000E+07         0.00000E+00
    0.00000E+00         0.00000E+00        -0.25000E+07
 
   -0.51423E+00         0.33943E-01         0.00000E+00
    0.33943E-01        -0.50000E+07         0.00000E+00
    0.00000E+00         0.00000E+00        -0.25000E+07
 
    0.81020E+00         0.56334E-01         0.00000E+00
    0.56334E-01        -0.50000E+07         0.00000E+00
    0.00000E+00         0.00000E+00        -0.25000E+07
 
    0.72199E+00         0.15906E+00         0.00000E+00
    0.15906E+00        -0.50000E+07         0.00000E+00
    0.00000E+00         0.00000E+00        -0.25000E+07
 
    0.61447E+00         0.24787E+00         0.00000E+00
    0.24787E+00        -0.50000E+07         0.00000E+00
    0.00000E+00         0.00000E+00        -0.25000E+07
 
    0.49193E+00         0.32072E+00         0.00000E+00
    0.32072E+00        -0.50000E+07         0.00000E+00
    0.00000E+00         0.00000E+00        -0.25000E+07
 
    0.35886E+00         0.37614E+00         0.00000E+00
    0.37614E+00        -0.50000E+07         0.00000E+00
    0.00000E+00         0.00000E+00        -0.25000E+07
 
    0.21979E+00         0.41326E+00         0.00000E+00
    0.41326E+00        -0.50000E+07         0.00000E+00
    0.00000E+00         0.00000E+00        -0.25000E+07
 
    0.79273E-01         0.43179E+00         0.00000E+00
    0.43179E+00        -0.50000E+07         0.00000E+00
    0.00000E+00         0.00000E+00        -0.25000E+07
 
   -0.58321E-01         0.43199E+00         0.00000E+00
    0.43199E+00        -0.50000E+07         0.00000E+00
    0.00000E+00         0.00000E+00        -0.25000E+07
 
   -0.18883E+00         0.41468E+00         0.00000E+00
    0.41468E+00        -0.50000E+07         0.00000E+00
    0.00000E+00         0.00000E+00        -0.25000E+07
 
   -0.30843E+00         0.38112E+00         0.00000E+00
    0.38112E+00        -0.50000E+07         0.00000E+00
    0.00000E+00         0.00000E+00        -0.25000E+07
 
   -0.41367E+00         0.33304E+00         0.00000E+00
    0.33304E+00        -0.50000E+07         0.00000E+00
    0.00000E+00         0.00000E+00        -0.25000E+07
 
   -0.50158E+00         0.27254E+00         0.00000E+00
    0.27254E+00        -0.50000E+07         0.00000E+00
    0.00000E+00         0.00000E+00        -0.25000E+07
 
   -0.56972E+00         0.20204E+00         0.00000E+00
    0.20204E+00        -0.50000E+07         0.00000E+00
    0.00000E+00         0.00000E+00        -0.25000E+07
 
   -0.61620E+00         0.12421E+00         0.00000E+00
    0.12421E+00        -0.50000E+07         0.00000E+00
    0.00000E+00         0.00000E+00        -0.25000E+07
 
   -0.63977E+00         0.41903E-01         0.00000E+00
    0.41903E-01        -0.50000E+07         0.00000E+00
    0.00000E+00         0.00000E+00        -0.25000E+07
 
    0.10130E+01         0.70116E-01         0.00000E+00
    0.70116E-01        -0.50000E+07         0.00000E+00
    0.00000E+00         0.00000E+00        -0.25000E+07
 
    0.90091E+00         0.19759E+00         0.00000E+00
    0.19759E+00        -0.50000E+07         0.00000E+00
    0.00000E+00         0.00000E+00        -0.25000E+07
 
    0.76519E+00         0.30745E+00         0.00000E+00
    0.30745E+00        -0.50000E+07         0.00000E+00
    0.00000E+00         0.00000E+00        -0.25000E+07
 
    0.61127E+00         0.39727E+00         0.00000E+00
    0.39727E+00        -0.50000E+07         0.00000E+00
    0.00000E+00         0.00000E+00        -0.25000E+07
 
    0.44472E+00         0.46535E+00         0.00000E+00
    0.46535E+00        -0.50000E+07         0.00000E+00
    0.00000E+00         0.00000E+00        -0.25000E+07
 
    0.27119E+00         0.51072E+00         0.00000E+00
    0.51072E+00        -0.50000E+07         0.00000E+00
    0.00000E+00         0.00000E+00        -0.25000E+07
 
    0.96254E-01         0.53311E+00         0.00000E+00
    0.53311E+00        -0.50000E+07         0.00000E+00
    0.00000E+00         0.00000E+00        -0.25000E+07
 
   -0.74710E-01         0.53292E+00         0.00000E+00
    0.53292E+00        -0.50000E+07         0.00000E+00
    0.00000E+00         0.00000E+00        -0.25000E+07
 
   -0.23661E+00         0.51119E+00         0.00000E+00
    0.51119E+00        -0.50000E+07         0.00000E+00
    0.00000E+00         0.00000E+00        -0.25000E+07
 
   -0.38478E+00         0.46954E+00         0.00000E+00
    0.46954E+00        -0.50000E+07         0.00000E+00
    0.00000E+00         0.00000E+00        -0.25000E+07
 
   -0.51502E+00         0.41010E+00         0.00000E+00
    0.41010E+00        -0.50000E+07         0.00000E+00
    0.00000E+00         0.00000E+00        -0.25000E+07
 
   -0.62373E+00         0.33546E+00         0.00000E+00
    0.33546E+00        -0.50000E+07         0.00000E+00
    0.00000E+00         0.00000E+00        -0.25000E+07
 
   -0.70793E+00         0.24861E+00         0.00000E+00
    0.24861E+00        -0.50000E+07         0.00000E+00
    0.00000E+00         0.00000E+00        -0.25000E+07
 
   -0.76535E+00         0.15280E+00         0.00000E+00
    0.15280E+00        -0.50000E+07         0.00000E+00
    0.00000E+00         0.00000E+00        -0.25000E+07
 
   -0.79445E+00         0.51546E-01         0.00000E+00
    0.51546E-01        -0.50000E+07         0.00000E+00
    0.00000E+00         0.00000E+00        -0.25000E+07
 
    0.12648E+01         0.86986E-01         0.00000E+00
    0.86986E-01        -0.50000E+07         0.00000E+00
    0.00000E+00         0.00000E+00        -0.25000E+07
 
    0.11222E+01         0.24465E+00         0.00000E+00
    0.24465E+00        -0.50000E+07         0.00000E+00
    0.00000E+00         0.00000E+00        -0.25000E+07
 
    0.95098E+00         0.38007E+00         0.00000E+00
    0.38007E+00        -0.50000E+07         0.00000E+00
    0.00000E+00         0.00000E+00        -0.25000E+07
 
    0.75787E+00         0.49041E+00         0.00000E+00
    0.49041E+00        -0.50000E+07         0.00000E+00
    0.00000E+00         0.00000E+00        -0.25000E+07
 
    0.54977E+00         0.57373E+00         0.00000E+00
    0.57373E+00        -0.50000E+07         0.00000E+00
    0.00000E+00         0.00000E+00        -0.25000E+07
 
    0.33363E+00         0.62897E+00         0.00000E+00
    0.62897E+00        -0.50000E+07         0.00000E+00
    0.00000E+00         0.00000E+00        -0.25000E+07
 
    0.11629E+00         0.65590E+00         0.00000E+00
    0.65590E+00        -0.50000E+07         0.00000E+00
    0.00000E+00         0.00000E+00        -0.25000E+07
 
   -0.95660E-01         0.65511E+00         0.00000E+00
    0.65511E+00        -0.50000E+07         0.00000E+00
    0.00000E+00         0.00000E+00        -0.25000E+07
 
   -0.29604E+00         0.62793E+00         0.00000E+00
    0.62793E+00        -0.50000E+07         0.00000E+00
    0.00000E+00         0.00000E+00        -0.25000E+07
 
   -0.47915E+00         0.57640E+00         0.00000E+00
    0.57640E+00        -0.50000E+07         0.00000E+00
    0.00000E+00         0.00000E+00        -0.25000E+07
 
   -0.63994E+00         0.50317E+00         0.00000E+00
    0.50317E+00        -0.50000E+07         0.00000E+00
    0.00000E+00         0.00000E+00        -0.25000E+07
 
   -0.77401E+00         0.41143E+00         0.00000E+00
    0.41143E+00        -0.50000E+07         0.00000E+00
    0.00000E+00         0.00000E+00        -0.25000E+07
 
   -0.87779E+00         0.30481E+00         0.00000E+00
    0.30481E+00        -0.50000E+07         0.00000E+00
    0.00000E+00         0.00000E+00        -0.25000E+07
 
   -0.94853E+00         0.18731E+00         0.00000E+00
    0.18731E+00        -0.50000E+07         0.00000E+00
    0.00000E+00         0.00000E+00        -0.25000E+07
 
   -0.98437E+00         0.63181E-01         0.00000E+00
    0.63181E-01        -0.50000E+07         0.00000E+00
    0.00000E+00         0.00000E+00        -0.25000E+07
 
    0.15761E+01         0.10755E+00         0.00000E+00
    0.10755E+00        -0.50000E+07         0.00000E+00
    0.00000E+00         0.00000E+00        -0.25000E+07
 
    0.13949E+01         0.30187E+00         0.00000E+00
    0.30187E+00        -0.50000E+07         0.00000E+00
    0.00000E+00         0.00000E+00        -0.25000E+07
 
    0.11792E+01         0.46819E+00         0.00000E+00
    0.46819E+00        -0.50000E+07         0.00000E+00
    0.00000E+00         0.00000E+00        -0.25000E+07
 
    0.93729E+00         0.60324E+00         0.00000E+00
    0.60324E+00        -0.50000E+07         0.00000E+00
    0.00000E+00         0.00000E+00        -0.25000E+07
 
    0.67778E+00         0.70484E+00         0.00000E+00
    0.70484E+00        -0.50000E+07         0.00000E+00
    0.00000E+00         0.00000E+00        -0.25000E+07
 
    0.40916E+00         0.77182E+00         0.00000E+00
    0.77182E+00        -0.50000E+07         0.00000E+00
    0.00000E+00         0.00000E+00        -0.25000E+07
 
    0.13979E+00         0.80407E+00         0.00000E+00
    0.80407E+00        -0.50000E+07         0.00000E+00
    0.00000E+00         0.00000E+00        -0.25000E+07
 
   -0.12233E+00         0.80240E+00         0.00000E+00
    0.80240E+00        -0.50000E+07         0.00000E+00
    0.00000E+00         0.00000E+00        -0.25000E+07
 
   -0.36968E+00         0.76853E+00         0.00000E+00
    0.76853E+00        -0.50000E+07         0.00000E+00
    0.00000E+00         0.00000E+00        -0.25000E+07
 
   -0.59539E+00         0.70502E+00         0.00000E+00
    0.70502E+00        -0.50000E+07         0.00000E+00
    0.00000E+00         0.00000E+00        -0.25000E+07
 
   -0.79333E+00         0.61513E+00         0.00000E+00
    0.61513E+00        -0.50000E+07         0.00000E+00
    0.00000E+00         0.00000E+00        -0.25000E+07
 
   -0.95824E+00         0.50277E+00         0.00000E+00
    0.50277E+00        -0.50000E+07         0.00000E+00
    0.00000E+00         0.00000E+00        -0.25000E+07
 
   -0.10858E+01         0.37237E+00         0.00000E+00
    0.37237E+00        -0.50000E+07         0.00000E+00
    0.00000E+00         0.00000E+00        -0.25000E+07
 
   -0.11727E+01         0.22878E+00         0.00000E+00
    0.22878E+00        -0.50000E+07         0.00000E+00
    0.00000E+00         0.00000E+00        -0.25000E+07
 
   -0.12167E+01         0.77160E-01         0.00000E+00
    0.77160E-01        -0.50000E+07         0.00000E+00
    0.00000E+00         0.00000E+00        -0.25000E+07
 
    0.19597E+01         0.13249E+00         0.00000E+00
    0.13249E+00        -0.50000E+07         0.00000E+00
    0.00000E+00         0.00000E+00        -0.25000E+07
 
    0.17298E+01         0.37112E+00         0.00000E+00
    0.37112E+00        -0.50000E+07         0.00000E+00
    0.00000E+00         0.00000E+00        -0.25000E+07
 
    0.14584E+01         0.57464E+00         0.00000E+00
    0.57464E+00        -0.50000E+07         0.00000E+00
    0.00000E+00         0.00000E+00        -0.25000E+07
 
    0.11561E+01         0.73933E+00         0.00000E+00
    0.73933E+00        -0.50000E+07         0.00000E+00
    0.00000E+00         0.00000E+00        -0.25000E+07
 
    0.83318E+00         0.86274E+00         0.00000E+00
    0.86274E+00        -0.50000E+07         0.00000E+00
    0.00000E+00         0.00000E+00        -0.25000E+07
 
    0.50016E+00         0.94365E+00         0.00000E+00
    0.94365E+00        -0.50000E+07         0.00000E+00
    0.00000E+00         0.00000E+00        -0.25000E+07
 
    0.16716E+00         0.98209E+00         0.00000E+00
    0.98209E+00        -0.50000E+07         0.00000E+00
    0.00000E+00         0.00000E+00        -0.25000E+07
 
   -0.15611E+00         0.97919E+00         0.00000E+00
    0.97919E+00        -0.50000E+07         0.00000E+00
    0.00000E+00         0.00000E+00        -0.25000E+07
 
   -0.46060E+00         0.93716E+00         0.00000E+00
    0.93716E+00        -0.50000E+07         0.00000E+00
    0.00000E+00         0.00000E+00        -0.25000E+07
 
   -0.73802E+00         0.85917E+00         0.00000E+00
    0.85917E+00        -0.50000E+07         0.00000E+00
    0.00000E+00         0.00000E+00        -0.25000E+07
 
   -0.98101E+00         0.74924E+00         0.00000E+00
    0.74924E+00        -0.50000E+07         0.00000E+00
    0.00000E+00         0.00000E+00        -0.25000E+07
 
   -0.11833E+01         0.61213E+00         0.00000E+00
    0.61213E+00        -0.50000E+07         0.00000E+00
    0.00000E+00         0.00000E+00        -0.25000E+07
 
   -0.13396E+01         0.45322E+00         0.00000E+00
    0.45322E+00        -0.50000E+07         0.00000E+00
    0.00000E+00         0.00000E+00        -0.25000E+07
 
   -0.14460E+01         0.27840E+00         0.00000E+00
    0.27840E+00        -0.50000E+07         0.00000E+00
    0.00000E+00         0.00000E+00        -0.25000E+07
 
   -0.14999E+01         0.93886E-01         0.00000E+00
    0.93886E-01        -0.50000E+07         0.00000E+00
    0.00000E+00         0.00000E+00        -0.25000E+07
 
    0.24308E+01         0.16262E+00         0.00000E+00
    0.16262E+00        -0.50000E+07         0.00000E+00
    0.00000E+00         0.00000E+00        -0.25000E+07
 
    0.21394E+01         0.45456E+00         0.00000E+00
    0.45456E+00        -0.50000E+07         0.00000E+00
    0.00000E+00         0.00000E+00        -0.25000E+07
 
    0.17989E+01         0.70268E+00         0.00000E+00
    0.70268E+00        -0.50000E+07         0.00000E+00
    0.00000E+00         0.00000E+00        -0.25000E+07
 
    0.14218E+01         0.90275E+00         0.00000E+00
    0.90275E+00        -0.50000E+07         0.00000E+00
    0.00000E+00         0.00000E+00        -0.25000E+07
 
    0.10211E+01         0.10521E+01         0.00000E+00
    0.10521E+01        -0.50000E+07         0.00000E+00
    0.00000E+00         0.00000E+00        -0.25000E+07
 
    0.60936E+00         0.11494E+01         0.00000E+00
    0.11494E+01        -0.50000E+07         0.00000E+00
    0.00000E+00         0.00000E+00        -0.25000E+07
 
    0.19886E+00         0.11951E+01         0.00000E+00
    0.11951E+01        -0.50000E+07         0.00000E+00
    0.00000E+00         0.00000E+00        -0.25000E+07
 
   -0.19870E+00         0.11905E+01         0.00000E+00
    0.11905E+01        -0.50000E+07         0.00000E+00
    0.00000E+00         0.00000E+00        -0.25000E+07
 
   -0.57243E+00         0.11386E+01         0.00000E+00
    0.11386E+01        -0.50000E+07         0.00000E+00
    0.00000E+00         0.00000E+00        -0.25000E+07
 
   -0.91239E+00         0.10431E+01         0.00000E+00
    0.10431E+01        -0.50000E+07         0.00000E+00
    0.00000E+00         0.00000E+00        -0.25000E+07
 
   -0.12098E+01         0.90921E+00         0.00000E+00
    0.90921E+00        -0.50000E+07         0.00000E+00
    0.00000E+00         0.00000E+00        -0.25000E+07
 
   -0.14571E+01         0.74252E+00         0.00000E+00
    0.74252E+00        -0.50000E+07         0.00000E+00
    0.00000E+00         0.00000E+00        -0.25000E+07
 
   -0.16480E+01         0.54960E+00         0.00000E+00
    0.54960E+00        -0.50000E+07         0.00000E+00
    0.00000E+00         0.00000E+00        -0.25000E+07
 
   -0.17780E+01         0.33754E+00         0.00000E+00
    0.33754E+00        -0.50000E+07         0.00000E+00
    0.00000E+00         0.00000E+00        -0.25000E+07
 
   -0.18438E+01         0.11382E+00         0.00000E+00
    0.11382E+00        -0.50000E+07         0.00000E+00
    0.00000E+00         0.00000E+00        -0.25000E+07
 
    0.30070E+01         0.19885E+00         0.00000E+00
    0.19885E+00        -0.50000E+07         0.00000E+00
    0.00000E+00         0.00000E+00        -0.25000E+07
 
    0.26387E+01         0.55465E+00         0.00000E+00
    0.55465E+00        -0.50000E+07         0.00000E+00
    0.00000E+00         0.00000E+00        -0.25000E+07
 
    0.22124E+01         0.85599E+00         0.00000E+00
    0.85599E+00        -0.50000E+07         0.00000E+00
    0.00000E+00         0.00000E+00        -0.25000E+07
 
    0.17434E+01         0.10981E+01         0.00000E+00
    0.10981E+01        -0.50000E+07         0.00000E+00
    0.00000E+00         0.00000E+00        -0.25000E+07
 
    0.12475E+01         0.12781E+01         0.00000E+00
    0.12781E+01        -0.50000E+07         0.00000E+00
    0.00000E+00         0.00000E+00        -0.25000E+07
 
    0.73989E+00         0.13948E+01         0.00000E+00
    0.13948E+01        -0.50000E+07         0.00000E+00
    0.00000E+00         0.00000E+00        -0.25000E+07
 
    0.23534E+00         0.14488E+01         0.00000E+00
    0.14488E+01        -0.50000E+07         0.00000E+00
    0.00000E+00         0.00000E+00        -0.25000E+07
 
   -0.25211E+00         0.14420E+01         0.00000E+00
    0.14420E+01        -0.50000E+07         0.00000E+00
    0.00000E+00         0.00000E+00        -0.25000E+07
 
   -0.70943E+00         0.13781E+01         0.00000E+00
    0.13781E+01        -0.50000E+07         0.00000E+00
    0.00000E+00         0.00000E+00        -0.25000E+07
 
   -0.11248E+01         0.12618E+01         0.00000E+00
    0.12618E+01        -0.50000E+07         0.00000E+00
    0.00000E+00         0.00000E+00        -0.25000E+07
 
   -0.14876E+01         0.10993E+01         0.00000E+00
    0.10993E+01        -0.50000E+07         0.00000E+00
    0.00000E+00         0.00000E+00        -0.25000E+07
 
   -0.17890E+01         0.89738E+00         0.00000E+00
    0.89738E+00        -0.50000E+07         0.00000E+00
    0.00000E+00         0.00000E+00        -0.25000E+07
 
   -0.20216E+01         0.66403E+00         0.00000E+00
    0.66403E+00        -0.50000E+07         0.00000E+00
    0.00000E+00         0.00000E+00        -0.25000E+07
 
   -0.21799E+01         0.40773E+00         0.00000E+00
    0.40773E+00        -0.50000E+07         0.00000E+00
    0.00000E+00         0.00000E+00        -0.25000E+07
 
   -0.22599E+01         0.13747E+00         0.00000E+00
    0.13747E+00        -0.50000E+07         0.00000E+00
    0.00000E+00         0.00000E+00        -0.25000E+07
 
    0.37092E+01         0.24219E+00         0.00000E+00
    0.24219E+00        -0.50000E+07         0.00000E+00
    0.00000E+00         0.00000E+00        -0.25000E+07
 
    0.32450E+01         0.67416E+00         0.00000E+00
    0.67416E+00        -0.50000E+07         0.00000E+00
    0.00000E+00         0.00000E+00        -0.25000E+07
 
    0.27127E+01         0.10387E+01         0.00000E+00
    0.10387E+01        -0.50000E+07         0.00000E+00
    0.00000E+00         0.00000E+00        -0.25000E+07
 
    0.21312E+01         0.13307E+01         0.00000E+00
    0.13307E+01        -0.50000E+07         0.00000E+00
    0.00000E+00         0.00000E+00        -0.25000E+07
 
    0.15193E+01         0.15468E+01         0.00000E+00
    0.15468E+01        -0.50000E+07         0.00000E+00
    0.00000E+00         0.00000E+00        -0.25000E+07
 
    0.89535E+00         0.16862E+01         0.00000E+00
    0.16862E+01        -0.50000E+07         0.00000E+00
    0.00000E+00         0.00000E+00        -0.25000E+07
 
    0.27711E+00         0.17498E+01         0.00000E+00
    0.17498E+01        -0.50000E+07         0.00000E+00
    0.00000E+00         0.00000E+00        -0.25000E+07
 
   -0.31870E+00         0.17402E+01         0.00000E+00
    0.17402E+01        -0.50000E+07         0.00000E+00
    0.00000E+00         0.00000E+00        -0.25000E+07
 
   -0.87656E+00         0.16619E+01         0.00000E+00
    0.16619E+01        -0.50000E+07         0.00000E+00
    0.00000E+00         0.00000E+00        -0.25000E+07
 
   -0.13824E+01         0.15208E+01         0.00000E+00
    0.15208E+01        -0.50000E+07         0.00000E+00
    0.00000E+00         0.00000E+00        -0.25000E+07
 
   -0.18238E+01         0.13242E+01         0.00000E+00
    0.13242E+01        -0.50000E+07         0.00000E+00
    0.00000E+00         0.00000E+00        -0.25000E+07
 
   -0.21900E+01         0.10806E+01         0.00000E+00
    0.10806E+01        -0.50000E+07         0.00000E+00
    0.00000E+00         0.00000E+00        -0.25000E+07
 
   -0.24724E+01         0.79939E+00         0.00000E+00
    0.79939E+00        -0.50000E+07         0.00000E+00
    0.00000E+00         0.00000E+00        -0.25000E+07
 
   -0.26644E+01         0.49076E+00         0.00000E+00
    0.49076E+00        -0.50000E+07         0.00000E+00
    0.00000E+00         0.00000E+00        -0.25000E+07
 
   -0.27616E+01         0.16545E+00         0.00000E+00
    0.16545E+00        -0.50000E+07         0.00000E+00
    0.00000E+00         0.00000E+00        -0.25000E+07
 
    0.45615E+01         0.29381E+00         0.00000E+00
    0.29381E+00        -0.50000E+07         0.00000E+00
    0.00000E+00         0.00000E+00        -0.25000E+07
 
    0.39782E+01         0.81623E+00         0.00000E+00
    0.81623E+00        -0.50000E+07         0.00000E+00
    0.00000E+00         0.00000E+00        -0.25000E+07
 
    0.33158E+01         0.12556E+01         0.00000E+00
    0.12556E+01        -0.50000E+07         0.00000E+00
    0.00000E+00         0.00000E+00        -0.25000E+07
 
    0.25970E+01         0.16063E+01         0.00000E+00
    0.16063E+01        -0.50000E+07         0.00000E+00
    0.00000E+00         0.00000E+00        -0.25000E+07
 
    0.18443E+01         0.18650E+01         0.00000E+00
    0.18650E+01        -0.50000E+07         0.00000E+00
    0.00000E+00         0.00000E+00        -0.25000E+07
 
    0.10799E+01         0.20310E+01         0.00000E+00
    0.20310E+01        -0.50000E+07         0.00000E+00
    0.00000E+00         0.00000E+00        -0.25000E+07
 
    0.32473E+00         0.21056E+01         0.00000E+00
    0.21056E+01        -0.50000E+07         0.00000E+00
    0.00000E+00         0.00000E+00        -0.25000E+07
 
   -0.40124E+00         0.20924E+01         0.00000E+00
    0.20924E+01        -0.50000E+07         0.00000E+00
    0.00000E+00         0.00000E+00        -0.25000E+07
 
   -0.10796E+01         0.19970E+01         0.00000E+00
    0.19970E+01        -0.50000E+07         0.00000E+00
    0.00000E+00         0.00000E+00        -0.25000E+07
 
   -0.16937E+01         0.18264E+01         0.00000E+00
    0.18264E+01        -0.50000E+07         0.00000E+00
    0.00000E+00         0.00000E+00        -0.25000E+07
 
   -0.22289E+01         0.15896E+01         0.00000E+00
    0.15896E+01        -0.50000E+07         0.00000E+00
    0.00000E+00         0.00000E+00        -0.25000E+07
 
   -0.26726E+01         0.12967E+01         0.00000E+00
    0.12967E+01        -0.50000E+07         0.00000E+00
    0.00000E+00         0.00000E+00        -0.25000E+07
 
   -0.30144E+01         0.95900E+00         0.00000E+00
    0.95900E+00        -0.50000E+07         0.00000E+00
    0.00000E+00         0.00000E+00        -0.25000E+07
 
   -0.32467E+01         0.58864E+00         0.00000E+00
    0.58864E+00        -0.50000E+07         0.00000E+00
    0.00000E+00         0.00000E+00        -0.25000E+07
 
   -0.33642E+01         0.19843E+00         0.00000E+00
    0.19843E+00        -0.50000E+07         0.00000E+00
    0.00000E+00         0.00000E+00        -0.25000E+07
 
    0.55920E+01         0.35503E+00         0.00000E+00
    0.35503E+00        -0.50000E+07         0.00000E+00
    0.00000E+00         0.00000E+00        -0.25000E+07
 
    0.48618E+01         0.98438E+00         0.00000E+00
    0.98438E+00        -0.50000E+07         0.00000E+00
    0.00000E+00         0.00000E+00        -0.25000E+07
 
    0.40401E+01         0.15120E+01         0.00000E+00
    0.15120E+01        -0.50000E+07         0.00000E+00
    0.00000E+00         0.00000E+00        -0.25000E+07
 
    0.31545E+01         0.19318E+01         0.00000E+00
    0.19318E+01        -0.50000E+07         0.00000E+00
    0.00000E+00         0.00000E+00        -0.25000E+07
 
    0.22318E+01         0.22404E+01         0.00000E+00
    0.22404E+01        -0.50000E+07         0.00000E+00
    0.00000E+00         0.00000E+00        -0.25000E+07
 
    0.12982E+01         0.24374E+01         0.00000E+00
    0.24374E+01        -0.50000E+07         0.00000E+00
    0.00000E+00         0.00000E+00        -0.25000E+07
 
    0.37883E+00         0.25248E+01         0.00000E+00
    0.25248E+01        -0.50000E+07         0.00000E+00
    0.00000E+00         0.00000E+00        -0.25000E+07
 
   -0.50292E+00         0.25072E+01         0.00000E+00
    0.25072E+01        -0.50000E+07         0.00000E+00
    0.00000E+00         0.00000E+00        -0.25000E+07
 
   -0.13253E+01         0.23913E+01         0.00000E+00
    0.23913E+01        -0.50000E+07         0.00000E+00
    0.00000E+00         0.00000E+00        -0.25000E+07
 
   -0.20686E+01         0.21860E+01         0.00000E+00
    0.21860E+01        -0.50000E+07         0.00000E+00
    0.00000E+00         0.00000E+00        -0.25000E+07
 
   -0.27155E+01         0.19018E+01         0.00000E+00
    0.19018E+01        -0.50000E+07         0.00000E+00
    0.00000E+00         0.00000E+00        -0.25000E+07
 
   -0.32513E+01         0.15508E+01         0.00000E+00
    0.15508E+01        -0.50000E+07         0.00000E+00
    0.00000E+00         0.00000E+00        -0.25000E+07
 
   -0.36639E+01         0.11467E+01         0.00000E+00
    0.11467E+01        -0.50000E+07         0.00000E+00
    0.00000E+00         0.00000E+00        -0.25000E+07
 
   -0.39441E+01         0.70373E+00         0.00000E+00
    0.70373E+00        -0.50000E+07         0.00000E+00
    0.00000E+00         0.00000E+00        -0.25000E+07
 
   -0.40857E+01         0.23721E+00         0.00000E+00
    0.23721E+00        -0.50000E+07         0.00000E+00
    0.00000E+00         0.00000E+00        -0.25000E+07
 
    0.68330E+01         0.42730E+00         0.00000E+00
    0.42730E+00        -0.50000E+07         0.00000E+00
    0.00000E+00         0.00000E+00        -0.25000E+07
 
    0.59223E+01         0.11826E+01         0.00000E+00
    0.11826E+01        -0.50000E+07         0.00000E+00
    0.00000E+00         0.00000E+00        -0.25000E+07
 
    0.49070E+01         0.18140E+01         0.00000E+00
    0.18140E+01        -0.50000E+07         0.00000E+00
    0.00000E+00         0.00000E+00        -0.25000E+07
 
    0.38197E+01         0.23148E+01         0.00000E+00
    0.23148E+01        -0.50000E+07         0.00000E+00
    0.00000E+00         0.00000E+00        -0.25000E+07
 
    0.26923E+01         0.26818E+01         0.00000E+00
    0.26818E+01        -0.50000E+07         0.00000E+00
    0.00000E+00         0.00000E+00        -0.25000E+07
 
    0.15560E+01         0.29149E+01         0.00000E+00
    0.29149E+01        -0.50000E+07         0.00000E+00
    0.00000E+00         0.00000E+00        -0.25000E+07
 
    0.44019E+00         0.30172E+01         0.00000E+00
    0.30172E+01        -0.50000E+07         0.00000E+00
    0.00000E+00         0.00000E+00        -0.25000E+07
 
   -0.62740E+00         0.29942E+01         0.00000E+00
    0.29942E+01        -0.50000E+07         0.00000E+00
    0.00000E+00         0.00000E+00        -0.25000E+07
 
   -0.16212E+01         0.28543E+01         0.00000E+00
    0.28543E+01        -0.50000E+07         0.00000E+00
    0.00000E+00         0.00000E+00        -0.25000E+07
 
   -0.25181E+01         0.26080E+01         0.00000E+00
    0.26080E+01        -0.50000E+07         0.00000E+00
    0.00000E+00         0.00000E+00        -0.25000E+07
 
   -0.32979E+01         0.22681E+01         0.00000E+00
    0.22681E+01        -0.50000E+07         0.00000E+00
    0.00000E+00         0.00000E+00        -0.25000E+07
 
   -0.39430E+01         0.18491E+01         0.00000E+00
    0.18491E+01        -0.50000E+07         0.00000E+00
    0.00000E+00         0.00000E+00        -0.25000E+07
 
   -0.44395E+01         0.13669E+01         0.00000E+00
    0.13669E+01        -0.50000E+07         0.00000E+00
    0.00000E+00         0.00000E+00        -0.25000E+07
 
   -0.47765E+01         0.83876E+00         0.00000E+00
    0.83876E+00        -0.50000E+07         0.00000E+00
    0.00000E+00         0.00000E+00        -0.25000E+07
 
   -0.49469E+01         0.28271E+00         0.00000E+00
    0.28271E+00        -0.50000E+07         0.00000E+00
    0.00000E+00         0.00000E+00        -0.25000E+07
 
    0.83219E+01         0.51230E+00         0.00000E+00
    0.51230E+00        -0.50000E+07         0.00000E+00
    0.00000E+00         0.00000E+00        -0.25000E+07
 
    0.71909E+01         0.14155E+01         0.00000E+00
    0.14155E+01        -0.50000E+07         0.00000E+00
    0.00000E+00         0.00000E+00        -0.25000E+07
 
    0.59410E+01         0.21684E+01         0.00000E+00
    0.21684E+01        -0.50000E+07         0.00000E+00
    0.00000E+00         0.00000E+00        -0.25000E+07
 
    0.46109E+01         0.27640E+01         0.00000E+00
    0.27640E+01        -0.50000E+07         0.00000E+00
    0.00000E+00         0.00000E+00        -0.25000E+07
 
    0.32383E+01         0.31994E+01         0.00000E+00
    0.31994E+01        -0.50000E+07         0.00000E+00
    0.00000E+00         0.00000E+00        -0.25000E+07
 
    0.18597E+01         0.34748E+01         0.00000E+00
    0.34748E+01        -0.50000E+07         0.00000E+00
    0.00000E+00         0.00000E+00        -0.25000E+07
 
    0.50986E+00         0.35943E+01         0.00000E+00
    0.35943E+01        -0.50000E+07         0.00000E+00
    0.00000E+00         0.00000E+00        -0.25000E+07
 
   -0.77876E+00         0.35650E+01         0.00000E+00
    0.35650E+01        -0.50000E+07         0.00000E+00
    0.00000E+00         0.00000E+00        -0.25000E+07
 
   -0.19762E+01         0.33968E+01         0.00000E+00
    0.33968E+01        -0.50000E+07         0.00000E+00
    0.00000E+00         0.00000E+00        -0.25000E+07
 
   -0.30554E+01         0.31026E+01         0.00000E+00
    0.31026E+01        -0.50000E+07         0.00000E+00
    0.00000E+00         0.00000E+00        -0.25000E+07
 
   -0.39925E+01         0.26974E+01         0.00000E+00
    0.26974E+01        -0.50000E+07         0.00000E+00
    0.00000E+00         0.00000E+00        -0.25000E+07
 
   -0.47673E+01         0.21986E+01         0.00000E+00
    0.21986E+01        -0.50000E+07         0.00000E+00
    0.00000E+00         0.00000E+00        -0.25000E+07
 
   -0.53632E+01         0.16250E+01         0.00000E+00
    0.16250E+01        -0.50000E+07         0.00000E+00
    0.00000E+00         0.00000E+00        -0.25000E+07
 
   -0.57675E+01         0.99703E+00         0.00000E+00
    0.99703E+00        -0.50000E+07         0.00000E+00
    0.00000E+00         0.00000E+00        -0.25000E+07
 
   -0.59718E+01         0.33604E+00         0.00000E+00
    0.33604E+00        -0.50000E+07         0.00000E+00
    0.00000E+00         0.00000E+00        -0.25000E+07
 
    0.10102E+02         0.61191E+00         0.00000E+00
    0.61191E+00        -0.50000E+07         0.00000E+00
    0.00000E+00         0.00000E+00        -0.25000E+07
 
    0.87032E+01         0.16882E+01         0.00000E+00
    0.16882E+01        -0.50000E+07         0.00000E+00
    0.00000E+00         0.00000E+00        -0.25000E+07
 
    0.71707E+01         0.25833E+01         0.00000E+00
    0.25833E+01        -0.50000E+07         0.00000E+00
    0.00000E+00         0.00000E+00        -0.25000E+07
 
    0.55495E+01         0.32899E+01         0.00000E+00
    0.32899E+01        -0.50000E+07         0.00000E+00
    0.00000E+00         0.00000E+00        -0.25000E+07
 
    0.38841E+01         0.38051E+01         0.00000E+00
    0.38051E+01        -0.50000E+07         0.00000E+00
    0.00000E+00         0.00000E+00        -0.25000E+07
 
    0.22172E+01         0.41301E+01         0.00000E+00
    0.41301E+01        -0.50000E+07         0.00000E+00
    0.00000E+00         0.00000E+00        -0.25000E+07
 
    0.58928E+00         0.42699E+01         0.00000E+00
    0.42699E+01        -0.50000E+07         0.00000E+00
    0.00000E+00         0.00000E+00        -0.25000E+07
 
   -0.96154E+00         0.42332E+01         0.00000E+00
    0.42332E+01        -0.50000E+07         0.00000E+00
    0.00000E+00         0.00000E+00        -0.25000E+07
 
   -0.24003E+01         0.40322E+01         0.00000E+00
    0.40322E+01        -0.50000E+07         0.00000E+00
    0.00000E+00         0.00000E+00        -0.25000E+07
 
   -0.36953E+01         0.36819E+01         0.00000E+00
    0.36819E+01        -0.50000E+07         0.00000E+00
    0.00000E+00         0.00000E+00        -0.25000E+07
 
   -0.48188E+01         0.32004E+01         0.00000E+00
    0.32004E+01        -0.50000E+07         0.00000E+00
    0.00000E+00         0.00000E+00        -0.25000E+07
 
   -0.57469E+01         0.26081E+01         0.00000E+00
    0.26081E+01        -0.50000E+07         0.00000E+00
    0.00000E+00         0.00000E+00        -0.25000E+07
 
   -0.64602E+01         0.19275E+01         0.00000E+00
    0.19275E+01        -0.50000E+07         0.00000E+00
    0.00000E+00         0.00000E+00        -0.25000E+07
 
   -0.69441E+01         0.11825E+01         0.00000E+00
    0.11825E+01        -0.50000E+07         0.00000E+00
    0.00000E+00         0.00000E+00        -0.25000E+07
 
   -0.71885E+01         0.39854E+00         0.00000E+00
    0.39854E+00        -0.50000E+07         0.00000E+00
    0.00000E+00         0.00000E+00        -0.25000E+07
 
    0.12222E+02         0.72831E+00         0.00000E+00
    0.72831E+00        -0.50000E+07         0.00000E+00
    0.00000E+00         0.00000E+00        -0.25000E+07
 
    0.10500E+02         0.20069E+01         0.00000E+00
    0.20069E+01        -0.50000E+07         0.00000E+00
    0.00000E+00         0.00000E+00        -0.25000E+07
 
    0.86291E+01         0.30682E+01         0.00000E+00
    0.30682E+01        -0.50000E+07         0.00000E+00
    0.00000E+00         0.00000E+00        -0.25000E+07
 
    0.66607E+01         0.39046E+01         0.00000E+00
    0.39046E+01        -0.50000E+07         0.00000E+00
    0.00000E+00         0.00000E+00        -0.25000E+07
 
    0.46470E+01         0.45134E+01         0.00000E+00
    0.45134E+01        -0.50000E+07         0.00000E+00
    0.00000E+00         0.00000E+00        -0.25000E+07
 
    0.26379E+01         0.48967E+01         0.00000E+00
    0.48967E+01        -0.50000E+07         0.00000E+00
    0.00000E+00         0.00000E+00        -0.25000E+07
 
    0.68052E+00         0.50606E+01         0.00000E+00
    0.50606E+01        -0.50000E+07         0.00000E+00
    0.00000E+00         0.00000E+00        -0.25000E+07
 
   -0.11807E+01         0.50157E+01         0.00000E+00
    0.50157E+01        -0.50000E+07         0.00000E+00
    0.00000E+00         0.00000E+00        -0.25000E+07
 
   -0.29049E+01         0.47765E+01         0.00000E+00
    0.47765E+01        -0.50000E+07         0.00000E+00
    0.00000E+00         0.00000E+00        -0.25000E+07
 
   -0.44551E+01         0.43609E+01         0.00000E+00
    0.43609E+01        -0.50000E+07         0.00000E+00
    0.00000E+00         0.00000E+00        -0.25000E+07
 
   -0.57989E+01         0.37902E+01         0.00000E+00
    0.37902E+01        -0.50000E+07         0.00000E+00
    0.00000E+00         0.00000E+00        -0.25000E+07
 
   -0.69082E+01         0.30885E+01         0.00000E+00
    0.30885E+01        -0.50000E+07         0.00000E+00
    0.00000E+00         0.00000E+00        -0.25000E+07
 
   -0.77605E+01         0.22823E+01         0.00000E+00
    0.22823E+01        -0.50000E+07         0.00000E+00
    0.00000E+00         0.00000E+00        -0.25000E+07
 
   -0.83385E+01         0.14002E+01         0.00000E+00
    0.14002E+01        -0.50000E+07         0.00000E+00
    0.00000E+00         0.00000E+00        -0.25000E+07
 
   -0.86304E+01         0.47190E+00         0.00000E+00
    0.47190E+00        -0.50000E+07         0.00000E+00
    0.00000E+00         0.00000E+00        -0.25000E+07
 
    0.14739E+02         0.86405E+00         0.00000E+00
    0.86405E+00        -0.50000E+07         0.00000E+00
    0.00000E+00         0.00000E+00        -0.25000E+07
 
    0.12631E+02         0.23787E+01         0.00000E+00
    0.23787E+01        -0.50000E+07         0.00000E+00
    0.00000E+00         0.00000E+00        -0.25000E+07
 
    0.10355E+02         0.36343E+01         0.00000E+00
    0.36343E+01        -0.50000E+07         0.00000E+00
    0.00000E+00         0.00000E+00        -0.25000E+07
 
    0.79742E+01         0.46228E+01         0.00000E+00
    0.46228E+01        -0.50000E+07         0.00000E+00
    0.00000E+00         0.00000E+00        -0.25000E+07
 
    0.55477E+01         0.53419E+01         0.00000E+00
    0.53419E+01        -0.50000E+07         0.00000E+00
    0.00000E+00         0.00000E+00        -0.25000E+07
 
    0.31335E+01         0.57941E+01         0.00000E+00
    0.57941E+01        -0.50000E+07         0.00000E+00
    0.00000E+00         0.00000E+00        -0.25000E+07
 
    0.78660E+00         0.59871E+01         0.00000E+00
    0.59871E+01        -0.50000E+07         0.00000E+00
    0.00000E+00         0.00000E+00        -0.25000E+07
 
   -0.14415E+01         0.59335E+01         0.00000E+00
    0.59335E+01        -0.50000E+07         0.00000E+00
    0.00000E+00         0.00000E+00        -0.25000E+07
 
   -0.35031E+01         0.56502E+01         0.00000E+00
    0.56502E+01        -0.50000E+07         0.00000E+00
    0.00000E+00         0.00000E+00        -0.25000E+07
 
   -0.53550E+01         0.51584E+01         0.00000E+00
    0.51584E+01        -0.50000E+07         0.00000E+00
    0.00000E+00         0.00000E+00        -0.25000E+07
 
   -0.69591E+01         0.44834E+01         0.00000E+00
    0.44834E+01        -0.50000E+07         0.00000E+00
    0.00000E+00         0.00000E+00        -0.25000E+07
 
   -0.82828E+01         0.36534E+01         0.00000E+00
    0.36534E+01        -0.50000E+07         0.00000E+00
    0.00000E+00         0.00000E+00        -0.25000E+07
 
   -0.92994E+01         0.26999E+01         0.00000E+00
    0.26999E+01        -0.50000E+07         0.00000E+00
    0.00000E+00         0.00000E+00        -0.25000E+07
 
   -0.99886E+01         0.16564E+01         0.00000E+00
    0.16564E+01        -0.50000E+07         0.00000E+00
    0.00000E+00         0.00000E+00        -0.25000E+07
 
   -0.10337E+02         0.55823E+00         0.00000E+00
    0.55823E+00        -0.50000E+07         0.00000E+00
    0.00000E+00         0.00000E+00        -0.25000E+07
 
    0.17719E+02         0.10222E+01         0.00000E+00
    0.10222E+01        -0.50000E+07         0.00000E+00
    0.00000E+00         0.00000E+00        -0.25000E+07
 
    0.15150E+02         0.28125E+01         0.00000E+00
    0.28125E+01        -0.50000E+07         0.00000E+00
    0.00000E+00         0.00000E+00        -0.25000E+07
 
    0.12395E+02         0.42956E+01         0.00000E+00
    0.42956E+01        -0.50000E+07         0.00000E+00
    0.00000E+00         0.00000E+00        -0.25000E+07
 
    0.95257E+01         0.54631E+01         0.00000E+00
    0.54631E+01        -0.50000E+07         0.00000E+00
    0.00000E+00         0.00000E+00        -0.25000E+07
 
    0.66115E+01         0.63125E+01         0.00000E+00
    0.63125E+01        -0.50000E+07         0.00000E+00
    0.00000E+00         0.00000E+00        -0.25000E+07
 
    0.37190E+01         0.68470E+01         0.00000E+00
    0.68470E+01        -0.50000E+07         0.00000E+00
    0.00000E+00         0.00000E+00        -0.25000E+07
 
    0.91199E+00         0.70757E+01         0.00000E+00
    0.70757E+01        -0.50000E+07         0.00000E+00
    0.00000E+00         0.00000E+00        -0.25000E+07
 
   -0.17495E+01         0.70131E+01         0.00000E+00
    0.70131E+01        -0.50000E+07         0.00000E+00
    0.00000E+00         0.00000E+00        -0.25000E+07
 
   -0.42098E+01         0.66792E+01         0.00000E+00
    0.66792E+01        -0.50000E+07         0.00000E+00
    0.00000E+00         0.00000E+00        -0.25000E+07
 
   -0.64184E+01         0.60989E+01         0.00000E+00
    0.60989E+01        -0.50000E+07         0.00000E+00
    0.00000E+00         0.00000E+00        -0.25000E+07
 
   -0.83307E+01         0.53015E+01         0.00000E+00
    0.53015E+01        -0.50000E+07         0.00000E+00
    0.00000E+00         0.00000E+00        -0.25000E+07
 
   -0.99081E+01         0.43206E+01         0.00000E+00
    0.43206E+01        -0.50000E+07         0.00000E+00
    0.00000E+00         0.00000E+00        -0.25000E+07
 
   -0.11119E+02         0.31932E+01         0.00000E+00
    0.31932E+01        -0.50000E+07         0.00000E+00
    0.00000E+00         0.00000E+00        -0.25000E+07
 
   -0.11940E+02         0.19592E+01         0.00000E+00
    0.19592E+01        -0.50000E+07         0.00000E+00
    0.00000E+00         0.00000E+00        -0.25000E+07
 
   -0.12355E+02         0.66032E+00         0.00000E+00
    0.66032E+00        -0.50000E+07         0.00000E+00
    0.00000E+00         0.00000E+00        -0.25000E+07
 
    0.21239E+02         0.12065E+01         0.00000E+00
    0.12065E+01        -0.50000E+07         0.00000E+00
    0.00000E+00         0.00000E+00        -0.25000E+07
 
    0.18124E+02         0.33192E+01         0.00000E+00
    0.33192E+01        -0.50000E+07         0.00000E+00
    0.00000E+00         0.00000E+00        -0.25000E+07
 
    0.14804E+02         0.50698E+01         0.00000E+00
    0.50698E+01        -0.50000E+07         0.00000E+00
    0.00000E+00         0.00000E+00        -0.25000E+07
 
    0.11359E+02         0.64489E+01         0.00000E+00
    0.64489E+01        -0.50000E+07         0.00000E+00
    0.00000E+00         0.00000E+00        -0.25000E+07
 
    0.78697E+01         0.74535E+01         0.00000E+00
    0.74535E+01        -0.50000E+07         0.00000E+00
    0.00000E+00         0.00000E+00        -0.25000E+07
 
    0.44132E+01         0.80873E+01         0.00000E+00
    0.80873E+01        -0.50000E+07         0.00000E+00
    0.00000E+00         0.00000E+00        -0.25000E+07
 
    0.10632E+01         0.83605E+01         0.00000E+00
    0.83605E+01        -0.50000E+07         0.00000E+00
    0.00000E+00         0.00000E+00        -0.25000E+07
 
   -0.21102E+01         0.82896E+01         0.00000E+00
    0.82896E+01        -0.50000E+07         0.00000E+00
    0.00000E+00         0.00000E+00        -0.25000E+07
 
   -0.50422E+01         0.78978E+01         0.00000E+00
    0.78978E+01        -0.50000E+07         0.00000E+00
    0.00000E+00         0.00000E+00        -0.25000E+07
 
   -0.76734E+01         0.72140E+01         0.00000E+00
    0.72140E+01        -0.50000E+07         0.00000E+00
    0.00000E+00         0.00000E+00        -0.25000E+07
 
   -0.99510E+01         0.62726E+01         0.00000E+00
    0.62726E+01        -0.50000E+07         0.00000E+00
    0.00000E+00         0.00000E+00        -0.25000E+07
 
   -0.11830E+02         0.51134E+01         0.00000E+00
    0.51134E+01        -0.50000E+07         0.00000E+00
    0.00000E+00         0.00000E+00        -0.25000E+07
 
   -0.13272E+02         0.37799E+01         0.00000E+00
    0.37799E+01        -0.50000E+07         0.00000E+00
    0.00000E+00         0.00000E+00        -0.25000E+07
 
   -0.14250E+02         0.23195E+01         0.00000E+00
    0.23195E+01        -0.50000E+07         0.00000E+00
    0.00000E+00         0.00000E+00        -0.25000E+07
 
   -0.14744E+02         0.78179E+00         0.00000E+00
    0.78179E+00        -0.50000E+07         0.00000E+00
    0.00000E+00         0.00000E+00        -0.25000E+07
 
    0.25391E+02         0.14216E+01         0.00000E+00
    0.14216E+01        -0.50000E+07         0.00000E+00
    0.00000E+00         0.00000E+00        -0.25000E+07
 
    0.21634E+02         0.39128E+01         0.00000E+00
    0.39128E+01        -0.50000E+07         0.00000E+00
    0.00000E+00         0.00000E+00        -0.25000E+07
 
    0.17649E+02         0.59796E+01         0.00000E+00
    0.59796E+01        -0.50000E+07         0.00000E+00
    0.00000E+00         0.00000E+00        -0.25000E+07
 
    0.13528E+02         0.76108E+01         0.00000E+00
    0.76108E+01        -0.50000E+07         0.00000E+00
    0.00000E+00         0.00000E+00        -0.25000E+07
 
    0.93621E+01         0.88021E+01         0.00000E+00
    0.88021E+01        -0.50000E+07         0.00000E+00
    0.00000E+00         0.00000E+00        -0.25000E+07
 
    0.52409E+01         0.95570E+01         0.00000E+00
    0.95570E+01        -0.50000E+07         0.00000E+00
    0.00000E+00         0.00000E+00        -0.25000E+07
 
    0.12499E+01         0.98864E+01         0.00000E+00
    0.98864E+01        -0.50000E+07         0.00000E+00
    0.00000E+00         0.00000E+00        -0.25000E+07
 
   -0.25294E+01         0.98090E+01         0.00000E+00
    0.98090E+01        -0.50000E+07         0.00000E+00
    0.00000E+00         0.00000E+00        -0.25000E+07
 
   -0.60205E+01         0.93510E+01         0.00000E+00
    0.93510E+01        -0.50000E+07         0.00000E+00
    0.00000E+00         0.00000E+00        -0.25000E+07
 
   -0.91534E+01         0.85460E+01         0.00000E+00
    0.85460E+01        -0.50000E+07         0.00000E+00
    0.00000E+00         0.00000E+00        -0.25000E+07
 
   -0.11866E+02         0.74344E+01         0.00000E+00
    0.74344E+01        -0.50000E+07         0.00000E+00
    0.00000E+00         0.00000E+00        -0.25000E+07
 
   -0.14103E+02         0.60628E+01         0.00000E+00
    0.60628E+01        -0.50000E+07         0.00000E+00
    0.00000E+00         0.00000E+00        -0.25000E+07
 
   -0.15821E+02         0.44831E+01         0.00000E+00
    0.44831E+01        -0.50000E+07         0.00000E+00
    0.00000E+00         0.00000E+00        -0.25000E+07
 
   -0.16986E+02         0.27515E+01         0.00000E+00
    0.27515E+01        -0.50000E+07         0.00000E+00
    0.00000E+00         0.00000E+00        -0.25000E+07
 
   -0.17575E+02         0.92751E+00         0.00000E+00
    0.92751E+00        -0.50000E+07         0.00000E+00
    0.00000E+00         0.00000E+00        -0.25000E+07
 
    0.30283E+02         0.16739E+01         0.00000E+00
    0.16739E+01        -0.50000E+07         0.00000E+00
    0.00000E+00         0.00000E+00        -0.25000E+07
 
    0.25777E+02         0.46118E+01         0.00000E+00
    0.46118E+01        -0.50000E+07         0.00000E+00
    0.00000E+00         0.00000E+00        -0.25000E+07
 
    0.21014E+02         0.70550E+01         0.00000E+00
    0.70550E+01        -0.50000E+07         0.00000E+00
    0.00000E+00         0.00000E+00        -0.25000E+07
 
    0.16100E+02         0.89891E+01         0.00000E+00
    0.89891E+01        -0.50000E+07         0.00000E+00
    0.00000E+00         0.00000E+00        -0.25000E+07
 
    0.11139E+02         0.10407E+02         0.00000E+00
    0.10407E+02        -0.50000E+07         0.00000E+00
    0.00000E+00         0.00000E+00        -0.25000E+07
 
    0.62348E+01         0.11312E+02         0.00000E+00
    0.11312E+02        -0.50000E+07         0.00000E+00
    0.00000E+00         0.00000E+00        -0.25000E+07
 
    0.14857E+01         0.11714E+02         0.00000E+00
    0.11714E+02        -0.50000E+07         0.00000E+00
    0.00000E+00         0.00000E+00        -0.25000E+07
 
   -0.30121E+01         0.11633E+02         0.00000E+00
    0.11633E+02        -0.50000E+07         0.00000E+00
    0.00000E+00         0.00000E+00        -0.25000E+07
 
   -0.71684E+01         0.11099E+02         0.00000E+00
    0.11099E+02        -0.50000E+07         0.00000E+00
    0.00000E+00         0.00000E+00        -0.25000E+07
 
   -0.10900E+02         0.10152E+02         0.00000E+00
    0.10152E+02        -0.50000E+07         0.00000E+00
    0.00000E+00         0.00000E+00        -0.25000E+07
 
   -0.14131E+02         0.88371E+01         0.00000E+00
    0.88371E+01        -0.50000E+07         0.00000E+00
    0.00000E+00         0.00000E+00        -0.25000E+07
 
   -0.16799E+02         0.72106E+01         0.00000E+00
    0.72106E+01        -0.50000E+07         0.00000E+00
    0.00000E+00         0.00000E+00        -0.25000E+07
 
   -0.18848E+02         0.53340E+01         0.00000E+00
    0.53340E+01        -0.50000E+07         0.00000E+00
    0.00000E+00         0.00000E+00        -0.25000E+07
 
   -0.20237E+02         0.32746E+01         0.00000E+00
    0.32746E+01        -0.50000E+07         0.00000E+00
    0.00000E+00         0.00000E+00        -0.25000E+07
 
   -0.20939E+02         0.11040E+01         0.00000E+00
    0.11040E+01        -0.50000E+07         0.00000E+00
    0.00000E+00         0.00000E+00        -0.25000E+07
 
    0.36049E+02         0.19713E+01         0.00000E+00
    0.19713E+01        -0.50000E+07         0.00000E+00
    0.00000E+00         0.00000E+00        -0.25000E+07
 
    0.30672E+02         0.54405E+01         0.00000E+00
    0.54405E+01        -0.50000E+07         0.00000E+00
    0.00000E+00         0.00000E+00        -0.25000E+07
 
    0.25004E+02         0.83362E+01         0.00000E+00
    0.83362E+01        -0.50000E+07         0.00000E+00
    0.00000E+00         0.00000E+00        -0.25000E+07
 
    0.19163E+02         0.10638E+02         0.00000E+00
    0.10638E+02        -0.50000E+07         0.00000E+00
    0.00000E+00         0.00000E+00        -0.25000E+07
 
    0.13268E+02         0.12336E+02         0.00000E+00
    0.12336E+02        -0.50000E+07         0.00000E+00
    0.00000E+00         0.00000E+00        -0.25000E+07
 
    0.74383E+01         0.13427E+02         0.00000E+00
    0.13427E+02        -0.50000E+07         0.00000E+00
    0.00000E+00         0.00000E+00        -0.25000E+07
 
    0.17901E+01         0.13924E+02         0.00000E+00
    0.13924E+02        -0.50000E+07         0.00000E+00
    0.00000E+00         0.00000E+00        -0.25000E+07
 
   -0.35634E+01         0.13845E+02         0.00000E+00
    0.13845E+02        -0.50000E+07         0.00000E+00
    0.00000E+00         0.00000E+00        -0.25000E+07
 
   -0.85145E+01         0.13225E+02         0.00000E+00
    0.13225E+02        -0.50000E+07         0.00000E+00
    0.00000E+00         0.00000E+00        -0.25000E+07
 
   -0.12963E+02         0.12108E+02         0.00000E+00
    0.12108E+02        -0.50000E+07         0.00000E+00
    0.00000E+00         0.00000E+00        -0.25000E+07
 
   -0.16820E+02         0.10549E+02         0.00000E+00
    0.10549E+02        -0.50000E+07         0.00000E+00
    0.00000E+00         0.00000E+00        -0.25000E+07
 
   -0.20005E+02         0.86131E+01         0.00000E+00
    0.86131E+01        -0.50000E+07         0.00000E+00
    0.00000E+00         0.00000E+00        -0.25000E+07
 
   -0.22453E+02         0.63748E+01         0.00000E+00
    0.63748E+01        -0.50000E+07         0.00000E+00
    0.00000E+00         0.00000E+00        -0.25000E+07
 
   -0.24113E+02         0.39150E+01         0.00000E+00
    0.39150E+01        -0.50000E+07         0.00000E+00
    0.00000E+00         0.00000E+00        -0.25000E+07
 
   -0.24952E+02         0.13201E+01         0.00000E+00
    0.13201E+01        -0.50000E+07         0.00000E+00
    0.00000E+00         0.00000E+00        -0.25000E+07
 
    0.42854E+02         0.23248E+01         0.00000E+00
    0.23248E+01        -0.50000E+07         0.00000E+00
    0.00000E+00         0.00000E+00        -0.25000E+07
 
    0.36473E+02         0.64322E+01         0.00000E+00
    0.64322E+01        -0.50000E+07         0.00000E+00
    0.00000E+00         0.00000E+00        -0.25000E+07
 
    0.29753E+02         0.98774E+01         0.00000E+00
    0.98774E+01        -0.50000E+07         0.00000E+00
    0.00000E+00         0.00000E+00        -0.25000E+07
 
    0.22829E+02         0.12632E+02         0.00000E+00
    0.12632E+02        -0.50000E+07         0.00000E+00
    0.00000E+00         0.00000E+00        -0.25000E+07
 
    0.15835E+02         0.14677E+02         0.00000E+00
    0.14677E+02        -0.50000E+07         0.00000E+00
    0.00000E+00         0.00000E+00        -0.25000E+07
 
    0.89094E+01         0.16006E+02         0.00000E+00
    0.16006E+02        -0.50000E+07         0.00000E+00
    0.00000E+00         0.00000E+00        -0.25000E+07
 
    0.21905E+01         0.16626E+02         0.00000E+00
    0.16626E+02        -0.50000E+07         0.00000E+00
    0.00000E+00         0.00000E+00        -0.25000E+07
 
   -0.41872E+01         0.16558E+02         0.00000E+00
    0.16558E+02        -0.50000E+07         0.00000E+00
    0.00000E+00         0.00000E+00        -0.25000E+07
 
   -0.10094E+02         0.15839E+02         0.00000E+00
    0.15839E+02        -0.50000E+07         0.00000E+00
    0.00000E+00         0.00000E+00        -0.25000E+07
 
   -0.15409E+02         0.14518E+02         0.00000E+00
    0.14518E+02        -0.50000E+07         0.00000E+00
    0.00000E+00         0.00000E+00        -0.25000E+07
 
   -0.20022E+02         0.12662E+02         0.00000E+00
    0.12662E+02        -0.50000E+07         0.00000E+00
    0.00000E+00         0.00000E+00        -0.25000E+07
 
   -0.23835E+02         0.10347E+02         0.00000E+00
    0.10347E+02        -0.50000E+07         0.00000E+00
    0.00000E+00         0.00000E+00        -0.25000E+07
 
   -0.26769E+02         0.76625E+01         0.00000E+00
    0.76625E+01        -0.50000E+07         0.00000E+00
    0.00000E+00         0.00000E+00        -0.25000E+07
 
   -0.28760E+02         0.47077E+01         0.00000E+00
    0.47077E+01        -0.50000E+07         0.00000E+00
    0.00000E+00         0.00000E+00        -0.25000E+07
 
   -0.29766E+02         0.15878E+01         0.00000E+00
    0.15878E+01        -0.50000E+07         0.00000E+00
    0.00000E+00         0.00000E+00        -0.25000E+07
 
    0.50905E+02         0.27494E+01         0.00000E+00
    0.27494E+01        -0.50000E+07         0.00000E+00
    0.00000E+00         0.00000E+00        -0.25000E+07
 
    0.43373E+02         0.76316E+01         0.00000E+00
    0.76316E+01        -0.50000E+07         0.00000E+00
    0.00000E+00         0.00000E+00        -0.25000E+07
 
    0.35437E+02         0.11752E+02         0.00000E+00
    0.11752E+02        -0.50000E+07         0.00000E+00
    0.00000E+00         0.00000E+00        -0.25000E+07
 
    0.27245E+02         0.15069E+02         0.00000E+00
    0.15069E+02        -0.50000E+07         0.00000E+00
    0.00000E+00         0.00000E+00        -0.25000E+07
 
    0.18954E+02         0.17552E+02         0.00000E+00
    0.17552E+02        -0.50000E+07         0.00000E+00
    0.00000E+00         0.00000E+00        -0.25000E+07
 
    0.10726E+02         0.19185E+02         0.00000E+00
    0.19185E+02        -0.50000E+07         0.00000E+00
    0.00000E+00         0.00000E+00        -0.25000E+07
 
    0.27249E+01         0.19969E+02         0.00000E+00
    0.19969E+02        -0.50000E+07         0.00000E+00
    0.00000E+00         0.00000E+00        -0.25000E+07
 
   -0.48870E+01         0.19925E+02         0.00000E+00
    0.19925E+02        -0.50000E+07         0.00000E+00
    0.00000E+00         0.00000E+00        -0.25000E+07
 
   -0.11952E+02         0.19090E+02         0.00000E+00
    0.19090E+02        -0.50000E+07         0.00000E+00
    0.00000E+00         0.00000E+00        -0.25000E+07
 
   -0.18320E+02         0.17523E+02         0.00000E+00
    0.17523E+02        -0.50000E+07         0.00000E+00
    0.00000E+00         0.00000E+00        -0.25000E+07
 
   -0.23856E+02         0.15300E+02         0.00000E+00
    0.15300E+02        -0.50000E+07         0.00000E+00
    0.00000E+00         0.00000E+00        -0.25000E+07
 
   -0.28439E+02         0.12514E+02         0.00000E+00
    0.12514E+02        -0.50000E+07         0.00000E+00
    0.00000E+00         0.00000E+00        -0.25000E+07
 
   -0.31968E+02         0.92742E+01         0.00000E+00
    0.92742E+01        -0.50000E+07         0.00000E+00
    0.00000E+00         0.00000E+00        -0.25000E+07
 
   -0.34365E+02         0.57006E+01         0.00000E+00
    0.57006E+01        -0.50000E+07         0.00000E+00
    0.00000E+00         0.00000E+00        -0.25000E+07
 
   -0.35578E+02         0.19231E+01         0.00000E+00
    0.19231E+01        -0.50000E+07         0.00000E+00
    0.00000E+00         0.00000E+00        -0.25000E+07
 
    0.60469E+02         0.32652E+01         0.00000E+00
    0.32652E+01        -0.50000E+07         0.00000E+00
    0.00000E+00         0.00000E+00        -0.25000E+07
 
    0.51627E+02         0.91001E+01         0.00000E+00
    0.91001E+01        -0.50000E+07         0.00000E+00
    0.00000E+00         0.00000E+00        -0.25000E+07
 
    0.42283E+02         0.14062E+02         0.00000E+00
    0.14062E+02        -0.50000E+07         0.00000E+00
    0.00000E+00         0.00000E+00        -0.25000E+07
 
    0.32606E+02         0.18087E+02         0.00000E+00
    0.18087E+02        -0.50000E+07         0.00000E+00
    0.00000E+00         0.00000E+00        -0.25000E+07
 
    0.22779E+02         0.21127E+02         0.00000E+00
    0.21127E+02        -0.50000E+07         0.00000E+00
    0.00000E+00         0.00000E+00        -0.25000E+07
 
    0.12993E+02         0.23153E+02         0.00000E+00
    0.23153E+02        -0.50000E+07         0.00000E+00
    0.00000E+00         0.00000E+00        -0.25000E+07
 
    0.34451E+01         0.24156E+02         0.00000E+00
    0.24156E+02        -0.50000E+07         0.00000E+00
    0.00000E+00         0.00000E+00        -0.25000E+07
 
   -0.56653E+01         0.24152E+02         0.00000E+00
    0.24152E+02        -0.50000E+07         0.00000E+00
    0.00000E+00         0.00000E+00        -0.25000E+07
 
   -0.14144E+02         0.23182E+02         0.00000E+00
    0.23182E+02        -0.50000E+07         0.00000E+00
    0.00000E+00         0.00000E+00        -0.25000E+07
 
   -0.21805E+02         0.21312E+02         0.00000E+00
    0.21312E+02        -0.50000E+07         0.00000E+00
    0.00000E+00         0.00000E+00        -0.25000E+07
 
   -0.28477E+02         0.18632E+02         0.00000E+00
    0.18632E+02        -0.50000E+07         0.00000E+00
    0.00000E+00         0.00000E+00        -0.25000E+07
 
   -0.34011E+02         0.15255E+02         0.00000E+00
    0.15255E+02        -0.50000E+07         0.00000E+00
    0.00000E+00         0.00000E+00        -0.25000E+07
 
   -0.38277E+02         0.11314E+02         0.00000E+00
    0.11314E+02        -0.50000E+07         0.00000E+00
    0.00000E+00         0.00000E+00        -0.25000E+07
 
   -0.41178E+02         0.69578E+01         0.00000E+00
    0.69578E+01        -0.50000E+07         0.00000E+00
    0.00000E+00         0.00000E+00        -0.25000E+07
 
   -0.42645E+02         0.23478E+01         0.00000E+00
    0.23478E+01        -0.50000E+07         0.00000E+00
    0.00000E+00         0.00000E+00        -0.25000E+07
 
    0.71895E+02         0.39003E+01         0.00000E+00
    0.39003E+01        -0.50000E+07         0.00000E+00
    0.00000E+00         0.00000E+00        -0.24999E+07
 
    0.61565E+02         0.10922E+02         0.00000E+00
    0.10922E+02        -0.50000E+07         0.00000E+00
    0.00000E+00         0.00000E+00        -0.25000E+07
 
    0.50593E+02         0.16943E+02         0.00000E+00
    0.16943E+02        -0.50000E+07         0.00000E+00
    0.00000E+00         0.00000E+00        -0.25000E+07
 
    0.39171E+02         0.21870E+02         0.00000E+00
    0.21870E+02        -0.50000E+07         0.00000E+00
    0.00000E+00         0.00000E+00        -0.25000E+07
 
    0.27513E+02         0.25627E+02         0.00000E+00
    0.25627E+02        -0.50000E+07         0.00000E+00
    0.00000E+00         0.00000E+00        -0.25000E+07
 
    0.15849E+02         0.28165E+02         0.00000E+00
    0.28165E+02        -0.50000E+07         0.00000E+00
    0.00000E+00         0.00000E+00        -0.25000E+07
 
    0.44214E+01         0.29459E+02         0.00000E+00
    0.29459E+02        -0.50000E+07         0.00000E+00
    0.00000E+00         0.00000E+00        -0.25000E+07
 
   -0.65244E+01         0.29519E+02         0.00000E+00
    0.29519E+02        -0.50000E+07         0.00000E+00
    0.00000E+00         0.00000E+00        -0.25000E+07
 
   -0.16745E+02         0.28387E+02         0.00000E+00
    0.28387E+02        -0.50000E+07         0.00000E+00
    0.00000E+00         0.00000E+00        -0.25000E+07
 
   -0.26006E+02         0.26139E+02         0.00000E+00
    0.26139E+02        -0.50000E+07         0.00000E+00
    0.00000E+00         0.00000E+00        -0.25000E+07
 
   -0.34091E+02         0.22882E+02         0.00000E+00
    0.22882E+02        -0.50000E+07         0.00000E+00
    0.00000E+00         0.00000E+00        -0.25000E+07
 
   -0.40808E+02         0.18755E+02         0.00000E+00
    0.18755E+02        -0.50000E+07         0.00000E+00
    0.00000E+00         0.00000E+00        -0.25000E+07
 
   -0.45995E+02         0.13920E+02         0.00000E+00
    0.13920E+02        -0.50000E+07         0.00000E+00
    0.00000E+00         0.00000E+00        -0.25000E+07
 
   -0.49526E+02         0.85652E+01         0.00000E+00
    0.85652E+01        -0.50000E+07         0.00000E+00
    0.00000E+00         0.00000E+00        -0.25000E+07
 
   -0.51313E+02         0.28909E+01         0.00000E+00
    0.28909E+01        -0.50000E+07         0.00000E+00
    0.00000E+00         0.00000E+00        -0.25000E+07
 
    0.85640E+02         0.46926E+01         0.00000E+00
    0.46926E+01        -0.50000E+07         0.00000E+00
    0.00000E+00         0.00000E+00        -0.24999E+07
 
    0.73628E+02         0.13210E+02         0.00000E+00
    0.13210E+02        -0.50000E+07         0.00000E+00
    0.00000E+00         0.00000E+00        -0.24999E+07
 
    0.60768E+02         0.20581E+02         0.00000E+00
    0.20581E+02        -0.50000E+07         0.00000E+00
    0.00000E+00         0.00000E+00        -0.24999E+07
 
    0.47283E+02         0.26667E+02         0.00000E+00
    0.26667E+02        -0.50000E+07         0.00000E+00
    0.00000E+00         0.00000E+00        -0.24999E+07
 
    0.33427E+02         0.31354E+02         0.00000E+00
    0.31354E+02        -0.50000E+07         0.00000E+00
    0.00000E+00         0.00000E+00        -0.24999E+07
 
    0.19482E+02         0.34561E+02         0.00000E+00
    0.34561E+02        -0.50000E+07         0.00000E+00
    0.00000E+00         0.00000E+00        -0.24999E+07
 
    0.57474E+01         0.36243E+02         0.00000E+00
    0.36243E+02        -0.50000E+07         0.00000E+00
    0.00000E+00         0.00000E+00        -0.24999E+07
 
   -0.74668E+01         0.36399E+02         0.00000E+00
    0.36399E+02        -0.50000E+07         0.00000E+00
    0.00000E+00         0.00000E+00        -0.25000E+07
 
   -0.19852E+02         0.35071E+02         0.00000E+00
    0.35071E+02        -0.50000E+07         0.00000E+00
    0.00000E+00         0.00000E+00        -0.25000E+07
 
   -0.31112E+02         0.32345E+02         0.00000E+00
    0.32345E+02        -0.50000E+07         0.00000E+00
    0.00000E+00         0.00000E+00        -0.25000E+07
 
   -0.40968E+02         0.28352E+02         0.00000E+00
    0.28352E+02        -0.50000E+07         0.00000E+00
    0.00000E+00         0.00000E+00        -0.25000E+07
 
   -0.49174E+02         0.23262E+02         0.00000E+00
    0.23262E+02        -0.50000E+07         0.00000E+00
    0.00000E+00         0.00000E+00        -0.25000E+07
 
   -0.55520E+02         0.17279E+02         0.00000E+00
    0.17279E+02        -0.50000E+07         0.00000E+00
    0.00000E+00         0.00000E+00        -0.25000E+07
 
   -0.59845E+02         0.10637E+02         0.00000E+00
    0.10637E+02        -0.50000E+07         0.00000E+00
    0.00000E+00         0.00000E+00        -0.25000E+07
 
   -0.62036E+02         0.35912E+01         0.00000E+00
    0.35912E+01        -0.50000E+07         0.00000E+00
    0.00000E+00         0.00000E+00        -0.25000E+07
 
    0.10231E+03         0.56942E+01         0.00000E+00
    0.56942E+01        -0.50000E+07         0.00000E+00
    0.00000E+00         0.00000E+00        -0.24999E+07
 
    0.88399E+02         0.16120E+02         0.00000E+00
    0.16120E+02        -0.50000E+07         0.00000E+00
    0.00000E+00         0.00000E+00        -0.24999E+07
 
    0.73341E+02         0.25227E+02         0.00000E+00
    0.25227E+02        -0.50000E+07         0.00000E+00
    0.00000E+00         0.00000E+00        -0.24999E+07
 
    0.57398E+02         0.32815E+02         0.00000E+00
    0.32815E+02        -0.50000E+07         0.00000E+00
    0.00000E+00         0.00000E+00        -0.24999E+07
 
    0.40880E+02         0.38714E+02         0.00000E+00
    0.38714E+02        -0.50000E+07         0.00000E+00
    0.00000E+00         0.00000E+00        -0.24999E+07
 
    0.24137E+02         0.42799E+02         0.00000E+00
    0.42799E+02        -0.50000E+07         0.00000E+00
    0.00000E+00         0.00000E+00        -0.24999E+07
 
    0.75469E+01         0.44997E+02         0.00000E+00
    0.44997E+02        -0.50000E+07         0.00000E+00
    0.00000E+00         0.00000E+00        -0.24999E+07
 
   -0.84966E+01         0.45290E+02         0.00000E+00
    0.45290E+02        -0.50000E+07         0.00000E+00
    0.00000E+00         0.00000E+00        -0.24999E+07
 
   -0.23598E+02         0.43718E+02         0.00000E+00
    0.43718E+02        -0.50000E+07         0.00000E+00
    0.00000E+00         0.00000E+00        -0.24999E+07
 
   -0.37375E+02         0.40382E+02         0.00000E+00
    0.40382E+02        -0.50000E+07         0.00000E+00
    0.00000E+00         0.00000E+00        -0.24999E+07
 
   -0.49470E+02         0.35441E+02         0.00000E+00
    0.35441E+02        -0.50000E+07         0.00000E+00
    0.00000E+00         0.00000E+00        -0.24999E+07
 
   -0.59561E+02         0.29106E+02         0.00000E+00
    0.29106E+02        -0.50000E+07         0.00000E+00
    0.00000E+00         0.00000E+00        -0.24999E+07
 
   -0.67380E+02         0.21636E+02         0.00000E+00
    0.21636E+02        -0.50000E+07         0.00000E+00
    0.00000E+00         0.00000E+00        -0.24999E+07
 
   -0.72714E+02         0.13326E+02         0.00000E+00
    0.13326E+02        -0.50000E+07         0.00000E+00
    0.00000E+00         0.00000E+00        -0.24999E+07
 
   -0.75418E+02         0.44998E+01         0.00000E+00
    0.44998E+01        -0.50000E+07         0.00000E+00
    0.00000E+00         0.00000E+00        -0.24999E+07
 
    0.12272E+03         0.69753E+01         0.00000E+00
    0.69753E+01        -0.50000E+07         0.00000E+00
    0.00000E+00         0.00000E+00        -0.24999E+07
 
    0.10666E+03         0.19860E+02         0.00000E+00
    0.19860E+02        -0.50000E+07         0.00000E+00
    0.00000E+00         0.00000E+00        -0.24999E+07
 
    0.89021E+02         0.31219E+02         0.00000E+00
    0.31219E+02        -0.50000E+07         0.00000E+00
    0.00000E+00         0.00000E+00        -0.24999E+07
 
    0.70124E+02         0.40763E+02         0.00000E+00
    0.40763E+02        -0.50000E+07         0.00000E+00
    0.00000E+00         0.00000E+00        -0.24999E+07
 
    0.50349E+02         0.48247E+02         0.00000E+00
    0.48247E+02        -0.50000E+07         0.00000E+00
    0.00000E+00         0.00000E+00        -0.24999E+07
 
    0.30141E+02         0.53488E+02         0.00000E+00
    0.53488E+02        -0.50000E+07         0.00000E+00
    0.00000E+00         0.00000E+00        -0.24999E+07
 
    0.99816E+01         0.56369E+02         0.00000E+00
    0.56369E+02        -0.50000E+07         0.00000E+00
    0.00000E+00         0.00000E+00        -0.24999E+07
 
   -0.96223E+01         0.56849E+02         0.00000E+00
    0.56849E+02        -0.50000E+07         0.00000E+00
    0.00000E+00         0.00000E+00        -0.24999E+07
 
   -0.28159E+02         0.54968E+02         0.00000E+00
    0.54968E+02        -0.50000E+07         0.00000E+00
    0.00000E+00         0.00000E+00        -0.24999E+07
 
   -0.45132E+02         0.50844E+02         0.00000E+00
    0.50844E+02        -0.50000E+07         0.00000E+00
    0.00000E+00         0.00000E+00        -0.24999E+07
 
   -0.60076E+02         0.44673E+02         0.00000E+00
    0.44673E+02        -0.50000E+07         0.00000E+00
    0.00000E+00         0.00000E+00        -0.24999E+07
 
   -0.72574E+02         0.36720E+02         0.00000E+00
    0.36720E+02        -0.50000E+07         0.00000E+00
    0.00000E+00         0.00000E+00        -0.24999E+07
 
   -0.82273E+02         0.27313E+02         0.00000E+00
    0.27313E+02        -0.50000E+07         0.00000E+00
    0.00000E+00         0.00000E+00        -0.24999E+07
 
   -0.88897E+02         0.16829E+02         0.00000E+00
    0.16829E+02        -0.50000E+07         0.00000E+00
    0.00000E+00         0.00000E+00        -0.24999E+07
 
   -0.92258E+02         0.56841E+01         0.00000E+00
    0.56841E+01        -0.50000E+07         0.00000E+00
    0.00000E+00         0.00000E+00        -0.24999E+07
 
    0.14794E+03         0.86309E+01         0.00000E+00
    0.86309E+01        -0.50000E+07         0.00000E+00
    0.00000E+00         0.00000E+00        -0.24999E+07
 
    0.12944E+03         0.24710E+02         0.00000E+00
    0.24710E+02        -0.50000E+07         0.00000E+00
    0.00000E+00         0.00000E+00        -0.24999E+07
 
    0.10875E+03         0.39005E+02         0.00000E+00
    0.39005E+02        -0.50000E+07         0.00000E+00
    0.00000E+00         0.00000E+00        -0.24999E+07
 
    0.86264E+02         0.51107E+02         0.00000E+00
    0.51107E+02        -0.50000E+07         0.00000E+00
    0.00000E+00         0.00000E+00        -0.24999E+07
 
    0.62464E+02         0.60671E+02         0.00000E+00
    0.60671E+02        -0.50000E+07         0.00000E+00
    0.00000E+00         0.00000E+00        -0.24999E+07
 
    0.37921E+02         0.67429E+02         0.00000E+00
    0.67429E+02        -0.50000E+07         0.00000E+00
    0.00000E+00         0.00000E+00        -0.24999E+07
 
    0.13260E+02         0.71210E+02         0.00000E+00
    0.71210E+02        -0.50000E+07         0.00000E+00
    0.00000E+00         0.00000E+00        -0.24999E+07
 
   -0.10860E+02         0.71942E+02         0.00000E+00
    0.71942E+02        -0.50000E+07         0.00000E+00
    0.00000E+00         0.00000E+00        -0.24999E+07
 
   -0.33774E+02         0.69662E+02         0.00000E+00
    0.69662E+02        -0.50000E+07         0.00000E+00
    0.00000E+00         0.00000E+00        -0.24999E+07
 
   -0.54831E+02         0.64512E+02         0.00000E+00
    0.64512E+02        -0.50000E+07         0.00000E+00
    0.00000E+00         0.00000E+00        -0.24999E+07
 
   -0.73425E+02         0.56735E+02         0.00000E+00
    0.56735E+02        -0.50000E+07         0.00000E+00
    0.00000E+00         0.00000E+00        -0.24999E+07
 
   -0.89009E+02         0.46669E+02         0.00000E+00
    0.46669E+02        -0.50000E+07         0.00000E+00
    0.00000E+00         0.00000E+00        -0.24999E+07
 
   -0.10112E+03         0.34731E+02         0.00000E+00
    0.34731E+02        -0.49999E+07         0.00000E+00
    0.00000E+00         0.00000E+00        -0.24999E+07
 
   -0.10941E+03         0.21407E+02         0.00000E+00
    0.21407E+02        -0.49999E+07         0.00000E+00
    0.00000E+00         0.00000E+00        -0.24999E+07
 
   -0.11361E+03         0.72316E+01         0.00000E+00
    0.72316E+01        -0.49999E+07         0.00000E+00
    0.00000E+00         0.00000E+00        -0.24999E+07
 
    0.17943E+03         0.10788E+02         0.00000E+00
    0.10788E+02        -0.50000E+07         0.00000E+00
    0.00000E+00         0.00000E+00        -0.24998E+07
 
    0.15813E+03         0.31039E+02         0.00000E+00
    0.31039E+02        -0.50000E+07         0.00000E+00
    0.00000E+00         0.00000E+00        -0.24998E+07
 
    0.13378E+03         0.49179E+02         0.00000E+00
    0.49179E+02        -0.50000E+07         0.00000E+00
    0.00000E+00         0.00000E+00        -0.24998E+07
 
    0.10688E+03         0.64635E+02         0.00000E+00
    0.64635E+02        -0.50000E+07         0.00000E+00
    0.00000E+00         0.00000E+00        -0.24998E+07
 
    0.78047E+02         0.76924E+02         0.00000E+00
    0.76924E+02        -0.50000E+07         0.00000E+00
    0.00000E+00         0.00000E+00        -0.24998E+07
 
    0.48032E+02         0.85672E+02         0.00000E+00
    0.85672E+02        -0.50000E+07         0.00000E+00
    0.00000E+00         0.00000E+00        -0.24998E+07
 
    0.17648E+02         0.90632E+02         0.00000E+00
    0.90632E+02        -0.50000E+07         0.00000E+00
    0.00000E+00         0.00000E+00        -0.24999E+07
 
   -0.12241E+02         0.91694E+02         0.00000E+00
    0.91694E+02        -0.50000E+07         0.00000E+00
    0.00000E+00         0.00000E+00        -0.24999E+07
 
   -0.40764E+02         0.88891E+02         0.00000E+00
    0.88891E+02        -0.50000E+07         0.00000E+00
    0.00000E+00         0.00000E+00        -0.24999E+07
 
   -0.67069E+02         0.82396E+02         0.00000E+00
    0.82396E+02        -0.49999E+07         0.00000E+00
    0.00000E+00         0.00000E+00        -0.24999E+07
 
   -0.90359E+02         0.72516E+02         0.00000E+00
    0.72516E+02        -0.49999E+07         0.00000E+00
    0.00000E+00         0.00000E+00        -0.24999E+07
 
   -0.10992E+03         0.59683E+02         0.00000E+00
    0.59683E+02        -0.49999E+07         0.00000E+00
    0.00000E+00         0.00000E+00        -0.24999E+07
 
   -0.12515E+03         0.44435E+02         0.00000E+00
    0.44435E+02        -0.49999E+07         0.00000E+00
    0.00000E+00         0.00000E+00        -0.24999E+07
 
   -0.13558E+03         0.27396E+02         0.00000E+00
    0.27396E+02        -0.49999E+07         0.00000E+00
    0.00000E+00         0.00000E+00        -0.24999E+07
 
   -0.14087E+03         0.92557E+01         0.00000E+00
    0.92557E+01        -0.49999E+07         0.00000E+00
    0.00000E+00         0.00000E+00        -0.24999E+07
 
    0.21912E+03         0.13613E+02         0.00000E+00
    0.13613E+02        -0.50000E+07         0.00000E+00
    0.00000E+00         0.00000E+00        -0.24998E+07
 
    0.19456E+03         0.39338E+02         0.00000E+00
    0.39338E+02        -0.50000E+07         0.00000E+00
    0.00000E+00         0.00000E+00        -0.24998E+07
 
    0.16576E+03         0.62521E+02         0.00000E+00
    0.62521E+02        -0.50000E+07         0.00000E+00
    0.00000E+00         0.00000E+00        -0.24998E+07
 
    0.13335E+03         0.82373E+02         0.00000E+00
    0.82373E+02        -0.50000E+07         0.00000E+00
    0.00000E+00         0.00000E+00        -0.24998E+07
 
    0.98174E+02         0.98231E+02         0.00000E+00
    0.98231E+02        -0.50000E+07         0.00000E+00
    0.00000E+00         0.00000E+00        -0.24998E+07
 
    0.61192E+02         0.10958E+03         0.00000E+00
    0.10958E+03        -0.50000E+07         0.00000E+00
    0.00000E+00         0.00000E+00        -0.24998E+07
 
    0.23483E+02         0.11608E+03         0.00000E+00
    0.11608E+03        -0.50000E+07         0.00000E+00
    0.00000E+00         0.00000E+00        -0.24998E+07
 
   -0.13818E+02         0.11756E+03         0.00000E+00
    0.11756E+03        -0.50000E+07         0.00000E+00
    0.00000E+00         0.00000E+00        -0.24998E+07
 
   -0.49564E+02         0.11406E+03         0.00000E+00
    0.11406E+03        -0.49999E+07         0.00000E+00
    0.00000E+00         0.00000E+00        -0.24998E+07
 
   -0.82637E+02         0.10580E+03         0.00000E+00
    0.10580E+03        -0.49999E+07         0.00000E+00
    0.00000E+00         0.00000E+00        -0.24998E+07
 
   -0.11199E+03         0.93160E+02         0.00000E+00
    0.93160E+02        -0.49999E+07         0.00000E+00
    0.00000E+00         0.00000E+00        -0.24998E+07
 
   -0.13669E+03         0.76704E+02         0.00000E+00
    0.76704E+02        -0.49999E+07         0.00000E+00
    0.00000E+00         0.00000E+00        -0.24998E+07
 
   -0.15595E+03         0.57122E+02         0.00000E+00
    0.57122E+02        -0.49999E+07         0.00000E+00
    0.00000E+00         0.00000E+00        -0.24998E+07
 
   -0.16914E+03         0.35224E+02         0.00000E+00
    0.35224E+02        -0.49999E+07         0.00000E+00
    0.00000E+00         0.00000E+00        -0.24998E+07
 
   -0.17585E+03         0.11902E+02         0.00000E+00
    0.11902E+02        -0.49999E+07         0.00000E+00
    0.00000E+00         0.00000E+00        -0.24998E+07
 
    0.26956E+03         0.17329E+02         0.00000E+00
    0.17329E+02        -0.50000E+07         0.00000E+00
    0.00000E+00         0.00000E+00        -0.24997E+07
 
    0.24115E+03         0.50244E+02         0.00000E+00
    0.50244E+02        -0.50000E+07         0.00000E+00
    0.00000E+00         0.00000E+00        -0.24997E+07
 
    0.20684E+03         0.80044E+02         0.00000E+00
    0.80044E+02        -0.50000E+07         0.00000E+00
    0.00000E+00         0.00000E+00        -0.24997E+07
 
    0.16751E+03         0.10565E+03         0.00000E+00
    0.10565E+03        -0.50000E+07         0.00000E+00
    0.00000E+00         0.00000E+00        -0.24997E+07
 
    0.12423E+03         0.12617E+03         0.00000E+00
    0.12617E+03        -0.50000E+07         0.00000E+00
    0.00000E+00         0.00000E+00        -0.24997E+07
 
    0.78320E+02         0.14091E+03         0.00000E+00
    0.14091E+03        -0.50000E+07         0.00000E+00
    0.00000E+00         0.00000E+00        -0.24998E+07
 
    0.31184E+02         0.14939E+03         0.00000E+00
    0.14939E+03        -0.49999E+07         0.00000E+00
    0.00000E+00         0.00000E+00        -0.24998E+07
 
   -0.15679E+02         0.15140E+03         0.00000E+00
    0.15140E+03        -0.49999E+07         0.00000E+00
    0.00000E+00         0.00000E+00        -0.24998E+07
 
   -0.60756E+02         0.14697E+03         0.00000E+00
    0.14697E+03        -0.49999E+07         0.00000E+00
    0.00000E+00         0.00000E+00        -0.24998E+07
 
   -0.10258E+03         0.13638E+03         0.00000E+00
    0.13638E+03        -0.49999E+07         0.00000E+00
    0.00000E+00         0.00000E+00        -0.24998E+07
 
   -0.13978E+03         0.12012E+03         0.00000E+00
    0.12012E+03        -0.49999E+07         0.00000E+00
    0.00000E+00         0.00000E+00        -0.24998E+07
 
   -0.17113E+03         0.98926E+02         0.00000E+00
    0.98926E+02        -0.49998E+07         0.00000E+00
    0.00000E+00         0.00000E+00        -0.24998E+07
 
   -0.19560E+03         0.73683E+02         0.00000E+00
    0.73683E+02        -0.49998E+07         0.00000E+00
    0.00000E+00         0.00000E+00        -0.24998E+07
 
   -0.21237E+03         0.45440E+02         0.00000E+00
    0.45440E+02        -0.49998E+07         0.00000E+00
    0.00000E+00         0.00000E+00        -0.24998E+07
 
   -0.22090E+03         0.15354E+02         0.00000E+00
    0.15354E+02        -0.49998E+07         0.00000E+00
    0.00000E+00         0.00000E+00        -0.24998E+07
 
    0.33416E+03         0.22222E+02         0.00000E+00
    0.22222E+02        -0.50000E+07         0.00000E+00
    0.00000E+00         0.00000E+00        -0.24996E+07
 
    0.30106E+03         0.64587E+02         0.00000E+00
    0.64587E+02        -0.50000E+07         0.00000E+00
    0.00000E+00         0.00000E+00        -0.24997E+07
 
    0.25985E+03         0.10306E+03         0.00000E+00
    0.10306E+03        -0.50000E+07         0.00000E+00
    0.00000E+00         0.00000E+00        -0.24997E+07
 
    0.21168E+03         0.13619E+03         0.00000E+00
    0.13619E+03        -0.50000E+07         0.00000E+00
    0.00000E+00         0.00000E+00        -0.24997E+07
 
    0.15802E+03         0.16277E+03         0.00000E+00
    0.16277E+03        -0.50000E+07         0.00000E+00
    0.00000E+00         0.00000E+00        -0.24997E+07
 
    0.10059E+03         0.18189E+03         0.00000E+00
    0.18189E+03        -0.50000E+07         0.00000E+00
    0.00000E+00         0.00000E+00        -0.24997E+07
 
    0.41268E+02         0.19293E+03         0.00000E+00
    0.19293E+03        -0.49999E+07         0.00000E+00
    0.00000E+00         0.00000E+00        -0.24997E+07
 
   -0.17962E+02         0.19559E+03         0.00000E+00
    0.19559E+03        -0.49999E+07         0.00000E+00
    0.00000E+00         0.00000E+00        -0.24997E+07
 
   -0.75116E+02         0.18991E+03         0.00000E+00
    0.18991E+03        -0.49999E+07         0.00000E+00
    0.00000E+00         0.00000E+00        -0.24997E+07
 
   -0.12827E+03         0.17624E+03         0.00000E+00
    0.17624E+03        -0.49998E+07         0.00000E+00
    0.00000E+00         0.00000E+00        -0.24997E+07
 
   -0.17562E+03         0.15525E+03         0.00000E+00
    0.15525E+03        -0.49998E+07         0.00000E+00
    0.00000E+00         0.00000E+00        -0.24997E+07
 
   -0.21558E+03         0.12786E+03         0.00000E+00
    0.12786E+03        -0.49998E+07         0.00000E+00
    0.00000E+00         0.00000E+00        -0.24997E+07
 
   -0.24679E+03         0.95237E+02         0.00000E+00
    0.95237E+02        -0.49998E+07         0.00000E+00
    0.00000E+00         0.00000E+00        -0.24998E+07
 
   -0.26820E+03         0.58734E+02         0.00000E+00
    0.58734E+02        -0.49998E+07         0.00000E+00
    0.00000E+00         0.00000E+00        -0.24998E+07
 
   -0.27909E+03         0.19846E+02         0.00000E+00
    0.19846E+02        -0.49998E+07         0.00000E+00
    0.00000E+00         0.00000E+00        -0.24998E+07
 
    0.41737E+03         0.28665E+02         0.00000E+00
    0.28665E+02        -0.50000E+07         0.00000E+00
    0.00000E+00         0.00000E+00        -0.24996E+07
 
    0.37846E+03         0.83429E+02         0.00000E+00
    0.83429E+02        -0.50000E+07         0.00000E+00
    0.00000E+00         0.00000E+00        -0.24996E+07
 
    0.32844E+03         0.13323E+03         0.00000E+00
    0.13323E+03        -0.50000E+07         0.00000E+00
    0.00000E+00         0.00000E+00        -0.24996E+07
 
    0.26890E+03         0.17615E+03         0.00000E+00
    0.17615E+03        -0.50000E+07         0.00000E+00
    0.00000E+00         0.00000E+00        -0.24996E+07
 
    0.20181E+03         0.21060E+03         0.00000E+00
    0.21060E+03        -0.50000E+07         0.00000E+00
    0.00000E+00         0.00000E+00        -0.24996E+07
 
    0.12947E+03         0.23538E+03         0.00000E+00
    0.23538E+03        -0.49999E+07         0.00000E+00
    0.00000E+00         0.00000E+00        -0.24996E+07
 
    0.54366E+02         0.24967E+03         0.00000E+00
    0.24967E+03        -0.49999E+07         0.00000E+00
    0.00000E+00         0.00000E+00        -0.24996E+07
 
   -0.20884E+02         0.25310E+03         0.00000E+00
    0.25310E+03        -0.49998E+07         0.00000E+00
    0.00000E+00         0.00000E+00        -0.24996E+07
 
   -0.93676E+02         0.24573E+03         0.00000E+00
    0.24573E+03        -0.49998E+07         0.00000E+00
    0.00000E+00         0.00000E+00        -0.24997E+07
 
   -0.16149E+03         0.22803E+03         0.00000E+00
    0.22803E+03        -0.49998E+07         0.00000E+00
    0.00000E+00         0.00000E+00        -0.24997E+07
 
   -0.22198E+03         0.20085E+03         0.00000E+00
    0.20085E+03        -0.49997E+07         0.00000E+00
    0.00000E+00         0.00000E+00        -0.24997E+07
 
   -0.27306E+03         0.16540E+03         0.00000E+00
    0.16540E+03        -0.49997E+07         0.00000E+00
    0.00000E+00         0.00000E+00        -0.24997E+07
 
   -0.31299E+03         0.12319E+03         0.00000E+00
    0.12319E+03        -0.49997E+07         0.00000E+00
    0.00000E+00         0.00000E+00        -0.24997E+07
 
   -0.34039E+03         0.75966E+02         0.00000E+00
    0.75966E+02        -0.49997E+07         0.00000E+00
    0.00000E+00         0.00000E+00        -0.24997E+07
 
   -0.35433E+03         0.25668E+02         0.00000E+00
    0.25668E+02        -0.49997E+07         0.00000E+00
    0.00000E+00         0.00000E+00        -0.24997E+07
 
    0.52502E+03         0.37134E+02         0.00000E+00
    0.37134E+02        -0.50000E+07         0.00000E+00
    0.00000E+00         0.00000E+00        -0.24994E+07
 
    0.47870E+03         0.10813E+03         0.00000E+00
    0.10813E+03        -0.50000E+07         0.00000E+00
    0.00000E+00         0.00000E+00        -0.24995E+07
 
    0.41731E+03         0.17268E+03         0.00000E+00
    0.17268E+03        -0.50000E+07         0.00000E+00
    0.00000E+00         0.00000E+00        -0.24995E+07
 
    0.34302E+03         0.22830E+03         0.00000E+00
    0.22830E+03        -0.50000E+07         0.00000E+00
    0.00000E+00         0.00000E+00        -0.24995E+07
 
    0.25849E+03         0.27289E+03         0.00000E+00
    0.27289E+03        -0.49999E+07         0.00000E+00
    0.00000E+00         0.00000E+00        -0.24995E+07
 
    0.16680E+03         0.30490E+03         0.00000E+00
    0.30490E+03        -0.49999E+07         0.00000E+00
    0.00000E+00         0.00000E+00        -0.24995E+07
 
    0.71237E+02         0.32331E+03         0.00000E+00
    0.32331E+03        -0.49998E+07         0.00000E+00
    0.00000E+00         0.00000E+00        -0.24995E+07
 
   -0.24766E+02         0.32765E+03         0.00000E+00
    0.32765E+03        -0.49998E+07         0.00000E+00
    0.00000E+00         0.00000E+00        -0.24995E+07
 
   -0.11779E+03         0.31801E+03         0.00000E+00
    0.31801E+03        -0.49997E+07         0.00000E+00
    0.00000E+00         0.00000E+00        -0.24996E+07
 
   -0.20456E+03         0.29501E+03         0.00000E+00
    0.29501E+03        -0.49997E+07         0.00000E+00
    0.00000E+00         0.00000E+00        -0.24996E+07
 
   -0.28201E+03         0.25977E+03         0.00000E+00
    0.25977E+03        -0.49996E+07         0.00000E+00
    0.00000E+00         0.00000E+00        -0.24996E+07
 
   -0.34746E+03         0.21387E+03         0.00000E+00
    0.21387E+03        -0.49996E+07         0.00000E+00
    0.00000E+00         0.00000E+00        -0.24996E+07
 
   -0.39863E+03         0.15926E+03         0.00000E+00
    0.15926E+03        -0.49996E+07         0.00000E+00
    0.00000E+00         0.00000E+00        -0.24996E+07
 
   -0.43375E+03         0.98203E+02         0.00000E+00
    0.98203E+02        -0.49996E+07         0.00000E+00
    0.00000E+00         0.00000E+00        -0.24996E+07
 
   -0.45162E+03         0.33180E+02         0.00000E+00
    0.33180E+02        -0.49996E+07         0.00000E+00
    0.00000E+00         0.00000E+00        -0.24996E+07
 
    0.66469E+03         0.48234E+02         0.00000E+00
    0.48234E+02        -0.50000E+07         0.00000E+00
    0.00000E+00         0.00000E+00        -0.24993E+07
 
    0.60871E+03         0.14038E+03         0.00000E+00
    0.14038E+03        -0.50000E+07         0.00000E+00
    0.00000E+00         0.00000E+00        -0.24993E+07
 
    0.53246E+03         0.22408E+03         0.00000E+00
    0.22408E+03        -0.50000E+07         0.00000E+00
    0.00000E+00         0.00000E+00        -0.24993E+07
 
    0.43893E+03         0.29606E+03         0.00000E+00
    0.29606E+03        -0.50000E+07         0.00000E+00
    0.00000E+00         0.00000E+00        -0.24994E+07
 
    0.33171E+03         0.35367E+03         0.00000E+00
    0.35367E+03        -0.49999E+07         0.00000E+00
    0.00000E+00         0.00000E+00        -0.24994E+07
 
    0.21487E+03         0.39490E+03         0.00000E+00
    0.39490E+03        -0.49998E+07         0.00000E+00
    0.00000E+00         0.00000E+00        -0.24994E+07
 
    0.92780E+02         0.41847E+03         0.00000E+00
    0.41847E+03        -0.49998E+07         0.00000E+00
    0.00000E+00         0.00000E+00        -0.24994E+07
 
   -0.30077E+02         0.42383E+03         0.00000E+00
    0.42383E+03        -0.49997E+07         0.00000E+00
    0.00000E+00         0.00000E+00        -0.24994E+07
 
   -0.14924E+03         0.41113E+03         0.00000E+00
    0.41113E+03        -0.49997E+07         0.00000E+00
    0.00000E+00         0.00000E+00        -0.24995E+07
 
   -0.26045E+03         0.38121E+03         0.00000E+00
    0.38121E+03        -0.49996E+07         0.00000E+00
    0.00000E+00         0.00000E+00        -0.24995E+07
 
   -0.35976E+03         0.33554E+03         0.00000E+00
    0.33554E+03        -0.49995E+07         0.00000E+00
    0.00000E+00         0.00000E+00        -0.24995E+07
 
   -0.44369E+03         0.27616E+03         0.00000E+00
    0.27616E+03        -0.49995E+07         0.00000E+00
    0.00000E+00         0.00000E+00        -0.24995E+07
 
   -0.50931E+03         0.20560E+03         0.00000E+00
    0.20560E+03        -0.49995E+07         0.00000E+00
    0.00000E+00         0.00000E+00        -0.24995E+07
 
   -0.55435E+03         0.12675E+03         0.00000E+00
    0.12675E+03        -0.49994E+07         0.00000E+00
    0.00000E+00         0.00000E+00        -0.24995E+07
 
   -0.57727E+03         0.42821E+02         0.00000E+00
    0.42821E+02        -0.49994E+07         0.00000E+00
    0.00000E+00         0.00000E+00        -0.24995E+07
 
    0.84614E+03         0.62725E+02         0.00000E+00
    0.62725E+02        -0.50000E+07         0.00000E+00
    0.00000E+00         0.00000E+00        -0.24991E+07
 
    0.77732E+03         0.18234E+03         0.00000E+00
    0.18234E+03        -0.50000E+07         0.00000E+00
    0.00000E+00         0.00000E+00        -0.24992E+07
 
    0.68151E+03         0.29074E+03         0.00000E+00
    0.29074E+03        -0.50000E+07         0.00000E+00
    0.00000E+00         0.00000E+00        -0.24992E+07
 
    0.56279E+03         0.38371E+03         0.00000E+00
    0.38371E+03        -0.49999E+07         0.00000E+00
    0.00000E+00         0.00000E+00        -0.24992E+07
 
    0.42598E+03         0.45790E+03         0.00000E+00
    0.45790E+03        -0.49999E+07         0.00000E+00
    0.00000E+00         0.00000E+00        -0.24992E+07
 
    0.27649E+03         0.51078E+03         0.00000E+00
    0.51078E+03        -0.49998E+07         0.00000E+00
    0.00000E+00         0.00000E+00        -0.24993E+07
 
    0.12005E+03         0.54078E+03         0.00000E+00
    0.54078E+03        -0.49997E+07         0.00000E+00
    0.00000E+00         0.00000E+00        -0.24993E+07
 
   -0.37488E+02         0.54726E+03         0.00000E+00
    0.54726E+03        -0.49996E+07         0.00000E+00
    0.00000E+00         0.00000E+00        -0.24993E+07
 
   -0.19033E+03         0.53048E+03         0.00000E+00
    0.53048E+03        -0.49995E+07         0.00000E+00
    0.00000E+00         0.00000E+00        -0.24993E+07
 
   -0.33297E+03         0.49156E+03         0.00000E+00
    0.49156E+03        -0.49995E+07         0.00000E+00
    0.00000E+00         0.00000E+00        -0.24994E+07
 
   -0.46034E+03         0.43244E+03         0.00000E+00
    0.43244E+03        -0.49994E+07         0.00000E+00
    0.00000E+00         0.00000E+00        -0.24994E+07
 
   -0.56796E+03         0.35576E+03         0.00000E+00
    0.35576E+03        -0.49993E+07         0.00000E+00
    0.00000E+00         0.00000E+00        -0.24994E+07
 
   -0.65210E+03         0.26477E+03         0.00000E+00
    0.26477E+03        -0.49993E+07         0.00000E+00
    0.00000E+00         0.00000E+00        -0.24994E+07
 
   -0.70985E+03         0.16319E+03         0.00000E+00
    0.16319E+03        -0.49993E+07         0.00000E+00
    0.00000E+00         0.00000E+00        -0.24994E+07
 
   -0.73922E+03         0.55127E+02         0.00000E+00
    0.55127E+02        -0.49992E+07         0.00000E+00
    0.00000E+00         0.00000E+00        -0.24994E+07
 
    0.10818E+04         0.81552E+02         0.00000E+00
    0.81552E+02        -0.50000E+07         0.00000E+00
    0.00000E+00         0.00000E+00        -0.24989E+07
 
    0.99575E+03         0.23664E+03         0.00000E+00
    0.23664E+03        -0.50000E+07         0.00000E+00
    0.00000E+00         0.00000E+00        -0.24990E+07
 
    0.87404E+03         0.37672E+03         0.00000E+00
    0.37672E+03        -0.50000E+07         0.00000E+00
    0.00000E+00         0.00000E+00        -0.24990E+07
 
    0.72226E+03         0.49647E+03         0.00000E+00
    0.49647E+03        -0.49999E+07         0.00000E+00
    0.00000E+00         0.00000E+00        -0.24990E+07
 
    0.54689E+03         0.59165E+03         0.00000E+00
    0.59165E+03        -0.49998E+07         0.00000E+00
    0.00000E+00         0.00000E+00        -0.24990E+07
 
    0.35505E+03         0.65916E+03         0.00000E+00
    0.65916E+03        -0.49997E+07         0.00000E+00
    0.00000E+00         0.00000E+00        -0.24991E+07
 
    0.15424E+03         0.69709E+03         0.00000E+00
    0.69709E+03        -0.49996E+07         0.00000E+00
    0.00000E+00         0.00000E+00        -0.24991E+07
 
   -0.47940E+02         0.70473E+03         0.00000E+00
    0.70473E+03        -0.49995E+07         0.00000E+00
    0.00000E+00         0.00000E+00        -0.24991E+07
 
   -0.24402E+03         0.68251E+03         0.00000E+00
    0.68251E+03        -0.49994E+07         0.00000E+00
    0.00000E+00         0.00000E+00        -0.24992E+07
 
   -0.42693E+03         0.63196E+03         0.00000E+00
    0.63196E+03        -0.49993E+07         0.00000E+00
    0.00000E+00         0.00000E+00        -0.24992E+07
 
   -0.59018E+03         0.55560E+03         0.00000E+00
    0.55560E+03        -0.49992E+07         0.00000E+00
    0.00000E+00         0.00000E+00        -0.24992E+07
 
   -0.72806E+03         0.45685E+03         0.00000E+00
    0.45685E+03        -0.49991E+07         0.00000E+00
    0.00000E+00         0.00000E+00        -0.24993E+07
 
   -0.83582E+03         0.33987E+03         0.00000E+00
    0.33987E+03        -0.49991E+07         0.00000E+00
    0.00000E+00         0.00000E+00        -0.24993E+07
 
   -0.90975E+03         0.20943E+03         0.00000E+00
    0.20943E+03        -0.49990E+07         0.00000E+00
    0.00000E+00         0.00000E+00        -0.24993E+07
 
   -0.94736E+03         0.70738E+02         0.00000E+00
    0.70738E+02        -0.49990E+07         0.00000E+00
    0.00000E+00         0.00000E+00        -0.24993E+07
 
    0.13876E+04         0.10588E+03         0.00000E+00
    0.10588E+03        -0.50000E+07         0.00000E+00
    0.00000E+00         0.00000E+00        -0.24987E+07
 
    0.12781E+04         0.30651E+03         0.00000E+00
    0.30651E+03        -0.50000E+07         0.00000E+00
    0.00000E+00         0.00000E+00        -0.24987E+07
 
    0.11220E+04         0.48700E+03         0.00000E+00
    0.48700E+03        -0.49999E+07         0.00000E+00
    0.00000E+00         0.00000E+00        -0.24987E+07
 
    0.92685E+03         0.64067E+03         0.00000E+00
    0.64067E+03        -0.49999E+07         0.00000E+00
    0.00000E+00         0.00000E+00        -0.24988E+07
 
    0.70129E+03         0.76225E+03         0.00000E+00
    0.76225E+03        -0.49997E+07         0.00000E+00
    0.00000E+00         0.00000E+00        -0.24988E+07
 
    0.45466E+03         0.84799E+03         0.00000E+00
    0.84799E+03        -0.49996E+07         0.00000E+00
    0.00000E+00         0.00000E+00        -0.24989E+07
 
    0.19672E+03         0.89562E+03         0.00000E+00
    0.89562E+03        -0.49995E+07         0.00000E+00
    0.00000E+00         0.00000E+00        -0.24989E+07
 
   -0.62732E+02         0.90438E+03         0.00000E+00
    0.90438E+03        -0.49994E+07         0.00000E+00
    0.00000E+00         0.00000E+00        -0.24990E+07
 
   -0.31411E+03         0.87498E+03         0.00000E+00
    0.87498E+03        -0.49992E+07         0.00000E+00
    0.00000E+00         0.00000E+00        -0.24990E+07
 
   -0.54839E+03         0.80947E+03         0.00000E+00
    0.80947E+03        -0.49991E+07         0.00000E+00
    0.00000E+00         0.00000E+00        -0.24990E+07
 
   -0.75730E+03         0.71115E+03         0.00000E+00
    0.71115E+03        -0.49990E+07         0.00000E+00
    0.00000E+00         0.00000E+00        -0.24991E+07
 
   -0.93364E+03         0.58441E+03         0.00000E+00
    0.58441E+03        -0.49989E+07         0.00000E+00
    0.00000E+00         0.00000E+00        -0.24991E+07
 
   -0.10714E+04         0.43458E+03         0.00000E+00
    0.43458E+03        -0.49988E+07         0.00000E+00
    0.00000E+00         0.00000E+00        -0.24991E+07
 
   -0.11658E+04         0.26772E+03         0.00000E+00
    0.26772E+03        -0.49988E+07         0.00000E+00
    0.00000E+00         0.00000E+00        -0.24992E+07
 
   -0.12139E+04         0.90411E+02         0.00000E+00
    0.90411E+02        -0.49987E+07         0.00000E+00
    0.00000E+00         0.00000E+00        -0.24992E+07
 
    0.17835E+04         0.13713E+03         0.00000E+00
    0.13713E+03        -0.50000E+07         0.00000E+00
    0.00000E+00         0.00000E+00        -0.24984E+07
 
    0.16419E+04         0.39588E+03         0.00000E+00
    0.39588E+03        -0.50000E+07         0.00000E+00
    0.00000E+00         0.00000E+00        -0.24984E+07
 
    0.14401E+04         0.62756E+03         0.00000E+00
    0.62756E+03        -0.49999E+07         0.00000E+00
    0.00000E+00         0.00000E+00        -0.24984E+07
 
    0.11882E+04         0.82391E+03         0.00000E+00
    0.82391E+03        -0.49998E+07         0.00000E+00
    0.00000E+00         0.00000E+00        -0.24985E+07
 
    0.89746E+03         0.97848E+03         0.00000E+00
    0.97848E+03        -0.49997E+07         0.00000E+00
    0.00000E+00         0.00000E+00        -0.24985E+07
 
    0.58019E+03         0.10867E+04         0.00000E+00
    0.10867E+04        -0.49995E+07         0.00000E+00
    0.00000E+00         0.00000E+00        -0.24986E+07
 
    0.24897E+03         0.11461E+04         0.00000E+00
    0.11461E+04        -0.49993E+07         0.00000E+00
    0.00000E+00         0.00000E+00        -0.24987E+07
 
   -0.83625E+02         0.11558E+04         0.00000E+00
    0.11558E+04        -0.49992E+07         0.00000E+00
    0.00000E+00         0.00000E+00        -0.24987E+07
 
   -0.40539E+03         0.11170E+04         0.00000E+00
    0.11170E+04        -0.49990E+07         0.00000E+00
    0.00000E+00         0.00000E+00        -0.24988E+07
 
   -0.70486E+03         0.10324E+04         0.00000E+00
    0.10324E+04        -0.49989E+07         0.00000E+00
    0.00000E+00         0.00000E+00        -0.24988E+07
 
   -0.97162E+03         0.90626E+03         0.00000E+00
    0.90626E+03        -0.49987E+07         0.00000E+00
    0.00000E+00         0.00000E+00        -0.24989E+07
 
   -0.11966E+04         0.74428E+03         0.00000E+00
    0.74428E+03        -0.49986E+07         0.00000E+00
    0.00000E+00         0.00000E+00        -0.24989E+07
 
   -0.13721E+04         0.55321E+03         0.00000E+00
    0.55321E+03        -0.49985E+07         0.00000E+00
    0.00000E+00         0.00000E+00        -0.24990E+07
 
   -0.14925E+04         0.34069E+03         0.00000E+00
    0.34069E+03        -0.49984E+07         0.00000E+00
    0.00000E+00         0.00000E+00        -0.24990E+07
 
   -0.15537E+04         0.11504E+03         0.00000E+00
    0.11504E+03        -0.49984E+07         0.00000E+00
    0.00000E+00         0.00000E+00        -0.24990E+07
 
    0.22943E+04         0.17702E+03         0.00000E+00
    0.17702E+03        -0.50000E+07         0.00000E+00
    0.00000E+00         0.00000E+00        -0.24980E+07
 
    0.21091E+04         0.50944E+03         0.00000E+00
    0.50944E+03        -0.50000E+07         0.00000E+00
    0.00000E+00         0.00000E+00        -0.24980E+07
 
    0.18466E+04         0.80554E+03         0.00000E+00
    0.80554E+03        -0.49999E+07         0.00000E+00
    0.00000E+00         0.00000E+00        -0.24981E+07
 
    0.15204E+04         0.10552E+04         0.00000E+00
    0.10552E+04        -0.49997E+07         0.00000E+00
    0.00000E+00         0.00000E+00        -0.24981E+07
 
    0.11454E+04         0.12507E+04         0.00000E+00
    0.12507E+04        -0.49996E+07         0.00000E+00
    0.00000E+00         0.00000E+00        -0.24982E+07
 
    0.73737E+03         0.13865E+04         0.00000E+00
    0.13865E+04        -0.49994E+07         0.00000E+00
    0.00000E+00         0.00000E+00        -0.24983E+07
 
    0.31258E+03         0.14600E+04         0.00000E+00
    0.14600E+04        -0.49992E+07         0.00000E+00
    0.00000E+00         0.00000E+00        -0.24984E+07
 
   -0.11298E+03         0.14703E+04         0.00000E+00
    0.14703E+04        -0.49990E+07         0.00000E+00
    0.00000E+00         0.00000E+00        -0.24984E+07
 
   -0.52387E+03         0.14192E+04         0.00000E+00
    0.14192E+04        -0.49988E+07         0.00000E+00
    0.00000E+00         0.00000E+00        -0.24985E+07
 
   -0.90565E+03         0.13103E+04         0.00000E+00
    0.13103E+04        -0.49986E+07         0.00000E+00
    0.00000E+00         0.00000E+00        -0.24986E+07
 
   -0.12453E+04         0.11493E+04         0.00000E+00
    0.11493E+04        -0.49984E+07         0.00000E+00
    0.00000E+00         0.00000E+00        -0.24986E+07
 
   -0.15313E+04         0.94321E+03         0.00000E+00
    0.94321E+03        -0.49982E+07         0.00000E+00
    0.00000E+00         0.00000E+00        -0.24987E+07
 
   -0.17544E+04         0.70071E+03         0.00000E+00
    0.70071E+03        -0.49981E+07         0.00000E+00
    0.00000E+00         0.00000E+00        -0.24987E+07
 
   -0.19072E+04         0.43138E+03         0.00000E+00
    0.43138E+03        -0.49980E+07         0.00000E+00
    0.00000E+00         0.00000E+00        -0.24988E+07
 
   -0.19849E+04         0.14563E+03         0.00000E+00
    0.14563E+03        -0.49980E+07         0.00000E+00
    0.00000E+00         0.00000E+00        -0.24988E+07
 
    0.29508E+04         0.22759E+03         0.00000E+00
    0.22759E+03        -0.50000E+07         0.00000E+00
    0.00000E+00         0.00000E+00        -0.24975E+07
 
    0.27061E+04         0.65274E+03         0.00000E+00
    0.65274E+03        -0.50000E+07         0.00000E+00
    0.00000E+00         0.00000E+00        -0.24976E+07
 
    0.23633E+04         0.10293E+04         0.00000E+00
    0.10293E+04        -0.49998E+07         0.00000E+00
    0.00000E+00         0.00000E+00        -0.24976E+07
 
    0.19404E+04         0.13451E+04         0.00000E+00
    0.13451E+04        -0.49997E+07         0.00000E+00
    0.00000E+00         0.00000E+00        -0.24977E+07
 
    0.14568E+04         0.15908E+04         0.00000E+00
    0.15908E+04        -0.49995E+07         0.00000E+00
    0.00000E+00         0.00000E+00        -0.24978E+07
 
    0.93284E+03         0.17603E+04         0.00000E+00
    0.17603E+04        -0.49992E+07         0.00000E+00
    0.00000E+00         0.00000E+00        -0.24979E+07
 
    0.38918E+03         0.18503E+04         0.00000E+00
    0.18503E+04        -0.49990E+07         0.00000E+00
    0.00000E+00         0.00000E+00        -0.24980E+07
 
   -0.15391E+03         0.18607E+04         0.00000E+00
    0.18607E+04        -0.49987E+07         0.00000E+00
    0.00000E+00         0.00000E+00        -0.24981E+07
 
   -0.67704E+03         0.17937E+04         0.00000E+00
    0.17937E+04        -0.49984E+07         0.00000E+00
    0.00000E+00         0.00000E+00        -0.24982E+07
 
   -0.11621E+04         0.16543E+04         0.00000E+00
    0.16543E+04        -0.49982E+07         0.00000E+00
    0.00000E+00         0.00000E+00        -0.24983E+07
 
   -0.15930E+04         0.14496E+04         0.00000E+00
    0.14496E+04        -0.49980E+07         0.00000E+00
    0.00000E+00         0.00000E+00        -0.24984E+07
 
   -0.19554E+04         0.11889E+04         0.00000E+00
    0.11889E+04        -0.49978E+07         0.00000E+00
    0.00000E+00         0.00000E+00        -0.24984E+07
 
   -0.22377E+04         0.88274E+03         0.00000E+00
    0.88274E+03        -0.49977E+07         0.00000E+00
    0.00000E+00         0.00000E+00        -0.24985E+07
 
   -0.24310E+04         0.54325E+03         0.00000E+00
    0.54325E+03        -0.49976E+07         0.00000E+00
    0.00000E+00         0.00000E+00        -0.24985E+07
 
   -0.25292E+04         0.18337E+03         0.00000E+00
    0.18337E+03        -0.49975E+07         0.00000E+00
    0.00000E+00         0.00000E+00        -0.24985E+07
 
    0.37908E+04         0.29124E+03         0.00000E+00
    0.29124E+03        -0.50000E+07         0.00000E+00
    0.00000E+00         0.00000E+00        -0.24969E+07
 
    0.34654E+04         0.83227E+03         0.00000E+00
    0.83227E+03        -0.49999E+07         0.00000E+00
    0.00000E+00         0.00000E+00        -0.24970E+07
 
    0.30168E+04         0.13086E+04         0.00000E+00
    0.13086E+04        -0.49998E+07         0.00000E+00
    0.00000E+00         0.00000E+00        -0.24971E+07
 
    0.24685E+04         0.17057E+04         0.00000E+00
    0.17057E+04        -0.49996E+07         0.00000E+00
    0.00000E+00         0.00000E+00        -0.24972E+07
 
    0.18456E+04         0.20128E+04         0.00000E+00
    0.20128E+04        -0.49993E+07         0.00000E+00
    0.00000E+00         0.00000E+00        -0.24973E+07
 
    0.11742E+04         0.22227E+04         0.00000E+00
    0.22227E+04        -0.49990E+07         0.00000E+00
    0.00000E+00         0.00000E+00        -0.24974E+07
 
    0.48035E+03         0.23322E+04         0.00000E+00
    0.23322E+04        -0.49987E+07         0.00000E+00
    0.00000E+00         0.00000E+00        -0.24976E+07
 
   -0.21049E+03         0.23415E+04         0.00000E+00
    0.23415E+04        -0.49984E+07         0.00000E+00
    0.00000E+00         0.00000E+00        -0.24977E+07
 
   -0.87411E+03         0.22542E+04         0.00000E+00
    0.22542E+04        -0.49981E+07         0.00000E+00
    0.00000E+00         0.00000E+00        -0.24978E+07
 
   -0.14881E+04         0.20766E+04         0.00000E+00
    0.20766E+04        -0.49978E+07         0.00000E+00
    0.00000E+00         0.00000E+00        -0.24979E+07
 
   -0.20324E+04         0.18180E+04         0.00000E+00
    0.18180E+04        -0.49975E+07         0.00000E+00
    0.00000E+00         0.00000E+00        -0.24980E+07
 
   -0.24897E+04         0.14899E+04         0.00000E+00
    0.14899E+04        -0.49973E+07         0.00000E+00
    0.00000E+00         0.00000E+00        -0.24981E+07
 
   -0.28455E+04         0.11056E+04         0.00000E+00
    0.11056E+04        -0.49971E+07         0.00000E+00
    0.00000E+00         0.00000E+00        -0.24982E+07
 
   -0.30889E+04         0.68014E+03         0.00000E+00
    0.68014E+03        -0.49970E+07         0.00000E+00
    0.00000E+00         0.00000E+00        -0.24982E+07
 
   -0.32125E+04         0.22953E+03         0.00000E+00
    0.22953E+03        -0.49969E+07         0.00000E+00
    0.00000E+00         0.00000E+00        -0.24983E+07
 
    0.48601E+04         0.37075E+03         0.00000E+00
    0.37075E+03        -0.50000E+07         0.00000E+00
    0.00000E+00         0.00000E+00        -0.24962E+07
 
    0.44259E+04         0.10555E+04         0.00000E+00
    0.10555E+04        -0.49999E+07         0.00000E+00
    0.00000E+00         0.00000E+00        -0.24963E+07
 
    0.38384E+04         0.16546E+04         0.00000E+00
    0.16546E+04        -0.49997E+07         0.00000E+00
    0.00000E+00         0.00000E+00        -0.24964E+07
 
    0.31283E+04         0.21509E+04         0.00000E+00
    0.21509E+04        -0.49995E+07         0.00000E+00
    0.00000E+00         0.00000E+00        -0.24965E+07
 
    0.23278E+04         0.25320E+04         0.00000E+00
    0.25320E+04        -0.49991E+07         0.00000E+00
    0.00000E+00         0.00000E+00        -0.24967E+07
 
    0.14699E+04         0.27902E+04         0.00000E+00
    0.27902E+04        -0.49988E+07         0.00000E+00
    0.00000E+00         0.00000E+00        -0.24969E+07
 
    0.58748E+03         0.29222E+04         0.00000E+00
    0.29222E+04        -0.49984E+07         0.00000E+00
    0.00000E+00         0.00000E+00        -0.24970E+07
 
   -0.28793E+03         0.29291E+04         0.00000E+00
    0.29291E+04        -0.49980E+07         0.00000E+00
    0.00000E+00         0.00000E+00        -0.24972E+07
 
   -0.11263E+04         0.28159E+04         0.00000E+00
    0.28159E+04        -0.49976E+07         0.00000E+00
    0.00000E+00         0.00000E+00        -0.24974E+07
 
   -0.19001E+04         0.25909E+04         0.00000E+00
    0.25909E+04        -0.49973E+07         0.00000E+00
    0.00000E+00         0.00000E+00        -0.24975E+07
 
   -0.25847E+04         0.22660E+04         0.00000E+00
    0.22660E+04        -0.49970E+07         0.00000E+00
    0.00000E+00         0.00000E+00        -0.24977E+07
 
   -0.31588E+04         0.18556E+04         0.00000E+00
    0.18556E+04        -0.49967E+07         0.00000E+00
    0.00000E+00         0.00000E+00        -0.24978E+07
 
   -0.36051E+04         0.13762E+04         0.00000E+00
    0.13762E+04        -0.49965E+07         0.00000E+00
    0.00000E+00         0.00000E+00        -0.24979E+07
 
   -0.39101E+04         0.84626E+03         0.00000E+00
    0.84626E+03        -0.49963E+07         0.00000E+00
    0.00000E+00         0.00000E+00        -0.24979E+07
 
   -0.40649E+04         0.28554E+03         0.00000E+00
    0.28554E+03        -0.49963E+07         0.00000E+00
    0.00000E+00         0.00000E+00        -0.24980E+07
 
    0.62139E+04         0.46931E+03         0.00000E+00
    0.46931E+03        -0.50000E+07         0.00000E+00
    0.00000E+00         0.00000E+00        -0.24953E+07
 
    0.56338E+04         0.13308E+04         0.00000E+00
    0.13308E+04        -0.49999E+07         0.00000E+00
    0.00000E+00         0.00000E+00        -0.24954E+07
 
    0.48651E+04         0.20796E+04         0.00000E+00
    0.20796E+04        -0.49997E+07         0.00000E+00
    0.00000E+00         0.00000E+00        -0.24956E+07
 
    0.39473E+04         0.26959E+04         0.00000E+00
    0.26959E+04        -0.49993E+07         0.00000E+00
    0.00000E+00         0.00000E+00        -0.24958E+07
 
    0.29217E+04         0.31658E+04         0.00000E+00
    0.31658E+04        -0.49989E+07         0.00000E+00
    0.00000E+00         0.00000E+00        -0.24960E+07
 
    0.18295E+04         0.34809E+04         0.00000E+00
    0.34809E+04        -0.49985E+07         0.00000E+00
    0.00000E+00         0.00000E+00        -0.24962E+07
 
    0.71161E+03         0.36386E+04         0.00000E+00
    0.36386E+04        -0.49980E+07         0.00000E+00
    0.00000E+00         0.00000E+00        -0.24964E+07
 
   -0.39288E+03         0.36410E+04         0.00000E+00
    0.36410E+04        -0.49976E+07         0.00000E+00
    0.00000E+00         0.00000E+00        -0.24966E+07
 
   -0.14472E+04         0.34950E+04         0.00000E+00
    0.34950E+04        -0.49971E+07         0.00000E+00
    0.00000E+00         0.00000E+00        -0.24969E+07
 
   -0.24177E+04         0.32118E+04         0.00000E+00
    0.32118E+04        -0.49967E+07         0.00000E+00
    0.00000E+00         0.00000E+00        -0.24970E+07
 
   -0.32744E+04         0.28062E+04         0.00000E+00
    0.28062E+04        -0.49963E+07         0.00000E+00
    0.00000E+00         0.00000E+00        -0.24972E+07
 
   -0.39917E+04         0.22960E+04         0.00000E+00
    0.22960E+04        -0.49960E+07         0.00000E+00
    0.00000E+00         0.00000E+00        -0.24974E+07
 
   -0.45485E+04         0.17018E+04         0.00000E+00
    0.17018E+04        -0.49957E+07         0.00000E+00
    0.00000E+00         0.00000E+00        -0.24975E+07
 
   -0.49288E+04         0.10461E+04         0.00000E+00
    0.10461E+04        -0.49956E+07         0.00000E+00
    0.00000E+00         0.00000E+00        -0.24975E+07
 
   -0.51216E+04         0.35288E+03         0.00000E+00
    0.35288E+03        -0.49955E+07         0.00000E+00
    0.00000E+00         0.00000E+00        -0.24976E+07
 
    0.79174E+04         0.59046E+03         0.00000E+00
    0.59046E+03        -0.50000E+07         0.00000E+00
    0.00000E+00         0.00000E+00        -0.24942E+07
 
    0.71432E+04         0.16676E+04         0.00000E+00
    0.16676E+04        -0.49999E+07         0.00000E+00
    0.00000E+00         0.00000E+00        -0.24944E+07
 
    0.61396E+04         0.25974E+04         0.00000E+00
    0.25974E+04        -0.49996E+07         0.00000E+00
    0.00000E+00         0.00000E+00        -0.24946E+07
 
    0.49572E+04         0.33575E+04         0.00000E+00
    0.33575E+04        -0.49992E+07         0.00000E+00
    0.00000E+00         0.00000E+00        -0.24948E+07
 
    0.36478E+04         0.39325E+04         0.00000E+00
    0.39325E+04        -0.49987E+07         0.00000E+00
    0.00000E+00         0.00000E+00        -0.24951E+07
 
    0.22630E+04         0.43142E+04         0.00000E+00
    0.43142E+04        -0.49982E+07         0.00000E+00
    0.00000E+00         0.00000E+00        -0.24954E+07
 
    0.85321E+03         0.45005E+04         0.00000E+00
    0.45005E+04        -0.49976E+07         0.00000E+00
    0.00000E+00         0.00000E+00        -0.24957E+07
 
   -0.53369E+03         0.44955E+04         0.00000E+00
    0.44955E+04        -0.49971E+07         0.00000E+00
    0.00000E+00         0.00000E+00        -0.24960E+07
 
   -0.18529E+04         0.43087E+04         0.00000E+00
    0.43087E+04        -0.49965E+07         0.00000E+00
    0.00000E+00         0.00000E+00        -0.24962E+07
 
   -0.30638E+04         0.39545E+04         0.00000E+00
    0.39545E+04        -0.49960E+07         0.00000E+00
    0.00000E+00         0.00000E+00        -0.24965E+07
 
   -0.41303E+04         0.34514E+04         0.00000E+00
    0.34514E+04        -0.49955E+07         0.00000E+00
    0.00000E+00         0.00000E+00        -0.24967E+07
 
   -0.50216E+04         0.28215E+04         0.00000E+00
    0.28215E+04        -0.49952E+07         0.00000E+00
    0.00000E+00         0.00000E+00        -0.24969E+07
 
   -0.57125E+04         0.20899E+04         0.00000E+00
    0.20899E+04        -0.49949E+07         0.00000E+00
    0.00000E+00         0.00000E+00        -0.24970E+07
 
   -0.61839E+04         0.12841E+04         0.00000E+00
    0.12841E+04        -0.49947E+07         0.00000E+00
    0.00000E+00         0.00000E+00        -0.24971E+07
 
   -0.64228E+04         0.43309E+03         0.00000E+00
    0.43309E+03        -0.49946E+07         0.00000E+00
    0.00000E+00         0.00000E+00        -0.24972E+07
 
    0.10048E+05         0.73811E+03         0.00000E+00
    0.73811E+03        -0.50000E+07         0.00000E+00
    0.00000E+00         0.00000E+00        -0.24929E+07
 
    0.90172E+04         0.20758E+04         0.00000E+00
    0.20758E+04        -0.49998E+07         0.00000E+00
    0.00000E+00         0.00000E+00        -0.24931E+07
 
    0.77111E+04         0.32225E+04         0.00000E+00
    0.32225E+04        -0.49995E+07         0.00000E+00
    0.00000E+00         0.00000E+00        -0.24934E+07
 
    0.61934E+04         0.41532E+04         0.00000E+00
    0.41532E+04        -0.49990E+07         0.00000E+00
    0.00000E+00         0.00000E+00        -0.24937E+07
 
    0.45288E+04         0.48516E+04         0.00000E+00
    0.48516E+04        -0.49984E+07         0.00000E+00
    0.00000E+00         0.00000E+00        -0.24941E+07
 
    0.27811E+04         0.53099E+04         0.00000E+00
    0.53099E+04        -0.49978E+07         0.00000E+00
    0.00000E+00         0.00000E+00        -0.24944E+07
 
    0.10118E+04         0.55277E+04         0.00000E+00
    0.55277E+04        -0.49972E+07         0.00000E+00
    0.00000E+00         0.00000E+00        -0.24948E+07
 
   -0.72068E+03         0.55115E+04         0.00000E+00
    0.55115E+04        -0.49965E+07         0.00000E+00
    0.00000E+00         0.00000E+00        -0.24951E+07
 
   -0.23626E+04         0.52742E+04         0.00000E+00
    0.52742E+04        -0.49958E+07         0.00000E+00
    0.00000E+00         0.00000E+00        -0.24955E+07
 
   -0.38650E+04         0.48341E+04         0.00000E+00
    0.48341E+04        -0.49952E+07         0.00000E+00
    0.00000E+00         0.00000E+00        -0.24958E+07
 
   -0.51851E+04         0.42143E+04         0.00000E+00
    0.42143E+04        -0.49947E+07         0.00000E+00
    0.00000E+00         0.00000E+00        -0.24961E+07
 
   -0.62862E+04         0.34421E+04         0.00000E+00
    0.34421E+04        -0.49943E+07         0.00000E+00
    0.00000E+00         0.00000E+00        -0.24963E+07
 
   -0.71385E+04         0.25480E+04         0.00000E+00
    0.25480E+04        -0.49939E+07         0.00000E+00
    0.00000E+00         0.00000E+00        -0.24965E+07
 
   -0.77193E+04         0.15649E+04         0.00000E+00
    0.15649E+04        -0.49937E+07         0.00000E+00
    0.00000E+00         0.00000E+00        -0.24966E+07
 
   -0.80136E+04         0.52767E+03         0.00000E+00
    0.52767E+03        -0.49935E+07         0.00000E+00
    0.00000E+00         0.00000E+00        -0.24967E+07
 
    0.12693E+05         0.91641E+03         0.00000E+00
    0.91641E+03        -0.50000E+07         0.00000E+00
    0.00000E+00         0.00000E+00        -0.24913E+07
 
    0.11328E+05         0.25662E+04         0.00000E+00
    0.25662E+04        -0.49998E+07         0.00000E+00
    0.00000E+00         0.00000E+00        -0.24916E+07
 
    0.96348E+04         0.39700E+04         0.00000E+00
    0.39700E+04        -0.49994E+07         0.00000E+00
    0.00000E+00         0.00000E+00        -0.24920E+07
 
    0.76952E+04         0.51009E+04         0.00000E+00
    0.51009E+04        -0.49988E+07         0.00000E+00
    0.00000E+00         0.00000E+00        -0.24924E+07
 
    0.55890E+04         0.59425E+04         0.00000E+00
    0.59425E+04        -0.49981E+07         0.00000E+00
    0.00000E+00         0.00000E+00        -0.24928E+07
 
    0.33943E+04         0.64880E+04         0.00000E+00
    0.64880E+04        -0.49974E+07         0.00000E+00
    0.00000E+00         0.00000E+00        -0.24933E+07
 
    0.11858E+04         0.67395E+04         0.00000E+00
    0.67395E+04        -0.49966E+07         0.00000E+00
    0.00000E+00         0.00000E+00        -0.24937E+07
 
   -0.96651E+03         0.67070E+04         0.00000E+00
    0.67070E+04        -0.49958E+07         0.00000E+00
    0.00000E+00         0.00000E+00        -0.24942E+07
 
   -0.29983E+04         0.64076E+04         0.00000E+00
    0.64076E+04        -0.49951E+07         0.00000E+00
    0.00000E+00         0.00000E+00        -0.24946E+07
 
   -0.48516E+04         0.58647E+04         0.00000E+00
    0.58647E+04        -0.49944E+07         0.00000E+00
    0.00000E+00         0.00000E+00        -0.24950E+07
 
   -0.64757E+04         0.51069E+04         0.00000E+00
    0.51069E+04        -0.49938E+07         0.00000E+00
    0.00000E+00         0.00000E+00        -0.24953E+07
 
   -0.78276E+04         0.41673E+04         0.00000E+00
    0.41673E+04        -0.49932E+07         0.00000E+00
    0.00000E+00         0.00000E+00        -0.24956E+07
 
   -0.88725E+04         0.30827E+04         0.00000E+00
    0.30827E+04        -0.49928E+07         0.00000E+00
    0.00000E+00         0.00000E+00        -0.24958E+07
 
   -0.95838E+04         0.18924E+04         0.00000E+00
    0.18924E+04        -0.49926E+07         0.00000E+00
    0.00000E+00         0.00000E+00        -0.24960E+07
 
   -0.99440E+04         0.63797E+03         0.00000E+00
    0.63797E+03        -0.49924E+07         0.00000E+00
    0.00000E+00         0.00000E+00        -0.24961E+07
 
    0.15956E+05         0.11296E+04         0.00000E+00
    0.11296E+04        -0.50000E+07         0.00000E+00
    0.00000E+00         0.00000E+00        -0.24894E+07
 
    0.14155E+05         0.31494E+04         0.00000E+00
    0.31494E+04        -0.49997E+07         0.00000E+00
    0.00000E+00         0.00000E+00        -0.24897E+07
 
    0.11972E+05         0.48548E+04         0.00000E+00
    0.48548E+04        -0.49992E+07         0.00000E+00
    0.00000E+00         0.00000E+00        -0.24902E+07
 
    0.95049E+04         0.62180E+04         0.00000E+00
    0.62180E+04        -0.49986E+07         0.00000E+00
    0.00000E+00         0.00000E+00        -0.24907E+07
 
    0.68538E+04         0.72234E+04         0.00000E+00
    0.72234E+04        -0.49978E+07         0.00000E+00
    0.00000E+00         0.00000E+00        -0.24913E+07
 
    0.41129E+04         0.78666E+04         0.00000E+00
    0.78666E+04        -0.49969E+07         0.00000E+00
    0.00000E+00         0.00000E+00        -0.24919E+07
 
    0.13717E+04         0.81532E+04         0.00000E+00
    0.81532E+04        -0.49960E+07         0.00000E+00
    0.00000E+00         0.00000E+00        -0.24924E+07
 
   -0.12864E+04         0.80979E+04         0.00000E+00
    0.80979E+04        -0.49951E+07         0.00000E+00
    0.00000E+00         0.00000E+00        -0.24930E+07
 
   -0.37854E+04         0.77232E+04         0.00000E+00
    0.77232E+04        -0.49943E+07         0.00000E+00
    0.00000E+00         0.00000E+00        -0.24936E+07
 
   -0.60572E+04         0.70586E+04         0.00000E+00
    0.70586E+04        -0.49935E+07         0.00000E+00
    0.00000E+00         0.00000E+00        -0.24940E+07
 
   -0.80428E+04         0.61391E+04         0.00000E+00
    0.61391E+04        -0.49927E+07         0.00000E+00
    0.00000E+00         0.00000E+00        -0.24945E+07
 
   -0.96920E+04         0.50048E+04         0.00000E+00
    0.50048E+04        -0.49921E+07         0.00000E+00
    0.00000E+00         0.00000E+00        -0.24948E+07
 
   -0.10965E+05         0.36995E+04         0.00000E+00
    0.36995E+04        -0.49917E+07         0.00000E+00
    0.00000E+00         0.00000E+00        -0.24951E+07
 
   -0.11830E+05         0.22700E+04         0.00000E+00
    0.22700E+04        -0.49913E+07         0.00000E+00
    0.00000E+00         0.00000E+00        -0.24953E+07
 
   -0.12268E+05         0.76507E+03         0.00000E+00
    0.76507E+03        -0.49912E+07         0.00000E+00
    0.00000E+00         0.00000E+00        -0.24954E+07
 
    0.19951E+05         0.13820E+04         0.00000E+00
    0.13820E+04        -0.50000E+07         0.00000E+00
    0.00000E+00         0.00000E+00        -0.24870E+07
 
    0.17590E+05         0.38354E+04         0.00000E+00
    0.38354E+04        -0.49997E+07         0.00000E+00
    0.00000E+00         0.00000E+00        -0.24875E+07
 
    0.14787E+05         0.58906E+04         0.00000E+00
    0.58906E+04        -0.49991E+07         0.00000E+00
    0.00000E+00         0.00000E+00        -0.24881E+07
 
    0.11668E+05         0.75200E+04         0.00000E+00
    0.75200E+04        -0.49983E+07         0.00000E+00
    0.00000E+00         0.00000E+00        -0.24887E+07
 
    0.83491E+04         0.87103E+04         0.00000E+00
    0.87103E+04        -0.49974E+07         0.00000E+00
    0.00000E+00         0.00000E+00        -0.24895E+07
 
    0.49457E+04         0.94609E+04         0.00000E+00
    0.94609E+04        -0.49965E+07         0.00000E+00
    0.00000E+00         0.00000E+00        -0.24902E+07
 
    0.15638E+04         0.97827E+04         0.00000E+00
    0.97827E+04        -0.49954E+07         0.00000E+00
    0.00000E+00         0.00000E+00        -0.24909E+07
 
   -0.16986E+04         0.96963E+04         0.00000E+00
    0.96963E+04        -0.49944E+07         0.00000E+00
    0.00000E+00         0.00000E+00        -0.24916E+07
 
   -0.47525E+04         0.92312E+04         0.00000E+00
    0.92312E+04        -0.49934E+07         0.00000E+00
    0.00000E+00         0.00000E+00        -0.24923E+07
 
   -0.75192E+04         0.84239E+04         0.00000E+00
    0.84239E+04        -0.49925E+07         0.00000E+00
    0.00000E+00         0.00000E+00        -0.24929E+07
 
   -0.99304E+04         0.73173E+04         0.00000E+00
    0.73173E+04        -0.49917E+07         0.00000E+00
    0.00000E+00         0.00000E+00        -0.24934E+07
 
   -0.11929E+05         0.59593E+04         0.00000E+00
    0.59593E+04        -0.49910E+07         0.00000E+00
    0.00000E+00         0.00000E+00        -0.24939E+07
 
   -0.13468E+05         0.44018E+04         0.00000E+00
    0.44018E+04        -0.49904E+07         0.00000E+00
    0.00000E+00         0.00000E+00        -0.24942E+07
 
   -0.14514E+05         0.26995E+04         0.00000E+00
    0.26995E+04        -0.49901E+07         0.00000E+00
    0.00000E+00         0.00000E+00        -0.24945E+07
 
   -0.15042E+05         0.90962E+03         0.00000E+00
    0.90962E+03        -0.49899E+07         0.00000E+00
    0.00000E+00         0.00000E+00        -0.24946E+07
 
    0.24802E+05         0.16773E+04         0.00000E+00
    0.16773E+04        -0.50000E+07         0.00000E+00
    0.00000E+00         0.00000E+00        -0.24841E+07
 
    0.21726E+05         0.46332E+04         0.00000E+00
    0.46332E+04        -0.49996E+07         0.00000E+00
    0.00000E+00         0.00000E+00        -0.24848E+07
 
    0.18152E+05         0.70886E+04         0.00000E+00
    0.70886E+04        -0.49990E+07         0.00000E+00
    0.00000E+00         0.00000E+00        -0.24855E+07
 
    0.14228E+05         0.90186E+04         0.00000E+00
    0.90186E+04        -0.49981E+07         0.00000E+00
    0.00000E+00         0.00000E+00        -0.24864E+07
 
    0.10099E+05         0.10414E+05         0.00000E+00
    0.10414E+05        -0.49971E+07         0.00000E+00
    0.00000E+00         0.00000E+00        -0.24873E+07
 
    0.58994E+04         0.11281E+05         0.00000E+00
    0.11281E+05        -0.49959E+07         0.00000E+00
    0.00000E+00         0.00000E+00        -0.24882E+07
 
    0.17535E+04         0.11636E+05         0.00000E+00
    0.11636E+05        -0.49948E+07         0.00000E+00
    0.00000E+00         0.00000E+00        -0.24891E+07
 
   -0.22242E+04         0.11508E+05         0.00000E+00
    0.11508E+05        -0.49936E+07         0.00000E+00
    0.00000E+00         0.00000E+00        -0.24900E+07
 
   -0.59312E+04         0.10936E+05         0.00000E+00
    0.10936E+05        -0.49925E+07         0.00000E+00
    0.00000E+00         0.00000E+00        -0.24908E+07
 
   -0.92774E+04         0.99634E+04         0.00000E+00
    0.99634E+04        -0.49914E+07         0.00000E+00
    0.00000E+00         0.00000E+00        -0.24916E+07
 
   -0.12185E+05         0.86431E+04         0.00000E+00
    0.86431E+04        -0.49905E+07         0.00000E+00
    0.00000E+00         0.00000E+00        -0.24922E+07
 
   -0.14589E+05         0.70316E+04         0.00000E+00
    0.70316E+04        -0.49898E+07         0.00000E+00
    0.00000E+00         0.00000E+00        -0.24928E+07
 
   -0.16438E+05         0.51896E+04         0.00000E+00
    0.51896E+04        -0.49892E+07         0.00000E+00
    0.00000E+00         0.00000E+00        -0.24932E+07
 
   -0.17692E+05         0.31810E+04         0.00000E+00
    0.31810E+04        -0.49888E+07         0.00000E+00
    0.00000E+00         0.00000E+00        -0.24935E+07
 
   -0.18325E+05         0.10716E+04         0.00000E+00
    0.10716E+04        -0.49886E+07         0.00000E+00
    0.00000E+00         0.00000E+00        -0.24936E+07
 
    0.30646E+05         0.20186E+04         0.00000E+00
    0.20186E+04        -0.50000E+07         0.00000E+00
    0.00000E+00         0.00000E+00        -0.24807E+07
 
    0.26667E+05         0.55489E+04         0.00000E+00
    0.55489E+04        -0.49995E+07         0.00000E+00
    0.00000E+00         0.00000E+00        -0.24815E+07
 
    0.22135E+05         0.84559E+04         0.00000E+00
    0.84559E+04        -0.49988E+07         0.00000E+00
    0.00000E+00         0.00000E+00        -0.24824E+07
 
    0.17232E+05         0.10720E+05         0.00000E+00
    0.10720E+05        -0.49978E+07         0.00000E+00
    0.00000E+00         0.00000E+00        -0.24835E+07
 
    0.12127E+05         0.12339E+05         0.00000E+00
    0.12339E+05        -0.49967E+07         0.00000E+00
    0.00000E+00         0.00000E+00        -0.24846E+07
 
    0.69773E+04         0.13327E+05         0.00000E+00
    0.13327E+05        -0.49954E+07         0.00000E+00
    0.00000E+00         0.00000E+00        -0.24858E+07
 
    0.19289E+04         0.13712E+05         0.00000E+00
    0.13712E+05        -0.49941E+07         0.00000E+00
    0.00000E+00         0.00000E+00        -0.24869E+07
 
   -0.28876E+04         0.13531E+05         0.00000E+00
    0.13531E+05        -0.49928E+07         0.00000E+00
    0.00000E+00         0.00000E+00        -0.24880E+07
 
   -0.73556E+04         0.12832E+05         0.00000E+00
    0.12832E+05        -0.49916E+07         0.00000E+00
    0.00000E+00         0.00000E+00        -0.24890E+07
 
   -0.11373E+05         0.11671E+05         0.00000E+00
    0.11671E+05        -0.49904E+07         0.00000E+00
    0.00000E+00         0.00000E+00        -0.24899E+07
 
   -0.14853E+05         0.10111E+05         0.00000E+00
    0.10111E+05        -0.49894E+07         0.00000E+00
    0.00000E+00         0.00000E+00        -0.24907E+07
 
   -0.17724E+05         0.82162E+04         0.00000E+00
    0.82162E+04        -0.49886E+07         0.00000E+00
    0.00000E+00         0.00000E+00        -0.24914E+07
 
   -0.19927E+05         0.60589E+04         0.00000E+00
    0.60589E+04        -0.49880E+07         0.00000E+00
    0.00000E+00         0.00000E+00        -0.24919E+07
 
   -0.21419E+05         0.37117E+04         0.00000E+00
    0.37117E+04        -0.49875E+07         0.00000E+00
    0.00000E+00         0.00000E+00        -0.24923E+07
 
   -0.22173E+05         0.12500E+04         0.00000E+00
    0.12500E+04        -0.49873E+07         0.00000E+00
    0.00000E+00         0.00000E+00        -0.24924E+07
 
    0.37623E+05         0.24078E+04         0.00000E+00
    0.24078E+04        -0.49999E+07         0.00000E+00
    0.00000E+00         0.00000E+00        -0.24765E+07
 
    0.32512E+05         0.65849E+04         0.00000E+00
    0.65849E+04        -0.49995E+07         0.00000E+00
    0.00000E+00         0.00000E+00        -0.24775E+07
 
    0.26806E+05         0.99931E+04         0.00000E+00
    0.99931E+04        -0.49987E+07         0.00000E+00
    0.00000E+00         0.00000E+00        -0.24787E+07
 
    0.20718E+05         0.12622E+05         0.00000E+00
    0.12622E+05        -0.49976E+07         0.00000E+00
    0.00000E+00         0.00000E+00        -0.24801E+07
 
    0.14448E+05         0.14479E+05         0.00000E+00
    0.14479E+05        -0.49963E+07         0.00000E+00
    0.00000E+00         0.00000E+00        -0.24815E+07
 
    0.81776E+04         0.15591E+05         0.00000E+00
    0.15591E+05        -0.49949E+07         0.00000E+00
    0.00000E+00         0.00000E+00        -0.24829E+07
 
    0.20736E+04         0.15997E+05         0.00000E+00
    0.15997E+05        -0.49935E+07         0.00000E+00
    0.00000E+00         0.00000E+00        -0.24843E+07
 
   -0.37162E+04         0.15748E+05         0.00000E+00
    0.15748E+05        -0.49921E+07         0.00000E+00
    0.00000E+00         0.00000E+00        -0.24856E+07
 
   -0.90611E+04         0.14903E+05         0.00000E+00
    0.14903E+05        -0.49907E+07         0.00000E+00
    0.00000E+00         0.00000E+00        -0.24869E+07
 
   -0.13848E+05         0.13531E+05         0.00000E+00
    0.13531E+05        -0.49895E+07         0.00000E+00
    0.00000E+00         0.00000E+00        -0.24880E+07
 
   -0.17981E+05         0.11704E+05         0.00000E+00
    0.11704E+05        -0.49884E+07         0.00000E+00
    0.00000E+00         0.00000E+00        -0.24890E+07
 
   -0.21381E+05         0.94999E+04         0.00000E+00
    0.94999E+04        -0.49875E+07         0.00000E+00
    0.00000E+00         0.00000E+00        -0.24898E+07
 
   -0.23986E+05         0.69992E+04         0.00000E+00
    0.69992E+04        -0.49868E+07         0.00000E+00
    0.00000E+00         0.00000E+00        -0.24904E+07
 
   -0.25748E+05         0.42853E+04         0.00000E+00
    0.42853E+04        -0.49864E+07         0.00000E+00
    0.00000E+00         0.00000E+00        -0.24908E+07
 
   -0.26637E+05         0.14427E+04         0.00000E+00
    0.14427E+04        -0.49861E+07         0.00000E+00
    0.00000E+00         0.00000E+00        -0.24910E+07
 
    0.45876E+05         0.28446E+04         0.00000E+00
    0.28446E+04        -0.49999E+07         0.00000E+00
    0.00000E+00         0.00000E+00        -0.24714E+07
 
    0.39362E+05         0.77381E+04         0.00000E+00
    0.77381E+04        -0.49994E+07         0.00000E+00
    0.00000E+00         0.00000E+00        -0.24727E+07
 
    0.32225E+05         0.11692E+05         0.00000E+00
    0.11692E+05        -0.49985E+07         0.00000E+00
    0.00000E+00         0.00000E+00        -0.24743E+07
 
    0.24719E+05         0.14709E+05         0.00000E+00
    0.14709E+05        -0.49973E+07         0.00000E+00
    0.00000E+00         0.00000E+00        -0.24759E+07
 
    0.17071E+05         0.16813E+05         0.00000E+00
    0.16813E+05        -0.49959E+07         0.00000E+00
    0.00000E+00         0.00000E+00        -0.24777E+07
 
    0.94917E+04         0.18046E+05         0.00000E+00
    0.18046E+05        -0.49945E+07         0.00000E+00
    0.00000E+00         0.00000E+00        -0.24794E+07
 
    0.21663E+04         0.18463E+05         0.00000E+00
    0.18463E+05        -0.49929E+07         0.00000E+00
    0.00000E+00         0.00000E+00        -0.24811E+07
 
   -0.47401E+04         0.18128E+05         0.00000E+00
    0.18128E+05        -0.49914E+07         0.00000E+00
    0.00000E+00         0.00000E+00        -0.24827E+07
 
   -0.11084E+05         0.17118E+05         0.00000E+00
    0.17118E+05        -0.49900E+07         0.00000E+00
    0.00000E+00         0.00000E+00        -0.24842E+07
 
   -0.16741E+05         0.15512E+05         0.00000E+00
    0.15512E+05        -0.49887E+07         0.00000E+00
    0.00000E+00         0.00000E+00        -0.24856E+07
 
   -0.21610E+05         0.13396E+05         0.00000E+00
    0.13396E+05        -0.49876E+07         0.00000E+00
    0.00000E+00         0.00000E+00        -0.24868E+07
 
   -0.25603E+05         0.10859E+05         0.00000E+00
    0.10859E+05        -0.49867E+07         0.00000E+00
    0.00000E+00         0.00000E+00        -0.24877E+07
 
   -0.28656E+05         0.79930E+04         0.00000E+00
    0.79930E+04        -0.49859E+07         0.00000E+00
    0.00000E+00         0.00000E+00        -0.24885E+07
 
   -0.30719E+05         0.48905E+04         0.00000E+00
    0.48905E+04        -0.49854E+07         0.00000E+00
    0.00000E+00         0.00000E+00        -0.24890E+07
 
   -0.31758E+05         0.16460E+04         0.00000E+00
    0.16460E+04        -0.49852E+07         0.00000E+00
    0.00000E+00         0.00000E+00        -0.24892E+07
 
    0.55539E+05         0.33262E+04         0.00000E+00
    0.33262E+04        -0.49999E+07         0.00000E+00
    0.00000E+00         0.00000E+00        -0.24653E+07
 
    0.47301E+05         0.89974E+04         0.00000E+00
    0.89974E+04        -0.49994E+07         0.00000E+00
    0.00000E+00         0.00000E+00        -0.24670E+07
 
    0.38442E+05         0.13531E+05         0.00000E+00
    0.13531E+05        -0.49984E+07         0.00000E+00
    0.00000E+00         0.00000E+00        -0.24689E+07
 
    0.29254E+05         0.16952E+05         0.00000E+00
    0.16952E+05        -0.49971E+07         0.00000E+00
    0.00000E+00         0.00000E+00        -0.24710E+07
 
    0.19996E+05         0.19303E+05         0.00000E+00
    0.19303E+05        -0.49957E+07         0.00000E+00
    0.00000E+00         0.00000E+00        -0.24731E+07
 
    0.10903E+05         0.20647E+05         0.00000E+00
    0.20647E+05        -0.49941E+07         0.00000E+00
    0.00000E+00         0.00000E+00        -0.24752E+07
 
    0.21805E+04         0.21058E+05         0.00000E+00
    0.21058E+05        -0.49925E+07         0.00000E+00
    0.00000E+00         0.00000E+00        -0.24773E+07
 
   -0.59912E+04         0.20619E+05         0.00000E+00
    0.20619E+05        -0.49910E+07         0.00000E+00
    0.00000E+00         0.00000E+00        -0.24792E+07
 
   -0.13457E+05         0.19423E+05         0.00000E+00
    0.19423E+05        -0.49895E+07         0.00000E+00
    0.00000E+00         0.00000E+00        -0.24810E+07
 
   -0.20087E+05         0.17564E+05         0.00000E+00
    0.17564E+05        -0.49882E+07         0.00000E+00
    0.00000E+00         0.00000E+00        -0.24826E+07
 
   -0.25771E+05         0.15142E+05         0.00000E+00
    0.15142E+05        -0.49870E+07         0.00000E+00
    0.00000E+00         0.00000E+00        -0.24840E+07
 
   -0.30420E+05         0.12258E+05         0.00000E+00
    0.12258E+05        -0.49861E+07         0.00000E+00
    0.00000E+00         0.00000E+00        -0.24852E+07
 
   -0.33967E+05         0.90129E+04         0.00000E+00
    0.90129E+04        -0.49854E+07         0.00000E+00
    0.00000E+00         0.00000E+00        -0.24861E+07
 
   -0.36358E+05         0.55108E+04         0.00000E+00
    0.55108E+04        -0.49849E+07         0.00000E+00
    0.00000E+00         0.00000E+00        -0.24867E+07
 
   -0.37563E+05         0.18541E+04         0.00000E+00
    0.18541E+04        -0.49846E+07         0.00000E+00
    0.00000E+00         0.00000E+00        -0.24870E+07
 
    0.66730E+05         0.38460E+04         0.00000E+00
    0.38460E+04        -0.49999E+07         0.00000E+00
    0.00000E+00         0.00000E+00        -0.24580E+07
 
    0.56397E+05         0.10341E+05         0.00000E+00
    0.10341E+05        -0.49993E+07         0.00000E+00
    0.00000E+00         0.00000E+00        -0.24601E+07
 
    0.45485E+05         0.15475E+05         0.00000E+00
    0.15475E+05        -0.49983E+07         0.00000E+00
    0.00000E+00         0.00000E+00        -0.24625E+07
 
    0.34323E+05         0.19299E+05         0.00000E+00
    0.19299E+05        -0.49970E+07         0.00000E+00
    0.00000E+00         0.00000E+00        -0.24650E+07
 
    0.23204E+05         0.21886E+05         0.00000E+00
    0.21886E+05        -0.49955E+07         0.00000E+00
    0.00000E+00         0.00000E+00        -0.24676E+07
 
    0.12383E+05         0.23322E+05         0.00000E+00
    0.23322E+05        -0.49939E+07         0.00000E+00
    0.00000E+00         0.00000E+00        -0.24701E+07
 
    0.20836E+04         0.23706E+05         0.00000E+00
    0.23706E+05        -0.49923E+07         0.00000E+00
    0.00000E+00         0.00000E+00        -0.24726E+07
 
   -0.75020E+04         0.23143E+05         0.00000E+00
    0.23143E+05        -0.49908E+07         0.00000E+00
    0.00000E+00         0.00000E+00        -0.24749E+07
 
   -0.16212E+05         0.21742E+05         0.00000E+00
    0.21742E+05        -0.49893E+07         0.00000E+00
    0.00000E+00         0.00000E+00        -0.24771E+07
 
   -0.23910E+05         0.19617E+05         0.00000E+00
    0.19617E+05        -0.49880E+07         0.00000E+00
    0.00000E+00         0.00000E+00        -0.24790E+07
 
   -0.30484E+05         0.16880E+05         0.00000E+00
    0.16880E+05        -0.49869E+07         0.00000E+00
    0.00000E+00         0.00000E+00        -0.24806E+07
 
   -0.35846E+05         0.13644E+05         0.00000E+00
    0.13644E+05        -0.49860E+07         0.00000E+00
    0.00000E+00         0.00000E+00        -0.24820E+07
 
   -0.39925E+05         0.10021E+05         0.00000E+00
    0.10021E+05        -0.49853E+07         0.00000E+00
    0.00000E+00         0.00000E+00        -0.24830E+07
 
   -0.42673E+05         0.61223E+04         0.00000E+00
    0.61223E+04        -0.49848E+07         0.00000E+00
    0.00000E+00         0.00000E+00        -0.24837E+07
 
   -0.44054E+05         0.20591E+04         0.00000E+00
    0.20591E+04        -0.49846E+07         0.00000E+00
    0.00000E+00         0.00000E+00        -0.24841E+07
 
    0.79536E+05         0.43927E+04         0.00000E+00
    0.43927E+04        -0.49999E+07         0.00000E+00
    0.00000E+00         0.00000E+00        -0.24492E+07
 
    0.66686E+05         0.11735E+05         0.00000E+00
    0.11735E+05        -0.49993E+07         0.00000E+00
    0.00000E+00         0.00000E+00        -0.24519E+07
 
    0.53353E+05         0.17467E+05         0.00000E+00
    0.17467E+05        -0.49983E+07         0.00000E+00
    0.00000E+00         0.00000E+00        -0.24548E+07
 
    0.39904E+05         0.21676E+05         0.00000E+00
    0.21676E+05        -0.49970E+07         0.00000E+00
    0.00000E+00         0.00000E+00        -0.24579E+07
 
    0.26658E+05         0.24471E+05         0.00000E+00
    0.24471E+05        -0.49955E+07         0.00000E+00
    0.00000E+00         0.00000E+00        -0.24609E+07
 
    0.13891E+05         0.25970E+05         0.00000E+00
    0.25970E+05        -0.49939E+07         0.00000E+00
    0.00000E+00         0.00000E+00        -0.24640E+07
 
    0.18376E+04         0.26300E+05         0.00000E+00
    0.26300E+05        -0.49924E+07         0.00000E+00
    0.00000E+00         0.00000E+00        -0.24669E+07
 
   -0.93038E+04         0.25590E+05         0.00000E+00
    0.25590E+05        -0.49909E+07         0.00000E+00
    0.00000E+00         0.00000E+00        -0.24696E+07
 
   -0.19368E+05         0.23972E+05         0.00000E+00
    0.23972E+05        -0.49896E+07         0.00000E+00
    0.00000E+00         0.00000E+00        -0.24722E+07
 
   -0.28220E+05         0.21575E+05         0.00000E+00
    0.21575E+05        -0.49884E+07         0.00000E+00
    0.00000E+00         0.00000E+00        -0.24744E+07
 
   -0.35749E+05         0.18526E+05         0.00000E+00
    0.18526E+05        -0.49873E+07         0.00000E+00
    0.00000E+00         0.00000E+00        -0.24764E+07
 
   -0.41869E+05         0.14949E+05         0.00000E+00
    0.14949E+05        -0.49865E+07         0.00000E+00
    0.00000E+00         0.00000E+00        -0.24779E+07
 
   -0.46514E+05         0.10965E+05         0.00000E+00
    0.10965E+05        -0.49859E+07         0.00000E+00
    0.00000E+00         0.00000E+00        -0.24792E+07
 
   -0.49636E+05         0.66938E+04         0.00000E+00
    0.66938E+04        -0.49854E+07         0.00000E+00
    0.00000E+00         0.00000E+00        -0.24800E+07
 
   -0.51205E+05         0.22503E+04         0.00000E+00
    0.22503E+04        -0.49852E+07         0.00000E+00
    0.00000E+00         0.00000E+00        -0.24804E+07
 
    0.93996E+05         0.49488E+04         0.00000E+00
    0.49488E+04        -0.49999E+07         0.00000E+00
    0.00000E+00         0.00000E+00        -0.24387E+07
 
    0.78157E+05         0.13128E+05         0.00000E+00
    0.13128E+05        -0.49993E+07         0.00000E+00
    0.00000E+00         0.00000E+00        -0.24420E+07
 
    0.62005E+05         0.19425E+05         0.00000E+00
    0.19425E+05        -0.49983E+07         0.00000E+00
    0.00000E+00         0.00000E+00        -0.24455E+07
 
    0.45939E+05         0.23976E+05         0.00000E+00
    0.23976E+05        -0.49971E+07         0.00000E+00
    0.00000E+00         0.00000E+00        -0.24492E+07
 
    0.30299E+05         0.26933E+05         0.00000E+00
    0.26933E+05        -0.49957E+07         0.00000E+00
    0.00000E+00         0.00000E+00        -0.24529E+07
 
    0.15373E+05         0.28454E+05         0.00000E+00
    0.28454E+05        -0.49943E+07         0.00000E+00
    0.00000E+00         0.00000E+00        -0.24565E+07
 
    0.13994E+04         0.28697E+05         0.00000E+00
    0.28697E+05        -0.49929E+07         0.00000E+00
    0.00000E+00         0.00000E+00        -0.24599E+07
 
   -0.11424E+05         0.27819E+05         0.00000E+00
    0.27819E+05        -0.49916E+07         0.00000E+00
    0.00000E+00         0.00000E+00        -0.24631E+07
 
   -0.22936E+05         0.25976E+05         0.00000E+00
    0.25976E+05        -0.49904E+07         0.00000E+00
    0.00000E+00         0.00000E+00        -0.24661E+07
 
   -0.33008E+05         0.23312E+05         0.00000E+00
    0.23312E+05        -0.49894E+07         0.00000E+00
    0.00000E+00         0.00000E+00        -0.24687E+07
 
   -0.41538E+05         0.19971E+05         0.00000E+00
    0.19971E+05        -0.49886E+07         0.00000E+00
    0.00000E+00         0.00000E+00        -0.24709E+07
 
   -0.48448E+05         0.16084E+05         0.00000E+00
    0.16084E+05        -0.49879E+07         0.00000E+00
    0.00000E+00         0.00000E+00        -0.24728E+07
 
   -0.53678E+05         0.11782E+05         0.00000E+00
    0.11782E+05        -0.49873E+07         0.00000E+00
    0.00000E+00         0.00000E+00        -0.24742E+07
 
   -0.57187E+05         0.71852E+04         0.00000E+00
    0.71852E+04        -0.49870E+07         0.00000E+00
    0.00000E+00         0.00000E+00        -0.24751E+07
 
   -0.58948E+05         0.24144E+04         0.00000E+00
    0.24144E+04        -0.49868E+07         0.00000E+00
    0.00000E+00         0.00000E+00        -0.24756E+07
 
    0.11008E+06         0.54896E+04         0.00000E+00
    0.54896E+04        -0.49999E+07         0.00000E+00
    0.00000E+00         0.00000E+00        -0.24261E+07
 
    0.90738E+05         0.14450E+05         0.00000E+00
    0.14450E+05        -0.49993E+07         0.00000E+00
    0.00000E+00         0.00000E+00        -0.24301E+07
 
    0.71346E+05         0.21240E+05         0.00000E+00
    0.21240E+05        -0.49985E+07         0.00000E+00
    0.00000E+00         0.00000E+00        -0.24344E+07
 
    0.52329E+05         0.26059E+05         0.00000E+00
    0.26059E+05        -0.49974E+07         0.00000E+00
    0.00000E+00         0.00000E+00        -0.24388E+07
 
    0.34037E+05         0.29110E+05         0.00000E+00
    0.29110E+05        -0.49962E+07         0.00000E+00
    0.00000E+00         0.00000E+00        -0.24431E+07
 
    0.16757E+05         0.30596E+05         0.00000E+00
    0.30596E+05        -0.49950E+07         0.00000E+00
    0.00000E+00         0.00000E+00        -0.24473E+07
 
    0.72235E+03         0.30713E+05         0.00000E+00
    0.30713E+05        -0.49939E+07         0.00000E+00
    0.00000E+00         0.00000E+00        -0.24513E+07
 
   -0.13880E+05         0.29650E+05         0.00000E+00
    0.29650E+05        -0.49929E+07         0.00000E+00
    0.00000E+00         0.00000E+00        -0.24551E+07
 
   -0.26905E+05         0.27582E+05         0.00000E+00
    0.27582E+05        -0.49921E+07         0.00000E+00
    0.00000E+00         0.00000E+00        -0.24584E+07
 
   -0.38237E+05         0.24675E+05         0.00000E+00
    0.24675E+05        -0.49913E+07         0.00000E+00
    0.00000E+00         0.00000E+00        -0.24615E+07
 
   -0.47790E+05         0.21081E+05         0.00000E+00
    0.21081E+05        -0.49907E+07         0.00000E+00
    0.00000E+00         0.00000E+00        -0.24640E+07
 
   -0.55499E+05         0.16942E+05         0.00000E+00
    0.16942E+05        -0.49903E+07         0.00000E+00
    0.00000E+00         0.00000E+00        -0.24661E+07
 
   -0.61318E+05         0.12390E+05         0.00000E+00
    0.12390E+05        -0.49899E+07         0.00000E+00
    0.00000E+00         0.00000E+00        -0.24677E+07
 
   -0.65214E+05         0.75477E+04         0.00000E+00
    0.75477E+04        -0.49897E+07         0.00000E+00
    0.00000E+00         0.00000E+00        -0.24688E+07
 
   -0.67166E+05         0.25348E+04         0.00000E+00
    0.25348E+04        -0.49896E+07         0.00000E+00
    0.00000E+00         0.00000E+00        -0.24693E+07
 
    0.12767E+06         0.59816E+04         0.00000E+00
    0.59816E+04        -0.49999E+07         0.00000E+00
    0.00000E+00         0.00000E+00        -0.24110E+07
 
    0.10428E+06         0.15607E+05         0.00000E+00
    0.15607E+05        -0.49994E+07         0.00000E+00
    0.00000E+00         0.00000E+00        -0.24159E+07
 
    0.81220E+05         0.22771E+05         0.00000E+00
    0.22771E+05        -0.49987E+07         0.00000E+00
    0.00000E+00         0.00000E+00        -0.24210E+07
 
    0.58930E+05         0.27745E+05         0.00000E+00
    0.27745E+05        -0.49979E+07         0.00000E+00
    0.00000E+00         0.00000E+00        -0.24262E+07
 
    0.37751E+05         0.30796E+05         0.00000E+00
    0.30796E+05        -0.49971E+07         0.00000E+00
    0.00000E+00         0.00000E+00        -0.24312E+07
 
    0.17957E+05         0.32177E+05         0.00000E+00
    0.32177E+05        -0.49963E+07         0.00000E+00
    0.00000E+00         0.00000E+00        -0.24361E+07
 
   -0.24083E+03         0.32127E+05         0.00000E+00
    0.32127E+05        -0.49956E+07         0.00000E+00
    0.00000E+00         0.00000E+00        -0.24407E+07
 
   -0.16681E+05         0.30864E+05         0.00000E+00
    0.30864E+05        -0.49951E+07         0.00000E+00
    0.00000E+00         0.00000E+00        -0.24450E+07
 
   -0.31242E+05         0.28588E+05         0.00000E+00
    0.28588E+05        -0.49946E+07         0.00000E+00
    0.00000E+00         0.00000E+00        -0.24489E+07
 
   -0.43836E+05         0.25479E+05         0.00000E+00
    0.25479E+05        -0.49943E+07         0.00000E+00
    0.00000E+00         0.00000E+00        -0.24523E+07
 
   -0.54400E+05         0.21699E+05         0.00000E+00
    0.21699E+05        -0.49941E+07         0.00000E+00
    0.00000E+00         0.00000E+00        -0.24552E+07
 
   -0.62891E+05         0.17394E+05         0.00000E+00
    0.17394E+05        -0.49939E+07         0.00000E+00
    0.00000E+00         0.00000E+00        -0.24576E+07
 
   -0.69280E+05         0.12696E+05         0.00000E+00
    0.12696E+05        -0.49938E+07         0.00000E+00
    0.00000E+00         0.00000E+00        -0.24594E+07
 
   -0.73548E+05         0.77243E+04         0.00000E+00
    0.77243E+04        -0.49938E+07         0.00000E+00
    0.00000E+00         0.00000E+00        -0.24606E+07
 
   -0.75684E+05         0.25924E+04         0.00000E+00
    0.25924E+04        -0.49938E+07         0.00000E+00
    0.00000E+00         0.00000E+00        -0.24612E+07
 
    0.14651E+06         0.63814E+04         0.00000E+00
    0.63814E+04        -0.49999E+07         0.00000E+00
    0.00000E+00         0.00000E+00        -0.23930E+07
 
    0.11852E+06         0.16482E+05         0.00000E+00
    0.16482E+05        -0.49996E+07         0.00000E+00
    0.00000E+00         0.00000E+00        -0.23989E+07
 
    0.91387E+05         0.23841E+05         0.00000E+00
    0.23841E+05        -0.49992E+07         0.00000E+00
    0.00000E+00         0.00000E+00        -0.24049E+07
 
    0.65538E+05         0.28815E+05         0.00000E+00
    0.28815E+05        -0.49987E+07         0.00000E+00
    0.00000E+00         0.00000E+00        -0.24109E+07
 
    0.41287E+05         0.31743E+05         0.00000E+00
    0.31743E+05        -0.49984E+07         0.00000E+00
    0.00000E+00         0.00000E+00        -0.24167E+07
 
    0.18873E+05         0.32935E+05         0.00000E+00
    0.32935E+05        -0.49981E+07         0.00000E+00
    0.00000E+00         0.00000E+00        -0.24223E+07
 
   -0.15337E+04         0.32673E+05         0.00000E+00
    0.32673E+05        -0.49981E+07         0.00000E+00
    0.00000E+00         0.00000E+00        -0.24276E+07
 
   -0.19811E+05         0.31206E+05         0.00000E+00
    0.31206E+05        -0.49981E+07         0.00000E+00
    0.00000E+00         0.00000E+00        -0.24324E+07
 
   -0.35880E+05         0.28755E+05         0.00000E+00
    0.28755E+05        -0.49983E+07         0.00000E+00
    0.00000E+00         0.00000E+00        -0.24368E+07
 
   -0.49690E+05         0.25512E+05         0.00000E+00
    0.25512E+05        -0.49985E+07         0.00000E+00
    0.00000E+00         0.00000E+00        -0.24406E+07
 
   -0.61212E+05         0.21645E+05         0.00000E+00
    0.21645E+05        -0.49988E+07         0.00000E+00
    0.00000E+00         0.00000E+00        -0.24438E+07
 
   -0.70432E+05         0.17297E+05         0.00000E+00
    0.17297E+05        -0.49991E+07         0.00000E+00
    0.00000E+00         0.00000E+00        -0.24465E+07
 
   -0.77346E+05         0.12595E+05         0.00000E+00
    0.12595E+05        -0.49993E+07         0.00000E+00
    0.00000E+00         0.00000E+00        -0.24485E+07
 
   -0.81954E+05         0.76511E+04         0.00000E+00
    0.76511E+04        -0.49995E+07         0.00000E+00
    0.00000E+00         0.00000E+00        -0.24499E+07
 
   -0.84257E+05         0.25658E+04         0.00000E+00
    0.25658E+04        -0.49996E+07         0.00000E+00
    0.00000E+00         0.00000E+00        -0.24505E+07
 
    0.16622E+06         0.66347E+04         0.00000E+00
    0.66347E+04        -0.49999E+07         0.00000E+00
    0.00000E+00         0.00000E+00        -0.23715E+07
 
    0.13309E+06         0.16932E+05         0.00000E+00
    0.16932E+05        -0.49998E+07         0.00000E+00
    0.00000E+00         0.00000E+00        -0.23785E+07
 
    0.10152E+06         0.24238E+05         0.00000E+00
    0.24238E+05        -0.49998E+07         0.00000E+00
    0.00000E+00         0.00000E+00        -0.23855E+07
 
    0.71890E+05         0.29010E+05         0.00000E+00
    0.29010E+05        -0.49999E+07         0.00000E+00
    0.00000E+00         0.00000E+00        -0.23924E+07
 
    0.44455E+05         0.31665E+05         0.00000E+00
    0.31665E+05        -0.50002E+07         0.00000E+00
    0.00000E+00         0.00000E+00        -0.23990E+07
 
    0.19392E+05         0.32572E+05         0.00000E+00
    0.32572E+05        -0.50007E+07         0.00000E+00
    0.00000E+00         0.00000E+00        -0.24054E+07
 
   -0.31899E+04         0.32055E+05         0.00000E+00
    0.32055E+05        -0.50014E+07         0.00000E+00
    0.00000E+00         0.00000E+00        -0.24113E+07
 
   -0.23233E+05         0.30394E+05         0.00000E+00
    0.30394E+05        -0.50023E+07         0.00000E+00
    0.00000E+00         0.00000E+00        -0.24166E+07
 
   -0.40713E+05         0.27824E+05         0.00000E+00
    0.27824E+05        -0.50032E+07         0.00000E+00
    0.00000E+00         0.00000E+00        -0.24215E+07
 
   -0.55633E+05         0.24546E+05         0.00000E+00
    0.24546E+05        -0.50041E+07         0.00000E+00
    0.00000E+00         0.00000E+00        -0.24257E+07
 
   -0.68009E+05         0.20724E+05         0.00000E+00
    0.20724E+05        -0.50050E+07         0.00000E+00
    0.00000E+00         0.00000E+00        -0.24293E+07
 
   -0.77866E+05         0.16495E+05         0.00000E+00
    0.16495E+05        -0.50058E+07         0.00000E+00
    0.00000E+00         0.00000E+00        -0.24322E+07
 
   -0.85231E+05         0.11976E+05         0.00000E+00
    0.11976E+05        -0.50065E+07         0.00000E+00
    0.00000E+00         0.00000E+00        -0.24344E+07
 
   -0.90126E+05         0.72600E+04         0.00000E+00
    0.72600E+04        -0.50069E+07         0.00000E+00
    0.00000E+00         0.00000E+00        -0.24359E+07
 
   -0.92569E+05         0.24322E+04         0.00000E+00
    0.24322E+04        -0.50072E+07         0.00000E+00
    0.00000E+00         0.00000E+00        -0.24366E+07
 
    0.18622E+06         0.66763E+04         0.00000E+00
    0.66763E+04        -0.50000E+07         0.00000E+00
    0.00000E+00         0.00000E+00        -0.23459E+07
 
    0.14747E+06         0.16786E+05         0.00000E+00
    0.16786E+05        -0.50002E+07         0.00000E+00
    0.00000E+00         0.00000E+00        -0.23540E+07
 
    0.11119E+06         0.23717E+05         0.00000E+00
    0.23717E+05        -0.50006E+07         0.00000E+00
    0.00000E+00         0.00000E+00        -0.23621E+07
 
    0.77661E+05         0.28036E+05         0.00000E+00
    0.28036E+05        -0.50015E+07         0.00000E+00
    0.00000E+00         0.00000E+00        -0.23699E+07
 
    0.47036E+05         0.30241E+05         0.00000E+00
    0.30241E+05        -0.50026E+07         0.00000E+00
    0.00000E+00         0.00000E+00        -0.23774E+07
 
    0.19402E+05         0.30760E+05         0.00000E+00
    0.30760E+05        -0.50041E+07         0.00000E+00
    0.00000E+00         0.00000E+00        -0.23845E+07
 
   -0.52241E+04         0.29956E+05         0.00000E+00
    0.29956E+05        -0.50058E+07         0.00000E+00
    0.00000E+00         0.00000E+00        -0.23910E+07
 
   -0.26868E+05         0.28129E+05         0.00000E+00
    0.28129E+05        -0.50076E+07         0.00000E+00
    0.00000E+00         0.00000E+00        -0.23969E+07
 
   -0.45584E+05         0.25526E+05         0.00000E+00
    0.25526E+05        -0.50095E+07         0.00000E+00
    0.00000E+00         0.00000E+00        -0.24022E+07
 
   -0.61440E+05         0.22344E+05         0.00000E+00
    0.22344E+05        -0.50112E+07         0.00000E+00
    0.00000E+00         0.00000E+00        -0.24068E+07
 
   -0.74511E+05         0.18740E+05         0.00000E+00
    0.18740E+05        -0.50129E+07         0.00000E+00
    0.00000E+00         0.00000E+00        -0.24107E+07
 
   -0.84868E+05         0.14836E+05         0.00000E+00
    0.14836E+05        -0.50143E+07         0.00000E+00
    0.00000E+00         0.00000E+00        -0.24139E+07
 
   -0.92575E+05         0.10726E+05         0.00000E+00
    0.10726E+05        -0.50154E+07         0.00000E+00
    0.00000E+00         0.00000E+00        -0.24162E+07
 
   -0.97683E+05         0.64844E+04         0.00000E+00
    0.64844E+04        -0.50162E+07         0.00000E+00
    0.00000E+00         0.00000E+00        -0.24178E+07
 
   -0.10023E+06         0.21693E+04         0.00000E+00
    0.21693E+04        -0.50166E+07         0.00000E+00
    0.00000E+00         0.00000E+00        -0.24186E+07
 
    0.20570E+06         0.64303E+04         0.00000E+00
    0.64303E+04        -0.50000E+07         0.00000E+00
    0.00000E+00         0.00000E+00        -0.23153E+07
 
    0.16100E+06         0.15854E+05         0.00000E+00
    0.15854E+05        -0.50006E+07         0.00000E+00
    0.00000E+00         0.00000E+00        -0.23248E+07
 
    0.11988E+06         0.22010E+05         0.00000E+00
    0.22010E+05        -0.50017E+07         0.00000E+00
    0.00000E+00         0.00000E+00        -0.23339E+07
 
    0.82466E+05         0.25579E+05         0.00000E+00
    0.25579E+05        -0.50034E+07         0.00000E+00
    0.00000E+00         0.00000E+00        -0.23427E+07
 
    0.48790E+05         0.27139E+05         0.00000E+00
    0.27139E+05        -0.50057E+07         0.00000E+00
    0.00000E+00         0.00000E+00        -0.23510E+07
 
    0.18796E+05         0.27168E+05         0.00000E+00
    0.27168E+05        -0.50083E+07         0.00000E+00
    0.00000E+00         0.00000E+00        -0.23587E+07
 
   -0.76213E+04         0.26059E+05         0.00000E+00
    0.26059E+05        -0.50111E+07         0.00000E+00
    0.00000E+00         0.00000E+00        -0.23658E+07
 
   -0.30597E+05         0.24123E+05         0.00000E+00
    0.24123E+05        -0.50141E+07         0.00000E+00
    0.00000E+00         0.00000E+00        -0.23722E+07
 
   -0.50282E+05         0.21605E+05         0.00000E+00
    0.21605E+05        -0.50170E+07         0.00000E+00
    0.00000E+00         0.00000E+00        -0.23779E+07
 
   -0.66825E+05         0.18690E+05         0.00000E+00
    0.18690E+05        -0.50198E+07         0.00000E+00
    0.00000E+00         0.00000E+00        -0.23828E+07
 
   -0.80370E+05         0.15515E+05         0.00000E+00
    0.15515E+05        -0.50223E+07         0.00000E+00
    0.00000E+00         0.00000E+00        -0.23869E+07
 
   -0.91042E+05         0.12179E+05         0.00000E+00
    0.12179E+05        -0.50245E+07         0.00000E+00
    0.00000E+00         0.00000E+00        -0.23903E+07
 
   -0.98950E+05         0.87479E+04         0.00000E+00
    0.87479E+04        -0.50261E+07         0.00000E+00
    0.00000E+00         0.00000E+00        -0.23928E+07
 
   -0.10417E+06         0.52649E+04         0.00000E+00
    0.52649E+04        -0.50273E+07         0.00000E+00
    0.00000E+00         0.00000E+00        -0.23945E+07
 
   -0.10677E+06         0.17574E+04         0.00000E+00
    0.17574E+04        -0.50279E+07         0.00000E+00
    0.00000E+00         0.00000E+00        -0.23953E+07
 
    0.22365E+06         0.58126E+04         0.00000E+00
    0.58126E+04        -0.50001E+07         0.00000E+00
    0.00000E+00         0.00000E+00        -0.22790E+07
 
    0.17284E+06         0.13930E+05         0.00000E+00
    0.13930E+05        -0.50011E+07         0.00000E+00
    0.00000E+00         0.00000E+00        -0.22897E+07
 
    0.12695E+06         0.18838E+05         0.00000E+00
    0.18838E+05        -0.50031E+07         0.00000E+00
    0.00000E+00         0.00000E+00        -0.22999E+07
 
    0.85879E+05         0.21325E+05         0.00000E+00
    0.21325E+05        -0.50059E+07         0.00000E+00
    0.00000E+00         0.00000E+00        -0.23096E+07
 
    0.49472E+05         0.22036E+05         0.00000E+00
    0.22036E+05        -0.50093E+07         0.00000E+00
    0.00000E+00         0.00000E+00        -0.23186E+07
 
    0.17492E+05         0.21487E+05         0.00000E+00
    0.21487E+05        -0.50132E+07         0.00000E+00
    0.00000E+00         0.00000E+00        -0.23269E+07
 
   -0.10323E+05         0.20081E+05         0.00000E+00
    0.20081E+05        -0.50174E+07         0.00000E+00
    0.00000E+00         0.00000E+00        -0.23344E+07
 
   -0.34243E+05         0.18126E+05         0.00000E+00
    0.18126E+05        -0.50217E+07         0.00000E+00
    0.00000E+00         0.00000E+00        -0.23412E+07
 
   -0.54533E+05         0.15849E+05         0.00000E+00
    0.15849E+05        -0.50258E+07         0.00000E+00
    0.00000E+00         0.00000E+00        -0.23472E+07
 
   -0.71437E+05         0.13409E+05         0.00000E+00
    0.13409E+05        -0.50297E+07         0.00000E+00
    0.00000E+00         0.00000E+00        -0.23524E+07
 
   -0.85174E+05         0.10912E+05         0.00000E+00
    0.10912E+05        -0.50331E+07         0.00000E+00
    0.00000E+00         0.00000E+00        -0.23567E+07
 
   -0.95933E+05         0.84222E+04         0.00000E+00
    0.84222E+04        -0.50360E+07         0.00000E+00
    0.00000E+00         0.00000E+00        -0.23602E+07
 
   -0.10387E+06         0.59694E+04         0.00000E+00
    0.59694E+04        -0.50383E+07         0.00000E+00
    0.00000E+00         0.00000E+00        -0.23628E+07
 
   -0.10909E+06         0.35598E+04         0.00000E+00
    0.35598E+04        -0.50399E+07         0.00000E+00
    0.00000E+00         0.00000E+00        -0.23646E+07
 
   -0.11168E+06         0.11827E+04         0.00000E+00
    0.11827E+04        -0.50406E+07         0.00000E+00
    0.00000E+00         0.00000E+00        -0.23655E+07
 
    0.23878E+06         0.47352E+04         0.00000E+00
    0.47352E+04        -0.50002E+07         0.00000E+00
    0.00000E+00         0.00000E+00        -0.22357E+07
 
    0.18201E+06         0.10811E+05         0.00000E+00
    0.10811E+05        -0.50018E+07         0.00000E+00
    0.00000E+00         0.00000E+00        -0.22477E+07
 
    0.13169E+06         0.13938E+05         0.00000E+00
    0.13938E+05        -0.50047E+07         0.00000E+00
    0.00000E+00         0.00000E+00        -0.22589E+07
 
    0.87453E+05         0.14994E+05         0.00000E+00
    0.14994E+05        -0.50087E+07         0.00000E+00
    0.00000E+00         0.00000E+00        -0.22693E+07
 
    0.48858E+05         0.14665E+05         0.00000E+00
    0.14665E+05        -0.50135E+07         0.00000E+00
    0.00000E+00         0.00000E+00        -0.22789E+07
 
    0.15454E+05         0.13478E+05         0.00000E+00
    0.13478E+05        -0.50189E+07         0.00000E+00
    0.00000E+00         0.00000E+00        -0.22877E+07
 
   -0.13211E+05         0.11823E+05         0.00000E+00
    0.11823E+05        -0.50245E+07         0.00000E+00
    0.00000E+00         0.00000E+00        -0.22956E+07
 
   -0.37566E+05         0.99796E+04         0.00000E+00
    0.99796E+04        -0.50301E+07         0.00000E+00
    0.00000E+00         0.00000E+00        -0.23026E+07
 
   -0.58003E+05         0.81368E+04         0.00000E+00
    0.81368E+04        -0.50355E+07         0.00000E+00
    0.00000E+00         0.00000E+00        -0.23088E+07
 
   -0.74869E+05         0.64127E+04         0.00000E+00
    0.64127E+04        -0.50405E+07         0.00000E+00
    0.00000E+00         0.00000E+00        -0.23141E+07
 
   -0.88465E+05         0.48691E+04         0.00000E+00
    0.48691E+04        -0.50449E+07         0.00000E+00
    0.00000E+00         0.00000E+00        -0.23185E+07
 
   -0.99042E+05         0.35249E+04         0.00000E+00
    0.35249E+04        -0.50485E+07         0.00000E+00
    0.00000E+00         0.00000E+00        -0.23220E+07
 
   -0.10680E+06         0.23663E+04         0.00000E+00
    0.23663E+04        -0.50514E+07         0.00000E+00
    0.00000E+00         0.00000E+00        -0.23247E+07
 
   -0.11189E+06         0.13562E+04         0.00000E+00
    0.13562E+04        -0.50533E+07         0.00000E+00
    0.00000E+00         0.00000E+00        -0.23265E+07
 
   -0.11441E+06         0.44115E+03         0.00000E+00
    0.44115E+03        -0.50543E+07         0.00000E+00
    0.00000E+00         0.00000E+00        -0.23274E+07
 
    0.24958E+06         0.31141E+04         0.00000E+00
    0.31141E+04        -0.50003E+07         0.00000E+00
    0.00000E+00         0.00000E+00        -0.21843E+07
 
    0.18741E+06         0.63192E+04         0.00000E+00
    0.63192E+04        -0.50025E+07         0.00000E+00
    0.00000E+00         0.00000E+00        -0.21974E+07
 
    0.13339E+06         0.71048E+04         0.00000E+00
    0.71048E+04        -0.50064E+07         0.00000E+00
    0.00000E+00         0.00000E+00        -0.22095E+07
 
    0.86763E+05         0.63937E+04         0.00000E+00
    0.63937E+04        -0.50118E+07         0.00000E+00
    0.00000E+00         0.00000E+00        -0.22205E+07
 
    0.46780E+05         0.48733E+04         0.00000E+00
    0.48733E+04        -0.50180E+07         0.00000E+00
    0.00000E+00         0.00000E+00        -0.22304E+07
 
    0.12716E+05         0.30387E+04         0.00000E+00
    0.30387E+04        -0.50248E+07         0.00000E+00
    0.00000E+00         0.00000E+00        -0.22394E+07
 
   -0.16098E+05         0.12313E+04         0.00000E+00
    0.12313E+04        -0.50319E+07         0.00000E+00
    0.00000E+00         0.00000E+00        -0.22475E+07
 
   -0.40262E+05        -0.32724E+03         0.00000E+00
   -0.32724E+03        -0.50388E+07         0.00000E+00
    0.00000E+00         0.00000E+00        -0.22546E+07
 
   -0.60304E+05        -0.15083E+04         0.00000E+00
   -0.15083E+04        -0.50454E+07         0.00000E+00
    0.00000E+00         0.00000E+00        -0.22608E+07
 
   -0.76675E+05        -0.22539E+04         0.00000E+00
   -0.22539E+04        -0.50514E+07         0.00000E+00
    0.00000E+00         0.00000E+00        -0.22661E+07
 
   -0.89757E+05        -0.25590E+04         0.00000E+00
   -0.25590E+04        -0.50566E+07         0.00000E+00
    0.00000E+00         0.00000E+00        -0.22705E+07
 
   -0.99859E+05        -0.24586E+04         0.00000E+00
   -0.24586E+04        -0.50610E+07         0.00000E+00
    0.00000E+00         0.00000E+00        -0.22740E+07
 
   -0.10723E+06        -0.20163E+04         0.00000E+00
   -0.20163E+04        -0.50644E+07         0.00000E+00
    0.00000E+00         0.00000E+00        -0.22766E+07
 
   -0.11204E+06        -0.13164E+04         0.00000E+00
   -0.13164E+04        -0.50667E+07         0.00000E+00
    0.00000E+00         0.00000E+00        -0.22783E+07
 
   -0.11442E+06        -0.45683E+03         0.00000E+00
   -0.45683E+03        -0.50678E+07         0.00000E+00
    0.00000E+00         0.00000E+00        -0.22792E+07
 
    0.25434E+06         0.88209E+03         0.00000E+00
    0.88209E+03        -0.50004E+07         0.00000E+00
    0.00000E+00         0.00000E+00        -0.21234E+07
 
    0.18786E+06         0.34077E+03         0.00000E+00
    0.34077E+03        -0.50033E+07         0.00000E+00
    0.00000E+00         0.00000E+00        -0.21374E+07
 
    0.13132E+06        -0.17549E+04         0.00000E+00
   -0.17549E+04        -0.50083E+07         0.00000E+00
    0.00000E+00         0.00000E+00        -0.21500E+07
 
    0.83463E+05        -0.45075E+04         0.00000E+00
   -0.45075E+04        -0.50149E+07         0.00000E+00
    0.00000E+00         0.00000E+00        -0.21613E+07
 
    0.43168E+05        -0.72971E+04         0.00000E+00
   -0.72971E+04        -0.50225E+07         0.00000E+00
    0.00000E+00         0.00000E+00        -0.21714E+07
 
    0.94089E+04        -0.97171E+04         0.00000E+00
   -0.97171E+04        -0.50306E+07         0.00000E+00
    0.00000E+00         0.00000E+00        -0.21803E+07
 
   -0.18713E+05        -0.11521E+05         0.00000E+00
   -0.11521E+05        -0.50389E+07         0.00000E+00
    0.00000E+00         0.00000E+00        -0.21883E+07
 
   -0.41969E+05        -0.12581E+05         0.00000E+00
   -0.12581E+05        -0.50470E+07         0.00000E+00
    0.00000E+00         0.00000E+00        -0.21952E+07
 
   -0.61017E+05        -0.12853E+05         0.00000E+00
   -0.12853E+05        -0.50545E+07         0.00000E+00
    0.00000E+00         0.00000E+00        -0.22012E+07
 
   -0.76405E+05        -0.12357E+05         0.00000E+00
   -0.12357E+05        -0.50613E+07         0.00000E+00
    0.00000E+00         0.00000E+00        -0.22064E+07
 
   -0.88582E+05        -0.11156E+05         0.00000E+00
   -0.11156E+05        -0.50673E+07         0.00000E+00
    0.00000E+00         0.00000E+00        -0.22106E+07
 
   -0.97910E+05        -0.93448E+04         0.00000E+00
   -0.93448E+04        -0.50722E+07         0.00000E+00
    0.00000E+00         0.00000E+00        -0.22139E+07
 
   -0.10467E+06        -0.70391E+04         0.00000E+00
   -0.70391E+04        -0.50759E+07         0.00000E+00
    0.00000E+00         0.00000E+00        -0.22164E+07
 
   -0.10906E+06        -0.43710E+04         0.00000E+00
   -0.43710E+04        -0.50784E+07         0.00000E+00
    0.00000E+00         0.00000E+00        -0.22181E+07
 
   -0.11123E+06        -0.14817E+04         0.00000E+00
   -0.14817E+04        -0.50797E+07         0.00000E+00
    0.00000E+00         0.00000E+00        -0.22190E+07
 
    0.25124E+06        -0.19906E+04         0.00000E+00
   -0.19906E+04        -0.50006E+07         0.00000E+00
    0.00000E+00         0.00000E+00        -0.20514E+07
 
    0.18227E+06        -0.71169E+04         0.00000E+00
   -0.71169E+04        -0.50040E+07         0.00000E+00
    0.00000E+00         0.00000E+00        -0.20659E+07
 
    0.12490E+06        -0.12532E+05         0.00000E+00
   -0.12532E+05        -0.50100E+07         0.00000E+00
    0.00000E+00         0.00000E+00        -0.20786E+07
 
    0.77367E+05        -0.17478E+05         0.00000E+00
   -0.17478E+05        -0.50177E+07         0.00000E+00
    0.00000E+00         0.00000E+00        -0.20898E+07
 
    0.38102E+05        -0.21499E+05         0.00000E+00
   -0.21499E+05        -0.50264E+07         0.00000E+00
    0.00000E+00         0.00000E+00        -0.20996E+07
 
    0.57817E+04        -0.24351E+05         0.00000E+00
   -0.24351E+05        -0.50355E+07         0.00000E+00
    0.00000E+00         0.00000E+00        -0.21083E+07
 
   -0.20708E+05        -0.25937E+05         0.00000E+00
   -0.25937E+05        -0.50446E+07         0.00000E+00
    0.00000E+00         0.00000E+00        -0.21158E+07
 
   -0.42293E+05        -0.26260E+05         0.00000E+00
   -0.26260E+05        -0.50533E+07         0.00000E+00
    0.00000E+00         0.00000E+00        -0.21223E+07
 
   -0.59734E+05        -0.25384E+05         0.00000E+00
   -0.25384E+05        -0.50614E+07         0.00000E+00
    0.00000E+00         0.00000E+00        -0.21279E+07
 
   -0.73653E+05        -0.23418E+05         0.00000E+00
   -0.23418E+05        -0.50687E+07         0.00000E+00
    0.00000E+00         0.00000E+00        -0.21327E+07
 
   -0.84550E+05        -0.20501E+05         0.00000E+00
   -0.20501E+05        -0.50749E+07         0.00000E+00
    0.00000E+00         0.00000E+00        -0.21366E+07
 
   -0.92822E+05        -0.16787E+05         0.00000E+00
   -0.16787E+05        -0.50801E+07         0.00000E+00
    0.00000E+00         0.00000E+00        -0.21397E+07
 
   -0.98772E+05        -0.12445E+05         0.00000E+00
   -0.12445E+05        -0.50840E+07         0.00000E+00
    0.00000E+00         0.00000E+00        -0.21420E+07
 
   -0.10262E+06        -0.76492E+04         0.00000E+00
   -0.76492E+04        -0.50866E+07         0.00000E+00
    0.00000E+00         0.00000E+00        -0.21435E+07
 
   -0.10451E+06        -0.25802E+04         0.00000E+00
   -0.25802E+04        -0.50879E+07         0.00000E+00
    0.00000E+00         0.00000E+00        -0.21443E+07
 
    0.23857E+06        -0.54641E+04         0.00000E+00
   -0.54641E+04        -0.50007E+07         0.00000E+00
    0.00000E+00         0.00000E+00        -0.19665E+07
 
    0.16973E+06        -0.15839E+05         0.00000E+00
   -0.15839E+05        -0.50046E+07         0.00000E+00
    0.00000E+00         0.00000E+00        -0.19810E+07
 
    0.11384E+06        -0.24797E+05         0.00000E+00
   -0.24797E+05        -0.50113E+07         0.00000E+00
    0.00000E+00         0.00000E+00        -0.19933E+07
 
    0.68537E+05        -0.31887E+05         0.00000E+00
   -0.31887E+05        -0.50196E+07         0.00000E+00
    0.00000E+00         0.00000E+00        -0.20039E+07
 
    0.31854E+05        -0.36946E+05         0.00000E+00
   -0.36946E+05        -0.50287E+07         0.00000E+00
    0.00000E+00         0.00000E+00        -0.20130E+07
 
    0.22034E+04        -0.39979E+05         0.00000E+00
   -0.39979E+05        -0.50382E+07         0.00000E+00
    0.00000E+00         0.00000E+00        -0.20209E+07
 
   -0.21692E+05        -0.41094E+05         0.00000E+00
   -0.41094E+05        -0.50474E+07         0.00000E+00
    0.00000E+00         0.00000E+00        -0.20277E+07
 
   -0.40858E+05        -0.40450E+05         0.00000E+00
   -0.40450E+05        -0.50561E+07         0.00000E+00
    0.00000E+00         0.00000E+00        -0.20335E+07
 
   -0.56118E+05        -0.38237E+05         0.00000E+00
   -0.38237E+05        -0.50641E+07         0.00000E+00
    0.00000E+00         0.00000E+00        -0.20385E+07
 
   -0.68132E+05        -0.34658E+05         0.00000E+00
   -0.34658E+05        -0.50712E+07         0.00000E+00
    0.00000E+00         0.00000E+00        -0.20427E+07
 
   -0.77425E+05        -0.29923E+05         0.00000E+00
   -0.29923E+05        -0.50773E+07         0.00000E+00
    0.00000E+00         0.00000E+00        -0.20461E+07
 
   -0.84404E+05        -0.24245E+05         0.00000E+00
   -0.24245E+05        -0.50822E+07         0.00000E+00
    0.00000E+00         0.00000E+00        -0.20488E+07
 
   -0.89381E+05        -0.17837E+05         0.00000E+00
   -0.17837E+05        -0.50859E+07         0.00000E+00
    0.00000E+00         0.00000E+00        -0.20508E+07
 
   -0.92579E+05        -0.10910E+05         0.00000E+00
   -0.10910E+05        -0.50884E+07         0.00000E+00
    0.00000E+00         0.00000E+00        -0.20521E+07
 
   -0.94143E+05        -0.36711E+04         0.00000E+00
   -0.36711E+04        -0.50897E+07         0.00000E+00
    0.00000E+00         0.00000E+00        -0.20527E+07
 
    0.21500E+06        -0.93768E+04         0.00000E+00
   -0.93768E+04        -0.50007E+07         0.00000E+00
    0.00000E+00         0.00000E+00        -0.18670E+07
 
    0.14984E+06        -0.25272E+05         0.00000E+00
   -0.25272E+05        -0.50049E+07         0.00000E+00
    0.00000E+00         0.00000E+00        -0.18806E+07
 
    0.98274E+05        -0.37627E+05         0.00000E+00
   -0.37627E+05        -0.50116E+07         0.00000E+00
    0.00000E+00         0.00000E+00        -0.18918E+07
 
    0.57378E+05        -0.46533E+05         0.00000E+00
   -0.46533E+05        -0.50197E+07         0.00000E+00
    0.00000E+00         0.00000E+00        -0.19012E+07
 
    0.24905E+05        -0.52261E+05         0.00000E+00
   -0.52261E+05        -0.50283E+07         0.00000E+00
    0.00000E+00         0.00000E+00        -0.19092E+07
 
   -0.87284E+03        -0.55152E+05         0.00000E+00
   -0.55152E+05        -0.50370E+07         0.00000E+00
    0.00000E+00         0.00000E+00        -0.19159E+07
 
   -0.21289E+05        -0.55548E+05         0.00000E+00
   -0.55548E+05        -0.50453E+07         0.00000E+00
    0.00000E+00         0.00000E+00        -0.19216E+07
 
   -0.37389E+05        -0.53778E+05         0.00000E+00
   -0.53778E+05        -0.50530E+07         0.00000E+00
    0.00000E+00         0.00000E+00        -0.19264E+07
 
   -0.49998E+05        -0.50151E+05         0.00000E+00
   -0.50151E+05        -0.50600E+07         0.00000E+00
    0.00000E+00         0.00000E+00        -0.19305E+07
 
   -0.59771E+05        -0.44959E+05         0.00000E+00
   -0.44959E+05        -0.50661E+07         0.00000E+00
    0.00000E+00         0.00000E+00        -0.19339E+07
 
   -0.67221E+05        -0.38478E+05         0.00000E+00
   -0.38478E+05        -0.50712E+07         0.00000E+00
    0.00000E+00         0.00000E+00        -0.19367E+07
 
   -0.72746E+05        -0.30966E+05         0.00000E+00
   -0.30966E+05        -0.50753E+07         0.00000E+00
    0.00000E+00         0.00000E+00        -0.19388E+07
 
   -0.76644E+05        -0.22669E+05         0.00000E+00
   -0.22669E+05        -0.50784E+07         0.00000E+00
    0.00000E+00         0.00000E+00        -0.19404E+07
 
   -0.79130E+05        -0.13819E+05         0.00000E+00
   -0.13819E+05        -0.50805E+07         0.00000E+00
    0.00000E+00         0.00000E+00        -0.19415E+07
 
   -0.80339E+05        -0.46426E+04         0.00000E+00
   -0.46426E+04        -0.50815E+07         0.00000E+00
    0.00000E+00         0.00000E+00        -0.19420E+07
 
    0.18011E+06        -0.13360E+05         0.00000E+00
   -0.13360E+05        -0.50007E+07         0.00000E+00
    0.00000E+00         0.00000E+00        -0.17510E+07
 
    0.12307E+06        -0.34333E+05         0.00000E+00
   -0.34333E+05        -0.50044E+07         0.00000E+00
    0.00000E+00         0.00000E+00        -0.17627E+07
 
    0.78987E+05        -0.49392E+05         0.00000E+00
   -0.49392E+05        -0.50101E+07         0.00000E+00
    0.00000E+00         0.00000E+00        -0.17721E+07
 
    0.44680E+05        -0.59446E+05         0.00000E+00
   -0.59446E+05        -0.50166E+07         0.00000E+00
    0.00000E+00         0.00000E+00        -0.17797E+07
 
    0.17894E+05        -0.65339E+05         0.00000E+00
   -0.65339E+05        -0.50233E+07         0.00000E+00
    0.00000E+00         0.00000E+00        -0.17859E+07
 
   -0.30058E+04        -0.67763E+05         0.00000E+00
   -0.67763E+05        -0.50297E+07         0.00000E+00
    0.00000E+00         0.00000E+00        -0.17910E+07
 
   -0.19257E+05        -0.67282E+05         0.00000E+00
   -0.67282E+05        -0.50357E+07         0.00000E+00
    0.00000E+00         0.00000E+00        -0.17953E+07
 
   -0.31826E+05        -0.64369E+05         0.00000E+00
   -0.64369E+05        -0.50411E+07         0.00000E+00
    0.00000E+00         0.00000E+00        -0.17989E+07
 
   -0.41479E+05        -0.59436E+05         0.00000E+00
   -0.59436E+05        -0.50458E+07         0.00000E+00
    0.00000E+00         0.00000E+00        -0.18018E+07
 
   -0.48818E+05        -0.52849E+05         0.00000E+00
   -0.52849E+05        -0.50498E+07         0.00000E+00
    0.00000E+00         0.00000E+00        -0.18042E+07
 
   -0.54313E+05        -0.44929E+05         0.00000E+00
   -0.44929E+05        -0.50531E+07         0.00000E+00
    0.00000E+00         0.00000E+00        -0.18061E+07
 
   -0.58322E+05        -0.35969E+05         0.00000E+00
   -0.35969E+05        -0.50556E+07         0.00000E+00
    0.00000E+00         0.00000E+00        -0.18076E+07
 
   -0.61114E+05        -0.26229E+05         0.00000E+00
   -0.26229E+05        -0.50576E+07         0.00000E+00
    0.00000E+00         0.00000E+00        -0.18087E+07
 
   -0.62875E+05        -0.15949E+05         0.00000E+00
   -0.15949E+05        -0.50588E+07         0.00000E+00
    0.00000E+00         0.00000E+00        -0.18094E+07
 
   -0.63727E+05        -0.53511E+04         0.00000E+00
   -0.53511E+04        -0.50594E+07         0.00000E+00
    0.00000E+00         0.00000E+00        -0.18098E+07
 
    0.13518E+06        -0.16686E+05         0.00000E+00
   -0.16686E+05        -0.50004E+07         0.00000E+00
    0.00000E+00         0.00000E+00        -0.16167E+07
 
    0.91178E+05        -0.41121E+05         0.00000E+00
   -0.41121E+05        -0.50027E+07         0.00000E+00
    0.00000E+00         0.00000E+00        -0.16255E+07
 
    0.57539E+05        -0.57474E+05         0.00000E+00
   -0.57474E+05        -0.50056E+07         0.00000E+00
    0.00000E+00         0.00000E+00        -0.16322E+07
 
    0.31533E+05        -0.67752E+05         0.00000E+00
   -0.67752E+05        -0.50086E+07         0.00000E+00
    0.00000E+00         0.00000E+00        -0.16374E+07
 
    0.11464E+05        -0.73300E+05         0.00000E+00
   -0.73300E+05        -0.50113E+07         0.00000E+00
    0.00000E+00         0.00000E+00        -0.16414E+07
 
   -0.39169E+04        -0.75048E+05         0.00000E+00
   -0.75048E+05        -0.50136E+07         0.00000E+00
    0.00000E+00         0.00000E+00        -0.16446E+07
 
   -0.15614E+05        -0.73705E+05         0.00000E+00
   -0.73705E+05        -0.50155E+07         0.00000E+00
    0.00000E+00         0.00000E+00        -0.16471E+07
 
   -0.24442E+05        -0.69848E+05         0.00000E+00
   -0.69848E+05        -0.50168E+07         0.00000E+00
    0.00000E+00         0.00000E+00        -0.16491E+07
 
   -0.31052E+05        -0.63969E+05         0.00000E+00
   -0.63969E+05        -0.50178E+07         0.00000E+00
    0.00000E+00         0.00000E+00        -0.16507E+07
 
   -0.35955E+05        -0.56482E+05         0.00000E+00
   -0.56482E+05        -0.50184E+07         0.00000E+00
    0.00000E+00         0.00000E+00        -0.16519E+07
 
   -0.39541E+05        -0.47739E+05         0.00000E+00
   -0.47739E+05        -0.50187E+07         0.00000E+00
    0.00000E+00         0.00000E+00        -0.16528E+07
 
   -0.42103E+05        -0.38041E+05         0.00000E+00
   -0.38041E+05        -0.50189E+07         0.00000E+00
    0.00000E+00         0.00000E+00        -0.16535E+07
 
   -0.43856E+05        -0.27643E+05         0.00000E+00
   -0.27643E+05        -0.50189E+07         0.00000E+00
    0.00000E+00         0.00000E+00        -0.16540E+07
 
   -0.44947E+05        -0.16770E+05         0.00000E+00
   -0.16770E+05        -0.50189E+07         0.00000E+00
    0.00000E+00         0.00000E+00        -0.16543E+07
 
   -0.45470E+05        -0.56201E+04         0.00000E+00
   -0.56201E+04        -0.50189E+07         0.00000E+00
    0.00000E+00         0.00000E+00        -0.16545E+07
 
    0.84585E+05        -0.17995E+05         0.00000E+00
   -0.17995E+05        -0.49998E+07         0.00000E+00
    0.00000E+00         0.00000E+00        -0.14632E+07
 
    0.57703E+05        -0.42455E+05         0.00000E+00
   -0.42455E+05        -0.49987E+07         0.00000E+00
    0.00000E+00         0.00000E+00        -0.14679E+07
 
    0.36051E+05        -0.58217E+05         0.00000E+00
   -0.58217E+05        -0.49965E+07         0.00000E+00
    0.00000E+00         0.00000E+00        -0.14712E+07
 
    0.19051E+05        -0.67810E+05         0.00000E+00
   -0.67810E+05        -0.49935E+07         0.00000E+00
    0.00000E+00         0.00000E+00        -0.14735E+07
 
    0.60864E+04        -0.72621E+05         0.00000E+00
   -0.72621E+05        -0.49900E+07         0.00000E+00
    0.00000E+00         0.00000E+00        -0.14750E+07
 
   -0.35983E+04        -0.73635E+05         0.00000E+00
   -0.73635E+05        -0.49859E+07         0.00000E+00
    0.00000E+00         0.00000E+00        -0.14759E+07
 
   -0.10734E+05        -0.71643E+05         0.00000E+00
   -0.71643E+05        -0.49815E+07         0.00000E+00
    0.00000E+00         0.00000E+00        -0.14764E+07
 
   -0.15942E+05        -0.67303E+05         0.00000E+00
   -0.67303E+05        -0.49769E+07         0.00000E+00
    0.00000E+00         0.00000E+00        -0.14765E+07
 
   -0.19713E+05        -0.61151E+05         0.00000E+00
   -0.61151E+05        -0.49723E+07         0.00000E+00
    0.00000E+00         0.00000E+00        -0.14764E+07
 
   -0.22420E+05        -0.53620E+05         0.00000E+00
   -0.53620E+05        -0.49679E+07         0.00000E+00
    0.00000E+00         0.00000E+00        -0.14762E+07
 
   -0.24341E+05        -0.45057E+05         0.00000E+00
   -0.45057E+05        -0.49639E+07         0.00000E+00
    0.00000E+00         0.00000E+00        -0.14760E+07
 
   -0.25676E+05        -0.35736E+05         0.00000E+00
   -0.35736E+05        -0.49605E+07         0.00000E+00
    0.00000E+00         0.00000E+00        -0.14758E+07
 
   -0.26568E+05        -0.25877E+05         0.00000E+00
   -0.25877E+05        -0.49579E+07         0.00000E+00
    0.00000E+00         0.00000E+00        -0.14755E+07
 
   -0.27113E+05        -0.15662E+05         0.00000E+00
   -0.15662E+05        -0.49560E+07         0.00000E+00
    0.00000E+00         0.00000E+00        -0.14754E+07
 
   -0.27372E+05        -0.52426E+04         0.00000E+00
   -0.52426E+04        -0.49551E+07         0.00000E+00
    0.00000E+00         0.00000E+00        -0.14753E+07
 
    0.37705E+05        -0.14337E+05         0.00000E+00
   -0.14337E+05        -0.49976E+07         0.00000E+00
    0.00000E+00         0.00000E+00        -0.12897E+07
 
    0.27305E+05        -0.34496E+05         0.00000E+00
   -0.34496E+05        -0.49914E+07         0.00000E+00
    0.00000E+00         0.00000E+00        -0.12903E+07
 
    0.16829E+05        -0.47752E+05         0.00000E+00
   -0.47752E+05        -0.49822E+07         0.00000E+00
    0.00000E+00         0.00000E+00        -0.12902E+07
 
    0.84183E+04        -0.55564E+05         0.00000E+00
   -0.55564E+05        -0.49710E+07         0.00000E+00
    0.00000E+00         0.00000E+00        -0.12894E+07
 
    0.21850E+04        -0.59079E+05         0.00000E+00
   -0.59079E+05        -0.49583E+07         0.00000E+00
    0.00000E+00         0.00000E+00        -0.12880E+07
 
   -0.22775E+04        -0.59310E+05         0.00000E+00
   -0.59310E+05        -0.49449E+07         0.00000E+00
    0.00000E+00         0.00000E+00        -0.12861E+07
 
   -0.54202E+04        -0.57097E+05         0.00000E+00
   -0.57097E+05        -0.49313E+07         0.00000E+00
    0.00000E+00         0.00000E+00        -0.12841E+07
 
   -0.76140E+04        -0.53096E+05         0.00000E+00
   -0.53096E+05        -0.49180E+07         0.00000E+00
    0.00000E+00         0.00000E+00        -0.12820E+07
 
   -0.91360E+04        -0.47805E+05         0.00000E+00
   -0.47805E+05        -0.49055E+07         0.00000E+00
    0.00000E+00         0.00000E+00        -0.12799E+07
 
   -0.10185E+05        -0.41589E+05         0.00000E+00
   -0.41589E+05        -0.48942E+07         0.00000E+00
    0.00000E+00         0.00000E+00        -0.12781E+07
 
   -0.10900E+05        -0.34720E+05         0.00000E+00
   -0.34720E+05        -0.48844E+07         0.00000E+00
    0.00000E+00         0.00000E+00        -0.12764E+07
 
   -0.11380E+05        -0.27395E+05         0.00000E+00
   -0.27395E+05        -0.48763E+07         0.00000E+00
    0.00000E+00         0.00000E+00        -0.12750E+07
 
   -0.11691E+05        -0.19762E+05         0.00000E+00
   -0.19762E+05        -0.48701E+07         0.00000E+00
    0.00000E+00         0.00000E+00        -0.12740E+07
 
   -0.11876E+05        -0.11930E+05         0.00000E+00
   -0.11930E+05        -0.48659E+07         0.00000E+00
    0.00000E+00         0.00000E+00        -0.12733E+07
 
   -0.11962E+05        -0.39884E+04         0.00000E+00
   -0.39884E+04        -0.48637E+07         0.00000E+00
    0.00000E+00         0.00000E+00        -0.12729E+07
 
    0.80627E+04        -0.52993E+04         0.00000E+00
   -0.52993E+04        -0.50008E+07         0.00000E+00
    0.00000E+00         0.00000E+00        -0.10996E+07
 
    0.64527E+04        -0.15041E+05         0.00000E+00
   -0.15041E+05        -0.49895E+07         0.00000E+00
    0.00000E+00         0.00000E+00        -0.10976E+07
 
    0.38785E+04        -0.21521E+05         0.00000E+00
   -0.21521E+05        -0.49699E+07         0.00000E+00
    0.00000E+00         0.00000E+00        -0.10941E+07
 
    0.17981E+04        -0.24974E+05         0.00000E+00
   -0.24974E+05        -0.49453E+07         0.00000E+00
    0.00000E+00         0.00000E+00        -0.10896E+07
 
    0.32749E+03        -0.26203E+05         0.00000E+00
   -0.26203E+05        -0.49181E+07         0.00000E+00
    0.00000E+00         0.00000E+00        -0.10844E+07
 
   -0.66845E+03        -0.25901E+05         0.00000E+00
   -0.25901E+05        -0.48903E+07         0.00000E+00
    0.00000E+00         0.00000E+00        -0.10791E+07
 
   -0.13327E+04        -0.24571E+05         0.00000E+00
   -0.24571E+05        -0.48632E+07         0.00000E+00
    0.00000E+00         0.00000E+00        -0.10739E+07
 
   -0.17730E+04        -0.22557E+05         0.00000E+00
   -0.22557E+05        -0.48377E+07         0.00000E+00
    0.00000E+00         0.00000E+00        -0.10689E+07
 
   -0.20637E+04        -0.20088E+05         0.00000E+00
   -0.20088E+05        -0.48146E+07         0.00000E+00
    0.00000E+00         0.00000E+00        -0.10644E+07
 
   -0.22545E+04        -0.17320E+05         0.00000E+00
   -0.17320E+05        -0.47942E+07         0.00000E+00
    0.00000E+00         0.00000E+00        -0.10605E+07
 
   -0.23786E+04        -0.14355E+05         0.00000E+00
   -0.14355E+05        -0.47769E+07         0.00000E+00
    0.00000E+00         0.00000E+00        -0.10571E+07
 
   -0.24580E+04        -0.11264E+05         0.00000E+00
   -0.11264E+05        -0.47628E+07         0.00000E+00
    0.00000E+00         0.00000E+00        -0.10544E+07
 
   -0.25071E+04        -0.80925E+04         0.00000E+00
   -0.80925E+04        -0.47522E+07         0.00000E+00
    0.00000E+00         0.00000E+00        -0.10523E+07
 
   -0.25353E+04        -0.48725E+04         0.00000E+00
   -0.48725E+04        -0.47450E+07         0.00000E+00
    0.00000E+00         0.00000E+00        -0.10509E+07
 
   -0.25481E+04        -0.16268E+04         0.00000E+00
   -0.16268E+04        -0.47414E+07         0.00000E+00
    0.00000E+00         0.00000E+00        -0.10502E+07
 
SCALARS stressS double 
LOOKUP_TABLE default
  -2500019.96554851     
  -2500019.96779285     
  -2500019.97017998     
  -2500019.97265850     
  -2500019.97517539     
  -2500019.97767704     
  -2500019.98011031     
  -2500019.98242364     
  -2500019.98456805     
  -2500019.98649818     
  -2500019.98817323     
  -2500019.98955781     
  -2500019.99062267     
  -2500019.99134533     
  -2500019.99171051     
  -2500019.96401478     
  -2500019.96633571     
  -2500019.96881034     
  -2500019.97138465     
  -2500019.97400286     
  -2500019.97660848     
  -2500019.97914547     
  -2500019.98155943     
  -2500019.98379865     
  -2500019.98581524     
  -2500019.98756611     
  -2500019.98901386     
  -2500019.99012760     
  -2500019.99088355     
  -2500019.99126561     
  -2500019.96086919     
  -2500019.96334774     
  -2500019.96600255     
  -2500019.96877421     
  -2500019.97160118     
  -2500019.97442103     
  -2500019.97717175     
  -2500019.97979306     
  -2500019.98222764     
  -2500019.98442237     
  -2500019.98632943     
  -2500019.98790732     
  -2500019.98912173     
  -2500019.98994630     
  -2500019.99036310     
  -2500019.95595158     
  -2500019.95867805     
  -2500019.96161652     
  -2500019.96469900     
  -2500019.96785483     
  -2500019.97101217     
  -2500019.97409959     
  -2500019.97704752     
  -2500019.97978981     
  -2500019.98226509     
  -2500019.98441811     
  -2500019.98620091     
  -2500019.98757385     
  -2500019.98850642     
  -2500019.98897794     
  -2500019.94901190     
  -2500019.95209142     
  -2500019.95543421     
  -2500019.95895991     
  -2500019.96258473     
  -2500019.96622339     
  -2500019.96979090     
  -2500019.97320450     
  -2500019.97638539     
  -2500019.97926049     
  -2500019.98176398     
  -2500019.98383873     
  -2500019.98543748     
  -2500019.98652391     
  -2500019.98707336     
  -2500019.93969801     
  -2500019.94325731     
  -2500019.94714995     
  -2500019.95127849     
  -2500019.95554119     
  -2500019.95983432     
  -2500019.96405448     
  -2500019.96810091     
  -2500019.97187769     
  -2500019.97529584     
  -2500019.97827522     
  -2500019.98074630     
  -2500019.98265156     
  -2500019.98394680     
  -2500019.98460200     
  -2500019.92753877     
  -2500019.93173468     
  -2500019.93635702     
  -2500019.94128543     
  -2500019.94639414     
  -2500019.95155488     
  -2500019.95663980     
  -2500019.96152435     
  -2500019.96608996     
  -2500019.97022669     
  -2500019.97383559     
  -2500019.97683077     
  -2500019.97914127     
  -2500019.98071253     
  -2500019.98150750     
  -2500019.91192192     
  -2500019.91695216     
  -2500019.92253022     
  -2500019.92850546     
  -2500019.93472051     
  -2500019.94101496     
  -2500019.94722903     
  -2500019.95320716     
  -2500019.95880141     
  -2500019.96387469     
  -2500019.96830365     
  -2500019.97198134     
  -2500019.97481938     
  -2500019.97674988     
  -2500019.97772676     
  -2500019.89206594     
  -2500019.89818281     
  -2500019.90500377     
  -2500019.91233850     
  -2500019.91998849     
  -2500019.92775169     
  -2500019.93542708     
  -2500019.94281922     
  -2500019.94974244     
  -2500019.95602486     
  -2500019.96151196     
  -2500019.96606987     
  -2500019.96958804     
  -2500019.97198158     
  -2500019.97319288     
  -2500019.86698511     
  -2500019.87451314     
  -2500019.88294418     
  -2500019.89203640     
  -2500019.90153815     
  -2500019.91119380     
  -2500019.92074960     
  -2500019.92995917     
  -2500019.93858883     
  -2500019.94642250     
  -2500019.95326620     
  -2500019.95895196     
  -2500019.96334122     
  -2500019.96632761     
  -2500019.96783900     
  -2500019.83544669     
  -2500019.84480502     
  -2500019.85531717     
  -2500019.86667478     
  -2500019.87855803     
  -2500019.89064292     
  -2500019.90260856     
  -2500019.91414404     
  -2500019.92495499     
  -2500019.93476966     
  -2500019.94334434     
  -2500019.95046827     
  -2500019.95596774     
  -2500019.95970944     
  -2500019.96160309     
  -2500019.79591908     
  -2500019.80764986     
  -2500019.82084781     
  -2500019.83511922     
  -2500019.85005723     
  -2500019.86525108     
  -2500019.88029502     
  -2500019.89479685     
  -2500019.90838598     
  -2500019.92072086     
  -2500019.93149567     
  -2500019.94044620     
  -2500019.94735492     
  -2500019.95205503     
  -2500019.95443358     
  -2500019.74650957     
  -2500019.76131376     
  -2500019.77797312     
  -2500019.79598498     
  -2500019.81483211     
  -2500019.83399420     
  -2500019.85295881     
  -2500019.87123195     
  -2500019.88834786     
  -2500019.90387806     
  -2500019.91743949     
  -2500019.92870168     
  -2500019.93739277     
  -2500019.94330450     
  -2500019.94629592     
  -2500019.68489010     
  -2500019.70367220     
  -2500019.72478561     
  -2500019.74758933     
  -2500019.77142689     
  -2500019.79564042     
  -2500019.81958418     
  -2500019.84263738     
  -2500019.86421607     
  -2500019.88378415     
  -2500019.90086310     
  -2500019.91504069     
  -2500019.92597816     
  -2500019.93341621     
  -2500019.93717946     
  -2500019.60820930     
  -2500019.63213292     
  -2500019.65896675     
  -2500019.68789520     
  -2500019.71808704     
  -2500019.74871276     
  -2500019.77896089     
  -2500019.80805359     
  -2500019.83526103     
  -2500019.85991455     
  -2500019.88141837     
  -2500019.89925993     
  -2500019.91301856     
  -2500019.92237251     
  -2500019.92710430     
  -2500019.51298884     
  -2500019.54354502     
  -2500019.57770855     
  -2500019.61444464     
  -2500019.65270413     
  -2500019.69144439     
  -2500019.72964917     
  -2500019.76634726     
  -2500019.80062971     
  -2500019.83166555     
  -2500019.85871575     
  -2500019.88114543     
  -2500019.89843413     
  -2500019.91018416     
  -2500019.91612686     
  -2500019.39500177     
  -2500019.43409242     
  -2500019.47762141     
  -2500019.52428055     
  -2500019.57275035     
  -2500019.62172524     
  -2500019.66993732     
  -2500019.71617864     
  -2500019.75932168     
  -2500019.79833791     
  -2500019.83231428     
  -2500019.86046760     
  -2500019.88215662     
  -2500019.89689178     
  -2500019.90434260     
  -2500019.24913024     
  -2500019.29916895     
  -2500019.35462592     
  -2500019.41385399     
  -2500019.47520048     
  -2500019.53703727     
  -2500019.59778916     
  -2500019.65596010     
  -2500019.71015738     
  -2500019.75911340     
  -2500019.80170501     
  -2500019.83697026     
  -2500019.86412254     
  -2500019.88256184     
  -2500019.89188340     
  -2500019.06919962     
  -2500019.13323235     
  -2500019.20382555     
  -2500019.27891447     
  -2500019.35643829     
  -2500019.43437581     
  -2500019.51077876     
  -2500019.58380266     
  -2500019.65173502     
  -2500019.71302072     
  -2500019.76628447     
  -2500019.81035016     
  -2500019.84425723     
  -2500019.86727373     
  -2500019.87890617     
  -2500018.84778542     
  -2500018.92963350     
  -2500019.01935666     
  -2500019.11437911     
  -2500019.21214345     
  -2500019.31015238     
  -2500019.40600770     
  -2500019.49744615     
  -2500019.58237204     
  -2500019.65888657     
  -2500019.72531368     
  -2500019.78022227     
  -2500019.82244496     
  -2500019.85109302     
  -2500019.86556768     
  -2500018.57598850     
  -2500018.68041613     
  -2500018.79421083     
  -2500018.91417583     
  -2500019.03715348     
  -2500019.16007377     
  -2500019.27999938     
  -2500019.39416694     
  -2500019.50002449     
  -2500019.59526501     
  -2500019.67785587     
  -2500019.74606424     
  -2500019.79847830     
  -2500019.83402420     
  -2500019.85197897     
  -2500018.24317319     
  -2500018.37608124     
  -2500018.52002331     
  -2500018.67105346     
  -2500018.82529364     
  -2500018.97898959     
  -2500019.12856231     
  -2500019.27065513     
  -2500019.40217632     
  -2500019.52033703     
  -2500019.62268461     
  -2500019.70713131     
  -2500019.77197815     
  -2500019.81593410     
  -2500019.83813044     
  -2500017.83666090     
  -2500018.00530821     
  -2500018.18681897     
  -2500018.37635008     
  -2500018.56916522     
  -2500018.76069837     
  -2500018.94661202     
  -2500019.12285040     
  -2500019.28568732     
  -2500019.43176884     
  -2500019.55815063     
  -2500019.66232999     
  -2500019.74227265     
  -2500019.79643414     
  -2500019.82377588     
  -2500017.34137018     
  -2500017.55462247     
  -2500017.78270441     
  -2500018.01970704     
  -2500018.25987914     
  -2500018.49769858     
  -2500018.72793761     
  -2500018.94572214     
  -2500019.14658517     
  -2500019.32651418     
  -2500019.48199268     
  -2500019.61003582     
  -2500019.70822000     
  -2500019.77470677     
  -2500019.80826053     
  -2500016.73939020     
  -2500017.00799520     
  -2500017.29349099     
  -2500017.58871247     
  -2500017.88671765     
  -2500018.18086675     
  -2500018.46489440     
  -2500018.73297521     
  -2500018.97978266     
  -2500019.20054144     
  -2500019.39107318     
  -2500019.54783578     
  -2500019.66795619     
  -2500019.74925658     
  -2500019.79027413     
  -2500016.00947048     
  -2500016.34635635     
  -2500016.70222785     
  -2500017.06845219     
  -2500017.43670140     
  -2500017.79903897     
  -2500018.14799881     
  -2500018.47665693     
  -2500018.77869580     
  -2500019.04846162     
  -2500019.28101456     
  -2500019.47217185     
  -2500019.61854386     
  -2500019.71756295     
  -2500019.76750528     
  -2500015.12640329     
  -2500015.54699458     
  -2500015.98861733     
  -2500016.44093885     
  -2500016.89403125     
  -2500017.33846503     
  -2500017.76539430     
  -2500018.16663442     
  -2500018.53473183     
  -2500018.86302643     
  -2500019.14570642     
  -2500019.37785559     
  -2500019.55549300     
  -2500019.67560481     
  -2500019.73616838     
  -2500014.06026628     
  -2500014.58280912     
  -2500015.12827488     
  -2500015.68438002     
  -2500016.23936523     
  -2500016.78209489     
  -2500017.30214823     
  -2500017.78990253     
  -2500018.23660864     
  -2500018.63445874     
  -2500018.97664627     
  -2500019.25741805     
  -2500019.47211804     
  -2500019.61722282     
  -2500019.69036846     
  -2500012.77548050     
  -2500013.42136536     
  -2500014.09178359     
  -2500014.77223405     
  -2500015.44887853     
  -2500016.10864602     
  -2500016.73932917     
  -2500017.32967322     
  -2500017.86945745     
  -2500018.34956911     
  -2500018.76206946     
  -2500019.10025158     
  -2500019.35868945     
  -2500019.53327793     
  -2500019.62126321     
  -2500011.22962306     
  -2500012.02368960     
  -2500012.84347646     
  -2500013.67198602     
  -2500014.49303961     
  -2500015.29138553     
  -2500016.05280048     
  -2500016.76418462     
  -2500017.41365015     
  -2500017.99060263     
  -2500018.48581500     
  -2500018.89149294     
  -2500019.20133095     
  -2500019.41055852     
  -2500019.51597539     
  -2500009.37191135     
  -2500010.34271662     
  -2500011.33985823     
  -2500012.34355555     
  -2500013.33501550     
  -2500014.29654352     
  -2500015.21165036     
  -2500016.06515463     
  -2500016.84328051     
  -2500017.53374956     
  -2500018.12586526     
  -2500018.61058913     
  -2500018.98060685     
  -2500019.23038299     
  -2500019.35620326     
  -2500007.14124693     
  -2500008.32127451     
  -2500009.52755106     
  -2500010.73722300     
  -2500011.92859687     
  -2500013.08125315     
  -2500014.17616013     
  -2500015.19578702     
  -2500016.12421470     
  -2500016.94724246     
  -2500017.65248826     
  -2500018.22948041     
  -2500018.66973818     
  -2500018.96683927     
  -2500019.11647222     
  -2500004.46366851     
  -2500005.88945486     
  -2500007.34061349     
  -2500008.79092771     
  -2500010.21550320     
  -2500011.59088658     
  -2500012.89519016     
  -2500014.10822111     
  -2500015.21161220     
  -2500016.18895094     
  -2500017.02590339     
  -2500017.71032891     
  -2500018.23238240     
  -2500018.58460052     
  -2500018.76196903     
  -2500001.24901445     
  -2500002.96116865     
  -2500004.69703807     
  -2500006.42675237     
  -2500008.12189418     
  -2500009.75562697     
  -2500011.30283829     
  -2500012.74029458     
  -2500014.04680296     
  -2500015.20337460     
  -2500016.19338385     
  -2500017.00271784     
  -2500017.61991052     
  -2500018.03625669     
  -2500018.24590135     
  -2499997.38653106     
  -2499999.42962856     
  -2500001.49417823     
  -2500003.54635906     
  -2500005.55387065     
  -2500007.48608021     
  -2500009.31419710     
  -2500011.01146905     
  -2500012.55339206     
  -2500013.91792585     
  -2500015.08570642     
  -2500016.04024693     
  -2500016.76811913     
  -2500017.25910794     
  -2500017.50633310     
  -2499992.73908201     
  -2499995.16142364     
  -2499997.60278815     
  -2500000.02508334     
  -2500002.39169921     
  -2500004.66769083     
  -2500006.82000568     
  -2500008.81774523     
  -2500010.63244895     
  -2500012.23838840     
  -2500013.61285885     
  -2500014.73645594     
  -2500015.59332602     
  -2500016.17137981     
  -2500016.46246068     
  -2499987.13551250     
  -2499989.98875918     
  -2499992.85927617     
  -2499995.70432246     
  -2499998.48243596     
  -2500001.15368033     
  -2500003.67995803     
  -2500006.02537351     
  -2500008.15662935     
  -2500010.04343710     
  -2500011.65892484     
  -2500012.98002391     
  -2500013.98781854     
  -2500014.66784414     
  -2500015.01032223     
  -2499980.36059466     
  -2499983.69932146     
  -2499987.05567488     
  -2499990.38177087     
  -2499993.63055883     
  -2499996.75617619     
  -2499999.71439638     
  -2500002.46314676     
  -2500004.96307120     
  -2500007.17811175     
  -2500009.07608348     
  -2500010.62921877     
  -2500011.81465827     
  -2500012.61486892     
  -2500013.01797262     
  -2499972.14182511     
  -2499976.02308886     
  -2499979.92671196     
  -2499983.79895942     
  -2499987.58614235     
  -2499991.23514580     
  -2499994.69408380     
  -2499997.91304756     
  -2500000.84491093     
  -2500003.44615742     
  -2500005.67769354     
  -2500007.50561525     
  -2500008.90189702     
  -2500009.84497723     
  -2500010.32021722     
  -2499962.13215569     
  -2499966.61524672     
  -2499971.13322909     
  -2499975.62544457     
  -2499980.03002580     
  -2499984.28469332     
  -2499988.32772018     
  -2499992.09901583     
  -2499995.54127989     
  -2499998.60117675     
  -2500001.23048300     
  -2500003.38716325     
  -2500005.03633352     
  -2500006.15107699     
  -2500006.71308234     
  -2499949.88751099     
  -2499955.03416885     
  -2499960.24103625     
  -2499965.43886924     
  -2499970.55533649     
  -2499975.51622187     
  -2499980.24684122     
  -2499984.67360702     
  -2499988.72567348     
  -2499992.33659564     
  -2499995.44593893     
  -2499998.00077973     
  -2499999.95704357     
  -2500001.28063426     
  -2500001.94831551     
  -2499934.83767648     
  -2499940.71320314     
  -2499946.69410784     
  -2499952.69998077     
  -2499958.64463626     
  -2499964.43791054     
  -2499969.98772631     
  -2499975.20233376     
  -2499979.99263788     
  -2499984.27452392     
  -2499987.97109715     
  -2499991.01475938     
  -2499993.34905251     
  -2499994.93020903     
  -2499995.72835958     
  -2499916.24882712     
  -2499922.92474031     
  -2499929.78082552     
  -2499936.72154490     
  -2499943.64186583     
  -2499950.42991312     
  -2499956.96994420     
  -2499963.14552699     
  -2499968.84280091     
  -2499973.95370606     
  -2499978.37907149     
  -2499982.03146277     
  -2499984.83769914     
  -2499986.74096341     
  -2499987.70244121     
  -2499893.17560456     
  -2499900.73475584     
  -2499908.59175327     
  -2499916.62994266     
  -2499924.71817376     
  -2499932.71465529     
  -2499940.47118934     
  -2499947.83762709     
  -2499954.66639042     
  -2499960.81691084     
  -2499966.15984622     
  -2499970.58094797     
  -2499973.98446527     
  -2499976.29598929     
  -2499977.46465752     
  -2499864.40024584     
  -2499872.94569777     
  -2499881.96719898     
  -2499891.31808689     
  -2499900.83064121     
  -2499910.32160211     
  -2499919.59811919     
  -2499928.46392604     
  -2499936.72554139     
  -2499944.19830736     
  -2499950.71208854     
  -2499956.11647194     
  -2499960.28532592     
  -2499963.12059694     
  -2499964.55524549     
  -2499828.35581836     
  -2499838.02525495     
  -2499848.43258140     
  -2499859.38815553     
  -2499870.67286185     
  -2499882.04589254     
  -2499893.25299709     
  -2499904.03493834     
  -2499914.13590297     
  -2499923.31162840     
  -2499931.33702641     
  -2499938.01310477     
  -2499943.17301194     
  -2499946.68705590     
  -2499948.46657602     
  -2499783.03013922     
  -2499794.01819422     
  -2499806.11939587     
  -2499819.08252237     
  -2499832.61631826     
  -2499846.40030823     
  -2499860.09609183     
  -2499873.35878885     
  -2499885.84832046     
  -2499897.24023148     
  -2499907.23578321     
  -2499915.57107369     
  -2499922.02497236     
  -2499926.42568890     
  -2499928.65582946     
  -2499725.84646240     
  -2499738.43811523     
  -2499752.66937311     
  -2499768.20119185     
  -2499784.64153004     
  -2499801.56016997     
  -2499818.50398990     
  -2499835.01227712     
  -2499850.63169416     
  -2499864.93053814     
  -2499877.51196478     
  -2499888.02588393     
  -2499896.17927107     
  -2499901.74467900     
  -2499904.56677556     
  -2499653.51653537     
  -2499668.13566850     
  -2499685.11927709     
  -2499704.00403040     
  -2499724.25804973     
  -2499745.30095229     
  -2499766.52425217     
  -2499787.31161621     
  -2499807.05850374     
  -2499825.19075675     
  -2499841.18174794     
  -2499854.56773839     
  -2499864.96114263     
  -2499872.06144788     
  -2499875.66358287     
  -2499561.86118822     
  -2499579.13954358     
  -2499599.76372129     
  -2499623.09616227     
  -2499648.41257324     
  -2499674.92868800     
  -2499701.82719839     
  -2499728.28424875     
  -2499753.49493078     
  -2499776.69726521     
  -2499797.19420828     
  -2499814.37327605     
  -2499827.72343601     
  -2499836.84897272     
  -2499841.48009276     
  -2499445.59327431     
  -2499466.46640981     
  -2499491.99343519     
  -2499521.29509093     
  -2499553.38473154     
  -2499587.20361380     
  -2499621.65603634     
  -2499655.64360996     
  -2499688.09799713     
  -2499718.01152195     
  -2499744.46511688     
  -2499766.65313952     
  -2499783.90466000     
  -2499795.70088726     
  -2499801.68846917     
  -2499298.05759806     
  -2499323.89603577     
  -2499356.10663186     
  -2499393.47845355     
  -2499434.67056392     
  -2499478.25799272     
  -2499522.77706113     
  -2499566.76921998     
  -2499608.82263753     
  -2499647.61085245     
  -2499681.92788831     
  -2499710.71930520     
  -2499733.10874410     
  -2499748.41959687     
  -2499756.19151070     
  -2499110.92252140     
  -2499143.70809485     
  -2499185.09156584     
  -2499233.41185287     
  -2499286.85425848     
  -2499343.50964367     
  -2499401.43222232     
  -2499458.69501401     
  -2499513.44209189     
  -2499563.93686106     
  -2499608.60569986     
  -2499646.07639120     
  -2499675.21086199     
  -2499695.13183629     
  -2499705.24309217     
  -2498873.81834296     
  -2498916.37776822     
  -2498970.37909098     
  -2499033.55697640     
  -2499103.46949741     
  -2499177.57340177     
  -2499253.29695853     
  -2499328.10930910     
  -2499399.58537081     
  -2499465.46546147     
  -2499523.70892951     
  -2499572.54118204     
  -2499610.49360756     
  -2499636.43598492     
  -2499649.60106048     
  -2498573.91841694     
  -2498630.22827715     
  -2498701.56509430     
  -2498784.86124030     
  -2498876.85266753     
  -2498974.17350052     
  -2499073.44677861     
  -2499171.37017998     
  -2499264.79570976     
  -2499350.80247882     
  -2499426.76183401     
  -2499490.39422494     
  -2499539.81730389     
  -2499573.58485849     
  -2499590.71626945     
  -2498195.46046761     
  -2498271.04002264     
  -2498366.10416199     
  -2498476.53151209     
  -2498597.99127557     
  -2498726.06065908     
  -2498856.33654200     
  -2498984.54015803     
  -2499106.61374479     
  -2499218.80828608     
  -2499317.76162459     
  -2499400.56635757     
  -2499464.82704916     
  -2499508.70639621     
  -2499530.96007498     
  -2497719.20782967     
  -2497821.61819386     
  -2497948.97778600     
  -2498095.79607928     
  -2498256.37210436     
  -2498424.93838640     
  -2498595.79662908     
  -2498763.44391597     
  -2498922.68841654     
  -2499068.75377783     
  -2499197.37155251     
  -2499304.86115839     
  -2499388.19698644     
  -2499445.06237359     
  -2499473.89023769     
  -2497121.85358440     
  -2497261.32364149     
  -2497432.34289104     
  -2497627.66092339     
  -2497839.83488175     
  -2498061.40355312     
  -2498285.05002121     
  -2498503.75173418     
  -2498710.91709102     
  -2498900.50786690     
  -2499067.14697920     
  -2499206.21124323     
  -2499313.90888252     
  -2499387.34164518     
  -2499424.55143903     
  -2496375.37495707     
  -2496565.57559551     
  -2496795.16946631     
  -2497054.66846894     
  -2497334.43838085     
  -2497624.90643616     
  -2497916.75348332     
  -2498201.08977683     
  -2498469.61373846     
  -2498714.75325867     
  -2498929.78929397     
  -2499108.96165738     
  -2499247.55699816     
  -2499341.97902751     
  -2499389.80107686     
  -2495446.35107053     
  -2495705.33951249     
  -2496012.87959532     
  -2496356.66918343     
  -2496724.34672618     
  -2497103.73494634     
  -2497483.06423382     
  -2497851.17516008     
  -2498197.69983500     
  -2498513.22206970     
  -2498789.41648851     
  -2499019.16685381     
  -2499196.66393475     
  -2499317.48327111     
  -2499378.64316289     
  -2494295.26436791     
  -2494646.61897893     
  -2495057.00409034     
  -2495510.61850932     
  -2495991.74395891     
  -2496485.02624230     
  -2496975.73028100     
  -2497449.96901044     
  -2497894.90643575     
  -2498298.93538580     
  -2498651.83065967     
  -2498944.87834192     
  -2499170.98207907     
  -2499324.74706853     
  -2499402.54242009     
  -2492875.81481378     
  -2493349.97711421     
  -2493894.87705229     
  -2494490.41329108     
  -2495116.78421048     
  -2495754.80594201     
  -2496386.19747082     
  -2496993.83361756     
  -2497561.96702619     
  -2498076.42049104     
  -2498524.75106568     
  -2498896.38741544     
  -2499182.74181630     
  -2499377.29807344     
  -2499475.67644802     
  -2491134.28635145     
  -2491770.12011548     
  -2492489.39266222     
  -2493266.78267833     
  -2494077.58260647     
  -2494898.05006005     
  -2495705.71858295     
  -2496479.66971552     
  -2497200.76860651     
  -2497851.86555974     
  -2498417.96593592     
  -2498886.37075544     
  -2499246.79018136     
  -2499491.43181663     
  -2499615.06543950     
  -2489009.01687582     
  -2489855.58311521     
  -2490798.85184529     
  -2491807.24780008     
  -2492850.24756801     
  -2493898.75687714     
  -2494925.43876402     
  -2495904.99611274     
  -2496814.41225433     
  -2497633.15336704     
  -2498343.33633178     
  -2498929.86548860     
  -2499380.54143082     
  -2499686.14457592     
  -2499840.49578546     
  -2486430.03579824     
  -2487548.56578008     
  -2488776.92839422     
  -2490076.16148355     
  -2491408.94760339     
  -2492740.00428361     
  -2494036.41631384     
  -2495267.91549341     
  -2496407.11336187     
  -2497429.69232475     
  -2498314.56033183     
  -2499043.97387912     
  -2499603.63360795     
  -2499982.75618724     
  -2500174.12550838     
  -2483318.94645370     
  -2484784.97118852     
  -2486372.78367466     
  -2488034.83284417     
  -2489725.99390143     
  -2491403.95168863     
  -2493029.51738037     
  -2494566.88637387     
  -2495983.84511311     
  -2497251.93426206     
  -2498346.57515505     
  -2499247.16582861     
  -2499937.15220786     
  -2500404.07920213     
  -2500639.62558239     
  -2479589.14306537     
  -2481494.70521307     
  -2483531.35480055     
  -2485641.73034200     
  -2487771.90275521     
  -2489871.72317967     
  -2491895.09646445     
  -2493800.19109947     
  -2495549.59593900     
  -2497110.43343693     
  -2498454.43831892     
  -2499558.00969536     
  -2500402.24360079     
  -2500972.95185727     
  -2501260.67202368     
  -2475146.46216764     
  -2477602.29318952     
  -2480193.83143471     
  -2482852.73924250     
  -2485515.37759607     
  -2488123.07903186     
  -2490622.34085359     
  -2492964.95278551     
  -2495108.07235662     
  -2497014.26026875     
  -2498651.48681340     
  -2499993.11911324     
  -2501017.89761005     
  -2501709.90882903     
  -2502058.56004221     
  -2469890.37412222     
  -2473027.86383966     
  -2476298.31898743     
  -2479621.42341145     
  -2482923.11761170     
  -2486135.74471681     
  -2489198.11545577     
  -2492055.50997672     
  -2494659.63295587     
  -2496968.53686503     
  -2498946.52658806     
  -2500564.05685050     
  -2501797.63219179     
  -2502629.71749596     
  -2503048.66541924     
  -2463715.81874363     
  -2467688.53439391     
  -2471780.65839306     
  -2475899.20488418     
  -2479959.31697020     
  -2483884.21928499     
  -2487605.09470221     
  -2491060.90690550     
  -2494198.18839144     
  -2496970.81122334     
  -2499339.75558273     
  -2501272.88893688     
  -2502744.76650038     
  -2503736.46163792     
  -2504235.43294498     
  -2456515.77636616     
  -2461500.20218365     
  -2466575.33189639     
  -2471635.32542921     
  -2476584.66416796     
  -2481337.82790980     
  -2485818.91070416     
  -2489961.20099824     
  -2493706.74838419     
  -2497005.93615629     
  -2499817.07592006     
  -2502106.03772118     
  -2503845.92661905     
  -2505016.81433489     
  -2505605.53254497     
  -2448184.63730520     
  -2454379.70256744     
  -2460616.32715716     
  -2466776.39024303     
  -2472754.58406486     
  -2478457.71690634     
  -2483803.98342885     
  -2488722.23072778     
  -2493151.24414467     
  -2497039.07277767     
  -2500342.41089140     
  -2503026.04810212     
  -2505062.39833464     
  -2506431.11510425     
  -2507118.79863592     
  -2438622.38300755     
  -2446247.22628618     
  -2453837.75518420     
  -2461265.21327417     
  -2468416.38584311     
  -2475192.41557678     
  -2481507.63300836     
  -2487288.43143909     
  -2492472.21021930     
  -2497006.40503941     
  -2500847.61933352     
  -2503960.86709910     
  -2506318.93437940     
  -2507901.86429407     
  -2508696.56875353     
  -2427739.51464857     
  -2437028.79614711     
  -2446173.91809671     
  -2455038.58577792     
  -2463504.89023191     
  -2471471.51210726     
  -2478852.01311937     
  -2485573.24325729     
  -2491573.88429043     
  -2496803.14365012     
  -2501219.60749559     
  -2504790.25771938     
  -2507489.65473986     
  -2509299.28604127     
  -2510207.07939905     
  -2415462.55185125     
  -2426658.47802619     
  -2437558.39820615     
  -2448023.47568171     
  -2457936.01352826     
  -2467196.91851548     
  -2475723.35886416     
  -2483446.63752231     
  -2490310.29305316     
  -2496268.43259391     
  -2501284.29566025     
  -2505329.04374955     
  -2508380.76852861     
  -2510423.71062829     
  -2511447.68142780     
  -2401739.76664292     
  -2415079.83930302     
  -2427921.58972134     
  -2440131.03946020     
  -2451597.69347250     
  -2462231.14621116     
  -2471958.03065930     
  -2480719.31755725     
  -2488467.96056518     
  -2495166.87468250     
  -2500787.22990759     
  -2505307.03946488     
  -2508710.02154224     
  -2510984.71487080     
  -2512123.83118180     
  -2386546.60503102     
  -2402245.96412088     
  -2417185.92057434     
  -2431247.69998265     
  -2444337.46953331     
  -2456382.00203096     
  -2467324.88532098     
  -2477123.25767489     
  -2485745.03642482     
  -2493166.59922547     
  -2499370.87378102     
  -2504345.79219215     
  -2508083.06921268     
  -2510577.26885795     
  -2511825.13019485     
  -2369889.96698579     
  -2388117.08498584     
  -2405257.82130380     
  -2421222.43133979     
  -2435946.00623490     
  -2449383.18180448     
  -2461503.66023325     
  -2472288.47826993     
  -2481726.94328622     
  -2489814.15301798     
  -2496549.01652097     
  -2501932.70012126     
  -2505967.43178923     
  -2508655.60867162     
  -2509999.16439212     
  -2351810.14543318     
  -2372654.59093964     
  -2392015.30525879     
  -2409849.32786223     
  -2426135.92101689     
  -2440870.44464586     
  -2454059.38330893     
  -2465716.38443471     
  -2475859.15516436     
  -2484507.07003681     
  -2491679.35302051     
  -2497393.71582463     
  -2501665.35500985     
  -2504506.23141369     
  -2505924.57493258     
  -2332378.73575284     
  -2355809.82047173     
  -2377289.85913717     
  -2396844.57702680     
  -2414515.52994709     
  -2430353.49349227     
  -2444413.42490873     
  -2456750.72411057     
  -2467418.53585561     
  -2476465.85052652     
  -2483936.19812615     
  -2489866.76790579     
  -2494287.82543474     
  -2497222.33403547     
  -2498685.71660968     
  -2311690.16012817     
  -2337505.64479002     
  -2360841.25673902     
  -2381817.21158168     
  -2400557.69492913     
  -2417184.52748935     
  -2431812.85135743     
  -2444548.40212694     
  -2455485.92286632     
  -2464708.36399352     
  -2472286.57710350     
  -2478279.29033473     
  -2482733.21979124     
  -2485683.22493349     
  -2487152.45448510     
  -2289843.52030689     
  -2317608.37930829     
  -2342324.02276583     
  -2364233.66990897     
  -2383565.10148340     
  -2400525.93791835     
  -2415301.48294356     
  -2428054.24112245     
  -2438924.51056707     
  -2448031.50735099     
  -2455474.66586064     
  -2461334.88899968     
  -2465675.62741434     
  -2468543.73919087     
  -2469970.12137786     
  -2266910.01183173     
  -2295887.11642033     
  -2321244.75344406     
  -2343377.66846489     
  -2362635.46014757     
  -2379322.27028663     
  -2393698.90921503     
  -2405986.61955052     
  -2416371.27181948     
  -2425007.41130188     
  -2432021.78443644     
  -2437516.20333801     
  -2441569.75954511     
  -2444240.46182349     
  -2445566.38254293     
  -2242879.05177387     
  -2271956.89906580     
  -2296911.11717876     
  -2318309.83523749     
  -2336634.30305227     
  -2352286.17888680     
  -2365598.29702000     
  -2376845.12344058     
  -2386252.31807158     
  -2394004.60482150     
  -2400251.81402337     
  -2405113.35712519     
  -2408681.47470629     
  -2411023.54724618     
  -2412183.67699414     
  -2217571.03415927     
  -2245203.03797100     
  -2268376.34769244     
  -2287838.51170781     
  -2304190.88584886     
  -2317916.16936696     
  -2329401.01584635     
  -2338957.14104660     
  -2346837.57104680     
  -2353248.02745342     
  -2358354.73534767     
  -2362289.83228098     
  -2365155.17783791     
  -2367025.04739119     
  -2367947.98756895     
  -2190501.97624937     
  -2214681.09750119     
  -2234396.09537181     
  -2250526.55506914     
  -2263749.00401688     
  -2274578.06152840     
  -2283416.13039110     
  -2290586.83068657     
  -2296354.33818955     
  -2300934.76624781     
  -2304503.42048672     
  -2307199.85229016     
  -2309131.59146447     
  -2310376.94198016     
  -2310987.00564562     
  -2160645.53684597     
  -2179018.11623400     
  -2193430.70659928     
  -2204800.80515259     
  -2213738.96351194     
  -2220701.60101192     
  -2226061.74011553     
  -2230133.40636866     
  -2233180.82408532     
  -2235423.46510236     
  -2237040.21466156     
  -2238173.28541346     
  -2238931.79216425     
  -2239394.79334878     
  -2239613.65478603     
  -2126124.44029707     
  -2136289.41663573     
  -2143885.20439048     
  -2149338.93461814     
  -2152978.00749548     
  -2155150.61758460     
  -2156200.18591310     
  -2156439.06378406     
  -2156135.97150267     
  -2155513.41847963     
  -2154750.26148900     
  -2153986.23320356     
  -2153326.71912628     
  -2152846.95042273     
  -2152595.25721710     
  -2083183.61650584     
  -2084777.47309184     
  -2085183.06819407     
  -2083974.74355912     
  -2081370.61677746     
  -2077775.77427242     
  -2073601.61797528     
  -2069204.15134386     
  -2064870.98679875     
  -2060826.18895454     
  -2057240.20946925     
  -2054239.96958237     
  -2051917.40077473     
  -2050336.04356319     
  -2049535.76393627     
  -2030799.76649659     
  -2026869.54096293     
  -2020044.75470466     
  -2011008.74172610     
  -2000730.87976853     
  -1990016.97614444     
  -1979460.18942435     
  -1969478.57017432     
  -1960361.38605593     
  -1952306.92372211     
  -1945450.12050357     
  -1939881.94524572     
  -1935662.72125994     
  -1932831.11663312     
  -1931410.00854062     
SCALARS 2waySource double 
LOOKUP_TABLE default
 -2.981776649113976E-011
 -2.810682110220415E-011
 -2.623513410889639E-011
 -2.424524612685982E-011
 -2.218224093821355E-011
 -2.009279317780479E-011
 -1.802410971586214E-011
 -1.602290250629092E-011
 -1.413434652477381E-011
 -1.240112230731556E-011
 -1.086247374144396E-011
 -9.553354107436500E-012
 -8.503697740806721E-012
 -7.737734538286421E-012
 -7.273494861979999E-012
 -3.136027182870418E-011
 -2.959259949772296E-011
 -2.765594848352383E-011
 -2.559475988164781E-011
 -2.345612483101120E-011
 -2.128875243824421E-011
 -1.914187490294056E-011
 -1.706419306140707E-011
 -1.510277979770103E-011
 -1.330210747006659E-011
 -1.170304955628200E-011
 -1.034201968981552E-011
 -9.250191032262946E-012
 -8.452816260878660E-012
 -7.968699635068829E-012
 -3.432788858486603E-011
 -3.243584625682075E-011
 -3.035466238178572E-011
 -2.813325676821476E-011
 -2.582344331175861E-011
 -2.347877688448324E-011
 -2.115334356365255E-011
 -1.890060336740525E-011
 -1.677220415516581E-011
 -1.481690585231410E-011
 -1.307949591502307E-011
 -1.159986974590779E-011
 -1.041216228707090E-011
 -9.544037956559242E-012
 -9.016084016029172E-012
 -3.886418024950338E-011
 -3.677209454156338E-011
 -3.445759575926544E-011
 -3.197697202205377E-011
 -2.938980982797678E-011
 -2.675760871157737E-011
 -2.414243792887436E-011
 -2.160557508272831E-011
 -1.920616179401722E-011
 -1.699998682388364E-011
 -1.503824793095692E-011
 -1.336652361197289E-011
 -1.202378905311109E-011
 -1.104160673159798E-011
 -1.044347037708994E-011
 -4.518878169314816E-011
 -4.280801864297362E-011
 -4.015656485320112E-011
 -3.730150047471883E-011
 -3.431372662039400E-011
 -3.126630750944045E-011
 -2.823288435249283E-011
 -2.528603614500104E-011
 -2.249576611587792E-011
 -1.992797816004870E-011
 -1.764311869071186E-011
 -1.569493447683647E-011
 -1.412934823949690E-011
 -1.298352428279012E-011
 -1.228510523339259E-011
 -5.360707009373886E-011
 -5.083008897183322E-011
 -4.771654307199885E-011
 -4.434845543774691E-011
 -4.081229277054057E-011
 -3.719699535414722E-011
 -3.359203327353197E-011
 -3.008543327752857E-011
 -2.676192664521666E-011
 -2.370119983177812E-011
 -2.097623034804209E-011
 -1.865182725356677E-011
 -1.678330735997551E-011
 -1.541538429068267E-011
 -1.458127723640361E-011
 -6.452333204041531E-011
 -6.121643618097645E-011
 -5.748615887583497E-011
 -5.343455117492513E-011
 -4.916889899558119E-011
 -4.479925406611207E-011
 -4.043603084743357E-011
 -3.618764701784594E-011
 -3.215825875165061E-011
 -2.844564335950642E-011
 -2.513920216327805E-011
 -2.231822209423827E-011
 -2.005028916303348E-011
 -1.838997142689838E-011
 -1.737774755738488E-011
 -7.845790783911722E-011
 -7.445222167499337E-011
 -6.991120490858567E-011
 -6.496334718829330E-011
 -5.974319909379790E-011
 -5.438834277732076E-011
 -4.903639930948293E-011
 -4.382216772057885E-011
 -3.887485625499377E-011
 -3.431550349977144E-011
 -3.025462763066951E-011
 -2.679004937850200E-011
 -2.400505148750638E-011
 -2.196677613186829E-011
 -2.072495621371418E-011
 -9.606883836833430E-011
 -9.114896109258416E-011
 -8.555167211166573E-011
 -7.943992641537878E-011
 -7.298354817503718E-011
 -6.635552843733713E-011
 -5.972834568431580E-011
 -5.327046533461832E-011
 -4.714296346590296E-011
 -4.149641806613390E-011
 -3.646802108064844E-011
 -3.217904227553388E-011
 -2.873253643940061E-011
 -2.621147251242401E-011
 -2.467719264231558E-011
 -1.181785505112186E-010
 -1.120683256932402E-010
 -1.051026837253734E-010
 -9.748900605109582E-011
 -8.944232719557040E-011
 -8.118075239200781E-011
 -7.292098050910629E-011
 -6.487399236314817E-011
 -5.724097795340279E-011
 -5.020959007992131E-011
 -4.395045050341962E-011
 -3.861408870508159E-011
 -3.432823640854695E-011
 -3.119556053584712E-011
 -2.929184977118605E-011
 -1.458063323873024E-010
 -1.381510879423927E-010
 -1.294198574959856E-010
 -1.198768678311531E-010
 -1.097946006633458E-010
 -9.944819966327486E-011
 -8.910995116457697E-011
 -7.904409642083954E-011
 -6.950192529154805E-011
 -6.071720032510791E-011
 -5.290206876725624E-011
 -4.624329841711410E-011
 -4.089913654849240E-011
 -3.699656615497420E-011
 -3.462913987760390E-011
 -1.802075154083585E-010
 -1.705520167356958E-010
 -1.595500046323175E-010
 -1.475379183503603E-010
 -1.348607572094614E-010
 -1.218652014984771E-010
 -1.088929404923682E-010
 -9.627445624328619E-011
 -8.432307804204454E-011
 -7.332957961844631E-011
 -6.355723137173469E-011
 -5.523739955929831E-011
 -4.856575335769541E-011
 -4.369906078804983E-011
 -4.075262734831623E-011
 -2.229204169623665E-010
 -2.106815980908134E-010
 -1.967678057711094E-010
 -1.816065970872765E-010
 -1.656338356149452E-010
 -1.492853222222286E-010
 -1.329888158022312E-010
 -1.171565886950261E-010
 -1.021783248452393E-010
 -8.841474016747813E-011
 -7.619167529712993E-011
 -6.579496147531657E-011
 -5.746588573547435E-011
 -5.139744685495179E-011
 -4.773136375614281E-011
 -2.758222387795410E-010
 -2.602558732943633E-010
 -2.426197885587589E-010
 -2.234557494398972E-010
 -2.033126768161098E-010
 -1.827366561186509E-010
 -1.622614677577089E-010
 -1.423996939564617E-010
 -1.236343851479070E-010
 -1.064114934442287E-010
 -9.113296172642242E-011
 -7.815067578590552E-011
 -6.776117304965700E-011
 -6.020128149621636E-011
 -5.564459560093688E-011
 -3.411954179667879E-010
 -3.213556892857952E-010
 -2.989769023212739E-010
 -2.747428682436557E-010
 -2.493422210479246E-010
 -2.234566398268004E-010
 -1.977496177081543E-010
 -1.728559777060403E-010
 -1.493721649252120E-010
 -1.278473517930302E-010
 -1.087754199672612E-010
 -9.258790928068455E-011
 -7.964786700924617E-011
 -7.024477829280366E-011
 -6.459047871474031E-011
 -4.218064295318806E-010
 -3.964973915782190E-010
 -3.680974465905011E-010
 -3.374658531655139E-010
 -3.054627370204586E-010
 -2.729352860128615E-010
 -2.407045944906262E-010
 -2.095534836669188E-010
 -1.802152206385343E-010
 -1.533632005970578E-010
 -1.296016892493111E-010
 -1.094576404901239E-010
 -9.337367458572205E-011
 -8.170219004379616E-011
 -7.470067973111183E-011
 -5.209990467067625E-010
 -4.887168637091362E-010
 -4.527027251467713E-010
 -4.140308849742235E-010
 -3.737704492265516E-010
 -3.329691788554572E-010
 -2.926383989524651E-010
 -2.537388975845543E-010
 -2.171679436051592E-010
 -1.837474319900745E-010
 -1.542133300441118E-010
 -1.292062527381659E-010
 -1.092634389400254E-010
 -9.481200146117795E-011
 -8.616359320316076E-011
 -6.428050970278159E-010
 -6.016702527778013E-010
 -5.560683447966313E-010
 -5.073352113725015E-010
 -4.567925801414294E-010
 -4.057295954620436E-010
 -3.553855427081858E-010
 -3.069337225323089E-010
 -2.614666871072487E-010
 -2.199827922442282E-010
 -1.833741102313937E-010
 -1.524158121228766E-010
 -1.277570006646998E-010
 -1.099130569757075E-010
 -9.925955977183210E-011
 -7.920761520201270E-010
 -7.397546348238885E-010
 -6.821351558760154E-010
 -6.208690679054641E-010
 -5.575812049464973E-010
 -4.938490128473238E-010
 -4.311829409235861E-010
 -3.710083216307259E-010
 -3.146487241176641E-010
 -2.633107415821625E-010
 -2.180704356615746E-010
 -1.798612930459992E-010
 -1.494639567050606E-010
 -1.274974955991204E-010
 -1.144125930524060E-010
 -9.746409183453660E-010
 -9.082539648191488E-010
 -8.356447795516286E-010
 -7.588420365210647E-010
 -6.798313032404047E-010
 -6.005316221832851E-010
 -5.227736969612900E-010
 -4.482796632532056E-010
 -3.786444777820058E-010
 -3.153190038398618E-010
 -2.595947767737756E-010
 -2.125906021766146E-010
 -1.752408985493563E-010
 -1.482860193638025E-010
 -1.322644274722436E-010
 -1.197494279154676E-009
 -1.113516507997878E-009
 -1.022306718202636E-009
 -9.263409336505596E-010
 -8.280303207446139E-010
 -7.296954764177863E-010
 -6.335424358939233E-010
 -5.416403690810507E-010
 -4.559010173274228E-010
 -3.780599858724108E-010
 -3.096597771877522E-010
 -2.520348768102244E-010
 -2.062987277667339E-010
 -1.733328301307549E-010
 -1.537779450255507E-010
 -1.469025925176520E-009
 -1.363172118695220E-009
 -1.249005895818114E-009
 -1.129528515157372E-009
 -1.007648875445899E-009
 -8.861557496500716E-010
 -7.676916967470285E-010
 -6.547288272181690E-010
 -5.495462751259385E-010
 -4.542096141101218E-010
 -3.705521445884280E-010
 -3.001582463449146E-010
 -2.443488767490252E-010
 -2.041692486215871E-010
 -1.803789343890667E-010
 -1.799299230438691E-009
 -1.666401034499385E-009
 -1.524062402936225E-009
 -1.375895193291467E-009
 -1.225385030820819E-009
 -1.075861881383800E-009
 -9.304721814629673E-010
 -7.921526981204309E-010
 -6.636061019957130E-010
 -5.472783779848207E-010
 -4.453381986694196E-010
 -3.596583903296869E-010
 -2.917996589942398E-010
 -2.429966950862526E-010
 -2.141468549592940E-010
 -2.200394233695746E-009
 -2.034268623075149E-009
 -1.857559092983009E-009
 -1.674579739608185E-009
 -1.489478118286843E-009
 -1.306204479851000E-009
 -1.128482541139037E-009
 -9.597814535621013E-010
 -8.032894961023055E-010
 -6.618892897730469E-010
 -5.381349500137884E-010
 -4.342313983131506E-010
 -3.520158379050359E-010
 -2.929420148967484E-010
 -2.580670338764210E-010
 -2.686833564332022E-009
 -2.480146207172811E-009
 -2.261757310175264E-009
 -2.036779711578432E-009
 -1.810113053447820E-009
 -1.586412643361854E-009
 -1.370058730736536E-009
 -1.165127069956388E-009
 -9.753602120773362E-010
 -8.041403509229873E-010
 -6.544637590681739E-010
 -5.289172359616118E-010
 -4.296569294974153E-010
 -3.583899905872291E-010
 -3.163591835286861E-010
 -3.276115850471124E-009
 -3.020243540987511E-009
 -2.751627513504332E-009
 -2.476278253457102E-009
 -2.199941548734567E-009
 -1.928067210861244E-009
 -1.665777711676748E-009
 -1.417836586549693E-009
 -1.188617261975931E-009
 -9.820726769052353E-010
 -8.017061597690774E-010
 -6.505442325266254E-010
 -5.311117253746953E-010
 -4.454099335132780E-010
 -3.948982097154547E-010
 -3.989389648537188E-009
 -3.674287237210652E-009
 -3.345529055375934E-009
 -3.010121736907173E-009
 -2.674753272593167E-009
 -2.345762392914322E-009
 -2.029105987929019E-009
 -1.730325248345693E-009
 -1.454510933037501E-009
 -1.206268584294851E-009
 -9.896845561593420E-010
 -8.082935251880570E-010
 -6.650486164570698E-010
 -5.622946084610987E-010
 -5.017452894124298E-010
 -4.852311145688488E-009
 -4.466389559954259E-009
 -4.066083721623716E-009
 -3.659491370017259E-009
 -3.254339643809652E-009
 -2.857955161755655E-009
 -2.477230008578704E-009
 -2.118584082727336E-009
 -1.787925250159946E-009
 -1.490608190922387E-009
 -1.231393208556231E-009
 -1.014406437368297E-009
 -8.431025022874797E-010
 -7.202308738309915E-010
 -6.478071677154003E-010
 -5.896142103370798E-009
 -5.426164500370926E-009
 -4.941299590274257E-009
 -4.450824154505005E-009
 -3.963601383857006E-009
 -3.488051176616592E-009
 -3.032112969988679E-009
 -2.603202261804194E-009
 -2.208162691814564E-009
 -1.853215282871429E-009
 -1.543906663907417E-009
 -1.285058443505252E-009
 -1.080719156064043E-009
 -9.341208254671783E-010
 -8.476415651804535E-010
 -7.159162206593162E-009
 -6.590165651523631E-009
 -6.006017401613222E-009
 -5.417251560351452E-009
 -4.833964903657554E-009
 -4.265785714410260E-009
 -3.721830413060599E-009
 -3.210650290434383E-009
 -2.740170985293366E-009
 -2.317626959167118E-009
 -1.949494187101938E-009
 -1.641423407810956E-009
 -1.398176770056334E-009
 -1.223570099275166E-009
 -1.120423184229876E-009
 -8.688491128310186E-009
 -8.003739470524142E-009
 -7.303769770414528E-009
 -6.600440816328153E-009
 -5.905184584457504E-009
 -5.228969536594686E-009
 -4.582245950668096E-009
 -3.974876432050938E-009
 -3.416055402942000E-009
 -2.914221636261162E-009
 -2.476967579060392E-009
 -2.110949221166769E-009
 -1.821800479699665E-009
 -1.614055257726707E-009
 -1.491080229242912E-009
 -1.054244260104704E-008
 -9.723413132202457E-009
 -8.889165900801311E-009
 -8.052943078241387E-009
 -7.227625160039148E-009
 -6.425681832523224E-009
 -5.659097159523712E-009
 -4.939273856739634E-009
 -4.276922382096309E-009
 -3.681940166056547E-009
 -3.163286739248913E-009
 -2.728859846830443E-009
 -2.385377980471374E-009
 -2.138273612528315E-009
 -1.991601448063456E-009
 -1.279356601571009E-008
 -1.181996570240891E-008
 -1.083094078702434E-008
 -9.841174391804584E-009
 -8.865135482384564E-009
 -7.917005464306904E-009
 -7.010569632305734E-009
 -6.159080279323529E-009
 -5.375099663580689E-009
 -4.670330180694536E-009
 -4.055439816520201E-009
 -3.539890093305124E-009
 -3.131773266785455E-009
 -2.837665274480054E-009
 -2.662499878101895E-009
 -1.553257144104877E-008
 -1.438236798910162E-008
 -1.321583856764459E-008
 -1.204918070194095E-008
 -1.089864358418126E-008
 -9.780412364059646E-009
 -8.710445077824664E-009
 -7.704272993783634E-009
 -6.776774885043418E-009
 -5.941936103796809E-009
 -5.212602991398132E-009
 -4.600242480728272E-009
 -4.114716189549085E-009
 -3.764077389985296E-009
 -3.554398011547515E-009
 -1.887338211307713E-008
 -1.752281723461718E-008
 -1.615353445884015E-008
 -1.478336521697404E-008
 -1.343062340813374E-008
 -1.211391956105701E-008
 -1.085191348457041E-008
 -9.663020547910404E-009
 -8.565086115155084E-009
 -7.575042917677616E-009
 -6.708565280356733E-009
 -5.979733471885579E-009
 -5.400720490954376E-009
 -4.981512198252892E-009
 -4.729670325942802E-009
 -2.295961577942351E-008
 -2.138314257442958E-008
 -1.978283896047007E-008
 -1.817838625591943E-008
 -1.659060265039926E-008
 -1.504114617280881E-008
 -1.355214061796217E-008
 -1.214574441342374E-008
 -1.084368234610026E-008
 -9.666759648180772E-009
 -8.634377017744562E-009
 -7.764063882269633E-009
 -7.071046055972065E-009
 -6.567861706934442E-009
 -6.264038129999078E-009
 -2.797286240600607E-008
 -2.614291124992493E-008
 -2.427947045217193E-008
 -2.240446343134759E-008
 -2.054189940344939E-008
 -1.871740761314356E-008
 -1.695767723283661E-008
 -1.528982937790980E-008
 -1.374074829953053E-008
 -1.233639684723511E-008
 -1.110114062492423E-008
 -1.005710325938873E-008
 -9.223573327207608E-009
 -8.616481040577698E-009
 -8.247960123837215E-009
 -3.414320145724268E-008
 -3.202962572227184E-008
 -2.986572769058779E-008
 -2.767635984261168E-008
 -2.548978958838378E-008
 -2.333698425236920E-008
 -2.125078371775137E-008
 -1.926499629642423E-008
 -1.741345220173042E-008
 -1.572904777309588E-008
 -1.424281152930538E-008
 -1.298302079542250E-008
 -1.197439465522029E-008
 -1.123738623058925E-008
 -1.078759374382398E-008
 -4.176248616261502E-008
 -3.933146729836497E-008
 -3.682243752039406E-008
 -3.426433358483923E-008
 -3.169131537034065E-008
 -2.914169214901673E-008
 -2.665671957485620E-008
 -2.427931365484186E-008
 -2.205272614255540E-008
 -2.001922345464244E-008
 -1.821880832728863E-008
 -1.668802049393192E-008
 -1.545884824925271E-008
 -1.455777995696572E-008
 -1.400501871416030E-008
 -5.120101251645160E-008
 -4.841310680996451E-008
 -4.550359664516853E-008
 -4.250737135164497E-008
 -3.946694221056957E-008
 -3.643086319364499E-008
 -3.345200908895218E-008
 -3.058577057125404E-008
 -2.788822192248505E-008
 -2.541431465308217E-008
 -2.321614573594115E-008
 -2.134134517252280E-008
 -1.983162260420620E-008
 -1.872150732559992E-008
 -1.803731118165880E-008
 -6.292828551348945E-008
 -5.973516773337389E-008
 -5.635415995407381E-008
 -5.282902508393545E-008
 -4.921425713410942E-008
 -4.557280323870711E-008
 -4.197363760180427E-008
 -3.848926149411359E-008
 -3.519319937582893E-008
 -3.215755644211084E-008
 -2.945069764396835E-008
 -2.713510224125878E-008
 -2.526544196938657E-008
 -2.388692449060121E-008
 -2.303393653005710E-008
 -7.753868818374757E-008
 -7.387798210968310E-008
 -6.993145025407051E-008
 -6.575616327859674E-008
 -6.142386348508996E-008
 -5.701773850224004E-008
 -5.262905406087644E-008
 -4.835373710812881E-008
 -4.428899541699783E-008
 -4.053005281143469E-008
 -3.716707218894526E-008
 -3.428233133917075E-008
 -3.194770823120976E-008
 -3.022252473185208E-008
 -2.915178972524021E-008
 -9.578294303326638E-008
 -9.157032099163083E-008
 -8.693066530930959E-008
 -8.194091565737363E-008
 -7.669756608887663E-008
 -7.131217313075834E-008
 -6.590674959834735E-008
 -6.060915573011816E-008
 -5.554859045317080E-008
 -5.085127767332452E-008
 -4.663643277995035E-008
 -4.301258508296485E-008
 -4.007432240384965E-008
 -3.789951432763003E-008
 -3.654706053567805E-008
 -1.186063211032987E-007
 -1.137237934110122E-007
 -1.082149272410041E-007
 -1.021860230614161E-007
 -9.576884429580106E-008
 -8.911446280186253E-008
 -8.238704634031901E-008
 -7.575772133777901E-008
 -6.939863249124560E-008
 -6.347730952950027E-008
 -5.815143945705235E-008
 -5.356413129565889E-008
 -4.983974833208390E-008
 -4.708037102686149E-008
 -4.536294292341123E-008
 -1.471945857463689E-007
 -1.414735844367975E-007
 -1.348502479908060E-007
 -1.274736951179016E-007
 -1.195254732428210E-007
 -1.112112525209331E-007
 -1.027525615898535E-007
 -9.437871938483967E-008
 -8.631910372055169E-008
 -7.879588152225197E-008
 -7.201731225756604E-008
 -6.617172046563824E-008
 -6.142222065320384E-008
 -5.790226302947831E-008
 -5.571205644652175E-008
 -1.830286387458887E-007
 -1.762261181383994E-007
 -1.681456521160241E-007
 -1.589979128178871E-007
 -1.490339664466928E-007
 -1.385342272367429E-007
 -1.277976110062016E-007
 -1.171310638544187E-007
 -1.068396233677335E-007
 -9.721715062132065E-008
 -8.853785399461960E-008
 -8.104870852270252E-008
 -7.496285818602006E-008
 -7.045407353369230E-008
 -6.765232189261764E-008
 -2.279487426813169E-007
 -2.197140741239793E-007
 -2.096984960345763E-007
 -1.981998811171023E-007
 -1.855652683999215E-007
 -1.721763810996518E-007
 -1.584355810140250E-007
 -1.447524531963616E-007
 -1.315311902331933E-007
 -1.191589237280904E-007
 -1.079951290302768E-007
 -9.836220949929826E-008
 -9.053734801382570E-008
 -8.474569735117326E-008
 -8.115496427470060E-008
 -2.842289945460771E-007
 -2.740589229192620E-007
 -2.614447215826537E-007
 -2.468060246815645E-007
 -2.306208193125097E-007
 -2.134067243323178E-007
 -1.957030465769709E-007
 -1.780538190680170E-007
 -1.609919956556526E-007
 -1.450249511402158E-007
 -1.306214099602158E-007
 -1.181999055411279E-007
 -1.081188508625267E-007
 -1.006682846144858E-007
 -9.606334040756907E-008
 -3.546623900977396E-007
 -3.418407568647872E-007
 -3.257133737677562E-007
 -3.068675165208635E-007
 -2.859577411538844E-007
 -2.636820230166885E-007
 -2.407591478073565E-007
 -2.179075570013478E-007
 -1.958258166477400E-007
 -1.751748464287424E-007
 -1.565620189955596E-007
 -1.405272151885690E-007
 -1.275308994655816E-007
 -1.179442629326824E-007
 -1.120414664368465E-007
 -4.426563024543653E-007
 -4.261746411660450E-007
 -4.052841666316963E-007
 -3.807998278285032E-007
 -3.536114626420793E-007
 -3.246538237165223E-007
 -2.948784966734142E-007
 -2.652278947754686E-007
 -2.366114731669860E-007
 -2.098842717529291E-007
 -1.858278656279798E-007
 -1.651337772499635E-007
 -1.483893843581076E-007
 -1.360663412018395E-007
 -1.285115200804217E-007
 -5.523374602062913E-007
 -5.307919692086935E-007
 -5.034461908158126E-007
 -4.714201851504931E-007
 -4.359136191782148E-007
 -3.981686760336093E-007
 -3.594357023992579E-007
 -3.209417302128816E-007
 -2.838619664406816E-007
 -2.492943059156181E-007
 -2.182368928822431E-007
 -1.915687327243555E-007
 -1.700333375944528E-007
 -1.542253790418111E-007
 -1.445803129026380E-007
 -6.886644992345897E-007
 -6.601243439268070E-007
 -6.240550031536769E-007
 -5.819801274783240E-007
 -5.355025616555649E-007
 -4.862591785422326E-007
 -4.358795387974813E-007
 -3.859484297717976E-007
 -3.379722900495418E-007
 -2.933494885165761E-007
 -2.533443989564914E-007
 -2.190651911969943E-007
 -1.914452480616503E-007
 -1.712281141137763E-007
 -1.589558835326542E-007
 -8.575448314460930E-007
 -8.193863005435695E-007
 -7.715843292846626E-007
 -7.161895931954392E-007
 -6.553233313481847E-007
 -5.911232985559869E-007
 -5.256949132262954E-007
 -4.610675192656127E-007
 -3.991556346944947E-007
 -3.417250258980884E-007
 -2.903634236565096E-007
 -2.464556859302862E-007
 -2.111632117526930E-007
 -1.854074172253816E-007
 -1.698571016433135E-007
 -1.065950879887117E-006
 -1.014651722558618E-006
 -9.511674568730403E-007
 -8.782281820180053E-007
 -7.986135714101680E-007
 -7.150894489690684E-007
 -6.303512445520276E-007
 -5.469740465533226E-007
 -4.673689284622854E-007
 -3.937452025283446E-007
 -3.280782420473140E-007
 -2.720825175659799E-007
 -2.271895066259317E-007
 -1.945301625438516E-007
 -1.749216626808363E-007
 -1.322028640920042E-006
 -1.252917090696007E-006
 -1.168622146732587E-006
 -1.072738502248009E-006
 -9.688716601476021E-007
 -8.605651698385402E-007
 -7.512367619066900E-007
 -6.441228126760795E-007
 -5.422305431716470E-007
 -4.482973504581867E-007
 -3.647566776066919E-007
 -2.937098542010706E-007
 -2.369033774533165E-007
 -1.957111553642628E-007
 -1.711212942740694E-007
 -1.635189039545756E-006
 -1.542142778102442E-006
 -1.430451617074050E-006
 -1.304795946182997E-006
 -1.169803502071197E-006
 -1.029968128211901E-006
 -8.895797854734571E-007
 -7.526648530866132E-007
 -6.229357592193611E-007
 -5.037490005549697E-007
 -3.980706502511268E-007
 -3.084485107320561E-007
 -2.369901400534182E-007
 -1.853460659512871E-007
 -1.546975980844580E-007
 -2.016169672104186E-006
 -1.891261546646664E-006
 -1.743812989396279E-006
 -1.579848995187732E-006
 -1.405245097559247E-006
 -1.225639726843079E-006
 -1.046360467925285E-006
 -8.723627398038128E-007
 -7.081794590548284E-007
 -5.578803126338049E-007
 -4.250393500954025E-007
 -3.127097075646334E-007
 -2.234043940108716E-007
 -1.590822010552225E-007
 -1.211379383091241E-007
 -2.477051351247340E-006
 -2.310141345179898E-006
 -2.116443712454059E-006
 -1.903624472258003E-006
 -1.679059482580269E-006
 -1.449744174165829E-006
 -1.222220040645642E-006
 -1.002515741308806E-006
 -7.961007755094856E-007
 -6.078498136226327E-007
 -4.420159163416850E-007
 -3.022110381422695E-007
 -1.913923886590039E-007
 -1.118534148004538E-007
 -6.521836347453373E-008
 -3.031210537254402E-006
 -2.809487678405187E-006
 -2.556536166804466E-006
 -2.281993327688506E-006
 -1.995009197726066E-006
 -1.704159726142925E-006
 -1.417379627965273E-006
 -1.141911916719144E-006
 -8.842713349513181E-007
 -6.502191146132607E-007
 -4.447467312756589E-007
 -2.720665605809718E-007
 -1.356076004155946E-007
 -3.801468327337605E-008
  1.885013236473639E-008
 -3.693185494760639E-006
 -3.400669519342956E-006
 -3.072551259545096E-006
 -2.720794945850593E-006
 -2.356609499155950E-006
 -1.990374339602119E-006
 -1.631587509765998E-006
 -1.288832135480485E-006
 -9.697575630132530E-007
 -6.810718438651236E-007
 -4.285425808042181E-007
 -2.170034982292951E-007
 -5.036444838417055E-008
  6.837708532439988E-008
  1.371245844781111E-007
 -4.478431231968935E-006
 -4.095452415311076E-006
 -3.672963811789573E-006
 -3.225622069433187E-006
 -2.766973505185033E-006
 -2.309405575564910E-006
 -1.864122670763338E-006
 -1.441141080758284E-006
 -1.049298465377515E-006
 -6.962736486437968E-007
 -3.886130429194781E-007
 -1.317604860304641E-007
  6.991226095409304E-008
  2.130766583049663E-007
  2.954220460688160E-007
 -5.402936475776679E-006
 -4.905623660621831E-006
 -4.365936505641426E-006
 -3.801574802316266E-006
 -3.228668876628304E-006
 -2.661774667608081E-006
 -2.113893874650428E-006
 -1.596512701616178E-006
 -1.119653431014055E-006
 -6.919337478731364E-007
 -3.206293971948256E-007
 -1.173639134194053E-008
  2.299704167639698E-007
  4.008850177481717E-007
  4.985262853922916E-007
 -6.482675819498440E-006
 -5.842497911606188E-006
 -5.158925793324966E-006
 -4.453001398621402E-006
 -3.743616958875065E-006
 -3.047577585399752E-006
 -2.379687545704724E-006
 -1.752852354311264E-006
 -1.178189784477485E-006
 -6.651438450290072E-007
 -2.215966452967244E-007
  1.460261128023471E-007
  4.326595283139969E-007
  6.345166122764304E-007
  7.490203335305409E-007
 -7.732872648094627E-006
 -6.916298282635148E-006
 -6.058233270416316E-006
 -5.183256319150161E-006
 -4.313080029823749E-006
 -3.466711909177638E-006
 -2.660634413666531E-006
 -1.908994754247969E-006
 -1.223796530662318E-006
 -6.150865029268371E-007
 -9.113094309945120E-008
  3.414229690906277E-007
  6.774043344509706E-007
  9.129971392622488E-007
  1.045642420483065E-006
 -9.167054606065203E-006
 -8.135418806814938E-006
 -7.068530432113002E-006
 -5.994522942589984E-006
 -4.937800701371405E-006
 -3.919337366046119E-006
 -2.956983814492955E-006
 -2.065775129069277E-006
 -1.258227931849101E-006
 -5.446209636049896E-007
  6.674677795594249E-008
  5.693247805276085E-007
  9.581100169850503E-007
  1.229478687525010E-006
  1.381052460601064E-006
 -1.079589450734800E-005
 -9.505590271413124E-006
 -8.192404263062972E-006
 -6.887769792091068E-006
 -5.618379627802092E-006
 -4.406669500627493E-006
 -3.271294795427473E-006
 -2.227589201829433E-006
 -1.287996363716499E-006
 -4.624675822586117E-007
  2.411796329439102E-007
  8.169459036431434E-007
  1.260379754499811E-006
  1.568354414124658E-006
  1.738892537336678E-006
 -1.262584709243564E-005
 -1.102899391506789E-005
 -9.429996393144876E-006
 -7.862935258440734E-006
 -6.356002945658587E-006
 -4.932228998893578E-006
 -3.610172936387214E-006
 -2.404573399536240E-006
 -1.326945277284787E-006
 -3.861189648283528E-007
  4.112820175157854E-007
  1.060427152405851E-006
  1.557929627970483E-006
  1.901561525990062E-006
  2.090032826386733E-006
 -1.465761728167165E-005
 -1.270339716191613E-005
 -1.077883977230076E-005
 -8.919466010133491E-006
 -7.153657929770294E-006
 -5.503691408517871E-006
 -3.986697979099950E-006
 -2.615546066014840E-006
 -1.399635384549635E-006
 -3.456012101318949E-007
  5.420723990526049E-007
  1.260529534185908E-006
  1.808107366115609E-006
  2.183986159846325E-006
  2.387921160754117E-006
 -1.688452968119670E-005
 -1.452142282819911E-005
 -1.223403342120190E-005
 -1.005736696454999E-005
 -8.018001472427593E-006
 -6.135499561821216E-006
 -4.423695008017146E-006
 -2.891847489828927E-006
 -1.545663476663509E-006
 -3.881846345319732E-007
  5.794522501807578E-007
  1.357377994199674E-006
  1.946469465829002E-006
  2.347936437490837E-006
  2.563009746602726E-006
 -1.929091258141951E-005
 -1.647010749806208E-005
 -1.378893594567645E-005
 -1.127895260996408E-005
 -8.962066478512257E-006
 -6.852407752978924E-006
 -4.957993513711023E-006
 -3.282192412374087E-006
 -1.824993615737483E-006
 -5.840890676438113E-007
  4.442191255560386E-007
  1.264272713049438E-006
  1.880458592870500E-006
  2.296743522498036E-006
  2.516329475340740E-006
 -2.185066195015536E-005
 -1.853095392111834E-005
 -1.543659832062339E-005
 -1.259151489460012E-005
 -1.000899849360883E-005
 -7.694113176802660E-006
 -5.645782991601021E-006
 -3.858590625379964E-006
 -2.324300765373891E-006
 -1.033129130464224E-006
  2.521923544446438E-008
  8.607176411346094E-007
  1.482366802686010E-006
  1.897702068653868E-006
  2.112438051387489E-006
 -2.452620954509390E-005
 -2.068073182804869E-005
 -1.717218908907722E-005
 -1.401113249480194E-005
 -1.119699702627014E-005
 -8.721082132311413E-006
 -6.569094503644552E-006
 -4.723281214027263E-006
 -3.164187699128962E-006
 -1.872079204970820E-006
 -8.280664570655083E-007
 -1.497648007141190E-008
  5.819921067605930E-007
  9.747931635169618E-007
  1.172204808470197E-006
 -2.726817909628718E-005
 -2.289332344076914E-005
 -1.899667930247546E-005
 -1.556782539626378E-005
 -1.258557518164192E-005
 -1.002157515557580E-005
 -7.843291451347281E-006
 -6.016438538224546E-006
 -4.506910401239836E-006
 -3.282278328259938E-006
 -2.312920395075400E-006
 -1.572846101543500E-006
 -1.040275653625114E-006
 -6.980274571942821E-007
 -5.337598757923179E-007
 -3.001606650550574E-005
 -2.514293100657781E-005
 -2.092203251274498E-005
 -1.731218500125518E-005
 -1.426312067549266E-005
 -1.171968608434743E-005
 -9.625206217533448E-006
 -7.924107671268598E-006
 -6.563898517218358E-006
 -5.496605053719962E-006
 -4.679764333040958E-006
 -4.077066588342519E-006
 -3.658733939430659E-006
 -3.401711624354168E-006
 -3.289736096822584E-006
 -3.270030991009923E-005
 -2.740894349435742E-005
 -2.297805979276552E-005
 -1.932344965088903E-005
 -1.635550131379292E-005
 -1.398389053714517E-005
 -1.212116447307816E-005
 -1.068536413630135E-005
 -9.601835935644265E-006
 -8.804382723146250E-006
 -8.235899384383258E-006
 -7.848627927760942E-006
 -7.604153231326741E-006
 -7.473244114210290E-006
 -7.435626187894611E-006
 -3.524610222078264E-005
 -2.968266743821465E-005
 -2.522091004696539E-005
 -2.171869756052672E-005
 -1.903504924238249E-005
 -1.703508390939928E-005
 -1.559352690157264E-005
 -1.459699790557119E-005
 -1.394530474791545E-005
 -1.355196298758812E-005
 -1.334414831265839E-005
 -1.326226967159675E-005
 -1.325932760668051E-005
 -1.330019614505946E-005
 -1.336093945529124E-005
 -3.757921267199410E-005
 -3.197591709250757E-005
 -2.774280932551018E-005
 -2.466231598690418E-005
 -2.252859080062516E-005
 -2.115228016547681E-005
 -2.036344859135050E-005
 -2.001299670834717E-005
 -1.997290203875864E-005
 -2.013559768545503E-005
 -2.041277761397226E-005
 -2.073388294221862E-005
 -2.104448456524153E-005
 -2.130473685092709E-005
 -2.148803753117213E-005
 -3.963388434939329E-005
 -3.433106283384785E-005
 -3.068204291915173E-005
 -2.837405587467459E-005
 -2.712212393540628E-005
 -2.667289247725891E-005
 -2.680616151278918E-005
 -2.733460943169523E-005
 -2.810218931515309E-005
 -2.898164219731864E-005
 -2.987152141997581E-005
 -3.069306128758451E-005
 -3.138715917959973E-005
 -3.191167796020221E-005
 -3.223921910689681E-005
 -4.136250490901590E-005
 -3.683144830432329E-005
 -3.423113595062554E-005
 -3.313260173220192E-005
 -3.315806312770446E-005
 -3.398259669722492E-005
 -3.533300442661907E-005
 -3.698460821149156E-005
 -3.875666298547763E-005
 -4.050700957280792E-005
 -4.212649014991565E-005
 -4.353354421655589E-005
 -4.466929814531459E-005
 -4.549336764048136E-005
 -4.598051481238768E-005
 -4.274612857646953E-005
 -3.960993138070913E-005
 -3.863947665898674E-005
 -3.926935474958493E-005
 -4.101831713082619E-005
 -4.348682865267589E-005
 -4.635132498366387E-005
 -4.935625603658322E-005
 -5.230492532203311E-005
 -5.504996889418769E-005
 -5.748414597769496E-005
 -5.953192614216331E-005
 -6.114219144388126E-005
 -6.228223501453115E-005
 -6.293313745450477E-005
 -4.380392061723657E-005
 -4.285138952298423E-005
 -4.420378549304102E-005
 -4.714349711877892E-005
 -5.108224003718278E-005
 -5.555141449269006E-005
 -6.018876026362598E-005
 -6.472303695349575E-005
 -6.895812750058219E-005
 -7.275771687126823E-005
 -7.603133581345848E-005
 -7.872225383865952E-005
 -8.079744461935118E-005
 -8.223966089917441E-005
 -8.304154415841700E-005
 -4.459800464613314E-005
 -4.678175785986237E-005
 -5.123506796389405E-005
 -5.708337023658581E-005
 -6.364170119255582E-005
 -7.039275244223944E-005
 -7.696153299765958E-005
 -8.308891963804054E-005
 -8.860629033870972E-005
 -9.341259673295948E-005
 -9.745469520282301E-005
 -1.007112142129518E-004
 -1.031798659226308E-004
 -1.048678977033186E-004
 -1.057852994850681E-004
 -4.522734311991083E-005
 -5.163057495162029E-005
 -5.998225864853875E-005
 -6.926902646092371E-005
 -7.874433538688712E-005
 -8.788691496007741E-005
 -9.635626969157487E-005
 -1.039502851195366E-004
 -1.105671958837543E-004
 -1.161736136262205E-004
 -1.207789739182554E-004
 -1.244159965860363E-004
 -1.271263319291924E-004
 -1.289504388385391E-004
 -1.299208073090183E-004
 -4.579984624284717E-005
 -5.754290005518791E-005
 -7.047795750962820E-005
 -8.351258465850308E-005
 -9.591754278026915E-005
 -1.072497613046715E-004
 -1.172803377633891E-004
 -1.259295220254194E-004
 -1.332137299798745E-004
 -1.392048901461787E-004
 -1.440009496450419E-004
 -1.477054753598271E-004
 -1.504141373378389E-004
 -1.522061279111177E-004
 -1.531389943156400E-004
 -4.635912155793310E-005
 -6.439750211908516E-005
 -8.224057618858540E-005
 -9.886113637128083E-005
 -1.136940687374441E-004
 -1.265139482874259E-004
 -1.373166019684542E-004
 -1.462281546727915E-004
 -1.534390587364608E-004
 -1.591601449986887E-004
 -1.635954183956807E-004
 -1.669263997793708E-004
 -1.693038464769068E-004
 -1.708438703902960E-004
 -1.716264722813890E-004
 -4.673065236565308E-005
 -7.143053238218774E-005
 -9.371373265696324E-005
 -1.128813645913035E-004
 -1.288080485166075E-004
 -1.416931531261414E-004
 -1.518990278757000E-004
 -1.598401702377494E-004
 -1.659194311607654E-004
 -1.704963908144747E-004
 -1.738749472868215E-004
 -1.763011259992055E-004
 -1.779656051738684E-004
 -1.790078381931205E-004
 -1.795201105840771E-004
 -4.612787180983930E-005
 -7.649950218376660E-005
 -1.011560482026342E-004
 -1.203712886409446E-004
 -1.348568050077695E-004
 -1.454918420513030E-004
 -1.531227316979118E-004
 -1.584786886984318E-004
 -1.621518750160549E-004
 -1.646065423282548E-004
 -1.661979489417147E-004
 -1.671921229557669E-004
 -1.677829535454201E-004
 -1.681055953748394E-004
 -1.682461845377481E-004
 -4.246600775932630E-005
 -7.422167690067319E-005
 -9.644402640921227E-005
 -1.110735700134636E-004
 -1.201728904037868E-004
 -1.254423551946921E-004
 -1.281559249799349E-004
 -1.292255440796430E-004
 -1.292901017680625E-004
 -1.287926416326745E-004
 -1.280386034250659E-004
 -1.272371634635435E-004
 -1.265296661260691E-004
 -1.260087145949277E-004
 -1.257305577598060E-004
 -2.838854147139043E-005
 -5.202113648321142E-005
 -6.279173898320624E-005
 -6.589853426531179E-005
 -6.478401989173650E-005
 -6.153922585478201E-005
 -5.738762102841082E-005
 -5.303322007002300E-005
 -4.887608256769745E-005
 -4.513972210228851E-005
 -4.194556102107735E-005
 -3.935660175962711E-005
 -3.740326201206717E-005
 -3.609873760026684E-005
 -3.544804567195422E-005
  1.349892350248086E-005
  1.903261774876035E-005
  3.282104124770209E-005
  4.832809842940928E-005
  6.303467693741241E-005
  7.607580586502766E-005
  8.725458179057936E-005
  9.663527518690133E-005
  1.043729395501992E-004
  1.106415580455085E-004
  1.156039345506112E-004
  1.193995734756947E-004
  1.221403413024937E-004
  1.239093984420222E-004
  1.247613555522277E-004
SCALARS poroP double 
LOOKUP_TABLE default
  0.000000000000000E+000
  0.000000000000000E+000
  0.000000000000000E+000
  0.000000000000000E+000
  0.000000000000000E+000
  0.000000000000000E+000
  0.000000000000000E+000
  0.000000000000000E+000
  0.000000000000000E+000
  0.000000000000000E+000
  0.000000000000000E+000
  0.000000000000000E+000
  0.000000000000000E+000
  0.000000000000000E+000
  0.000000000000000E+000
  0.000000000000000E+000
  0.000000000000000E+000
  0.000000000000000E+000
  0.000000000000000E+000
  0.000000000000000E+000
  0.000000000000000E+000
  0.000000000000000E+000
  0.000000000000000E+000
  0.000000000000000E+000
  0.000000000000000E+000
  0.000000000000000E+000
  0.000000000000000E+000
  0.000000000000000E+000
  0.000000000000000E+000
  0.000000000000000E+000
  0.000000000000000E+000
  0.000000000000000E+000
  0.000000000000000E+000
  0.000000000000000E+000
  0.000000000000000E+000
  0.000000000000000E+000
  0.000000000000000E+000
  0.000000000000000E+000
  0.000000000000000E+000
  0.000000000000000E+000
  0.000000000000000E+000
  0.000000000000000E+000
  0.000000000000000E+000
  0.000000000000000E+000
  0.000000000000000E+000
  0.000000000000000E+000
  0.000000000000000E+000
  0.000000000000000E+000
  0.000000000000000E+000
  0.000000000000000E+000
  0.000000000000000E+000
  0.000000000000000E+000
  0.000000000000000E+000
  0.000000000000000E+000
  0.000000000000000E+000
  0.000000000000000E+000
  0.000000000000000E+000
  0.000000000000000E+000
  0.000000000000000E+000
  0.000000000000000E+000
  0.000000000000000E+000
  0.000000000000000E+000
  0.000000000000000E+000
  0.000000000000000E+000
  0.000000000000000E+000
  0.000000000000000E+000
  0.000000000000000E+000
  0.000000000000000E+000
  0.000000000000000E+000
  0.000000000000000E+000
  0.000000000000000E+000
  0.000000000000000E+000
  0.000000000000000E+000
  0.000000000000000E+000
  0.000000000000000E+000
  0.000000000000000E+000
  0.000000000000000E+000
  0.000000000000000E+000
  0.000000000000000E+000
  0.000000000000000E+000
  0.000000000000000E+000
  0.000000000000000E+000
  0.000000000000000E+000
  0.000000000000000E+000
  0.000000000000000E+000
  0.000000000000000E+000
  0.000000000000000E+000
  0.000000000000000E+000
  0.000000000000000E+000
  0.000000000000000E+000
  0.000000000000000E+000
  0.000000000000000E+000
  0.000000000000000E+000
  0.000000000000000E+000
  0.000000000000000E+000
  0.000000000000000E+000
  0.000000000000000E+000
  0.000000000000000E+000
  0.000000000000000E+000
  0.000000000000000E+000
  0.000000000000000E+000
  0.000000000000000E+000
  0.000000000000000E+000
  0.000000000000000E+000
  0.000000000000000E+000
  0.000000000000000E+000
  0.000000000000000E+000
  0.000000000000000E+000
  0.000000000000000E+000
  0.000000000000000E+000
  0.000000000000000E+000
  0.000000000000000E+000
  0.000000000000000E+000
  0.000000000000000E+000
  0.000000000000000E+000
  0.000000000000000E+000
  0.000000000000000E+000
  0.000000000000000E+000
  0.000000000000000E+000
  0.000000000000000E+000
  0.000000000000000E+000
  0.000000000000000E+000
  0.000000000000000E+000
  0.000000000000000E+000
  0.000000000000000E+000
  0.000000000000000E+000
  0.000000000000000E+000
  0.000000000000000E+000
  0.000000000000000E+000
  0.000000000000000E+000
  0.000000000000000E+000
  0.000000000000000E+000
  0.000000000000000E+000
  0.000000000000000E+000
  0.000000000000000E+000
  0.000000000000000E+000
  0.000000000000000E+000
  0.000000000000000E+000
  0.000000000000000E+000
  0.000000000000000E+000
  0.000000000000000E+000
  0.000000000000000E+000
  0.000000000000000E+000
  0.000000000000000E+000
  0.000000000000000E+000
  0.000000000000000E+000
  0.000000000000000E+000
  0.000000000000000E+000
  0.000000000000000E+000
  0.000000000000000E+000
  0.000000000000000E+000
  0.000000000000000E+000
  0.000000000000000E+000
  0.000000000000000E+000
  0.000000000000000E+000
  0.000000000000000E+000
  0.000000000000000E+000
  0.000000000000000E+000
  0.000000000000000E+000
  0.000000000000000E+000
  0.000000000000000E+000
  0.000000000000000E+000
  0.000000000000000E+000
  0.000000000000000E+000
  0.000000000000000E+000
  0.000000000000000E+000
  0.000000000000000E+000
  0.000000000000000E+000
  0.000000000000000E+000
  0.000000000000000E+000
  0.000000000000000E+000
  0.000000000000000E+000
  0.000000000000000E+000
  0.000000000000000E+000
  0.000000000000000E+000
  0.000000000000000E+000
  0.000000000000000E+000
  0.000000000000000E+000
  0.000000000000000E+000
  0.000000000000000E+000
  0.000000000000000E+000
  0.000000000000000E+000
  0.000000000000000E+000
  0.000000000000000E+000
  0.000000000000000E+000
  0.000000000000000E+000
  0.000000000000000E+000
  0.000000000000000E+000
  0.000000000000000E+000
  0.000000000000000E+000
  0.000000000000000E+000
  0.000000000000000E+000
  0.000000000000000E+000
  0.000000000000000E+000
  0.000000000000000E+000
  0.000000000000000E+000
  0.000000000000000E+000
  0.000000000000000E+000
  0.000000000000000E+000
  0.000000000000000E+000
  0.000000000000000E+000
  0.000000000000000E+000
  0.000000000000000E+000
  0.000000000000000E+000
  0.000000000000000E+000
  0.000000000000000E+000
  0.000000000000000E+000
  0.000000000000000E+000
  0.000000000000000E+000
  0.000000000000000E+000
  0.000000000000000E+000
  0.000000000000000E+000
  0.000000000000000E+000
  0.000000000000000E+000
  0.000000000000000E+000
  0.000000000000000E+000
  0.000000000000000E+000
  0.000000000000000E+000
  0.000000000000000E+000
  0.000000000000000E+000
  0.000000000000000E+000
  0.000000000000000E+000
  0.000000000000000E+000
  0.000000000000000E+000
  0.000000000000000E+000
  0.000000000000000E+000
  0.000000000000000E+000
  0.000000000000000E+000
  0.000000000000000E+000
  0.000000000000000E+000
  0.000000000000000E+000
  0.000000000000000E+000
  0.000000000000000E+000
  0.000000000000000E+000
  0.000000000000000E+000
  0.000000000000000E+000
  0.000000000000000E+000
  0.000000000000000E+000
  0.000000000000000E+000
  0.000000000000000E+000
  0.000000000000000E+000
  0.000000000000000E+000
  0.000000000000000E+000
  0.000000000000000E+000
  0.000000000000000E+000
  0.000000000000000E+000
  0.000000000000000E+000
  0.000000000000000E+000
  0.000000000000000E+000
  0.000000000000000E+000
  0.000000000000000E+000
  0.000000000000000E+000
  0.000000000000000E+000
  0.000000000000000E+000
  0.000000000000000E+000
  0.000000000000000E+000
  0.000000000000000E+000
  0.000000000000000E+000
  0.000000000000000E+000
  0.000000000000000E+000
  0.000000000000000E+000
  0.000000000000000E+000
  0.000000000000000E+000
  0.000000000000000E+000
  0.000000000000000E+000
  0.000000000000000E+000
  0.000000000000000E+000
  0.000000000000000E+000
  0.000000000000000E+000
  0.000000000000000E+000
  0.000000000000000E+000
  0.000000000000000E+000
  0.000000000000000E+000
  0.000000000000000E+000
  0.000000000000000E+000
  0.000000000000000E+000
  0.000000000000000E+000
  0.000000000000000E+000
  0.000000000000000E+000
  0.000000000000000E+000
  0.000000000000000E+000
  0.000000000000000E+000
  0.000000000000000E+000
  0.000000000000000E+000
  0.000000000000000E+000
  0.000000000000000E+000
  0.000000000000000E+000
  0.000000000000000E+000
  0.000000000000000E+000
  0.000000000000000E+000
  0.000000000000000E+000
  0.000000000000000E+000
  0.000000000000000E+000
  0.000000000000000E+000
  0.000000000000000E+000
  0.000000000000000E+000
  0.000000000000000E+000
  0.000000000000000E+000
  0.000000000000000E+000
  0.000000000000000E+000
  0.000000000000000E+000
  0.000000000000000E+000
  0.000000000000000E+000
  0.000000000000000E+000
  0.000000000000000E+000
  0.000000000000000E+000
  0.000000000000000E+000
  0.000000000000000E+000
  0.000000000000000E+000
  0.000000000000000E+000
  0.000000000000000E+000
  0.000000000000000E+000
  0.000000000000000E+000
  0.000000000000000E+000
  0.000000000000000E+000
  0.000000000000000E+000
  0.000000000000000E+000
  0.000000000000000E+000
  0.000000000000000E+000
  0.000000000000000E+000
  0.000000000000000E+000
  0.000000000000000E+000
  0.000000000000000E+000
  0.000000000000000E+000
  0.000000000000000E+000
  0.000000000000000E+000
  0.000000000000000E+000
  0.000000000000000E+000
  0.000000000000000E+000
  0.000000000000000E+000
  0.000000000000000E+000
  0.000000000000000E+000
  0.000000000000000E+000
  0.000000000000000E+000
  0.000000000000000E+000
  0.000000000000000E+000
  0.000000000000000E+000
  0.000000000000000E+000
  0.000000000000000E+000
  0.000000000000000E+000
  0.000000000000000E+000
  0.000000000000000E+000
  0.000000000000000E+000
  0.000000000000000E+000
  0.000000000000000E+000
  0.000000000000000E+000
  0.000000000000000E+000
  0.000000000000000E+000
  0.000000000000000E+000
  0.000000000000000E+000
  0.000000000000000E+000
  0.000000000000000E+000
  0.000000000000000E+000
  0.000000000000000E+000
  0.000000000000000E+000
  0.000000000000000E+000
  0.000000000000000E+000
  0.000000000000000E+000
  0.000000000000000E+000
  0.000000000000000E+000
  0.000000000000000E+000
  0.000000000000000E+000
  0.000000000000000E+000
  0.000000000000000E+000
  0.000000000000000E+000
  0.000000000000000E+000
  0.000000000000000E+000
  0.000000000000000E+000
  0.000000000000000E+000
  0.000000000000000E+000
  0.000000000000000E+000
  0.000000000000000E+000
  0.000000000000000E+000
  0.000000000000000E+000
  0.000000000000000E+000
  0.000000000000000E+000
  0.000000000000000E+000
  0.000000000000000E+000
  0.000000000000000E+000
  0.000000000000000E+000
  0.000000000000000E+000
  0.000000000000000E+000
  0.000000000000000E+000
  0.000000000000000E+000
  0.000000000000000E+000
  0.000000000000000E+000
  0.000000000000000E+000
  0.000000000000000E+000
  0.000000000000000E+000
  0.000000000000000E+000
  0.000000000000000E+000
  0.000000000000000E+000
  0.000000000000000E+000
  0.000000000000000E+000
  0.000000000000000E+000
  0.000000000000000E+000
  0.000000000000000E+000
  0.000000000000000E+000
  0.000000000000000E+000
  0.000000000000000E+000
  0.000000000000000E+000
  0.000000000000000E+000
  0.000000000000000E+000
  0.000000000000000E+000
  0.000000000000000E+000
  0.000000000000000E+000
  0.000000000000000E+000
  0.000000000000000E+000
  0.000000000000000E+000
  0.000000000000000E+000
  0.000000000000000E+000
  0.000000000000000E+000
  0.000000000000000E+000
  0.000000000000000E+000
  0.000000000000000E+000
  0.000000000000000E+000
  0.000000000000000E+000
  0.000000000000000E+000
  0.000000000000000E+000
  0.000000000000000E+000
  0.000000000000000E+000
  0.000000000000000E+000
  0.000000000000000E+000
  0.000000000000000E+000
  0.000000000000000E+000
  0.000000000000000E+000
  0.000000000000000E+000
  0.000000000000000E+000
  0.000000000000000E+000
  0.000000000000000E+000
  0.000000000000000E+000
  0.000000000000000E+000
  0.000000000000000E+000
  0.000000000000000E+000
  0.000000000000000E+000
  0.000000000000000E+000
  0.000000000000000E+000
  0.000000000000000E+000
  0.000000000000000E+000
  0.000000000000000E+000
  0.000000000000000E+000
  0.000000000000000E+000
  0.000000000000000E+000
  0.000000000000000E+000
  0.000000000000000E+000
  0.000000000000000E+000
  0.000000000000000E+000
  0.000000000000000E+000
  0.000000000000000E+000
  0.000000000000000E+000
  0.000000000000000E+000
  0.000000000000000E+000
  0.000000000000000E+000
  0.000000000000000E+000
  0.000000000000000E+000
  0.000000000000000E+000
  0.000000000000000E+000
  0.000000000000000E+000
  0.000000000000000E+000
  0.000000000000000E+000
  0.000000000000000E+000
  0.000000000000000E+000
  0.000000000000000E+000
  0.000000000000000E+000
  0.000000000000000E+000
  0.000000000000000E+000
  0.000000000000000E+000
  0.000000000000000E+000
  0.000000000000000E+000
  0.000000000000000E+000
  0.000000000000000E+000
  0.000000000000000E+000
  0.000000000000000E+000
  0.000000000000000E+000
  0.000000000000000E+000
  0.000000000000000E+000
  0.000000000000000E+000
  0.000000000000000E+000
  0.000000000000000E+000
  0.000000000000000E+000
  0.000000000000000E+000
  0.000000000000000E+000
  0.000000000000000E+000
  0.000000000000000E+000
  0.000000000000000E+000
  0.000000000000000E+000
  0.000000000000000E+000
  0.000000000000000E+000
  0.000000000000000E+000
  0.000000000000000E+000
  0.000000000000000E+000
  0.000000000000000E+000
  0.000000000000000E+000
  0.000000000000000E+000
  0.000000000000000E+000
  0.000000000000000E+000
  0.000000000000000E+000
  0.000000000000000E+000
  0.000000000000000E+000
  0.000000000000000E+000
  0.000000000000000E+000
  0.000000000000000E+000
  0.000000000000000E+000
  0.000000000000000E+000
  0.000000000000000E+000
  0.000000000000000E+000
  0.000000000000000E+000
  0.000000000000000E+000
  0.000000000000000E+000
  0.000000000000000E+000
  0.000000000000000E+000
  0.000000000000000E+000
  0.000000000000000E+000
  0.000000000000000E+000
  0.000000000000000E+000
  0.000000000000000E+000
  0.000000000000000E+000
  0.000000000000000E+000
  0.000000000000000E+000
  0.000000000000000E+000
  0.000000000000000E+000
  0.000000000000000E+000
  0.000000000000000E+000
  0.000000000000000E+000
  0.000000000000000E+000
  0.000000000000000E+000
  0.000000000000000E+000
  0.000000000000000E+000
  0.000000000000000E+000
  0.000000000000000E+000
  0.000000000000000E+000
  0.000000000000000E+000
  0.000000000000000E+000
  0.000000000000000E+000
  0.000000000000000E+000
  0.000000000000000E+000
  0.000000000000000E+000
  0.000000000000000E+000
  0.000000000000000E+000
  0.000000000000000E+000
  0.000000000000000E+000
  0.000000000000000E+000
  0.000000000000000E+000
  0.000000000000000E+000
  0.000000000000000E+000
  0.000000000000000E+000
  0.000000000000000E+000
  0.000000000000000E+000
  0.000000000000000E+000
  0.000000000000000E+000
  0.000000000000000E+000
  0.000000000000000E+000
  0.000000000000000E+000
  0.000000000000000E+000
  0.000000000000000E+000
  0.000000000000000E+000
  0.000000000000000E+000
  0.000000000000000E+000
  0.000000000000000E+000
  0.000000000000000E+000
  0.000000000000000E+000
  0.000000000000000E+000
  0.000000000000000E+000
  0.000000000000000E+000
  0.000000000000000E+000
  0.000000000000000E+000
  0.000000000000000E+000
  0.000000000000000E+000
  0.000000000000000E+000
  0.000000000000000E+000
  0.000000000000000E+000
  0.000000000000000E+000
  0.000000000000000E+000
  0.000000000000000E+000
  0.000000000000000E+000
  0.000000000000000E+000
  0.000000000000000E+000
  0.000000000000000E+000
  0.000000000000000E+000
  0.000000000000000E+000
  0.000000000000000E+000
  0.000000000000000E+000
  0.000000000000000E+000
  0.000000000000000E+000
  0.000000000000000E+000
  0.000000000000000E+000
  0.000000000000000E+000
  0.000000000000000E+000
  0.000000000000000E+000
  0.000000000000000E+000
  0.000000000000000E+000
  0.000000000000000E+000
  0.000000000000000E+000
  0.000000000000000E+000
  0.000000000000000E+000
  0.000000000000000E+000
  0.000000000000000E+000
  0.000000000000000E+000
  0.000000000000000E+000
  0.000000000000000E+000
  0.000000000000000E+000
  0.000000000000000E+000
  0.000000000000000E+000
  0.000000000000000E+000
  0.000000000000000E+000
  0.000000000000000E+000
  0.000000000000000E+000
  0.000000000000000E+000
  0.000000000000000E+000
  0.000000000000000E+000
  0.000000000000000E+000
  0.000000000000000E+000
  0.000000000000000E+000
  0.000000000000000E+000
  0.000000000000000E+000
  0.000000000000000E+000
  0.000000000000000E+000
  0.000000000000000E+000
  0.000000000000000E+000
  0.000000000000000E+000
  0.000000000000000E+000
  0.000000000000000E+000
  0.000000000000000E+000
  0.000000000000000E+000
  0.000000000000000E+000
  0.000000000000000E+000
  0.000000000000000E+000
  0.000000000000000E+000
  0.000000000000000E+000
  0.000000000000000E+000
  0.000000000000000E+000
  0.000000000000000E+000
  0.000000000000000E+000
  0.000000000000000E+000
  0.000000000000000E+000
  0.000000000000000E+000
  0.000000000000000E+000
  0.000000000000000E+000
  0.000000000000000E+000
  0.000000000000000E+000
  0.000000000000000E+000
  0.000000000000000E+000
  0.000000000000000E+000
  0.000000000000000E+000
  0.000000000000000E+000
  0.000000000000000E+000
  0.000000000000000E+000
  0.000000000000000E+000
  0.000000000000000E+000
  0.000000000000000E+000
  0.000000000000000E+000
  0.000000000000000E+000
  0.000000000000000E+000
  0.000000000000000E+000
  0.000000000000000E+000
  0.000000000000000E+000
  0.000000000000000E+000
  0.000000000000000E+000
  0.000000000000000E+000
  0.000000000000000E+000
  0.000000000000000E+000
  0.000000000000000E+000
  0.000000000000000E+000
  0.000000000000000E+000
  0.000000000000000E+000
  0.000000000000000E+000
  0.000000000000000E+000
  0.000000000000000E+000
  0.000000000000000E+000
  0.000000000000000E+000
  0.000000000000000E+000
  0.000000000000000E+000
  0.000000000000000E+000
  0.000000000000000E+000
  0.000000000000000E+000
  0.000000000000000E+000
  0.000000000000000E+000
  0.000000000000000E+000
  0.000000000000000E+000
  0.000000000000000E+000
  0.000000000000000E+000
  0.000000000000000E+000
  0.000000000000000E+000
  0.000000000000000E+000
  0.000000000000000E+000
  0.000000000000000E+000
  0.000000000000000E+000
  0.000000000000000E+000
  0.000000000000000E+000
  0.000000000000000E+000
  0.000000000000000E+000
  0.000000000000000E+000
  0.000000000000000E+000
  0.000000000000000E+000
  0.000000000000000E+000
  0.000000000000000E+000
  0.000000000000000E+000
  0.000000000000000E+000
  0.000000000000000E+000
  0.000000000000000E+000
  0.000000000000000E+000
  0.000000000000000E+000
  0.000000000000000E+000
  0.000000000000000E+000
  0.000000000000000E+000
  0.000000000000000E+000
  0.000000000000000E+000
  0.000000000000000E+000
  0.000000000000000E+000
  0.000000000000000E+000
  0.000000000000000E+000
  0.000000000000000E+000
  0.000000000000000E+000
  0.000000000000000E+000
  0.000000000000000E+000
  0.000000000000000E+000
  0.000000000000000E+000
  0.000000000000000E+000
  0.000000000000000E+000
  0.000000000000000E+000
  0.000000000000000E+000
  0.000000000000000E+000
  0.000000000000000E+000
  0.000000000000000E+000
  0.000000000000000E+000
  0.000000000000000E+000
  0.000000000000000E+000
  0.000000000000000E+000
  0.000000000000000E+000
  0.000000000000000E+000
  0.000000000000000E+000
  0.000000000000000E+000
  0.000000000000000E+000
  0.000000000000000E+000
  0.000000000000000E+000
  0.000000000000000E+000
  0.000000000000000E+000
  0.000000000000000E+000
  0.000000000000000E+000
  0.000000000000000E+000
  0.000000000000000E+000
  0.000000000000000E+000
  0.000000000000000E+000
  0.000000000000000E+000
  0.000000000000000E+000
  0.000000000000000E+000
  0.000000000000000E+000
  0.000000000000000E+000
  0.000000000000000E+000
  0.000000000000000E+000
  0.000000000000000E+000
  0.000000000000000E+000
  0.000000000000000E+000
  0.000000000000000E+000
  0.000000000000000E+000
  0.000000000000000E+000
  0.000000000000000E+000
  0.000000000000000E+000
  0.000000000000000E+000
  0.000000000000000E+000
  0.000000000000000E+000
  0.000000000000000E+000
  0.000000000000000E+000
  0.000000000000000E+000
  0.000000000000000E+000
  0.000000000000000E+000
  0.000000000000000E+000
  0.000000000000000E+000
  0.000000000000000E+000
  0.000000000000000E+000
  0.000000000000000E+000
  0.000000000000000E+000
  0.000000000000000E+000
  0.000000000000000E+000
  0.000000000000000E+000
  0.000000000000000E+000
  0.000000000000000E+000
  0.000000000000000E+000
  0.000000000000000E+000
  0.000000000000000E+000
  0.000000000000000E+000
  0.000000000000000E+000
  0.000000000000000E+000
  0.000000000000000E+000
  0.000000000000000E+000
  0.000000000000000E+000
  0.000000000000000E+000
  0.000000000000000E+000
  0.000000000000000E+000
  0.000000000000000E+000
  0.000000000000000E+000
  0.000000000000000E+000
  0.000000000000000E+000
  0.000000000000000E+000
  0.000000000000000E+000
  0.000000000000000E+000
  0.000000000000000E+000
  0.000000000000000E+000
  0.000000000000000E+000
  0.000000000000000E+000
  0.000000000000000E+000
  0.000000000000000E+000
  0.000000000000000E+000
  0.000000000000000E+000
  0.000000000000000E+000
  0.000000000000000E+000
  0.000000000000000E+000
  0.000000000000000E+000
  0.000000000000000E+000
  0.000000000000000E+000
  0.000000000000000E+000
  0.000000000000000E+000
  0.000000000000000E+000
  0.000000000000000E+000
  0.000000000000000E+000
  0.000000000000000E+000
  0.000000000000000E+000
  0.000000000000000E+000
  0.000000000000000E+000
  0.000000000000000E+000
  0.000000000000000E+000
  0.000000000000000E+000
  0.000000000000000E+000
  0.000000000000000E+000
  0.000000000000000E+000
  0.000000000000000E+000
  0.000000000000000E+000
  0.000000000000000E+000
  0.000000000000000E+000
  0.000000000000000E+000
  0.000000000000000E+000
  0.000000000000000E+000
  0.000000000000000E+000
  0.000000000000000E+000
  0.000000000000000E+000
  0.000000000000000E+000
  0.000000000000000E+000
  0.000000000000000E+000
  0.000000000000000E+000
  0.000000000000000E+000
  0.000000000000000E+000
  0.000000000000000E+000
  0.000000000000000E+000
  0.000000000000000E+000
  0.000000000000000E+000
  0.000000000000000E+000
  0.000000000000000E+000
  0.000000000000000E+000
  0.000000000000000E+000
  0.000000000000000E+000
  0.000000000000000E+000
  0.000000000000000E+000
  0.000000000000000E+000
  0.000000000000000E+000
  0.000000000000000E+000
  0.000000000000000E+000
  0.000000000000000E+000
  0.000000000000000E+000
  0.000000000000000E+000
  0.000000000000000E+000
  0.000000000000000E+000
  0.000000000000000E+000
  0.000000000000000E+000
  0.000000000000000E+000
  0.000000000000000E+000
  0.000000000000000E+000
  0.000000000000000E+000
  0.000000000000000E+000
  0.000000000000000E+000
  0.000000000000000E+000
  0.000000000000000E+000
  0.000000000000000E+000
  0.000000000000000E+000
  0.000000000000000E+000
  0.000000000000000E+000
  0.000000000000000E+000
  0.000000000000000E+000
  0.000000000000000E+000
  0.000000000000000E+000
  0.000000000000000E+000
  0.000000000000000E+000
  0.000000000000000E+000
  0.000000000000000E+000
  0.000000000000000E+000
  0.000000000000000E+000
  0.000000000000000E+000
  0.000000000000000E+000
  0.000000000000000E+000
  0.000000000000000E+000
  0.000000000000000E+000
  0.000000000000000E+000
  0.000000000000000E+000
  0.000000000000000E+000
  0.000000000000000E+000
  0.000000000000000E+000
  0.000000000000000E+000
  0.000000000000000E+000
  0.000000000000000E+000
  0.000000000000000E+000
  0.000000000000000E+000
  0.000000000000000E+000
  0.000000000000000E+000
  0.000000000000000E+000
  0.000000000000000E+000
  0.000000000000000E+000
  0.000000000000000E+000
  0.000000000000000E+000
  0.000000000000000E+000
  0.000000000000000E+000
  0.000000000000000E+000
  0.000000000000000E+000
  0.000000000000000E+000
  0.000000000000000E+000
  0.000000000000000E+000
  0.000000000000000E+000
  0.000000000000000E+000
  0.000000000000000E+000
  0.000000000000000E+000
  0.000000000000000E+000
  0.000000000000000E+000
  0.000000000000000E+000
  0.000000000000000E+000
  0.000000000000000E+000
  0.000000000000000E+000
  0.000000000000000E+000
  0.000000000000000E+000
  0.000000000000000E+000
  0.000000000000000E+000
  0.000000000000000E+000
  0.000000000000000E+000
  0.000000000000000E+000
  0.000000000000000E+000
  0.000000000000000E+000
  0.000000000000000E+000
  0.000000000000000E+000
  0.000000000000000E+000
  0.000000000000000E+000
  0.000000000000000E+000
  0.000000000000000E+000
  0.000000000000000E+000
  0.000000000000000E+000
  0.000000000000000E+000
  0.000000000000000E+000
  0.000000000000000E+000
  0.000000000000000E+000
  0.000000000000000E+000
  0.000000000000000E+000
  0.000000000000000E+000
  0.000000000000000E+000
  0.000000000000000E+000
  0.000000000000000E+000
  0.000000000000000E+000
  0.000000000000000E+000
  0.000000000000000E+000
  0.000000000000000E+000
  0.000000000000000E+000
  0.000000000000000E+000
  0.000000000000000E+000
  0.000000000000000E+000
  0.000000000000000E+000
  0.000000000000000E+000
  0.000000000000000E+000
  0.000000000000000E+000
  0.000000000000000E+000
  0.000000000000000E+000
  0.000000000000000E+000
  0.000000000000000E+000
  0.000000000000000E+000
  0.000000000000000E+000
  0.000000000000000E+000
  0.000000000000000E+000
  0.000000000000000E+000
  0.000000000000000E+000
  0.000000000000000E+000
  0.000000000000000E+000
  0.000000000000000E+000
  0.000000000000000E+000
  0.000000000000000E+000
  0.000000000000000E+000
  0.000000000000000E+000
  0.000000000000000E+000
  0.000000000000000E+000
  0.000000000000000E+000
  0.000000000000000E+000
  0.000000000000000E+000
  0.000000000000000E+000
  0.000000000000000E+000
  0.000000000000000E+000
  0.000000000000000E+000
  0.000000000000000E+000
  0.000000000000000E+000
  0.000000000000000E+000
  0.000000000000000E+000
  0.000000000000000E+000
  0.000000000000000E+000
  0.000000000000000E+000
  0.000000000000000E+000
  0.000000000000000E+000
  0.000000000000000E+000
  0.000000000000000E+000
  0.000000000000000E+000
  0.000000000000000E+000
  0.000000000000000E+000
  0.000000000000000E+000
  0.000000000000000E+000
  0.000000000000000E+000
  0.000000000000000E+000
  0.000000000000000E+000
  0.000000000000000E+000
  0.000000000000000E+000
  0.000000000000000E+000
  0.000000000000000E+000
  0.000000000000000E+000
  0.000000000000000E+000
  0.000000000000000E+000
  0.000000000000000E+000
  0.000000000000000E+000
  0.000000000000000E+000
  0.000000000000000E+000
  0.000000000000000E+000
  0.000000000000000E+000
  0.000000000000000E+000
  0.000000000000000E+000
  0.000000000000000E+000
  0.000000000000000E+000
  0.000000000000000E+000
  0.000000000000000E+000
  0.000000000000000E+000
  0.000000000000000E+000
  0.000000000000000E+000
  0.000000000000000E+000
  0.000000000000000E+000
  0.000000000000000E+000
  0.000000000000000E+000
  0.000000000000000E+000
  0.000000000000000E+000
  0.000000000000000E+000
  0.000000000000000E+000
  0.000000000000000E+000
  0.000000000000000E+000
  0.000000000000000E+000
  0.000000000000000E+000
  0.000000000000000E+000
  0.000000000000000E+000
  0.000000000000000E+000
  0.000000000000000E+000
  0.000000000000000E+000
  0.000000000000000E+000
  0.000000000000000E+000
  0.000000000000000E+000
  0.000000000000000E+000
  0.000000000000000E+000
  0.000000000000000E+000
  0.000000000000000E+000
  0.000000000000000E+000
  0.000000000000000E+000
  0.000000000000000E+000
  0.000000000000000E+000
  0.000000000000000E+000
  0.000000000000000E+000
  0.000000000000000E+000
  0.000000000000000E+000
  0.000000000000000E+000
  0.000000000000000E+000
  0.000000000000000E+000
  0.000000000000000E+000
  0.000000000000000E+000
  0.000000000000000E+000
  0.000000000000000E+000
  0.000000000000000E+000
  0.000000000000000E+000
  0.000000000000000E+000
  0.000000000000000E+000
  0.000000000000000E+000
  0.000000000000000E+000
  0.000000000000000E+000
  0.000000000000000E+000
  0.000000000000000E+000
  0.000000000000000E+000
  0.000000000000000E+000
  0.000000000000000E+000
  0.000000000000000E+000
  0.000000000000000E+000
  0.000000000000000E+000
  0.000000000000000E+000
  0.000000000000000E+000
  0.000000000000000E+000
  0.000000000000000E+000
  0.000000000000000E+000
  0.000000000000000E+000
  0.000000000000000E+000
  0.000000000000000E+000
  0.000000000000000E+000
  0.000000000000000E+000
  0.000000000000000E+000
  0.000000000000000E+000
  0.000000000000000E+000
  0.000000000000000E+000
  0.000000000000000E+000
  0.000000000000000E+000
  0.000000000000000E+000
  0.000000000000000E+000
  0.000000000000000E+000
  0.000000000000000E+000
  0.000000000000000E+000
  0.000000000000000E+000
  0.000000000000000E+000
  0.000000000000000E+000
  0.000000000000000E+000
  0.000000000000000E+000
  0.000000000000000E+000
  0.000000000000000E+000
  0.000000000000000E+000
  0.000000000000000E+000
  0.000000000000000E+000
  0.000000000000000E+000
  0.000000000000000E+000
  0.000000000000000E+000
  0.000000000000000E+000
  0.000000000000000E+000
  0.000000000000000E+000
  0.000000000000000E+000
  0.000000000000000E+000
  0.000000000000000E+000
  0.000000000000000E+000
  0.000000000000000E+000
  0.000000000000000E+000
  0.000000000000000E+000
  0.000000000000000E+000
  0.000000000000000E+000
  0.000000000000000E+000
  0.000000000000000E+000
  0.000000000000000E+000
  0.000000000000000E+000
  0.000000000000000E+000
  0.000000000000000E+000
  0.000000000000000E+000
  0.000000000000000E+000
  0.000000000000000E+000
  0.000000000000000E+000
  0.000000000000000E+000
  0.000000000000000E+000
  0.000000000000000E+000
  0.000000000000000E+000
  0.000000000000000E+000
  0.000000000000000E+000
  0.000000000000000E+000
  0.000000000000000E+000
  0.000000000000000E+000
  0.000000000000000E+000
  0.000000000000000E+000
  0.000000000000000E+000
  0.000000000000000E+000
  0.000000000000000E+000
  0.000000000000000E+000
  0.000000000000000E+000
  0.000000000000000E+000
  0.000000000000000E+000
  0.000000000000000E+000
  0.000000000000000E+000
  0.000000000000000E+000
  0.000000000000000E+000
  0.000000000000000E+000
  0.000000000000000E+000
  0.000000000000000E+000
  0.000000000000000E+000
  0.000000000000000E+000
  0.000000000000000E+000
  0.000000000000000E+000
  0.000000000000000E+000
  0.000000000000000E+000
  0.000000000000000E+000
  0.000000000000000E+000
  0.000000000000000E+000
  0.000000000000000E+000
  0.000000000000000E+000
  0.000000000000000E+000
  0.000000000000000E+000
  0.000000000000000E+000
  0.000000000000000E+000
  0.000000000000000E+000
  0.000000000000000E+000
  0.000000000000000E+000
  0.000000000000000E+000
  0.000000000000000E+000
  0.000000000000000E+000
  0.000000000000000E+000
  0.000000000000000E+000
  0.000000000000000E+000
  0.000000000000000E+000
  0.000000000000000E+000
  0.000000000000000E+000
  0.000000000000000E+000
  0.000000000000000E+000
  0.000000000000000E+000
  0.000000000000000E+000
  0.000000000000000E+000
  0.000000000000000E+000
  0.000000000000000E+000
  0.000000000000000E+000
  0.000000000000000E+000
  0.000000000000000E+000
  0.000000000000000E+000
  0.000000000000000E+000
  0.000000000000000E+000
  0.000000000000000E+000
  0.000000000000000E+000
  0.000000000000000E+000
  0.000000000000000E+000
  0.000000000000000E+000
  0.000000000000000E+000
  0.000000000000000E+000
  0.000000000000000E+000
  0.000000000000000E+000
  0.000000000000000E+000
  0.000000000000000E+000
  0.000000000000000E+000
  0.000000000000000E+000
  0.000000000000000E+000
  0.000000000000000E+000
  0.000000000000000E+000
  0.000000000000000E+000
  0.000000000000000E+000
  0.000000000000000E+000
  0.000000000000000E+000
  0.000000000000000E+000
  0.000000000000000E+000
  0.000000000000000E+000
  0.000000000000000E+000
  0.000000000000000E+000
  0.000000000000000E+000
  0.000000000000000E+000
  0.000000000000000E+000
  0.000000000000000E+000
  0.000000000000000E+000
  0.000000000000000E+000
  0.000000000000000E+000
  0.000000000000000E+000
  0.000000000000000E+000
  0.000000000000000E+000
  0.000000000000000E+000
  0.000000000000000E+000
  0.000000000000000E+000
  0.000000000000000E+000
  0.000000000000000E+000
  0.000000000000000E+000
  0.000000000000000E+000
  0.000000000000000E+000
  0.000000000000000E+000
  0.000000000000000E+000
  0.000000000000000E+000
  0.000000000000000E+000
  0.000000000000000E+000
  0.000000000000000E+000
  0.000000000000000E+000
  0.000000000000000E+000
  0.000000000000000E+000
  0.000000000000000E+000
  0.000000000000000E+000
  0.000000000000000E+000
  0.000000000000000E+000
  0.000000000000000E+000
  0.000000000000000E+000
  0.000000000000000E+000
  0.000000000000000E+000
  0.000000000000000E+000
  0.000000000000000E+000
  0.000000000000000E+000
  0.000000000000000E+000
  0.000000000000000E+000
  0.000000000000000E+000
  0.000000000000000E+000
  0.000000000000000E+000
  0.000000000000000E+000
  0.000000000000000E+000
  0.000000000000000E+000
  0.000000000000000E+000
  0.000000000000000E+000
  0.000000000000000E+000
  0.000000000000000E+000
  0.000000000000000E+000
  0.000000000000000E+000
  0.000000000000000E+000
  0.000000000000000E+000
  0.000000000000000E+000
  0.000000000000000E+000
  0.000000000000000E+000
  0.000000000000000E+000
  0.000000000000000E+000
  0.000000000000000E+000
  0.000000000000000E+000
  0.000000000000000E+000
  0.000000000000000E+000
  0.000000000000000E+000
  0.000000000000000E+000
  0.000000000000000E+000
  0.000000000000000E+000
  0.000000000000000E+000
  0.000000000000000E+000
  0.000000000000000E+000
  0.000000000000000E+000
  0.000000000000000E+000
  0.000000000000000E+000
  0.000000000000000E+000
  0.000000000000000E+000
  0.000000000000000E+000
  0.000000000000000E+000
  0.000000000000000E+000
  0.000000000000000E+000
  0.000000000000000E+000
  0.000000000000000E+000
  0.000000000000000E+000
  0.000000000000000E+000
  0.000000000000000E+000
  0.000000000000000E+000
  0.000000000000000E+000
  0.000000000000000E+000
  0.000000000000000E+000
  0.000000000000000E+000
  0.000000000000000E+000
  0.000000000000000E+000
  0.000000000000000E+000
  0.000000000000000E+000
  0.000000000000000E+000
  0.000000000000000E+000
  0.000000000000000E+000
  0.000000000000000E+000
  0.000000000000000E+000
  0.000000000000000E+000
  0.000000000000000E+000
  0.000000000000000E+000
  0.000000000000000E+000
  0.000000000000000E+000
  0.000000000000000E+000
  0.000000000000000E+000
  0.000000000000000E+000
  0.000000000000000E+000
  0.000000000000000E+000
  0.000000000000000E+000
  0.000000000000000E+000
  0.000000000000000E+000
  0.000000000000000E+000
  0.000000000000000E+000
  0.000000000000000E+000
  0.000000000000000E+000
  0.000000000000000E+000
  0.000000000000000E+000
  0.000000000000000E+000
  0.000000000000000E+000
  0.000000000000000E+000
SCALARS elementIsPlast double 
LOOKUP_TABLE default
  0.000000000000000E+000
  0.000000000000000E+000
  0.000000000000000E+000
  0.000000000000000E+000
  0.000000000000000E+000
  0.000000000000000E+000
  0.000000000000000E+000
  0.000000000000000E+000
  0.000000000000000E+000
  0.000000000000000E+000
  0.000000000000000E+000
  0.000000000000000E+000
  0.000000000000000E+000
  0.000000000000000E+000
  0.000000000000000E+000
  0.000000000000000E+000
  0.000000000000000E+000
  0.000000000000000E+000
  0.000000000000000E+000
  0.000000000000000E+000
  0.000000000000000E+000
  0.000000000000000E+000
  0.000000000000000E+000
  0.000000000000000E+000
  0.000000000000000E+000
  0.000000000000000E+000
  0.000000000000000E+000
  0.000000000000000E+000
  0.000000000000000E+000
  0.000000000000000E+000
  0.000000000000000E+000
  0.000000000000000E+000
  0.000000000000000E+000
  0.000000000000000E+000
  0.000000000000000E+000
  0.000000000000000E+000
  0.000000000000000E+000
  0.000000000000000E+000
  0.000000000000000E+000
  0.000000000000000E+000
  0.000000000000000E+000
  0.000000000000000E+000
  0.000000000000000E+000
  0.000000000000000E+000
  0.000000000000000E+000
  0.000000000000000E+000
  0.000000000000000E+000
  0.000000000000000E+000
  0.000000000000000E+000
  0.000000000000000E+000
  0.000000000000000E+000
  0.000000000000000E+000
  0.000000000000000E+000
  0.000000000000000E+000
  0.000000000000000E+000
  0.000000000000000E+000
  0.000000000000000E+000
  0.000000000000000E+000
  0.000000000000000E+000
  0.000000000000000E+000
  0.000000000000000E+000
  0.000000000000000E+000
  0.000000000000000E+000
  0.000000000000000E+000
  0.000000000000000E+000
  0.000000000000000E+000
  0.000000000000000E+000
  0.000000000000000E+000
  0.000000000000000E+000
  0.000000000000000E+000
  0.000000000000000E+000
  0.000000000000000E+000
  0.000000000000000E+000
  0.000000000000000E+000
  0.000000000000000E+000
  0.000000000000000E+000
  0.000000000000000E+000
  0.000000000000000E+000
  0.000000000000000E+000
  0.000000000000000E+000
  0.000000000000000E+000
  0.000000000000000E+000
  0.000000000000000E+000
  0.000000000000000E+000
  0.000000000000000E+000
  0.000000000000000E+000
  0.000000000000000E+000
  0.000000000000000E+000
  0.000000000000000E+000
  0.000000000000000E+000
  0.000000000000000E+000
  0.000000000000000E+000
  0.000000000000000E+000
  0.000000000000000E+000
  0.000000000000000E+000
  0.000000000000000E+000
  0.000000000000000E+000
  0.000000000000000E+000
  0.000000000000000E+000
  0.000000000000000E+000
  0.000000000000000E+000
  0.000000000000000E+000
  0.000000000000000E+000
  0.000000000000000E+000
  0.000000000000000E+000
  0.000000000000000E+000
  0.000000000000000E+000
  0.000000000000000E+000
  0.000000000000000E+000
  0.000000000000000E+000
  0.000000000000000E+000
  0.000000000000000E+000
  0.000000000000000E+000
  0.000000000000000E+000
  0.000000000000000E+000
  0.000000000000000E+000
  0.000000000000000E+000
  0.000000000000000E+000
  0.000000000000000E+000
  0.000000000000000E+000
  0.000000000000000E+000
  0.000000000000000E+000
  0.000000000000000E+000
  0.000000000000000E+000
  0.000000000000000E+000
  0.000000000000000E+000
  0.000000000000000E+000
  0.000000000000000E+000
  0.000000000000000E+000
  0.000000000000000E+000
  0.000000000000000E+000
  0.000000000000000E+000
  0.000000000000000E+000
  0.000000000000000E+000
  0.000000000000000E+000
  0.000000000000000E+000
  0.000000000000000E+000
  0.000000000000000E+000
  0.000000000000000E+000
  0.000000000000000E+000
  0.000000000000000E+000
  0.000000000000000E+000
  0.000000000000000E+000
  0.000000000000000E+000
  0.000000000000000E+000
  0.000000000000000E+000
  0.000000000000000E+000
  0.000000000000000E+000
  0.000000000000000E+000
  0.000000000000000E+000
  0.000000000000000E+000
  0.000000000000000E+000
  0.000000000000000E+000
  0.000000000000000E+000
  0.000000000000000E+000
  0.000000000000000E+000
  0.000000000000000E+000
  0.000000000000000E+000
  0.000000000000000E+000
  0.000000000000000E+000
  0.000000000000000E+000
  0.000000000000000E+000
  0.000000000000000E+000
  0.000000000000000E+000
  0.000000000000000E+000
  0.000000000000000E+000
  0.000000000000000E+000
  0.000000000000000E+000
  0.000000000000000E+000
  0.000000000000000E+000
  0.000000000000000E+000
  0.000000000000000E+000
  0.000000000000000E+000
  0.000000000000000E+000
  0.000000000000000E+000
  0.000000000000000E+000
  0.000000000000000E+000
  0.000000000000000E+000
  0.000000000000000E+000
  0.000000000000000E+000
  0.000000000000000E+000
  0.000000000000000E+000
  0.000000000000000E+000
  0.000000000000000E+000
  0.000000000000000E+000
  0.000000000000000E+000
  0.000000000000000E+000
  0.000000000000000E+000
  0.000000000000000E+000
  0.000000000000000E+000
  0.000000000000000E+000
  0.000000000000000E+000
  0.000000000000000E+000
  0.000000000000000E+000
  0.000000000000000E+000
  0.000000000000000E+000
  0.000000000000000E+000
  0.000000000000000E+000
  0.000000000000000E+000
  0.000000000000000E+000
  0.000000000000000E+000
  0.000000000000000E+000
  0.000000000000000E+000
  0.000000000000000E+000
  0.000000000000000E+000
  0.000000000000000E+000
  0.000000000000000E+000
  0.000000000000000E+000
  0.000000000000000E+000
  0.000000000000000E+000
  0.000000000000000E+000
  0.000000000000000E+000
  0.000000000000000E+000
  0.000000000000000E+000
  0.000000000000000E+000
  0.000000000000000E+000
  0.000000000000000E+000
  0.000000000000000E+000
  0.000000000000000E+000
  0.000000000000000E+000
  0.000000000000000E+000
  0.000000000000000E+000
  0.000000000000000E+000
  0.000000000000000E+000
  0.000000000000000E+000
  0.000000000000000E+000
  0.000000000000000E+000
  0.000000000000000E+000
  0.000000000000000E+000
  0.000000000000000E+000
  0.000000000000000E+000
  0.000000000000000E+000
  0.000000000000000E+000
  0.000000000000000E+000
  0.000000000000000E+000
  0.000000000000000E+000
  0.000000000000000E+000
  0.000000000000000E+000
  0.000000000000000E+000
  0.000000000000000E+000
  0.000000000000000E+000
  0.000000000000000E+000
  0.000000000000000E+000
  0.000000000000000E+000
  0.000000000000000E+000
  0.000000000000000E+000
  0.000000000000000E+000
  0.000000000000000E+000
  0.000000000000000E+000
  0.000000000000000E+000
  0.000000000000000E+000
  0.000000000000000E+000
  0.000000000000000E+000
  0.000000000000000E+000
  0.000000000000000E+000
  0.000000000000000E+000
  0.000000000000000E+000
  0.000000000000000E+000
  0.000000000000000E+000
  0.000000000000000E+000
  0.000000000000000E+000
  0.000000000000000E+000
  0.000000000000000E+000
  0.000000000000000E+000
  0.000000000000000E+000
  0.000000000000000E+000
  0.000000000000000E+000
  0.000000000000000E+000
  0.000000000000000E+000
  0.000000000000000E+000
  0.000000000000000E+000
  0.000000000000000E+000
  0.000000000000000E+000
  0.000000000000000E+000
  0.000000000000000E+000
  0.000000000000000E+000
  0.000000000000000E+000
  0.000000000000000E+000
  0.000000000000000E+000
  0.000000000000000E+000
  0.000000000000000E+000
  0.000000000000000E+000
  0.000000000000000E+000
  0.000000000000000E+000
  0.000000000000000E+000
  0.000000000000000E+000
  0.000000000000000E+000
  0.000000000000000E+000
  0.000000000000000E+000
  0.000000000000000E+000
  0.000000000000000E+000
  0.000000000000000E+000
  0.000000000000000E+000
  0.000000000000000E+000
  0.000000000000000E+000
  0.000000000000000E+000
  0.000000000000000E+000
  0.000000000000000E+000
  0.000000000000000E+000
  0.000000000000000E+000
  0.000000000000000E+000
  0.000000000000000E+000
  0.000000000000000E+000
  0.000000000000000E+000
  0.000000000000000E+000
  0.000000000000000E+000
  0.000000000000000E+000
  0.000000000000000E+000
  0.000000000000000E+000
  0.000000000000000E+000
  0.000000000000000E+000
  0.000000000000000E+000
  0.000000000000000E+000
  0.000000000000000E+000
  0.000000000000000E+000
  0.000000000000000E+000
  0.000000000000000E+000
  0.000000000000000E+000
  0.000000000000000E+000
  0.000000000000000E+000
  0.000000000000000E+000
  0.000000000000000E+000
  0.000000000000000E+000
  0.000000000000000E+000
  0.000000000000000E+000
  0.000000000000000E+000
  0.000000000000000E+000
  0.000000000000000E+000
  0.000000000000000E+000
  0.000000000000000E+000
  0.000000000000000E+000
  0.000000000000000E+000
  0.000000000000000E+000
  0.000000000000000E+000
  0.000000000000000E+000
  0.000000000000000E+000
  0.000000000000000E+000
  0.000000000000000E+000
  0.000000000000000E+000
  0.000000000000000E+000
  0.000000000000000E+000
  0.000000000000000E+000
  0.000000000000000E+000
  0.000000000000000E+000
  0.000000000000000E+000
  0.000000000000000E+000
  0.000000000000000E+000
  0.000000000000000E+000
  0.000000000000000E+000
  0.000000000000000E+000
  0.000000000000000E+000
  0.000000000000000E+000
  0.000000000000000E+000
  0.000000000000000E+000
  0.000000000000000E+000
  0.000000000000000E+000
  0.000000000000000E+000
  0.000000000000000E+000
  0.000000000000000E+000
  0.000000000000000E+000
  0.000000000000000E+000
  0.000000000000000E+000
  0.000000000000000E+000
  0.000000000000000E+000
  0.000000000000000E+000
  0.000000000000000E+000
  0.000000000000000E+000
  0.000000000000000E+000
  0.000000000000000E+000
  0.000000000000000E+000
  0.000000000000000E+000
  0.000000000000000E+000
  0.000000000000000E+000
  0.000000000000000E+000
  0.000000000000000E+000
  0.000000000000000E+000
  0.000000000000000E+000
  0.000000000000000E+000
  0.000000000000000E+000
  0.000000000000000E+000
  0.000000000000000E+000
  0.000000000000000E+000
  0.000000000000000E+000
  0.000000000000000E+000
  0.000000000000000E+000
  0.000000000000000E+000
  0.000000000000000E+000
  0.000000000000000E+000
  0.000000000000000E+000
  0.000000000000000E+000
  0.000000000000000E+000
  0.000000000000000E+000
  0.000000000000000E+000
  0.000000000000000E+000
  0.000000000000000E+000
  0.000000000000000E+000
  0.000000000000000E+000
  0.000000000000000E+000
  0.000000000000000E+000
  0.000000000000000E+000
  0.000000000000000E+000
  0.000000000000000E+000
  0.000000000000000E+000
  0.000000000000000E+000
  0.000000000000000E+000
  0.000000000000000E+000
  0.000000000000000E+000
  0.000000000000000E+000
  0.000000000000000E+000
  0.000000000000000E+000
  0.000000000000000E+000
  0.000000000000000E+000
  0.000000000000000E+000
  0.000000000000000E+000
  0.000000000000000E+000
  0.000000000000000E+000
  0.000000000000000E+000
  0.000000000000000E+000
  0.000000000000000E+000
  0.000000000000000E+000
  0.000000000000000E+000
  0.000000000000000E+000
  0.000000000000000E+000
  0.000000000000000E+000
  0.000000000000000E+000
  0.000000000000000E+000
  0.000000000000000E+000
  0.000000000000000E+000
  0.000000000000000E+000
  0.000000000000000E+000
  0.000000000000000E+000
  0.000000000000000E+000
  0.000000000000000E+000
  0.000000000000000E+000
  0.000000000000000E+000
  0.000000000000000E+000
  0.000000000000000E+000
  0.000000000000000E+000
  0.000000000000000E+000
  0.000000000000000E+000
  0.000000000000000E+000
  0.000000000000000E+000
  0.000000000000000E+000
  0.000000000000000E+000
  0.000000000000000E+000
  0.000000000000000E+000
  0.000000000000000E+000
  0.000000000000000E+000
  0.000000000000000E+000
  0.000000000000000E+000
  0.000000000000000E+000
  0.000000000000000E+000
  0.000000000000000E+000
  0.000000000000000E+000
  0.000000000000000E+000
  0.000000000000000E+000
  0.000000000000000E+000
  0.000000000000000E+000
  0.000000000000000E+000
  0.000000000000000E+000
  0.000000000000000E+000
  0.000000000000000E+000
  0.000000000000000E+000
  0.000000000000000E+000
  0.000000000000000E+000
  0.000000000000000E+000
  0.000000000000000E+000
  0.000000000000000E+000
  0.000000000000000E+000
  0.000000000000000E+000
  0.000000000000000E+000
  0.000000000000000E+000
  0.000000000000000E+000
  0.000000000000000E+000
  0.000000000000000E+000
  0.000000000000000E+000
  0.000000000000000E+000
  0.000000000000000E+000
  0.000000000000000E+000
  0.000000000000000E+000
  0.000000000000000E+000
  0.000000000000000E+000
  0.000000000000000E+000
  0.000000000000000E+000
  0.000000000000000E+000
  0.000000000000000E+000
  0.000000000000000E+000
  0.000000000000000E+000
  0.000000000000000E+000
  0.000000000000000E+000
  0.000000000000000E+000
  0.000000000000000E+000
  0.000000000000000E+000
  0.000000000000000E+000
  0.000000000000000E+000
  0.000000000000000E+000
  0.000000000000000E+000
  0.000000000000000E+000
  0.000000000000000E+000
  0.000000000000000E+000
  0.000000000000000E+000
  0.000000000000000E+000
  0.000000000000000E+000
  0.000000000000000E+000
  0.000000000000000E+000
  0.000000000000000E+000
  0.000000000000000E+000
  0.000000000000000E+000
  0.000000000000000E+000
  0.000000000000000E+000
  0.000000000000000E+000
  0.000000000000000E+000
  0.000000000000000E+000
  0.000000000000000E+000
  0.000000000000000E+000
  0.000000000000000E+000
  0.000000000000000E+000
  0.000000000000000E+000
  0.000000000000000E+000
  0.000000000000000E+000
  0.000000000000000E+000
  0.000000000000000E+000
  0.000000000000000E+000
  0.000000000000000E+000
  0.000000000000000E+000
  0.000000000000000E+000
  0.000000000000000E+000
  0.000000000000000E+000
  0.000000000000000E+000
  0.000000000000000E+000
  0.000000000000000E+000
  0.000000000000000E+000
  0.000000000000000E+000
  0.000000000000000E+000
  0.000000000000000E+000
  0.000000000000000E+000
  0.000000000000000E+000
  0.000000000000000E+000
  0.000000000000000E+000
  0.000000000000000E+000
  0.000000000000000E+000
  0.000000000000000E+000
  0.000000000000000E+000
  0.000000000000000E+000
  0.000000000000000E+000
  0.000000000000000E+000
  0.000000000000000E+000
  0.000000000000000E+000
  0.000000000000000E+000
  0.000000000000000E+000
  0.000000000000000E+000
  0.000000000000000E+000
  0.000000000000000E+000
  0.000000000000000E+000
  0.000000000000000E+000
  0.000000000000000E+000
  0.000000000000000E+000
  0.000000000000000E+000
  0.000000000000000E+000
  0.000000000000000E+000
  0.000000000000000E+000
  0.000000000000000E+000
  0.000000000000000E+000
  0.000000000000000E+000
  0.000000000000000E+000
  0.000000000000000E+000
  0.000000000000000E+000
  0.000000000000000E+000
  0.000000000000000E+000
  0.000000000000000E+000
  0.000000000000000E+000
  0.000000000000000E+000
  0.000000000000000E+000
  0.000000000000000E+000
  0.000000000000000E+000
  0.000000000000000E+000
  0.000000000000000E+000
  0.000000000000000E+000
  0.000000000000000E+000
  0.000000000000000E+000
  0.000000000000000E+000
  0.000000000000000E+000
  0.000000000000000E+000
  0.000000000000000E+000
  0.000000000000000E+000
  0.000000000000000E+000
  0.000000000000000E+000
  0.000000000000000E+000
  0.000000000000000E+000
  0.000000000000000E+000
  0.000000000000000E+000
  0.000000000000000E+000
  0.000000000000000E+000
  0.000000000000000E+000
  0.000000000000000E+000
  0.000000000000000E+000
  0.000000000000000E+000
  0.000000000000000E+000
  0.000000000000000E+000
  0.000000000000000E+000
  0.000000000000000E+000
  0.000000000000000E+000
  0.000000000000000E+000
  0.000000000000000E+000
  0.000000000000000E+000
  0.000000000000000E+000
  0.000000000000000E+000
  0.000000000000000E+000
  0.000000000000000E+000
  0.000000000000000E+000
  0.000000000000000E+000
  0.000000000000000E+000
  0.000000000000000E+000
  0.000000000000000E+000
  0.000000000000000E+000
  0.000000000000000E+000
  0.000000000000000E+000
  0.000000000000000E+000
  0.000000000000000E+000
  0.000000000000000E+000
  0.000000000000000E+000
  0.000000000000000E+000
  0.000000000000000E+000
  0.000000000000000E+000
  0.000000000000000E+000
  0.000000000000000E+000
  0.000000000000000E+000
  0.000000000000000E+000
  0.000000000000000E+000
  0.000000000000000E+000
  0.000000000000000E+000
  0.000000000000000E+000
  0.000000000000000E+000
  0.000000000000000E+000
  0.000000000000000E+000
  0.000000000000000E+000
  0.000000000000000E+000
  0.000000000000000E+000
  0.000000000000000E+000
  0.000000000000000E+000
  0.000000000000000E+000
  0.000000000000000E+000
  0.000000000000000E+000
  0.000000000000000E+000
  0.000000000000000E+000
  0.000000000000000E+000
  0.000000000000000E+000
  0.000000000000000E+000
  0.000000000000000E+000
  0.000000000000000E+000
  0.000000000000000E+000
  0.000000000000000E+000
  0.000000000000000E+000
  0.000000000000000E+000
  0.000000000000000E+000
  0.000000000000000E+000
  0.000000000000000E+000
  0.000000000000000E+000
  0.000000000000000E+000
  0.000000000000000E+000
  0.000000000000000E+000
  0.000000000000000E+000
  0.000000000000000E+000
  0.000000000000000E+000
  0.000000000000000E+000
  0.000000000000000E+000
  0.000000000000000E+000
  0.000000000000000E+000
  0.000000000000000E+000
  0.000000000000000E+000
  0.000000000000000E+000
  0.000000000000000E+000
  0.000000000000000E+000
  0.000000000000000E+000
  0.000000000000000E+000
  0.000000000000000E+000
  0.000000000000000E+000
  0.000000000000000E+000
  0.000000000000000E+000
  0.000000000000000E+000
  0.000000000000000E+000
  0.000000000000000E+000
  0.000000000000000E+000
  0.000000000000000E+000
  0.000000000000000E+000
  0.000000000000000E+000
  0.000000000000000E+000
  0.000000000000000E+000
  0.000000000000000E+000
  0.000000000000000E+000
  0.000000000000000E+000
  0.000000000000000E+000
  0.000000000000000E+000
  0.000000000000000E+000
  0.000000000000000E+000
  0.000000000000000E+000
  0.000000000000000E+000
  0.000000000000000E+000
  0.000000000000000E+000
  0.000000000000000E+000
  0.000000000000000E+000
  0.000000000000000E+000
  0.000000000000000E+000
  0.000000000000000E+000
  0.000000000000000E+000
  0.000000000000000E+000
  0.000000000000000E+000
  0.000000000000000E+000
  0.000000000000000E+000
  0.000000000000000E+000
  0.000000000000000E+000
  0.000000000000000E+000
  0.000000000000000E+000
  0.000000000000000E+000
  0.000000000000000E+000
  0.000000000000000E+000
  0.000000000000000E+000
  0.000000000000000E+000
  0.000000000000000E+000
  0.000000000000000E+000
  0.000000000000000E+000
  0.000000000000000E+000
  0.000000000000000E+000
  0.000000000000000E+000
  0.000000000000000E+000
  0.000000000000000E+000
  0.000000000000000E+000
  0.000000000000000E+000
  0.000000000000000E+000
  0.000000000000000E+000
  0.000000000000000E+000
  0.000000000000000E+000
  0.000000000000000E+000
  0.000000000000000E+000
  0.000000000000000E+000
  0.000000000000000E+000
  0.000000000000000E+000
  0.000000000000000E+000
  0.000000000000000E+000
  0.000000000000000E+000
  0.000000000000000E+000
  0.000000000000000E+000
  0.000000000000000E+000
  0.000000000000000E+000
  0.000000000000000E+000
  0.000000000000000E+000
  0.000000000000000E+000
  0.000000000000000E+000
  0.000000000000000E+000
  0.000000000000000E+000
  0.000000000000000E+000
  0.000000000000000E+000
  0.000000000000000E+000
  0.000000000000000E+000
  0.000000000000000E+000
  0.000000000000000E+000
  0.000000000000000E+000
  0.000000000000000E+000
  0.000000000000000E+000
  0.000000000000000E+000
  0.000000000000000E+000
  0.000000000000000E+000
  0.000000000000000E+000
  0.000000000000000E+000
  0.000000000000000E+000
  0.000000000000000E+000
  0.000000000000000E+000
  0.000000000000000E+000
  0.000000000000000E+000
  0.000000000000000E+000
  0.000000000000000E+000
  0.000000000000000E+000
  0.000000000000000E+000
  0.000000000000000E+000
  0.000000000000000E+000
  0.000000000000000E+000
  0.000000000000000E+000
  0.000000000000000E+000
  0.000000000000000E+000
  0.000000000000000E+000
  0.000000000000000E+000
  0.000000000000000E+000
  0.000000000000000E+000
  0.000000000000000E+000
  0.000000000000000E+000
  0.000000000000000E+000
  0.000000000000000E+000
  0.000000000000000E+000
  0.000000000000000E+000
  0.000000000000000E+000
  0.000000000000000E+000
  0.000000000000000E+000
  0.000000000000000E+000
  0.000000000000000E+000
  0.000000000000000E+000
  0.000000000000000E+000
  0.000000000000000E+000
  0.000000000000000E+000
  0.000000000000000E+000
  0.000000000000000E+000
  0.000000000000000E+000
  0.000000000000000E+000
  0.000000000000000E+000
  0.000000000000000E+000
  0.000000000000000E+000
  0.000000000000000E+000
  0.000000000000000E+000
  0.000000000000000E+000
  0.000000000000000E+000
  0.000000000000000E+000
  0.000000000000000E+000
  0.000000000000000E+000
  0.000000000000000E+000
  0.000000000000000E+000
  0.000000000000000E+000
  0.000000000000000E+000
  0.000000000000000E+000
  0.000000000000000E+000
  0.000000000000000E+000
  0.000000000000000E+000
  0.000000000000000E+000
  0.000000000000000E+000
  0.000000000000000E+000
  0.000000000000000E+000
  0.000000000000000E+000
  0.000000000000000E+000
  0.000000000000000E+000
  0.000000000000000E+000
  0.000000000000000E+000
  0.000000000000000E+000
  0.000000000000000E+000
  0.000000000000000E+000
  0.000000000000000E+000
  0.000000000000000E+000
  0.000000000000000E+000
  0.000000000000000E+000
  0.000000000000000E+000
  0.000000000000000E+000
  0.000000000000000E+000
  0.000000000000000E+000
  0.000000000000000E+000
  0.000000000000000E+000
  0.000000000000000E+000
  0.000000000000000E+000
  0.000000000000000E+000
  0.000000000000000E+000
  0.000000000000000E+000
  0.000000000000000E+000
  0.000000000000000E+000
  0.000000000000000E+000
  0.000000000000000E+000
  0.000000000000000E+000
  0.000000000000000E+000
  0.000000000000000E+000
  0.000000000000000E+000
  0.000000000000000E+000
  0.000000000000000E+000
  0.000000000000000E+000
  0.000000000000000E+000
  0.000000000000000E+000
  0.000000000000000E+000
  0.000000000000000E+000
  0.000000000000000E+000
  0.000000000000000E+000
  0.000000000000000E+000
  0.000000000000000E+000
  0.000000000000000E+000
  0.000000000000000E+000
  0.000000000000000E+000
  0.000000000000000E+000
  0.000000000000000E+000
  0.000000000000000E+000
  0.000000000000000E+000
  0.000000000000000E+000
  0.000000000000000E+000
  0.000000000000000E+000
  0.000000000000000E+000
  0.000000000000000E+000
  0.000000000000000E+000
  0.000000000000000E+000
  0.000000000000000E+000
  0.000000000000000E+000
  0.000000000000000E+000
  0.000000000000000E+000
  0.000000000000000E+000
  0.000000000000000E+000
  0.000000000000000E+000
  0.000000000000000E+000
  0.000000000000000E+000
  0.000000000000000E+000
  0.000000000000000E+000
  0.000000000000000E+000
  0.000000000000000E+000
  0.000000000000000E+000
  0.000000000000000E+000
  0.000000000000000E+000
  0.000000000000000E+000
  0.000000000000000E+000
  0.000000000000000E+000
  0.000000000000000E+000
  0.000000000000000E+000
  0.000000000000000E+000
  0.000000000000000E+000
  0.000000000000000E+000
  0.000000000000000E+000
  0.000000000000000E+000
  0.000000000000000E+000
  0.000000000000000E+000
  0.000000000000000E+000
  0.000000000000000E+000
  0.000000000000000E+000
  0.000000000000000E+000
  0.000000000000000E+000
  0.000000000000000E+000
  0.000000000000000E+000
  0.000000000000000E+000
  0.000000000000000E+000
  0.000000000000000E+000
  0.000000000000000E+000
  0.000000000000000E+000
  0.000000000000000E+000
  0.000000000000000E+000
  0.000000000000000E+000
  0.000000000000000E+000
  0.000000000000000E+000
  0.000000000000000E+000
  0.000000000000000E+000
  0.000000000000000E+000
  0.000000000000000E+000
  0.000000000000000E+000
  0.000000000000000E+000
  0.000000000000000E+000
  0.000000000000000E+000
  0.000000000000000E+000
  0.000000000000000E+000
  0.000000000000000E+000
  0.000000000000000E+000
  0.000000000000000E+000
  0.000000000000000E+000
  0.000000000000000E+000
  0.000000000000000E+000
  0.000000000000000E+000
  0.000000000000000E+000
  0.000000000000000E+000
  0.000000000000000E+000
  0.000000000000000E+000
  0.000000000000000E+000
  0.000000000000000E+000
  0.000000000000000E+000
  0.000000000000000E+000
  0.000000000000000E+000
  0.000000000000000E+000
  0.000000000000000E+000
  0.000000000000000E+000
  0.000000000000000E+000
  0.000000000000000E+000
  0.000000000000000E+000
  0.000000000000000E+000
  0.000000000000000E+000
  0.000000000000000E+000
  0.000000000000000E+000
  0.000000000000000E+000
  0.000000000000000E+000
  0.000000000000000E+000
  0.000000000000000E+000
  0.000000000000000E+000
  0.000000000000000E+000
  0.000000000000000E+000
  0.000000000000000E+000
  0.000000000000000E+000
  0.000000000000000E+000
  0.000000000000000E+000
  0.000000000000000E+000
  0.000000000000000E+000
  0.000000000000000E+000
  0.000000000000000E+000
  0.000000000000000E+000
  0.000000000000000E+000
  0.000000000000000E+000
  0.000000000000000E+000
  0.000000000000000E+000
  0.000000000000000E+000
  0.000000000000000E+000
  0.000000000000000E+000
  0.000000000000000E+000
  0.000000000000000E+000
  0.000000000000000E+000
  0.000000000000000E+000
  0.000000000000000E+000
  0.000000000000000E+000
  0.000000000000000E+000
  0.000000000000000E+000
  0.000000000000000E+000
  0.000000000000000E+000
  0.000000000000000E+000
  0.000000000000000E+000
  0.000000000000000E+000
  0.000000000000000E+000
  0.000000000000000E+000
  0.000000000000000E+000
  0.000000000000000E+000
  0.000000000000000E+000
  0.000000000000000E+000
  0.000000000000000E+000
  0.000000000000000E+000
  0.000000000000000E+000
  0.000000000000000E+000
  0.000000000000000E+000
  0.000000000000000E+000
  0.000000000000000E+000
  0.000000000000000E+000
  0.000000000000000E+000
  0.000000000000000E+000
  0.000000000000000E+000
  0.000000000000000E+000
  0.000000000000000E+000
  0.000000000000000E+000
  0.000000000000000E+000
  0.000000000000000E+000
  0.000000000000000E+000
  0.000000000000000E+000
  0.000000000000000E+000
  0.000000000000000E+000
  0.000000000000000E+000
  0.000000000000000E+000
  0.000000000000000E+000
  0.000000000000000E+000
  0.000000000000000E+000
  0.000000000000000E+000
  0.000000000000000E+000
  0.000000000000000E+000
  0.000000000000000E+000
  0.000000000000000E+000
  0.000000000000000E+000
  0.000000000000000E+000
  0.000000000000000E+000
  0.000000000000000E+000
  0.000000000000000E+000
  0.000000000000000E+000
  0.000000000000000E+000
  0.000000000000000E+000
  0.000000000000000E+000
  0.000000000000000E+000
  0.000000000000000E+000
  0.000000000000000E+000
  0.000000000000000E+000
  0.000000000000000E+000
  0.000000000000000E+000
  0.000000000000000E+000
  0.000000000000000E+000
  0.000000000000000E+000
  0.000000000000000E+000
  0.000000000000000E+000
  0.000000000000000E+000
  0.000000000000000E+000
  0.000000000000000E+000
  0.000000000000000E+000
  0.000000000000000E+000
  0.000000000000000E+000
  0.000000000000000E+000
  0.000000000000000E+000
  0.000000000000000E+000
  0.000000000000000E+000
  0.000000000000000E+000
  0.000000000000000E+000
  0.000000000000000E+000
  0.000000000000000E+000
  0.000000000000000E+000
  0.000000000000000E+000
  0.000000000000000E+000
  0.000000000000000E+000
  0.000000000000000E+000
  0.000000000000000E+000
  0.000000000000000E+000
  0.000000000000000E+000
  0.000000000000000E+000
  0.000000000000000E+000
  0.000000000000000E+000
  0.000000000000000E+000
  0.000000000000000E+000
  0.000000000000000E+000
  0.000000000000000E+000
  0.000000000000000E+000
  0.000000000000000E+000
  0.000000000000000E+000
  0.000000000000000E+000
  0.000000000000000E+000
  0.000000000000000E+000
  0.000000000000000E+000
  0.000000000000000E+000
  0.000000000000000E+000
  0.000000000000000E+000
  0.000000000000000E+000
  0.000000000000000E+000
  0.000000000000000E+000
  0.000000000000000E+000
  0.000000000000000E+000
  0.000000000000000E+000
  0.000000000000000E+000
  0.000000000000000E+000
  0.000000000000000E+000
  0.000000000000000E+000
  0.000000000000000E+000
  0.000000000000000E+000
  0.000000000000000E+000
  0.000000000000000E+000
  0.000000000000000E+000
  0.000000000000000E+000
  0.000000000000000E+000
  0.000000000000000E+000
  0.000000000000000E+000
  0.000000000000000E+000
  0.000000000000000E+000
  0.000000000000000E+000
  0.000000000000000E+000
  0.000000000000000E+000
  0.000000000000000E+000
  0.000000000000000E+000
  0.000000000000000E+000
  0.000000000000000E+000
  0.000000000000000E+000
  0.000000000000000E+000
  0.000000000000000E+000
  0.000000000000000E+000
  0.000000000000000E+000
  0.000000000000000E+000
  0.000000000000000E+000
  0.000000000000000E+000
  0.000000000000000E+000
  0.000000000000000E+000
  0.000000000000000E+000
  0.000000000000000E+000
  0.000000000000000E+000
  0.000000000000000E+000
  0.000000000000000E+000
  0.000000000000000E+000
  0.000000000000000E+000
  0.000000000000000E+000
  0.000000000000000E+000
  0.000000000000000E+000
  0.000000000000000E+000
  0.000000000000000E+000
  0.000000000000000E+000
  0.000000000000000E+000
  0.000000000000000E+000
  0.000000000000000E+000
  0.000000000000000E+000
  0.000000000000000E+000
  0.000000000000000E+000
  0.000000000000000E+000
  0.000000000000000E+000
  0.000000000000000E+000
  0.000000000000000E+000
  0.000000000000000E+000
  0.000000000000000E+000
  0.000000000000000E+000
  0.000000000000000E+000
  0.000000000000000E+000
  0.000000000000000E+000
  0.000000000000000E+000
  0.000000000000000E+000
  0.000000000000000E+000
  0.000000000000000E+000
  0.000000000000000E+000
  0.000000000000000E+000
  0.000000000000000E+000
  0.000000000000000E+000
  0.000000000000000E+000
  0.000000000000000E+000
  0.000000000000000E+000
  0.000000000000000E+000
  0.000000000000000E+000
  0.000000000000000E+000
  0.000000000000000E+000
  0.000000000000000E+000
  0.000000000000000E+000
  0.000000000000000E+000
  0.000000000000000E+000
  0.000000000000000E+000
  0.000000000000000E+000
  0.000000000000000E+000
  0.000000000000000E+000
  0.000000000000000E+000
  0.000000000000000E+000
  0.000000000000000E+000
  0.000000000000000E+000
  0.000000000000000E+000
  0.000000000000000E+000
  0.000000000000000E+000
  0.000000000000000E+000
  0.000000000000000E+000
  0.000000000000000E+000
  0.000000000000000E+000
  0.000000000000000E+000
  0.000000000000000E+000
  0.000000000000000E+000
  0.000000000000000E+000
  0.000000000000000E+000
  0.000000000000000E+000
  0.000000000000000E+000
  0.000000000000000E+000
  0.000000000000000E+000
  0.000000000000000E+000
  0.000000000000000E+000
  0.000000000000000E+000
  0.000000000000000E+000
  0.000000000000000E+000
  0.000000000000000E+000
  0.000000000000000E+000
  0.000000000000000E+000
  0.000000000000000E+000
  0.000000000000000E+000
  0.000000000000000E+000
  0.000000000000000E+000
  0.000000000000000E+000
  0.000000000000000E+000
  0.000000000000000E+000
  0.000000000000000E+000
  0.000000000000000E+000
  0.000000000000000E+000
  0.000000000000000E+000
  0.000000000000000E+000
  0.000000000000000E+000
  0.000000000000000E+000
  0.000000000000000E+000
  0.000000000000000E+000
  0.000000000000000E+000
  0.000000000000000E+000
  0.000000000000000E+000
  0.000000000000000E+000
  0.000000000000000E+000
  0.000000000000000E+000
  0.000000000000000E+000
  0.000000000000000E+000
  0.000000000000000E+000
  0.000000000000000E+000
  0.000000000000000E+000
  0.000000000000000E+000
  0.000000000000000E+000
  0.000000000000000E+000
  0.000000000000000E+000
  0.000000000000000E+000
  0.000000000000000E+000
  0.000000000000000E+000
  0.000000000000000E+000
  0.000000000000000E+000
  0.000000000000000E+000
  0.000000000000000E+000
  0.000000000000000E+000
  0.000000000000000E+000
  0.000000000000000E+000
  0.000000000000000E+000
  0.000000000000000E+000
  0.000000000000000E+000
  0.000000000000000E+000
  0.000000000000000E+000
  0.000000000000000E+000
  0.000000000000000E+000
  0.000000000000000E+000
  0.000000000000000E+000
  0.000000000000000E+000
  0.000000000000000E+000
  0.000000000000000E+000
  0.000000000000000E+000
  0.000000000000000E+000
  0.000000000000000E+000
  0.000000000000000E+000
  0.000000000000000E+000
  0.000000000000000E+000
  0.000000000000000E+000
  0.000000000000000E+000
  0.000000000000000E+000
  0.000000000000000E+000
  0.000000000000000E+000
  0.000000000000000E+000
  0.000000000000000E+000
  0.000000000000000E+000
  0.000000000000000E+000
  0.000000000000000E+000
  0.000000000000000E+000
  0.000000000000000E+000
  0.000000000000000E+000
  0.000000000000000E+000
  0.000000000000000E+000
  0.000000000000000E+000
  0.000000000000000E+000
  0.000000000000000E+000
  0.000000000000000E+000
  0.000000000000000E+000
  0.000000000000000E+000
  0.000000000000000E+000
  0.000000000000000E+000
  0.000000000000000E+000
  0.000000000000000E+000
  0.000000000000000E+000
  0.000000000000000E+000
  0.000000000000000E+000
  0.000000000000000E+000
  0.000000000000000E+000
  0.000000000000000E+000
  0.000000000000000E+000
  0.000000000000000E+000
  0.000000000000000E+000
  0.000000000000000E+000
  0.000000000000000E+000
  0.000000000000000E+000
  0.000000000000000E+000
  0.000000000000000E+000
  0.000000000000000E+000
  0.000000000000000E+000
  0.000000000000000E+000
  0.000000000000000E+000
  0.000000000000000E+000
  0.000000000000000E+000
  0.000000000000000E+000
  0.000000000000000E+000
  0.000000000000000E+000
  0.000000000000000E+000
  0.000000000000000E+000
  0.000000000000000E+000
  0.000000000000000E+000
  0.000000000000000E+000
  0.000000000000000E+000
  0.000000000000000E+000
  0.000000000000000E+000
  0.000000000000000E+000
  0.000000000000000E+000
  0.000000000000000E+000
  0.000000000000000E+000
  0.000000000000000E+000
  0.000000000000000E+000
  0.000000000000000E+000
  0.000000000000000E+000
  0.000000000000000E+000
  0.000000000000000E+000
  0.000000000000000E+000
  0.000000000000000E+000
  0.000000000000000E+000
  0.000000000000000E+000
  0.000000000000000E+000
  0.000000000000000E+000
  0.000000000000000E+000
  0.000000000000000E+000
  0.000000000000000E+000
  0.000000000000000E+000
  0.000000000000000E+000
  0.000000000000000E+000
  0.000000000000000E+000
  0.000000000000000E+000
  0.000000000000000E+000
SCALARS poroL double 
LOOKUP_TABLE default
  0.199999999437224     
  0.199999999402451     
  0.199999999369974     
  0.199999999339805     
  0.199999999311969     
  0.199999999286496     
  0.199999999263419     
  0.199999999242778     
  0.199999999224611     
  0.199999999208956     
  0.199999999195848     
  0.199999999185321     
  0.199999999177400     
  0.199999999172107     
  0.199999999169457     
  0.199999999413100     
  0.199999999377206     
  0.199999999343637     
  0.199999999312416     
  0.199999999283575     
  0.199999999257154     
  0.199999999233197     
  0.199999999211748     
  0.199999999192856     
  0.199999999176565     
  0.199999999162917     
  0.199999999151950     
  0.199999999143696     
  0.199999999138180     
  0.199999999135417     
  0.199999999364067     
  0.199999999325864     
  0.199999999290047     
  0.199999999256657     
  0.199999999225745     
  0.199999999197369     
  0.199999999171592     
  0.199999999148476     
  0.199999999128086     
  0.199999999110481     
  0.199999999095718     
  0.199999999083845     
  0.199999999074903     
  0.199999999068923     
  0.199999999065928     
  0.199999999288536     
  0.199999999246702     
  0.199999999207344     
  0.199999999170533     
  0.199999999136352     
  0.199999999104889     
  0.199999999076236     
  0.199999999050486     
  0.199999999027728     
  0.199999999008046     
  0.199999998991519     
  0.199999998978211     
  0.199999998968180     
  0.199999998961468     
  0.199999998958105     
  0.199999999184078     
  0.199999999137072     
  0.199999999092661     
  0.199999999050962     
  0.199999999012105     
  0.199999998976223     
  0.199999998943452     
  0.199999998913927     
  0.199999998887776     
  0.199999998865118     
  0.199999998846060     
  0.199999998830696     
  0.199999998819104     
  0.199999998811342     
  0.199999998807451     
  0.199999999047359     
  0.199999998993319     
  0.199999998942024     
  0.199999998893658     
  0.199999998848415     
  0.199999998806494     
  0.199999998768094     
  0.199999998733406     
  0.199999998702612     
  0.199999998675880     
  0.199999998653361     
  0.199999998635183     
  0.199999998621454     
  0.199999998612255     
  0.199999998607642     
  0.199999998874060     
  0.199999998810675     
  0.199999998750219     
  0.199999998692969     
  0.199999998639211     
  0.199999998589234     
  0.199999998543319     
  0.199999998501738     
  0.199999998464746     
  0.199999998432575     
  0.199999998405433     
  0.199999998383499     
  0.199999998366917     
  0.199999998355800     
  0.199999998350222     
  0.199999998658754     
  0.199999998583096     
  0.199999998510594     
  0.199999998441653     
  0.199999998376684     
  0.199999998316096     
  0.199999998260283     
  0.199999998209623     
  0.199999998164467     
  0.199999998125134     
  0.199999998091905     
  0.199999998065024     
  0.199999998044687     
  0.199999998031044     
  0.199999998024197     
  0.199999998394743     
  0.199999998303056     
  0.199999998214810     
  0.199999998130583     
  0.199999998050954     
  0.199999997976490     
  0.199999997907738     
  0.199999997845211     
  0.199999997789387     
  0.199999997740696     
  0.199999997699519     
  0.199999997666179     
  0.199999997640939     
  0.199999997624000     
  0.199999997615497     
  0.199999998073846     
  0.199999997961269     
  0.199999997852502     
  0.199999997748354     
  0.199999997649626     
  0.199999997557094     
  0.199999997471499     
  0.199999997393535     
  0.199999997323841     
  0.199999997262990     
  0.199999997211487     
  0.199999997169760     
  0.199999997138157     
  0.199999997116940     
  0.199999997106287     
  0.199999997686107     
  0.199999997546318     
  0.199999997410835     
  0.199999997280773     
  0.199999997157220     
  0.199999997041223     
  0.199999996933773     
  0.199999996835794     
  0.199999996748128     
  0.199999996671534     
  0.199999996606670     
  0.199999996554096     
  0.199999996514264     
  0.199999996487519     
  0.199999996474088     
  0.199999997219403     
  0.199999997044168     
  0.199999996873931     
  0.199999996710200     
  0.199999996554433     
  0.199999996408024     
  0.199999996272283     
  0.199999996148421     
  0.199999996037540     
  0.199999995940623     
  0.199999995858526     
  0.199999995791971     
  0.199999995741539     
  0.199999995707672     
  0.199999995690664     
  0.199999996658922     
  0.199999996437523     
  0.199999996222105     
  0.199999996014681     
  0.199999995817183     
  0.199999995631439     
  0.199999995459159     
  0.199999995301912     
  0.199999995161122     
  0.199999995038052     
  0.199999994933795     
  0.199999994849274     
  0.199999994785230     
  0.199999994742221     
  0.199999994720623     
  0.199999995986454     
  0.199999995704964     
  0.199999995430877     
  0.199999995166843     
  0.199999994915385     
  0.199999994678877     
  0.199999994459521     
  0.199999994259330     
  0.199999994080119     
  0.199999993923490     
  0.199999993790830     
  0.199999993683299     
  0.199999993601830     
  0.199999993547127     
  0.199999993519658     
  0.199999995179443     
  0.199999994819828     
  0.199999994469678     
  0.199999994132441     
  0.199999993811375     
  0.199999993509521     
  0.199999993229684     
  0.199999992974415     
  0.199999992746001     
  0.199999992546455     
  0.199999992377508     
  0.199999992240609     
  0.199999992136918     
  0.199999992067306     
  0.199999992032354     
  0.199999994209701     
  0.199999993748703     
  0.199999993300160     
  0.199999992868504     
  0.199999992457890     
  0.199999992072171     
  0.199999991714877     
  0.199999991389203     
  0.199999991097998     
  0.199999990843759     
  0.199999990628626     
  0.199999990454382     
  0.199999990322454     
  0.199999990233909     
  0.199999990189458     
  0.199999993041696     
  0.199999992449465     
  0.199999991874001     
  0.199999991320931     
  0.199999990795492     
  0.199999990302507     
  0.199999989846368     
  0.199999989431028     
  0.199999989059996     
  0.199999988736329     
  0.199999988462641     
  0.199999988241101     
  0.199999988073439     
  0.199999987960948     
  0.199999987904488     
  0.199999991630244     
  0.199999990868681     
  0.199999990130049     
  0.199999989421405     
  0.199999988749272     
  0.199999988119615     
  0.199999987537835     
  0.199999987008763     
  0.199999986536661     
  0.199999986125233     
  0.199999985777626     
  0.199999985496446     
  0.199999985283762     
  0.199999985141119     
  0.199999985069542     
  0.199999989917460     
  0.199999988938220     
  0.199999987990630     
  0.199999987083438     
  0.199999986224669     
  0.199999985421609     
  0.199999984680815     
  0.199999984008114     
  0.199999983408622     
  0.199999982886758     
  0.199999982446263     
  0.199999982090221     
  0.199999981821075     
  0.199999981640642     
  0.199999981550125     
  0.199999987828704     
  0.199999986570822     
  0.199999985356793     
  0.199999984197326     
  0.199999983102168     
  0.199999982080107     
  0.199999981138995     
  0.199999980285765     
  0.199999979526469     
  0.199999978866304     
  0.199999978309651     
  0.199999977860102     
  0.199999977520494     
  0.199999977292930     
  0.199999977178802     
  0.199999985267251     
  0.199999983654353     
  0.199999982102198     
  0.199999980623723     
  0.199999979230611     
  0.199999977933315     
  0.199999976741100     
  0.199999975662095     
  0.199999974703344     
  0.199999973870864     
  0.199999973169694     
  0.199999972603949     
  0.199999972176863     
  0.199999971890826     
  0.199999971747415     
  0.199999982107331     
  0.199999980044395     
  0.199999978065318     
  0.199999976185517     
  0.199999974418790     
  0.199999972777379     
  0.199999971272050     
  0.199999969912172     
  0.199999968705802     
  0.199999967659772     
  0.199999966779771     
  0.199999966070414     
  0.199999965535311     
  0.199999965177122     
  0.199999964997594     
  0.199999978185077     
  0.199999975554731     
  0.199999973039535     
  0.199999970657585     
  0.199999968424919     
  0.199999966355636     
  0.199999964462018     
  0.199999962754655     
  0.199999961242578     
  0.199999959933378     
  0.199999958833325     
  0.199999957947472     
  0.199999957279749     
  0.199999956833031     
  0.199999956609206     
  0.199999973286877     
  0.199999969945220     
  0.199999966760620     
  0.199999963753956     
  0.199999960943541     
  0.199999958345295     
  0.199999955972938     
  0.199999953838171     
  0.199999951950865     
  0.199999950319232     
  0.199999948949990     
  0.199999947848502     
  0.199999947018904     
  0.199999946464207     
  0.199999946186375     
  0.199999967134454     
  0.199999962906445     
  0.199999958891019     
  0.199999955111812     
  0.199999951589293     
  0.199999948341031     
  0.199999945381963     
  0.199999942724659     
  0.199999940379578     
  0.199999938355304     
  0.199999936658765     
  0.199999935295427     
  0.199999934269457     
  0.199999933583862     
  0.199999933240586     
  0.199999959365938     
  0.199999954040394     
  0.199999949000248     
  0.199999944271651     
  0.199999939876910     
  0.199999935834865     
  0.199999932161264     
  0.199999928869122     
  0.199999925969069     
  0.199999923469667     
  0.199999921377692     
  0.199999919698396     
  0.199999918435712     
  0.199999917592440     
  0.199999917170367     
  0.199999949512029     
  0.199999942836351     
  0.199999936540582     
  0.199999930652857     
  0.199999925196719     
  0.199999920191629     
  0.199999915653482     
  0.199999911595087     
  0.199999908026615     
  0.199999904956021     
  0.199999902389409     
  0.199999900331359     
  0.199999898785203     
  0.199999897753240     
  0.199999897236913     
  0.199999936966226     
  0.199999928641014     
  0.199999920817141     
  0.199999913523803     
  0.199999906784792     
  0.199999900619193     
  0.199999895042059     
  0.199999890065034     
  0.199999885696941     
  0.199999881944310     
  0.199999878811846     
  0.199999876302840     
  0.199999874419510     
  0.199999873163275     
  0.199999872534967     
  0.199999920947974     
  0.199999910621760     
  0.199999900951329     
  0.199999891965489     
  0.199999883686814     
  0.199999876132564     
  0.199999869315544     
  0.199999863244916     
  0.199999857926930     
  0.199999853365590     
  0.199999849563237     
  0.199999846521049     
  0.199999844239467     
  0.199999842718523     
  0.199999841958102     
  0.199999900457449     
  0.199999887721861     
  0.199999875836492     
  0.199999864827652     
  0.199999854714621     
  0.199999845510819     
  0.199999837224906     
  0.199999829861790     
  0.199999823423537     
  0.199999817910190     
  0.199999813320474     
  0.199999809652403     
  0.199999806903790     
  0.199999805072643     
  0.199999804157468     
  0.199999874220600     
  0.199999858606351     
  0.199999844084576     
  0.199999830676162     
  0.199999818394262     
  0.199999807245777     
  0.199999797232723     
  0.199999788353465     
  0.199999780603824     
  0.199999773978059     
  0.199999768469711     
  0.199999764072321     
  0.199999760780021     
  0.199999758588003     
  0.199999757492873     
  0.199999840623026     
  0.199999821597200     
  0.199999803962494     
  0.199999787730445     
  0.199999772904363     
  0.199999759481169     
  0.199999747453047     
  0.199999736808939     
  0.199999727535859     
  0.199999719620043     
  0.199999713047934     
  0.199999707807010     
  0.199999703886462     
  0.199999701277724     
  0.199999699974869     
  0.199999797631255     
  0.199999774596444     
  0.199999753316880     
  0.199999733789658     
  0.199999716003509     
  0.199999699941016     
  0.199999685580595     
  0.199999672898245     
  0.199999661869078     
  0.199999652468632     
  0.199999644673993     
  0.199999638464714     
  0.199999633823571     
  0.199999630737148     
  0.199999629196267     
  0.199999742700091     
  0.199999714995977     
  0.199999689485972     
  0.199999666146312     
  0.199999644945276     
  0.199999625845803     
  0.199999608807804     
  0.199999593790165     
  0.199999580752477     
  0.199999569656493     
  0.199999560467357     
  0.199999553154595     
  0.199999547692923     
  0.199999544062858     
  0.199999542251169     
  0.199999672664930     
  0.199999639572896     
  0.199999609197440     
  0.199999581486088     
  0.199999556379598     
  0.199999533814985     
  0.199999513728143     
  0.199999496056074     
  0.199999480738769     
  0.199999467720772     
  0.199999456952461     
  0.199999448391068     
  0.199999442001489     
  0.199999437756894     
  0.199999435639161     
  0.199999583618315     
  0.199999544369574     
  0.199999508451218     
  0.199999475772727     
  0.199999446239102     
  0.199999419754258     
  0.199999396223900     
  0.199999375557906     
  0.199999357672293     
  0.199999342490789     
  0.199999329946095     
  0.199999319980857     
  0.199999312548407     
  0.199999307613311     
  0.199999305151747     
  0.199999470770605     
  0.199999424558114     
  0.199999382386679     
  0.199999344117019     
  0.199999309609125     
  0.199999278725956     
  0.199999251336445     
  0.199999227317925     
  0.199999206558032     
  0.199999188956176     
  0.199999174424643     
  0.199999162889404     
  0.199999154290692     
  0.199999148583396     
  0.199999145737315     
  0.199999328295502     
  0.199999274289467     
  0.199999225133992     
  0.199999180629196     
  0.199999140580174     
  0.199999104800797     
  0.199999073116691     
  0.199999045367490     
  0.199999021408490     
  0.199999001111809     
  0.199998984367159     
  0.199998971082312     
  0.199998961183369     
  0.199998954614879     
  0.199998951339873     
  0.199999149162299     
  0.199999086528407     
  0.199999029650034     
  0.199998978254343     
  0.199998932081634     
  0.199998890889004     
  0.199998854452996     
  0.199998822571395     
  0.199998795064333     
  0.199998771774864     
  0.199998752569128     
  0.199998737336263     
  0.199998725988138     
  0.199998718459039     
  0.199998714705359     
  0.199998924958295     
  0.199998852876619     
  0.199998787540018     
  0.199998728590767     
  0.199998675695534     
  0.199998628548476     
  0.199998586873148     
  0.199998550423403     
  0.199998518983550     
  0.199998492367939     
  0.199998470420173     
  0.199998453012124     
  0.199998440042875     
  0.199998431437736     
  0.199998427147413     
  0.199998645706641     
  0.199998563387571     
  0.199998488866752     
  0.199998421691622     
  0.199998361449015     
  0.199998307767131     
  0.199998260316074     
  0.199998218807295     
  0.199998182992215     
  0.199998152660300     
  0.199998127636841     
  0.199998107780644     
  0.199998092981815     
  0.199998083159812     
  0.199998078261862     
  0.199998299687229     
  0.199998206378324     
  0.199998121950382     
  0.199998045850286     
  0.199997977583804     
  0.199997916715578     
  0.199997862867492     
  0.199997815715838     
  0.199997774987656     
  0.199997740456606     
  0.199997711938669     
  0.199997689287963     
  0.199997672392902     
  0.199997661172890     
  0.199997655575708     
  0.199997873270811     
  0.199997768245189     
  0.199997673162207     
  0.199997587369969     
  0.199997510300132     
  0.199997441464786     
  0.199997380451543     
  0.199997326917365     
  0.199997280581637     
  0.199997241218915     
  0.199997208651751     
  0.199997182743919     
  0.199997163394341     
  0.199997150531951     
  0.199997144111674     
  0.199997350779468     
  0.199997233291758     
  0.199997126716738     
  0.199997030317484     
  0.199996943471118     
  0.199996865661056     
  0.199996796467361     
  0.199996735555864     
  0.199996682666695     
  0.199996637602761     
  0.199996600218654     
  0.199996570410405     
  0.199996548106436     
  0.199996533259976     
  0.199996525843196     
  0.199996714389417     
  0.199996583579263     
  0.199996464466114     
  0.199996356259839     
  0.199996258321109     
  0.199996170147052     
  0.199996091354985     
  0.199996021665087     
  0.199995960882777     
  0.199995908881481     
  0.199995865586357     
  0.199995830959478     
  0.199995804986884     
  0.199995787667841     
  0.199995779006557     
  0.199995944094882     
  0.199995798809963     
  0.199995665700055     
  0.199995543979716     
  0.199995433057480     
  0.199995332512371     
  0.199995242068651     
  0.199995161569849     
  0.199995090953009     
  0.199995030223969     
  0.199994979434357     
  0.199994938660879     
  0.199994907987384     
  0.199994887490067     
  0.199994877226138     
  0.199995017753518     
  0.199994856253828     
  0.199994706951937     
  0.199994569161481     
  0.199994442439273     
  0.199994326549498     
  0.199994221426515     
  0.199994127137553     
  0.199994043846417     
  0.199993971779155     
  0.199993911192472     
  0.199993862345560     
  0.199993825475880     
  0.199993800779301     
  0.199993788394943     
  0.199993911234280     
  0.199993730726313     
  0.199993561806674     
  0.199993404032183     
  0.199993257256918     
  0.199993121580137     
  0.199992997293528     
  0.199992884829331     
  0.199992784710623     
  0.199992697504855     
  0.199992623781541     
  0.199992564074812     
  0.199992518851432     
  0.199992488484712     
  0.199992473234669     
  0.199992598686214     
  0.199992394619460     
  0.199992200697609     
  0.199992016931032     
  0.199991843684038     
  0.199991681601717     
  0.199991531537317     
  0.199991394481953     
  0.199991271498115     
  0.199991163658183     
  0.199991071988929     
  0.199990997422760     
  0.199990940756324     
  0.199990902616896     
  0.199990883436925     
  0.199991052940192     
  0.199990817978352     
  0.199990590666188     
  0.199990371764537     
  0.199990162443621     
  0.199989964183059     
  0.199989778674301     
  0.199989607727477     
  0.199989453184307     
  0.199989316838349     
  0.199989200363598     
  0.199989105252200     
  0.199989032761863     
  0.199988983873368     
  0.199988959258485     
  0.199989246042904     
  0.199988968598156     
  0.199988695037788     
  0.199988427281036     
  0.199988167704759     
  0.199987919009918     
  0.199987684093215     
  0.199987465926095     
  0.199987267442815     
  0.199987091438904     
  0.199986940480984     
  0.199986816828627     
  0.199986722368764     
  0.199986658562929     
  0.199986626407581     
  0.199987149900845     
  0.199986812090966     
  0.199986472937353     
  0.199986136065474     
  0.199985805590674     
  0.199985485943456     
  0.199985181703793     
  0.199984897446805     
  0.199984637601496     
  0.199984406323771     
  0.199984207384558     
  0.199984044073558     
  0.199983919118908     
  0.199983834622906     
  0.199983792013827     
  0.199984736978070     
  0.199984311833184     
  0.199983878526218     
  0.199983443109974     
  0.199983012130999     
  0.199982592405100     
  0.199982190807282     
  0.199981814078369     
  0.199981468649843     
  0.199981160487873     
  0.199980894957051     
  0.199980676704021     
  0.199980509560971     
  0.199980396468829     
  0.199980339419927     
  0.199981980940749     
  0.199981428649108     
  0.199980859783049     
  0.199980283754686     
  0.199979710428273     
  0.199979149836781     
  0.199978611920138     
  0.199978106287133     
  0.199977642002101     
  0.199977227396889     
  0.199976869908054     
  0.199976575938976     
  0.199976350746311     
  0.199976198350171     
  0.199976121467397     
  0.199978857068481     
  0.199978120009677     
  0.199977356572491     
  0.199976580712248     
  0.199975806726454     
  0.199975048902996     
  0.199974321199603     
  0.199973636955936     
  0.199973008638706     
  0.199972447619460     
  0.199971963984173     
  0.199971566373467     
  0.199971261852148     
  0.199971055806718     
  0.199970951869686     
  0.199975342150296     
  0.199974338420950     
  0.199973297639513     
  0.199972239783394     
  0.199971184963823     
  0.199970152996633     
  0.199969163016781     
  0.199968233136861     
  0.199967380148799     
  0.199966619267073     
  0.199965963911344     
  0.199965425526097     
  0.199965013434857     
  0.199964734726696     
  0.199964594173018     
  0.199971413444177     
  0.199970028537767     
  0.199968596029397     
  0.199967143735079     
  0.199965699259199     
  0.199964289480186     
  0.199962940095873     
  0.199961675227043     
  0.199960517076451     
  0.199959485639803     
  0.199958598464715     
  0.199957870453559     
  0.199957313706213     
  0.199956937399068     
  0.199956747697193     
  0.199967046093579     
  0.199965122356013     
  0.199963142255757     
  0.199961143640290     
  0.199959163613985     
  0.199957237933683     
  0.199955400484058     
  0.199953682828593     
  0.199952113830697     
  0.199950719338753     
  0.199949521928571     
  0.199948540696789     
  0.199947791099121     
  0.199947284828024     
  0.199947029725175     
  0.199962208152187     
  0.199959531603038     
  0.199956794314453     
  0.199954046764101     
  0.199951337908167     
  0.199948714486458     
  0.199946220432261     
  0.199943896378841     
  0.199941779253251     
  0.199939901947488     
  0.199938293057008     
  0.199936976676954     
  0.199935972247202     
  0.199935294438405     
  0.199934953072480     
  0.199956852057621     
  0.199953136150610     
  0.199949363362040     
  0.199945599817518     
  0.199941909021465     
  0.199938351078579     
  0.199934982050546     
  0.199931853434372     
  0.199929011747645     
  0.199926498205761     
  0.199924348476427     
  0.199922592497652     
  0.199921254346655     
  0.199920352148765     
  0.199919898017275     
  0.199950901004030     
  0.199945766908706     
  0.199940593536178     
  0.199935466083936     
  0.199930465617827     
  0.199925668227298     
  0.199921144352557     
  0.199916958262417     
  0.199913167660983     
  0.199909823401499     
  0.199906969286617     
  0.199904641935837     
  0.199902870702903     
  0.199901677628255     
  0.199901077414320     
  0.199944228180972     
  0.199937181213033     
  0.199930133986325     
  0.199923194548991     
  0.199916464790787     
  0.199910039564586     
  0.199904006023042     
  0.199898443139083     
  0.199893421378854     
  0.199889002496762     
  0.199885239424033     
  0.199882176224677     
  0.199879848095672     
  0.199878281391580     
  0.199877493657405     
  0.199936626261984     
  0.199927028187933     
  0.199917500702643     
  0.199908178732533     
  0.199899188380585     
  0.199890646067222     
  0.199882657936432     
  0.199875319482412     
  0.199868715353057     
  0.199862919288818     
  0.199857994158441     
  0.199853992056872     
  0.199850954434792     
  0.199848912233919     
  0.199847886007065     
  0.199927763834516     
  0.199914800947210     
  0.199902025180717     
  0.199889602435700     
  0.199877686348039     
  0.199866417529995     
  0.199855923133196     
  0.199846316671414     
  0.199837698043775     
  0.199830153702909     
  0.199823756917271     
  0.199818568082311     
  0.199814635041022     
  0.199811993380656     
  0.199810666678829     
  0.199917124663960     
  0.199899771792988     
  0.199882786347662     
  0.199866369087807     
  0.199850704138951     
  0.199835958451214     
  0.199822281642087     
  0.199809806139034     
  0.199798647542895     
  0.199788905139249     
  0.199780662491975     
  0.199773988060875     
  0.199768935793210     
  0.199765545647278     
  0.199763844014436     
  0.199903924788696     
  0.199880905802004     
  0.199858521520306     
  0.199837010829196     
  0.199816590520646     
  0.199797455134258     
  0.199779777247890     
  0.199763708105985     
  0.199749378482305     
  0.199736899683170     
  0.199726364607427     
  0.199717848789872     
  0.199711411365515     
  0.199707095902763     
  0.199704931064211     
  0.199887001476360     
  0.199856747380218     
  0.199827511502376     
  0.199799572933675     
  0.199773181957747     
  0.199748560499250     
  0.199725903086772     
  0.199705378184728     
  0.199687129761499     
  0.199671278974796     
  0.199657925869317     
  0.199647150995933     
  0.199639016875583     
  0.199633569244738     
  0.199630838032528     
  0.199864667081911     
  0.199825273572349     
  0.199787434309986     
  0.199751468714827     
  0.199717659275310     
  0.199686252903192     
  0.199657462862482     
  0.199631471085540     
  0.199608430708568     
  0.199588468678094     
  0.199571688299302     
  0.199558171615792     
  0.199547981528345     
  0.199541163577423     
  0.199537747330453     
  0.199834519914574     
  0.199783707214834     
  0.199735181526839     
  0.199689299758363     
  0.199646372217723     
  0.199606665267449     
  0.199570404596822     
  0.199537778877363     
  0.199508943592673     
  0.199484024860741     
  0.199463123092699     
  0.199446316356319     
  0.199433663335467     
  0.199425205797899     
  0.199420970503527     
  0.199793203465204     
  0.199728282541973     
  0.199666631055052     
  0.199608636298445     
  0.199554627668624     
  0.199504881121407     
  0.199459624265285     
  0.199419041798123     
  0.199383281032172     
  0.199352457288622     
  0.199326658976906     
  0.199305952205344     
  0.199290384798298     
  0.199279989620871     
  0.199274787135450     
  0.199736104947477     
  0.199653955773130     
  0.199576370218168     
  0.199503752977734     
  0.199436437911759     
  0.199374694943678     
  0.199318737567847     
  0.199268730607450     
  0.199224797916662     
  0.199187029769204     
  0.199155489719681     
  0.199130220763909     
  0.199111250659731     
  0.199098596300746     
  0.199092267062267     
  0.199656984322872     
  0.199554053774956     
  0.199457364031871     
  0.199367316329909     
  0.199284226603250     
  0.199208335620973     
  0.199139819634132     
  0.199078801102677     
  0.199025359141851     
  0.198979539391378     
  0.198941363067784     
  0.198910835010113     
  0.198887950572264     
  0.198872701251461     
  0.198865078972512     
  0.199547526171313     
  0.199419855454508     
  0.199300565316881     
  0.199190022411762     
  0.199088492382660     
  0.198996154216997     
  0.198913114904880     
  0.198839423895942     
  0.198775086940124     
  0.198720078981300     
  0.198674355845348     
  0.198637864526267     
  0.198610551925451     
  0.198592371940755     
  0.198583290834513     
  0.199396809436386     
  0.199240103574614     
  0.199094466637531     
  0.198960186508076     
  0.198837433656799     
  0.198726280895770     
  0.198626723076634     
  0.198538696148669     
  0.198462095114834     
  0.198396790531283     
  0.198342643287815     
  0.198299517482823     
  0.198267291267022     
  0.198245865576219     
  0.198235170706424     
  0.199190694903913     
  0.199000449842685     
  0.198824599415143     
  0.198663292291831     
  0.198516543546893     
  0.198384261218771     
  0.198266272229967     
  0.198162347010992     
  0.198072222333756     
  0.197995621997910     
  0.197932275129215     
  0.197881931941311     
  0.197844376882017     
  0.197819439133841     
  0.197807000468361     
  0.198911138210557     
  0.198682844294819     
  0.198472993802074     
  0.198281515978578     
  0.198108191943028     
  0.197952689691236     
  0.197814597554930     
  0.197693455408323     
  0.197588783124468     
  0.197500105961337     
  0.197426976701215     
  0.197368994477008     
  0.197325820296080     
  0.197297189319206     
  0.197282919972925     
  0.198535448530380     
  0.198264892387200     
  0.198017625102816     
  0.197793252828526     
  0.197591222884244     
  0.197410869056984     
  0.197251453997612     
  0.197112207994428     
  0.196992363678786     
  0.196891186442867     
  0.196808000527817     
  0.196742210866414     
  0.196693320843776     
  0.196660946176166     
  0.196644825109104     
  0.198035531671326     
  0.197719221475232     
  0.197431890155425     
  0.197172690072530     
  0.196940611105651     
  0.196734538247759     
  0.196553304298052     
  0.196395737000813     
  0.196260700328065     
  0.196147129899400     
  0.196054062739367     
  0.195980661711293     
  0.195926235033139     
  0.195890251290947     
  0.195872350329376     
  0.197377183706730     
  0.197012924793962     
  0.196684182097038     
  0.196389493558399     
  0.196127242798756     
  0.195895730978461     
  0.195693240880668     
  0.195518092731662     
  0.195368691799024     
  0.195243568136212     
  0.195141409096358     
  0.195061085353706     
  0.195001671199685     
  0.194962459831504     
  0.194942974250091     
  0.196519541154466     
  0.196107188850199     
  0.195737666901633     
  0.195408707097368     
  0.195117913766984     
  0.194862851579169     
  0.194641121306085     
  0.194450423697494     
  0.194288612029892     
  0.194153734440364     
  0.194044067317954     
  0.193958141099349     
  0.193894759730560     
  0.193853014894499     
  0.193832295899306     
  0.195414851606656     
  0.194957263677377     
  0.194550413382851     
  0.194191005802678     
  0.193875674447604     
  0.193601085136941     
  0.193364022318424     
  0.193161458339538     
  0.192990607794869     
  0.192848969042574     
  0.192734355270818     
  0.192644917265772     
  0.192579159733945     
  0.192535952678058     
  0.192514538973659     
  0.194008812453394     
  0.193513011177908     
  0.193076093781968     
  0.192693499785901     
  0.192360695846550     
  0.192073294464143     
  0.191827145282302     
  0.191618404186099     
  0.191443583057620     
  0.191299584846369     
  0.191183727592564     
  0.191093760480102     
  0.191027874277639     
  0.190984707879247     
  0.190963352181517     
  0.192241849052096     
  0.191720371927781     
  0.191265559716452     
  0.190871351811784     
  0.190531880921477     
  0.190241592285259     
  0.189995331338016     
  0.189788399016374     
  0.189616586835222     
  0.189476197378555     
  0.189364055638400     
  0.189277514789696     
  0.189214458469846     
  0.189173300909845     
  0.189152985973237     
  0.190051881044684     
  0.189524241999220     
  0.189069704882539     
  0.188680548478994     
  0.188349489936307     
  0.188069801649301     
  0.187835357356954     
  0.187640656609168     
  0.187480829203920     
  0.187351632510165     
  0.187249447238576     
  0.187171272349189     
  0.187114718930210     
  0.187078003425927     
  0.187059941144028     
  0.187379420681163     
  0.186873432856302     
  0.186444159921965     
  0.186082211063179     
  0.185779058491940     
  0.185527001737867     
  0.185319163440191     
  0.185149437481116     
  0.185012448760550     
  0.184903533080507     
  0.184818726350380     
  0.184754754701264     
  0.184709022534522     
  0.184679599103446     
  0.184665205704729     
  0.184176182084553     
  0.183728713828037     
  0.183356381469866     
  0.183048805385740     
  0.182796767773191     
  0.182592238490103     
  0.182428089214333     
  0.182297944405492     
  0.182196153117556     
  0.182117800248499     
  0.182058715896402     
  0.182015471113750     
  0.181985361873638     
  0.181966387204346     
  0.181957227479479     
  0.180419505141969     
  0.180074754339468     
  0.179795716391040     
  0.179572088005159     
  0.179395963881274     
  0.179260230931152     
  0.179158105027429     
  0.179083234590373     
  0.179029882308691     
  0.178993046935412     
  0.178968512611259     
  0.178952846995945     
  0.178943371817293     
  0.178938123746248     
  0.178935817372793     
  0.176133911624154     
  0.175938169809359     
  0.175784454082234     
  0.175670820859850     
  0.175593818169742     
  0.175547761759350     
  0.175526087897255     
  0.175522352123061     
  0.175530751879004     
  0.175546332772137     
  0.175565023302537     
  0.175583589888237     
  0.175599563790029     
  0.175611166979948     
  0.175617250329951     
  0.171434035139624     
  0.171397439804740     
  0.171380609224069     
  0.171394881213596     
  0.171437478922597     
  0.171501066435397     
  0.171577686294172     
  0.171660211546075     
  0.171742743087875     
  0.171820595781855     
  0.171890147895020     
  0.171948666122291     
  0.171994148663186     
  0.172025199837870     
  0.172040938455259     
  0.166477501053164     
  0.166545946180709     
  0.166666420562545     
  0.166827737344735     
  0.167012642857659     
  0.167206469674201     
  0.167398263137299     
  0.167580207177043     
  0.167746830353036     
  0.167894338659234     
  0.168020120067512     
  0.168122393083937     
  0.168199962942143     
  0.168252055808377     
  0.168278209940837     
