# vtk DataFile Version 3.0
vtk output
ASCII
DATASET UNSTRUCTURED_GRID
POINTS      1456 double 
  0.00000000E+00  1.00000000E+01  0.00000000E+00
  0.00000000E+00  9.33333333E+00  0.00000000E+00
  0.00000000E+00  8.66666667E+00  0.00000000E+00
  0.00000000E+00  8.00000000E+00  0.00000000E+00
  0.00000000E+00  7.33333333E+00  0.00000000E+00
  0.00000000E+00  6.66666667E+00  0.00000000E+00
  0.00000000E+00  6.00000000E+00  0.00000000E+00
  0.00000000E+00  5.33333333E+00  0.00000000E+00
  0.00000000E+00  4.66666667E+00  0.00000000E+00
  0.00000000E+00  4.00000000E+00  0.00000000E+00
  0.00000000E+00  3.33333333E+00  0.00000000E+00
  0.00000000E+00  2.66666667E+00  0.00000000E+00
  0.00000000E+00  2.00000000E+00  0.00000000E+00
  0.00000000E+00  1.33333333E+00  0.00000000E+00
  0.00000000E+00  6.66666667E-01  0.00000000E+00
  0.00000000E+00  1.66533454E-15  0.00000000E+00
  1.11111111E+00  1.00000000E+01  0.00000000E+00
  1.11111111E+00  9.33333333E+00  0.00000000E+00
  1.11111111E+00  8.66666667E+00  0.00000000E+00
  1.11111111E+00  8.00000000E+00  0.00000000E+00
  1.11111111E+00  7.33333333E+00  0.00000000E+00
  1.11111111E+00  6.66666667E+00  0.00000000E+00
  1.11111111E+00  6.00000000E+00  0.00000000E+00
  1.11111111E+00  5.33333333E+00  0.00000000E+00
  1.11111111E+00  4.66666667E+00  0.00000000E+00
  1.11111111E+00  4.00000000E+00  0.00000000E+00
  1.11111111E+00  3.33333333E+00  0.00000000E+00
  1.11111111E+00  2.66666667E+00  0.00000000E+00
  1.11111111E+00  2.00000000E+00  0.00000000E+00
  1.11111111E+00  1.33333333E+00  0.00000000E+00
  1.11111111E+00  6.66666667E-01  0.00000000E+00
  1.11111111E+00  1.66533454E-15  0.00000000E+00
  2.22222222E+00  1.00000000E+01  0.00000000E+00
  2.22222222E+00  9.33333333E+00  0.00000000E+00
  2.22222222E+00  8.66666667E+00  0.00000000E+00
  2.22222222E+00  8.00000000E+00  0.00000000E+00
  2.22222222E+00  7.33333333E+00  0.00000000E+00
  2.22222222E+00  6.66666667E+00  0.00000000E+00
  2.22222222E+00  6.00000000E+00  0.00000000E+00
  2.22222222E+00  5.33333333E+00  0.00000000E+00
  2.22222222E+00  4.66666667E+00  0.00000000E+00
  2.22222222E+00  4.00000000E+00  0.00000000E+00
  2.22222222E+00  3.33333333E+00  0.00000000E+00
  2.22222222E+00  2.66666667E+00  0.00000000E+00
  2.22222222E+00  2.00000000E+00  0.00000000E+00
  2.22222222E+00  1.33333333E+00  0.00000000E+00
  2.22222222E+00  6.66666667E-01  0.00000000E+00
  2.22222222E+00  1.66533454E-15  0.00000000E+00
  3.33333333E+00  1.00000000E+01  0.00000000E+00
  3.33333333E+00  9.33333333E+00  0.00000000E+00
  3.33333333E+00  8.66666667E+00  0.00000000E+00
  3.33333333E+00  8.00000000E+00  0.00000000E+00
  3.33333333E+00  7.33333333E+00  0.00000000E+00
  3.33333333E+00  6.66666667E+00  0.00000000E+00
  3.33333333E+00  6.00000000E+00  0.00000000E+00
  3.33333333E+00  5.33333333E+00  0.00000000E+00
  3.33333333E+00  4.66666667E+00  0.00000000E+00
  3.33333333E+00  4.00000000E+00  0.00000000E+00
  3.33333333E+00  3.33333333E+00  0.00000000E+00
  3.33333333E+00  2.66666667E+00  0.00000000E+00
  3.33333333E+00  2.00000000E+00  0.00000000E+00
  3.33333333E+00  1.33333333E+00  0.00000000E+00
  3.33333333E+00  6.66666667E-01  0.00000000E+00
  3.33333333E+00  1.66533454E-15  0.00000000E+00
  4.44444444E+00  1.00000000E+01  0.00000000E+00
  4.44444444E+00  9.33333333E+00  0.00000000E+00
  4.44444444E+00  8.66666667E+00  0.00000000E+00
  4.44444444E+00  8.00000000E+00  0.00000000E+00
  4.44444444E+00  7.33333333E+00  0.00000000E+00
  4.44444444E+00  6.66666667E+00  0.00000000E+00
  4.44444444E+00  6.00000000E+00  0.00000000E+00
  4.44444444E+00  5.33333333E+00  0.00000000E+00
  4.44444444E+00  4.66666667E+00  0.00000000E+00
  4.44444444E+00  4.00000000E+00  0.00000000E+00
  4.44444444E+00  3.33333333E+00  0.00000000E+00
  4.44444444E+00  2.66666667E+00  0.00000000E+00
  4.44444444E+00  2.00000000E+00  0.00000000E+00
  4.44444444E+00  1.33333333E+00  0.00000000E+00
  4.44444444E+00  6.66666667E-01  0.00000000E+00
  4.44444444E+00  1.66533454E-15  0.00000000E+00
  5.55555556E+00  1.00000000E+01  0.00000000E+00
  5.55555556E+00  9.33333333E+00  0.00000000E+00
  5.55555556E+00  8.66666667E+00  0.00000000E+00
  5.55555556E+00  8.00000000E+00  0.00000000E+00
  5.55555556E+00  7.33333333E+00  0.00000000E+00
  5.55555556E+00  6.66666667E+00  0.00000000E+00
  5.55555556E+00  6.00000000E+00  0.00000000E+00
  5.55555556E+00  5.33333333E+00  0.00000000E+00
  5.55555556E+00  4.66666667E+00  0.00000000E+00
  5.55555556E+00  4.00000000E+00  0.00000000E+00
  5.55555556E+00  3.33333333E+00  0.00000000E+00
  5.55555556E+00  2.66666667E+00  0.00000000E+00
  5.55555556E+00  2.00000000E+00  0.00000000E+00
  5.55555556E+00  1.33333333E+00  0.00000000E+00
  5.55555556E+00  6.66666667E-01  0.00000000E+00
  5.55555556E+00  1.66533454E-15  0.00000000E+00
  6.66666667E+00  1.00000000E+01  0.00000000E+00
  6.66666667E+00  9.33333333E+00  0.00000000E+00
  6.66666667E+00  8.66666667E+00  0.00000000E+00
  6.66666667E+00  8.00000000E+00  0.00000000E+00
  6.66666667E+00  7.33333333E+00  0.00000000E+00
  6.66666667E+00  6.66666667E+00  0.00000000E+00
  6.66666667E+00  6.00000000E+00  0.00000000E+00
  6.66666667E+00  5.33333333E+00  0.00000000E+00
  6.66666667E+00  4.66666667E+00  0.00000000E+00
  6.66666667E+00  4.00000000E+00  0.00000000E+00
  6.66666667E+00  3.33333333E+00  0.00000000E+00
  6.66666667E+00  2.66666667E+00  0.00000000E+00
  6.66666667E+00  2.00000000E+00  0.00000000E+00
  6.66666667E+00  1.33333333E+00  0.00000000E+00
  6.66666667E+00  6.66666667E-01  0.00000000E+00
  6.66666667E+00  1.66533454E-15  0.00000000E+00
  7.77777778E+00  1.00000000E+01  0.00000000E+00
  7.77777778E+00  9.33333333E+00  0.00000000E+00
  7.77777778E+00  8.66666667E+00  0.00000000E+00
  7.77777778E+00  8.00000000E+00  0.00000000E+00
  7.77777778E+00  7.33333333E+00  0.00000000E+00
  7.77777778E+00  6.66666667E+00  0.00000000E+00
  7.77777778E+00  6.00000000E+00  0.00000000E+00
  7.77777778E+00  5.33333333E+00  0.00000000E+00
  7.77777778E+00  4.66666667E+00  0.00000000E+00
  7.77777778E+00  4.00000000E+00  0.00000000E+00
  7.77777778E+00  3.33333333E+00  0.00000000E+00
  7.77777778E+00  2.66666667E+00  0.00000000E+00
  7.77777778E+00  2.00000000E+00  0.00000000E+00
  7.77777778E+00  1.33333333E+00  0.00000000E+00
  7.77777778E+00  6.66666667E-01  0.00000000E+00
  7.77777778E+00  1.66533454E-15  0.00000000E+00
  8.88888889E+00  1.00000000E+01  0.00000000E+00
  8.88888889E+00  9.33333333E+00  0.00000000E+00
  8.88888889E+00  8.66666667E+00  0.00000000E+00
  8.88888889E+00  8.00000000E+00  0.00000000E+00
  8.88888889E+00  7.33333333E+00  0.00000000E+00
  8.88888889E+00  6.66666667E+00  0.00000000E+00
  8.88888889E+00  6.00000000E+00  0.00000000E+00
  8.88888889E+00  5.33333333E+00  0.00000000E+00
  8.88888889E+00  4.66666667E+00  0.00000000E+00
  8.88888889E+00  4.00000000E+00  0.00000000E+00
  8.88888889E+00  3.33333333E+00  0.00000000E+00
  8.88888889E+00  2.66666667E+00  0.00000000E+00
  8.88888889E+00  2.00000000E+00  0.00000000E+00
  8.88888889E+00  1.33333333E+00  0.00000000E+00
  8.88888889E+00  6.66666667E-01  0.00000000E+00
  8.88888889E+00  1.66533454E-15  0.00000000E+00
  1.00000000E+01  1.00000000E+01  0.00000000E+00
  1.00000000E+01  9.33333333E+00  0.00000000E+00
  1.00000000E+01  8.66666667E+00  0.00000000E+00
  1.00000000E+01  8.00000000E+00  0.00000000E+00
  1.00000000E+01  7.33333333E+00  0.00000000E+00
  1.00000000E+01  6.66666667E+00  0.00000000E+00
  1.00000000E+01  6.00000000E+00  0.00000000E+00
  1.00000000E+01  5.33333333E+00  0.00000000E+00
  1.00000000E+01  4.66666667E+00  0.00000000E+00
  1.00000000E+01  4.00000000E+00  0.00000000E+00
  1.00000000E+01  3.33333333E+00  0.00000000E+00
  1.00000000E+01  2.66666667E+00  0.00000000E+00
  1.00000000E+01  2.00000000E+00  0.00000000E+00
  1.00000000E+01  1.33333333E+00  0.00000000E+00
  1.00000000E+01  6.66666667E-01  0.00000000E+00
  1.00000000E+01  1.66533454E-15  0.00000000E+00
  1.11111111E+01  1.00000000E+01  0.00000000E+00
  1.11111111E+01  9.33333333E+00  0.00000000E+00
  1.11111111E+01  8.66666667E+00  0.00000000E+00
  1.11111111E+01  8.00000000E+00  0.00000000E+00
  1.11111111E+01  7.33333333E+00  0.00000000E+00
  1.11111111E+01  6.66666667E+00  0.00000000E+00
  1.11111111E+01  6.00000000E+00  0.00000000E+00
  1.11111111E+01  5.33333333E+00  0.00000000E+00
  1.11111111E+01  4.66666667E+00  0.00000000E+00
  1.11111111E+01  4.00000000E+00  0.00000000E+00
  1.11111111E+01  3.33333333E+00  0.00000000E+00
  1.11111111E+01  2.66666667E+00  0.00000000E+00
  1.11111111E+01  2.00000000E+00  0.00000000E+00
  1.11111111E+01  1.33333333E+00  0.00000000E+00
  1.11111111E+01  6.66666667E-01  0.00000000E+00
  1.11111111E+01  1.66533454E-15  0.00000000E+00
  1.22222222E+01  1.00000000E+01  0.00000000E+00
  1.22222222E+01  9.33333333E+00  0.00000000E+00
  1.22222222E+01  8.66666667E+00  0.00000000E+00
  1.22222222E+01  8.00000000E+00  0.00000000E+00
  1.22222222E+01  7.33333333E+00  0.00000000E+00
  1.22222222E+01  6.66666667E+00  0.00000000E+00
  1.22222222E+01  6.00000000E+00  0.00000000E+00
  1.22222222E+01  5.33333333E+00  0.00000000E+00
  1.22222222E+01  4.66666667E+00  0.00000000E+00
  1.22222222E+01  4.00000000E+00  0.00000000E+00
  1.22222222E+01  3.33333333E+00  0.00000000E+00
  1.22222222E+01  2.66666667E+00  0.00000000E+00
  1.22222222E+01  2.00000000E+00  0.00000000E+00
  1.22222222E+01  1.33333333E+00  0.00000000E+00
  1.22222222E+01  6.66666667E-01  0.00000000E+00
  1.22222222E+01  1.66533454E-15  0.00000000E+00
  1.33333333E+01  1.00000000E+01  0.00000000E+00
  1.33333333E+01  9.33333333E+00  0.00000000E+00
  1.33333333E+01  8.66666667E+00  0.00000000E+00
  1.33333333E+01  8.00000000E+00  0.00000000E+00
  1.33333333E+01  7.33333333E+00  0.00000000E+00
  1.33333333E+01  6.66666667E+00  0.00000000E+00
  1.33333333E+01  6.00000000E+00  0.00000000E+00
  1.33333333E+01  5.33333333E+00  0.00000000E+00
  1.33333333E+01  4.66666667E+00  0.00000000E+00
  1.33333333E+01  4.00000000E+00  0.00000000E+00
  1.33333333E+01  3.33333333E+00  0.00000000E+00
  1.33333333E+01  2.66666667E+00  0.00000000E+00
  1.33333333E+01  2.00000000E+00  0.00000000E+00
  1.33333333E+01  1.33333333E+00  0.00000000E+00
  1.33333333E+01  6.66666667E-01  0.00000000E+00
  1.33333333E+01  1.66533454E-15  0.00000000E+00
  1.44444444E+01  1.00000000E+01  0.00000000E+00
  1.44444444E+01  9.33333333E+00  0.00000000E+00
  1.44444444E+01  8.66666667E+00  0.00000000E+00
  1.44444444E+01  8.00000000E+00  0.00000000E+00
  1.44444444E+01  7.33333333E+00  0.00000000E+00
  1.44444444E+01  6.66666667E+00  0.00000000E+00
  1.44444444E+01  6.00000000E+00  0.00000000E+00
  1.44444444E+01  5.33333333E+00  0.00000000E+00
  1.44444444E+01  4.66666667E+00  0.00000000E+00
  1.44444444E+01  4.00000000E+00  0.00000000E+00
  1.44444444E+01  3.33333333E+00  0.00000000E+00
  1.44444444E+01  2.66666667E+00  0.00000000E+00
  1.44444444E+01  2.00000000E+00  0.00000000E+00
  1.44444444E+01  1.33333333E+00  0.00000000E+00
  1.44444444E+01  6.66666667E-01  0.00000000E+00
  1.44444444E+01  1.66533454E-15  0.00000000E+00
  1.55555556E+01  1.00000000E+01  0.00000000E+00
  1.55555556E+01  9.33333333E+00  0.00000000E+00
  1.55555556E+01  8.66666667E+00  0.00000000E+00
  1.55555556E+01  8.00000000E+00  0.00000000E+00
  1.55555556E+01  7.33333333E+00  0.00000000E+00
  1.55555556E+01  6.66666667E+00  0.00000000E+00
  1.55555556E+01  6.00000000E+00  0.00000000E+00
  1.55555556E+01  5.33333333E+00  0.00000000E+00
  1.55555556E+01  4.66666667E+00  0.00000000E+00
  1.55555556E+01  4.00000000E+00  0.00000000E+00
  1.55555556E+01  3.33333333E+00  0.00000000E+00
  1.55555556E+01  2.66666667E+00  0.00000000E+00
  1.55555556E+01  2.00000000E+00  0.00000000E+00
  1.55555556E+01  1.33333333E+00  0.00000000E+00
  1.55555556E+01  6.66666667E-01  0.00000000E+00
  1.55555556E+01  1.66533454E-15  0.00000000E+00
  1.66666667E+01  1.00000000E+01  0.00000000E+00
  1.66666667E+01  9.33333333E+00  0.00000000E+00
  1.66666667E+01  8.66666667E+00  0.00000000E+00
  1.66666667E+01  8.00000000E+00  0.00000000E+00
  1.66666667E+01  7.33333333E+00  0.00000000E+00
  1.66666667E+01  6.66666667E+00  0.00000000E+00
  1.66666667E+01  6.00000000E+00  0.00000000E+00
  1.66666667E+01  5.33333333E+00  0.00000000E+00
  1.66666667E+01  4.66666667E+00  0.00000000E+00
  1.66666667E+01  4.00000000E+00  0.00000000E+00
  1.66666667E+01  3.33333333E+00  0.00000000E+00
  1.66666667E+01  2.66666667E+00  0.00000000E+00
  1.66666667E+01  2.00000000E+00  0.00000000E+00
  1.66666667E+01  1.33333333E+00  0.00000000E+00
  1.66666667E+01  6.66666667E-01  0.00000000E+00
  1.66666667E+01  1.66533454E-15  0.00000000E+00
  1.77777778E+01  1.00000000E+01  0.00000000E+00
  1.77777778E+01  9.33333333E+00  0.00000000E+00
  1.77777778E+01  8.66666667E+00  0.00000000E+00
  1.77777778E+01  8.00000000E+00  0.00000000E+00
  1.77777778E+01  7.33333333E+00  0.00000000E+00
  1.77777778E+01  6.66666667E+00  0.00000000E+00
  1.77777778E+01  6.00000000E+00  0.00000000E+00
  1.77777778E+01  5.33333333E+00  0.00000000E+00
  1.77777778E+01  4.66666667E+00  0.00000000E+00
  1.77777778E+01  4.00000000E+00  0.00000000E+00
  1.77777778E+01  3.33333333E+00  0.00000000E+00
  1.77777778E+01  2.66666667E+00  0.00000000E+00
  1.77777778E+01  2.00000000E+00  0.00000000E+00
  1.77777778E+01  1.33333333E+00  0.00000000E+00
  1.77777778E+01  6.66666667E-01  0.00000000E+00
  1.77777778E+01  1.66533454E-15  0.00000000E+00
  1.88888889E+01  1.00000000E+01  0.00000000E+00
  1.88888889E+01  9.33333333E+00  0.00000000E+00
  1.88888889E+01  8.66666667E+00  0.00000000E+00
  1.88888889E+01  8.00000000E+00  0.00000000E+00
  1.88888889E+01  7.33333333E+00  0.00000000E+00
  1.88888889E+01  6.66666667E+00  0.00000000E+00
  1.88888889E+01  6.00000000E+00  0.00000000E+00
  1.88888889E+01  5.33333333E+00  0.00000000E+00
  1.88888889E+01  4.66666667E+00  0.00000000E+00
  1.88888889E+01  4.00000000E+00  0.00000000E+00
  1.88888889E+01  3.33333333E+00  0.00000000E+00
  1.88888889E+01  2.66666667E+00  0.00000000E+00
  1.88888889E+01  2.00000000E+00  0.00000000E+00
  1.88888889E+01  1.33333333E+00  0.00000000E+00
  1.88888889E+01  6.66666667E-01  0.00000000E+00
  1.88888889E+01  1.66533454E-15  0.00000000E+00
  2.00000000E+01  1.00000000E+01  0.00000000E+00
  2.00000000E+01  9.33333333E+00  0.00000000E+00
  2.00000000E+01  8.66666667E+00  0.00000000E+00
  2.00000000E+01  8.00000000E+00  0.00000000E+00
  2.00000000E+01  7.33333333E+00  0.00000000E+00
  2.00000000E+01  6.66666667E+00  0.00000000E+00
  2.00000000E+01  6.00000000E+00  0.00000000E+00
  2.00000000E+01  5.33333333E+00  0.00000000E+00
  2.00000000E+01  4.66666667E+00  0.00000000E+00
  2.00000000E+01  4.00000000E+00  0.00000000E+00
  2.00000000E+01  3.33333333E+00  0.00000000E+00
  2.00000000E+01  2.66666667E+00  0.00000000E+00
  2.00000000E+01  2.00000000E+00  0.00000000E+00
  2.00000000E+01  1.33333333E+00  0.00000000E+00
  2.00000000E+01  6.66666667E-01  0.00000000E+00
  2.00000000E+01  1.66533454E-15  0.00000000E+00
  2.11111111E+01  1.00000000E+01  0.00000000E+00
  2.11111111E+01  9.33333333E+00  0.00000000E+00
  2.11111111E+01  8.66666667E+00  0.00000000E+00
  2.11111111E+01  8.00000000E+00  0.00000000E+00
  2.11111111E+01  7.33333333E+00  0.00000000E+00
  2.11111111E+01  6.66666667E+00  0.00000000E+00
  2.11111111E+01  6.00000000E+00  0.00000000E+00
  2.11111111E+01  5.33333333E+00  0.00000000E+00
  2.11111111E+01  4.66666667E+00  0.00000000E+00
  2.11111111E+01  4.00000000E+00  0.00000000E+00
  2.11111111E+01  3.33333333E+00  0.00000000E+00
  2.11111111E+01  2.66666667E+00  0.00000000E+00
  2.11111111E+01  2.00000000E+00  0.00000000E+00
  2.11111111E+01  1.33333333E+00  0.00000000E+00
  2.11111111E+01  6.66666667E-01  0.00000000E+00
  2.11111111E+01  1.66533454E-15  0.00000000E+00
  2.22222222E+01  1.00000000E+01  0.00000000E+00
  2.22222222E+01  9.33333333E+00  0.00000000E+00
  2.22222222E+01  8.66666667E+00  0.00000000E+00
  2.22222222E+01  8.00000000E+00  0.00000000E+00
  2.22222222E+01  7.33333333E+00  0.00000000E+00
  2.22222222E+01  6.66666667E+00  0.00000000E+00
  2.22222222E+01  6.00000000E+00  0.00000000E+00
  2.22222222E+01  5.33333333E+00  0.00000000E+00
  2.22222222E+01  4.66666667E+00  0.00000000E+00
  2.22222222E+01  4.00000000E+00  0.00000000E+00
  2.22222222E+01  3.33333333E+00  0.00000000E+00
  2.22222222E+01  2.66666667E+00  0.00000000E+00
  2.22222222E+01  2.00000000E+00  0.00000000E+00
  2.22222222E+01  1.33333333E+00  0.00000000E+00
  2.22222222E+01  6.66666667E-01  0.00000000E+00
  2.22222222E+01  1.66533454E-15  0.00000000E+00
  2.33333333E+01  1.00000000E+01  0.00000000E+00
  2.33333333E+01  9.33333333E+00  0.00000000E+00
  2.33333333E+01  8.66666667E+00  0.00000000E+00
  2.33333333E+01  8.00000000E+00  0.00000000E+00
  2.33333333E+01  7.33333333E+00  0.00000000E+00
  2.33333333E+01  6.66666667E+00  0.00000000E+00
  2.33333333E+01  6.00000000E+00  0.00000000E+00
  2.33333333E+01  5.33333333E+00  0.00000000E+00
  2.33333333E+01  4.66666667E+00  0.00000000E+00
  2.33333333E+01  4.00000000E+00  0.00000000E+00
  2.33333333E+01  3.33333333E+00  0.00000000E+00
  2.33333333E+01  2.66666667E+00  0.00000000E+00
  2.33333333E+01  2.00000000E+00  0.00000000E+00
  2.33333333E+01  1.33333333E+00  0.00000000E+00
  2.33333333E+01  6.66666667E-01  0.00000000E+00
  2.33333333E+01  1.66533454E-15  0.00000000E+00
  2.44444444E+01  1.00000000E+01  0.00000000E+00
  2.44444444E+01  9.33333333E+00  0.00000000E+00
  2.44444444E+01  8.66666667E+00  0.00000000E+00
  2.44444444E+01  8.00000000E+00  0.00000000E+00
  2.44444444E+01  7.33333333E+00  0.00000000E+00
  2.44444444E+01  6.66666667E+00  0.00000000E+00
  2.44444444E+01  6.00000000E+00  0.00000000E+00
  2.44444444E+01  5.33333333E+00  0.00000000E+00
  2.44444444E+01  4.66666667E+00  0.00000000E+00
  2.44444444E+01  4.00000000E+00  0.00000000E+00
  2.44444444E+01  3.33333333E+00  0.00000000E+00
  2.44444444E+01  2.66666667E+00  0.00000000E+00
  2.44444444E+01  2.00000000E+00  0.00000000E+00
  2.44444444E+01  1.33333333E+00  0.00000000E+00
  2.44444444E+01  6.66666667E-01  0.00000000E+00
  2.44444444E+01  1.66533454E-15  0.00000000E+00
  2.55555556E+01  1.00000000E+01  0.00000000E+00
  2.55555556E+01  9.33333333E+00  0.00000000E+00
  2.55555556E+01  8.66666667E+00  0.00000000E+00
  2.55555556E+01  8.00000000E+00  0.00000000E+00
  2.55555556E+01  7.33333333E+00  0.00000000E+00
  2.55555556E+01  6.66666667E+00  0.00000000E+00
  2.55555556E+01  6.00000000E+00  0.00000000E+00
  2.55555556E+01  5.33333333E+00  0.00000000E+00
  2.55555556E+01  4.66666667E+00  0.00000000E+00
  2.55555556E+01  4.00000000E+00  0.00000000E+00
  2.55555556E+01  3.33333333E+00  0.00000000E+00
  2.55555556E+01  2.66666667E+00  0.00000000E+00
  2.55555556E+01  2.00000000E+00  0.00000000E+00
  2.55555556E+01  1.33333333E+00  0.00000000E+00
  2.55555556E+01  6.66666667E-01  0.00000000E+00
  2.55555556E+01  1.66533454E-15  0.00000000E+00
  2.66666667E+01  1.00000000E+01  0.00000000E+00
  2.66666667E+01  9.33333333E+00  0.00000000E+00
  2.66666667E+01  8.66666667E+00  0.00000000E+00
  2.66666667E+01  8.00000000E+00  0.00000000E+00
  2.66666667E+01  7.33333333E+00  0.00000000E+00
  2.66666667E+01  6.66666667E+00  0.00000000E+00
  2.66666667E+01  6.00000000E+00  0.00000000E+00
  2.66666667E+01  5.33333333E+00  0.00000000E+00
  2.66666667E+01  4.66666667E+00  0.00000000E+00
  2.66666667E+01  4.00000000E+00  0.00000000E+00
  2.66666667E+01  3.33333333E+00  0.00000000E+00
  2.66666667E+01  2.66666667E+00  0.00000000E+00
  2.66666667E+01  2.00000000E+00  0.00000000E+00
  2.66666667E+01  1.33333333E+00  0.00000000E+00
  2.66666667E+01  6.66666667E-01  0.00000000E+00
  2.66666667E+01  1.66533454E-15  0.00000000E+00
  2.77777778E+01  1.00000000E+01  0.00000000E+00
  2.77777778E+01  9.33333333E+00  0.00000000E+00
  2.77777778E+01  8.66666667E+00  0.00000000E+00
  2.77777778E+01  8.00000000E+00  0.00000000E+00
  2.77777778E+01  7.33333333E+00  0.00000000E+00
  2.77777778E+01  6.66666667E+00  0.00000000E+00
  2.77777778E+01  6.00000000E+00  0.00000000E+00
  2.77777778E+01  5.33333333E+00  0.00000000E+00
  2.77777778E+01  4.66666667E+00  0.00000000E+00
  2.77777778E+01  4.00000000E+00  0.00000000E+00
  2.77777778E+01  3.33333333E+00  0.00000000E+00
  2.77777778E+01  2.66666667E+00  0.00000000E+00
  2.77777778E+01  2.00000000E+00  0.00000000E+00
  2.77777778E+01  1.33333333E+00  0.00000000E+00
  2.77777778E+01  6.66666667E-01  0.00000000E+00
  2.77777778E+01  1.66533454E-15  0.00000000E+00
  2.88888889E+01  1.00000000E+01  0.00000000E+00
  2.88888889E+01  9.33333333E+00  0.00000000E+00
  2.88888889E+01  8.66666667E+00  0.00000000E+00
  2.88888889E+01  8.00000000E+00  0.00000000E+00
  2.88888889E+01  7.33333333E+00  0.00000000E+00
  2.88888889E+01  6.66666667E+00  0.00000000E+00
  2.88888889E+01  6.00000000E+00  0.00000000E+00
  2.88888889E+01  5.33333333E+00  0.00000000E+00
  2.88888889E+01  4.66666667E+00  0.00000000E+00
  2.88888889E+01  4.00000000E+00  0.00000000E+00
  2.88888889E+01  3.33333333E+00  0.00000000E+00
  2.88888889E+01  2.66666667E+00  0.00000000E+00
  2.88888889E+01  2.00000000E+00  0.00000000E+00
  2.88888889E+01  1.33333333E+00  0.00000000E+00
  2.88888889E+01  6.66666667E-01  0.00000000E+00
  2.88888889E+01  1.66533454E-15  0.00000000E+00
  3.00000000E+01  1.00000000E+01  0.00000000E+00
  3.00000000E+01  9.33333333E+00  0.00000000E+00
  3.00000000E+01  8.66666667E+00  0.00000000E+00
  3.00000000E+01  8.00000000E+00  0.00000000E+00
  3.00000000E+01  7.33333333E+00  0.00000000E+00
  3.00000000E+01  6.66666667E+00  0.00000000E+00
  3.00000000E+01  6.00000000E+00  0.00000000E+00
  3.00000000E+01  5.33333333E+00  0.00000000E+00
  3.00000000E+01  4.66666667E+00  0.00000000E+00
  3.00000000E+01  4.00000000E+00  0.00000000E+00
  3.00000000E+01  3.33333333E+00  0.00000000E+00
  3.00000000E+01  2.66666667E+00  0.00000000E+00
  3.00000000E+01  2.00000000E+00  0.00000000E+00
  3.00000000E+01  1.33333333E+00  0.00000000E+00
  3.00000000E+01  6.66666667E-01  0.00000000E+00
  3.00000000E+01  1.66533454E-15  0.00000000E+00
  3.11111111E+01  1.00000000E+01  0.00000000E+00
  3.11111111E+01  9.33333333E+00  0.00000000E+00
  3.11111111E+01  8.66666667E+00  0.00000000E+00
  3.11111111E+01  8.00000000E+00  0.00000000E+00
  3.11111111E+01  7.33333333E+00  0.00000000E+00
  3.11111111E+01  6.66666667E+00  0.00000000E+00
  3.11111111E+01  6.00000000E+00  0.00000000E+00
  3.11111111E+01  5.33333333E+00  0.00000000E+00
  3.11111111E+01  4.66666667E+00  0.00000000E+00
  3.11111111E+01  4.00000000E+00  0.00000000E+00
  3.11111111E+01  3.33333333E+00  0.00000000E+00
  3.11111111E+01  2.66666667E+00  0.00000000E+00
  3.11111111E+01  2.00000000E+00  0.00000000E+00
  3.11111111E+01  1.33333333E+00  0.00000000E+00
  3.11111111E+01  6.66666667E-01  0.00000000E+00
  3.11111111E+01  1.66533454E-15  0.00000000E+00
  3.22222222E+01  1.00000000E+01  0.00000000E+00
  3.22222222E+01  9.33333333E+00  0.00000000E+00
  3.22222222E+01  8.66666667E+00  0.00000000E+00
  3.22222222E+01  8.00000000E+00  0.00000000E+00
  3.22222222E+01  7.33333333E+00  0.00000000E+00
  3.22222222E+01  6.66666667E+00  0.00000000E+00
  3.22222222E+01  6.00000000E+00  0.00000000E+00
  3.22222222E+01  5.33333333E+00  0.00000000E+00
  3.22222222E+01  4.66666667E+00  0.00000000E+00
  3.22222222E+01  4.00000000E+00  0.00000000E+00
  3.22222222E+01  3.33333333E+00  0.00000000E+00
  3.22222222E+01  2.66666667E+00  0.00000000E+00
  3.22222222E+01  2.00000000E+00  0.00000000E+00
  3.22222222E+01  1.33333333E+00  0.00000000E+00
  3.22222222E+01  6.66666667E-01  0.00000000E+00
  3.22222222E+01  1.66533454E-15  0.00000000E+00
  3.33333333E+01  1.00000000E+01  0.00000000E+00
  3.33333333E+01  9.33333333E+00  0.00000000E+00
  3.33333333E+01  8.66666667E+00  0.00000000E+00
  3.33333333E+01  8.00000000E+00  0.00000000E+00
  3.33333333E+01  7.33333333E+00  0.00000000E+00
  3.33333333E+01  6.66666667E+00  0.00000000E+00
  3.33333333E+01  6.00000000E+00  0.00000000E+00
  3.33333333E+01  5.33333333E+00  0.00000000E+00
  3.33333333E+01  4.66666667E+00  0.00000000E+00
  3.33333333E+01  4.00000000E+00  0.00000000E+00
  3.33333333E+01  3.33333333E+00  0.00000000E+00
  3.33333333E+01  2.66666667E+00  0.00000000E+00
  3.33333333E+01  2.00000000E+00  0.00000000E+00
  3.33333333E+01  1.33333333E+00  0.00000000E+00
  3.33333333E+01  6.66666667E-01  0.00000000E+00
  3.33333333E+01  1.66533454E-15  0.00000000E+00
  3.44444444E+01  1.00000000E+01  0.00000000E+00
  3.44444444E+01  9.33333333E+00  0.00000000E+00
  3.44444444E+01  8.66666667E+00  0.00000000E+00
  3.44444444E+01  8.00000000E+00  0.00000000E+00
  3.44444444E+01  7.33333333E+00  0.00000000E+00
  3.44444444E+01  6.66666667E+00  0.00000000E+00
  3.44444444E+01  6.00000000E+00  0.00000000E+00
  3.44444444E+01  5.33333333E+00  0.00000000E+00
  3.44444444E+01  4.66666667E+00  0.00000000E+00
  3.44444444E+01  4.00000000E+00  0.00000000E+00
  3.44444444E+01  3.33333333E+00  0.00000000E+00
  3.44444444E+01  2.66666667E+00  0.00000000E+00
  3.44444444E+01  2.00000000E+00  0.00000000E+00
  3.44444444E+01  1.33333333E+00  0.00000000E+00
  3.44444444E+01  6.66666667E-01  0.00000000E+00
  3.44444444E+01  1.66533454E-15  0.00000000E+00
  3.55555556E+01  1.00000000E+01  0.00000000E+00
  3.55555556E+01  9.33333333E+00  0.00000000E+00
  3.55555556E+01  8.66666667E+00  0.00000000E+00
  3.55555556E+01  8.00000000E+00  0.00000000E+00
  3.55555556E+01  7.33333333E+00  0.00000000E+00
  3.55555556E+01  6.66666667E+00  0.00000000E+00
  3.55555556E+01  6.00000000E+00  0.00000000E+00
  3.55555556E+01  5.33333333E+00  0.00000000E+00
  3.55555556E+01  4.66666667E+00  0.00000000E+00
  3.55555556E+01  4.00000000E+00  0.00000000E+00
  3.55555556E+01  3.33333333E+00  0.00000000E+00
  3.55555556E+01  2.66666667E+00  0.00000000E+00
  3.55555556E+01  2.00000000E+00  0.00000000E+00
  3.55555556E+01  1.33333333E+00  0.00000000E+00
  3.55555556E+01  6.66666667E-01  0.00000000E+00
  3.55555556E+01  1.66533454E-15  0.00000000E+00
  3.66666667E+01  1.00000000E+01  0.00000000E+00
  3.66666667E+01  9.33333333E+00  0.00000000E+00
  3.66666667E+01  8.66666667E+00  0.00000000E+00
  3.66666667E+01  8.00000000E+00  0.00000000E+00
  3.66666667E+01  7.33333333E+00  0.00000000E+00
  3.66666667E+01  6.66666667E+00  0.00000000E+00
  3.66666667E+01  6.00000000E+00  0.00000000E+00
  3.66666667E+01  5.33333333E+00  0.00000000E+00
  3.66666667E+01  4.66666667E+00  0.00000000E+00
  3.66666667E+01  4.00000000E+00  0.00000000E+00
  3.66666667E+01  3.33333333E+00  0.00000000E+00
  3.66666667E+01  2.66666667E+00  0.00000000E+00
  3.66666667E+01  2.00000000E+00  0.00000000E+00
  3.66666667E+01  1.33333333E+00  0.00000000E+00
  3.66666667E+01  6.66666667E-01  0.00000000E+00
  3.66666667E+01  1.66533454E-15  0.00000000E+00
  3.77777778E+01  1.00000000E+01  0.00000000E+00
  3.77777778E+01  9.33333333E+00  0.00000000E+00
  3.77777778E+01  8.66666667E+00  0.00000000E+00
  3.77777778E+01  8.00000000E+00  0.00000000E+00
  3.77777778E+01  7.33333333E+00  0.00000000E+00
  3.77777778E+01  6.66666667E+00  0.00000000E+00
  3.77777778E+01  6.00000000E+00  0.00000000E+00
  3.77777778E+01  5.33333333E+00  0.00000000E+00
  3.77777778E+01  4.66666667E+00  0.00000000E+00
  3.77777778E+01  4.00000000E+00  0.00000000E+00
  3.77777778E+01  3.33333333E+00  0.00000000E+00
  3.77777778E+01  2.66666667E+00  0.00000000E+00
  3.77777778E+01  2.00000000E+00  0.00000000E+00
  3.77777778E+01  1.33333333E+00  0.00000000E+00
  3.77777778E+01  6.66666667E-01  0.00000000E+00
  3.77777778E+01  1.66533454E-15  0.00000000E+00
  3.88888889E+01  1.00000000E+01  0.00000000E+00
  3.88888889E+01  9.33333333E+00  0.00000000E+00
  3.88888889E+01  8.66666667E+00  0.00000000E+00
  3.88888889E+01  8.00000000E+00  0.00000000E+00
  3.88888889E+01  7.33333333E+00  0.00000000E+00
  3.88888889E+01  6.66666667E+00  0.00000000E+00
  3.88888889E+01  6.00000000E+00  0.00000000E+00
  3.88888889E+01  5.33333333E+00  0.00000000E+00
  3.88888889E+01  4.66666667E+00  0.00000000E+00
  3.88888889E+01  4.00000000E+00  0.00000000E+00
  3.88888889E+01  3.33333333E+00  0.00000000E+00
  3.88888889E+01  2.66666667E+00  0.00000000E+00
  3.88888889E+01  2.00000000E+00  0.00000000E+00
  3.88888889E+01  1.33333333E+00  0.00000000E+00
  3.88888889E+01  6.66666667E-01  0.00000000E+00
  3.88888889E+01  1.66533454E-15  0.00000000E+00
  4.00000000E+01  1.00000000E+01  0.00000000E+00
  4.00000000E+01  9.33333333E+00  0.00000000E+00
  4.00000000E+01  8.66666667E+00  0.00000000E+00
  4.00000000E+01  8.00000000E+00  0.00000000E+00
  4.00000000E+01  7.33333333E+00  0.00000000E+00
  4.00000000E+01  6.66666667E+00  0.00000000E+00
  4.00000000E+01  6.00000000E+00  0.00000000E+00
  4.00000000E+01  5.33333333E+00  0.00000000E+00
  4.00000000E+01  4.66666667E+00  0.00000000E+00
  4.00000000E+01  4.00000000E+00  0.00000000E+00
  4.00000000E+01  3.33333333E+00  0.00000000E+00
  4.00000000E+01  2.66666667E+00  0.00000000E+00
  4.00000000E+01  2.00000000E+00  0.00000000E+00
  4.00000000E+01  1.33333333E+00  0.00000000E+00
  4.00000000E+01  6.66666667E-01  0.00000000E+00
  4.00000000E+01  1.66533454E-15  0.00000000E+00
  4.11111111E+01  1.00000000E+01  0.00000000E+00
  4.11111111E+01  9.33333333E+00  0.00000000E+00
  4.11111111E+01  8.66666667E+00  0.00000000E+00
  4.11111111E+01  8.00000000E+00  0.00000000E+00
  4.11111111E+01  7.33333333E+00  0.00000000E+00
  4.11111111E+01  6.66666667E+00  0.00000000E+00
  4.11111111E+01  6.00000000E+00  0.00000000E+00
  4.11111111E+01  5.33333333E+00  0.00000000E+00
  4.11111111E+01  4.66666667E+00  0.00000000E+00
  4.11111111E+01  4.00000000E+00  0.00000000E+00
  4.11111111E+01  3.33333333E+00  0.00000000E+00
  4.11111111E+01  2.66666667E+00  0.00000000E+00
  4.11111111E+01  2.00000000E+00  0.00000000E+00
  4.11111111E+01  1.33333333E+00  0.00000000E+00
  4.11111111E+01  6.66666667E-01  0.00000000E+00
  4.11111111E+01  1.66533454E-15  0.00000000E+00
  4.22222222E+01  1.00000000E+01  0.00000000E+00
  4.22222222E+01  9.33333333E+00  0.00000000E+00
  4.22222222E+01  8.66666667E+00  0.00000000E+00
  4.22222222E+01  8.00000000E+00  0.00000000E+00
  4.22222222E+01  7.33333333E+00  0.00000000E+00
  4.22222222E+01  6.66666667E+00  0.00000000E+00
  4.22222222E+01  6.00000000E+00  0.00000000E+00
  4.22222222E+01  5.33333333E+00  0.00000000E+00
  4.22222222E+01  4.66666667E+00  0.00000000E+00
  4.22222222E+01  4.00000000E+00  0.00000000E+00
  4.22222222E+01  3.33333333E+00  0.00000000E+00
  4.22222222E+01  2.66666667E+00  0.00000000E+00
  4.22222222E+01  2.00000000E+00  0.00000000E+00
  4.22222222E+01  1.33333333E+00  0.00000000E+00
  4.22222222E+01  6.66666667E-01  0.00000000E+00
  4.22222222E+01  1.66533454E-15  0.00000000E+00
  4.33333333E+01  1.00000000E+01  0.00000000E+00
  4.33333333E+01  9.33333333E+00  0.00000000E+00
  4.33333333E+01  8.66666667E+00  0.00000000E+00
  4.33333333E+01  8.00000000E+00  0.00000000E+00
  4.33333333E+01  7.33333333E+00  0.00000000E+00
  4.33333333E+01  6.66666667E+00  0.00000000E+00
  4.33333333E+01  6.00000000E+00  0.00000000E+00
  4.33333333E+01  5.33333333E+00  0.00000000E+00
  4.33333333E+01  4.66666667E+00  0.00000000E+00
  4.33333333E+01  4.00000000E+00  0.00000000E+00
  4.33333333E+01  3.33333333E+00  0.00000000E+00
  4.33333333E+01  2.66666667E+00  0.00000000E+00
  4.33333333E+01  2.00000000E+00  0.00000000E+00
  4.33333333E+01  1.33333333E+00  0.00000000E+00
  4.33333333E+01  6.66666667E-01  0.00000000E+00
  4.33333333E+01  1.66533454E-15  0.00000000E+00
  4.44444444E+01  1.00000000E+01  0.00000000E+00
  4.44444444E+01  9.33333333E+00  0.00000000E+00
  4.44444444E+01  8.66666667E+00  0.00000000E+00
  4.44444444E+01  8.00000000E+00  0.00000000E+00
  4.44444444E+01  7.33333333E+00  0.00000000E+00
  4.44444444E+01  6.66666667E+00  0.00000000E+00
  4.44444444E+01  6.00000000E+00  0.00000000E+00
  4.44444444E+01  5.33333333E+00  0.00000000E+00
  4.44444444E+01  4.66666667E+00  0.00000000E+00
  4.44444444E+01  4.00000000E+00  0.00000000E+00
  4.44444444E+01  3.33333333E+00  0.00000000E+00
  4.44444444E+01  2.66666667E+00  0.00000000E+00
  4.44444444E+01  2.00000000E+00  0.00000000E+00
  4.44444444E+01  1.33333333E+00  0.00000000E+00
  4.44444444E+01  6.66666667E-01  0.00000000E+00
  4.44444444E+01  1.66533454E-15  0.00000000E+00
  4.55555556E+01  1.00000000E+01  0.00000000E+00
  4.55555556E+01  9.33333333E+00  0.00000000E+00
  4.55555556E+01  8.66666667E+00  0.00000000E+00
  4.55555556E+01  8.00000000E+00  0.00000000E+00
  4.55555556E+01  7.33333333E+00  0.00000000E+00
  4.55555556E+01  6.66666667E+00  0.00000000E+00
  4.55555556E+01  6.00000000E+00  0.00000000E+00
  4.55555556E+01  5.33333333E+00  0.00000000E+00
  4.55555556E+01  4.66666667E+00  0.00000000E+00
  4.55555556E+01  4.00000000E+00  0.00000000E+00
  4.55555556E+01  3.33333333E+00  0.00000000E+00
  4.55555556E+01  2.66666667E+00  0.00000000E+00
  4.55555556E+01  2.00000000E+00  0.00000000E+00
  4.55555556E+01  1.33333333E+00  0.00000000E+00
  4.55555556E+01  6.66666667E-01  0.00000000E+00
  4.55555556E+01  1.66533454E-15  0.00000000E+00
  4.66666667E+01  1.00000000E+01  0.00000000E+00
  4.66666667E+01  9.33333333E+00  0.00000000E+00
  4.66666667E+01  8.66666667E+00  0.00000000E+00
  4.66666667E+01  8.00000000E+00  0.00000000E+00
  4.66666667E+01  7.33333333E+00  0.00000000E+00
  4.66666667E+01  6.66666667E+00  0.00000000E+00
  4.66666667E+01  6.00000000E+00  0.00000000E+00
  4.66666667E+01  5.33333333E+00  0.00000000E+00
  4.66666667E+01  4.66666667E+00  0.00000000E+00
  4.66666667E+01  4.00000000E+00  0.00000000E+00
  4.66666667E+01  3.33333333E+00  0.00000000E+00
  4.66666667E+01  2.66666667E+00  0.00000000E+00
  4.66666667E+01  2.00000000E+00  0.00000000E+00
  4.66666667E+01  1.33333333E+00  0.00000000E+00
  4.66666667E+01  6.66666667E-01  0.00000000E+00
  4.66666667E+01  1.66533454E-15  0.00000000E+00
  4.77777778E+01  1.00000000E+01  0.00000000E+00
  4.77777778E+01  9.33333333E+00  0.00000000E+00
  4.77777778E+01  8.66666667E+00  0.00000000E+00
  4.77777778E+01  8.00000000E+00  0.00000000E+00
  4.77777778E+01  7.33333333E+00  0.00000000E+00
  4.77777778E+01  6.66666667E+00  0.00000000E+00
  4.77777778E+01  6.00000000E+00  0.00000000E+00
  4.77777778E+01  5.33333333E+00  0.00000000E+00
  4.77777778E+01  4.66666667E+00  0.00000000E+00
  4.77777778E+01  4.00000000E+00  0.00000000E+00
  4.77777778E+01  3.33333333E+00  0.00000000E+00
  4.77777778E+01  2.66666667E+00  0.00000000E+00
  4.77777778E+01  2.00000000E+00  0.00000000E+00
  4.77777778E+01  1.33333333E+00  0.00000000E+00
  4.77777778E+01  6.66666667E-01  0.00000000E+00
  4.77777778E+01  1.66533454E-15  0.00000000E+00
  4.88888889E+01  1.00000000E+01  0.00000000E+00
  4.88888889E+01  9.33333333E+00  0.00000000E+00
  4.88888889E+01  8.66666667E+00  0.00000000E+00
  4.88888889E+01  8.00000000E+00  0.00000000E+00
  4.88888889E+01  7.33333333E+00  0.00000000E+00
  4.88888889E+01  6.66666667E+00  0.00000000E+00
  4.88888889E+01  6.00000000E+00  0.00000000E+00
  4.88888889E+01  5.33333333E+00  0.00000000E+00
  4.88888889E+01  4.66666667E+00  0.00000000E+00
  4.88888889E+01  4.00000000E+00  0.00000000E+00
  4.88888889E+01  3.33333333E+00  0.00000000E+00
  4.88888889E+01  2.66666667E+00  0.00000000E+00
  4.88888889E+01  2.00000000E+00  0.00000000E+00
  4.88888889E+01  1.33333333E+00  0.00000000E+00
  4.88888889E+01  6.66666667E-01  0.00000000E+00
  4.88888889E+01  1.66533454E-15  0.00000000E+00
  5.00000000E+01  1.00000000E+01  0.00000000E+00
  5.00000000E+01  9.33333333E+00  0.00000000E+00
  5.00000000E+01  8.66666667E+00  0.00000000E+00
  5.00000000E+01  8.00000000E+00  0.00000000E+00
  5.00000000E+01  7.33333333E+00  0.00000000E+00
  5.00000000E+01  6.66666667E+00  0.00000000E+00
  5.00000000E+01  6.00000000E+00  0.00000000E+00
  5.00000000E+01  5.33333333E+00  0.00000000E+00
  5.00000000E+01  4.66666667E+00  0.00000000E+00
  5.00000000E+01  4.00000000E+00  0.00000000E+00
  5.00000000E+01  3.33333333E+00  0.00000000E+00
  5.00000000E+01  2.66666667E+00  0.00000000E+00
  5.00000000E+01  2.00000000E+00  0.00000000E+00
  5.00000000E+01  1.33333333E+00  0.00000000E+00
  5.00000000E+01  6.66666667E-01  0.00000000E+00
  5.00000000E+01  1.66533454E-15  0.00000000E+00
  5.11111111E+01  1.00000000E+01  0.00000000E+00
  5.11111111E+01  9.33333333E+00  0.00000000E+00
  5.11111111E+01  8.66666667E+00  0.00000000E+00
  5.11111111E+01  8.00000000E+00  0.00000000E+00
  5.11111111E+01  7.33333333E+00  0.00000000E+00
  5.11111111E+01  6.66666667E+00  0.00000000E+00
  5.11111111E+01  6.00000000E+00  0.00000000E+00
  5.11111111E+01  5.33333333E+00  0.00000000E+00
  5.11111111E+01  4.66666667E+00  0.00000000E+00
  5.11111111E+01  4.00000000E+00  0.00000000E+00
  5.11111111E+01  3.33333333E+00  0.00000000E+00
  5.11111111E+01  2.66666667E+00  0.00000000E+00
  5.11111111E+01  2.00000000E+00  0.00000000E+00
  5.11111111E+01  1.33333333E+00  0.00000000E+00
  5.11111111E+01  6.66666667E-01  0.00000000E+00
  5.11111111E+01  1.66533454E-15  0.00000000E+00
  5.22222222E+01  1.00000000E+01  0.00000000E+00
  5.22222222E+01  9.33333333E+00  0.00000000E+00
  5.22222222E+01  8.66666667E+00  0.00000000E+00
  5.22222222E+01  8.00000000E+00  0.00000000E+00
  5.22222222E+01  7.33333333E+00  0.00000000E+00
  5.22222222E+01  6.66666667E+00  0.00000000E+00
  5.22222222E+01  6.00000000E+00  0.00000000E+00
  5.22222222E+01  5.33333333E+00  0.00000000E+00
  5.22222222E+01  4.66666667E+00  0.00000000E+00
  5.22222222E+01  4.00000000E+00  0.00000000E+00
  5.22222222E+01  3.33333333E+00  0.00000000E+00
  5.22222222E+01  2.66666667E+00  0.00000000E+00
  5.22222222E+01  2.00000000E+00  0.00000000E+00
  5.22222222E+01  1.33333333E+00  0.00000000E+00
  5.22222222E+01  6.66666667E-01  0.00000000E+00
  5.22222222E+01  1.66533454E-15  0.00000000E+00
  5.33333333E+01  1.00000000E+01  0.00000000E+00
  5.33333333E+01  9.33333333E+00  0.00000000E+00
  5.33333333E+01  8.66666667E+00  0.00000000E+00
  5.33333333E+01  8.00000000E+00  0.00000000E+00
  5.33333333E+01  7.33333333E+00  0.00000000E+00
  5.33333333E+01  6.66666667E+00  0.00000000E+00
  5.33333333E+01  6.00000000E+00  0.00000000E+00
  5.33333333E+01  5.33333333E+00  0.00000000E+00
  5.33333333E+01  4.66666667E+00  0.00000000E+00
  5.33333333E+01  4.00000000E+00  0.00000000E+00
  5.33333333E+01  3.33333333E+00  0.00000000E+00
  5.33333333E+01  2.66666667E+00  0.00000000E+00
  5.33333333E+01  2.00000000E+00  0.00000000E+00
  5.33333333E+01  1.33333333E+00  0.00000000E+00
  5.33333333E+01  6.66666667E-01  0.00000000E+00
  5.33333333E+01  1.66533454E-15  0.00000000E+00
  5.44444444E+01  1.00000000E+01  0.00000000E+00
  5.44444444E+01  9.33333333E+00  0.00000000E+00
  5.44444444E+01  8.66666667E+00  0.00000000E+00
  5.44444444E+01  8.00000000E+00  0.00000000E+00
  5.44444444E+01  7.33333333E+00  0.00000000E+00
  5.44444444E+01  6.66666667E+00  0.00000000E+00
  5.44444444E+01  6.00000000E+00  0.00000000E+00
  5.44444444E+01  5.33333333E+00  0.00000000E+00
  5.44444444E+01  4.66666667E+00  0.00000000E+00
  5.44444444E+01  4.00000000E+00  0.00000000E+00
  5.44444444E+01  3.33333333E+00  0.00000000E+00
  5.44444444E+01  2.66666667E+00  0.00000000E+00
  5.44444444E+01  2.00000000E+00  0.00000000E+00
  5.44444444E+01  1.33333333E+00  0.00000000E+00
  5.44444444E+01  6.66666667E-01  0.00000000E+00
  5.44444444E+01  1.66533454E-15  0.00000000E+00
  5.55555556E+01  1.00000000E+01  0.00000000E+00
  5.55555556E+01  9.33333333E+00  0.00000000E+00
  5.55555556E+01  8.66666667E+00  0.00000000E+00
  5.55555556E+01  8.00000000E+00  0.00000000E+00
  5.55555556E+01  7.33333333E+00  0.00000000E+00
  5.55555556E+01  6.66666667E+00  0.00000000E+00
  5.55555556E+01  6.00000000E+00  0.00000000E+00
  5.55555556E+01  5.33333333E+00  0.00000000E+00
  5.55555556E+01  4.66666667E+00  0.00000000E+00
  5.55555556E+01  4.00000000E+00  0.00000000E+00
  5.55555556E+01  3.33333333E+00  0.00000000E+00
  5.55555556E+01  2.66666667E+00  0.00000000E+00
  5.55555556E+01  2.00000000E+00  0.00000000E+00
  5.55555556E+01  1.33333333E+00  0.00000000E+00
  5.55555556E+01  6.66666667E-01  0.00000000E+00
  5.55555556E+01  1.66533454E-15  0.00000000E+00
  5.66666667E+01  1.00000000E+01  0.00000000E+00
  5.66666667E+01  9.33333333E+00  0.00000000E+00
  5.66666667E+01  8.66666667E+00  0.00000000E+00
  5.66666667E+01  8.00000000E+00  0.00000000E+00
  5.66666667E+01  7.33333333E+00  0.00000000E+00
  5.66666667E+01  6.66666667E+00  0.00000000E+00
  5.66666667E+01  6.00000000E+00  0.00000000E+00
  5.66666667E+01  5.33333333E+00  0.00000000E+00
  5.66666667E+01  4.66666667E+00  0.00000000E+00
  5.66666667E+01  4.00000000E+00  0.00000000E+00
  5.66666667E+01  3.33333333E+00  0.00000000E+00
  5.66666667E+01  2.66666667E+00  0.00000000E+00
  5.66666667E+01  2.00000000E+00  0.00000000E+00
  5.66666667E+01  1.33333333E+00  0.00000000E+00
  5.66666667E+01  6.66666667E-01  0.00000000E+00
  5.66666667E+01  1.66533454E-15  0.00000000E+00
  5.77777778E+01  1.00000000E+01  0.00000000E+00
  5.77777778E+01  9.33333333E+00  0.00000000E+00
  5.77777778E+01  8.66666667E+00  0.00000000E+00
  5.77777778E+01  8.00000000E+00  0.00000000E+00
  5.77777778E+01  7.33333333E+00  0.00000000E+00
  5.77777778E+01  6.66666667E+00  0.00000000E+00
  5.77777778E+01  6.00000000E+00  0.00000000E+00
  5.77777778E+01  5.33333333E+00  0.00000000E+00
  5.77777778E+01  4.66666667E+00  0.00000000E+00
  5.77777778E+01  4.00000000E+00  0.00000000E+00
  5.77777778E+01  3.33333333E+00  0.00000000E+00
  5.77777778E+01  2.66666667E+00  0.00000000E+00
  5.77777778E+01  2.00000000E+00  0.00000000E+00
  5.77777778E+01  1.33333333E+00  0.00000000E+00
  5.77777778E+01  6.66666667E-01  0.00000000E+00
  5.77777778E+01  1.66533454E-15  0.00000000E+00
  5.88888889E+01  1.00000000E+01  0.00000000E+00
  5.88888889E+01  9.33333333E+00  0.00000000E+00
  5.88888889E+01  8.66666667E+00  0.00000000E+00
  5.88888889E+01  8.00000000E+00  0.00000000E+00
  5.88888889E+01  7.33333333E+00  0.00000000E+00
  5.88888889E+01  6.66666667E+00  0.00000000E+00
  5.88888889E+01  6.00000000E+00  0.00000000E+00
  5.88888889E+01  5.33333333E+00  0.00000000E+00
  5.88888889E+01  4.66666667E+00  0.00000000E+00
  5.88888889E+01  4.00000000E+00  0.00000000E+00
  5.88888889E+01  3.33333333E+00  0.00000000E+00
  5.88888889E+01  2.66666667E+00  0.00000000E+00
  5.88888889E+01  2.00000000E+00  0.00000000E+00
  5.88888889E+01  1.33333333E+00  0.00000000E+00
  5.88888889E+01  6.66666667E-01  0.00000000E+00
  5.88888889E+01  1.66533454E-15  0.00000000E+00
  6.00000000E+01  1.00000000E+01  0.00000000E+00
  6.00000000E+01  9.33333333E+00  0.00000000E+00
  6.00000000E+01  8.66666667E+00  0.00000000E+00
  6.00000000E+01  8.00000000E+00  0.00000000E+00
  6.00000000E+01  7.33333333E+00  0.00000000E+00
  6.00000000E+01  6.66666667E+00  0.00000000E+00
  6.00000000E+01  6.00000000E+00  0.00000000E+00
  6.00000000E+01  5.33333333E+00  0.00000000E+00
  6.00000000E+01  4.66666667E+00  0.00000000E+00
  6.00000000E+01  4.00000000E+00  0.00000000E+00
  6.00000000E+01  3.33333333E+00  0.00000000E+00
  6.00000000E+01  2.66666667E+00  0.00000000E+00
  6.00000000E+01  2.00000000E+00  0.00000000E+00
  6.00000000E+01  1.33333333E+00  0.00000000E+00
  6.00000000E+01  6.66666667E-01  0.00000000E+00
  6.00000000E+01  1.66533454E-15  0.00000000E+00
  6.11111111E+01  1.00000000E+01  0.00000000E+00
  6.11111111E+01  9.33333333E+00  0.00000000E+00
  6.11111111E+01  8.66666667E+00  0.00000000E+00
  6.11111111E+01  8.00000000E+00  0.00000000E+00
  6.11111111E+01  7.33333333E+00  0.00000000E+00
  6.11111111E+01  6.66666667E+00  0.00000000E+00
  6.11111111E+01  6.00000000E+00  0.00000000E+00
  6.11111111E+01  5.33333333E+00  0.00000000E+00
  6.11111111E+01  4.66666667E+00  0.00000000E+00
  6.11111111E+01  4.00000000E+00  0.00000000E+00
  6.11111111E+01  3.33333333E+00  0.00000000E+00
  6.11111111E+01  2.66666667E+00  0.00000000E+00
  6.11111111E+01  2.00000000E+00  0.00000000E+00
  6.11111111E+01  1.33333333E+00  0.00000000E+00
  6.11111111E+01  6.66666667E-01  0.00000000E+00
  6.11111111E+01  1.66533454E-15  0.00000000E+00
  6.22222222E+01  1.00000000E+01  0.00000000E+00
  6.22222222E+01  9.33333333E+00  0.00000000E+00
  6.22222222E+01  8.66666667E+00  0.00000000E+00
  6.22222222E+01  8.00000000E+00  0.00000000E+00
  6.22222222E+01  7.33333333E+00  0.00000000E+00
  6.22222222E+01  6.66666667E+00  0.00000000E+00
  6.22222222E+01  6.00000000E+00  0.00000000E+00
  6.22222222E+01  5.33333333E+00  0.00000000E+00
  6.22222222E+01  4.66666667E+00  0.00000000E+00
  6.22222222E+01  4.00000000E+00  0.00000000E+00
  6.22222222E+01  3.33333333E+00  0.00000000E+00
  6.22222222E+01  2.66666667E+00  0.00000000E+00
  6.22222222E+01  2.00000000E+00  0.00000000E+00
  6.22222222E+01  1.33333333E+00  0.00000000E+00
  6.22222222E+01  6.66666667E-01  0.00000000E+00
  6.22222222E+01  1.66533454E-15  0.00000000E+00
  6.33333333E+01  1.00000000E+01  0.00000000E+00
  6.33333333E+01  9.33333333E+00  0.00000000E+00
  6.33333333E+01  8.66666667E+00  0.00000000E+00
  6.33333333E+01  8.00000000E+00  0.00000000E+00
  6.33333333E+01  7.33333333E+00  0.00000000E+00
  6.33333333E+01  6.66666667E+00  0.00000000E+00
  6.33333333E+01  6.00000000E+00  0.00000000E+00
  6.33333333E+01  5.33333333E+00  0.00000000E+00
  6.33333333E+01  4.66666667E+00  0.00000000E+00
  6.33333333E+01  4.00000000E+00  0.00000000E+00
  6.33333333E+01  3.33333333E+00  0.00000000E+00
  6.33333333E+01  2.66666667E+00  0.00000000E+00
  6.33333333E+01  2.00000000E+00  0.00000000E+00
  6.33333333E+01  1.33333333E+00  0.00000000E+00
  6.33333333E+01  6.66666667E-01  0.00000000E+00
  6.33333333E+01  1.66533454E-15  0.00000000E+00
  6.44444444E+01  1.00000000E+01  0.00000000E+00
  6.44444444E+01  9.33333333E+00  0.00000000E+00
  6.44444444E+01  8.66666667E+00  0.00000000E+00
  6.44444444E+01  8.00000000E+00  0.00000000E+00
  6.44444444E+01  7.33333333E+00  0.00000000E+00
  6.44444444E+01  6.66666667E+00  0.00000000E+00
  6.44444444E+01  6.00000000E+00  0.00000000E+00
  6.44444444E+01  5.33333333E+00  0.00000000E+00
  6.44444444E+01  4.66666667E+00  0.00000000E+00
  6.44444444E+01  4.00000000E+00  0.00000000E+00
  6.44444444E+01  3.33333333E+00  0.00000000E+00
  6.44444444E+01  2.66666667E+00  0.00000000E+00
  6.44444444E+01  2.00000000E+00  0.00000000E+00
  6.44444444E+01  1.33333333E+00  0.00000000E+00
  6.44444444E+01  6.66666667E-01  0.00000000E+00
  6.44444444E+01  1.66533454E-15  0.00000000E+00
  6.55555556E+01  1.00000000E+01  0.00000000E+00
  6.55555556E+01  9.33333333E+00  0.00000000E+00
  6.55555556E+01  8.66666667E+00  0.00000000E+00
  6.55555556E+01  8.00000000E+00  0.00000000E+00
  6.55555556E+01  7.33333333E+00  0.00000000E+00
  6.55555556E+01  6.66666667E+00  0.00000000E+00
  6.55555556E+01  6.00000000E+00  0.00000000E+00
  6.55555556E+01  5.33333333E+00  0.00000000E+00
  6.55555556E+01  4.66666667E+00  0.00000000E+00
  6.55555556E+01  4.00000000E+00  0.00000000E+00
  6.55555556E+01  3.33333333E+00  0.00000000E+00
  6.55555556E+01  2.66666667E+00  0.00000000E+00
  6.55555556E+01  2.00000000E+00  0.00000000E+00
  6.55555556E+01  1.33333333E+00  0.00000000E+00
  6.55555556E+01  6.66666667E-01  0.00000000E+00
  6.55555556E+01  1.66533454E-15  0.00000000E+00
  6.66666667E+01  1.00000000E+01  0.00000000E+00
  6.66666667E+01  9.33333333E+00  0.00000000E+00
  6.66666667E+01  8.66666667E+00  0.00000000E+00
  6.66666667E+01  8.00000000E+00  0.00000000E+00
  6.66666667E+01  7.33333333E+00  0.00000000E+00
  6.66666667E+01  6.66666667E+00  0.00000000E+00
  6.66666667E+01  6.00000000E+00  0.00000000E+00
  6.66666667E+01  5.33333333E+00  0.00000000E+00
  6.66666667E+01  4.66666667E+00  0.00000000E+00
  6.66666667E+01  4.00000000E+00  0.00000000E+00
  6.66666667E+01  3.33333333E+00  0.00000000E+00
  6.66666667E+01  2.66666667E+00  0.00000000E+00
  6.66666667E+01  2.00000000E+00  0.00000000E+00
  6.66666667E+01  1.33333333E+00  0.00000000E+00
  6.66666667E+01  6.66666667E-01  0.00000000E+00
  6.66666667E+01  1.66533454E-15  0.00000000E+00
  6.77777778E+01  1.00000000E+01  0.00000000E+00
  6.77777778E+01  9.33333333E+00  0.00000000E+00
  6.77777778E+01  8.66666667E+00  0.00000000E+00
  6.77777778E+01  8.00000000E+00  0.00000000E+00
  6.77777778E+01  7.33333333E+00  0.00000000E+00
  6.77777778E+01  6.66666667E+00  0.00000000E+00
  6.77777778E+01  6.00000000E+00  0.00000000E+00
  6.77777778E+01  5.33333333E+00  0.00000000E+00
  6.77777778E+01  4.66666667E+00  0.00000000E+00
  6.77777778E+01  4.00000000E+00  0.00000000E+00
  6.77777778E+01  3.33333333E+00  0.00000000E+00
  6.77777778E+01  2.66666667E+00  0.00000000E+00
  6.77777778E+01  2.00000000E+00  0.00000000E+00
  6.77777778E+01  1.33333333E+00  0.00000000E+00
  6.77777778E+01  6.66666667E-01  0.00000000E+00
  6.77777778E+01  1.66533454E-15  0.00000000E+00
  6.88888889E+01  1.00000000E+01  0.00000000E+00
  6.88888889E+01  9.33333333E+00  0.00000000E+00
  6.88888889E+01  8.66666667E+00  0.00000000E+00
  6.88888889E+01  8.00000000E+00  0.00000000E+00
  6.88888889E+01  7.33333333E+00  0.00000000E+00
  6.88888889E+01  6.66666667E+00  0.00000000E+00
  6.88888889E+01  6.00000000E+00  0.00000000E+00
  6.88888889E+01  5.33333333E+00  0.00000000E+00
  6.88888889E+01  4.66666667E+00  0.00000000E+00
  6.88888889E+01  4.00000000E+00  0.00000000E+00
  6.88888889E+01  3.33333333E+00  0.00000000E+00
  6.88888889E+01  2.66666667E+00  0.00000000E+00
  6.88888889E+01  2.00000000E+00  0.00000000E+00
  6.88888889E+01  1.33333333E+00  0.00000000E+00
  6.88888889E+01  6.66666667E-01  0.00000000E+00
  6.88888889E+01  1.66533454E-15  0.00000000E+00
  7.00000000E+01  1.00000000E+01  0.00000000E+00
  7.00000000E+01  9.33333333E+00  0.00000000E+00
  7.00000000E+01  8.66666667E+00  0.00000000E+00
  7.00000000E+01  8.00000000E+00  0.00000000E+00
  7.00000000E+01  7.33333333E+00  0.00000000E+00
  7.00000000E+01  6.66666667E+00  0.00000000E+00
  7.00000000E+01  6.00000000E+00  0.00000000E+00
  7.00000000E+01  5.33333333E+00  0.00000000E+00
  7.00000000E+01  4.66666667E+00  0.00000000E+00
  7.00000000E+01  4.00000000E+00  0.00000000E+00
  7.00000000E+01  3.33333333E+00  0.00000000E+00
  7.00000000E+01  2.66666667E+00  0.00000000E+00
  7.00000000E+01  2.00000000E+00  0.00000000E+00
  7.00000000E+01  1.33333333E+00  0.00000000E+00
  7.00000000E+01  6.66666667E-01  0.00000000E+00
  7.00000000E+01  1.66533454E-15  0.00000000E+00
  7.11111111E+01  1.00000000E+01  0.00000000E+00
  7.11111111E+01  9.33333333E+00  0.00000000E+00
  7.11111111E+01  8.66666667E+00  0.00000000E+00
  7.11111111E+01  8.00000000E+00  0.00000000E+00
  7.11111111E+01  7.33333333E+00  0.00000000E+00
  7.11111111E+01  6.66666667E+00  0.00000000E+00
  7.11111111E+01  6.00000000E+00  0.00000000E+00
  7.11111111E+01  5.33333333E+00  0.00000000E+00
  7.11111111E+01  4.66666667E+00  0.00000000E+00
  7.11111111E+01  4.00000000E+00  0.00000000E+00
  7.11111111E+01  3.33333333E+00  0.00000000E+00
  7.11111111E+01  2.66666667E+00  0.00000000E+00
  7.11111111E+01  2.00000000E+00  0.00000000E+00
  7.11111111E+01  1.33333333E+00  0.00000000E+00
  7.11111111E+01  6.66666667E-01  0.00000000E+00
  7.11111111E+01  1.66533454E-15  0.00000000E+00
  7.22222222E+01  1.00000000E+01  0.00000000E+00
  7.22222222E+01  9.33333333E+00  0.00000000E+00
  7.22222222E+01  8.66666667E+00  0.00000000E+00
  7.22222222E+01  8.00000000E+00  0.00000000E+00
  7.22222222E+01  7.33333333E+00  0.00000000E+00
  7.22222222E+01  6.66666667E+00  0.00000000E+00
  7.22222222E+01  6.00000000E+00  0.00000000E+00
  7.22222222E+01  5.33333333E+00  0.00000000E+00
  7.22222222E+01  4.66666667E+00  0.00000000E+00
  7.22222222E+01  4.00000000E+00  0.00000000E+00
  7.22222222E+01  3.33333333E+00  0.00000000E+00
  7.22222222E+01  2.66666667E+00  0.00000000E+00
  7.22222222E+01  2.00000000E+00  0.00000000E+00
  7.22222222E+01  1.33333333E+00  0.00000000E+00
  7.22222222E+01  6.66666667E-01  0.00000000E+00
  7.22222222E+01  1.66533454E-15  0.00000000E+00
  7.33333333E+01  1.00000000E+01  0.00000000E+00
  7.33333333E+01  9.33333333E+00  0.00000000E+00
  7.33333333E+01  8.66666667E+00  0.00000000E+00
  7.33333333E+01  8.00000000E+00  0.00000000E+00
  7.33333333E+01  7.33333333E+00  0.00000000E+00
  7.33333333E+01  6.66666667E+00  0.00000000E+00
  7.33333333E+01  6.00000000E+00  0.00000000E+00
  7.33333333E+01  5.33333333E+00  0.00000000E+00
  7.33333333E+01  4.66666667E+00  0.00000000E+00
  7.33333333E+01  4.00000000E+00  0.00000000E+00
  7.33333333E+01  3.33333333E+00  0.00000000E+00
  7.33333333E+01  2.66666667E+00  0.00000000E+00
  7.33333333E+01  2.00000000E+00  0.00000000E+00
  7.33333333E+01  1.33333333E+00  0.00000000E+00
  7.33333333E+01  6.66666667E-01  0.00000000E+00
  7.33333333E+01  1.66533454E-15  0.00000000E+00
  7.44444444E+01  1.00000000E+01  0.00000000E+00
  7.44444444E+01  9.33333333E+00  0.00000000E+00
  7.44444444E+01  8.66666667E+00  0.00000000E+00
  7.44444444E+01  8.00000000E+00  0.00000000E+00
  7.44444444E+01  7.33333333E+00  0.00000000E+00
  7.44444444E+01  6.66666667E+00  0.00000000E+00
  7.44444444E+01  6.00000000E+00  0.00000000E+00
  7.44444444E+01  5.33333333E+00  0.00000000E+00
  7.44444444E+01  4.66666667E+00  0.00000000E+00
  7.44444444E+01  4.00000000E+00  0.00000000E+00
  7.44444444E+01  3.33333333E+00  0.00000000E+00
  7.44444444E+01  2.66666667E+00  0.00000000E+00
  7.44444444E+01  2.00000000E+00  0.00000000E+00
  7.44444444E+01  1.33333333E+00  0.00000000E+00
  7.44444444E+01  6.66666667E-01  0.00000000E+00
  7.44444444E+01  1.66533454E-15  0.00000000E+00
  7.55555556E+01  1.00000000E+01  0.00000000E+00
  7.55555556E+01  9.33333333E+00  0.00000000E+00
  7.55555556E+01  8.66666667E+00  0.00000000E+00
  7.55555556E+01  8.00000000E+00  0.00000000E+00
  7.55555556E+01  7.33333333E+00  0.00000000E+00
  7.55555556E+01  6.66666667E+00  0.00000000E+00
  7.55555556E+01  6.00000000E+00  0.00000000E+00
  7.55555556E+01  5.33333333E+00  0.00000000E+00
  7.55555556E+01  4.66666667E+00  0.00000000E+00
  7.55555556E+01  4.00000000E+00  0.00000000E+00
  7.55555556E+01  3.33333333E+00  0.00000000E+00
  7.55555556E+01  2.66666667E+00  0.00000000E+00
  7.55555556E+01  2.00000000E+00  0.00000000E+00
  7.55555556E+01  1.33333333E+00  0.00000000E+00
  7.55555556E+01  6.66666667E-01  0.00000000E+00
  7.55555556E+01  1.66533454E-15  0.00000000E+00
  7.66666667E+01  1.00000000E+01  0.00000000E+00
  7.66666667E+01  9.33333333E+00  0.00000000E+00
  7.66666667E+01  8.66666667E+00  0.00000000E+00
  7.66666667E+01  8.00000000E+00  0.00000000E+00
  7.66666667E+01  7.33333333E+00  0.00000000E+00
  7.66666667E+01  6.66666667E+00  0.00000000E+00
  7.66666667E+01  6.00000000E+00  0.00000000E+00
  7.66666667E+01  5.33333333E+00  0.00000000E+00
  7.66666667E+01  4.66666667E+00  0.00000000E+00
  7.66666667E+01  4.00000000E+00  0.00000000E+00
  7.66666667E+01  3.33333333E+00  0.00000000E+00
  7.66666667E+01  2.66666667E+00  0.00000000E+00
  7.66666667E+01  2.00000000E+00  0.00000000E+00
  7.66666667E+01  1.33333333E+00  0.00000000E+00
  7.66666667E+01  6.66666667E-01  0.00000000E+00
  7.66666667E+01  1.66533454E-15  0.00000000E+00
  7.77777778E+01  1.00000000E+01  0.00000000E+00
  7.77777778E+01  9.33333333E+00  0.00000000E+00
  7.77777778E+01  8.66666667E+00  0.00000000E+00
  7.77777778E+01  8.00000000E+00  0.00000000E+00
  7.77777778E+01  7.33333333E+00  0.00000000E+00
  7.77777778E+01  6.66666667E+00  0.00000000E+00
  7.77777778E+01  6.00000000E+00  0.00000000E+00
  7.77777778E+01  5.33333333E+00  0.00000000E+00
  7.77777778E+01  4.66666667E+00  0.00000000E+00
  7.77777778E+01  4.00000000E+00  0.00000000E+00
  7.77777778E+01  3.33333333E+00  0.00000000E+00
  7.77777778E+01  2.66666667E+00  0.00000000E+00
  7.77777778E+01  2.00000000E+00  0.00000000E+00
  7.77777778E+01  1.33333333E+00  0.00000000E+00
  7.77777778E+01  6.66666667E-01  0.00000000E+00
  7.77777778E+01  1.66533454E-15  0.00000000E+00
  7.88888889E+01  1.00000000E+01  0.00000000E+00
  7.88888889E+01  9.33333333E+00  0.00000000E+00
  7.88888889E+01  8.66666667E+00  0.00000000E+00
  7.88888889E+01  8.00000000E+00  0.00000000E+00
  7.88888889E+01  7.33333333E+00  0.00000000E+00
  7.88888889E+01  6.66666667E+00  0.00000000E+00
  7.88888889E+01  6.00000000E+00  0.00000000E+00
  7.88888889E+01  5.33333333E+00  0.00000000E+00
  7.88888889E+01  4.66666667E+00  0.00000000E+00
  7.88888889E+01  4.00000000E+00  0.00000000E+00
  7.88888889E+01  3.33333333E+00  0.00000000E+00
  7.88888889E+01  2.66666667E+00  0.00000000E+00
  7.88888889E+01  2.00000000E+00  0.00000000E+00
  7.88888889E+01  1.33333333E+00  0.00000000E+00
  7.88888889E+01  6.66666667E-01  0.00000000E+00
  7.88888889E+01  1.66533454E-15  0.00000000E+00
  8.00000000E+01  1.00000000E+01  0.00000000E+00
  8.00000000E+01  9.33333333E+00  0.00000000E+00
  8.00000000E+01  8.66666667E+00  0.00000000E+00
  8.00000000E+01  8.00000000E+00  0.00000000E+00
  8.00000000E+01  7.33333333E+00  0.00000000E+00
  8.00000000E+01  6.66666667E+00  0.00000000E+00
  8.00000000E+01  6.00000000E+00  0.00000000E+00
  8.00000000E+01  5.33333333E+00  0.00000000E+00
  8.00000000E+01  4.66666667E+00  0.00000000E+00
  8.00000000E+01  4.00000000E+00  0.00000000E+00
  8.00000000E+01  3.33333333E+00  0.00000000E+00
  8.00000000E+01  2.66666667E+00  0.00000000E+00
  8.00000000E+01  2.00000000E+00  0.00000000E+00
  8.00000000E+01  1.33333333E+00  0.00000000E+00
  8.00000000E+01  6.66666667E-01  0.00000000E+00
  8.00000000E+01  1.66533454E-15  0.00000000E+00
  8.11111111E+01  1.00000000E+01  0.00000000E+00
  8.11111111E+01  9.33333333E+00  0.00000000E+00
  8.11111111E+01  8.66666667E+00  0.00000000E+00
  8.11111111E+01  8.00000000E+00  0.00000000E+00
  8.11111111E+01  7.33333333E+00  0.00000000E+00
  8.11111111E+01  6.66666667E+00  0.00000000E+00
  8.11111111E+01  6.00000000E+00  0.00000000E+00
  8.11111111E+01  5.33333333E+00  0.00000000E+00
  8.11111111E+01  4.66666667E+00  0.00000000E+00
  8.11111111E+01  4.00000000E+00  0.00000000E+00
  8.11111111E+01  3.33333333E+00  0.00000000E+00
  8.11111111E+01  2.66666667E+00  0.00000000E+00
  8.11111111E+01  2.00000000E+00  0.00000000E+00
  8.11111111E+01  1.33333333E+00  0.00000000E+00
  8.11111111E+01  6.66666667E-01  0.00000000E+00
  8.11111111E+01  1.66533454E-15  0.00000000E+00
  8.22222222E+01  1.00000000E+01  0.00000000E+00
  8.22222222E+01  9.33333333E+00  0.00000000E+00
  8.22222222E+01  8.66666667E+00  0.00000000E+00
  8.22222222E+01  8.00000000E+00  0.00000000E+00
  8.22222222E+01  7.33333333E+00  0.00000000E+00
  8.22222222E+01  6.66666667E+00  0.00000000E+00
  8.22222222E+01  6.00000000E+00  0.00000000E+00
  8.22222222E+01  5.33333333E+00  0.00000000E+00
  8.22222222E+01  4.66666667E+00  0.00000000E+00
  8.22222222E+01  4.00000000E+00  0.00000000E+00
  8.22222222E+01  3.33333333E+00  0.00000000E+00
  8.22222222E+01  2.66666667E+00  0.00000000E+00
  8.22222222E+01  2.00000000E+00  0.00000000E+00
  8.22222222E+01  1.33333333E+00  0.00000000E+00
  8.22222222E+01  6.66666667E-01  0.00000000E+00
  8.22222222E+01  1.66533454E-15  0.00000000E+00
  8.33333333E+01  1.00000000E+01  0.00000000E+00
  8.33333333E+01  9.33333333E+00  0.00000000E+00
  8.33333333E+01  8.66666667E+00  0.00000000E+00
  8.33333333E+01  8.00000000E+00  0.00000000E+00
  8.33333333E+01  7.33333333E+00  0.00000000E+00
  8.33333333E+01  6.66666667E+00  0.00000000E+00
  8.33333333E+01  6.00000000E+00  0.00000000E+00
  8.33333333E+01  5.33333333E+00  0.00000000E+00
  8.33333333E+01  4.66666667E+00  0.00000000E+00
  8.33333333E+01  4.00000000E+00  0.00000000E+00
  8.33333333E+01  3.33333333E+00  0.00000000E+00
  8.33333333E+01  2.66666667E+00  0.00000000E+00
  8.33333333E+01  2.00000000E+00  0.00000000E+00
  8.33333333E+01  1.33333333E+00  0.00000000E+00
  8.33333333E+01  6.66666667E-01  0.00000000E+00
  8.33333333E+01  1.66533454E-15  0.00000000E+00
  8.44444444E+01  1.00000000E+01  0.00000000E+00
  8.44444444E+01  9.33333333E+00  0.00000000E+00
  8.44444444E+01  8.66666667E+00  0.00000000E+00
  8.44444444E+01  8.00000000E+00  0.00000000E+00
  8.44444444E+01  7.33333333E+00  0.00000000E+00
  8.44444444E+01  6.66666667E+00  0.00000000E+00
  8.44444444E+01  6.00000000E+00  0.00000000E+00
  8.44444444E+01  5.33333333E+00  0.00000000E+00
  8.44444444E+01  4.66666667E+00  0.00000000E+00
  8.44444444E+01  4.00000000E+00  0.00000000E+00
  8.44444444E+01  3.33333333E+00  0.00000000E+00
  8.44444444E+01  2.66666667E+00  0.00000000E+00
  8.44444444E+01  2.00000000E+00  0.00000000E+00
  8.44444444E+01  1.33333333E+00  0.00000000E+00
  8.44444444E+01  6.66666667E-01  0.00000000E+00
  8.44444444E+01  1.66533454E-15  0.00000000E+00
  8.55555556E+01  1.00000000E+01  0.00000000E+00
  8.55555556E+01  9.33333333E+00  0.00000000E+00
  8.55555556E+01  8.66666667E+00  0.00000000E+00
  8.55555556E+01  8.00000000E+00  0.00000000E+00
  8.55555556E+01  7.33333333E+00  0.00000000E+00
  8.55555556E+01  6.66666667E+00  0.00000000E+00
  8.55555556E+01  6.00000000E+00  0.00000000E+00
  8.55555556E+01  5.33333333E+00  0.00000000E+00
  8.55555556E+01  4.66666667E+00  0.00000000E+00
  8.55555556E+01  4.00000000E+00  0.00000000E+00
  8.55555556E+01  3.33333333E+00  0.00000000E+00
  8.55555556E+01  2.66666667E+00  0.00000000E+00
  8.55555556E+01  2.00000000E+00  0.00000000E+00
  8.55555556E+01  1.33333333E+00  0.00000000E+00
  8.55555556E+01  6.66666667E-01  0.00000000E+00
  8.55555556E+01  1.66533454E-15  0.00000000E+00
  8.66666667E+01  1.00000000E+01  0.00000000E+00
  8.66666667E+01  9.33333333E+00  0.00000000E+00
  8.66666667E+01  8.66666667E+00  0.00000000E+00
  8.66666667E+01  8.00000000E+00  0.00000000E+00
  8.66666667E+01  7.33333333E+00  0.00000000E+00
  8.66666667E+01  6.66666667E+00  0.00000000E+00
  8.66666667E+01  6.00000000E+00  0.00000000E+00
  8.66666667E+01  5.33333333E+00  0.00000000E+00
  8.66666667E+01  4.66666667E+00  0.00000000E+00
  8.66666667E+01  4.00000000E+00  0.00000000E+00
  8.66666667E+01  3.33333333E+00  0.00000000E+00
  8.66666667E+01  2.66666667E+00  0.00000000E+00
  8.66666667E+01  2.00000000E+00  0.00000000E+00
  8.66666667E+01  1.33333333E+00  0.00000000E+00
  8.66666667E+01  6.66666667E-01  0.00000000E+00
  8.66666667E+01  1.66533454E-15  0.00000000E+00
  8.77777778E+01  1.00000000E+01  0.00000000E+00
  8.77777778E+01  9.33333333E+00  0.00000000E+00
  8.77777778E+01  8.66666667E+00  0.00000000E+00
  8.77777778E+01  8.00000000E+00  0.00000000E+00
  8.77777778E+01  7.33333333E+00  0.00000000E+00
  8.77777778E+01  6.66666667E+00  0.00000000E+00
  8.77777778E+01  6.00000000E+00  0.00000000E+00
  8.77777778E+01  5.33333333E+00  0.00000000E+00
  8.77777778E+01  4.66666667E+00  0.00000000E+00
  8.77777778E+01  4.00000000E+00  0.00000000E+00
  8.77777778E+01  3.33333333E+00  0.00000000E+00
  8.77777778E+01  2.66666667E+00  0.00000000E+00
  8.77777778E+01  2.00000000E+00  0.00000000E+00
  8.77777778E+01  1.33333333E+00  0.00000000E+00
  8.77777778E+01  6.66666667E-01  0.00000000E+00
  8.77777778E+01  1.66533454E-15  0.00000000E+00
  8.88888889E+01  1.00000000E+01  0.00000000E+00
  8.88888889E+01  9.33333333E+00  0.00000000E+00
  8.88888889E+01  8.66666667E+00  0.00000000E+00
  8.88888889E+01  8.00000000E+00  0.00000000E+00
  8.88888889E+01  7.33333333E+00  0.00000000E+00
  8.88888889E+01  6.66666667E+00  0.00000000E+00
  8.88888889E+01  6.00000000E+00  0.00000000E+00
  8.88888889E+01  5.33333333E+00  0.00000000E+00
  8.88888889E+01  4.66666667E+00  0.00000000E+00
  8.88888889E+01  4.00000000E+00  0.00000000E+00
  8.88888889E+01  3.33333333E+00  0.00000000E+00
  8.88888889E+01  2.66666667E+00  0.00000000E+00
  8.88888889E+01  2.00000000E+00  0.00000000E+00
  8.88888889E+01  1.33333333E+00  0.00000000E+00
  8.88888889E+01  6.66666667E-01  0.00000000E+00
  8.88888889E+01  1.66533454E-15  0.00000000E+00
  9.00000000E+01  1.00000000E+01  0.00000000E+00
  9.00000000E+01  9.33333333E+00  0.00000000E+00
  9.00000000E+01  8.66666667E+00  0.00000000E+00
  9.00000000E+01  8.00000000E+00  0.00000000E+00
  9.00000000E+01  7.33333333E+00  0.00000000E+00
  9.00000000E+01  6.66666667E+00  0.00000000E+00
  9.00000000E+01  6.00000000E+00  0.00000000E+00
  9.00000000E+01  5.33333333E+00  0.00000000E+00
  9.00000000E+01  4.66666667E+00  0.00000000E+00
  9.00000000E+01  4.00000000E+00  0.00000000E+00
  9.00000000E+01  3.33333333E+00  0.00000000E+00
  9.00000000E+01  2.66666667E+00  0.00000000E+00
  9.00000000E+01  2.00000000E+00  0.00000000E+00
  9.00000000E+01  1.33333333E+00  0.00000000E+00
  9.00000000E+01  6.66666667E-01  0.00000000E+00
  9.00000000E+01  1.66533454E-15  0.00000000E+00
  9.11111111E+01  1.00000000E+01  0.00000000E+00
  9.11111111E+01  9.33333333E+00  0.00000000E+00
  9.11111111E+01  8.66666667E+00  0.00000000E+00
  9.11111111E+01  8.00000000E+00  0.00000000E+00
  9.11111111E+01  7.33333333E+00  0.00000000E+00
  9.11111111E+01  6.66666667E+00  0.00000000E+00
  9.11111111E+01  6.00000000E+00  0.00000000E+00
  9.11111111E+01  5.33333333E+00  0.00000000E+00
  9.11111111E+01  4.66666667E+00  0.00000000E+00
  9.11111111E+01  4.00000000E+00  0.00000000E+00
  9.11111111E+01  3.33333333E+00  0.00000000E+00
  9.11111111E+01  2.66666667E+00  0.00000000E+00
  9.11111111E+01  2.00000000E+00  0.00000000E+00
  9.11111111E+01  1.33333333E+00  0.00000000E+00
  9.11111111E+01  6.66666667E-01  0.00000000E+00
  9.11111111E+01  1.66533454E-15  0.00000000E+00
  9.22222222E+01  1.00000000E+01  0.00000000E+00
  9.22222222E+01  9.33333333E+00  0.00000000E+00
  9.22222222E+01  8.66666667E+00  0.00000000E+00
  9.22222222E+01  8.00000000E+00  0.00000000E+00
  9.22222222E+01  7.33333333E+00  0.00000000E+00
  9.22222222E+01  6.66666667E+00  0.00000000E+00
  9.22222222E+01  6.00000000E+00  0.00000000E+00
  9.22222222E+01  5.33333333E+00  0.00000000E+00
  9.22222222E+01  4.66666667E+00  0.00000000E+00
  9.22222222E+01  4.00000000E+00  0.00000000E+00
  9.22222222E+01  3.33333333E+00  0.00000000E+00
  9.22222222E+01  2.66666667E+00  0.00000000E+00
  9.22222222E+01  2.00000000E+00  0.00000000E+00
  9.22222222E+01  1.33333333E+00  0.00000000E+00
  9.22222222E+01  6.66666667E-01  0.00000000E+00
  9.22222222E+01  1.66533454E-15  0.00000000E+00
  9.33333333E+01  1.00000000E+01  0.00000000E+00
  9.33333333E+01  9.33333333E+00  0.00000000E+00
  9.33333333E+01  8.66666667E+00  0.00000000E+00
  9.33333333E+01  8.00000000E+00  0.00000000E+00
  9.33333333E+01  7.33333333E+00  0.00000000E+00
  9.33333333E+01  6.66666667E+00  0.00000000E+00
  9.33333333E+01  6.00000000E+00  0.00000000E+00
  9.33333333E+01  5.33333333E+00  0.00000000E+00
  9.33333333E+01  4.66666667E+00  0.00000000E+00
  9.33333333E+01  4.00000000E+00  0.00000000E+00
  9.33333333E+01  3.33333333E+00  0.00000000E+00
  9.33333333E+01  2.66666667E+00  0.00000000E+00
  9.33333333E+01  2.00000000E+00  0.00000000E+00
  9.33333333E+01  1.33333333E+00  0.00000000E+00
  9.33333333E+01  6.66666667E-01  0.00000000E+00
  9.33333333E+01  1.66533454E-15  0.00000000E+00
  9.44444444E+01  1.00000000E+01  0.00000000E+00
  9.44444444E+01  9.33333333E+00  0.00000000E+00
  9.44444444E+01  8.66666667E+00  0.00000000E+00
  9.44444444E+01  8.00000000E+00  0.00000000E+00
  9.44444444E+01  7.33333333E+00  0.00000000E+00
  9.44444444E+01  6.66666667E+00  0.00000000E+00
  9.44444444E+01  6.00000000E+00  0.00000000E+00
  9.44444444E+01  5.33333333E+00  0.00000000E+00
  9.44444444E+01  4.66666667E+00  0.00000000E+00
  9.44444444E+01  4.00000000E+00  0.00000000E+00
  9.44444444E+01  3.33333333E+00  0.00000000E+00
  9.44444444E+01  2.66666667E+00  0.00000000E+00
  9.44444444E+01  2.00000000E+00  0.00000000E+00
  9.44444444E+01  1.33333333E+00  0.00000000E+00
  9.44444444E+01  6.66666667E-01  0.00000000E+00
  9.44444444E+01  1.66533454E-15  0.00000000E+00
  9.55555556E+01  1.00000000E+01  0.00000000E+00
  9.55555556E+01  9.33333333E+00  0.00000000E+00
  9.55555556E+01  8.66666667E+00  0.00000000E+00
  9.55555556E+01  8.00000000E+00  0.00000000E+00
  9.55555556E+01  7.33333333E+00  0.00000000E+00
  9.55555556E+01  6.66666667E+00  0.00000000E+00
  9.55555556E+01  6.00000000E+00  0.00000000E+00
  9.55555556E+01  5.33333333E+00  0.00000000E+00
  9.55555556E+01  4.66666667E+00  0.00000000E+00
  9.55555556E+01  4.00000000E+00  0.00000000E+00
  9.55555556E+01  3.33333333E+00  0.00000000E+00
  9.55555556E+01  2.66666667E+00  0.00000000E+00
  9.55555556E+01  2.00000000E+00  0.00000000E+00
  9.55555556E+01  1.33333333E+00  0.00000000E+00
  9.55555556E+01  6.66666667E-01  0.00000000E+00
  9.55555556E+01  1.66533454E-15  0.00000000E+00
  9.66666667E+01  1.00000000E+01  0.00000000E+00
  9.66666667E+01  9.33333333E+00  0.00000000E+00
  9.66666667E+01  8.66666667E+00  0.00000000E+00
  9.66666667E+01  8.00000000E+00  0.00000000E+00
  9.66666667E+01  7.33333333E+00  0.00000000E+00
  9.66666667E+01  6.66666667E+00  0.00000000E+00
  9.66666667E+01  6.00000000E+00  0.00000000E+00
  9.66666667E+01  5.33333333E+00  0.00000000E+00
  9.66666667E+01  4.66666667E+00  0.00000000E+00
  9.66666667E+01  4.00000000E+00  0.00000000E+00
  9.66666667E+01  3.33333333E+00  0.00000000E+00
  9.66666667E+01  2.66666667E+00  0.00000000E+00
  9.66666667E+01  2.00000000E+00  0.00000000E+00
  9.66666667E+01  1.33333333E+00  0.00000000E+00
  9.66666667E+01  6.66666667E-01  0.00000000E+00
  9.66666667E+01  1.66533454E-15  0.00000000E+00
  9.77777778E+01  1.00000000E+01  0.00000000E+00
  9.77777778E+01  9.33333333E+00  0.00000000E+00
  9.77777778E+01  8.66666667E+00  0.00000000E+00
  9.77777778E+01  8.00000000E+00  0.00000000E+00
  9.77777778E+01  7.33333333E+00  0.00000000E+00
  9.77777778E+01  6.66666667E+00  0.00000000E+00
  9.77777778E+01  6.00000000E+00  0.00000000E+00
  9.77777778E+01  5.33333333E+00  0.00000000E+00
  9.77777778E+01  4.66666667E+00  0.00000000E+00
  9.77777778E+01  4.00000000E+00  0.00000000E+00
  9.77777778E+01  3.33333333E+00  0.00000000E+00
  9.77777778E+01  2.66666667E+00  0.00000000E+00
  9.77777778E+01  2.00000000E+00  0.00000000E+00
  9.77777778E+01  1.33333333E+00  0.00000000E+00
  9.77777778E+01  6.66666667E-01  0.00000000E+00
  9.77777778E+01  1.66533454E-15  0.00000000E+00
  9.88888889E+01  1.00000000E+01  0.00000000E+00
  9.88888889E+01  9.33333333E+00  0.00000000E+00
  9.88888889E+01  8.66666667E+00  0.00000000E+00
  9.88888889E+01  8.00000000E+00  0.00000000E+00
  9.88888889E+01  7.33333333E+00  0.00000000E+00
  9.88888889E+01  6.66666667E+00  0.00000000E+00
  9.88888889E+01  6.00000000E+00  0.00000000E+00
  9.88888889E+01  5.33333333E+00  0.00000000E+00
  9.88888889E+01  4.66666667E+00  0.00000000E+00
  9.88888889E+01  4.00000000E+00  0.00000000E+00
  9.88888889E+01  3.33333333E+00  0.00000000E+00
  9.88888889E+01  2.66666667E+00  0.00000000E+00
  9.88888889E+01  2.00000000E+00  0.00000000E+00
  9.88888889E+01  1.33333333E+00  0.00000000E+00
  9.88888889E+01  6.66666667E-01  0.00000000E+00
  9.88888889E+01  1.66533454E-15  0.00000000E+00
  1.00000000E+02  1.00000000E+01  0.00000000E+00
  1.00000000E+02  9.33333333E+00  0.00000000E+00
  1.00000000E+02  8.66666667E+00  0.00000000E+00
  1.00000000E+02  8.00000000E+00  0.00000000E+00
  1.00000000E+02  7.33333333E+00  0.00000000E+00
  1.00000000E+02  6.66666667E+00  0.00000000E+00
  1.00000000E+02  6.00000000E+00  0.00000000E+00
  1.00000000E+02  5.33333333E+00  0.00000000E+00
  1.00000000E+02  4.66666667E+00  0.00000000E+00
  1.00000000E+02  4.00000000E+00  0.00000000E+00
  1.00000000E+02  3.33333333E+00  0.00000000E+00
  1.00000000E+02  2.66666667E+00  0.00000000E+00
  1.00000000E+02  2.00000000E+00  0.00000000E+00
  1.00000000E+02  1.33333333E+00  0.00000000E+00
  1.00000000E+02  6.66666667E-01  0.00000000E+00
  1.00000000E+02  1.66533454E-15  0.00000000E+00
CELLS      1350      6750
         4           0           1          17          16
         4           1           2          18          17
         4           2           3          19          18
         4           3           4          20          19
         4           4           5          21          20
         4           5           6          22          21
         4           6           7          23          22
         4           7           8          24          23
         4           8           9          25          24
         4           9          10          26          25
         4          10          11          27          26
         4          11          12          28          27
         4          12          13          29          28
         4          13          14          30          29
         4          14          15          31          30
         4          16          17          33          32
         4          17          18          34          33
         4          18          19          35          34
         4          19          20          36          35
         4          20          21          37          36
         4          21          22          38          37
         4          22          23          39          38
         4          23          24          40          39
         4          24          25          41          40
         4          25          26          42          41
         4          26          27          43          42
         4          27          28          44          43
         4          28          29          45          44
         4          29          30          46          45
         4          30          31          47          46
         4          32          33          49          48
         4          33          34          50          49
         4          34          35          51          50
         4          35          36          52          51
         4          36          37          53          52
         4          37          38          54          53
         4          38          39          55          54
         4          39          40          56          55
         4          40          41          57          56
         4          41          42          58          57
         4          42          43          59          58
         4          43          44          60          59
         4          44          45          61          60
         4          45          46          62          61
         4          46          47          63          62
         4          48          49          65          64
         4          49          50          66          65
         4          50          51          67          66
         4          51          52          68          67
         4          52          53          69          68
         4          53          54          70          69
         4          54          55          71          70
         4          55          56          72          71
         4          56          57          73          72
         4          57          58          74          73
         4          58          59          75          74
         4          59          60          76          75
         4          60          61          77          76
         4          61          62          78          77
         4          62          63          79          78
         4          64          65          81          80
         4          65          66          82          81
         4          66          67          83          82
         4          67          68          84          83
         4          68          69          85          84
         4          69          70          86          85
         4          70          71          87          86
         4          71          72          88          87
         4          72          73          89          88
         4          73          74          90          89
         4          74          75          91          90
         4          75          76          92          91
         4          76          77          93          92
         4          77          78          94          93
         4          78          79          95          94
         4          80          81          97          96
         4          81          82          98          97
         4          82          83          99          98
         4          83          84         100          99
         4          84          85         101         100
         4          85          86         102         101
         4          86          87         103         102
         4          87          88         104         103
         4          88          89         105         104
         4          89          90         106         105
         4          90          91         107         106
         4          91          92         108         107
         4          92          93         109         108
         4          93          94         110         109
         4          94          95         111         110
         4          96          97         113         112
         4          97          98         114         113
         4          98          99         115         114
         4          99         100         116         115
         4         100         101         117         116
         4         101         102         118         117
         4         102         103         119         118
         4         103         104         120         119
         4         104         105         121         120
         4         105         106         122         121
         4         106         107         123         122
         4         107         108         124         123
         4         108         109         125         124
         4         109         110         126         125
         4         110         111         127         126
         4         112         113         129         128
         4         113         114         130         129
         4         114         115         131         130
         4         115         116         132         131
         4         116         117         133         132
         4         117         118         134         133
         4         118         119         135         134
         4         119         120         136         135
         4         120         121         137         136
         4         121         122         138         137
         4         122         123         139         138
         4         123         124         140         139
         4         124         125         141         140
         4         125         126         142         141
         4         126         127         143         142
         4         128         129         145         144
         4         129         130         146         145
         4         130         131         147         146
         4         131         132         148         147
         4         132         133         149         148
         4         133         134         150         149
         4         134         135         151         150
         4         135         136         152         151
         4         136         137         153         152
         4         137         138         154         153
         4         138         139         155         154
         4         139         140         156         155
         4         140         141         157         156
         4         141         142         158         157
         4         142         143         159         158
         4         144         145         161         160
         4         145         146         162         161
         4         146         147         163         162
         4         147         148         164         163
         4         148         149         165         164
         4         149         150         166         165
         4         150         151         167         166
         4         151         152         168         167
         4         152         153         169         168
         4         153         154         170         169
         4         154         155         171         170
         4         155         156         172         171
         4         156         157         173         172
         4         157         158         174         173
         4         158         159         175         174
         4         160         161         177         176
         4         161         162         178         177
         4         162         163         179         178
         4         163         164         180         179
         4         164         165         181         180
         4         165         166         182         181
         4         166         167         183         182
         4         167         168         184         183
         4         168         169         185         184
         4         169         170         186         185
         4         170         171         187         186
         4         171         172         188         187
         4         172         173         189         188
         4         173         174         190         189
         4         174         175         191         190
         4         176         177         193         192
         4         177         178         194         193
         4         178         179         195         194
         4         179         180         196         195
         4         180         181         197         196
         4         181         182         198         197
         4         182         183         199         198
         4         183         184         200         199
         4         184         185         201         200
         4         185         186         202         201
         4         186         187         203         202
         4         187         188         204         203
         4         188         189         205         204
         4         189         190         206         205
         4         190         191         207         206
         4         192         193         209         208
         4         193         194         210         209
         4         194         195         211         210
         4         195         196         212         211
         4         196         197         213         212
         4         197         198         214         213
         4         198         199         215         214
         4         199         200         216         215
         4         200         201         217         216
         4         201         202         218         217
         4         202         203         219         218
         4         203         204         220         219
         4         204         205         221         220
         4         205         206         222         221
         4         206         207         223         222
         4         208         209         225         224
         4         209         210         226         225
         4         210         211         227         226
         4         211         212         228         227
         4         212         213         229         228
         4         213         214         230         229
         4         214         215         231         230
         4         215         216         232         231
         4         216         217         233         232
         4         217         218         234         233
         4         218         219         235         234
         4         219         220         236         235
         4         220         221         237         236
         4         221         222         238         237
         4         222         223         239         238
         4         224         225         241         240
         4         225         226         242         241
         4         226         227         243         242
         4         227         228         244         243
         4         228         229         245         244
         4         229         230         246         245
         4         230         231         247         246
         4         231         232         248         247
         4         232         233         249         248
         4         233         234         250         249
         4         234         235         251         250
         4         235         236         252         251
         4         236         237         253         252
         4         237         238         254         253
         4         238         239         255         254
         4         240         241         257         256
         4         241         242         258         257
         4         242         243         259         258
         4         243         244         260         259
         4         244         245         261         260
         4         245         246         262         261
         4         246         247         263         262
         4         247         248         264         263
         4         248         249         265         264
         4         249         250         266         265
         4         250         251         267         266
         4         251         252         268         267
         4         252         253         269         268
         4         253         254         270         269
         4         254         255         271         270
         4         256         257         273         272
         4         257         258         274         273
         4         258         259         275         274
         4         259         260         276         275
         4         260         261         277         276
         4         261         262         278         277
         4         262         263         279         278
         4         263         264         280         279
         4         264         265         281         280
         4         265         266         282         281
         4         266         267         283         282
         4         267         268         284         283
         4         268         269         285         284
         4         269         270         286         285
         4         270         271         287         286
         4         272         273         289         288
         4         273         274         290         289
         4         274         275         291         290
         4         275         276         292         291
         4         276         277         293         292
         4         277         278         294         293
         4         278         279         295         294
         4         279         280         296         295
         4         280         281         297         296
         4         281         282         298         297
         4         282         283         299         298
         4         283         284         300         299
         4         284         285         301         300
         4         285         286         302         301
         4         286         287         303         302
         4         288         289         305         304
         4         289         290         306         305
         4         290         291         307         306
         4         291         292         308         307
         4         292         293         309         308
         4         293         294         310         309
         4         294         295         311         310
         4         295         296         312         311
         4         296         297         313         312
         4         297         298         314         313
         4         298         299         315         314
         4         299         300         316         315
         4         300         301         317         316
         4         301         302         318         317
         4         302         303         319         318
         4         304         305         321         320
         4         305         306         322         321
         4         306         307         323         322
         4         307         308         324         323
         4         308         309         325         324
         4         309         310         326         325
         4         310         311         327         326
         4         311         312         328         327
         4         312         313         329         328
         4         313         314         330         329
         4         314         315         331         330
         4         315         316         332         331
         4         316         317         333         332
         4         317         318         334         333
         4         318         319         335         334
         4         320         321         337         336
         4         321         322         338         337
         4         322         323         339         338
         4         323         324         340         339
         4         324         325         341         340
         4         325         326         342         341
         4         326         327         343         342
         4         327         328         344         343
         4         328         329         345         344
         4         329         330         346         345
         4         330         331         347         346
         4         331         332         348         347
         4         332         333         349         348
         4         333         334         350         349
         4         334         335         351         350
         4         336         337         353         352
         4         337         338         354         353
         4         338         339         355         354
         4         339         340         356         355
         4         340         341         357         356
         4         341         342         358         357
         4         342         343         359         358
         4         343         344         360         359
         4         344         345         361         360
         4         345         346         362         361
         4         346         347         363         362
         4         347         348         364         363
         4         348         349         365         364
         4         349         350         366         365
         4         350         351         367         366
         4         352         353         369         368
         4         353         354         370         369
         4         354         355         371         370
         4         355         356         372         371
         4         356         357         373         372
         4         357         358         374         373
         4         358         359         375         374
         4         359         360         376         375
         4         360         361         377         376
         4         361         362         378         377
         4         362         363         379         378
         4         363         364         380         379
         4         364         365         381         380
         4         365         366         382         381
         4         366         367         383         382
         4         368         369         385         384
         4         369         370         386         385
         4         370         371         387         386
         4         371         372         388         387
         4         372         373         389         388
         4         373         374         390         389
         4         374         375         391         390
         4         375         376         392         391
         4         376         377         393         392
         4         377         378         394         393
         4         378         379         395         394
         4         379         380         396         395
         4         380         381         397         396
         4         381         382         398         397
         4         382         383         399         398
         4         384         385         401         400
         4         385         386         402         401
         4         386         387         403         402
         4         387         388         404         403
         4         388         389         405         404
         4         389         390         406         405
         4         390         391         407         406
         4         391         392         408         407
         4         392         393         409         408
         4         393         394         410         409
         4         394         395         411         410
         4         395         396         412         411
         4         396         397         413         412
         4         397         398         414         413
         4         398         399         415         414
         4         400         401         417         416
         4         401         402         418         417
         4         402         403         419         418
         4         403         404         420         419
         4         404         405         421         420
         4         405         406         422         421
         4         406         407         423         422
         4         407         408         424         423
         4         408         409         425         424
         4         409         410         426         425
         4         410         411         427         426
         4         411         412         428         427
         4         412         413         429         428
         4         413         414         430         429
         4         414         415         431         430
         4         416         417         433         432
         4         417         418         434         433
         4         418         419         435         434
         4         419         420         436         435
         4         420         421         437         436
         4         421         422         438         437
         4         422         423         439         438
         4         423         424         440         439
         4         424         425         441         440
         4         425         426         442         441
         4         426         427         443         442
         4         427         428         444         443
         4         428         429         445         444
         4         429         430         446         445
         4         430         431         447         446
         4         432         433         449         448
         4         433         434         450         449
         4         434         435         451         450
         4         435         436         452         451
         4         436         437         453         452
         4         437         438         454         453
         4         438         439         455         454
         4         439         440         456         455
         4         440         441         457         456
         4         441         442         458         457
         4         442         443         459         458
         4         443         444         460         459
         4         444         445         461         460
         4         445         446         462         461
         4         446         447         463         462
         4         448         449         465         464
         4         449         450         466         465
         4         450         451         467         466
         4         451         452         468         467
         4         452         453         469         468
         4         453         454         470         469
         4         454         455         471         470
         4         455         456         472         471
         4         456         457         473         472
         4         457         458         474         473
         4         458         459         475         474
         4         459         460         476         475
         4         460         461         477         476
         4         461         462         478         477
         4         462         463         479         478
         4         464         465         481         480
         4         465         466         482         481
         4         466         467         483         482
         4         467         468         484         483
         4         468         469         485         484
         4         469         470         486         485
         4         470         471         487         486
         4         471         472         488         487
         4         472         473         489         488
         4         473         474         490         489
         4         474         475         491         490
         4         475         476         492         491
         4         476         477         493         492
         4         477         478         494         493
         4         478         479         495         494
         4         480         481         497         496
         4         481         482         498         497
         4         482         483         499         498
         4         483         484         500         499
         4         484         485         501         500
         4         485         486         502         501
         4         486         487         503         502
         4         487         488         504         503
         4         488         489         505         504
         4         489         490         506         505
         4         490         491         507         506
         4         491         492         508         507
         4         492         493         509         508
         4         493         494         510         509
         4         494         495         511         510
         4         496         497         513         512
         4         497         498         514         513
         4         498         499         515         514
         4         499         500         516         515
         4         500         501         517         516
         4         501         502         518         517
         4         502         503         519         518
         4         503         504         520         519
         4         504         505         521         520
         4         505         506         522         521
         4         506         507         523         522
         4         507         508         524         523
         4         508         509         525         524
         4         509         510         526         525
         4         510         511         527         526
         4         512         513         529         528
         4         513         514         530         529
         4         514         515         531         530
         4         515         516         532         531
         4         516         517         533         532
         4         517         518         534         533
         4         518         519         535         534
         4         519         520         536         535
         4         520         521         537         536
         4         521         522         538         537
         4         522         523         539         538
         4         523         524         540         539
         4         524         525         541         540
         4         525         526         542         541
         4         526         527         543         542
         4         528         529         545         544
         4         529         530         546         545
         4         530         531         547         546
         4         531         532         548         547
         4         532         533         549         548
         4         533         534         550         549
         4         534         535         551         550
         4         535         536         552         551
         4         536         537         553         552
         4         537         538         554         553
         4         538         539         555         554
         4         539         540         556         555
         4         540         541         557         556
         4         541         542         558         557
         4         542         543         559         558
         4         544         545         561         560
         4         545         546         562         561
         4         546         547         563         562
         4         547         548         564         563
         4         548         549         565         564
         4         549         550         566         565
         4         550         551         567         566
         4         551         552         568         567
         4         552         553         569         568
         4         553         554         570         569
         4         554         555         571         570
         4         555         556         572         571
         4         556         557         573         572
         4         557         558         574         573
         4         558         559         575         574
         4         560         561         577         576
         4         561         562         578         577
         4         562         563         579         578
         4         563         564         580         579
         4         564         565         581         580
         4         565         566         582         581
         4         566         567         583         582
         4         567         568         584         583
         4         568         569         585         584
         4         569         570         586         585
         4         570         571         587         586
         4         571         572         588         587
         4         572         573         589         588
         4         573         574         590         589
         4         574         575         591         590
         4         576         577         593         592
         4         577         578         594         593
         4         578         579         595         594
         4         579         580         596         595
         4         580         581         597         596
         4         581         582         598         597
         4         582         583         599         598
         4         583         584         600         599
         4         584         585         601         600
         4         585         586         602         601
         4         586         587         603         602
         4         587         588         604         603
         4         588         589         605         604
         4         589         590         606         605
         4         590         591         607         606
         4         592         593         609         608
         4         593         594         610         609
         4         594         595         611         610
         4         595         596         612         611
         4         596         597         613         612
         4         597         598         614         613
         4         598         599         615         614
         4         599         600         616         615
         4         600         601         617         616
         4         601         602         618         617
         4         602         603         619         618
         4         603         604         620         619
         4         604         605         621         620
         4         605         606         622         621
         4         606         607         623         622
         4         608         609         625         624
         4         609         610         626         625
         4         610         611         627         626
         4         611         612         628         627
         4         612         613         629         628
         4         613         614         630         629
         4         614         615         631         630
         4         615         616         632         631
         4         616         617         633         632
         4         617         618         634         633
         4         618         619         635         634
         4         619         620         636         635
         4         620         621         637         636
         4         621         622         638         637
         4         622         623         639         638
         4         624         625         641         640
         4         625         626         642         641
         4         626         627         643         642
         4         627         628         644         643
         4         628         629         645         644
         4         629         630         646         645
         4         630         631         647         646
         4         631         632         648         647
         4         632         633         649         648
         4         633         634         650         649
         4         634         635         651         650
         4         635         636         652         651
         4         636         637         653         652
         4         637         638         654         653
         4         638         639         655         654
         4         640         641         657         656
         4         641         642         658         657
         4         642         643         659         658
         4         643         644         660         659
         4         644         645         661         660
         4         645         646         662         661
         4         646         647         663         662
         4         647         648         664         663
         4         648         649         665         664
         4         649         650         666         665
         4         650         651         667         666
         4         651         652         668         667
         4         652         653         669         668
         4         653         654         670         669
         4         654         655         671         670
         4         656         657         673         672
         4         657         658         674         673
         4         658         659         675         674
         4         659         660         676         675
         4         660         661         677         676
         4         661         662         678         677
         4         662         663         679         678
         4         663         664         680         679
         4         664         665         681         680
         4         665         666         682         681
         4         666         667         683         682
         4         667         668         684         683
         4         668         669         685         684
         4         669         670         686         685
         4         670         671         687         686
         4         672         673         689         688
         4         673         674         690         689
         4         674         675         691         690
         4         675         676         692         691
         4         676         677         693         692
         4         677         678         694         693
         4         678         679         695         694
         4         679         680         696         695
         4         680         681         697         696
         4         681         682         698         697
         4         682         683         699         698
         4         683         684         700         699
         4         684         685         701         700
         4         685         686         702         701
         4         686         687         703         702
         4         688         689         705         704
         4         689         690         706         705
         4         690         691         707         706
         4         691         692         708         707
         4         692         693         709         708
         4         693         694         710         709
         4         694         695         711         710
         4         695         696         712         711
         4         696         697         713         712
         4         697         698         714         713
         4         698         699         715         714
         4         699         700         716         715
         4         700         701         717         716
         4         701         702         718         717
         4         702         703         719         718
         4         704         705         721         720
         4         705         706         722         721
         4         706         707         723         722
         4         707         708         724         723
         4         708         709         725         724
         4         709         710         726         725
         4         710         711         727         726
         4         711         712         728         727
         4         712         713         729         728
         4         713         714         730         729
         4         714         715         731         730
         4         715         716         732         731
         4         716         717         733         732
         4         717         718         734         733
         4         718         719         735         734
         4         720         721         737         736
         4         721         722         738         737
         4         722         723         739         738
         4         723         724         740         739
         4         724         725         741         740
         4         725         726         742         741
         4         726         727         743         742
         4         727         728         744         743
         4         728         729         745         744
         4         729         730         746         745
         4         730         731         747         746
         4         731         732         748         747
         4         732         733         749         748
         4         733         734         750         749
         4         734         735         751         750
         4         736         737         753         752
         4         737         738         754         753
         4         738         739         755         754
         4         739         740         756         755
         4         740         741         757         756
         4         741         742         758         757
         4         742         743         759         758
         4         743         744         760         759
         4         744         745         761         760
         4         745         746         762         761
         4         746         747         763         762
         4         747         748         764         763
         4         748         749         765         764
         4         749         750         766         765
         4         750         751         767         766
         4         752         753         769         768
         4         753         754         770         769
         4         754         755         771         770
         4         755         756         772         771
         4         756         757         773         772
         4         757         758         774         773
         4         758         759         775         774
         4         759         760         776         775
         4         760         761         777         776
         4         761         762         778         777
         4         762         763         779         778
         4         763         764         780         779
         4         764         765         781         780
         4         765         766         782         781
         4         766         767         783         782
         4         768         769         785         784
         4         769         770         786         785
         4         770         771         787         786
         4         771         772         788         787
         4         772         773         789         788
         4         773         774         790         789
         4         774         775         791         790
         4         775         776         792         791
         4         776         777         793         792
         4         777         778         794         793
         4         778         779         795         794
         4         779         780         796         795
         4         780         781         797         796
         4         781         782         798         797
         4         782         783         799         798
         4         784         785         801         800
         4         785         786         802         801
         4         786         787         803         802
         4         787         788         804         803
         4         788         789         805         804
         4         789         790         806         805
         4         790         791         807         806
         4         791         792         808         807
         4         792         793         809         808
         4         793         794         810         809
         4         794         795         811         810
         4         795         796         812         811
         4         796         797         813         812
         4         797         798         814         813
         4         798         799         815         814
         4         800         801         817         816
         4         801         802         818         817
         4         802         803         819         818
         4         803         804         820         819
         4         804         805         821         820
         4         805         806         822         821
         4         806         807         823         822
         4         807         808         824         823
         4         808         809         825         824
         4         809         810         826         825
         4         810         811         827         826
         4         811         812         828         827
         4         812         813         829         828
         4         813         814         830         829
         4         814         815         831         830
         4         816         817         833         832
         4         817         818         834         833
         4         818         819         835         834
         4         819         820         836         835
         4         820         821         837         836
         4         821         822         838         837
         4         822         823         839         838
         4         823         824         840         839
         4         824         825         841         840
         4         825         826         842         841
         4         826         827         843         842
         4         827         828         844         843
         4         828         829         845         844
         4         829         830         846         845
         4         830         831         847         846
         4         832         833         849         848
         4         833         834         850         849
         4         834         835         851         850
         4         835         836         852         851
         4         836         837         853         852
         4         837         838         854         853
         4         838         839         855         854
         4         839         840         856         855
         4         840         841         857         856
         4         841         842         858         857
         4         842         843         859         858
         4         843         844         860         859
         4         844         845         861         860
         4         845         846         862         861
         4         846         847         863         862
         4         848         849         865         864
         4         849         850         866         865
         4         850         851         867         866
         4         851         852         868         867
         4         852         853         869         868
         4         853         854         870         869
         4         854         855         871         870
         4         855         856         872         871
         4         856         857         873         872
         4         857         858         874         873
         4         858         859         875         874
         4         859         860         876         875
         4         860         861         877         876
         4         861         862         878         877
         4         862         863         879         878
         4         864         865         881         880
         4         865         866         882         881
         4         866         867         883         882
         4         867         868         884         883
         4         868         869         885         884
         4         869         870         886         885
         4         870         871         887         886
         4         871         872         888         887
         4         872         873         889         888
         4         873         874         890         889
         4         874         875         891         890
         4         875         876         892         891
         4         876         877         893         892
         4         877         878         894         893
         4         878         879         895         894
         4         880         881         897         896
         4         881         882         898         897
         4         882         883         899         898
         4         883         884         900         899
         4         884         885         901         900
         4         885         886         902         901
         4         886         887         903         902
         4         887         888         904         903
         4         888         889         905         904
         4         889         890         906         905
         4         890         891         907         906
         4         891         892         908         907
         4         892         893         909         908
         4         893         894         910         909
         4         894         895         911         910
         4         896         897         913         912
         4         897         898         914         913
         4         898         899         915         914
         4         899         900         916         915
         4         900         901         917         916
         4         901         902         918         917
         4         902         903         919         918
         4         903         904         920         919
         4         904         905         921         920
         4         905         906         922         921
         4         906         907         923         922
         4         907         908         924         923
         4         908         909         925         924
         4         909         910         926         925
         4         910         911         927         926
         4         912         913         929         928
         4         913         914         930         929
         4         914         915         931         930
         4         915         916         932         931
         4         916         917         933         932
         4         917         918         934         933
         4         918         919         935         934
         4         919         920         936         935
         4         920         921         937         936
         4         921         922         938         937
         4         922         923         939         938
         4         923         924         940         939
         4         924         925         941         940
         4         925         926         942         941
         4         926         927         943         942
         4         928         929         945         944
         4         929         930         946         945
         4         930         931         947         946
         4         931         932         948         947
         4         932         933         949         948
         4         933         934         950         949
         4         934         935         951         950
         4         935         936         952         951
         4         936         937         953         952
         4         937         938         954         953
         4         938         939         955         954
         4         939         940         956         955
         4         940         941         957         956
         4         941         942         958         957
         4         942         943         959         958
         4         944         945         961         960
         4         945         946         962         961
         4         946         947         963         962
         4         947         948         964         963
         4         948         949         965         964
         4         949         950         966         965
         4         950         951         967         966
         4         951         952         968         967
         4         952         953         969         968
         4         953         954         970         969
         4         954         955         971         970
         4         955         956         972         971
         4         956         957         973         972
         4         957         958         974         973
         4         958         959         975         974
         4         960         961         977         976
         4         961         962         978         977
         4         962         963         979         978
         4         963         964         980         979
         4         964         965         981         980
         4         965         966         982         981
         4         966         967         983         982
         4         967         968         984         983
         4         968         969         985         984
         4         969         970         986         985
         4         970         971         987         986
         4         971         972         988         987
         4         972         973         989         988
         4         973         974         990         989
         4         974         975         991         990
         4         976         977         993         992
         4         977         978         994         993
         4         978         979         995         994
         4         979         980         996         995
         4         980         981         997         996
         4         981         982         998         997
         4         982         983         999         998
         4         983         984        1000         999
         4         984         985        1001        1000
         4         985         986        1002        1001
         4         986         987        1003        1002
         4         987         988        1004        1003
         4         988         989        1005        1004
         4         989         990        1006        1005
         4         990         991        1007        1006
         4         992         993        1009        1008
         4         993         994        1010        1009
         4         994         995        1011        1010
         4         995         996        1012        1011
         4         996         997        1013        1012
         4         997         998        1014        1013
         4         998         999        1015        1014
         4         999        1000        1016        1015
         4        1000        1001        1017        1016
         4        1001        1002        1018        1017
         4        1002        1003        1019        1018
         4        1003        1004        1020        1019
         4        1004        1005        1021        1020
         4        1005        1006        1022        1021
         4        1006        1007        1023        1022
         4        1008        1009        1025        1024
         4        1009        1010        1026        1025
         4        1010        1011        1027        1026
         4        1011        1012        1028        1027
         4        1012        1013        1029        1028
         4        1013        1014        1030        1029
         4        1014        1015        1031        1030
         4        1015        1016        1032        1031
         4        1016        1017        1033        1032
         4        1017        1018        1034        1033
         4        1018        1019        1035        1034
         4        1019        1020        1036        1035
         4        1020        1021        1037        1036
         4        1021        1022        1038        1037
         4        1022        1023        1039        1038
         4        1024        1025        1041        1040
         4        1025        1026        1042        1041
         4        1026        1027        1043        1042
         4        1027        1028        1044        1043
         4        1028        1029        1045        1044
         4        1029        1030        1046        1045
         4        1030        1031        1047        1046
         4        1031        1032        1048        1047
         4        1032        1033        1049        1048
         4        1033        1034        1050        1049
         4        1034        1035        1051        1050
         4        1035        1036        1052        1051
         4        1036        1037        1053        1052
         4        1037        1038        1054        1053
         4        1038        1039        1055        1054
         4        1040        1041        1057        1056
         4        1041        1042        1058        1057
         4        1042        1043        1059        1058
         4        1043        1044        1060        1059
         4        1044        1045        1061        1060
         4        1045        1046        1062        1061
         4        1046        1047        1063        1062
         4        1047        1048        1064        1063
         4        1048        1049        1065        1064
         4        1049        1050        1066        1065
         4        1050        1051        1067        1066
         4        1051        1052        1068        1067
         4        1052        1053        1069        1068
         4        1053        1054        1070        1069
         4        1054        1055        1071        1070
         4        1056        1057        1073        1072
         4        1057        1058        1074        1073
         4        1058        1059        1075        1074
         4        1059        1060        1076        1075
         4        1060        1061        1077        1076
         4        1061        1062        1078        1077
         4        1062        1063        1079        1078
         4        1063        1064        1080        1079
         4        1064        1065        1081        1080
         4        1065        1066        1082        1081
         4        1066        1067        1083        1082
         4        1067        1068        1084        1083
         4        1068        1069        1085        1084
         4        1069        1070        1086        1085
         4        1070        1071        1087        1086
         4        1072        1073        1089        1088
         4        1073        1074        1090        1089
         4        1074        1075        1091        1090
         4        1075        1076        1092        1091
         4        1076        1077        1093        1092
         4        1077        1078        1094        1093
         4        1078        1079        1095        1094
         4        1079        1080        1096        1095
         4        1080        1081        1097        1096
         4        1081        1082        1098        1097
         4        1082        1083        1099        1098
         4        1083        1084        1100        1099
         4        1084        1085        1101        1100
         4        1085        1086        1102        1101
         4        1086        1087        1103        1102
         4        1088        1089        1105        1104
         4        1089        1090        1106        1105
         4        1090        1091        1107        1106
         4        1091        1092        1108        1107
         4        1092        1093        1109        1108
         4        1093        1094        1110        1109
         4        1094        1095        1111        1110
         4        1095        1096        1112        1111
         4        1096        1097        1113        1112
         4        1097        1098        1114        1113
         4        1098        1099        1115        1114
         4        1099        1100        1116        1115
         4        1100        1101        1117        1116
         4        1101        1102        1118        1117
         4        1102        1103        1119        1118
         4        1104        1105        1121        1120
         4        1105        1106        1122        1121
         4        1106        1107        1123        1122
         4        1107        1108        1124        1123
         4        1108        1109        1125        1124
         4        1109        1110        1126        1125
         4        1110        1111        1127        1126
         4        1111        1112        1128        1127
         4        1112        1113        1129        1128
         4        1113        1114        1130        1129
         4        1114        1115        1131        1130
         4        1115        1116        1132        1131
         4        1116        1117        1133        1132
         4        1117        1118        1134        1133
         4        1118        1119        1135        1134
         4        1120        1121        1137        1136
         4        1121        1122        1138        1137
         4        1122        1123        1139        1138
         4        1123        1124        1140        1139
         4        1124        1125        1141        1140
         4        1125        1126        1142        1141
         4        1126        1127        1143        1142
         4        1127        1128        1144        1143
         4        1128        1129        1145        1144
         4        1129        1130        1146        1145
         4        1130        1131        1147        1146
         4        1131        1132        1148        1147
         4        1132        1133        1149        1148
         4        1133        1134        1150        1149
         4        1134        1135        1151        1150
         4        1136        1137        1153        1152
         4        1137        1138        1154        1153
         4        1138        1139        1155        1154
         4        1139        1140        1156        1155
         4        1140        1141        1157        1156
         4        1141        1142        1158        1157
         4        1142        1143        1159        1158
         4        1143        1144        1160        1159
         4        1144        1145        1161        1160
         4        1145        1146        1162        1161
         4        1146        1147        1163        1162
         4        1147        1148        1164        1163
         4        1148        1149        1165        1164
         4        1149        1150        1166        1165
         4        1150        1151        1167        1166
         4        1152        1153        1169        1168
         4        1153        1154        1170        1169
         4        1154        1155        1171        1170
         4        1155        1156        1172        1171
         4        1156        1157        1173        1172
         4        1157        1158        1174        1173
         4        1158        1159        1175        1174
         4        1159        1160        1176        1175
         4        1160        1161        1177        1176
         4        1161        1162        1178        1177
         4        1162        1163        1179        1178
         4        1163        1164        1180        1179
         4        1164        1165        1181        1180
         4        1165        1166        1182        1181
         4        1166        1167        1183        1182
         4        1168        1169        1185        1184
         4        1169        1170        1186        1185
         4        1170        1171        1187        1186
         4        1171        1172        1188        1187
         4        1172        1173        1189        1188
         4        1173        1174        1190        1189
         4        1174        1175        1191        1190
         4        1175        1176        1192        1191
         4        1176        1177        1193        1192
         4        1177        1178        1194        1193
         4        1178        1179        1195        1194
         4        1179        1180        1196        1195
         4        1180        1181        1197        1196
         4        1181        1182        1198        1197
         4        1182        1183        1199        1198
         4        1184        1185        1201        1200
         4        1185        1186        1202        1201
         4        1186        1187        1203        1202
         4        1187        1188        1204        1203
         4        1188        1189        1205        1204
         4        1189        1190        1206        1205
         4        1190        1191        1207        1206
         4        1191        1192        1208        1207
         4        1192        1193        1209        1208
         4        1193        1194        1210        1209
         4        1194        1195        1211        1210
         4        1195        1196        1212        1211
         4        1196        1197        1213        1212
         4        1197        1198        1214        1213
         4        1198        1199        1215        1214
         4        1200        1201        1217        1216
         4        1201        1202        1218        1217
         4        1202        1203        1219        1218
         4        1203        1204        1220        1219
         4        1204        1205        1221        1220
         4        1205        1206        1222        1221
         4        1206        1207        1223        1222
         4        1207        1208        1224        1223
         4        1208        1209        1225        1224
         4        1209        1210        1226        1225
         4        1210        1211        1227        1226
         4        1211        1212        1228        1227
         4        1212        1213        1229        1228
         4        1213        1214        1230        1229
         4        1214        1215        1231        1230
         4        1216        1217        1233        1232
         4        1217        1218        1234        1233
         4        1218        1219        1235        1234
         4        1219        1220        1236        1235
         4        1220        1221        1237        1236
         4        1221        1222        1238        1237
         4        1222        1223        1239        1238
         4        1223        1224        1240        1239
         4        1224        1225        1241        1240
         4        1225        1226        1242        1241
         4        1226        1227        1243        1242
         4        1227        1228        1244        1243
         4        1228        1229        1245        1244
         4        1229        1230        1246        1245
         4        1230        1231        1247        1246
         4        1232        1233        1249        1248
         4        1233        1234        1250        1249
         4        1234        1235        1251        1250
         4        1235        1236        1252        1251
         4        1236        1237        1253        1252
         4        1237        1238        1254        1253
         4        1238        1239        1255        1254
         4        1239        1240        1256        1255
         4        1240        1241        1257        1256
         4        1241        1242        1258        1257
         4        1242        1243        1259        1258
         4        1243        1244        1260        1259
         4        1244        1245        1261        1260
         4        1245        1246        1262        1261
         4        1246        1247        1263        1262
         4        1248        1249        1265        1264
         4        1249        1250        1266        1265
         4        1250        1251        1267        1266
         4        1251        1252        1268        1267
         4        1252        1253        1269        1268
         4        1253        1254        1270        1269
         4        1254        1255        1271        1270
         4        1255        1256        1272        1271
         4        1256        1257        1273        1272
         4        1257        1258        1274        1273
         4        1258        1259        1275        1274
         4        1259        1260        1276        1275
         4        1260        1261        1277        1276
         4        1261        1262        1278        1277
         4        1262        1263        1279        1278
         4        1264        1265        1281        1280
         4        1265        1266        1282        1281
         4        1266        1267        1283        1282
         4        1267        1268        1284        1283
         4        1268        1269        1285        1284
         4        1269        1270        1286        1285
         4        1270        1271        1287        1286
         4        1271        1272        1288        1287
         4        1272        1273        1289        1288
         4        1273        1274        1290        1289
         4        1274        1275        1291        1290
         4        1275        1276        1292        1291
         4        1276        1277        1293        1292
         4        1277        1278        1294        1293
         4        1278        1279        1295        1294
         4        1280        1281        1297        1296
         4        1281        1282        1298        1297
         4        1282        1283        1299        1298
         4        1283        1284        1300        1299
         4        1284        1285        1301        1300
         4        1285        1286        1302        1301
         4        1286        1287        1303        1302
         4        1287        1288        1304        1303
         4        1288        1289        1305        1304
         4        1289        1290        1306        1305
         4        1290        1291        1307        1306
         4        1291        1292        1308        1307
         4        1292        1293        1309        1308
         4        1293        1294        1310        1309
         4        1294        1295        1311        1310
         4        1296        1297        1313        1312
         4        1297        1298        1314        1313
         4        1298        1299        1315        1314
         4        1299        1300        1316        1315
         4        1300        1301        1317        1316
         4        1301        1302        1318        1317
         4        1302        1303        1319        1318
         4        1303        1304        1320        1319
         4        1304        1305        1321        1320
         4        1305        1306        1322        1321
         4        1306        1307        1323        1322
         4        1307        1308        1324        1323
         4        1308        1309        1325        1324
         4        1309        1310        1326        1325
         4        1310        1311        1327        1326
         4        1312        1313        1329        1328
         4        1313        1314        1330        1329
         4        1314        1315        1331        1330
         4        1315        1316        1332        1331
         4        1316        1317        1333        1332
         4        1317        1318        1334        1333
         4        1318        1319        1335        1334
         4        1319        1320        1336        1335
         4        1320        1321        1337        1336
         4        1321        1322        1338        1337
         4        1322        1323        1339        1338
         4        1323        1324        1340        1339
         4        1324        1325        1341        1340
         4        1325        1326        1342        1341
         4        1326        1327        1343        1342
         4        1328        1329        1345        1344
         4        1329        1330        1346        1345
         4        1330        1331        1347        1346
         4        1331        1332        1348        1347
         4        1332        1333        1349        1348
         4        1333        1334        1350        1349
         4        1334        1335        1351        1350
         4        1335        1336        1352        1351
         4        1336        1337        1353        1352
         4        1337        1338        1354        1353
         4        1338        1339        1355        1354
         4        1339        1340        1356        1355
         4        1340        1341        1357        1356
         4        1341        1342        1358        1357
         4        1342        1343        1359        1358
         4        1344        1345        1361        1360
         4        1345        1346        1362        1361
         4        1346        1347        1363        1362
         4        1347        1348        1364        1363
         4        1348        1349        1365        1364
         4        1349        1350        1366        1365
         4        1350        1351        1367        1366
         4        1351        1352        1368        1367
         4        1352        1353        1369        1368
         4        1353        1354        1370        1369
         4        1354        1355        1371        1370
         4        1355        1356        1372        1371
         4        1356        1357        1373        1372
         4        1357        1358        1374        1373
         4        1358        1359        1375        1374
         4        1360        1361        1377        1376
         4        1361        1362        1378        1377
         4        1362        1363        1379        1378
         4        1363        1364        1380        1379
         4        1364        1365        1381        1380
         4        1365        1366        1382        1381
         4        1366        1367        1383        1382
         4        1367        1368        1384        1383
         4        1368        1369        1385        1384
         4        1369        1370        1386        1385
         4        1370        1371        1387        1386
         4        1371        1372        1388        1387
         4        1372        1373        1389        1388
         4        1373        1374        1390        1389
         4        1374        1375        1391        1390
         4        1376        1377        1393        1392
         4        1377        1378        1394        1393
         4        1378        1379        1395        1394
         4        1379        1380        1396        1395
         4        1380        1381        1397        1396
         4        1381        1382        1398        1397
         4        1382        1383        1399        1398
         4        1383        1384        1400        1399
         4        1384        1385        1401        1400
         4        1385        1386        1402        1401
         4        1386        1387        1403        1402
         4        1387        1388        1404        1403
         4        1388        1389        1405        1404
         4        1389        1390        1406        1405
         4        1390        1391        1407        1406
         4        1392        1393        1409        1408
         4        1393        1394        1410        1409
         4        1394        1395        1411        1410
         4        1395        1396        1412        1411
         4        1396        1397        1413        1412
         4        1397        1398        1414        1413
         4        1398        1399        1415        1414
         4        1399        1400        1416        1415
         4        1400        1401        1417        1416
         4        1401        1402        1418        1417
         4        1402        1403        1419        1418
         4        1403        1404        1420        1419
         4        1404        1405        1421        1420
         4        1405        1406        1422        1421
         4        1406        1407        1423        1422
         4        1408        1409        1425        1424
         4        1409        1410        1426        1425
         4        1410        1411        1427        1426
         4        1411        1412        1428        1427
         4        1412        1413        1429        1428
         4        1413        1414        1430        1429
         4        1414        1415        1431        1430
         4        1415        1416        1432        1431
         4        1416        1417        1433        1432
         4        1417        1418        1434        1433
         4        1418        1419        1435        1434
         4        1419        1420        1436        1435
         4        1420        1421        1437        1436
         4        1421        1422        1438        1437
         4        1422        1423        1439        1438
         4        1424        1425        1441        1440
         4        1425        1426        1442        1441
         4        1426        1427        1443        1442
         4        1427        1428        1444        1443
         4        1428        1429        1445        1444
         4        1429        1430        1446        1445
         4        1430        1431        1447        1446
         4        1431        1432        1448        1447
         4        1432        1433        1449        1448
         4        1433        1434        1450        1449
         4        1434        1435        1451        1450
         4        1435        1436        1452        1451
         4        1436        1437        1453        1452
         4        1437        1438        1454        1453
         4        1438        1439        1455        1454
CELL_TYPES       1350
9
9
9
9
9
9
9
9
9
9
9
9
9
9
9
9
9
9
9
9
9
9
9
9
9
9
9
9
9
9
9
9
9
9
9
9
9
9
9
9
9
9
9
9
9
9
9
9
9
9
9
9
9
9
9
9
9
9
9
9
9
9
9
9
9
9
9
9
9
9
9
9
9
9
9
9
9
9
9
9
9
9
9
9
9
9
9
9
9
9
9
9
9
9
9
9
9
9
9
9
9
9
9
9
9
9
9
9
9
9
9
9
9
9
9
9
9
9
9
9
9
9
9
9
9
9
9
9
9
9
9
9
9
9
9
9
9
9
9
9
9
9
9
9
9
9
9
9
9
9
9
9
9
9
9
9
9
9
9
9
9
9
9
9
9
9
9
9
9
9
9
9
9
9
9
9
9
9
9
9
9
9
9
9
9
9
9
9
9
9
9
9
9
9
9
9
9
9
9
9
9
9
9
9
9
9
9
9
9
9
9
9
9
9
9
9
9
9
9
9
9
9
9
9
9
9
9
9
9
9
9
9
9
9
9
9
9
9
9
9
9
9
9
9
9
9
9
9
9
9
9
9
9
9
9
9
9
9
9
9
9
9
9
9
9
9
9
9
9
9
9
9
9
9
9
9
9
9
9
9
9
9
9
9
9
9
9
9
9
9
9
9
9
9
9
9
9
9
9
9
9
9
9
9
9
9
9
9
9
9
9
9
9
9
9
9
9
9
9
9
9
9
9
9
9
9
9
9
9
9
9
9
9
9
9
9
9
9
9
9
9
9
9
9
9
9
9
9
9
9
9
9
9
9
9
9
9
9
9
9
9
9
9
9
9
9
9
9
9
9
9
9
9
9
9
9
9
9
9
9
9
9
9
9
9
9
9
9
9
9
9
9
9
9
9
9
9
9
9
9
9
9
9
9
9
9
9
9
9
9
9
9
9
9
9
9
9
9
9
9
9
9
9
9
9
9
9
9
9
9
9
9
9
9
9
9
9
9
9
9
9
9
9
9
9
9
9
9
9
9
9
9
9
9
9
9
9
9
9
9
9
9
9
9
9
9
9
9
9
9
9
9
9
9
9
9
9
9
9
9
9
9
9
9
9
9
9
9
9
9
9
9
9
9
9
9
9
9
9
9
9
9
9
9
9
9
9
9
9
9
9
9
9
9
9
9
9
9
9
9
9
9
9
9
9
9
9
9
9
9
9
9
9
9
9
9
9
9
9
9
9
9
9
9
9
9
9
9
9
9
9
9
9
9
9
9
9
9
9
9
9
9
9
9
9
9
9
9
9
9
9
9
9
9
9
9
9
9
9
9
9
9
9
9
9
9
9
9
9
9
9
9
9
9
9
9
9
9
9
9
9
9
9
9
9
9
9
9
9
9
9
9
9
9
9
9
9
9
9
9
9
9
9
9
9
9
9
9
9
9
9
9
9
9
9
9
9
9
9
9
9
9
9
9
9
9
9
9
9
9
9
9
9
9
9
9
9
9
9
9
9
9
9
9
9
9
9
9
9
9
9
9
9
9
9
9
9
9
9
9
9
9
9
9
9
9
9
9
9
9
9
9
9
9
9
9
9
9
9
9
9
9
9
9
9
9
9
9
9
9
9
9
9
9
9
9
9
9
9
9
9
9
9
9
9
9
9
9
9
9
9
9
9
9
9
9
9
9
9
9
9
9
9
9
9
9
9
9
9
9
9
9
9
9
9
9
9
9
9
9
9
9
9
9
9
9
9
9
9
9
9
9
9
9
9
9
9
9
9
9
9
9
9
9
9
9
9
9
9
9
9
9
9
9
9
9
9
9
9
9
9
9
9
9
9
9
9
9
9
9
9
9
9
9
9
9
9
9
9
9
9
9
9
9
9
9
9
9
9
9
9
9
9
9
9
9
9
9
9
9
9
9
9
9
9
9
9
9
9
9
9
9
9
9
9
9
9
9
9
9
9
9
9
9
9
9
9
9
9
9
9
9
9
9
9
9
9
9
9
9
9
9
9
9
9
9
9
9
9
9
9
9
9
9
9
9
9
9
9
9
9
9
9
9
9
9
9
9
9
9
9
9
9
9
9
9
9
9
9
9
9
9
9
9
9
9
9
9
9
9
9
9
9
9
9
9
9
9
9
9
9
9
9
9
9
9
9
9
9
9
9
9
9
9
9
9
9
9
9
9
9
9
9
9
9
9
9
9
9
9
9
9
9
9
9
9
9
9
9
9
9
9
9
9
9
9
9
9
9
9
9
9
9
9
9
9
9
9
9
9
9
9
9
9
9
9
9
9
9
9
9
9
9
9
9
9
9
9
9
9
9
9
9
9
9
9
9
9
9
9
9
9
9
9
9
9
9
9
9
9
9
9
9
9
9
9
9
9
9
9
9
9
9
9
9
9
9
9
9
9
9
9
9
9
9
9
9
9
9
9
9
9
9
9
9
9
9
9
9
9
9
9
9
9
9
9
9
9
9
9
9
9
9
9
9
9
9
9
9
9
9
9
9
9
9
9
9
9
9
9
9
9
9
9
9
9
9
9
9
9
9
9
9
9
9
9
9
9
9
9
9
9
9
9
9
9
9
9
9
9
9
9
9
9
9
9
9
9
9
9
9
9
9
9
9
9
9
9
9
9
9
9
9
9
9
9
9
9
9
9
9
9
9
9
9
9
9
9
9
9
9
9
9
9
9
9
9
9
9
9
9
9
9
9
9
9
9
9
9
9
9
9
9
9
9
9
9
9
9
9
9
9
9
9
9
9
9
9
9
9
9
9
9
9
9
9
9
9
9
9
9
9
9
9
9
9
9
9
9
9
9
9
9
9
9
9
9
9
9
9
9
9
9
9
9
9
9
9
9
9
9
9
9
9
9
9
9
9
9
9
9
9
9
9
9
9
9
9
9
9
9
9
9
9
9
9
9
9
9
9
9
9
9
9
9
9
9
9
9
9
9
9
9
9
9
9
9
9
9
9
9
9
9
9
9
9
9
9
9
9
9
9
9
9
9
9
9
9
9
9
9
9
9
9
9
9
9
9
9
9
9
9
9
9
9
9
9
9
9
9
POINT_DATA      1456
SCALARS p double 
LOOKUP_TABLE default
   92653.1398843096     
   92653.1398843096     
   92653.1398843096     
   92653.1398843097     
   92653.1398843097     
   92653.1398843097     
   92653.1398843098     
   92653.1398843097     
   92653.1398843097     
   92653.1398843098     
   92653.1398843098     
   92653.1398843098     
   92653.1398843098     
   92653.1398843098     
   92653.1398843098     
   92653.1398843098     
   92640.0632532330     
   92640.0632532330     
   92640.0632532330     
   92640.0632532330     
   92640.0632532331     
   92640.0632532331     
   92640.0632532331     
   92640.0632532331     
   92640.0632532331     
   92640.0632532331     
   92640.0632532331     
   92640.0632532331     
   92640.0632532332     
   92640.0632532331     
   92640.0632532331     
   92640.0632532332     
   92600.8355803724     
   92600.8355803724     
   92600.8355803724     
   92600.8355803724     
   92600.8355803724     
   92600.8355803724     
   92600.8355803725     
   92600.8355803725     
   92600.8355803725     
   92600.8355803725     
   92600.8355803725     
   92600.8355803725     
   92600.8355803725     
   92600.8355803725     
   92600.8355803725     
   92600.8355803725     
   92535.4635278558     
   92535.4635278558     
   92535.4635278558     
   92535.4635278558     
   92535.4635278558     
   92535.4635278558     
   92535.4635278558     
   92535.4635278558     
   92535.4635278558     
   92535.4635278558     
   92535.4635278558     
   92535.4635278558     
   92535.4635278558     
   92535.4635278558     
   92535.4635278558     
   92535.4635278558     
   92443.9582026282     
   92443.9582026282     
   92443.9582026282     
   92443.9582026282     
   92443.9582026282     
   92443.9582026282     
   92443.9582026282     
   92443.9582026282     
   92443.9582026282     
   92443.9582026282     
   92443.9582026282     
   92443.9582026281     
   92443.9582026281     
   92443.9582026281     
   92443.9582026282     
   92443.9582026282     
   92326.3351615435     
   92326.3351615435     
   92326.3351615435     
   92326.3351615434     
   92326.3351615435     
   92326.3351615435     
   92326.3351615434     
   92326.3351615434     
   92326.3351615433     
   92326.3351615433     
   92326.3351615433     
   92326.3351615433     
   92326.3351615433     
   92326.3351615433     
   92326.3351615433     
   92326.3351615433     
   92182.6144184811     
   92182.6144184811     
   92182.6144184811     
   92182.6144184811     
   92182.6144184810     
   92182.6144184810     
   92182.6144184810     
   92182.6144184810     
   92182.6144184809     
   92182.6144184809     
   92182.6144184809     
   92182.6144184809     
   92182.6144184809     
   92182.6144184809     
   92182.6144184809     
   92182.6144184809     
   92012.8204534763     
   92012.8204534764     
   92012.8204534764     
   92012.8204534763     
   92012.8204534763     
   92012.8204534762     
   92012.8204534762     
   92012.8204534762     
   92012.8204534762     
   92012.8204534762     
   92012.8204534761     
   92012.8204534761     
   92012.8204534761     
   92012.8204534762     
   92012.8204534762     
   92012.8204534762     
   91816.9822238481     
   91816.9822238481     
   91816.9822238481     
   91816.9822238480     
   91816.9822238480     
   91816.9822238480     
   91816.9822238480     
   91816.9822238480     
   91816.9822238480     
   91816.9822238479     
   91816.9822238479     
   91816.9822238479     
   91816.9822238479     
   91816.9822238479     
   91816.9822238479     
   91816.9822238479     
   91595.1331773065     
   91595.1331773065     
   91595.1331773065     
   91595.1331773064     
   91595.1331773064     
   91595.1331773064     
   91595.1331773064     
   91595.1331773064     
   91595.1331773064     
   91595.1331773063     
   91595.1331773063     
   91595.1331773062     
   91595.1331773062     
   91595.1331773063     
   91595.1331773063     
   91595.1331773062     
   91347.3112670180     
   91347.3112670179     
   91347.3112670179     
   91347.3112670179     
   91347.3112670179     
   91347.3112670178     
   91347.3112670178     
   91347.3112670178     
   91347.3112670178     
   91347.3112670178     
   91347.3112670177     
   91347.3112670178     
   91347.3112670177     
   91347.3112670177     
   91347.3112670177     
   91347.3112670177     
   91073.5589686027     
   91073.5589686026     
   91073.5589686026     
   91073.5589686026     
   91073.5589686025     
   91073.5589686025     
   91073.5589686025     
   91073.5589686025     
   91073.5589686025     
   91073.5589686024     
   91073.5589686024     
   91073.5589686024     
   91073.5589686024     
   91073.5589686024     
   91073.5589686024     
   91073.5589686024     
   90773.9232990348     
   90773.9232990348     
   90773.9232990348     
   90773.9232990348     
   90773.9232990347     
   90773.9232990347     
   90773.9232990347     
   90773.9232990347     
   90773.9232990347     
   90773.9232990347     
   90773.9232990347     
   90773.9232990347     
   90773.9232990346     
   90773.9232990346     
   90773.9232990346     
   90773.9232990346     
   90448.4558374145     
   90448.4558374146     
   90448.4558374145     
   90448.4558374145     
   90448.4558374145     
   90448.4558374145     
   90448.4558374145     
   90448.4558374145     
   90448.4558374145     
   90448.4558374145     
   90448.4558374145     
   90448.4558374144     
   90448.4558374144     
   90448.4558374144     
   90448.4558374144     
   90448.4558374144     
   90097.2127475741     
   90097.2127475740     
   90097.2127475740     
   90097.2127475740     
   90097.2127475739     
   90097.2127475739     
   90097.2127475739     
   90097.2127475739     
   90097.2127475739     
   90097.2127475739     
   90097.2127475739     
   90097.2127475739     
   90097.2127475739     
   90097.2127475739     
   90097.2127475739     
   90097.2127475739     
   89720.2548024798     
   89720.2548024798     
   89720.2548024797     
   89720.2548024797     
   89720.2548024797     
   89720.2548024797     
   89720.2548024797     
   89720.2548024797     
   89720.2548024796     
   89720.2548024797     
   89720.2548024797     
   89720.2548024796     
   89720.2548024796     
   89720.2548024796     
   89720.2548024796     
   89720.2548024796     
   89317.6474103873     
   89317.6474103873     
   89317.6474103874     
   89317.6474103873     
   89317.6474103873     
   89317.6474103873     
   89317.6474103873     
   89317.6474103873     
   89317.6474103873     
   89317.6474103873     
   89317.6474103872     
   89317.6474103872     
   89317.6474103873     
   89317.6474103872     
   89317.6474103872     
   89317.6474103872     
   88889.4606427021     
   88889.4606427021     
   88889.4606427021     
   88889.4606427021     
   88889.4606427021     
   88889.4606427020     
   88889.4606427020     
   88889.4606427020     
   88889.4606427020     
   88889.4606427020     
   88889.4606427019     
   88889.4606427019     
   88889.4606427019     
   88889.4606427019     
   88889.4606427020     
   88889.4606427020     
   88435.7692634951     
   88435.7692634951     
   88435.7692634951     
   88435.7692634950     
   88435.7692634950     
   88435.7692634949     
   88435.7692634949     
   88435.7692634949     
   88435.7692634949     
   88435.7692634950     
   88435.7692634949     
   88435.7692634949     
   88435.7692634949     
   88435.7692634949     
   88435.7692634949     
   88435.7692634949     
   87956.6527606209     
   87956.6527606209     
   87956.6527606209     
   87956.6527606209     
   87956.6527606209     
   87956.6527606208     
   87956.6527606208     
   87956.6527606208     
   87956.6527606208     
   87956.6527606208     
   87956.6527606208     
   87956.6527606207     
   87956.6527606207     
   87956.6527606208     
   87956.6527606207     
   87956.6527606207     
   87452.1953783794     
   87452.1953783794     
   87452.1953783794     
   87452.1953783794     
   87452.1953783793     
   87452.1953783793     
   87452.1953783793     
   87452.1953783793     
   87452.1953783793     
   87452.1953783793     
   87452.1953783793     
   87452.1953783793     
   87452.1953783793     
   87452.1953783793     
   87452.1953783793     
   87452.1953783793     
   86922.4861516591     
   86922.4861516590     
   86922.4861516590     
   86922.4861516590     
   86922.4861516590     
   86922.4861516590     
   86922.4861516590     
   86922.4861516590     
   86922.4861516590     
   86922.4861516590     
   86922.4861516590     
   86922.4861516590     
   86922.4861516590     
   86922.4861516590     
   86922.4861516590     
   86922.4861516590     
   86367.6189414976     
   86367.6189414976     
   86367.6189414976     
   86367.6189414976     
   86367.6189414975     
   86367.6189414976     
   86367.6189414975     
   86367.6189414975     
   86367.6189414975     
   86367.6189414975     
   86367.6189414976     
   86367.6189414975     
   86367.6189414975     
   86367.6189414975     
   86367.6189414976     
   86367.6189414976     
   85787.6924719897     
   85787.6924719897     
   85787.6924719897     
   85787.6924719897     
   85787.6924719896     
   85787.6924719896     
   85787.6924719896     
   85787.6924719896     
   85787.6924719896     
   85787.6924719896     
   85787.6924719896     
   85787.6924719896     
   85787.6924719896     
   85787.6924719896     
   85787.6924719896     
   85787.6924719896     
   85182.8103684693     
   85182.8103684692     
   85182.8103684692     
   85182.8103684692     
   85182.8103684692     
   85182.8103684692     
   85182.8103684692     
   85182.8103684692     
   85182.8103684692     
   85182.8103684692     
   85182.8103684692     
   85182.8103684692     
   85182.8103684692     
   85182.8103684691     
   85182.8103684691     
   85182.8103684692     
   84553.0811968886     
   84553.0811968886     
   84553.0811968886     
   84553.0811968886     
   84553.0811968886     
   84553.0811968886     
   84553.0811968886     
   84553.0811968886     
   84553.0811968885     
   84553.0811968885     
   84553.0811968885     
   84553.0811968885     
   84553.0811968885     
   84553.0811968885     
   84553.0811968885     
   84553.0811968885     
   83898.6185043139     
   83898.6185043139     
   83898.6185043139     
   83898.6185043139     
   83898.6185043138     
   83898.6185043138     
   83898.6185043138     
   83898.6185043138     
   83898.6185043137     
   83898.6185043138     
   83898.6185043137     
   83898.6185043137     
   83898.6185043137     
   83898.6185043137     
   83898.6185043138     
   83898.6185043137     
   83219.5408604509     
   83219.5408604509     
   83219.5408604509     
   83219.5408604509     
   83219.5408604508     
   83219.5408604508     
   83219.5408604507     
   83219.5408604507     
   83219.5408604507     
   83219.5408604507     
   83219.5408604507     
   83219.5408604507     
   83219.5408604507     
   83219.5408604507     
   83219.5408604507     
   83219.5408604507     
   82515.9719001129     
   82515.9719001129     
   82515.9719001129     
   82515.9719001129     
   82515.9719001129     
   82515.9719001128     
   82515.9719001129     
   82515.9719001128     
   82515.9719001128     
   82515.9719001128     
   82515.9719001128     
   82515.9719001128     
   82515.9719001127     
   82515.9719001127     
   82515.9719001128     
   82515.9719001128     
   81788.0403665368     
   81788.0403665368     
   81788.0403665368     
   81788.0403665368     
   81788.0403665368     
   81788.0403665368     
   81788.0403665368     
   81788.0403665367     
   81788.0403665367     
   81788.0403665367     
   81788.0403665367     
   81788.0403665367     
   81788.0403665367     
   81788.0403665367     
   81788.0403665366     
   81788.0403665366     
   81035.8801554498     
   81035.8801554498     
   81035.8801554498     
   81035.8801554498     
   81035.8801554498     
   81035.8801554497     
   81035.8801554497     
   81035.8801554497     
   81035.8801554497     
   81035.8801554497     
   81035.8801554496     
   81035.8801554496     
   81035.8801554496     
   81035.8801554496     
   81035.8801554496     
   81035.8801554496     
   80259.6303597857     
   80259.6303597857     
   80259.6303597857     
   80259.6303597857     
   80259.6303597857     
   80259.6303597857     
   80259.6303597857     
   80259.6303597857     
   80259.6303597857     
   80259.6303597856     
   80259.6303597856     
   80259.6303597856     
   80259.6303597856     
   80259.6303597855     
   80259.6303597855     
   80259.6303597855     
   79459.4353149456     
   79459.4353149456     
   79459.4353149456     
   79459.4353149457     
   79459.4353149457     
   79459.4353149457     
   79459.4353149457     
   79459.4353149457     
   79459.4353149456     
   79459.4353149456     
   79459.4353149456     
   79459.4353149456     
   79459.4353149456     
   79459.4353149456     
   79459.4353149455     
   79459.4353149456     
   78635.4446444921     
   78635.4446444921     
   78635.4446444921     
   78635.4446444921     
   78635.4446444921     
   78635.4446444921     
   78635.4446444921     
   78635.4446444921     
   78635.4446444921     
   78635.4446444921     
   78635.4446444921     
   78635.4446444921     
   78635.4446444920     
   78635.4446444921     
   78635.4446444921     
   78635.4446444920     
   77787.8133061637     
   77787.8133061637     
   77787.8133061637     
   77787.8133061637     
   77787.8133061637     
   77787.8133061638     
   77787.8133061638     
   77787.8133061637     
   77787.8133061638     
   77787.8133061638     
   77787.8133061638     
   77787.8133061638     
   77787.8133061637     
   77787.8133061637     
   77787.8133061637     
   77787.8133061637     
   76916.7016380927     
   76916.7016380927     
   76916.7016380927     
   76916.7016380927     
   76916.7016380927     
   76916.7016380927     
   76916.7016380927     
   76916.7016380927     
   76916.7016380927     
   76916.7016380927     
   76916.7016380927     
   76916.7016380927     
   76916.7016380927     
   76916.7016380927     
   76916.7016380927     
   76916.7016380927     
   76022.2754051023     
   76022.2754051023     
   76022.2754051023     
   76022.2754051023     
   76022.2754051023     
   76022.2754051023     
   76022.2754051023     
   76022.2754051022     
   76022.2754051022     
   76022.2754051022     
   76022.2754051022     
   76022.2754051022     
   76022.2754051022     
   76022.2754051022     
   76022.2754051023     
   76022.2754051023     
   75104.7058449594     
   75104.7058449594     
   75104.7058449594     
   75104.7058449594     
   75104.7058449594     
   75104.7058449594     
   75104.7058449594     
   75104.7058449593     
   75104.7058449593     
   75104.7058449593     
   75104.7058449593     
   75104.7058449593     
   75104.7058449594     
   75104.7058449594     
   75104.7058449594     
   75104.7058449593     
   74164.1697144517     
   74164.1697144517     
   74164.1697144517     
   74164.1697144517     
   74164.1697144516     
   74164.1697144516     
   74164.1697144516     
   74164.1697144516     
   74164.1697144516     
   74164.1697144515     
   74164.1697144516     
   74164.1697144516     
   74164.1697144516     
   74164.1697144516     
   74164.1697144516     
   74164.1697144516     
   73200.8493351557     
   73200.8493351558     
   73200.8493351558     
   73200.8493351557     
   73200.8493351557     
   73200.8493351557     
   73200.8493351557     
   73200.8493351557     
   73200.8493351557     
   73200.8493351557     
   73200.8493351556     
   73200.8493351557     
   73200.8493351557     
   73200.8493351557     
   73200.8493351557     
   73200.8493351557     
   72214.9326387593     
   72214.9326387593     
   72214.9326387593     
   72214.9326387593     
   72214.9326387593     
   72214.9326387593     
   72214.9326387593     
   72214.9326387593     
   72214.9326387593     
   72214.9326387593     
   72214.9326387592     
   72214.9326387592     
   72214.9326387593     
   72214.9326387593     
   72214.9326387593     
   72214.9326387593     
   71206.6132117957     
   71206.6132117957     
   71206.6132117957     
   71206.6132117957     
   71206.6132117957     
   71206.6132117957     
   71206.6132117957     
   71206.6132117956     
   71206.6132117956     
   71206.6132117956     
   71206.6132117956     
   71206.6132117956     
   71206.6132117956     
   71206.6132117957     
   71206.6132117956     
   71206.6132117956     
   70176.0903396461     
   70176.0903396461     
   70176.0903396461     
   70176.0903396461     
   70176.0903396461     
   70176.0903396461     
   70176.0903396460     
   70176.0903396460     
   70176.0903396460     
   70176.0903396460     
   70176.0903396460     
   70176.0903396460     
   70176.0903396460     
   70176.0903396460     
   70176.0903396460     
   70176.0903396460     
   69123.5690496625     
   69123.5690496625     
   69123.5690496625     
   69123.5690496625     
   69123.5690496625     
   69123.5690496625     
   69123.5690496625     
   69123.5690496624     
   69123.5690496624     
   69123.5690496623     
   69123.5690496624     
   69123.5690496624     
   69123.5690496624     
   69123.5690496624     
   69123.5690496624     
   69123.5690496624     
   68049.2601532592     
   68049.2601532592     
   68049.2601532592     
   68049.2601532592     
   68049.2601532592     
   68049.2601532592     
   68049.2601532591     
   68049.2601532592     
   68049.2601532591     
   68049.2601532591     
   68049.2601532591     
   68049.2601532591     
   68049.2601532590     
   68049.2601532591     
   68049.2601532591     
   68049.2601532590     
   66953.3802868198     
   66953.3802868198     
   66953.3802868198     
   66953.3802868198     
   66953.3802868198     
   66953.3802868197     
   66953.3802868198     
   66953.3802868197     
   66953.3802868197     
   66953.3802868197     
   66953.3802868197     
   66953.3802868196     
   66953.3802868196     
   66953.3802868196     
   66953.3802868196     
   66953.3802868196     
   65836.1519512620     
   65836.1519512620     
   65836.1519512620     
   65836.1519512620     
   65836.1519512620     
   65836.1519512620     
   65836.1519512620     
   65836.1519512619     
   65836.1519512619     
   65836.1519512619     
   65836.1519512618     
   65836.1519512618     
   65836.1519512618     
   65836.1519512618     
   65836.1519512618     
   65836.1519512618     
   64697.8035501023     
   64697.8035501023     
   64697.8035501023     
   64697.8035501023     
   64697.8035501023     
   64697.8035501023     
   64697.8035501023     
   64697.8035501023     
   64697.8035501023     
   64697.8035501022     
   64697.8035501022     
   64697.8035501022     
   64697.8035501021     
   64697.8035501021     
   64697.8035501021     
   64697.8035501021     
   63538.5694258587     
   63538.5694258587     
   63538.5694258587     
   63538.5694258587     
   63538.5694258586     
   63538.5694258586     
   63538.5694258586     
   63538.5694258586     
   63538.5694258586     
   63538.5694258585     
   63538.5694258585     
   63538.5694258585     
   63538.5694258585     
   63538.5694258585     
   63538.5694258585     
   63538.5694258585     
   62358.6898946277     
   62358.6898946277     
   62358.6898946278     
   62358.6898946277     
   62358.6898946277     
   62358.6898946277     
   62358.6898946276     
   62358.6898946276     
   62358.6898946276     
   62358.6898946276     
   62358.6898946276     
   62358.6898946276     
   62358.6898946276     
   62358.6898946276     
   62358.6898946276     
   62358.6898946276     
   61158.4112786738     
   61158.4112786738     
   61158.4112786737     
   61158.4112786737     
   61158.4112786737     
   61158.4112786736     
   61158.4112786736     
   61158.4112786736     
   61158.4112786736     
   61158.4112786735     
   61158.4112786736     
   61158.4112786736     
   61158.4112786736     
   61158.4112786735     
   61158.4112786736     
   61158.4112786736     
   59937.9859368622     
   59937.9859368622     
   59937.9859368622     
   59937.9859368622     
   59937.9859368622     
   59937.9859368621     
   59937.9859368621     
   59937.9859368621     
   59937.9859368621     
   59937.9859368620     
   59937.9859368620     
   59937.9859368620     
   59937.9859368620     
   59937.9859368620     
   59937.9859368620     
   59937.9859368620     
   58697.6722927739     
   58697.6722927739     
   58697.6722927739     
   58697.6722927739     
   58697.6722927739     
   58697.6722927738     
   58697.6722927738     
   58697.6722927738     
   58697.6722927738     
   58697.6722927738     
   58697.6722927737     
   58697.6722927738     
   58697.6722927737     
   58697.6722927738     
   58697.6722927738     
   58697.6722927738     
   57437.7348603325     
   57437.7348603325     
   57437.7348603325     
   57437.7348603325     
   57437.7348603324     
   57437.7348603324     
   57437.7348603324     
   57437.7348603324     
   57437.7348603324     
   57437.7348603324     
   57437.7348603323     
   57437.7348603323     
   57437.7348603323     
   57437.7348603323     
   57437.7348603324     
   57437.7348603324     
   56158.4442667809     
   56158.4442667809     
   56158.4442667809     
   56158.4442667809     
   56158.4442667809     
   56158.4442667808     
   56158.4442667808     
   56158.4442667808     
   56158.4442667808     
   56158.4442667808     
   56158.4442667808     
   56158.4442667808     
   56158.4442667808     
   56158.4442667808     
   56158.4442667808     
   56158.4442667808     
   54860.0772728427     
   54860.0772728427     
   54860.0772728427     
   54860.0772728427     
   54860.0772728427     
   54860.0772728427     
   54860.0772728427     
   54860.0772728426     
   54860.0772728426     
   54860.0772728426     
   54860.0772728426     
   54860.0772728426     
   54860.0772728427     
   54860.0772728427     
   54860.0772728427     
   54860.0772728426     
   53542.9167899061     
   53542.9167899061     
   53542.9167899061     
   53542.9167899061     
   53542.9167899061     
   53542.9167899061     
   53542.9167899061     
   53542.9167899061     
   53542.9167899061     
   53542.9167899061     
   53542.9167899061     
   53542.9167899061     
   53542.9167899061     
   53542.9167899061     
   53542.9167899061     
   53542.9167899061     
   52207.2518940709     
   52207.2518940709     
   52207.2518940709     
   52207.2518940709     
   52207.2518940709     
   52207.2518940709     
   52207.2518940709     
   52207.2518940709     
   52207.2518940710     
   52207.2518940710     
   52207.2518940710     
   52207.2518940710     
   52207.2518940710     
   52207.2518940710     
   52207.2518940710     
   52207.2518940710     
   50853.3778369023     
   50853.3778369023     
   50853.3778369023     
   50853.3778369023     
   50853.3778369023     
   50853.3778369023     
   50853.3778369023     
   50853.3778369023     
   50853.3778369023     
   50853.3778369023     
   50853.3778369023     
   50853.3778369023     
   50853.3778369023     
   50853.3778369023     
   50853.3778369023     
   50853.3778369023     
   49481.5960527391     
   49481.5960527391     
   49481.5960527391     
   49481.5960527391     
   49481.5960527391     
   49481.5960527391     
   49481.5960527391     
   49481.5960527392     
   49481.5960527392     
   49481.5960527392     
   49481.5960527392     
   49481.5960527392     
   49481.5960527392     
   49481.5960527392     
   49481.5960527392     
   49481.5960527392     
   48092.2141624100     
   48092.2141624100     
   48092.2141624100     
   48092.2141624100     
   48092.2141624101     
   48092.2141624101     
   48092.2141624101     
   48092.2141624101     
   48092.2141624101     
   48092.2141624101     
   48092.2141624101     
   48092.2141624101     
   48092.2141624101     
   48092.2141624101     
   48092.2141624102     
   48092.2141624102     
   46685.5459732157     
   46685.5459732157     
   46685.5459732157     
   46685.5459732157     
   46685.5459732157     
   46685.5459732157     
   46685.5459732158     
   46685.5459732158     
   46685.5459732158     
   46685.5459732158     
   46685.5459732158     
   46685.5459732158     
   46685.5459732158     
   46685.5459732158     
   46685.5459732158     
   46685.5459732158     
   45261.9114750429     
   45261.9114750429     
   45261.9114750429     
   45261.9114750429     
   45261.9114750429     
   45261.9114750429     
   45261.9114750429     
   45261.9114750429     
   45261.9114750430     
   45261.9114750430     
   45261.9114750430     
   45261.9114750430     
   45261.9114750430     
   45261.9114750430     
   45261.9114750430     
   45261.9114750430     
   43821.6368324846     
   43821.6368324846     
   43821.6368324846     
   43821.6368324846     
   43821.6368324846     
   43821.6368324846     
   43821.6368324846     
   43821.6368324846     
   43821.6368324846     
   43821.6368324846     
   43821.6368324847     
   43821.6368324847     
   43821.6368324846     
   43821.6368324847     
   43821.6368324847     
   43821.6368324847     
   42365.0543728484     
   42365.0543728484     
   42365.0543728484     
   42365.0543728484     
   42365.0543728484     
   42365.0543728485     
   42365.0543728484     
   42365.0543728485     
   42365.0543728485     
   42365.0543728485     
   42365.0543728485     
   42365.0543728485     
   42365.0543728485     
   42365.0543728485     
   42365.0543728485     
   42365.0543728485     
   40892.5025699467     
   40892.5025699466     
   40892.5025699467     
   40892.5025699467     
   40892.5025699467     
   40892.5025699466     
   40892.5025699467     
   40892.5025699467     
   40892.5025699467     
   40892.5025699467     
   40892.5025699467     
   40892.5025699467     
   40892.5025699467     
   40892.5025699467     
   40892.5025699467     
   40892.5025699467     
   39404.3260235718     
   39404.3260235718     
   39404.3260235718     
   39404.3260235718     
   39404.3260235718     
   39404.3260235718     
   39404.3260235718     
   39404.3260235718     
   39404.3260235718     
   39404.3260235718     
   39404.3260235718     
   39404.3260235718     
   39404.3260235718     
   39404.3260235718     
   39404.3260235718     
   39404.3260235718     
   37900.8754345750     
   37900.8754345750     
   37900.8754345750     
   37900.8754345751     
   37900.8754345750     
   37900.8754345750     
   37900.8754345750     
   37900.8754345751     
   37900.8754345751     
   37900.8754345751     
   37900.8754345751     
   37900.8754345751     
   37900.8754345751     
   37900.8754345751     
   37900.8754345751     
   37900.8754345751     
   36382.5075754781     
   36382.5075754781     
   36382.5075754781     
   36382.5075754781     
   36382.5075754781     
   36382.5075754781     
   36382.5075754781     
   36382.5075754781     
   36382.5075754781     
   36382.5075754781     
   36382.5075754781     
   36382.5075754781     
   36382.5075754781     
   36382.5075754782     
   36382.5075754782     
   36382.5075754782     
   34849.5852565645     
   34849.5852565645     
   34849.5852565645     
   34849.5852565645     
   34849.5852565645     
   34849.5852565645     
   34849.5852565645     
   34849.5852565645     
   34849.5852565645     
   34849.5852565645     
   34849.5852565646     
   34849.5852565646     
   34849.5852565646     
   34849.5852565646     
   34849.5852565646     
   34849.5852565646     
   33302.4772874129     
   33302.4772874129     
   33302.4772874129     
   33302.4772874129     
   33302.4772874129     
   33302.4772874129     
   33302.4772874129     
   33302.4772874129     
   33302.4772874129     
   33302.4772874129     
   33302.4772874129     
   33302.4772874129     
   33302.4772874129     
   33302.4772874129     
   33302.4772874130     
   33302.4772874129     
   31741.5584338520     
   31741.5584338520     
   31741.5584338520     
   31741.5584338520     
   31741.5584338520     
   31741.5584338520     
   31741.5584338520     
   31741.5584338520     
   31741.5584338520     
   31741.5584338520     
   31741.5584338520     
   31741.5584338520     
   31741.5584338520     
   31741.5584338520     
   31741.5584338520     
   31741.5584338520     
   30167.2093703376     
   30167.2093703376     
   30167.2093703376     
   30167.2093703376     
   30167.2093703376     
   30167.2093703376     
   30167.2093703376     
   30167.2093703376     
   30167.2093703376     
   30167.2093703376     
   30167.2093703376     
   30167.2093703376     
   30167.2093703376     
   30167.2093703376     
   30167.2093703376     
   30167.2093703376     
   28579.8166277698     
   28579.8166277698     
   28579.8166277698     
   28579.8166277698     
   28579.8166277698     
   28579.8166277698     
   28579.8166277698     
   28579.8166277698     
   28579.8166277698     
   28579.8166277698     
   28579.8166277698     
   28579.8166277698     
   28579.8166277698     
   28579.8166277698     
   28579.8166277698     
   28579.8166277698     
   26979.7725367928     
   26979.7725367928     
   26979.7725367928     
   26979.7725367928     
   26979.7725367928     
   26979.7725367928     
   26979.7725367928     
   26979.7725367928     
   26979.7725367929     
   26979.7725367929     
   26979.7725367929     
   26979.7725367929     
   26979.7725367928     
   26979.7725367929     
   26979.7725367928     
   26979.7725367929     
   25367.4751666406     
   25367.4751666406     
   25367.4751666406     
   25367.4751666405     
   25367.4751666405     
   25367.4751666405     
   25367.4751666406     
   25367.4751666406     
   25367.4751666406     
   25367.4751666406     
   25367.4751666406     
   25367.4751666406     
   25367.4751666406     
   25367.4751666406     
   25367.4751666406     
   25367.4751666406     
   23743.3282596164     
   23743.3282596164     
   23743.3282596164     
   23743.3282596164     
   23743.3282596164     
   23743.3282596164     
   23743.3282596164     
   23743.3282596164     
   23743.3282596164     
   23743.3282596164     
   23743.3282596164     
   23743.3282596164     
   23743.3282596164     
   23743.3282596164     
   23743.3282596164     
   23743.3282596164     
   22107.7411613195     
   22107.7411613194     
   22107.7411613195     
   22107.7411613195     
   22107.7411613195     
   22107.7411613195     
   22107.7411613195     
   22107.7411613195     
   22107.7411613195     
   22107.7411613195     
   22107.7411613195     
   22107.7411613195     
   22107.7411613195     
   22107.7411613195     
   22107.7411613195     
   22107.7411613195     
   20461.1287467559     
   20461.1287467559     
   20461.1287467559     
   20461.1287467559     
   20461.1287467559     
   20461.1287467559     
   20461.1287467559     
   20461.1287467559     
   20461.1287467559     
   20461.1287467559     
   20461.1287467559     
   20461.1287467559     
   20461.1287467559     
   20461.1287467559     
   20461.1287467559     
   20461.1287467559     
   18803.9113425000     
   18803.9113425001     
   18803.9113425000     
   18803.9113425000     
   18803.9113425000     
   18803.9113425000     
   18803.9113425000     
   18803.9113425000     
   18803.9113425000     
   18803.9113425000     
   18803.9113425000     
   18803.9113425000     
   18803.9113425000     
   18803.9113425000     
   18803.9113425000     
   18803.9113425000     
   17136.5146450972     
   17136.5146450972     
   17136.5146450972     
   17136.5146450972     
   17136.5146450972     
   17136.5146450972     
   17136.5146450972     
   17136.5146450972     
   17136.5146450972     
   17136.5146450972     
   17136.5146450972     
   17136.5146450972     
   17136.5146450972     
   17136.5146450972     
   17136.5146450972     
   17136.5146450972     
   15459.3696359272     
   15459.3696359272     
   15459.3696359272     
   15459.3696359272     
   15459.3696359272     
   15459.3696359272     
   15459.3696359272     
   15459.3696359272     
   15459.3696359272     
   15459.3696359272     
   15459.3696359272     
   15459.3696359272     
   15459.3696359272     
   15459.3696359272     
   15459.3696359272     
   15459.3696359272     
   13772.9124927743     
   13772.9124927743     
   13772.9124927743     
   13772.9124927743     
   13772.9124927743     
   13772.9124927743     
   13772.9124927743     
   13772.9124927743     
   13772.9124927743     
   13772.9124927743     
   13772.9124927743     
   13772.9124927743     
   13772.9124927743     
   13772.9124927743     
   13772.9124927743     
   13772.9124927743     
   12077.5844983782     
   12077.5844983781     
   12077.5844983782     
   12077.5844983782     
   12077.5844983782     
   12077.5844983782     
   12077.5844983781     
   12077.5844983781     
   12077.5844983781     
   12077.5844983781     
   12077.5844983781     
   12077.5844983782     
   12077.5844983781     
   12077.5844983781     
   12077.5844983781     
   12077.5844983781     
   10373.8319462638     
   10373.8319462638     
   10373.8319462638     
   10373.8319462638     
   10373.8319462638     
   10373.8319462638     
   10373.8319462638     
   10373.8319462638     
   10373.8319462638     
   10373.8319462638     
   10373.8319462638     
   10373.8319462638     
   10373.8319462638     
   10373.8319462638     
   10373.8319462638     
   10373.8319462638     
   8662.10604417789     
   8662.10604417792     
   8662.10604417790     
   8662.10604417790     
   8662.10604417790     
   8662.10604417790     
   8662.10604417789     
   8662.10604417789     
   8662.10604417792     
   8662.10604417789     
   8662.10604417789     
   8662.10604417789     
   8662.10604417788     
   8662.10604417791     
   8662.10604417788     
   8662.10604417791     
   6942.86281547996     
   6942.86281547996     
   6942.86281547996     
   6942.86281547995     
   6942.86281547995     
   6942.86281547995     
   6942.86281547995     
   6942.86281547995     
   6942.86281547995     
   6942.86281547995     
   6942.86281547995     
   6942.86281547996     
   6942.86281547995     
   6942.86281547995     
   6942.86281547996     
   6942.86281547995     
   5216.56299886139     
   5216.56299886139     
   5216.56299886139     
   5216.56299886139     
   5216.56299886139     
   5216.56299886139     
   5216.56299886139     
   5216.56299886139     
   5216.56299886138     
   5216.56299886138     
   5216.56299886138     
   5216.56299886138     
   5216.56299886137     
   5216.56299886137     
   5216.56299886137     
   5216.56299886137     
   3483.67194678658     
   3483.67194678658     
   3483.67194678658     
   3483.67194678658     
   3483.67194678658     
   3483.67194678658     
   3483.67194678658     
   3483.67194678658     
   3483.67194678657     
   3483.67194678657     
   3483.67194678657     
   3483.67194678657     
   3483.67194678657     
   3483.67194678657     
   3483.67194678660     
   3483.67194678657     
   1744.65952306744     
   1744.65952306743     
   1744.65952306744     
   1744.65952306743     
   1744.65952306743     
   1744.65952306743     
   1744.65952306743     
   1744.65952306742     
   1744.65952306745     
   1744.65952306742     
   1744.65952306744     
   1744.65952306744     
   1744.65952306745     
   1744.65952306745     
   1744.65952306745     
   1744.65952306745     
  0.000000000000000E+000
  0.000000000000000E+000
  0.000000000000000E+000
  0.000000000000000E+000
  0.000000000000000E+000
  0.000000000000000E+000
  0.000000000000000E+000
  0.000000000000000E+000
  0.000000000000000E+000
  0.000000000000000E+000
  0.000000000000000E+000
  0.000000000000000E+000
  0.000000000000000E+000
  0.000000000000000E+000
  0.000000000000000E+000
  0.000000000000000E+000
VECTORS u double 
    0.00000E+00        -0.45492E-01         0.00000E+00
    0.00000E+00        -0.42459E-01         0.00000E+00
    0.00000E+00        -0.39426E-01         0.00000E+00
    0.00000E+00        -0.36394E-01         0.00000E+00
    0.00000E+00        -0.33361E-01         0.00000E+00
    0.00000E+00        -0.30328E-01         0.00000E+00
    0.00000E+00        -0.27295E-01         0.00000E+00
    0.00000E+00        -0.24262E-01         0.00000E+00
    0.00000E+00        -0.21230E-01         0.00000E+00
    0.00000E+00        -0.18197E-01         0.00000E+00
    0.00000E+00        -0.15164E-01         0.00000E+00
    0.00000E+00        -0.12131E-01         0.00000E+00
    0.00000E+00        -0.90984E-02         0.00000E+00
    0.00000E+00        -0.60656E-02         0.00000E+00
    0.00000E+00        -0.30328E-02         0.00000E+00
    0.00000E+00         0.00000E+00         0.00000E+00
    0.21901E-02        -0.45492E-01         0.00000E+00
    0.21901E-02        -0.42459E-01         0.00000E+00
    0.21901E-02        -0.39426E-01         0.00000E+00
    0.21901E-02        -0.36394E-01         0.00000E+00
    0.21901E-02        -0.33361E-01         0.00000E+00
    0.21901E-02        -0.30328E-01         0.00000E+00
    0.21901E-02        -0.27295E-01         0.00000E+00
    0.21901E-02        -0.24262E-01         0.00000E+00
    0.21901E-02        -0.21230E-01         0.00000E+00
    0.21901E-02        -0.18197E-01         0.00000E+00
    0.21901E-02        -0.15164E-01         0.00000E+00
    0.21901E-02        -0.12131E-01         0.00000E+00
    0.21901E-02        -0.90984E-02         0.00000E+00
    0.21901E-02        -0.60656E-02         0.00000E+00
    0.21901E-02        -0.30328E-02         0.00000E+00
    0.21901E-02         0.00000E+00         0.00000E+00
    0.43800E-02        -0.45492E-01         0.00000E+00
    0.43800E-02        -0.42459E-01         0.00000E+00
    0.43800E-02        -0.39426E-01         0.00000E+00
    0.43800E-02        -0.36394E-01         0.00000E+00
    0.43800E-02        -0.33361E-01         0.00000E+00
    0.43800E-02        -0.30328E-01         0.00000E+00
    0.43800E-02        -0.27295E-01         0.00000E+00
    0.43800E-02        -0.24262E-01         0.00000E+00
    0.43800E-02        -0.21230E-01         0.00000E+00
    0.43800E-02        -0.18197E-01         0.00000E+00
    0.43800E-02        -0.15164E-01         0.00000E+00
    0.43800E-02        -0.12131E-01         0.00000E+00
    0.43800E-02        -0.90984E-02         0.00000E+00
    0.43800E-02        -0.60656E-02         0.00000E+00
    0.43800E-02        -0.30328E-02         0.00000E+00
    0.43800E-02         0.00000E+00         0.00000E+00
    0.65694E-02        -0.45492E-01         0.00000E+00
    0.65694E-02        -0.42459E-01         0.00000E+00
    0.65694E-02        -0.39426E-01         0.00000E+00
    0.65694E-02        -0.36394E-01         0.00000E+00
    0.65694E-02        -0.33361E-01         0.00000E+00
    0.65694E-02        -0.30328E-01         0.00000E+00
    0.65694E-02        -0.27295E-01         0.00000E+00
    0.65694E-02        -0.24262E-01         0.00000E+00
    0.65694E-02        -0.21230E-01         0.00000E+00
    0.65694E-02        -0.18197E-01         0.00000E+00
    0.65694E-02        -0.15164E-01         0.00000E+00
    0.65694E-02        -0.12131E-01         0.00000E+00
    0.65694E-02        -0.90984E-02         0.00000E+00
    0.65694E-02        -0.60656E-02         0.00000E+00
    0.65694E-02        -0.30328E-02         0.00000E+00
    0.65694E-02         0.00000E+00         0.00000E+00
    0.87579E-02        -0.45492E-01         0.00000E+00
    0.87579E-02        -0.42459E-01         0.00000E+00
    0.87579E-02        -0.39426E-01         0.00000E+00
    0.87579E-02        -0.36394E-01         0.00000E+00
    0.87579E-02        -0.33361E-01         0.00000E+00
    0.87579E-02        -0.30328E-01         0.00000E+00
    0.87579E-02        -0.27295E-01         0.00000E+00
    0.87579E-02        -0.24262E-01         0.00000E+00
    0.87579E-02        -0.21230E-01         0.00000E+00
    0.87579E-02        -0.18197E-01         0.00000E+00
    0.87579E-02        -0.15164E-01         0.00000E+00
    0.87579E-02        -0.12131E-01         0.00000E+00
    0.87579E-02        -0.90984E-02         0.00000E+00
    0.87579E-02        -0.60656E-02         0.00000E+00
    0.87579E-02        -0.30328E-02         0.00000E+00
    0.87579E-02         0.00000E+00         0.00000E+00
    0.10945E-01        -0.45492E-01         0.00000E+00
    0.10945E-01        -0.42459E-01         0.00000E+00
    0.10945E-01        -0.39426E-01         0.00000E+00
    0.10945E-01        -0.36394E-01         0.00000E+00
    0.10945E-01        -0.33361E-01         0.00000E+00
    0.10945E-01        -0.30328E-01         0.00000E+00
    0.10945E-01        -0.27295E-01         0.00000E+00
    0.10945E-01        -0.24262E-01         0.00000E+00
    0.10945E-01        -0.21230E-01         0.00000E+00
    0.10945E-01        -0.18197E-01         0.00000E+00
    0.10945E-01        -0.15164E-01         0.00000E+00
    0.10945E-01        -0.12131E-01         0.00000E+00
    0.10945E-01        -0.90984E-02         0.00000E+00
    0.10945E-01        -0.60656E-02         0.00000E+00
    0.10945E-01        -0.30328E-02         0.00000E+00
    0.10945E-01         0.00000E+00         0.00000E+00
    0.13132E-01        -0.45492E-01         0.00000E+00
    0.13132E-01        -0.42459E-01         0.00000E+00
    0.13132E-01        -0.39426E-01         0.00000E+00
    0.13132E-01        -0.36394E-01         0.00000E+00
    0.13132E-01        -0.33361E-01         0.00000E+00
    0.13132E-01        -0.30328E-01         0.00000E+00
    0.13132E-01        -0.27295E-01         0.00000E+00
    0.13132E-01        -0.24262E-01         0.00000E+00
    0.13132E-01        -0.21230E-01         0.00000E+00
    0.13132E-01        -0.18197E-01         0.00000E+00
    0.13132E-01        -0.15164E-01         0.00000E+00
    0.13132E-01        -0.12131E-01         0.00000E+00
    0.13132E-01        -0.90984E-02         0.00000E+00
    0.13132E-01        -0.60656E-02         0.00000E+00
    0.13132E-01        -0.30328E-02         0.00000E+00
    0.13132E-01         0.00000E+00         0.00000E+00
    0.15316E-01        -0.45492E-01         0.00000E+00
    0.15316E-01        -0.42459E-01         0.00000E+00
    0.15316E-01        -0.39426E-01         0.00000E+00
    0.15316E-01        -0.36394E-01         0.00000E+00
    0.15316E-01        -0.33361E-01         0.00000E+00
    0.15316E-01        -0.30328E-01         0.00000E+00
    0.15316E-01        -0.27295E-01         0.00000E+00
    0.15316E-01        -0.24262E-01         0.00000E+00
    0.15316E-01        -0.21230E-01         0.00000E+00
    0.15316E-01        -0.18197E-01         0.00000E+00
    0.15316E-01        -0.15164E-01         0.00000E+00
    0.15316E-01        -0.12131E-01         0.00000E+00
    0.15316E-01        -0.90984E-02         0.00000E+00
    0.15316E-01        -0.60656E-02         0.00000E+00
    0.15316E-01        -0.30328E-02         0.00000E+00
    0.15316E-01         0.00000E+00         0.00000E+00
    0.17499E-01        -0.45492E-01         0.00000E+00
    0.17499E-01        -0.42459E-01         0.00000E+00
    0.17499E-01        -0.39426E-01         0.00000E+00
    0.17499E-01        -0.36394E-01         0.00000E+00
    0.17499E-01        -0.33361E-01         0.00000E+00
    0.17499E-01        -0.30328E-01         0.00000E+00
    0.17499E-01        -0.27295E-01         0.00000E+00
    0.17499E-01        -0.24262E-01         0.00000E+00
    0.17499E-01        -0.21230E-01         0.00000E+00
    0.17499E-01        -0.18197E-01         0.00000E+00
    0.17499E-01        -0.15164E-01         0.00000E+00
    0.17499E-01        -0.12131E-01         0.00000E+00
    0.17499E-01        -0.90984E-02         0.00000E+00
    0.17499E-01        -0.60656E-02         0.00000E+00
    0.17499E-01        -0.30328E-02         0.00000E+00
    0.17499E-01         0.00000E+00         0.00000E+00
    0.19680E-01        -0.45492E-01         0.00000E+00
    0.19680E-01        -0.42459E-01         0.00000E+00
    0.19680E-01        -0.39426E-01         0.00000E+00
    0.19680E-01        -0.36394E-01         0.00000E+00
    0.19680E-01        -0.33361E-01         0.00000E+00
    0.19680E-01        -0.30328E-01         0.00000E+00
    0.19680E-01        -0.27295E-01         0.00000E+00
    0.19680E-01        -0.24262E-01         0.00000E+00
    0.19680E-01        -0.21230E-01         0.00000E+00
    0.19680E-01        -0.18197E-01         0.00000E+00
    0.19680E-01        -0.15164E-01         0.00000E+00
    0.19680E-01        -0.12131E-01         0.00000E+00
    0.19680E-01        -0.90984E-02         0.00000E+00
    0.19680E-01        -0.60656E-02         0.00000E+00
    0.19680E-01        -0.30328E-02         0.00000E+00
    0.19680E-01         0.00000E+00         0.00000E+00
    0.21858E-01        -0.45492E-01         0.00000E+00
    0.21858E-01        -0.42459E-01         0.00000E+00
    0.21858E-01        -0.39426E-01         0.00000E+00
    0.21858E-01        -0.36394E-01         0.00000E+00
    0.21858E-01        -0.33361E-01         0.00000E+00
    0.21858E-01        -0.30328E-01         0.00000E+00
    0.21858E-01        -0.27295E-01         0.00000E+00
    0.21858E-01        -0.24262E-01         0.00000E+00
    0.21858E-01        -0.21230E-01         0.00000E+00
    0.21858E-01        -0.18197E-01         0.00000E+00
    0.21858E-01        -0.15164E-01         0.00000E+00
    0.21858E-01        -0.12131E-01         0.00000E+00
    0.21858E-01        -0.90984E-02         0.00000E+00
    0.21858E-01        -0.60656E-02         0.00000E+00
    0.21858E-01        -0.30328E-02         0.00000E+00
    0.21858E-01         0.00000E+00         0.00000E+00
    0.24034E-01        -0.45492E-01         0.00000E+00
    0.24034E-01        -0.42459E-01         0.00000E+00
    0.24034E-01        -0.39426E-01         0.00000E+00
    0.24034E-01        -0.36394E-01         0.00000E+00
    0.24034E-01        -0.33361E-01         0.00000E+00
    0.24034E-01        -0.30328E-01         0.00000E+00
    0.24034E-01        -0.27295E-01         0.00000E+00
    0.24034E-01        -0.24262E-01         0.00000E+00
    0.24034E-01        -0.21230E-01         0.00000E+00
    0.24034E-01        -0.18197E-01         0.00000E+00
    0.24034E-01        -0.15164E-01         0.00000E+00
    0.24034E-01        -0.12131E-01         0.00000E+00
    0.24034E-01        -0.90984E-02         0.00000E+00
    0.24034E-01        -0.60656E-02         0.00000E+00
    0.24034E-01        -0.30328E-02         0.00000E+00
    0.24034E-01         0.00000E+00         0.00000E+00
    0.26207E-01        -0.45492E-01         0.00000E+00
    0.26207E-01        -0.42459E-01         0.00000E+00
    0.26207E-01        -0.39426E-01         0.00000E+00
    0.26207E-01        -0.36394E-01         0.00000E+00
    0.26207E-01        -0.33361E-01         0.00000E+00
    0.26207E-01        -0.30328E-01         0.00000E+00
    0.26207E-01        -0.27295E-01         0.00000E+00
    0.26207E-01        -0.24262E-01         0.00000E+00
    0.26207E-01        -0.21230E-01         0.00000E+00
    0.26207E-01        -0.18197E-01         0.00000E+00
    0.26207E-01        -0.15164E-01         0.00000E+00
    0.26207E-01        -0.12131E-01         0.00000E+00
    0.26207E-01        -0.90984E-02         0.00000E+00
    0.26207E-01        -0.60656E-02         0.00000E+00
    0.26207E-01        -0.30328E-02         0.00000E+00
    0.26207E-01         0.00000E+00         0.00000E+00
    0.28377E-01        -0.45492E-01         0.00000E+00
    0.28377E-01        -0.42459E-01         0.00000E+00
    0.28377E-01        -0.39426E-01         0.00000E+00
    0.28377E-01        -0.36394E-01         0.00000E+00
    0.28377E-01        -0.33361E-01         0.00000E+00
    0.28377E-01        -0.30328E-01         0.00000E+00
    0.28377E-01        -0.27295E-01         0.00000E+00
    0.28377E-01        -0.24262E-01         0.00000E+00
    0.28377E-01        -0.21230E-01         0.00000E+00
    0.28377E-01        -0.18197E-01         0.00000E+00
    0.28377E-01        -0.15164E-01         0.00000E+00
    0.28377E-01        -0.12131E-01         0.00000E+00
    0.28377E-01        -0.90984E-02         0.00000E+00
    0.28377E-01        -0.60656E-02         0.00000E+00
    0.28377E-01        -0.30328E-02         0.00000E+00
    0.28377E-01         0.00000E+00         0.00000E+00
    0.30543E-01        -0.45492E-01         0.00000E+00
    0.30543E-01        -0.42459E-01         0.00000E+00
    0.30543E-01        -0.39426E-01         0.00000E+00
    0.30543E-01        -0.36394E-01         0.00000E+00
    0.30543E-01        -0.33361E-01         0.00000E+00
    0.30543E-01        -0.30328E-01         0.00000E+00
    0.30543E-01        -0.27295E-01         0.00000E+00
    0.30543E-01        -0.24262E-01         0.00000E+00
    0.30543E-01        -0.21230E-01         0.00000E+00
    0.30543E-01        -0.18197E-01         0.00000E+00
    0.30543E-01        -0.15164E-01         0.00000E+00
    0.30543E-01        -0.12131E-01         0.00000E+00
    0.30543E-01        -0.90984E-02         0.00000E+00
    0.30543E-01        -0.60656E-02         0.00000E+00
    0.30543E-01        -0.30328E-02         0.00000E+00
    0.30543E-01         0.00000E+00         0.00000E+00
    0.32706E-01        -0.45492E-01         0.00000E+00
    0.32706E-01        -0.42459E-01         0.00000E+00
    0.32706E-01        -0.39426E-01         0.00000E+00
    0.32706E-01        -0.36394E-01         0.00000E+00
    0.32706E-01        -0.33361E-01         0.00000E+00
    0.32706E-01        -0.30328E-01         0.00000E+00
    0.32706E-01        -0.27295E-01         0.00000E+00
    0.32706E-01        -0.24262E-01         0.00000E+00
    0.32706E-01        -0.21230E-01         0.00000E+00
    0.32706E-01        -0.18197E-01         0.00000E+00
    0.32706E-01        -0.15164E-01         0.00000E+00
    0.32706E-01        -0.12131E-01         0.00000E+00
    0.32706E-01        -0.90984E-02         0.00000E+00
    0.32706E-01        -0.60656E-02         0.00000E+00
    0.32706E-01        -0.30328E-02         0.00000E+00
    0.32706E-01         0.00000E+00         0.00000E+00
    0.34865E-01        -0.45492E-01         0.00000E+00
    0.34865E-01        -0.42459E-01         0.00000E+00
    0.34865E-01        -0.39426E-01         0.00000E+00
    0.34865E-01        -0.36394E-01         0.00000E+00
    0.34865E-01        -0.33361E-01         0.00000E+00
    0.34865E-01        -0.30328E-01         0.00000E+00
    0.34865E-01        -0.27295E-01         0.00000E+00
    0.34865E-01        -0.24262E-01         0.00000E+00
    0.34865E-01        -0.21230E-01         0.00000E+00
    0.34865E-01        -0.18197E-01         0.00000E+00
    0.34865E-01        -0.15164E-01         0.00000E+00
    0.34865E-01        -0.12131E-01         0.00000E+00
    0.34865E-01        -0.90984E-02         0.00000E+00
    0.34865E-01        -0.60656E-02         0.00000E+00
    0.34865E-01        -0.30328E-02         0.00000E+00
    0.34865E-01         0.00000E+00         0.00000E+00
    0.37019E-01        -0.45492E-01         0.00000E+00
    0.37019E-01        -0.42459E-01         0.00000E+00
    0.37019E-01        -0.39426E-01         0.00000E+00
    0.37019E-01        -0.36394E-01         0.00000E+00
    0.37019E-01        -0.33361E-01         0.00000E+00
    0.37019E-01        -0.30328E-01         0.00000E+00
    0.37019E-01        -0.27295E-01         0.00000E+00
    0.37019E-01        -0.24262E-01         0.00000E+00
    0.37019E-01        -0.21230E-01         0.00000E+00
    0.37019E-01        -0.18197E-01         0.00000E+00
    0.37019E-01        -0.15164E-01         0.00000E+00
    0.37019E-01        -0.12131E-01         0.00000E+00
    0.37019E-01        -0.90984E-02         0.00000E+00
    0.37019E-01        -0.60656E-02         0.00000E+00
    0.37019E-01        -0.30328E-02         0.00000E+00
    0.37019E-01         0.00000E+00         0.00000E+00
    0.39170E-01        -0.45492E-01         0.00000E+00
    0.39170E-01        -0.42459E-01         0.00000E+00
    0.39170E-01        -0.39426E-01         0.00000E+00
    0.39170E-01        -0.36394E-01         0.00000E+00
    0.39170E-01        -0.33361E-01         0.00000E+00
    0.39170E-01        -0.30328E-01         0.00000E+00
    0.39170E-01        -0.27295E-01         0.00000E+00
    0.39170E-01        -0.24262E-01         0.00000E+00
    0.39170E-01        -0.21230E-01         0.00000E+00
    0.39170E-01        -0.18197E-01         0.00000E+00
    0.39170E-01        -0.15164E-01         0.00000E+00
    0.39170E-01        -0.12131E-01         0.00000E+00
    0.39170E-01        -0.90984E-02         0.00000E+00
    0.39170E-01        -0.60656E-02         0.00000E+00
    0.39170E-01        -0.30328E-02         0.00000E+00
    0.39170E-01         0.00000E+00         0.00000E+00
    0.41315E-01        -0.45492E-01         0.00000E+00
    0.41315E-01        -0.42459E-01         0.00000E+00
    0.41315E-01        -0.39426E-01         0.00000E+00
    0.41315E-01        -0.36394E-01         0.00000E+00
    0.41315E-01        -0.33361E-01         0.00000E+00
    0.41315E-01        -0.30328E-01         0.00000E+00
    0.41315E-01        -0.27295E-01         0.00000E+00
    0.41315E-01        -0.24262E-01         0.00000E+00
    0.41315E-01        -0.21230E-01         0.00000E+00
    0.41315E-01        -0.18197E-01         0.00000E+00
    0.41315E-01        -0.15164E-01         0.00000E+00
    0.41315E-01        -0.12131E-01         0.00000E+00
    0.41315E-01        -0.90984E-02         0.00000E+00
    0.41315E-01        -0.60656E-02         0.00000E+00
    0.41315E-01        -0.30328E-02         0.00000E+00
    0.41315E-01         0.00000E+00         0.00000E+00
    0.43456E-01        -0.45492E-01         0.00000E+00
    0.43456E-01        -0.42459E-01         0.00000E+00
    0.43456E-01        -0.39426E-01         0.00000E+00
    0.43456E-01        -0.36394E-01         0.00000E+00
    0.43456E-01        -0.33361E-01         0.00000E+00
    0.43456E-01        -0.30328E-01         0.00000E+00
    0.43456E-01        -0.27295E-01         0.00000E+00
    0.43456E-01        -0.24262E-01         0.00000E+00
    0.43456E-01        -0.21230E-01         0.00000E+00
    0.43456E-01        -0.18197E-01         0.00000E+00
    0.43456E-01        -0.15164E-01         0.00000E+00
    0.43456E-01        -0.12131E-01         0.00000E+00
    0.43456E-01        -0.90984E-02         0.00000E+00
    0.43456E-01        -0.60656E-02         0.00000E+00
    0.43456E-01        -0.30328E-02         0.00000E+00
    0.43456E-01         0.00000E+00         0.00000E+00
    0.45592E-01        -0.45492E-01         0.00000E+00
    0.45592E-01        -0.42459E-01         0.00000E+00
    0.45592E-01        -0.39426E-01         0.00000E+00
    0.45592E-01        -0.36394E-01         0.00000E+00
    0.45592E-01        -0.33361E-01         0.00000E+00
    0.45592E-01        -0.30328E-01         0.00000E+00
    0.45592E-01        -0.27295E-01         0.00000E+00
    0.45592E-01        -0.24262E-01         0.00000E+00
    0.45592E-01        -0.21230E-01         0.00000E+00
    0.45592E-01        -0.18197E-01         0.00000E+00
    0.45592E-01        -0.15164E-01         0.00000E+00
    0.45592E-01        -0.12131E-01         0.00000E+00
    0.45592E-01        -0.90984E-02         0.00000E+00
    0.45592E-01        -0.60656E-02         0.00000E+00
    0.45592E-01        -0.30328E-02         0.00000E+00
    0.45592E-01         0.00000E+00         0.00000E+00
    0.47722E-01        -0.45492E-01         0.00000E+00
    0.47722E-01        -0.42459E-01         0.00000E+00
    0.47722E-01        -0.39426E-01         0.00000E+00
    0.47722E-01        -0.36394E-01         0.00000E+00
    0.47722E-01        -0.33361E-01         0.00000E+00
    0.47722E-01        -0.30328E-01         0.00000E+00
    0.47722E-01        -0.27295E-01         0.00000E+00
    0.47722E-01        -0.24262E-01         0.00000E+00
    0.47722E-01        -0.21230E-01         0.00000E+00
    0.47722E-01        -0.18197E-01         0.00000E+00
    0.47722E-01        -0.15164E-01         0.00000E+00
    0.47722E-01        -0.12131E-01         0.00000E+00
    0.47722E-01        -0.90984E-02         0.00000E+00
    0.47722E-01        -0.60656E-02         0.00000E+00
    0.47722E-01        -0.30328E-02         0.00000E+00
    0.47722E-01         0.00000E+00         0.00000E+00
    0.49846E-01        -0.45492E-01         0.00000E+00
    0.49846E-01        -0.42459E-01         0.00000E+00
    0.49846E-01        -0.39426E-01         0.00000E+00
    0.49846E-01        -0.36394E-01         0.00000E+00
    0.49846E-01        -0.33361E-01         0.00000E+00
    0.49846E-01        -0.30328E-01         0.00000E+00
    0.49846E-01        -0.27295E-01         0.00000E+00
    0.49846E-01        -0.24262E-01         0.00000E+00
    0.49846E-01        -0.21230E-01         0.00000E+00
    0.49846E-01        -0.18197E-01         0.00000E+00
    0.49846E-01        -0.15164E-01         0.00000E+00
    0.49846E-01        -0.12131E-01         0.00000E+00
    0.49846E-01        -0.90984E-02         0.00000E+00
    0.49846E-01        -0.60656E-02         0.00000E+00
    0.49846E-01        -0.30328E-02         0.00000E+00
    0.49846E-01         0.00000E+00         0.00000E+00
    0.51965E-01        -0.45492E-01         0.00000E+00
    0.51965E-01        -0.42459E-01         0.00000E+00
    0.51965E-01        -0.39426E-01         0.00000E+00
    0.51965E-01        -0.36394E-01         0.00000E+00
    0.51965E-01        -0.33361E-01         0.00000E+00
    0.51965E-01        -0.30328E-01         0.00000E+00
    0.51965E-01        -0.27295E-01         0.00000E+00
    0.51965E-01        -0.24262E-01         0.00000E+00
    0.51965E-01        -0.21230E-01         0.00000E+00
    0.51965E-01        -0.18197E-01         0.00000E+00
    0.51965E-01        -0.15164E-01         0.00000E+00
    0.51965E-01        -0.12131E-01         0.00000E+00
    0.51965E-01        -0.90984E-02         0.00000E+00
    0.51965E-01        -0.60656E-02         0.00000E+00
    0.51965E-01        -0.30328E-02         0.00000E+00
    0.51965E-01         0.00000E+00         0.00000E+00
    0.54077E-01        -0.45492E-01         0.00000E+00
    0.54077E-01        -0.42459E-01         0.00000E+00
    0.54077E-01        -0.39426E-01         0.00000E+00
    0.54077E-01        -0.36394E-01         0.00000E+00
    0.54077E-01        -0.33361E-01         0.00000E+00
    0.54077E-01        -0.30328E-01         0.00000E+00
    0.54077E-01        -0.27295E-01         0.00000E+00
    0.54077E-01        -0.24262E-01         0.00000E+00
    0.54077E-01        -0.21230E-01         0.00000E+00
    0.54077E-01        -0.18197E-01         0.00000E+00
    0.54077E-01        -0.15164E-01         0.00000E+00
    0.54077E-01        -0.12131E-01         0.00000E+00
    0.54077E-01        -0.90984E-02         0.00000E+00
    0.54077E-01        -0.60656E-02         0.00000E+00
    0.54077E-01        -0.30328E-02         0.00000E+00
    0.54077E-01         0.00000E+00         0.00000E+00
    0.56183E-01        -0.45492E-01         0.00000E+00
    0.56183E-01        -0.42459E-01         0.00000E+00
    0.56183E-01        -0.39426E-01         0.00000E+00
    0.56183E-01        -0.36394E-01         0.00000E+00
    0.56183E-01        -0.33361E-01         0.00000E+00
    0.56183E-01        -0.30328E-01         0.00000E+00
    0.56183E-01        -0.27295E-01         0.00000E+00
    0.56183E-01        -0.24262E-01         0.00000E+00
    0.56183E-01        -0.21230E-01         0.00000E+00
    0.56183E-01        -0.18197E-01         0.00000E+00
    0.56183E-01        -0.15164E-01         0.00000E+00
    0.56183E-01        -0.12131E-01         0.00000E+00
    0.56183E-01        -0.90984E-02         0.00000E+00
    0.56183E-01        -0.60656E-02         0.00000E+00
    0.56183E-01        -0.30328E-02         0.00000E+00
    0.56183E-01         0.00000E+00         0.00000E+00
    0.58282E-01        -0.45492E-01         0.00000E+00
    0.58282E-01        -0.42459E-01         0.00000E+00
    0.58282E-01        -0.39426E-01         0.00000E+00
    0.58282E-01        -0.36394E-01         0.00000E+00
    0.58282E-01        -0.33361E-01         0.00000E+00
    0.58282E-01        -0.30328E-01         0.00000E+00
    0.58282E-01        -0.27295E-01         0.00000E+00
    0.58282E-01        -0.24262E-01         0.00000E+00
    0.58282E-01        -0.21230E-01         0.00000E+00
    0.58282E-01        -0.18197E-01         0.00000E+00
    0.58282E-01        -0.15164E-01         0.00000E+00
    0.58282E-01        -0.12131E-01         0.00000E+00
    0.58282E-01        -0.90984E-02         0.00000E+00
    0.58282E-01        -0.60656E-02         0.00000E+00
    0.58282E-01        -0.30328E-02         0.00000E+00
    0.58282E-01         0.00000E+00         0.00000E+00
    0.60375E-01        -0.45492E-01         0.00000E+00
    0.60375E-01        -0.42459E-01         0.00000E+00
    0.60375E-01        -0.39426E-01         0.00000E+00
    0.60375E-01        -0.36394E-01         0.00000E+00
    0.60375E-01        -0.33361E-01         0.00000E+00
    0.60375E-01        -0.30328E-01         0.00000E+00
    0.60375E-01        -0.27295E-01         0.00000E+00
    0.60375E-01        -0.24262E-01         0.00000E+00
    0.60375E-01        -0.21230E-01         0.00000E+00
    0.60375E-01        -0.18197E-01         0.00000E+00
    0.60375E-01        -0.15164E-01         0.00000E+00
    0.60375E-01        -0.12131E-01         0.00000E+00
    0.60375E-01        -0.90984E-02         0.00000E+00
    0.60375E-01        -0.60656E-02         0.00000E+00
    0.60375E-01        -0.30328E-02         0.00000E+00
    0.60375E-01         0.00000E+00         0.00000E+00
    0.62460E-01        -0.45492E-01         0.00000E+00
    0.62460E-01        -0.42459E-01         0.00000E+00
    0.62460E-01        -0.39426E-01         0.00000E+00
    0.62460E-01        -0.36394E-01         0.00000E+00
    0.62460E-01        -0.33361E-01         0.00000E+00
    0.62460E-01        -0.30328E-01         0.00000E+00
    0.62460E-01        -0.27295E-01         0.00000E+00
    0.62460E-01        -0.24262E-01         0.00000E+00
    0.62460E-01        -0.21230E-01         0.00000E+00
    0.62460E-01        -0.18197E-01         0.00000E+00
    0.62460E-01        -0.15164E-01         0.00000E+00
    0.62460E-01        -0.12131E-01         0.00000E+00
    0.62460E-01        -0.90984E-02         0.00000E+00
    0.62460E-01        -0.60656E-02         0.00000E+00
    0.62460E-01        -0.30328E-02         0.00000E+00
    0.62460E-01         0.00000E+00         0.00000E+00
    0.64538E-01        -0.45492E-01         0.00000E+00
    0.64538E-01        -0.42459E-01         0.00000E+00
    0.64538E-01        -0.39426E-01         0.00000E+00
    0.64538E-01        -0.36394E-01         0.00000E+00
    0.64538E-01        -0.33361E-01         0.00000E+00
    0.64538E-01        -0.30328E-01         0.00000E+00
    0.64538E-01        -0.27295E-01         0.00000E+00
    0.64538E-01        -0.24262E-01         0.00000E+00
    0.64538E-01        -0.21230E-01         0.00000E+00
    0.64538E-01        -0.18197E-01         0.00000E+00
    0.64538E-01        -0.15164E-01         0.00000E+00
    0.64538E-01        -0.12131E-01         0.00000E+00
    0.64538E-01        -0.90984E-02         0.00000E+00
    0.64538E-01        -0.60656E-02         0.00000E+00
    0.64538E-01        -0.30328E-02         0.00000E+00
    0.64538E-01         0.00000E+00         0.00000E+00
    0.66608E-01        -0.45492E-01         0.00000E+00
    0.66608E-01        -0.42459E-01         0.00000E+00
    0.66608E-01        -0.39426E-01         0.00000E+00
    0.66608E-01        -0.36394E-01         0.00000E+00
    0.66608E-01        -0.33361E-01         0.00000E+00
    0.66608E-01        -0.30328E-01         0.00000E+00
    0.66608E-01        -0.27295E-01         0.00000E+00
    0.66608E-01        -0.24262E-01         0.00000E+00
    0.66608E-01        -0.21230E-01         0.00000E+00
    0.66608E-01        -0.18197E-01         0.00000E+00
    0.66608E-01        -0.15164E-01         0.00000E+00
    0.66608E-01        -0.12131E-01         0.00000E+00
    0.66608E-01        -0.90984E-02         0.00000E+00
    0.66608E-01        -0.60656E-02         0.00000E+00
    0.66608E-01        -0.30328E-02         0.00000E+00
    0.66608E-01         0.00000E+00         0.00000E+00
    0.68670E-01        -0.45492E-01         0.00000E+00
    0.68670E-01        -0.42459E-01         0.00000E+00
    0.68670E-01        -0.39426E-01         0.00000E+00
    0.68670E-01        -0.36394E-01         0.00000E+00
    0.68670E-01        -0.33361E-01         0.00000E+00
    0.68670E-01        -0.30328E-01         0.00000E+00
    0.68670E-01        -0.27295E-01         0.00000E+00
    0.68670E-01        -0.24262E-01         0.00000E+00
    0.68670E-01        -0.21230E-01         0.00000E+00
    0.68670E-01        -0.18197E-01         0.00000E+00
    0.68670E-01        -0.15164E-01         0.00000E+00
    0.68670E-01        -0.12131E-01         0.00000E+00
    0.68670E-01        -0.90984E-02         0.00000E+00
    0.68670E-01        -0.60656E-02         0.00000E+00
    0.68670E-01        -0.30328E-02         0.00000E+00
    0.68670E-01         0.00000E+00         0.00000E+00
    0.70724E-01        -0.45492E-01         0.00000E+00
    0.70724E-01        -0.42459E-01         0.00000E+00
    0.70724E-01        -0.39426E-01         0.00000E+00
    0.70724E-01        -0.36394E-01         0.00000E+00
    0.70724E-01        -0.33361E-01         0.00000E+00
    0.70724E-01        -0.30328E-01         0.00000E+00
    0.70724E-01        -0.27295E-01         0.00000E+00
    0.70724E-01        -0.24262E-01         0.00000E+00
    0.70724E-01        -0.21230E-01         0.00000E+00
    0.70724E-01        -0.18197E-01         0.00000E+00
    0.70724E-01        -0.15164E-01         0.00000E+00
    0.70724E-01        -0.12131E-01         0.00000E+00
    0.70724E-01        -0.90984E-02         0.00000E+00
    0.70724E-01        -0.60656E-02         0.00000E+00
    0.70724E-01        -0.30328E-02         0.00000E+00
    0.70724E-01         0.00000E+00         0.00000E+00
    0.72770E-01        -0.45492E-01         0.00000E+00
    0.72770E-01        -0.42459E-01         0.00000E+00
    0.72770E-01        -0.39426E-01         0.00000E+00
    0.72770E-01        -0.36394E-01         0.00000E+00
    0.72770E-01        -0.33361E-01         0.00000E+00
    0.72770E-01        -0.30328E-01         0.00000E+00
    0.72770E-01        -0.27295E-01         0.00000E+00
    0.72770E-01        -0.24262E-01         0.00000E+00
    0.72770E-01        -0.21230E-01         0.00000E+00
    0.72770E-01        -0.18197E-01         0.00000E+00
    0.72770E-01        -0.15164E-01         0.00000E+00
    0.72770E-01        -0.12131E-01         0.00000E+00
    0.72770E-01        -0.90984E-02         0.00000E+00
    0.72770E-01        -0.60656E-02         0.00000E+00
    0.72770E-01        -0.30328E-02         0.00000E+00
    0.72770E-01         0.00000E+00         0.00000E+00
    0.74807E-01        -0.45492E-01         0.00000E+00
    0.74807E-01        -0.42459E-01         0.00000E+00
    0.74807E-01        -0.39426E-01         0.00000E+00
    0.74807E-01        -0.36394E-01         0.00000E+00
    0.74807E-01        -0.33361E-01         0.00000E+00
    0.74807E-01        -0.30328E-01         0.00000E+00
    0.74807E-01        -0.27295E-01         0.00000E+00
    0.74807E-01        -0.24262E-01         0.00000E+00
    0.74807E-01        -0.21230E-01         0.00000E+00
    0.74807E-01        -0.18197E-01         0.00000E+00
    0.74807E-01        -0.15164E-01         0.00000E+00
    0.74807E-01        -0.12131E-01         0.00000E+00
    0.74807E-01        -0.90984E-02         0.00000E+00
    0.74807E-01        -0.60656E-02         0.00000E+00
    0.74807E-01        -0.30328E-02         0.00000E+00
    0.74807E-01         0.00000E+00         0.00000E+00
    0.76835E-01        -0.45492E-01         0.00000E+00
    0.76835E-01        -0.42459E-01         0.00000E+00
    0.76835E-01        -0.39426E-01         0.00000E+00
    0.76835E-01        -0.36394E-01         0.00000E+00
    0.76835E-01        -0.33361E-01         0.00000E+00
    0.76835E-01        -0.30328E-01         0.00000E+00
    0.76835E-01        -0.27295E-01         0.00000E+00
    0.76835E-01        -0.24262E-01         0.00000E+00
    0.76835E-01        -0.21230E-01         0.00000E+00
    0.76835E-01        -0.18197E-01         0.00000E+00
    0.76835E-01        -0.15164E-01         0.00000E+00
    0.76835E-01        -0.12131E-01         0.00000E+00
    0.76835E-01        -0.90984E-02         0.00000E+00
    0.76835E-01        -0.60656E-02         0.00000E+00
    0.76835E-01        -0.30328E-02         0.00000E+00
    0.76835E-01         0.00000E+00         0.00000E+00
    0.78855E-01        -0.45492E-01         0.00000E+00
    0.78855E-01        -0.42459E-01         0.00000E+00
    0.78855E-01        -0.39426E-01         0.00000E+00
    0.78855E-01        -0.36394E-01         0.00000E+00
    0.78855E-01        -0.33361E-01         0.00000E+00
    0.78855E-01        -0.30328E-01         0.00000E+00
    0.78855E-01        -0.27295E-01         0.00000E+00
    0.78855E-01        -0.24262E-01         0.00000E+00
    0.78855E-01        -0.21230E-01         0.00000E+00
    0.78855E-01        -0.18197E-01         0.00000E+00
    0.78855E-01        -0.15164E-01         0.00000E+00
    0.78855E-01        -0.12131E-01         0.00000E+00
    0.78855E-01        -0.90984E-02         0.00000E+00
    0.78855E-01        -0.60656E-02         0.00000E+00
    0.78855E-01        -0.30328E-02         0.00000E+00
    0.78855E-01         0.00000E+00         0.00000E+00
    0.80865E-01        -0.45492E-01         0.00000E+00
    0.80865E-01        -0.42459E-01         0.00000E+00
    0.80865E-01        -0.39426E-01         0.00000E+00
    0.80865E-01        -0.36394E-01         0.00000E+00
    0.80865E-01        -0.33361E-01         0.00000E+00
    0.80865E-01        -0.30328E-01         0.00000E+00
    0.80865E-01        -0.27295E-01         0.00000E+00
    0.80865E-01        -0.24262E-01         0.00000E+00
    0.80865E-01        -0.21230E-01         0.00000E+00
    0.80865E-01        -0.18197E-01         0.00000E+00
    0.80865E-01        -0.15164E-01         0.00000E+00
    0.80865E-01        -0.12131E-01         0.00000E+00
    0.80865E-01        -0.90984E-02         0.00000E+00
    0.80865E-01        -0.60656E-02         0.00000E+00
    0.80865E-01        -0.30328E-02         0.00000E+00
    0.80865E-01         0.00000E+00         0.00000E+00
    0.82865E-01        -0.45492E-01         0.00000E+00
    0.82865E-01        -0.42459E-01         0.00000E+00
    0.82865E-01        -0.39426E-01         0.00000E+00
    0.82865E-01        -0.36394E-01         0.00000E+00
    0.82865E-01        -0.33361E-01         0.00000E+00
    0.82865E-01        -0.30328E-01         0.00000E+00
    0.82865E-01        -0.27295E-01         0.00000E+00
    0.82865E-01        -0.24262E-01         0.00000E+00
    0.82865E-01        -0.21230E-01         0.00000E+00
    0.82865E-01        -0.18197E-01         0.00000E+00
    0.82865E-01        -0.15164E-01         0.00000E+00
    0.82865E-01        -0.12131E-01         0.00000E+00
    0.82865E-01        -0.90984E-02         0.00000E+00
    0.82865E-01        -0.60656E-02         0.00000E+00
    0.82865E-01        -0.30328E-02         0.00000E+00
    0.82865E-01         0.00000E+00         0.00000E+00
    0.84856E-01        -0.45492E-01         0.00000E+00
    0.84856E-01        -0.42459E-01         0.00000E+00
    0.84856E-01        -0.39426E-01         0.00000E+00
    0.84856E-01        -0.36394E-01         0.00000E+00
    0.84856E-01        -0.33361E-01         0.00000E+00
    0.84856E-01        -0.30328E-01         0.00000E+00
    0.84856E-01        -0.27295E-01         0.00000E+00
    0.84856E-01        -0.24262E-01         0.00000E+00
    0.84856E-01        -0.21230E-01         0.00000E+00
    0.84856E-01        -0.18197E-01         0.00000E+00
    0.84856E-01        -0.15164E-01         0.00000E+00
    0.84856E-01        -0.12131E-01         0.00000E+00
    0.84856E-01        -0.90984E-02         0.00000E+00
    0.84856E-01        -0.60656E-02         0.00000E+00
    0.84856E-01        -0.30328E-02         0.00000E+00
    0.84856E-01         0.00000E+00         0.00000E+00
    0.86837E-01        -0.45492E-01         0.00000E+00
    0.86837E-01        -0.42459E-01         0.00000E+00
    0.86837E-01        -0.39426E-01         0.00000E+00
    0.86837E-01        -0.36394E-01         0.00000E+00
    0.86837E-01        -0.33361E-01         0.00000E+00
    0.86837E-01        -0.30328E-01         0.00000E+00
    0.86837E-01        -0.27295E-01         0.00000E+00
    0.86837E-01        -0.24262E-01         0.00000E+00
    0.86837E-01        -0.21230E-01         0.00000E+00
    0.86837E-01        -0.18197E-01         0.00000E+00
    0.86837E-01        -0.15164E-01         0.00000E+00
    0.86837E-01        -0.12131E-01         0.00000E+00
    0.86837E-01        -0.90984E-02         0.00000E+00
    0.86837E-01        -0.60656E-02         0.00000E+00
    0.86837E-01        -0.30328E-02         0.00000E+00
    0.86837E-01         0.00000E+00         0.00000E+00
    0.88807E-01        -0.45492E-01         0.00000E+00
    0.88807E-01        -0.42459E-01         0.00000E+00
    0.88807E-01        -0.39426E-01         0.00000E+00
    0.88807E-01        -0.36394E-01         0.00000E+00
    0.88807E-01        -0.33361E-01         0.00000E+00
    0.88807E-01        -0.30328E-01         0.00000E+00
    0.88807E-01        -0.27295E-01         0.00000E+00
    0.88807E-01        -0.24262E-01         0.00000E+00
    0.88807E-01        -0.21230E-01         0.00000E+00
    0.88807E-01        -0.18197E-01         0.00000E+00
    0.88807E-01        -0.15164E-01         0.00000E+00
    0.88807E-01        -0.12131E-01         0.00000E+00
    0.88807E-01        -0.90984E-02         0.00000E+00
    0.88807E-01        -0.60656E-02         0.00000E+00
    0.88807E-01        -0.30328E-02         0.00000E+00
    0.88807E-01         0.00000E+00         0.00000E+00
    0.90768E-01        -0.45492E-01         0.00000E+00
    0.90768E-01        -0.42459E-01         0.00000E+00
    0.90768E-01        -0.39426E-01         0.00000E+00
    0.90768E-01        -0.36394E-01         0.00000E+00
    0.90768E-01        -0.33361E-01         0.00000E+00
    0.90768E-01        -0.30328E-01         0.00000E+00
    0.90768E-01        -0.27295E-01         0.00000E+00
    0.90768E-01        -0.24262E-01         0.00000E+00
    0.90768E-01        -0.21230E-01         0.00000E+00
    0.90768E-01        -0.18197E-01         0.00000E+00
    0.90768E-01        -0.15164E-01         0.00000E+00
    0.90768E-01        -0.12131E-01         0.00000E+00
    0.90768E-01        -0.90984E-02         0.00000E+00
    0.90768E-01        -0.60656E-02         0.00000E+00
    0.90768E-01        -0.30328E-02         0.00000E+00
    0.90768E-01         0.00000E+00         0.00000E+00
    0.92717E-01        -0.45492E-01         0.00000E+00
    0.92717E-01        -0.42459E-01         0.00000E+00
    0.92717E-01        -0.39426E-01         0.00000E+00
    0.92717E-01        -0.36394E-01         0.00000E+00
    0.92717E-01        -0.33361E-01         0.00000E+00
    0.92717E-01        -0.30328E-01         0.00000E+00
    0.92717E-01        -0.27295E-01         0.00000E+00
    0.92717E-01        -0.24262E-01         0.00000E+00
    0.92717E-01        -0.21230E-01         0.00000E+00
    0.92717E-01        -0.18197E-01         0.00000E+00
    0.92717E-01        -0.15164E-01         0.00000E+00
    0.92717E-01        -0.12131E-01         0.00000E+00
    0.92717E-01        -0.90984E-02         0.00000E+00
    0.92717E-01        -0.60656E-02         0.00000E+00
    0.92717E-01        -0.30328E-02         0.00000E+00
    0.92717E-01         0.00000E+00         0.00000E+00
    0.94656E-01        -0.45492E-01         0.00000E+00
    0.94656E-01        -0.42459E-01         0.00000E+00
    0.94656E-01        -0.39426E-01         0.00000E+00
    0.94656E-01        -0.36394E-01         0.00000E+00
    0.94656E-01        -0.33361E-01         0.00000E+00
    0.94656E-01        -0.30328E-01         0.00000E+00
    0.94656E-01        -0.27295E-01         0.00000E+00
    0.94656E-01        -0.24262E-01         0.00000E+00
    0.94656E-01        -0.21230E-01         0.00000E+00
    0.94656E-01        -0.18197E-01         0.00000E+00
    0.94656E-01        -0.15164E-01         0.00000E+00
    0.94656E-01        -0.12131E-01         0.00000E+00
    0.94656E-01        -0.90984E-02         0.00000E+00
    0.94656E-01        -0.60656E-02         0.00000E+00
    0.94656E-01        -0.30328E-02         0.00000E+00
    0.94656E-01         0.00000E+00         0.00000E+00
    0.96583E-01        -0.45492E-01         0.00000E+00
    0.96583E-01        -0.42459E-01         0.00000E+00
    0.96583E-01        -0.39426E-01         0.00000E+00
    0.96583E-01        -0.36394E-01         0.00000E+00
    0.96583E-01        -0.33361E-01         0.00000E+00
    0.96583E-01        -0.30328E-01         0.00000E+00
    0.96583E-01        -0.27295E-01         0.00000E+00
    0.96583E-01        -0.24262E-01         0.00000E+00
    0.96583E-01        -0.21230E-01         0.00000E+00
    0.96583E-01        -0.18197E-01         0.00000E+00
    0.96583E-01        -0.15164E-01         0.00000E+00
    0.96583E-01        -0.12131E-01         0.00000E+00
    0.96583E-01        -0.90984E-02         0.00000E+00
    0.96583E-01        -0.60656E-02         0.00000E+00
    0.96583E-01        -0.30328E-02         0.00000E+00
    0.96583E-01         0.00000E+00         0.00000E+00
    0.98500E-01        -0.45492E-01         0.00000E+00
    0.98500E-01        -0.42459E-01         0.00000E+00
    0.98500E-01        -0.39426E-01         0.00000E+00
    0.98500E-01        -0.36394E-01         0.00000E+00
    0.98500E-01        -0.33361E-01         0.00000E+00
    0.98500E-01        -0.30328E-01         0.00000E+00
    0.98500E-01        -0.27295E-01         0.00000E+00
    0.98500E-01        -0.24262E-01         0.00000E+00
    0.98500E-01        -0.21230E-01         0.00000E+00
    0.98500E-01        -0.18197E-01         0.00000E+00
    0.98500E-01        -0.15164E-01         0.00000E+00
    0.98500E-01        -0.12131E-01         0.00000E+00
    0.98500E-01        -0.90984E-02         0.00000E+00
    0.98500E-01        -0.60656E-02         0.00000E+00
    0.98500E-01        -0.30328E-02         0.00000E+00
    0.98500E-01         0.00000E+00         0.00000E+00
    0.10040E+00        -0.45492E-01         0.00000E+00
    0.10040E+00        -0.42459E-01         0.00000E+00
    0.10040E+00        -0.39426E-01         0.00000E+00
    0.10040E+00        -0.36394E-01         0.00000E+00
    0.10040E+00        -0.33361E-01         0.00000E+00
    0.10040E+00        -0.30328E-01         0.00000E+00
    0.10040E+00        -0.27295E-01         0.00000E+00
    0.10040E+00        -0.24262E-01         0.00000E+00
    0.10040E+00        -0.21230E-01         0.00000E+00
    0.10040E+00        -0.18197E-01         0.00000E+00
    0.10040E+00        -0.15164E-01         0.00000E+00
    0.10040E+00        -0.12131E-01         0.00000E+00
    0.10040E+00        -0.90984E-02         0.00000E+00
    0.10040E+00        -0.60656E-02         0.00000E+00
    0.10040E+00        -0.30328E-02         0.00000E+00
    0.10040E+00         0.00000E+00         0.00000E+00
    0.10230E+00        -0.45492E-01         0.00000E+00
    0.10230E+00        -0.42459E-01         0.00000E+00
    0.10230E+00        -0.39426E-01         0.00000E+00
    0.10230E+00        -0.36394E-01         0.00000E+00
    0.10230E+00        -0.33361E-01         0.00000E+00
    0.10230E+00        -0.30328E-01         0.00000E+00
    0.10230E+00        -0.27295E-01         0.00000E+00
    0.10230E+00        -0.24262E-01         0.00000E+00
    0.10230E+00        -0.21230E-01         0.00000E+00
    0.10230E+00        -0.18197E-01         0.00000E+00
    0.10230E+00        -0.15164E-01         0.00000E+00
    0.10230E+00        -0.12131E-01         0.00000E+00
    0.10230E+00        -0.90984E-02         0.00000E+00
    0.10230E+00        -0.60656E-02         0.00000E+00
    0.10230E+00        -0.30328E-02         0.00000E+00
    0.10230E+00         0.00000E+00         0.00000E+00
    0.10418E+00        -0.45492E-01         0.00000E+00
    0.10418E+00        -0.42459E-01         0.00000E+00
    0.10418E+00        -0.39426E-01         0.00000E+00
    0.10418E+00        -0.36394E-01         0.00000E+00
    0.10418E+00        -0.33361E-01         0.00000E+00
    0.10418E+00        -0.30328E-01         0.00000E+00
    0.10418E+00        -0.27295E-01         0.00000E+00
    0.10418E+00        -0.24262E-01         0.00000E+00
    0.10418E+00        -0.21230E-01         0.00000E+00
    0.10418E+00        -0.18197E-01         0.00000E+00
    0.10418E+00        -0.15164E-01         0.00000E+00
    0.10418E+00        -0.12131E-01         0.00000E+00
    0.10418E+00        -0.90984E-02         0.00000E+00
    0.10418E+00        -0.60656E-02         0.00000E+00
    0.10418E+00        -0.30328E-02         0.00000E+00
    0.10418E+00         0.00000E+00         0.00000E+00
    0.10605E+00        -0.45492E-01         0.00000E+00
    0.10605E+00        -0.42459E-01         0.00000E+00
    0.10605E+00        -0.39426E-01         0.00000E+00
    0.10605E+00        -0.36394E-01         0.00000E+00
    0.10605E+00        -0.33361E-01         0.00000E+00
    0.10605E+00        -0.30328E-01         0.00000E+00
    0.10605E+00        -0.27295E-01         0.00000E+00
    0.10605E+00        -0.24262E-01         0.00000E+00
    0.10605E+00        -0.21230E-01         0.00000E+00
    0.10605E+00        -0.18197E-01         0.00000E+00
    0.10605E+00        -0.15164E-01         0.00000E+00
    0.10605E+00        -0.12131E-01         0.00000E+00
    0.10605E+00        -0.90984E-02         0.00000E+00
    0.10605E+00        -0.60656E-02         0.00000E+00
    0.10605E+00        -0.30328E-02         0.00000E+00
    0.10605E+00         0.00000E+00         0.00000E+00
    0.10790E+00        -0.45492E-01         0.00000E+00
    0.10790E+00        -0.42459E-01         0.00000E+00
    0.10790E+00        -0.39426E-01         0.00000E+00
    0.10790E+00        -0.36394E-01         0.00000E+00
    0.10790E+00        -0.33361E-01         0.00000E+00
    0.10790E+00        -0.30328E-01         0.00000E+00
    0.10790E+00        -0.27295E-01         0.00000E+00
    0.10790E+00        -0.24262E-01         0.00000E+00
    0.10790E+00        -0.21230E-01         0.00000E+00
    0.10790E+00        -0.18197E-01         0.00000E+00
    0.10790E+00        -0.15164E-01         0.00000E+00
    0.10790E+00        -0.12131E-01         0.00000E+00
    0.10790E+00        -0.90984E-02         0.00000E+00
    0.10790E+00        -0.60656E-02         0.00000E+00
    0.10790E+00        -0.30328E-02         0.00000E+00
    0.10790E+00         0.00000E+00         0.00000E+00
    0.10975E+00        -0.45492E-01         0.00000E+00
    0.10975E+00        -0.42459E-01         0.00000E+00
    0.10975E+00        -0.39426E-01         0.00000E+00
    0.10975E+00        -0.36394E-01         0.00000E+00
    0.10975E+00        -0.33361E-01         0.00000E+00
    0.10975E+00        -0.30328E-01         0.00000E+00
    0.10975E+00        -0.27295E-01         0.00000E+00
    0.10975E+00        -0.24262E-01         0.00000E+00
    0.10975E+00        -0.21230E-01         0.00000E+00
    0.10975E+00        -0.18197E-01         0.00000E+00
    0.10975E+00        -0.15164E-01         0.00000E+00
    0.10975E+00        -0.12131E-01         0.00000E+00
    0.10975E+00        -0.90984E-02         0.00000E+00
    0.10975E+00        -0.60656E-02         0.00000E+00
    0.10975E+00        -0.30328E-02         0.00000E+00
    0.10975E+00         0.00000E+00         0.00000E+00
    0.11158E+00        -0.45492E-01         0.00000E+00
    0.11158E+00        -0.42459E-01         0.00000E+00
    0.11158E+00        -0.39426E-01         0.00000E+00
    0.11158E+00        -0.36394E-01         0.00000E+00
    0.11158E+00        -0.33361E-01         0.00000E+00
    0.11158E+00        -0.30328E-01         0.00000E+00
    0.11158E+00        -0.27295E-01         0.00000E+00
    0.11158E+00        -0.24262E-01         0.00000E+00
    0.11158E+00        -0.21230E-01         0.00000E+00
    0.11158E+00        -0.18197E-01         0.00000E+00
    0.11158E+00        -0.15164E-01         0.00000E+00
    0.11158E+00        -0.12131E-01         0.00000E+00
    0.11158E+00        -0.90984E-02         0.00000E+00
    0.11158E+00        -0.60656E-02         0.00000E+00
    0.11158E+00        -0.30328E-02         0.00000E+00
    0.11158E+00         0.00000E+00         0.00000E+00
    0.11340E+00        -0.45492E-01         0.00000E+00
    0.11340E+00        -0.42459E-01         0.00000E+00
    0.11340E+00        -0.39426E-01         0.00000E+00
    0.11340E+00        -0.36394E-01         0.00000E+00
    0.11340E+00        -0.33361E-01         0.00000E+00
    0.11340E+00        -0.30328E-01         0.00000E+00
    0.11340E+00        -0.27295E-01         0.00000E+00
    0.11340E+00        -0.24262E-01         0.00000E+00
    0.11340E+00        -0.21230E-01         0.00000E+00
    0.11340E+00        -0.18197E-01         0.00000E+00
    0.11340E+00        -0.15164E-01         0.00000E+00
    0.11340E+00        -0.12131E-01         0.00000E+00
    0.11340E+00        -0.90984E-02         0.00000E+00
    0.11340E+00        -0.60656E-02         0.00000E+00
    0.11340E+00        -0.30328E-02         0.00000E+00
    0.11340E+00         0.00000E+00         0.00000E+00
    0.11521E+00        -0.45492E-01         0.00000E+00
    0.11521E+00        -0.42459E-01         0.00000E+00
    0.11521E+00        -0.39426E-01         0.00000E+00
    0.11521E+00        -0.36394E-01         0.00000E+00
    0.11521E+00        -0.33361E-01         0.00000E+00
    0.11521E+00        -0.30328E-01         0.00000E+00
    0.11521E+00        -0.27295E-01         0.00000E+00
    0.11521E+00        -0.24262E-01         0.00000E+00
    0.11521E+00        -0.21230E-01         0.00000E+00
    0.11521E+00        -0.18197E-01         0.00000E+00
    0.11521E+00        -0.15164E-01         0.00000E+00
    0.11521E+00        -0.12131E-01         0.00000E+00
    0.11521E+00        -0.90984E-02         0.00000E+00
    0.11521E+00        -0.60656E-02         0.00000E+00
    0.11521E+00        -0.30328E-02         0.00000E+00
    0.11521E+00         0.00000E+00         0.00000E+00
    0.11700E+00        -0.45492E-01         0.00000E+00
    0.11700E+00        -0.42459E-01         0.00000E+00
    0.11700E+00        -0.39426E-01         0.00000E+00
    0.11700E+00        -0.36394E-01         0.00000E+00
    0.11700E+00        -0.33361E-01         0.00000E+00
    0.11700E+00        -0.30328E-01         0.00000E+00
    0.11700E+00        -0.27295E-01         0.00000E+00
    0.11700E+00        -0.24262E-01         0.00000E+00
    0.11700E+00        -0.21230E-01         0.00000E+00
    0.11700E+00        -0.18197E-01         0.00000E+00
    0.11700E+00        -0.15164E-01         0.00000E+00
    0.11700E+00        -0.12131E-01         0.00000E+00
    0.11700E+00        -0.90984E-02         0.00000E+00
    0.11700E+00        -0.60656E-02         0.00000E+00
    0.11700E+00        -0.30328E-02         0.00000E+00
    0.11700E+00         0.00000E+00         0.00000E+00
    0.11878E+00        -0.45492E-01         0.00000E+00
    0.11878E+00        -0.42459E-01         0.00000E+00
    0.11878E+00        -0.39426E-01         0.00000E+00
    0.11878E+00        -0.36394E-01         0.00000E+00
    0.11878E+00        -0.33361E-01         0.00000E+00
    0.11878E+00        -0.30328E-01         0.00000E+00
    0.11878E+00        -0.27295E-01         0.00000E+00
    0.11878E+00        -0.24262E-01         0.00000E+00
    0.11878E+00        -0.21230E-01         0.00000E+00
    0.11878E+00        -0.18197E-01         0.00000E+00
    0.11878E+00        -0.15164E-01         0.00000E+00
    0.11878E+00        -0.12131E-01         0.00000E+00
    0.11878E+00        -0.90984E-02         0.00000E+00
    0.11878E+00        -0.60656E-02         0.00000E+00
    0.11878E+00        -0.30328E-02         0.00000E+00
    0.11878E+00         0.00000E+00         0.00000E+00
    0.12054E+00        -0.45492E-01         0.00000E+00
    0.12054E+00        -0.42459E-01         0.00000E+00
    0.12054E+00        -0.39426E-01         0.00000E+00
    0.12054E+00        -0.36394E-01         0.00000E+00
    0.12054E+00        -0.33361E-01         0.00000E+00
    0.12054E+00        -0.30328E-01         0.00000E+00
    0.12054E+00        -0.27295E-01         0.00000E+00
    0.12054E+00        -0.24262E-01         0.00000E+00
    0.12054E+00        -0.21230E-01         0.00000E+00
    0.12054E+00        -0.18197E-01         0.00000E+00
    0.12054E+00        -0.15164E-01         0.00000E+00
    0.12054E+00        -0.12131E-01         0.00000E+00
    0.12054E+00        -0.90984E-02         0.00000E+00
    0.12054E+00        -0.60656E-02         0.00000E+00
    0.12054E+00        -0.30328E-02         0.00000E+00
    0.12054E+00         0.00000E+00         0.00000E+00
    0.12229E+00        -0.45492E-01         0.00000E+00
    0.12229E+00        -0.42459E-01         0.00000E+00
    0.12229E+00        -0.39426E-01         0.00000E+00
    0.12229E+00        -0.36394E-01         0.00000E+00
    0.12229E+00        -0.33361E-01         0.00000E+00
    0.12229E+00        -0.30328E-01         0.00000E+00
    0.12229E+00        -0.27295E-01         0.00000E+00
    0.12229E+00        -0.24262E-01         0.00000E+00
    0.12229E+00        -0.21230E-01         0.00000E+00
    0.12229E+00        -0.18197E-01         0.00000E+00
    0.12229E+00        -0.15164E-01         0.00000E+00
    0.12229E+00        -0.12131E-01         0.00000E+00
    0.12229E+00        -0.90984E-02         0.00000E+00
    0.12229E+00        -0.60656E-02         0.00000E+00
    0.12229E+00        -0.30328E-02         0.00000E+00
    0.12229E+00         0.00000E+00         0.00000E+00
    0.12403E+00        -0.45492E-01         0.00000E+00
    0.12403E+00        -0.42459E-01         0.00000E+00
    0.12403E+00        -0.39426E-01         0.00000E+00
    0.12403E+00        -0.36394E-01         0.00000E+00
    0.12403E+00        -0.33361E-01         0.00000E+00
    0.12403E+00        -0.30328E-01         0.00000E+00
    0.12403E+00        -0.27295E-01         0.00000E+00
    0.12403E+00        -0.24262E-01         0.00000E+00
    0.12403E+00        -0.21230E-01         0.00000E+00
    0.12403E+00        -0.18197E-01         0.00000E+00
    0.12403E+00        -0.15164E-01         0.00000E+00
    0.12403E+00        -0.12131E-01         0.00000E+00
    0.12403E+00        -0.90984E-02         0.00000E+00
    0.12403E+00        -0.60656E-02         0.00000E+00
    0.12403E+00        -0.30328E-02         0.00000E+00
    0.12403E+00         0.00000E+00         0.00000E+00
    0.12575E+00        -0.45492E-01         0.00000E+00
    0.12575E+00        -0.42459E-01         0.00000E+00
    0.12575E+00        -0.39426E-01         0.00000E+00
    0.12575E+00        -0.36394E-01         0.00000E+00
    0.12575E+00        -0.33361E-01         0.00000E+00
    0.12575E+00        -0.30328E-01         0.00000E+00
    0.12575E+00        -0.27295E-01         0.00000E+00
    0.12575E+00        -0.24262E-01         0.00000E+00
    0.12575E+00        -0.21230E-01         0.00000E+00
    0.12575E+00        -0.18197E-01         0.00000E+00
    0.12575E+00        -0.15164E-01         0.00000E+00
    0.12575E+00        -0.12131E-01         0.00000E+00
    0.12575E+00        -0.90984E-02         0.00000E+00
    0.12575E+00        -0.60656E-02         0.00000E+00
    0.12575E+00        -0.30328E-02         0.00000E+00
    0.12575E+00         0.00000E+00         0.00000E+00
    0.12746E+00        -0.45492E-01         0.00000E+00
    0.12746E+00        -0.42459E-01         0.00000E+00
    0.12746E+00        -0.39426E-01         0.00000E+00
    0.12746E+00        -0.36394E-01         0.00000E+00
    0.12746E+00        -0.33361E-01         0.00000E+00
    0.12746E+00        -0.30328E-01         0.00000E+00
    0.12746E+00        -0.27295E-01         0.00000E+00
    0.12746E+00        -0.24262E-01         0.00000E+00
    0.12746E+00        -0.21230E-01         0.00000E+00
    0.12746E+00        -0.18197E-01         0.00000E+00
    0.12746E+00        -0.15164E-01         0.00000E+00
    0.12746E+00        -0.12131E-01         0.00000E+00
    0.12746E+00        -0.90984E-02         0.00000E+00
    0.12746E+00        -0.60656E-02         0.00000E+00
    0.12746E+00        -0.30328E-02         0.00000E+00
    0.12746E+00         0.00000E+00         0.00000E+00
    0.12916E+00        -0.45492E-01         0.00000E+00
    0.12916E+00        -0.42459E-01         0.00000E+00
    0.12916E+00        -0.39426E-01         0.00000E+00
    0.12916E+00        -0.36394E-01         0.00000E+00
    0.12916E+00        -0.33361E-01         0.00000E+00
    0.12916E+00        -0.30328E-01         0.00000E+00
    0.12916E+00        -0.27295E-01         0.00000E+00
    0.12916E+00        -0.24262E-01         0.00000E+00
    0.12916E+00        -0.21230E-01         0.00000E+00
    0.12916E+00        -0.18197E-01         0.00000E+00
    0.12916E+00        -0.15164E-01         0.00000E+00
    0.12916E+00        -0.12131E-01         0.00000E+00
    0.12916E+00        -0.90984E-02         0.00000E+00
    0.12916E+00        -0.60656E-02         0.00000E+00
    0.12916E+00        -0.30328E-02         0.00000E+00
    0.12916E+00         0.00000E+00         0.00000E+00
    0.13084E+00        -0.45492E-01         0.00000E+00
    0.13084E+00        -0.42459E-01         0.00000E+00
    0.13084E+00        -0.39426E-01         0.00000E+00
    0.13084E+00        -0.36394E-01         0.00000E+00
    0.13084E+00        -0.33361E-01         0.00000E+00
    0.13084E+00        -0.30328E-01         0.00000E+00
    0.13084E+00        -0.27295E-01         0.00000E+00
    0.13084E+00        -0.24262E-01         0.00000E+00
    0.13084E+00        -0.21230E-01         0.00000E+00
    0.13084E+00        -0.18197E-01         0.00000E+00
    0.13084E+00        -0.15164E-01         0.00000E+00
    0.13084E+00        -0.12131E-01         0.00000E+00
    0.13084E+00        -0.90984E-02         0.00000E+00
    0.13084E+00        -0.60656E-02         0.00000E+00
    0.13084E+00        -0.30328E-02         0.00000E+00
    0.13084E+00         0.00000E+00         0.00000E+00
    0.13250E+00        -0.45492E-01         0.00000E+00
    0.13250E+00        -0.42459E-01         0.00000E+00
    0.13250E+00        -0.39426E-01         0.00000E+00
    0.13250E+00        -0.36394E-01         0.00000E+00
    0.13250E+00        -0.33361E-01         0.00000E+00
    0.13250E+00        -0.30328E-01         0.00000E+00
    0.13250E+00        -0.27295E-01         0.00000E+00
    0.13250E+00        -0.24262E-01         0.00000E+00
    0.13250E+00        -0.21230E-01         0.00000E+00
    0.13250E+00        -0.18197E-01         0.00000E+00
    0.13250E+00        -0.15164E-01         0.00000E+00
    0.13250E+00        -0.12131E-01         0.00000E+00
    0.13250E+00        -0.90984E-02         0.00000E+00
    0.13250E+00        -0.60656E-02         0.00000E+00
    0.13250E+00        -0.30328E-02         0.00000E+00
    0.13250E+00         0.00000E+00         0.00000E+00
    0.13415E+00        -0.45492E-01         0.00000E+00
    0.13415E+00        -0.42459E-01         0.00000E+00
    0.13415E+00        -0.39426E-01         0.00000E+00
    0.13415E+00        -0.36394E-01         0.00000E+00
    0.13415E+00        -0.33361E-01         0.00000E+00
    0.13415E+00        -0.30328E-01         0.00000E+00
    0.13415E+00        -0.27295E-01         0.00000E+00
    0.13415E+00        -0.24262E-01         0.00000E+00
    0.13415E+00        -0.21230E-01         0.00000E+00
    0.13415E+00        -0.18197E-01         0.00000E+00
    0.13415E+00        -0.15164E-01         0.00000E+00
    0.13415E+00        -0.12131E-01         0.00000E+00
    0.13415E+00        -0.90984E-02         0.00000E+00
    0.13415E+00        -0.60656E-02         0.00000E+00
    0.13415E+00        -0.30328E-02         0.00000E+00
    0.13415E+00         0.00000E+00         0.00000E+00
    0.13579E+00        -0.45492E-01         0.00000E+00
    0.13579E+00        -0.42459E-01         0.00000E+00
    0.13579E+00        -0.39426E-01         0.00000E+00
    0.13579E+00        -0.36394E-01         0.00000E+00
    0.13579E+00        -0.33361E-01         0.00000E+00
    0.13579E+00        -0.30328E-01         0.00000E+00
    0.13579E+00        -0.27295E-01         0.00000E+00
    0.13579E+00        -0.24262E-01         0.00000E+00
    0.13579E+00        -0.21230E-01         0.00000E+00
    0.13579E+00        -0.18197E-01         0.00000E+00
    0.13579E+00        -0.15164E-01         0.00000E+00
    0.13579E+00        -0.12131E-01         0.00000E+00
    0.13579E+00        -0.90984E-02         0.00000E+00
    0.13579E+00        -0.60656E-02         0.00000E+00
    0.13579E+00        -0.30328E-02         0.00000E+00
    0.13579E+00         0.00000E+00         0.00000E+00
    0.13741E+00        -0.45492E-01         0.00000E+00
    0.13741E+00        -0.42459E-01         0.00000E+00
    0.13741E+00        -0.39426E-01         0.00000E+00
    0.13741E+00        -0.36394E-01         0.00000E+00
    0.13741E+00        -0.33361E-01         0.00000E+00
    0.13741E+00        -0.30328E-01         0.00000E+00
    0.13741E+00        -0.27295E-01         0.00000E+00
    0.13741E+00        -0.24262E-01         0.00000E+00
    0.13741E+00        -0.21230E-01         0.00000E+00
    0.13741E+00        -0.18197E-01         0.00000E+00
    0.13741E+00        -0.15164E-01         0.00000E+00
    0.13741E+00        -0.12131E-01         0.00000E+00
    0.13741E+00        -0.90984E-02         0.00000E+00
    0.13741E+00        -0.60656E-02         0.00000E+00
    0.13741E+00        -0.30328E-02         0.00000E+00
    0.13741E+00         0.00000E+00         0.00000E+00
    0.13901E+00        -0.45492E-01         0.00000E+00
    0.13901E+00        -0.42459E-01         0.00000E+00
    0.13901E+00        -0.39426E-01         0.00000E+00
    0.13901E+00        -0.36394E-01         0.00000E+00
    0.13901E+00        -0.33361E-01         0.00000E+00
    0.13901E+00        -0.30328E-01         0.00000E+00
    0.13901E+00        -0.27295E-01         0.00000E+00
    0.13901E+00        -0.24262E-01         0.00000E+00
    0.13901E+00        -0.21230E-01         0.00000E+00
    0.13901E+00        -0.18197E-01         0.00000E+00
    0.13901E+00        -0.15164E-01         0.00000E+00
    0.13901E+00        -0.12131E-01         0.00000E+00
    0.13901E+00        -0.90984E-02         0.00000E+00
    0.13901E+00        -0.60656E-02         0.00000E+00
    0.13901E+00        -0.30328E-02         0.00000E+00
    0.13901E+00         0.00000E+00         0.00000E+00
    0.14060E+00        -0.45492E-01         0.00000E+00
    0.14060E+00        -0.42459E-01         0.00000E+00
    0.14060E+00        -0.39426E-01         0.00000E+00
    0.14060E+00        -0.36394E-01         0.00000E+00
    0.14060E+00        -0.33361E-01         0.00000E+00
    0.14060E+00        -0.30328E-01         0.00000E+00
    0.14060E+00        -0.27295E-01         0.00000E+00
    0.14060E+00        -0.24262E-01         0.00000E+00
    0.14060E+00        -0.21230E-01         0.00000E+00
    0.14060E+00        -0.18197E-01         0.00000E+00
    0.14060E+00        -0.15164E-01         0.00000E+00
    0.14060E+00        -0.12131E-01         0.00000E+00
    0.14060E+00        -0.90984E-02         0.00000E+00
    0.14060E+00        -0.60656E-02         0.00000E+00
    0.14060E+00        -0.30328E-02         0.00000E+00
    0.14060E+00         0.00000E+00         0.00000E+00
    0.14218E+00        -0.45492E-01         0.00000E+00
    0.14218E+00        -0.42459E-01         0.00000E+00
    0.14218E+00        -0.39426E-01         0.00000E+00
    0.14218E+00        -0.36394E-01         0.00000E+00
    0.14218E+00        -0.33361E-01         0.00000E+00
    0.14218E+00        -0.30328E-01         0.00000E+00
    0.14218E+00        -0.27295E-01         0.00000E+00
    0.14218E+00        -0.24262E-01         0.00000E+00
    0.14218E+00        -0.21230E-01         0.00000E+00
    0.14218E+00        -0.18197E-01         0.00000E+00
    0.14218E+00        -0.15164E-01         0.00000E+00
    0.14218E+00        -0.12131E-01         0.00000E+00
    0.14218E+00        -0.90984E-02         0.00000E+00
    0.14218E+00        -0.60656E-02         0.00000E+00
    0.14218E+00        -0.30328E-02         0.00000E+00
    0.14218E+00         0.00000E+00         0.00000E+00
    0.14373E+00        -0.45492E-01         0.00000E+00
    0.14373E+00        -0.42459E-01         0.00000E+00
    0.14373E+00        -0.39426E-01         0.00000E+00
    0.14373E+00        -0.36394E-01         0.00000E+00
    0.14373E+00        -0.33361E-01         0.00000E+00
    0.14373E+00        -0.30328E-01         0.00000E+00
    0.14373E+00        -0.27295E-01         0.00000E+00
    0.14373E+00        -0.24262E-01         0.00000E+00
    0.14373E+00        -0.21230E-01         0.00000E+00
    0.14373E+00        -0.18197E-01         0.00000E+00
    0.14373E+00        -0.15164E-01         0.00000E+00
    0.14373E+00        -0.12131E-01         0.00000E+00
    0.14373E+00        -0.90984E-02         0.00000E+00
    0.14373E+00        -0.60656E-02         0.00000E+00
    0.14373E+00        -0.30328E-02         0.00000E+00
    0.14373E+00         0.00000E+00         0.00000E+00
    0.14527E+00        -0.45492E-01         0.00000E+00
    0.14527E+00        -0.42459E-01         0.00000E+00
    0.14527E+00        -0.39426E-01         0.00000E+00
    0.14527E+00        -0.36394E-01         0.00000E+00
    0.14527E+00        -0.33361E-01         0.00000E+00
    0.14527E+00        -0.30328E-01         0.00000E+00
    0.14527E+00        -0.27295E-01         0.00000E+00
    0.14527E+00        -0.24262E-01         0.00000E+00
    0.14527E+00        -0.21230E-01         0.00000E+00
    0.14527E+00        -0.18197E-01         0.00000E+00
    0.14527E+00        -0.15164E-01         0.00000E+00
    0.14527E+00        -0.12131E-01         0.00000E+00
    0.14527E+00        -0.90984E-02         0.00000E+00
    0.14527E+00        -0.60656E-02         0.00000E+00
    0.14527E+00        -0.30328E-02         0.00000E+00
    0.14527E+00         0.00000E+00         0.00000E+00
    0.14680E+00        -0.45492E-01         0.00000E+00
    0.14680E+00        -0.42459E-01         0.00000E+00
    0.14680E+00        -0.39426E-01         0.00000E+00
    0.14680E+00        -0.36394E-01         0.00000E+00
    0.14680E+00        -0.33361E-01         0.00000E+00
    0.14680E+00        -0.30328E-01         0.00000E+00
    0.14680E+00        -0.27295E-01         0.00000E+00
    0.14680E+00        -0.24262E-01         0.00000E+00
    0.14680E+00        -0.21230E-01         0.00000E+00
    0.14680E+00        -0.18197E-01         0.00000E+00
    0.14680E+00        -0.15164E-01         0.00000E+00
    0.14680E+00        -0.12131E-01         0.00000E+00
    0.14680E+00        -0.90984E-02         0.00000E+00
    0.14680E+00        -0.60656E-02         0.00000E+00
    0.14680E+00        -0.30328E-02         0.00000E+00
    0.14680E+00         0.00000E+00         0.00000E+00
    0.14831E+00        -0.45492E-01         0.00000E+00
    0.14831E+00        -0.42459E-01         0.00000E+00
    0.14831E+00        -0.39426E-01         0.00000E+00
    0.14831E+00        -0.36394E-01         0.00000E+00
    0.14831E+00        -0.33361E-01         0.00000E+00
    0.14831E+00        -0.30328E-01         0.00000E+00
    0.14831E+00        -0.27295E-01         0.00000E+00
    0.14831E+00        -0.24262E-01         0.00000E+00
    0.14831E+00        -0.21230E-01         0.00000E+00
    0.14831E+00        -0.18197E-01         0.00000E+00
    0.14831E+00        -0.15164E-01         0.00000E+00
    0.14831E+00        -0.12131E-01         0.00000E+00
    0.14831E+00        -0.90984E-02         0.00000E+00
    0.14831E+00        -0.60656E-02         0.00000E+00
    0.14831E+00        -0.30328E-02         0.00000E+00
    0.14831E+00         0.00000E+00         0.00000E+00
    0.14980E+00        -0.45492E-01         0.00000E+00
    0.14980E+00        -0.42459E-01         0.00000E+00
    0.14980E+00        -0.39426E-01         0.00000E+00
    0.14980E+00        -0.36394E-01         0.00000E+00
    0.14980E+00        -0.33361E-01         0.00000E+00
    0.14980E+00        -0.30328E-01         0.00000E+00
    0.14980E+00        -0.27295E-01         0.00000E+00
    0.14980E+00        -0.24262E-01         0.00000E+00
    0.14980E+00        -0.21230E-01         0.00000E+00
    0.14980E+00        -0.18197E-01         0.00000E+00
    0.14980E+00        -0.15164E-01         0.00000E+00
    0.14980E+00        -0.12131E-01         0.00000E+00
    0.14980E+00        -0.90984E-02         0.00000E+00
    0.14980E+00        -0.60656E-02         0.00000E+00
    0.14980E+00        -0.30328E-02         0.00000E+00
    0.14980E+00         0.00000E+00         0.00000E+00
    0.15128E+00        -0.45492E-01         0.00000E+00
    0.15128E+00        -0.42459E-01         0.00000E+00
    0.15128E+00        -0.39426E-01         0.00000E+00
    0.15128E+00        -0.36394E-01         0.00000E+00
    0.15128E+00        -0.33361E-01         0.00000E+00
    0.15128E+00        -0.30328E-01         0.00000E+00
    0.15128E+00        -0.27295E-01         0.00000E+00
    0.15128E+00        -0.24262E-01         0.00000E+00
    0.15128E+00        -0.21230E-01         0.00000E+00
    0.15128E+00        -0.18197E-01         0.00000E+00
    0.15128E+00        -0.15164E-01         0.00000E+00
    0.15128E+00        -0.12131E-01         0.00000E+00
    0.15128E+00        -0.90984E-02         0.00000E+00
    0.15128E+00        -0.60656E-02         0.00000E+00
    0.15128E+00        -0.30328E-02         0.00000E+00
    0.15128E+00         0.00000E+00         0.00000E+00
    0.15274E+00        -0.45492E-01         0.00000E+00
    0.15274E+00        -0.42459E-01         0.00000E+00
    0.15274E+00        -0.39426E-01         0.00000E+00
    0.15274E+00        -0.36394E-01         0.00000E+00
    0.15274E+00        -0.33361E-01         0.00000E+00
    0.15274E+00        -0.30328E-01         0.00000E+00
    0.15274E+00        -0.27295E-01         0.00000E+00
    0.15274E+00        -0.24262E-01         0.00000E+00
    0.15274E+00        -0.21230E-01         0.00000E+00
    0.15274E+00        -0.18197E-01         0.00000E+00
    0.15274E+00        -0.15164E-01         0.00000E+00
    0.15274E+00        -0.12131E-01         0.00000E+00
    0.15274E+00        -0.90984E-02         0.00000E+00
    0.15274E+00        -0.60656E-02         0.00000E+00
    0.15274E+00        -0.30328E-02         0.00000E+00
    0.15274E+00         0.00000E+00         0.00000E+00
    0.15418E+00        -0.45492E-01         0.00000E+00
    0.15418E+00        -0.42459E-01         0.00000E+00
    0.15418E+00        -0.39426E-01         0.00000E+00
    0.15418E+00        -0.36394E-01         0.00000E+00
    0.15418E+00        -0.33361E-01         0.00000E+00
    0.15418E+00        -0.30328E-01         0.00000E+00
    0.15418E+00        -0.27295E-01         0.00000E+00
    0.15418E+00        -0.24262E-01         0.00000E+00
    0.15418E+00        -0.21230E-01         0.00000E+00
    0.15418E+00        -0.18197E-01         0.00000E+00
    0.15418E+00        -0.15164E-01         0.00000E+00
    0.15418E+00        -0.12131E-01         0.00000E+00
    0.15418E+00        -0.90984E-02         0.00000E+00
    0.15418E+00        -0.60656E-02         0.00000E+00
    0.15418E+00        -0.30328E-02         0.00000E+00
    0.15418E+00         0.00000E+00         0.00000E+00
    0.15561E+00        -0.45492E-01         0.00000E+00
    0.15561E+00        -0.42459E-01         0.00000E+00
    0.15561E+00        -0.39426E-01         0.00000E+00
    0.15561E+00        -0.36394E-01         0.00000E+00
    0.15561E+00        -0.33361E-01         0.00000E+00
    0.15561E+00        -0.30328E-01         0.00000E+00
    0.15561E+00        -0.27295E-01         0.00000E+00
    0.15561E+00        -0.24262E-01         0.00000E+00
    0.15561E+00        -0.21230E-01         0.00000E+00
    0.15561E+00        -0.18197E-01         0.00000E+00
    0.15561E+00        -0.15164E-01         0.00000E+00
    0.15561E+00        -0.12131E-01         0.00000E+00
    0.15561E+00        -0.90984E-02         0.00000E+00
    0.15561E+00        -0.60656E-02         0.00000E+00
    0.15561E+00        -0.30328E-02         0.00000E+00
    0.15561E+00         0.00000E+00         0.00000E+00
    0.15702E+00        -0.45492E-01         0.00000E+00
    0.15702E+00        -0.42459E-01         0.00000E+00
    0.15702E+00        -0.39426E-01         0.00000E+00
    0.15702E+00        -0.36394E-01         0.00000E+00
    0.15702E+00        -0.33361E-01         0.00000E+00
    0.15702E+00        -0.30328E-01         0.00000E+00
    0.15702E+00        -0.27295E-01         0.00000E+00
    0.15702E+00        -0.24262E-01         0.00000E+00
    0.15702E+00        -0.21230E-01         0.00000E+00
    0.15702E+00        -0.18197E-01         0.00000E+00
    0.15702E+00        -0.15164E-01         0.00000E+00
    0.15702E+00        -0.12131E-01         0.00000E+00
    0.15702E+00        -0.90984E-02         0.00000E+00
    0.15702E+00        -0.60656E-02         0.00000E+00
    0.15702E+00        -0.30328E-02         0.00000E+00
    0.15702E+00         0.00000E+00         0.00000E+00
    0.15841E+00        -0.45492E-01         0.00000E+00
    0.15841E+00        -0.42459E-01         0.00000E+00
    0.15841E+00        -0.39426E-01         0.00000E+00
    0.15841E+00        -0.36394E-01         0.00000E+00
    0.15841E+00        -0.33361E-01         0.00000E+00
    0.15841E+00        -0.30328E-01         0.00000E+00
    0.15841E+00        -0.27295E-01         0.00000E+00
    0.15841E+00        -0.24262E-01         0.00000E+00
    0.15841E+00        -0.21230E-01         0.00000E+00
    0.15841E+00        -0.18197E-01         0.00000E+00
    0.15841E+00        -0.15164E-01         0.00000E+00
    0.15841E+00        -0.12131E-01         0.00000E+00
    0.15841E+00        -0.90984E-02         0.00000E+00
    0.15841E+00        -0.60656E-02         0.00000E+00
    0.15841E+00        -0.30328E-02         0.00000E+00
    0.15841E+00         0.00000E+00         0.00000E+00
    0.15979E+00        -0.45492E-01         0.00000E+00
    0.15979E+00        -0.42459E-01         0.00000E+00
    0.15979E+00        -0.39426E-01         0.00000E+00
    0.15979E+00        -0.36394E-01         0.00000E+00
    0.15979E+00        -0.33361E-01         0.00000E+00
    0.15979E+00        -0.30328E-01         0.00000E+00
    0.15979E+00        -0.27295E-01         0.00000E+00
    0.15979E+00        -0.24262E-01         0.00000E+00
    0.15979E+00        -0.21230E-01         0.00000E+00
    0.15979E+00        -0.18197E-01         0.00000E+00
    0.15979E+00        -0.15164E-01         0.00000E+00
    0.15979E+00        -0.12131E-01         0.00000E+00
    0.15979E+00        -0.90984E-02         0.00000E+00
    0.15979E+00        -0.60656E-02         0.00000E+00
    0.15979E+00        -0.30328E-02         0.00000E+00
    0.15979E+00         0.00000E+00         0.00000E+00
    0.16115E+00        -0.45492E-01         0.00000E+00
    0.16115E+00        -0.42459E-01         0.00000E+00
    0.16115E+00        -0.39426E-01         0.00000E+00
    0.16115E+00        -0.36394E-01         0.00000E+00
    0.16115E+00        -0.33361E-01         0.00000E+00
    0.16115E+00        -0.30328E-01         0.00000E+00
    0.16115E+00        -0.27295E-01         0.00000E+00
    0.16115E+00        -0.24262E-01         0.00000E+00
    0.16115E+00        -0.21230E-01         0.00000E+00
    0.16115E+00        -0.18197E-01         0.00000E+00
    0.16115E+00        -0.15164E-01         0.00000E+00
    0.16115E+00        -0.12131E-01         0.00000E+00
    0.16115E+00        -0.90984E-02         0.00000E+00
    0.16115E+00        -0.60656E-02         0.00000E+00
    0.16115E+00        -0.30328E-02         0.00000E+00
    0.16115E+00         0.00000E+00         0.00000E+00
    0.16249E+00        -0.45492E-01         0.00000E+00
    0.16249E+00        -0.42459E-01         0.00000E+00
    0.16249E+00        -0.39426E-01         0.00000E+00
    0.16249E+00        -0.36394E-01         0.00000E+00
    0.16249E+00        -0.33361E-01         0.00000E+00
    0.16249E+00        -0.30328E-01         0.00000E+00
    0.16249E+00        -0.27295E-01         0.00000E+00
    0.16249E+00        -0.24262E-01         0.00000E+00
    0.16249E+00        -0.21230E-01         0.00000E+00
    0.16249E+00        -0.18197E-01         0.00000E+00
    0.16249E+00        -0.15164E-01         0.00000E+00
    0.16249E+00        -0.12131E-01         0.00000E+00
    0.16249E+00        -0.90984E-02         0.00000E+00
    0.16249E+00        -0.60656E-02         0.00000E+00
    0.16249E+00        -0.30328E-02         0.00000E+00
    0.16249E+00         0.00000E+00         0.00000E+00
    0.16381E+00        -0.45492E-01         0.00000E+00
    0.16381E+00        -0.42459E-01         0.00000E+00
    0.16381E+00        -0.39426E-01         0.00000E+00
    0.16381E+00        -0.36394E-01         0.00000E+00
    0.16381E+00        -0.33361E-01         0.00000E+00
    0.16381E+00        -0.30328E-01         0.00000E+00
    0.16381E+00        -0.27295E-01         0.00000E+00
    0.16381E+00        -0.24262E-01         0.00000E+00
    0.16381E+00        -0.21230E-01         0.00000E+00
    0.16381E+00        -0.18197E-01         0.00000E+00
    0.16381E+00        -0.15164E-01         0.00000E+00
    0.16381E+00        -0.12131E-01         0.00000E+00
    0.16381E+00        -0.90984E-02         0.00000E+00
    0.16381E+00        -0.60656E-02         0.00000E+00
    0.16381E+00        -0.30328E-02         0.00000E+00
    0.16381E+00         0.00000E+00         0.00000E+00
    0.16512E+00        -0.45492E-01         0.00000E+00
    0.16512E+00        -0.42459E-01         0.00000E+00
    0.16512E+00        -0.39426E-01         0.00000E+00
    0.16512E+00        -0.36394E-01         0.00000E+00
    0.16512E+00        -0.33361E-01         0.00000E+00
    0.16512E+00        -0.30328E-01         0.00000E+00
    0.16512E+00        -0.27295E-01         0.00000E+00
    0.16512E+00        -0.24262E-01         0.00000E+00
    0.16512E+00        -0.21230E-01         0.00000E+00
    0.16512E+00        -0.18197E-01         0.00000E+00
    0.16512E+00        -0.15164E-01         0.00000E+00
    0.16512E+00        -0.12131E-01         0.00000E+00
    0.16512E+00        -0.90984E-02         0.00000E+00
    0.16512E+00        -0.60656E-02         0.00000E+00
    0.16512E+00        -0.30328E-02         0.00000E+00
    0.16512E+00         0.00000E+00         0.00000E+00
    0.16641E+00        -0.45492E-01         0.00000E+00
    0.16641E+00        -0.42459E-01         0.00000E+00
    0.16641E+00        -0.39426E-01         0.00000E+00
    0.16641E+00        -0.36394E-01         0.00000E+00
    0.16641E+00        -0.33361E-01         0.00000E+00
    0.16641E+00        -0.30328E-01         0.00000E+00
    0.16641E+00        -0.27295E-01         0.00000E+00
    0.16641E+00        -0.24262E-01         0.00000E+00
    0.16641E+00        -0.21230E-01         0.00000E+00
    0.16641E+00        -0.18197E-01         0.00000E+00
    0.16641E+00        -0.15164E-01         0.00000E+00
    0.16641E+00        -0.12131E-01         0.00000E+00
    0.16641E+00        -0.90984E-02         0.00000E+00
    0.16641E+00        -0.60656E-02         0.00000E+00
    0.16641E+00        -0.30328E-02         0.00000E+00
    0.16641E+00         0.00000E+00         0.00000E+00
    0.16768E+00        -0.45492E-01         0.00000E+00
    0.16768E+00        -0.42459E-01         0.00000E+00
    0.16768E+00        -0.39426E-01         0.00000E+00
    0.16768E+00        -0.36394E-01         0.00000E+00
    0.16768E+00        -0.33361E-01         0.00000E+00
    0.16768E+00        -0.30328E-01         0.00000E+00
    0.16768E+00        -0.27295E-01         0.00000E+00
    0.16768E+00        -0.24262E-01         0.00000E+00
    0.16768E+00        -0.21230E-01         0.00000E+00
    0.16768E+00        -0.18197E-01         0.00000E+00
    0.16768E+00        -0.15164E-01         0.00000E+00
    0.16768E+00        -0.12131E-01         0.00000E+00
    0.16768E+00        -0.90984E-02         0.00000E+00
    0.16768E+00        -0.60656E-02         0.00000E+00
    0.16768E+00        -0.30328E-02         0.00000E+00
    0.16768E+00         0.00000E+00         0.00000E+00
CELL_DATA       1350
VECTORS vDarcy double 
    0.11769E-08         0.00000E+00         0.00000E+00
    0.11769E-08        -0.90949E-21         0.00000E+00
    0.11769E-08         0.40018E-20         0.00000E+00
    0.11769E-08         0.63665E-20         0.00000E+00
    0.11769E-08         0.41837E-20         0.00000E+00
    0.11769E-08         0.29104E-20         0.00000E+00
    0.11769E-08        -0.18190E-21         0.00000E+00
    0.11769E-08        -0.18190E-21         0.00000E+00
    0.11769E-08         0.23647E-20         0.00000E+00
    0.11769E-08         0.12733E-20         0.00000E+00
    0.11769E-08         0.00000E+00         0.00000E+00
    0.11769E-08         0.63665E-21         0.00000E+00
    0.11769E-08         0.36380E-21         0.00000E+00
    0.11769E-08         0.00000E+00         0.00000E+00
    0.11769E-08         0.10914E-20         0.00000E+00
    0.35305E-08        -0.90949E-21         0.00000E+00
    0.35305E-08        -0.72760E-21         0.00000E+00
    0.35305E-08         0.10914E-20         0.00000E+00
    0.35305E-08         0.41837E-20         0.00000E+00
    0.35305E-08         0.29104E-20         0.00000E+00
    0.35305E-08         0.29104E-20         0.00000E+00
    0.35305E-08         0.32742E-20         0.00000E+00
    0.35305E-08         0.21828E-20         0.00000E+00
    0.35305E-08        -0.10914E-20         0.00000E+00
    0.35305E-08         0.27285E-21         0.00000E+00
    0.35305E-08         0.00000E+00         0.00000E+00
    0.35305E-08         0.18190E-20         0.00000E+00
    0.35305E-08        -0.23647E-20         0.00000E+00
    0.35305E-08         0.00000E+00         0.00000E+00
    0.35305E-08         0.36380E-21         0.00000E+00
    0.58835E-08         0.36380E-21         0.00000E+00
    0.58835E-08        -0.22737E-20         0.00000E+00
    0.58835E-08        -0.63665E-21         0.00000E+00
    0.58835E-08         0.29104E-20         0.00000E+00
    0.58835E-08         0.00000E+00         0.00000E+00
    0.58835E-08         0.29104E-20         0.00000E+00
    0.58835E-08         0.34561E-20         0.00000E+00
    0.58835E-08         0.36380E-20         0.00000E+00
    0.58835E-08        -0.26375E-20         0.00000E+00
    0.58835E-08         0.18190E-21         0.00000E+00
    0.58835E-08        -0.18190E-21         0.00000E+00
    0.58835E-08        -0.29104E-20         0.00000E+00
    0.58835E-08         0.18190E-20         0.00000E+00
    0.58835E-08        -0.18190E-20         0.00000E+00
    0.58835E-08        -0.34561E-20         0.00000E+00
    0.82355E-08         0.54570E-21         0.00000E+00
    0.82355E-08        -0.20918E-20         0.00000E+00
    0.82355E-08         0.18190E-20         0.00000E+00
    0.82355E-08        -0.25466E-20         0.00000E+00
    0.82355E-08         0.00000E+00         0.00000E+00
    0.82355E-08         0.90949E-21         0.00000E+00
    0.82355E-08         0.15461E-20         0.00000E+00
    0.82355E-08        -0.18190E-20         0.00000E+00
    0.82355E-08         0.45475E-21         0.00000E+00
    0.82355E-08         0.10004E-20         0.00000E+00
    0.82355E-08        -0.34561E-20         0.00000E+00
    0.82355E-08        -0.21828E-20         0.00000E+00
    0.82355E-08         0.21828E-20         0.00000E+00
    0.82355E-08         0.21828E-20         0.00000E+00
    0.82355E-08        -0.21828E-20         0.00000E+00
    0.10586E-07         0.00000E+00         0.00000E+00
    0.10586E-07         0.00000E+00         0.00000E+00
    0.10586E-07         0.20009E-20         0.00000E+00
    0.10586E-07         0.16371E-20         0.00000E+00
    0.10586E-07        -0.25466E-20         0.00000E+00
    0.10586E-07        -0.36380E-21         0.00000E+00
    0.10586E-07        -0.70941E-20         0.00000E+00
    0.10586E-07        -0.68212E-20         0.00000E+00
    0.10586E-07        -0.24556E-20         0.00000E+00
    0.10586E-07         0.15461E-20         0.00000E+00
    0.10586E-07        -0.29104E-20         0.00000E+00
    0.10586E-07         0.32742E-20         0.00000E+00
    0.10586E-07        -0.18190E-21         0.00000E+00
    0.10586E-07         0.27285E-21         0.00000E+00
    0.10586E-07         0.22737E-20         0.00000E+00
    0.12935E-07        -0.16371E-20         0.00000E+00
    0.12935E-07         0.18190E-21         0.00000E+00
    0.12935E-07        -0.36380E-20         0.00000E+00
    0.12935E-07         0.27285E-20         0.00000E+00
    0.12935E-07        -0.15461E-20         0.00000E+00
    0.12935E-07        -0.25466E-20         0.00000E+00
    0.12935E-07        -0.76398E-20         0.00000E+00
    0.12935E-07        -0.91859E-20         0.00000E+00
    0.12935E-07        -0.38199E-20         0.00000E+00
    0.12935E-07        -0.38199E-20         0.00000E+00
    0.12935E-07         0.18190E-20         0.00000E+00
    0.12935E-07         0.54570E-20         0.00000E+00
    0.12935E-07         0.20918E-20         0.00000E+00
    0.12935E-07        -0.24556E-20         0.00000E+00
    0.12935E-07         0.21828E-20         0.00000E+00
    0.15281E-07         0.18190E-21         0.00000E+00
    0.15281E-07         0.00000E+00         0.00000E+00
    0.15281E-07        -0.56389E-20         0.00000E+00
    0.15281E-07        -0.29104E-20         0.00000E+00
    0.15281E-07        -0.38199E-20         0.00000E+00
    0.15281E-07        -0.47294E-20         0.00000E+00
    0.15281E-07        -0.39108E-20         0.00000E+00
    0.15281E-07        -0.43656E-20         0.00000E+00
    0.15281E-07        -0.12733E-20         0.00000E+00
    0.15281E-07        -0.89130E-20         0.00000E+00
    0.15281E-07        -0.17280E-20         0.00000E+00
    0.15281E-07         0.23647E-20         0.00000E+00
    0.15281E-07         0.71850E-20         0.00000E+00
    0.15281E-07         0.61846E-20         0.00000E+00
    0.15281E-07        -0.18190E-21         0.00000E+00
    0.17625E-07         0.16371E-20         0.00000E+00
    0.17625E-07        -0.23647E-20         0.00000E+00
    0.17625E-07        -0.83674E-20         0.00000E+00
    0.17625E-07        -0.33651E-20         0.00000E+00
    0.17625E-07        -0.36380E-20         0.00000E+00
    0.17625E-07        -0.58208E-20         0.00000E+00
    0.17625E-07        -0.39108E-20         0.00000E+00
    0.17625E-07         0.10004E-20         0.00000E+00
    0.17625E-07        -0.13642E-20         0.00000E+00
    0.17625E-07        -0.72760E-20         0.00000E+00
    0.17625E-07        -0.57298E-20         0.00000E+00
    0.17625E-07        -0.10914E-20         0.00000E+00
    0.17625E-07         0.60027E-20         0.00000E+00
    0.17625E-07         0.54570E-20         0.00000E+00
    0.17625E-07         0.14552E-20         0.00000E+00
    0.19966E-07         0.90949E-22         0.00000E+00
    0.19966E-07        -0.41837E-20         0.00000E+00
    0.19966E-07        -0.78217E-20         0.00000E+00
    0.19966E-07        -0.74579E-20         0.00000E+00
    0.19966E-07        -0.19099E-20         0.00000E+00
    0.19966E-07        -0.29104E-20         0.00000E+00
    0.19966E-07        -0.72760E-21         0.00000E+00
    0.19966E-07         0.72760E-21         0.00000E+00
    0.19966E-07        -0.45475E-20         0.00000E+00
    0.19966E-07        -0.61846E-20         0.00000E+00
    0.19966E-07        -0.58208E-20         0.00000E+00
    0.19966E-07        -0.13642E-20         0.00000E+00
    0.19966E-07         0.30923E-20         0.00000E+00
    0.19966E-07         0.21828E-20         0.00000E+00
    0.19966E-07        -0.18190E-21         0.00000E+00
    0.22304E-07        -0.90949E-21         0.00000E+00
    0.22304E-07        -0.21828E-20         0.00000E+00
    0.22304E-07        -0.75488E-20         0.00000E+00
    0.22304E-07        -0.64574E-20         0.00000E+00
    0.22304E-07        -0.52751E-20         0.00000E+00
    0.22304E-07        -0.27285E-20         0.00000E+00
    0.22304E-07         0.00000E+00         0.00000E+00
    0.22304E-07         0.81855E-21         0.00000E+00
    0.22304E-07        -0.40018E-20         0.00000E+00
    0.22304E-07        -0.72760E-20         0.00000E+00
    0.22304E-07        -0.20918E-20         0.00000E+00
    0.22304E-07         0.27285E-21         0.00000E+00
    0.22304E-07        -0.17280E-20         0.00000E+00
    0.22304E-07        -0.18190E-21         0.00000E+00
    0.22304E-07         0.63665E-21         0.00000E+00
    0.24638E-07        -0.36380E-20         0.00000E+00
    0.24638E-07         0.00000E+00         0.00000E+00
    0.24638E-07        -0.72760E-20         0.00000E+00
    0.24638E-07        -0.56389E-20         0.00000E+00
    0.24638E-07        -0.40018E-20         0.00000E+00
    0.24638E-07        -0.40018E-20         0.00000E+00
    0.24638E-07         0.00000E+00         0.00000E+00
    0.24638E-07        -0.17280E-20         0.00000E+00
    0.24638E-07        -0.26375E-20         0.00000E+00
    0.24638E-07        -0.36380E-20         0.00000E+00
    0.24638E-07        -0.42746E-20         0.00000E+00
    0.24638E-07         0.63665E-21         0.00000E+00
    0.24638E-07         0.27285E-21         0.00000E+00
    0.24638E-07        -0.45475E-21         0.00000E+00
    0.24638E-07        -0.17280E-20         0.00000E+00
    0.26967E-07        -0.24556E-20         0.00000E+00
    0.26967E-07        -0.54570E-21         0.00000E+00
    0.26967E-07        -0.33651E-20         0.00000E+00
    0.26967E-07        -0.66393E-20         0.00000E+00
    0.26967E-07        -0.21828E-20         0.00000E+00
    0.26967E-07        -0.34561E-20         0.00000E+00
    0.26967E-07         0.81855E-21         0.00000E+00
    0.26967E-07        -0.72760E-21         0.00000E+00
    0.26967E-07        -0.38199E-20         0.00000E+00
    0.26967E-07        -0.36380E-20         0.00000E+00
    0.26967E-07        -0.25466E-20         0.00000E+00
    0.26967E-07        -0.14552E-20         0.00000E+00
    0.26967E-07         0.12733E-20         0.00000E+00
    0.26967E-07         0.36380E-21         0.00000E+00
    0.26967E-07        -0.32742E-20         0.00000E+00
    0.29292E-07         0.34561E-20         0.00000E+00
    0.29292E-07        -0.25466E-20         0.00000E+00
    0.29292E-07        -0.20009E-20         0.00000E+00
    0.29292E-07        -0.61846E-20         0.00000E+00
    0.29292E-07        -0.27285E-20         0.00000E+00
    0.29292E-07        -0.19099E-20         0.00000E+00
    0.29292E-07         0.22737E-20         0.00000E+00
    0.29292E-07        -0.90949E-21         0.00000E+00
    0.29292E-07         0.12733E-20         0.00000E+00
    0.29292E-07        -0.29104E-20         0.00000E+00
    0.29292E-07        -0.27285E-20         0.00000E+00
    0.29292E-07        -0.52751E-20         0.00000E+00
    0.29292E-07        -0.36380E-20         0.00000E+00
    0.29292E-07         0.90949E-21         0.00000E+00
    0.29292E-07        -0.72760E-21         0.00000E+00
    0.31612E-07        -0.36380E-21         0.00000E+00
    0.31612E-07        -0.46384E-20         0.00000E+00
    0.31612E-07        -0.32742E-20         0.00000E+00
    0.31612E-07        -0.58208E-20         0.00000E+00
    0.31612E-07        -0.47294E-20         0.00000E+00
    0.31612E-07        -0.11823E-20         0.00000E+00
    0.31612E-07         0.16371E-20         0.00000E+00
    0.31612E-07        -0.54570E-21         0.00000E+00
    0.31612E-07         0.20009E-20         0.00000E+00
    0.31612E-07        -0.29104E-20         0.00000E+00
    0.31612E-07        -0.40927E-20         0.00000E+00
    0.31612E-07        -0.30923E-20         0.00000E+00
    0.31612E-07        -0.20009E-20         0.00000E+00
    0.31612E-07        -0.27285E-20         0.00000E+00
    0.31612E-07        -0.18190E-21         0.00000E+00
    0.33926E-07        -0.18190E-20         0.00000E+00
    0.33926E-07        -0.56389E-20         0.00000E+00
    0.33926E-07         0.18190E-21         0.00000E+00
    0.33926E-07        -0.38199E-20         0.00000E+00
    0.33926E-07        -0.36380E-20         0.00000E+00
    0.33926E-07        -0.72760E-21         0.00000E+00
    0.33926E-07         0.54570E-21         0.00000E+00
    0.33926E-07         0.11823E-20         0.00000E+00
    0.33926E-07         0.12733E-20         0.00000E+00
    0.33926E-07        -0.29104E-20         0.00000E+00
    0.33926E-07        -0.41837E-20         0.00000E+00
    0.33926E-07        -0.11823E-20         0.00000E+00
    0.33926E-07         0.00000E+00         0.00000E+00
    0.33926E-07        -0.20009E-20         0.00000E+00
    0.33926E-07         0.17280E-20         0.00000E+00
    0.36235E-07         0.81855E-21         0.00000E+00
    0.36235E-07        -0.10914E-20         0.00000E+00
    0.36235E-07        -0.29104E-20         0.00000E+00
    0.36235E-07        -0.16371E-20         0.00000E+00
    0.36235E-07        -0.10914E-20         0.00000E+00
    0.36235E-07        -0.45475E-20         0.00000E+00
    0.36235E-07        -0.14552E-20         0.00000E+00
    0.36235E-07        -0.12733E-20         0.00000E+00
    0.36235E-07         0.21828E-20         0.00000E+00
    0.36235E-07        -0.30923E-20         0.00000E+00
    0.36235E-07        -0.52751E-20         0.00000E+00
    0.36235E-07         0.36380E-21         0.00000E+00
    0.36235E-07        -0.90949E-21         0.00000E+00
    0.36235E-07         0.00000E+00         0.00000E+00
    0.36235E-07         0.63665E-21         0.00000E+00
    0.38537E-07         0.10004E-20         0.00000E+00
    0.38537E-07        -0.81855E-21         0.00000E+00
    0.38537E-07        -0.54570E-20         0.00000E+00
    0.38537E-07        -0.34561E-20         0.00000E+00
    0.38537E-07         0.36380E-21         0.00000E+00
    0.38537E-07        -0.42746E-20         0.00000E+00
    0.38537E-07        -0.10004E-20         0.00000E+00
    0.38537E-07         0.00000E+00         0.00000E+00
    0.38537E-07        -0.36380E-20         0.00000E+00
    0.38537E-07        -0.52751E-20         0.00000E+00
    0.38537E-07        -0.14552E-20         0.00000E+00
    0.38537E-07         0.18190E-21         0.00000E+00
    0.38537E-07        -0.11823E-20         0.00000E+00
    0.38537E-07         0.33651E-20         0.00000E+00
    0.38537E-07         0.21828E-20         0.00000E+00
    0.40832E-07         0.18190E-21         0.00000E+00
    0.40832E-07        -0.37289E-20         0.00000E+00
    0.40832E-07        -0.47294E-20         0.00000E+00
    0.40832E-07        -0.74579E-20         0.00000E+00
    0.40832E-07        -0.43656E-20         0.00000E+00
    0.40832E-07        -0.27285E-20         0.00000E+00
    0.40832E-07        -0.16371E-20         0.00000E+00
    0.40832E-07         0.21828E-20         0.00000E+00
    0.40832E-07        -0.18190E-20         0.00000E+00
    0.40832E-07        -0.52751E-20         0.00000E+00
    0.40832E-07         0.00000E+00         0.00000E+00
    0.40832E-07        -0.31832E-20         0.00000E+00
    0.40832E-07         0.28194E-20         0.00000E+00
    0.40832E-07         0.21828E-20         0.00000E+00
    0.40832E-07         0.13642E-20         0.00000E+00
    0.43120E-07         0.72760E-21         0.00000E+00
    0.43120E-07        -0.40018E-20         0.00000E+00
    0.43120E-07        -0.40018E-20         0.00000E+00
    0.43120E-07        -0.63665E-20         0.00000E+00
    0.43120E-07        -0.54570E-20         0.00000E+00
    0.43120E-07        -0.60936E-20         0.00000E+00
    0.43120E-07        -0.72760E-21         0.00000E+00
    0.43120E-07         0.21828E-20         0.00000E+00
    0.43120E-07        -0.54570E-21         0.00000E+00
    0.43120E-07        -0.34561E-20         0.00000E+00
    0.43120E-07        -0.19099E-20         0.00000E+00
    0.43120E-07        -0.95215E-36         0.00000E+00
    0.43120E-07         0.20918E-20         0.00000E+00
    0.43120E-07        -0.25466E-20         0.00000E+00
    0.43120E-07        -0.18190E-20         0.00000E+00
    0.45401E-07        -0.63665E-21         0.00000E+00
    0.45401E-07        -0.54570E-21         0.00000E+00
    0.45401E-07        -0.36380E-20         0.00000E+00
    0.45401E-07        -0.21828E-20         0.00000E+00
    0.45401E-07        -0.43656E-20         0.00000E+00
    0.45401E-07        -0.40018E-20         0.00000E+00
    0.45401E-07         0.00000E+00         0.00000E+00
    0.45401E-07        -0.40927E-20         0.00000E+00
    0.45401E-07        -0.34561E-20         0.00000E+00
    0.45401E-07         0.16371E-20         0.00000E+00
    0.45401E-07        -0.30923E-20         0.00000E+00
    0.45401E-07        -0.18190E-21         0.00000E+00
    0.45401E-07         0.36380E-20         0.00000E+00
    0.45401E-07        -0.11823E-20         0.00000E+00
    0.45401E-07        -0.13642E-20         0.00000E+00
    0.47674E-07        -0.20009E-20         0.00000E+00
    0.47674E-07        -0.10914E-20         0.00000E+00
    0.47674E-07        -0.29104E-20         0.00000E+00
    0.47674E-07        -0.28194E-20         0.00000E+00
    0.47674E-07        -0.50932E-20         0.00000E+00
    0.47674E-07         0.00000E+00         0.00000E+00
    0.47674E-07         0.27285E-21         0.00000E+00
    0.47674E-07        -0.52751E-20         0.00000E+00
    0.47674E-07        -0.18190E-21         0.00000E+00
    0.47674E-07         0.36380E-20         0.00000E+00
    0.47674E-07        -0.32742E-20         0.00000E+00
    0.47674E-07         0.27285E-21         0.00000E+00
    0.47674E-07         0.19099E-20         0.00000E+00
    0.47674E-07         0.50932E-20         0.00000E+00
    0.47674E-07        -0.23647E-20         0.00000E+00
    0.49938E-07        -0.40018E-20         0.00000E+00
    0.49938E-07         0.18190E-21         0.00000E+00
    0.49938E-07        -0.20009E-20         0.00000E+00
    0.49938E-07        -0.32742E-20         0.00000E+00
    0.49938E-07        -0.54570E-21         0.00000E+00
    0.49938E-07        -0.20009E-20         0.00000E+00
    0.49938E-07        -0.54570E-21         0.00000E+00
    0.49938E-07        -0.29104E-20         0.00000E+00
    0.49938E-07         0.18190E-20         0.00000E+00
    0.49938E-07         0.45475E-20         0.00000E+00
    0.49938E-07        -0.46384E-20         0.00000E+00
    0.49938E-07         0.00000E+00         0.00000E+00
    0.49938E-07         0.00000E+00         0.00000E+00
    0.49938E-07         0.31832E-20         0.00000E+00
    0.49938E-07         0.45475E-21         0.00000E+00
    0.52193E-07         0.22737E-20         0.00000E+00
    0.52193E-07        -0.72760E-21         0.00000E+00
    0.52193E-07        -0.51841E-20         0.00000E+00
    0.52193E-07        -0.47294E-20         0.00000E+00
    0.52193E-07        -0.12733E-20         0.00000E+00
    0.52193E-07        -0.18190E-21         0.00000E+00
    0.52193E-07        -0.16371E-20         0.00000E+00
    0.52193E-07        -0.10004E-20         0.00000E+00
    0.52193E-07         0.16371E-20         0.00000E+00
    0.52193E-07         0.10914E-20         0.00000E+00
    0.52193E-07        -0.21828E-20         0.00000E+00
    0.52193E-07        -0.63665E-21         0.00000E+00
    0.52193E-07         0.20009E-20         0.00000E+00
    0.52193E-07         0.41837E-20         0.00000E+00
    0.52193E-07        -0.72760E-21         0.00000E+00
    0.54439E-07         0.72760E-21         0.00000E+00
    0.54439E-07        -0.40018E-20         0.00000E+00
    0.54439E-07        -0.49113E-20         0.00000E+00
    0.54439E-07        -0.21828E-20         0.00000E+00
    0.54439E-07         0.25466E-20         0.00000E+00
    0.54439E-07         0.29104E-20         0.00000E+00
    0.54439E-07        -0.40927E-20         0.00000E+00
    0.54439E-07        -0.52751E-20         0.00000E+00
    0.54439E-07         0.14552E-20         0.00000E+00
    0.54439E-07         0.00000E+00         0.00000E+00
    0.54439E-07         0.54570E-21         0.00000E+00
    0.54439E-07        -0.34561E-20         0.00000E+00
    0.54439E-07        -0.90949E-21         0.00000E+00
    0.54439E-07         0.72760E-21         0.00000E+00
    0.54439E-07         0.24556E-20         0.00000E+00
    0.56676E-07        -0.38199E-20         0.00000E+00
    0.56676E-07        -0.28194E-20         0.00000E+00
    0.56676E-07        -0.18190E-20         0.00000E+00
    0.56676E-07        -0.36380E-21         0.00000E+00
    0.56676E-07         0.61846E-20         0.00000E+00
    0.56676E-07        -0.19099E-20         0.00000E+00
    0.56676E-07        -0.54570E-20         0.00000E+00
    0.56676E-07        -0.62755E-20         0.00000E+00
    0.56676E-07        -0.25466E-20         0.00000E+00
    0.56676E-07        -0.45475E-21         0.00000E+00
    0.56676E-07        -0.54570E-21         0.00000E+00
    0.56676E-07        -0.12733E-20         0.00000E+00
    0.56676E-07         0.18190E-21         0.00000E+00
    0.56676E-07         0.00000E+00         0.00000E+00
    0.56676E-07         0.20918E-20         0.00000E+00
    0.58902E-07        -0.90949E-21         0.00000E+00
    0.58902E-07        -0.36380E-20         0.00000E+00
    0.58902E-07        -0.14552E-20         0.00000E+00
    0.58902E-07        -0.81855E-21         0.00000E+00
    0.58902E-07         0.63665E-21         0.00000E+00
    0.58902E-07        -0.32742E-20         0.00000E+00
    0.58902E-07        -0.70941E-20         0.00000E+00
    0.58902E-07        -0.40018E-20         0.00000E+00
    0.58902E-07        -0.12733E-20         0.00000E+00
    0.58902E-07        -0.90949E-21         0.00000E+00
    0.58902E-07        -0.90949E-21         0.00000E+00
    0.58902E-07        -0.36380E-21         0.00000E+00
    0.58902E-07         0.29104E-20         0.00000E+00
    0.58902E-07         0.20009E-20         0.00000E+00
    0.58902E-07        -0.36380E-20         0.00000E+00
    0.61117E-07         0.18190E-21         0.00000E+00
    0.61117E-07        -0.30923E-20         0.00000E+00
    0.61117E-07        -0.11823E-20         0.00000E+00
    0.61117E-07        -0.45475E-20         0.00000E+00
    0.61117E-07        -0.13642E-20         0.00000E+00
    0.61117E-07        -0.55479E-20         0.00000E+00
    0.61117E-07        -0.38199E-20         0.00000E+00
    0.61117E-07        -0.30923E-20         0.00000E+00
    0.61117E-07         0.10914E-20         0.00000E+00
    0.61117E-07        -0.21828E-20         0.00000E+00
    0.61117E-07        -0.14552E-20         0.00000E+00
    0.61117E-07         0.50781E-36         0.00000E+00
    0.61117E-07         0.10004E-20         0.00000E+00
    0.61117E-07         0.18190E-21         0.00000E+00
    0.61117E-07        -0.18190E-21         0.00000E+00
    0.63321E-07         0.18190E-20         0.00000E+00
    0.63321E-07        -0.12733E-20         0.00000E+00
    0.63321E-07         0.54570E-21         0.00000E+00
    0.63321E-07        -0.45475E-20         0.00000E+00
    0.63321E-07        -0.60027E-20         0.00000E+00
    0.63321E-07         0.13642E-20         0.00000E+00
    0.63321E-07        -0.11823E-20         0.00000E+00
    0.63321E-07        -0.39108E-20         0.00000E+00
    0.63321E-07        -0.22737E-20         0.00000E+00
    0.63321E-07         0.36380E-21         0.00000E+00
    0.63321E-07         0.20009E-20         0.00000E+00
    0.63321E-07        -0.61846E-20         0.00000E+00
    0.63321E-07        -0.14552E-20         0.00000E+00
    0.63321E-07         0.20009E-20         0.00000E+00
    0.63321E-07        -0.36380E-21         0.00000E+00
    0.65514E-07        -0.12733E-20         0.00000E+00
    0.65514E-07        -0.35470E-20         0.00000E+00
    0.65514E-07         0.63665E-21         0.00000E+00
    0.65514E-07        -0.32742E-20         0.00000E+00
    0.65514E-07        -0.36380E-20         0.00000E+00
    0.65514E-07         0.23647E-20         0.00000E+00
    0.65514E-07        -0.20009E-20         0.00000E+00
    0.65514E-07        -0.34561E-20         0.00000E+00
    0.65514E-07        -0.34561E-20         0.00000E+00
    0.65514E-07        -0.18190E-21         0.00000E+00
    0.65514E-07        -0.12733E-20         0.00000E+00
    0.65514E-07        -0.41837E-20         0.00000E+00
    0.65514E-07        -0.10914E-20         0.00000E+00
    0.65514E-07         0.10914E-20         0.00000E+00
    0.65514E-07         0.16371E-20         0.00000E+00
    0.67694E-07        -0.90949E-21         0.00000E+00
    0.67694E-07        -0.32742E-20         0.00000E+00
    0.67694E-07         0.00000E+00         0.00000E+00
    0.67694E-07        -0.18190E-20         0.00000E+00
    0.67694E-07        -0.27285E-20         0.00000E+00
    0.67694E-07        -0.27285E-21         0.00000E+00
    0.67694E-07        -0.50022E-20         0.00000E+00
    0.67694E-07        -0.19099E-20         0.00000E+00
    0.67694E-07        -0.20918E-20         0.00000E+00
    0.67694E-07        -0.49113E-20         0.00000E+00
    0.67694E-07        -0.16371E-20         0.00000E+00
    0.67694E-07        -0.11823E-20         0.00000E+00
    0.67694E-07        -0.20918E-20         0.00000E+00
    0.67694E-07        -0.34561E-20         0.00000E+00
    0.67694E-07         0.81855E-21         0.00000E+00
    0.69862E-07        -0.21828E-20         0.00000E+00
    0.69862E-07         0.00000E+00         0.00000E+00
    0.69862E-07        -0.27285E-20         0.00000E+00
    0.69862E-07        -0.90949E-21         0.00000E+00
    0.69862E-07        -0.29104E-20         0.00000E+00
    0.69862E-07         0.00000E+00         0.00000E+00
    0.69862E-07        -0.47294E-20         0.00000E+00
    0.69862E-07        -0.10004E-20         0.00000E+00
    0.69862E-07        -0.52751E-20         0.00000E+00
    0.69862E-07        -0.63665E-20         0.00000E+00
    0.69862E-07         0.14552E-20         0.00000E+00
    0.69862E-07        -0.21828E-20         0.00000E+00
    0.69862E-07        -0.34561E-20         0.00000E+00
    0.69862E-07        -0.14552E-20         0.00000E+00
    0.69862E-07         0.18190E-20         0.00000E+00
    0.72018E-07         0.00000E+00         0.00000E+00
    0.72018E-07         0.00000E+00         0.00000E+00
    0.72018E-07        -0.20918E-20         0.00000E+00
    0.72018E-07         0.36380E-21         0.00000E+00
    0.72018E-07         0.00000E+00         0.00000E+00
    0.72018E-07         0.10004E-20         0.00000E+00
    0.72018E-07        -0.36380E-20         0.00000E+00
    0.72018E-07        -0.38199E-20         0.00000E+00
    0.72018E-07        -0.55479E-20         0.00000E+00
    0.72018E-07        -0.49113E-20         0.00000E+00
    0.72018E-07        -0.10914E-20         0.00000E+00
    0.72018E-07        -0.90949E-21         0.00000E+00
    0.72018E-07        -0.21828E-20         0.00000E+00
    0.72018E-07        -0.20009E-20         0.00000E+00
    0.72018E-07         0.17280E-20         0.00000E+00
    0.74159E-07        -0.10914E-20         0.00000E+00
    0.74159E-07         0.00000E+00         0.00000E+00
    0.74159E-07         0.16371E-20         0.00000E+00
    0.74159E-07         0.45475E-20         0.00000E+00
    0.74159E-07         0.00000E+00         0.00000E+00
    0.74159E-07        -0.21828E-20         0.00000E+00
    0.74159E-07        -0.10914E-20         0.00000E+00
    0.74159E-07        -0.14552E-20         0.00000E+00
    0.74159E-07        -0.47294E-20         0.00000E+00
    0.74159E-07        -0.16371E-20         0.00000E+00
    0.74159E-07        -0.72760E-21         0.00000E+00
    0.74159E-07        -0.44565E-20         0.00000E+00
    0.74159E-07         0.14552E-20         0.00000E+00
    0.74159E-07        -0.16371E-20         0.00000E+00
    0.74159E-07         0.36380E-21         0.00000E+00
    0.76287E-07        -0.72760E-21         0.00000E+00
    0.76287E-07         0.20009E-20         0.00000E+00
    0.76287E-07         0.10914E-20         0.00000E+00
    0.76287E-07         0.36380E-20         0.00000E+00
    0.76287E-07         0.16371E-20         0.00000E+00
    0.76287E-07        -0.10914E-20         0.00000E+00
    0.76287E-07        -0.54570E-21         0.00000E+00
    0.76287E-07         0.10004E-20         0.00000E+00
    0.76287E-07         0.90949E-22         0.00000E+00
    0.76287E-07        -0.19099E-20         0.00000E+00
    0.76287E-07        -0.14552E-20         0.00000E+00
    0.76287E-07        -0.32742E-20         0.00000E+00
    0.76287E-07         0.21828E-20         0.00000E+00
    0.76287E-07        -0.25466E-20         0.00000E+00
    0.76287E-07        -0.63477E-37         0.00000E+00
    0.78400E-07         0.00000E+00         0.00000E+00
    0.78400E-07         0.21828E-20         0.00000E+00
    0.78400E-07         0.72760E-21         0.00000E+00
    0.78400E-07         0.10914E-20         0.00000E+00
    0.78400E-07         0.16371E-20         0.00000E+00
    0.78400E-07        -0.18190E-21         0.00000E+00
    0.78400E-07        -0.21828E-20         0.00000E+00
    0.78400E-07        -0.90949E-21         0.00000E+00
    0.78400E-07         0.25466E-20         0.00000E+00
    0.78400E-07        -0.12733E-20         0.00000E+00
    0.78400E-07         0.00000E+00         0.00000E+00
    0.78400E-07        -0.54570E-21         0.00000E+00
    0.78400E-07        -0.10914E-20         0.00000E+00
    0.78400E-07        -0.15461E-20         0.00000E+00
    0.78400E-07         0.72760E-21         0.00000E+00
    0.80498E-07        -0.90949E-21         0.00000E+00
    0.80498E-07        -0.34561E-20         0.00000E+00
    0.80498E-07         0.00000E+00         0.00000E+00
    0.80498E-07         0.16371E-20         0.00000E+00
    0.80498E-07         0.18190E-20         0.00000E+00
    0.80498E-07        -0.72760E-21         0.00000E+00
    0.80498E-07        -0.56389E-20         0.00000E+00
    0.80498E-07        -0.23647E-20         0.00000E+00
    0.80498E-07        -0.45475E-21         0.00000E+00
    0.80498E-07         0.54570E-21         0.00000E+00
    0.80498E-07         0.20009E-20         0.00000E+00
    0.80498E-07         0.18190E-20         0.00000E+00
    0.80498E-07        -0.12733E-20         0.00000E+00
    0.80498E-07         0.24556E-20         0.00000E+00
    0.80498E-07         0.10914E-20         0.00000E+00
    0.82581E-07        -0.72760E-21         0.00000E+00
    0.82581E-07        -0.76398E-20         0.00000E+00
    0.82581E-07        -0.90949E-21         0.00000E+00
    0.82581E-07        -0.18190E-20         0.00000E+00
    0.82581E-07         0.40018E-20         0.00000E+00
    0.82581E-07        -0.90949E-21         0.00000E+00
    0.82581E-07        -0.73669E-20         0.00000E+00
    0.82581E-07        -0.18190E-20         0.00000E+00
    0.82581E-07        -0.16371E-20         0.00000E+00
    0.82581E-07        -0.10004E-20         0.00000E+00
    0.82581E-07         0.29104E-20         0.00000E+00
    0.82581E-07         0.32742E-20         0.00000E+00
    0.82581E-07         0.54570E-21         0.00000E+00
    0.82581E-07         0.18190E-21         0.00000E+00
    0.82581E-07        -0.30013E-20         0.00000E+00
    0.84648E-07         0.13642E-20         0.00000E+00
    0.84648E-07        -0.36380E-20         0.00000E+00
    0.84648E-07        -0.43656E-20         0.00000E+00
    0.84648E-07        -0.40018E-20         0.00000E+00
    0.84648E-07        -0.72760E-21         0.00000E+00
    0.84648E-07        -0.45475E-21         0.00000E+00
    0.84648E-07        -0.14552E-20         0.00000E+00
    0.84648E-07        -0.21828E-20         0.00000E+00
    0.84648E-07        -0.54570E-20         0.00000E+00
    0.84648E-07         0.90949E-21         0.00000E+00
    0.84648E-07         0.41837E-20         0.00000E+00
    0.84648E-07         0.29104E-20         0.00000E+00
    0.84648E-07         0.12733E-20         0.00000E+00
    0.84648E-07        -0.27285E-20         0.00000E+00
    0.84648E-07        -0.52751E-20         0.00000E+00
    0.86699E-07         0.23647E-20         0.00000E+00
    0.86699E-07         0.10914E-20         0.00000E+00
    0.86699E-07        -0.48203E-20         0.00000E+00
    0.86699E-07        -0.50932E-20         0.00000E+00
    0.86699E-07        -0.63665E-20         0.00000E+00
    0.86699E-07         0.90949E-22         0.00000E+00
    0.86699E-07         0.63665E-21         0.00000E+00
    0.86699E-07         0.00000E+00         0.00000E+00
    0.86699E-07        -0.29104E-20         0.00000E+00
    0.86699E-07         0.54570E-21         0.00000E+00
    0.86699E-07         0.40018E-20         0.00000E+00
    0.86699E-07         0.18190E-20         0.00000E+00
    0.86699E-07        -0.18190E-21         0.00000E+00
    0.86699E-07        -0.47294E-20         0.00000E+00
    0.86699E-07        -0.21828E-20         0.00000E+00
    0.88733E-07         0.21828E-20         0.00000E+00
    0.88733E-07         0.34561E-20         0.00000E+00
    0.88733E-07        -0.43656E-20         0.00000E+00
    0.88733E-07        -0.34561E-20         0.00000E+00
    0.88733E-07        -0.54570E-20         0.00000E+00
    0.88733E-07        -0.90949E-21         0.00000E+00
    0.88733E-07        -0.10914E-20         0.00000E+00
    0.88733E-07         0.00000E+00         0.00000E+00
    0.88733E-07         0.00000E+00         0.00000E+00
    0.88733E-07        -0.23647E-20         0.00000E+00
    0.88733E-07         0.12733E-20         0.00000E+00
    0.88733E-07         0.40018E-20         0.00000E+00
    0.88733E-07         0.12733E-20         0.00000E+00
    0.88733E-07        -0.10914E-20         0.00000E+00
    0.88733E-07        -0.12733E-20         0.00000E+00
    0.90749E-07         0.00000E+00         0.00000E+00
    0.90749E-07         0.36380E-21         0.00000E+00
    0.90749E-07         0.29104E-20         0.00000E+00
    0.90749E-07        -0.11823E-20         0.00000E+00
    0.90749E-07        -0.49113E-20         0.00000E+00
    0.90749E-07        -0.72760E-21         0.00000E+00
    0.90749E-07        -0.27285E-20         0.00000E+00
    0.90749E-07         0.00000E+00         0.00000E+00
    0.90749E-07        -0.90949E-21         0.00000E+00
    0.90749E-07        -0.20918E-20         0.00000E+00
    0.90749E-07         0.36380E-21         0.00000E+00
    0.90749E-07         0.27285E-20         0.00000E+00
    0.90749E-07         0.34561E-20         0.00000E+00
    0.90749E-07         0.12733E-20         0.00000E+00
    0.90749E-07        -0.72760E-21         0.00000E+00
    0.92747E-07        -0.90949E-21         0.00000E+00
    0.92747E-07        -0.20009E-20         0.00000E+00
    0.92747E-07         0.32742E-20         0.00000E+00
    0.92747E-07        -0.47294E-20         0.00000E+00
    0.92747E-07        -0.36380E-20         0.00000E+00
    0.92747E-07        -0.18190E-20         0.00000E+00
    0.92747E-07        -0.56389E-20         0.00000E+00
    0.92747E-07        -0.72760E-21         0.00000E+00
    0.92747E-07        -0.72760E-21         0.00000E+00
    0.92747E-07        -0.23647E-20         0.00000E+00
    0.92747E-07         0.10914E-20         0.00000E+00
    0.92747E-07         0.16371E-20         0.00000E+00
    0.92747E-07         0.27285E-20         0.00000E+00
    0.92747E-07        -0.72760E-21         0.00000E+00
    0.92747E-07        -0.36380E-21         0.00000E+00
    0.94727E-07        -0.72760E-21         0.00000E+00
    0.94727E-07         0.19099E-20         0.00000E+00
    0.94727E-07         0.90949E-22         0.00000E+00
    0.94727E-07        -0.18190E-20         0.00000E+00
    0.94727E-07        -0.58208E-20         0.00000E+00
    0.94727E-07        -0.25466E-20         0.00000E+00
    0.94727E-07        -0.47294E-20         0.00000E+00
    0.94727E-07        -0.43656E-20         0.00000E+00
    0.94727E-07        -0.29104E-20         0.00000E+00
    0.94727E-07         0.90949E-21         0.00000E+00
    0.94727E-07         0.11823E-20         0.00000E+00
    0.94727E-07         0.25466E-20         0.00000E+00
    0.94727E-07         0.30923E-20         0.00000E+00
    0.94727E-07         0.45475E-21         0.00000E+00
    0.94727E-07        -0.11823E-20         0.00000E+00
    0.96688E-07         0.90949E-21         0.00000E+00
    0.96688E-07        -0.54570E-21         0.00000E+00
    0.96688E-07         0.63665E-21         0.00000E+00
    0.96688E-07         0.54570E-21         0.00000E+00
    0.96688E-07        -0.54570E-20         0.00000E+00
    0.96688E-07        -0.43656E-20         0.00000E+00
    0.96688E-07        -0.12733E-20         0.00000E+00
    0.96688E-07        -0.54570E-20         0.00000E+00
    0.96688E-07        -0.38199E-20         0.00000E+00
    0.96688E-07        -0.18190E-21         0.00000E+00
    0.96688E-07        -0.21828E-20         0.00000E+00
    0.96688E-07         0.12733E-20         0.00000E+00
    0.96688E-07         0.23647E-20         0.00000E+00
    0.96688E-07        -0.10914E-20         0.00000E+00
    0.96688E-07         0.90949E-22         0.00000E+00
    0.98629E-07         0.81855E-21         0.00000E+00
    0.98629E-07         0.27285E-21         0.00000E+00
    0.98629E-07        -0.10914E-20         0.00000E+00
    0.98629E-07        -0.16371E-20         0.00000E+00
    0.98629E-07        -0.47294E-20         0.00000E+00
    0.98629E-07        -0.40018E-20         0.00000E+00
    0.98629E-07        -0.90949E-22         0.00000E+00
    0.98629E-07        -0.42746E-20         0.00000E+00
    0.98629E-07        -0.32742E-20         0.00000E+00
    0.98629E-07        -0.15461E-20         0.00000E+00
    0.98629E-07        -0.40018E-20         0.00000E+00
    0.98629E-07        -0.14552E-20         0.00000E+00
    0.98629E-07        -0.81855E-21         0.00000E+00
    0.98629E-07         0.10914E-20         0.00000E+00
    0.98629E-07        -0.22737E-20         0.00000E+00
    0.10055E-06        -0.36380E-21         0.00000E+00
    0.10055E-06         0.18190E-20         0.00000E+00
    0.10055E-06        -0.54570E-21         0.00000E+00
    0.10055E-06        -0.32742E-20         0.00000E+00
    0.10055E-06        -0.32742E-20         0.00000E+00
    0.10055E-06        -0.25466E-20         0.00000E+00
    0.10055E-06        -0.24556E-20         0.00000E+00
    0.10055E-06        -0.33651E-20         0.00000E+00
    0.10055E-06        -0.52751E-20         0.00000E+00
    0.10055E-06        -0.56389E-20         0.00000E+00
    0.10055E-06        -0.31832E-20         0.00000E+00
    0.10055E-06        -0.31832E-20         0.00000E+00
    0.10055E-06        -0.11823E-20         0.00000E+00
    0.10055E-06         0.90949E-21         0.00000E+00
    0.10055E-06        -0.90949E-21         0.00000E+00
    0.10245E-06         0.18190E-21         0.00000E+00
    0.10245E-06         0.27285E-21         0.00000E+00
    0.10245E-06         0.11823E-20         0.00000E+00
    0.10245E-06        -0.28194E-20         0.00000E+00
    0.10245E-06        -0.45475E-21         0.00000E+00
    0.10245E-06        -0.50932E-20         0.00000E+00
    0.10245E-06        -0.72760E-21         0.00000E+00
    0.10245E-06        -0.43656E-20         0.00000E+00
    0.10245E-06        -0.59117E-20         0.00000E+00
    0.10245E-06        -0.63665E-20         0.00000E+00
    0.10245E-06        -0.30013E-20         0.00000E+00
    0.10245E-06        -0.47294E-20         0.00000E+00
    0.10245E-06        -0.36380E-21         0.00000E+00
    0.10245E-06        -0.38199E-20         0.00000E+00
    0.10245E-06         0.72760E-21         0.00000E+00
    0.10433E-06         0.72760E-21         0.00000E+00
    0.10433E-06         0.00000E+00         0.00000E+00
    0.10433E-06        -0.16371E-20         0.00000E+00
    0.10433E-06        -0.41837E-20         0.00000E+00
    0.10433E-06         0.00000E+00         0.00000E+00
    0.10433E-06        -0.50932E-20         0.00000E+00
    0.10433E-06        -0.81855E-21         0.00000E+00
    0.10433E-06        -0.38199E-20         0.00000E+00
    0.10433E-06        -0.36380E-20         0.00000E+00
    0.10433E-06        -0.47294E-20         0.00000E+00
    0.10433E-06        -0.16371E-20         0.00000E+00
    0.10433E-06         0.31738E-36         0.00000E+00
    0.10433E-06        -0.10914E-20         0.00000E+00
    0.10433E-06        -0.40018E-20         0.00000E+00
    0.10433E-06        -0.29104E-20         0.00000E+00
    0.10619E-06         0.18190E-21         0.00000E+00
    0.10619E-06         0.15461E-20         0.00000E+00
    0.10619E-06        -0.41837E-20         0.00000E+00
    0.10619E-06        -0.32742E-20         0.00000E+00
    0.10619E-06        -0.18190E-20         0.00000E+00
    0.10619E-06        -0.49113E-20         0.00000E+00
    0.10619E-06         0.18190E-21         0.00000E+00
    0.10619E-06        -0.36380E-21         0.00000E+00
    0.10619E-06        -0.43656E-20         0.00000E+00
    0.10619E-06        -0.27285E-20         0.00000E+00
    0.10619E-06        -0.25466E-20         0.00000E+00
    0.10619E-06         0.27285E-20         0.00000E+00
    0.10619E-06        -0.36380E-21         0.00000E+00
    0.10619E-06        -0.18190E-20         0.00000E+00
    0.10619E-06        -0.72760E-21         0.00000E+00
    0.10803E-06        -0.72760E-21         0.00000E+00
    0.10803E-06         0.54570E-21         0.00000E+00
    0.10803E-06        -0.36380E-20         0.00000E+00
    0.10803E-06        -0.43656E-20         0.00000E+00
    0.10803E-06        -0.29104E-20         0.00000E+00
    0.10803E-06        -0.56389E-20         0.00000E+00
    0.10803E-06        -0.18190E-21         0.00000E+00
    0.10803E-06         0.36380E-21         0.00000E+00
    0.10803E-06        -0.65484E-20         0.00000E+00
    0.10803E-06        -0.28194E-20         0.00000E+00
    0.10803E-06        -0.14552E-20         0.00000E+00
    0.10803E-06         0.16371E-20         0.00000E+00
    0.10803E-06        -0.81855E-21         0.00000E+00
    0.10803E-06         0.27285E-20         0.00000E+00
    0.10803E-06         0.12733E-20         0.00000E+00
    0.10984E-06        -0.81855E-21         0.00000E+00
    0.10984E-06        -0.21828E-20         0.00000E+00
    0.10984E-06        -0.49113E-20         0.00000E+00
    0.10984E-06        -0.47294E-20         0.00000E+00
    0.10984E-06        -0.38199E-20         0.00000E+00
    0.10984E-06        -0.46384E-20         0.00000E+00
    0.10984E-06        -0.36380E-20         0.00000E+00
    0.10984E-06        -0.54570E-21         0.00000E+00
    0.10984E-06        -0.65484E-20         0.00000E+00
    0.10984E-06        -0.88867E-36         0.00000E+00
    0.10984E-06         0.18190E-21         0.00000E+00
    0.10984E-06         0.72760E-21         0.00000E+00
    0.10984E-06        -0.18190E-21         0.00000E+00
    0.10984E-06         0.20009E-20         0.00000E+00
    0.10984E-06        -0.72760E-21         0.00000E+00
    0.11163E-06         0.18190E-21         0.00000E+00
    0.11163E-06        -0.16371E-20         0.00000E+00
    0.11163E-06        -0.60027E-20         0.00000E+00
    0.11163E-06        -0.32742E-20         0.00000E+00
    0.11163E-06        -0.41837E-20         0.00000E+00
    0.11163E-06        -0.50932E-20         0.00000E+00
    0.11163E-06        -0.16371E-20         0.00000E+00
    0.11163E-06        -0.20918E-20         0.00000E+00
    0.11163E-06        -0.40018E-20         0.00000E+00
    0.11163E-06        -0.14552E-20         0.00000E+00
    0.11163E-06         0.16371E-20         0.00000E+00
    0.11163E-06        -0.20009E-20         0.00000E+00
    0.11163E-06         0.72760E-21         0.00000E+00
    0.11163E-06        -0.45475E-21         0.00000E+00
    0.11163E-06         0.90949E-21         0.00000E+00
    0.11339E-06         0.72760E-21         0.00000E+00
    0.11339E-06         0.18190E-21         0.00000E+00
    0.11339E-06        -0.32742E-20         0.00000E+00
    0.11339E-06        -0.50932E-20         0.00000E+00
    0.11339E-06        -0.34561E-20         0.00000E+00
    0.11339E-06        -0.30923E-20         0.00000E+00
    0.11339E-06        -0.90949E-21         0.00000E+00
    0.11339E-06        -0.35470E-20         0.00000E+00
    0.11339E-06        -0.32742E-20         0.00000E+00
    0.11339E-06        -0.14552E-20         0.00000E+00
    0.11339E-06         0.10004E-20         0.00000E+00
    0.11339E-06        -0.18190E-20         0.00000E+00
    0.11339E-06        -0.14552E-20         0.00000E+00
    0.11339E-06         0.20009E-20         0.00000E+00
    0.11339E-06         0.90949E-21         0.00000E+00
    0.11514E-06         0.16371E-20         0.00000E+00
    0.11514E-06         0.18190E-20         0.00000E+00
    0.11514E-06        -0.90949E-21         0.00000E+00
    0.11514E-06        -0.32742E-20         0.00000E+00
    0.11514E-06        -0.33651E-20         0.00000E+00
    0.11514E-06        -0.13642E-20         0.00000E+00
    0.11514E-06        -0.32742E-20         0.00000E+00
    0.11514E-06        -0.56389E-20         0.00000E+00
    0.11514E-06        -0.72760E-21         0.00000E+00
    0.11514E-06        -0.14552E-20         0.00000E+00
    0.11514E-06         0.00000E+00         0.00000E+00
    0.11514E-06        -0.10914E-20         0.00000E+00
    0.11514E-06        -0.18190E-21         0.00000E+00
    0.11514E-06         0.30923E-20         0.00000E+00
    0.11514E-06         0.20009E-20         0.00000E+00
    0.11685E-06         0.90949E-21         0.00000E+00
    0.11685E-06        -0.36380E-21         0.00000E+00
    0.11685E-06        -0.14552E-20         0.00000E+00
    0.11685E-06        -0.90949E-22         0.00000E+00
    0.11685E-06        -0.16371E-20         0.00000E+00
    0.11685E-06        -0.29104E-20         0.00000E+00
    0.11685E-06        -0.22737E-20         0.00000E+00
    0.11685E-06        -0.23647E-20         0.00000E+00
    0.11685E-06         0.16371E-20         0.00000E+00
    0.11685E-06        -0.27285E-20         0.00000E+00
    0.11685E-06         0.12733E-20         0.00000E+00
    0.11685E-06         0.10914E-20         0.00000E+00
    0.11685E-06         0.20918E-20         0.00000E+00
    0.11685E-06        -0.27285E-21         0.00000E+00
    0.11685E-06         0.81855E-21         0.00000E+00
    0.11854E-06        -0.11823E-20         0.00000E+00
    0.11854E-06        -0.25466E-20         0.00000E+00
    0.11854E-06        -0.72760E-21         0.00000E+00
    0.11854E-06         0.00000E+00         0.00000E+00
    0.11854E-06         0.90949E-21         0.00000E+00
    0.11854E-06        -0.54570E-21         0.00000E+00
    0.11854E-06        -0.16371E-20         0.00000E+00
    0.11854E-06        -0.18190E-21         0.00000E+00
    0.11854E-06         0.90949E-21         0.00000E+00
    0.11854E-06        -0.27285E-21         0.00000E+00
    0.11854E-06        -0.36380E-21         0.00000E+00
    0.11854E-06         0.36380E-20         0.00000E+00
    0.11854E-06         0.10914E-20         0.00000E+00
    0.11854E-06        -0.19099E-20         0.00000E+00
    0.11854E-06        -0.18190E-20         0.00000E+00
    0.12021E-06        -0.27285E-20         0.00000E+00
    0.12021E-06        -0.23647E-20         0.00000E+00
    0.12021E-06         0.18190E-21         0.00000E+00
    0.12021E-06        -0.63665E-21         0.00000E+00
    0.12021E-06         0.18190E-20         0.00000E+00
    0.12021E-06         0.36380E-21         0.00000E+00
    0.12021E-06        -0.72760E-21         0.00000E+00
    0.12021E-06         0.12733E-20         0.00000E+00
    0.12021E-06         0.81855E-21         0.00000E+00
    0.12021E-06         0.12733E-20         0.00000E+00
    0.12021E-06         0.50781E-36         0.00000E+00
    0.12021E-06         0.25466E-20         0.00000E+00
    0.12021E-06         0.22737E-20         0.00000E+00
    0.12021E-06        -0.63665E-21         0.00000E+00
    0.12021E-06         0.54570E-21         0.00000E+00
    0.12185E-06        -0.11823E-20         0.00000E+00
    0.12185E-06        -0.20009E-20         0.00000E+00
    0.12185E-06         0.18190E-21         0.00000E+00
    0.12185E-06         0.90949E-22         0.00000E+00
    0.12185E-06         0.23647E-20         0.00000E+00
    0.12185E-06        -0.81855E-21         0.00000E+00
    0.12185E-06         0.81855E-21         0.00000E+00
    0.12185E-06         0.15461E-20         0.00000E+00
    0.12185E-06        -0.36380E-21         0.00000E+00
    0.12185E-06         0.30013E-20         0.00000E+00
    0.12185E-06         0.72760E-21         0.00000E+00
    0.12185E-06         0.10914E-20         0.00000E+00
    0.12185E-06         0.54570E-21         0.00000E+00
    0.12185E-06         0.81855E-21         0.00000E+00
    0.12185E-06         0.14552E-20         0.00000E+00
    0.12346E-06        -0.45475E-22         0.00000E+00
    0.12346E-06         0.14552E-20         0.00000E+00
    0.12346E-06        -0.90949E-22         0.00000E+00
    0.12346E-06         0.12733E-20         0.00000E+00
    0.12346E-06         0.19099E-20         0.00000E+00
    0.12346E-06         0.90949E-21         0.00000E+00
    0.12346E-06         0.11823E-20         0.00000E+00
    0.12346E-06         0.63665E-21         0.00000E+00
    0.12346E-06        -0.90949E-21         0.00000E+00
    0.12346E-06         0.41837E-20         0.00000E+00
    0.12346E-06         0.54570E-21         0.00000E+00
    0.12346E-06         0.90949E-21         0.00000E+00
    0.12346E-06         0.19099E-20         0.00000E+00
    0.12346E-06         0.27285E-21         0.00000E+00
    0.12346E-06         0.00000E+00         0.00000E+00
    0.12504E-06        -0.11823E-20         0.00000E+00
    0.12504E-06         0.27285E-20         0.00000E+00
    0.12504E-06        -0.18190E-21         0.00000E+00
    0.12504E-06         0.15461E-20         0.00000E+00
    0.12504E-06         0.35470E-20         0.00000E+00
    0.12504E-06         0.10459E-20         0.00000E+00
    0.12504E-06         0.19554E-20         0.00000E+00
    0.12504E-06         0.54570E-21         0.00000E+00
    0.12504E-06         0.50022E-21         0.00000E+00
    0.12504E-06        -0.90949E-22         0.00000E+00
    0.12504E-06         0.36380E-21         0.00000E+00
    0.12504E-06         0.95497E-21         0.00000E+00
    0.12504E-06         0.21828E-20         0.00000E+00
    0.12504E-06         0.20464E-20         0.00000E+00
    0.12504E-06         0.31832E-21         0.00000E+00
    0.12660E-06         0.63665E-21         0.00000E+00
    0.12660E-06         0.27285E-21         0.00000E+00
    0.12660E-06         0.00000E+00         0.00000E+00
    0.12660E-06         0.72760E-21         0.00000E+00
    0.12660E-06         0.18190E-20         0.00000E+00
    0.12660E-06         0.26375E-20         0.00000E+00
    0.12660E-06         0.17280E-20         0.00000E+00
    0.12660E-06         0.10004E-20         0.00000E+00
    0.12660E-06         0.90949E-21         0.00000E+00
    0.12660E-06         0.27285E-21         0.00000E+00
    0.12660E-06         0.13642E-20         0.00000E+00
    0.12660E-06         0.10914E-20         0.00000E+00
    0.12660E-06         0.00000E+00         0.00000E+00
    0.12660E-06         0.27740E-20         0.00000E+00
    0.12660E-06         0.13188E-20         0.00000E+00
    0.12813E-06         0.15461E-20         0.00000E+00
    0.12813E-06        -0.72760E-21         0.00000E+00
    0.12813E-06         0.00000E+00         0.00000E+00
    0.12813E-06         0.00000E+00         0.00000E+00
    0.12813E-06         0.00000E+00         0.00000E+00
    0.12813E-06         0.18190E-20         0.00000E+00
    0.12813E-06         0.34106E-20         0.00000E+00
    0.12813E-06         0.20009E-20         0.00000E+00
    0.12813E-06         0.81855E-21         0.00000E+00
    0.12813E-06         0.45475E-21         0.00000E+00
    0.12813E-06         0.90949E-21         0.00000E+00
    0.12813E-06         0.00000E+00         0.00000E+00
    0.12813E-06         0.72760E-21         0.00000E+00
    0.12813E-06         0.10004E-20         0.00000E+00
    0.12813E-06         0.19099E-20         0.00000E+00
    0.12962E-06        -0.59117E-21         0.00000E+00
    0.12962E-06        -0.81855E-21         0.00000E+00
    0.12962E-06        -0.54570E-21         0.00000E+00
    0.12962E-06         0.00000E+00         0.00000E+00
    0.12962E-06         0.54570E-21         0.00000E+00
    0.12962E-06         0.12733E-20         0.00000E+00
    0.12962E-06         0.18190E-20         0.00000E+00
    0.12962E-06         0.28194E-20         0.00000E+00
    0.12962E-06         0.40018E-20         0.00000E+00
    0.12962E-06        -0.20009E-20         0.00000E+00
    0.12962E-06         0.18190E-21         0.00000E+00
    0.12962E-06         0.86402E-21         0.00000E+00
    0.12962E-06         0.72760E-21         0.00000E+00
    0.12962E-06         0.16371E-20         0.00000E+00
    0.12962E-06         0.90949E-21         0.00000E+00
    0.13109E-06        -0.95497E-21         0.00000E+00
    0.13109E-06         0.68212E-21         0.00000E+00
    0.13109E-06        -0.81855E-21         0.00000E+00
    0.13109E-06         0.63665E-21         0.00000E+00
    0.13109E-06         0.16826E-20         0.00000E+00
    0.13109E-06        -0.10914E-20         0.00000E+00
    0.13109E-06         0.14552E-20         0.00000E+00
    0.13109E-06         0.18190E-20         0.00000E+00
    0.13109E-06         0.15916E-20         0.00000E+00
    0.13109E-06         0.59117E-21         0.00000E+00
    0.13109E-06        -0.13642E-20         0.00000E+00
    0.13109E-06        -0.27285E-21         0.00000E+00
    0.13109E-06         0.16371E-20         0.00000E+00
    0.13109E-06         0.29104E-20         0.00000E+00
    0.13109E-06         0.72760E-21         0.00000E+00
    0.13253E-06         0.50022E-21         0.00000E+00
    0.13253E-06         0.40927E-21         0.00000E+00
    0.13253E-06         0.54570E-21         0.00000E+00
    0.13253E-06         0.45475E-21         0.00000E+00
    0.13253E-06         0.22737E-21         0.00000E+00
    0.13253E-06        -0.81855E-21         0.00000E+00
    0.13253E-06         0.18190E-20         0.00000E+00
    0.13253E-06         0.00000E+00         0.00000E+00
    0.13253E-06         0.24556E-20         0.00000E+00
    0.13253E-06        -0.90949E-22         0.00000E+00
    0.13253E-06        -0.10914E-20         0.00000E+00
    0.13253E-06         0.45475E-21         0.00000E+00
    0.13253E-06         0.11823E-20         0.00000E+00
    0.13253E-06         0.24556E-20         0.00000E+00
    0.13253E-06         0.10459E-20         0.00000E+00
    0.13394E-06        -0.11823E-20         0.00000E+00
    0.13394E-06         0.24556E-20         0.00000E+00
    0.13394E-06        -0.10914E-20         0.00000E+00
    0.13394E-06         0.72760E-21         0.00000E+00
    0.13394E-06        -0.18190E-20         0.00000E+00
    0.13394E-06         0.54570E-21         0.00000E+00
    0.13394E-06         0.95497E-21         0.00000E+00
    0.13394E-06        -0.50022E-21         0.00000E+00
    0.13394E-06         0.90949E-21         0.00000E+00
    0.13394E-06        -0.36380E-21         0.00000E+00
    0.13394E-06         0.00000E+00         0.00000E+00
    0.13394E-06         0.16826E-20         0.00000E+00
    0.13394E-06         0.11823E-20         0.00000E+00
    0.13394E-06         0.12733E-20         0.00000E+00
    0.13394E-06         0.54570E-21         0.00000E+00
    0.13531E-06         0.50022E-21         0.00000E+00
    0.13531E-06         0.36380E-21         0.00000E+00
    0.13531E-06         0.63665E-21         0.00000E+00
    0.13531E-06        -0.13642E-20         0.00000E+00
    0.13531E-06        -0.45475E-21         0.00000E+00
    0.13531E-06        -0.14552E-20         0.00000E+00
    0.13531E-06         0.24556E-20         0.00000E+00
    0.13531E-06        -0.54570E-21         0.00000E+00
    0.13531E-06         0.45475E-21         0.00000E+00
    0.13531E-06         0.00000E+00         0.00000E+00
    0.13531E-06         0.12733E-20         0.00000E+00
    0.13531E-06         0.10004E-20         0.00000E+00
    0.13531E-06         0.36380E-21         0.00000E+00
    0.13531E-06         0.45475E-21         0.00000E+00
    0.13531E-06         0.13642E-21         0.00000E+00
    0.13665E-06         0.36380E-21         0.00000E+00
    0.13665E-06         0.45475E-21         0.00000E+00
    0.13665E-06         0.20009E-20         0.00000E+00
    0.13665E-06        -0.10914E-20         0.00000E+00
    0.13665E-06        -0.81855E-21         0.00000E+00
    0.13665E-06         0.10004E-20         0.00000E+00
    0.13665E-06         0.18190E-21         0.00000E+00
    0.13665E-06         0.45475E-21         0.00000E+00
    0.13665E-06         0.36380E-21         0.00000E+00
    0.13665E-06         0.10004E-20         0.00000E+00
    0.13665E-06         0.15461E-20         0.00000E+00
    0.13665E-06        -0.10914E-20         0.00000E+00
    0.13665E-06         0.13642E-20         0.00000E+00
    0.13665E-06         0.90949E-21         0.00000E+00
    0.13665E-06        -0.63665E-21         0.00000E+00
    0.13796E-06         0.00000E+00         0.00000E+00
    0.13796E-06         0.81855E-21         0.00000E+00
    0.13796E-06         0.12733E-20         0.00000E+00
    0.13796E-06         0.00000E+00         0.00000E+00
    0.13796E-06         0.63665E-21         0.00000E+00
    0.13796E-06         0.10914E-20         0.00000E+00
    0.13796E-06        -0.12733E-20         0.00000E+00
    0.13796E-06         0.72760E-21         0.00000E+00
    0.13796E-06         0.81855E-21         0.00000E+00
    0.13796E-06         0.15461E-20         0.00000E+00
    0.13796E-06         0.90949E-21         0.00000E+00
    0.13796E-06         0.00000E+00         0.00000E+00
    0.13796E-06         0.21828E-20         0.00000E+00
    0.13796E-06        -0.54570E-21         0.00000E+00
    0.13796E-06        -0.10914E-20         0.00000E+00
    0.13924E-06         0.86402E-21         0.00000E+00
    0.13924E-06         0.81855E-21         0.00000E+00
    0.13924E-06         0.11823E-20         0.00000E+00
    0.13924E-06         0.10459E-20         0.00000E+00
    0.13924E-06         0.72760E-21         0.00000E+00
    0.13924E-06         0.27285E-21         0.00000E+00
    0.13924E-06        -0.36380E-21         0.00000E+00
    0.13924E-06        -0.45475E-21         0.00000E+00
    0.13924E-06         0.81855E-21         0.00000E+00
    0.13924E-06         0.11823E-20         0.00000E+00
    0.13924E-06         0.68212E-21         0.00000E+00
    0.13924E-06         0.81855E-21         0.00000E+00
    0.13924E-06         0.90949E-21         0.00000E+00
    0.13924E-06        -0.50022E-21         0.00000E+00
    0.13924E-06        -0.31832E-21         0.00000E+00
    0.14048E-06         0.18190E-21         0.00000E+00
    0.14048E-06         0.18190E-20         0.00000E+00
    0.14048E-06        -0.90949E-22         0.00000E+00
    0.14048E-06         0.10004E-20         0.00000E+00
    0.14048E-06         0.00000E+00         0.00000E+00
    0.14048E-06         0.10459E-20         0.00000E+00
    0.14048E-06         0.00000E+00         0.00000E+00
    0.14048E-06         0.10004E-20         0.00000E+00
    0.14048E-06        -0.54570E-21         0.00000E+00
    0.14048E-06        -0.72760E-21         0.00000E+00
    0.14048E-06         0.19099E-20         0.00000E+00
    0.14048E-06         0.11369E-20         0.00000E+00
    0.14048E-06         0.63665E-21         0.00000E+00
    0.14048E-06        -0.13642E-21         0.00000E+00
    0.14048E-06        -0.10914E-20         0.00000E+00
    0.14169E-06         0.54570E-21         0.00000E+00
    0.14169E-06         0.31832E-21         0.00000E+00
    0.14169E-06        -0.36380E-21         0.00000E+00
    0.14169E-06        -0.36380E-21         0.00000E+00
    0.14169E-06         0.81855E-21         0.00000E+00
    0.14169E-06         0.00000E+00         0.00000E+00
    0.14169E-06        -0.90949E-22         0.00000E+00
    0.14169E-06         0.19099E-20         0.00000E+00
    0.14169E-06        -0.72760E-21         0.00000E+00
    0.14169E-06         0.45475E-22         0.00000E+00
    0.14169E-06         0.45475E-21         0.00000E+00
    0.14169E-06         0.15461E-20         0.00000E+00
    0.14169E-06        -0.45475E-21         0.00000E+00
    0.14169E-06        -0.26375E-20         0.00000E+00
    0.14169E-06         0.18190E-21         0.00000E+00
    0.14287E-06         0.20009E-20         0.00000E+00
    0.14287E-06         0.90949E-22         0.00000E+00
    0.14287E-06        -0.45475E-21         0.00000E+00
    0.14287E-06        -0.72760E-21         0.00000E+00
    0.14287E-06        -0.18190E-21         0.00000E+00
    0.14287E-06         0.45475E-21         0.00000E+00
    0.14287E-06         0.90949E-22         0.00000E+00
    0.14287E-06         0.72760E-21         0.00000E+00
    0.14287E-06         0.13188E-20         0.00000E+00
    0.14287E-06        -0.90949E-22         0.00000E+00
    0.14287E-06         0.36380E-21         0.00000E+00
    0.14287E-06        -0.31832E-21         0.00000E+00
    0.14287E-06        -0.19554E-20         0.00000E+00
    0.14287E-06        -0.45475E-21         0.00000E+00
    0.14287E-06        -0.54570E-21         0.00000E+00
    0.14400E-06         0.90949E-21         0.00000E+00
    0.14400E-06         0.50022E-21         0.00000E+00
    0.14400E-06        -0.20918E-20         0.00000E+00
    0.14400E-06        -0.90949E-21         0.00000E+00
    0.14400E-06        -0.90949E-21         0.00000E+00
    0.14400E-06         0.81855E-21         0.00000E+00
    0.14400E-06         0.11823E-20         0.00000E+00
    0.14400E-06         0.90949E-22         0.00000E+00
    0.14400E-06         0.19099E-20         0.00000E+00
    0.14400E-06         0.81855E-21         0.00000E+00
    0.14400E-06        -0.90949E-22         0.00000E+00
    0.14400E-06        -0.11823E-20         0.00000E+00
    0.14400E-06        -0.18190E-21         0.00000E+00
    0.14400E-06        -0.18190E-21         0.00000E+00
    0.14400E-06        -0.14552E-20         0.00000E+00
    0.14511E-06         0.72760E-21         0.00000E+00
    0.14511E-06        -0.63665E-21         0.00000E+00
    0.14511E-06        -0.21828E-20         0.00000E+00
    0.14511E-06        -0.17963E-20         0.00000E+00
    0.14511E-06         0.68212E-21         0.00000E+00
    0.14511E-06         0.12051E-20         0.00000E+00
    0.14511E-06         0.95497E-21         0.00000E+00
    0.14511E-06        -0.18190E-21         0.00000E+00
    0.14511E-06         0.59117E-21         0.00000E+00
    0.14511E-06         0.20464E-20         0.00000E+00
    0.14511E-06        -0.59117E-21         0.00000E+00
    0.14511E-06        -0.84128E-21         0.00000E+00
    0.14511E-06         0.81855E-21         0.00000E+00
    0.14511E-06        -0.47748E-21         0.00000E+00
    0.14511E-06        -0.52296E-21         0.00000E+00
    0.14617E-06        -0.50022E-21         0.00000E+00
    0.14617E-06        -0.14097E-20         0.00000E+00
    0.14617E-06        -0.86402E-21         0.00000E+00
    0.14617E-06         0.34106E-21         0.00000E+00
    0.14617E-06        -0.68212E-21         0.00000E+00
    0.14617E-06         0.14552E-20         0.00000E+00
    0.14617E-06         0.18190E-21         0.00000E+00
    0.14617E-06         0.27285E-21         0.00000E+00
    0.14617E-06         0.12278E-20         0.00000E+00
    0.14617E-06         0.56843E-21         0.00000E+00
    0.14617E-06        -0.63665E-21         0.00000E+00
    0.14617E-06        -0.36380E-21         0.00000E+00
    0.14617E-06         0.68212E-21         0.00000E+00
    0.14617E-06        -0.50022E-21         0.00000E+00
    0.14617E-06         0.31832E-21         0.00000E+00
    0.14720E-06        -0.45475E-21         0.00000E+00
    0.14720E-06        -0.77307E-21         0.00000E+00
    0.14720E-06         0.31832E-21         0.00000E+00
    0.14720E-06        -0.45475E-22         0.00000E+00
    0.14720E-06        -0.25011E-21         0.00000E+00
    0.14720E-06         0.93223E-21         0.00000E+00
    0.14720E-06         0.79581E-21         0.00000E+00
    0.14720E-06        -0.13642E-21         0.00000E+00
    0.14720E-06        -0.45475E-22         0.00000E+00
    0.14720E-06         0.13642E-21         0.00000E+00
    0.14720E-06        -0.34106E-21         0.00000E+00
    0.14720E-06         0.00000E+00         0.00000E+00
    0.14720E-06         0.40927E-21         0.00000E+00
    0.14720E-06        -0.50022E-21         0.00000E+00
    0.14720E-06        -0.25011E-21         0.00000E+00
    0.14820E-06        -0.81855E-21         0.00000E+00
    0.14820E-06        -0.25011E-21         0.00000E+00
    0.14820E-06        -0.11596E-20         0.00000E+00
    0.14820E-06        -0.45475E-21         0.00000E+00
    0.14820E-06         0.45475E-21         0.00000E+00
    0.14820E-06         0.15916E-21         0.00000E+00
    0.14820E-06         0.18190E-21         0.00000E+00
    0.14820E-06        -0.18190E-21         0.00000E+00
    0.14820E-06        -0.54570E-21         0.00000E+00
    0.14820E-06         0.15916E-21         0.00000E+00
    0.14820E-06         0.20464E-21         0.00000E+00
    0.14820E-06        -0.31832E-21         0.00000E+00
    0.14820E-06         0.59117E-21         0.00000E+00
    0.14820E-06        -0.11823E-20         0.00000E+00
    0.14820E-06         0.50022E-21         0.00000E+00
    0.14915E-06        -0.18190E-21         0.00000E+00
    0.14915E-06        -0.11369E-20         0.00000E+00
    0.14915E-06        -0.59117E-21         0.00000E+00
    0.14915E-06        -0.97771E-21         0.00000E+00
    0.14915E-06        -0.27285E-21         0.00000E+00
    0.14915E-06        -0.43201E-21         0.00000E+00
    0.14915E-06        -0.40927E-21         0.00000E+00
    0.14915E-06        -0.31832E-21         0.00000E+00
    0.14915E-06         0.00000E+00         0.00000E+00
    0.14915E-06        -0.40927E-21         0.00000E+00
    0.14915E-06         0.54570E-21         0.00000E+00
    0.14915E-06        -0.27285E-21         0.00000E+00
    0.14915E-06        -0.72760E-21         0.00000E+00
    0.14915E-06        -0.68212E-21         0.00000E+00
    0.14915E-06         0.18190E-21         0.00000E+00
    0.15007E-06         0.90949E-22         0.00000E+00
    0.15007E-06        -0.15916E-21         0.00000E+00
    0.15007E-06        -0.27285E-21         0.00000E+00
    0.15007E-06         0.15916E-21         0.00000E+00
    0.15007E-06        -0.68212E-21         0.00000E+00
    0.15007E-06        -0.15916E-21         0.00000E+00
    0.15007E-06        -0.68212E-21         0.00000E+00
    0.15007E-06         0.36380E-21         0.00000E+00
    0.15007E-06        -0.50022E-21         0.00000E+00
    0.15007E-06         0.36380E-21         0.00000E+00
    0.15007E-06        -0.13642E-21         0.00000E+00
    0.15007E-06        -0.27285E-21         0.00000E+00
    0.15007E-06        -0.56843E-21         0.00000E+00
    0.15007E-06        -0.43201E-21         0.00000E+00
    0.15007E-06        -0.50022E-21         0.00000E+00
    0.15094E-06        -0.13642E-21         0.00000E+00
    0.15094E-06        -0.15916E-21         0.00000E+00
    0.15094E-06         0.22737E-22         0.00000E+00
    0.15094E-06        -0.59117E-21         0.00000E+00
    0.15094E-06         0.59117E-21         0.00000E+00
    0.15094E-06        -0.52296E-21         0.00000E+00
    0.15094E-06         0.10004E-20         0.00000E+00
    0.15094E-06         0.22737E-21         0.00000E+00
    0.15094E-06        -0.79581E-21         0.00000E+00
    0.15094E-06        -0.95497E-21         0.00000E+00
    0.15094E-06        -0.11369E-20         0.00000E+00
    0.15094E-06         0.45475E-22         0.00000E+00
    0.15094E-06        -0.38654E-21         0.00000E+00
    0.15094E-06        -0.22737E-21         0.00000E+00
    0.15094E-06         0.18190E-21         0.00000E+00
    0.15178E-06         0.31832E-21         0.00000E+00
    0.15178E-06        -0.10459E-20         0.00000E+00
    0.15178E-06         0.11369E-21         0.00000E+00
    0.15178E-06        -0.31832E-21         0.00000E+00
    0.15178E-06        -0.90949E-22         0.00000E+00
    0.15178E-06         0.31832E-21         0.00000E+00
    0.15178E-06        -0.90949E-22         0.00000E+00
    0.15178E-06        -0.45475E-22         0.00000E+00
    0.15178E-06        -0.11823E-20         0.00000E+00
    0.15178E-06        -0.13642E-20         0.00000E+00
    0.15178E-06        -0.72760E-21         0.00000E+00
    0.15178E-06         0.50022E-21         0.00000E+00
    0.15178E-06        -0.36380E-21         0.00000E+00
    0.15178E-06        -0.27285E-21         0.00000E+00
    0.15178E-06        -0.13642E-21         0.00000E+00
    0.15258E-06        -0.36380E-21         0.00000E+00
    0.15258E-06         0.45475E-21         0.00000E+00
    0.15258E-06        -0.68212E-21         0.00000E+00
    0.15258E-06        -0.11369E-21         0.00000E+00
    0.15258E-06        -0.27285E-21         0.00000E+00
    0.15258E-06        -0.56843E-21         0.00000E+00
    0.15258E-06        -0.45475E-21         0.00000E+00
    0.15258E-06        -0.42064E-21         0.00000E+00
    0.15258E-06        -0.90949E-21         0.00000E+00
    0.15258E-06        -0.34106E-22         0.00000E+00
    0.15258E-06        -0.43201E-21         0.00000E+00
    0.15258E-06         0.25011E-21         0.00000E+00
    0.15258E-06         0.22737E-21         0.00000E+00
    0.15258E-06        -0.44338E-21         0.00000E+00
    0.15258E-06         0.47748E-21         0.00000E+00
    0.15334E-06        -0.35243E-21         0.00000E+00
    0.15334E-06        -0.12506E-21         0.00000E+00
    0.15334E-06        -0.56843E-21         0.00000E+00
    0.15334E-06         0.30695E-21         0.00000E+00
    0.15334E-06        -0.39790E-21         0.00000E+00
    0.15334E-06        -0.85265E-21         0.00000E+00
    0.15334E-06        -0.27285E-21         0.00000E+00
    0.15334E-06        -0.59117E-21         0.00000E+00
    0.15334E-06        -0.50022E-21         0.00000E+00
    0.15334E-06         0.27285E-21         0.00000E+00
    0.15334E-06         0.34106E-21         0.00000E+00
    0.15334E-06        -0.35243E-21         0.00000E+00
    0.15334E-06        -0.27285E-21         0.00000E+00
    0.15334E-06         0.29559E-21         0.00000E+00
    0.15334E-06        -0.17053E-21         0.00000E+00
    0.15406E-06         0.52296E-21         0.00000E+00
    0.15406E-06        -0.22737E-22         0.00000E+00
    0.15406E-06        -0.19327E-21         0.00000E+00
    0.15406E-06         0.68212E-22         0.00000E+00
    0.15406E-06        -0.38654E-21         0.00000E+00
    0.15406E-06        -0.54570E-21         0.00000E+00
    0.15406E-06        -0.77307E-21         0.00000E+00
    0.15406E-06        -0.29559E-21         0.00000E+00
    0.15406E-06        -0.34106E-22         0.00000E+00
    0.15406E-06         0.00000E+00         0.00000E+00
    0.15406E-06        -0.18190E-21         0.00000E+00
    0.15406E-06        -0.27285E-21         0.00000E+00
    0.15406E-06        -0.52296E-21         0.00000E+00
    0.15406E-06         0.43201E-21         0.00000E+00
    0.15406E-06        -0.36380E-21         0.00000E+00
    0.15473E-06        -0.22737E-21         0.00000E+00
    0.15473E-06         0.35243E-21         0.00000E+00
    0.15473E-06        -0.59117E-21         0.00000E+00
    0.15473E-06        -0.38654E-21         0.00000E+00
    0.15473E-06        -0.22737E-21         0.00000E+00
    0.15473E-06        -0.56843E-21         0.00000E+00
    0.15473E-06        -0.45475E-22         0.00000E+00
    0.15473E-06         0.57980E-21         0.00000E+00
    0.15473E-06        -0.69349E-21         0.00000E+00
    0.15473E-06        -0.15916E-21         0.00000E+00
    0.15473E-06         0.20464E-21         0.00000E+00
    0.15473E-06        -0.68212E-21         0.00000E+00
    0.15473E-06         0.25011E-21         0.00000E+00
    0.15473E-06        -0.10232E-21         0.00000E+00
    0.15473E-06         0.34106E-22         0.00000E+00
    0.15537E-06        -0.68212E-22         0.00000E+00
    0.15537E-06        -0.25580E-21         0.00000E+00
    0.15537E-06        -0.34106E-22         0.00000E+00
    0.15537E-06        -0.30695E-21         0.00000E+00
    0.15537E-06        -0.19327E-21         0.00000E+00
    0.15537E-06        -0.56843E-22         0.00000E+00
    0.15537E-06         0.17053E-21         0.00000E+00
    0.15537E-06        -0.22737E-21         0.00000E+00
    0.15537E-06        -0.15916E-21         0.00000E+00
    0.15537E-06        -0.36380E-21         0.00000E+00
    0.15537E-06        -0.51159E-22         0.00000E+00
    0.15537E-06         0.56843E-23         0.00000E+00
    0.15537E-06        -0.13642E-21         0.00000E+00
    0.15537E-06        -0.40359E-21         0.00000E+00
    0.15537E-06         0.00000E+00         0.00000E+00
    0.15596E-06         0.34106E-21         0.00000E+00
    0.15596E-06         0.00000E+00         0.00000E+00
    0.15596E-06         0.25011E-21         0.00000E+00
    0.15596E-06        -0.31264E-21         0.00000E+00
    0.15596E-06        -0.45475E-22         0.00000E+00
    0.15596E-06        -0.27285E-21         0.00000E+00
    0.15596E-06        -0.45475E-22         0.00000E+00
    0.15596E-06        -0.46612E-21         0.00000E+00
    0.15596E-06        -0.12506E-21         0.00000E+00
    0.15596E-06        -0.38654E-21         0.00000E+00
    0.15596E-06        -0.38654E-21         0.00000E+00
    0.15596E-06        -0.29559E-21         0.00000E+00
    0.15596E-06        -0.56843E-22         0.00000E+00
    0.15596E-06         0.11369E-21         0.00000E+00
    0.15596E-06        -0.10232E-21         0.00000E+00
    0.15651E-06        -0.40359E-21         0.00000E+00
    0.15651E-06         0.39790E-21         0.00000E+00
    0.15651E-06        -0.36948E-21         0.00000E+00
    0.15651E-06         0.17053E-22         0.00000E+00
    0.15651E-06        -0.39790E-21         0.00000E+00
    0.15651E-06         0.90949E-22         0.00000E+00
    0.15651E-06        -0.78444E-21         0.00000E+00
    0.15651E-06        -0.26716E-21         0.00000E+00
    0.15651E-06        -0.14779E-21         0.00000E+00
    0.15651E-06        -0.37232E-21         0.00000E+00
    0.15651E-06        -0.71054E-22         0.00000E+00
    0.15651E-06         0.17906E-21         0.00000E+00
    0.15651E-06        -0.21600E-21         0.00000E+00
    0.15651E-06         0.40075E-21         0.00000E+00
    0.15651E-06        -0.17053E-21         0.00000E+00
    0.15702E-06         0.15945E-20         0.00000E+00
    0.15702E-06        -0.37858E-20         0.00000E+00
    0.15702E-06         0.16314E-20         0.00000E+00
    0.15702E-06         0.19895E-21         0.00000E+00
    0.15702E-06         0.17053E-20         0.00000E+00
    0.15702E-06        -0.38540E-20         0.00000E+00
    0.15702E-06         0.13017E-20         0.00000E+00
    0.15702E-06        -0.16087E-20         0.00000E+00
    0.15702E-06        -0.55138E-21         0.00000E+00
    0.15702E-06         0.22737E-20         0.00000E+00
    0.15702E-06        -0.56843E-23         0.00000E+00
    0.15702E-06        -0.17934E-20         0.00000E+00
    0.15702E-06         0.19497E-20         0.00000E+00
    0.15702E-06         0.00000E+00         0.00000E+00
    0.15702E-06         0.34106E-21         0.00000E+00
POINT_DATA       1456
VECTORS vDarcyNodal double 
    0.11769E-08         0.00000E+00         0.00000E+00
    0.11769E-08         0.00000E+00         0.00000E+00
    0.11769E-08         0.29104E-20         0.00000E+00
    0.11769E-08         0.58208E-20         0.00000E+00
    0.11769E-08         0.43656E-20         0.00000E+00
    0.11769E-08         0.29104E-20         0.00000E+00
    0.11769E-08         0.00000E+00         0.00000E+00
    0.11769E-08         0.00000E+00         0.00000E+00
    0.11769E-08         0.29104E-20         0.00000E+00
    0.11769E-08         0.29104E-20         0.00000E+00
    0.11769E-08         0.14552E-20         0.00000E+00
    0.11769E-08        -0.14552E-20         0.00000E+00
    0.11769E-08         0.14552E-20         0.00000E+00
    0.11769E-08         0.29104E-20         0.00000E+00
    0.11769E-08        -0.14552E-20         0.00000E+00
    0.11769E-08        -0.29104E-20         0.00000E+00
    0.23537E-08         0.00000E+00         0.00000E+00
    0.23537E-08         0.00000E+00         0.00000E+00
    0.23537E-08         0.14552E-20         0.00000E+00
    0.23537E-08         0.29104E-20         0.00000E+00
    0.23537E-08         0.29104E-20         0.00000E+00
    0.23537E-08         0.14552E-20         0.00000E+00
    0.23537E-08         0.14552E-20         0.00000E+00
    0.23537E-08         0.14552E-20         0.00000E+00
    0.23537E-08         0.00000E+00         0.00000E+00
    0.23537E-08        -0.76124E-21         0.00000E+00
    0.23537E-08        -0.33645E-22         0.00000E+00
    0.23537E-08         0.14888E-20         0.00000E+00
    0.23537E-08        -0.69395E-21         0.00000E+00
    0.23537E-08        -0.29104E-20         0.00000E+00
    0.23537E-08         0.29104E-20         0.00000E+00
    0.23537E-08         0.58208E-20         0.00000E+00
    0.47070E-08        -0.29104E-20         0.00000E+00
    0.47070E-08        -0.14552E-20         0.00000E+00
    0.47070E-08        -0.14552E-20         0.00000E+00
    0.47070E-08         0.14552E-20         0.00000E+00
    0.47070E-08         0.29104E-20         0.00000E+00
    0.47070E-08         0.29104E-20         0.00000E+00
    0.47070E-08         0.29104E-20         0.00000E+00
    0.47070E-08         0.29104E-20         0.00000E+00
    0.47070E-08         0.14552E-20         0.00000E+00
    0.47070E-08        -0.15235E-20         0.00000E+00
    0.47070E-08        -0.68269E-22         0.00000E+00
    0.47070E-08         0.68269E-22         0.00000E+00
    0.47070E-08        -0.13869E-20         0.00000E+00
    0.47070E-08        -0.14552E-20         0.00000E+00
    0.47070E-08        -0.72760E-21         0.00000E+00
    0.47070E-08        -0.14552E-20         0.00000E+00
    0.70595E-08         0.27711E-20         0.00000E+00
    0.70595E-08         0.37616E-35         0.00000E+00
    0.70595E-08        -0.21828E-20         0.00000E+00
    0.70595E-08         0.19396E-35         0.00000E+00
    0.70595E-08         0.69640E-22         0.00000E+00
    0.70595E-08         0.00000E+00         0.00000E+00
    0.70595E-08         0.28407E-20         0.00000E+00
    0.70595E-08         0.28407E-20         0.00000E+00
    0.70595E-08         0.69640E-22         0.00000E+00
    0.70595E-08         0.69640E-22         0.00000E+00
    0.70595E-08        -0.86688E-21         0.00000E+00
    0.70595E-08        -0.22524E-20         0.00000E+00
    0.70595E-08         0.69640E-22         0.00000E+00
    0.70595E-08         0.72760E-21         0.00000E+00
    0.70595E-08        -0.36380E-20         0.00000E+00
    0.70595E-08        -0.29104E-20         0.00000E+00
    0.94108E-08         0.00000E+00         0.00000E+00
    0.94108E-08         0.00000E+00         0.00000E+00
    0.94108E-08         0.29104E-20         0.00000E+00
    0.94108E-08         0.14552E-20         0.00000E+00
    0.94108E-08        -0.14552E-20         0.00000E+00
    0.94108E-08         0.14552E-20         0.00000E+00
    0.94108E-08         0.00000E+00         0.00000E+00
    0.94108E-08        -0.29104E-20         0.00000E+00
    0.94108E-08        -0.14552E-20         0.00000E+00
    0.94108E-08         0.20400E-20         0.00000E+00
    0.94108E-08        -0.23256E-20         0.00000E+00
    0.94108E-08        -0.34952E-20         0.00000E+00
    0.94108E-08         0.87040E-21         0.00000E+00
    0.94108E-08         0.43656E-20         0.00000E+00
    0.94108E-08         0.36380E-20         0.00000E+00
    0.94108E-08         0.00000E+00         0.00000E+00
    0.11760E-07         0.00000E+00         0.00000E+00
    0.11760E-07         0.00000E+00         0.00000E+00
    0.11760E-07        -0.14552E-20         0.00000E+00
    0.11760E-07         0.20357E-20         0.00000E+00
    0.11760E-07         0.16023E-20         0.00000E+00
    0.11760E-07        -0.26162E-20         0.00000E+00
    0.11760E-07        -0.72760E-20         0.00000E+00
    0.11760E-07        -0.10481E-19         0.00000E+00
    0.11760E-07        -0.66955E-20         0.00000E+00
    0.11760E-07        -0.13081E-20         0.00000E+00
    0.11760E-07         0.58048E-21         0.00000E+00
    0.11760E-07         0.29104E-20         0.00000E+00
    0.11760E-07         0.21828E-20         0.00000E+00
    0.11760E-07        -0.21828E-20         0.00000E+00
    0.11760E-07        -0.58048E-21         0.00000E+00
    0.11760E-07         0.58208E-20         0.00000E+00
    0.14108E-07        -0.17596E-20         0.00000E+00
    0.14108E-07        -0.14552E-20         0.00000E+00
    0.14108E-07        -0.29104E-20         0.00000E+00
    0.14108E-07        -0.29104E-20         0.00000E+00
    0.14108E-07        -0.57539E-21         0.00000E+00
    0.14108E-07        -0.14552E-20         0.00000E+00
    0.14108E-07        -0.37902E-20         0.00000E+00
    0.14108E-07        -0.67006E-20         0.00000E+00
    0.14108E-07        -0.49410E-20         0.00000E+00
    0.14108E-07        -0.49410E-20         0.00000E+00
    0.14108E-07        -0.53976E-20         0.00000E+00
    0.14108E-07         0.34858E-20         0.00000E+00
    0.14108E-07         0.67006E-20         0.00000E+00
    0.14108E-07         0.29104E-20         0.00000E+00
    0.14108E-07         0.00000E+00         0.00000E+00
    0.14108E-07         0.00000E+00         0.00000E+00
    0.16453E-07         0.11390E-20         0.00000E+00
    0.16453E-07         0.29104E-20         0.00000E+00
    0.16453E-07        -0.49351E-20         0.00000E+00
    0.16453E-07        -0.58208E-20         0.00000E+00
    0.16453E-07        -0.58208E-20         0.00000E+00
    0.16453E-07        -0.72760E-20         0.00000E+00
    0.16453E-07        -0.58208E-20         0.00000E+00
    0.16453E-07        -0.29104E-20         0.00000E+00
    0.16453E-07        -0.88567E-21         0.00000E+00
    0.16453E-07        -0.37961E-20         0.00000E+00
    0.16453E-07        -0.63903E-20         0.00000E+00
    0.16453E-07        -0.14552E-20         0.00000E+00
    0.16453E-07         0.42075E-20         0.00000E+00
    0.16453E-07         0.81616E-20         0.00000E+00
    0.16453E-07         0.43656E-20         0.00000E+00
    0.16453E-07         0.11390E-20         0.00000E+00
    0.18796E-07         0.00000E+00         0.00000E+00
    0.18796E-07        -0.29104E-20         0.00000E+00
    0.18796E-07        -0.87311E-20         0.00000E+00
    0.18796E-07        -0.87311E-20         0.00000E+00
    0.18796E-07        -0.29104E-20         0.00000E+00
    0.18796E-07        -0.43656E-20         0.00000E+00
    0.18796E-07        -0.43656E-20         0.00000E+00
    0.18796E-07         0.00000E+00         0.00000E+00
    0.18796E-07        -0.29104E-20         0.00000E+00
    0.18796E-07        -0.54226E-20         0.00000E+00
    0.18796E-07        -0.46950E-20         0.00000E+00
    0.18796E-07        -0.25809E-20         0.00000E+00
    0.18796E-07         0.32945E-21         0.00000E+00
    0.18796E-07         0.43656E-20         0.00000E+00
    0.18796E-07         0.29104E-20         0.00000E+00
    0.18796E-07         0.29104E-20         0.00000E+00
    0.21135E-07        -0.76658E-21         0.00000E+00
    0.21135E-07        -0.38329E-21         0.00000E+00
    0.21135E-07        -0.39823E-20         0.00000E+00
    0.21135E-07        -0.68927E-20         0.00000E+00
    0.21135E-07        -0.72760E-20         0.00000E+00
    0.21135E-07        -0.29104E-20         0.00000E+00
    0.21135E-07         0.00000E+00         0.00000E+00
    0.21135E-07         0.00000E+00         0.00000E+00
    0.21135E-07        -0.14552E-20         0.00000E+00
    0.21135E-07        -0.58208E-20         0.00000E+00
    0.21135E-07        -0.80036E-20         0.00000E+00
    0.21135E-07        -0.29104E-20         0.00000E+00
    0.21135E-07         0.29104E-20         0.00000E+00
    0.21135E-07         0.14552E-20         0.00000E+00
    0.21135E-07        -0.14552E-20         0.00000E+00
    0.21135E-07        -0.29104E-20         0.00000E+00
    0.23471E-07        -0.29104E-20         0.00000E+00
    0.23471E-07        -0.14552E-20         0.00000E+00
    0.23471E-07        -0.43656E-20         0.00000E+00
    0.23471E-07        -0.69091E-20         0.00000E+00
    0.23471E-07        -0.47325E-20         0.00000E+00
    0.23471E-07        -0.36441E-20         0.00000E+00
    0.23471E-07        -0.14552E-20         0.00000E+00
    0.23471E-07         0.61555E-23         0.00000E+00
    0.23471E-07        -0.18159E-20         0.00000E+00
    0.23471E-07        -0.47325E-20         0.00000E+00
    0.23471E-07        -0.39987E-20         0.00000E+00
    0.23471E-07         0.00000E+00         0.00000E+00
    0.23471E-07        -0.29104E-20         0.00000E+00
    0.23471E-07        -0.29104E-20         0.00000E+00
    0.23471E-07         0.18159E-20         0.00000E+00
    0.23471E-07         0.29104E-20         0.00000E+00
    0.25802E-07        -0.58208E-20         0.00000E+00
    0.25802E-07        -0.29104E-20         0.00000E+00
    0.25802E-07        -0.29104E-20         0.00000E+00
    0.25802E-07        -0.43656E-20         0.00000E+00
    0.25802E-07        -0.29104E-20         0.00000E+00
    0.25802E-07        -0.29104E-20         0.00000E+00
    0.25802E-07        -0.14552E-20         0.00000E+00
    0.25802E-07        -0.14552E-20         0.00000E+00
    0.25802E-07        -0.43656E-20         0.00000E+00
    0.25802E-07        -0.29104E-20         0.00000E+00
    0.25802E-07        -0.43656E-20         0.00000E+00
    0.25802E-07        -0.43656E-20         0.00000E+00
    0.25802E-07         0.43656E-20         0.00000E+00
    0.25802E-07         0.25615E-20         0.00000E+00
    0.25802E-07        -0.36380E-20         0.00000E+00
    0.25802E-07        -0.65781E-20         0.00000E+00
    0.28130E-07         0.65880E-21         0.00000E+00
    0.28130E-07         0.43916E-34         0.00000E+00
    0.28130E-07         0.29105E-34         0.00000E+00
    0.28130E-07        -0.43656E-20         0.00000E+00
    0.28130E-07        -0.46950E-20         0.00000E+00
    0.28130E-07        -0.29104E-20         0.00000E+00
    0.28130E-07        -0.18534E-20         0.00000E+00
    0.28130E-07         0.32940E-21         0.00000E+00
    0.28130E-07        -0.32940E-21         0.00000E+00
    0.28130E-07        -0.54226E-20         0.00000E+00
    0.28130E-07        -0.37068E-20         0.00000E+00
    0.28130E-07        -0.39820E-21         0.00000E+00
    0.28130E-07        -0.25122E-20         0.00000E+00
    0.28130E-07         0.00000E+00         0.00000E+00
    0.28130E-07         0.72760E-21         0.00000E+00
    0.28130E-07         0.00000E+00         0.00000E+00
    0.30452E-07         0.49823E-20         0.00000E+00
    0.30452E-07        -0.41925E-21         0.00000E+00
    0.30452E-07        -0.54015E-20         0.00000E+00
    0.30452E-07        -0.39463E-20         0.00000E+00
    0.30452E-07        -0.29104E-20         0.00000E+00
    0.30452E-07        -0.18744E-20         0.00000E+00
    0.30452E-07         0.10359E-20         0.00000E+00
    0.30452E-07        -0.14552E-20         0.00000E+00
    0.30452E-07         0.14552E-20         0.00000E+00
    0.30452E-07         0.29104E-20         0.00000E+00
    0.30452E-07        -0.36380E-20         0.00000E+00
    0.30452E-07        -0.72760E-20         0.00000E+00
    0.30452E-07        -0.54015E-20         0.00000E+00
    0.30452E-07        -0.21828E-20         0.00000E+00
    0.30452E-07        -0.41925E-21         0.00000E+00
    0.30452E-07         0.00000E+00         0.00000E+00
    0.32769E-07        -0.37941E-20         0.00000E+00
    0.32769E-07        -0.43656E-20         0.00000E+00
    0.32769E-07        -0.39237E-20         0.00000E+00
    0.32769E-07        -0.43656E-20         0.00000E+00
    0.32769E-07        -0.43656E-20         0.00000E+00
    0.32769E-07        -0.29104E-20         0.00000E+00
    0.32769E-07         0.00000E+00         0.00000E+00
    0.32769E-07         0.14552E-20         0.00000E+00
    0.32769E-07         0.10133E-20         0.00000E+00
    0.32769E-07        -0.33522E-20         0.00000E+00
    0.32769E-07        -0.53789E-20         0.00000E+00
    0.32769E-07         0.71470E-35         0.00000E+00
    0.32769E-07        -0.44185E-21         0.00000E+00
    0.32769E-07        -0.24685E-20         0.00000E+00
    0.32769E-07        -0.14552E-20         0.00000E+00
    0.32769E-07         0.57148E-21         0.00000E+00
    0.35080E-07         0.40877E-21         0.00000E+00
    0.35080E-07        -0.27060E-20         0.00000E+00
    0.35080E-07        -0.14552E-20         0.00000E+00
    0.35080E-07         0.14552E-20         0.00000E+00
    0.35080E-07        -0.29104E-20         0.00000E+00
    0.35080E-07        -0.29104E-20         0.00000E+00
    0.35080E-07         0.00000E+00         0.00000E+00
    0.35080E-07        -0.16596E-20         0.00000E+00
    0.35080E-07        -0.20439E-21         0.00000E+00
    0.35080E-07         0.14552E-20         0.00000E+00
    0.35080E-07        -0.43656E-20         0.00000E+00
    0.35080E-07        -0.58208E-20         0.00000E+00
    0.35080E-07        -0.14552E-20         0.00000E+00
    0.35080E-07         0.00000E+00         0.00000E+00
    0.35080E-07         0.16596E-20         0.00000E+00
    0.35080E-07         0.33192E-20         0.00000E+00
    0.37386E-07         0.00000E+00         0.00000E+00
    0.37386E-07         0.29104E-20         0.00000E+00
    0.37386E-07         0.00000E+00         0.00000E+00
    0.37386E-07        -0.29104E-20         0.00000E+00
    0.37386E-07         0.14552E-20         0.00000E+00
    0.37386E-07        -0.29104E-20         0.00000E+00
    0.37386E-07        -0.43656E-20         0.00000E+00
    0.37386E-07         0.00000E+00         0.00000E+00
    0.37386E-07         0.00000E+00         0.00000E+00
    0.37386E-07        -0.46213E-20         0.00000E+00
    0.37386E-07        -0.46213E-20         0.00000E+00
    0.37386E-07         0.17109E-20         0.00000E+00
    0.37386E-07         0.25573E-21         0.00000E+00
    0.37386E-07        -0.14552E-20         0.00000E+00
    0.37386E-07        -0.14552E-20         0.00000E+00
    0.37386E-07        -0.29104E-20         0.00000E+00
    0.39685E-07         0.83494E-21         0.00000E+00
    0.39685E-07        -0.29104E-20         0.00000E+00
    0.39685E-07        -0.55106E-20         0.00000E+00
    0.39685E-07        -0.58208E-20         0.00000E+00
    0.39685E-07        -0.43656E-20         0.00000E+00
    0.39685E-07        -0.17653E-20         0.00000E+00
    0.39685E-07        -0.17653E-20         0.00000E+00
    0.39685E-07        -0.14552E-20         0.00000E+00
    0.39685E-07        -0.29104E-20         0.00000E+00
    0.39685E-07        -0.36380E-20         0.00000E+00
    0.39685E-07         0.00000E+00         0.00000E+00
    0.39685E-07        -0.29104E-20         0.00000E+00
    0.39685E-07        -0.11451E-20         0.00000E+00
    0.39685E-07         0.29104E-20         0.00000E+00
    0.39685E-07         0.47830E-20         0.00000E+00
    0.39685E-07         0.58208E-20         0.00000E+00
    0.41976E-07         0.73515E-21         0.00000E+00
    0.41976E-07        -0.10876E-20         0.00000E+00
    0.41976E-07        -0.54607E-20         0.00000E+00
    0.41976E-07        -0.76435E-20         0.00000E+00
    0.41976E-07        -0.72760E-20         0.00000E+00
    0.41976E-07        -0.43656E-20         0.00000E+00
    0.41976E-07        -0.29104E-20         0.00000E+00
    0.41976E-07         0.14552E-20         0.00000E+00
    0.41976E-07         0.58208E-20         0.00000E+00
    0.41976E-07        -0.14552E-20         0.00000E+00
    0.41976E-07        -0.43656E-20         0.00000E+00
    0.41976E-07        -0.14552E-20         0.00000E+00
    0.41976E-07         0.00000E+00         0.00000E+00
    0.41976E-07         0.14552E-20         0.00000E+00
    0.41976E-07        -0.14552E-20         0.00000E+00
    0.41976E-07        -0.29104E-20         0.00000E+00
    0.44261E-07        -0.23113E-20         0.00000E+00
    0.44261E-07        -0.72760E-21         0.00000E+00
    0.44261E-07        -0.29953E-21         0.00000E+00
    0.44261E-07        -0.29104E-20         0.00000E+00
    0.44261E-07        -0.43656E-20         0.00000E+00
    0.44261E-07        -0.58208E-20         0.00000E+00
    0.44261E-07        -0.43656E-20         0.00000E+00
    0.44261E-07         0.00000E+00         0.00000E+00
    0.44261E-07        -0.29104E-20         0.00000E+00
    0.44261E-07        -0.14552E-20         0.00000E+00
    0.44261E-07        -0.14552E-20         0.00000E+00
    0.44261E-07        -0.30389E-20         0.00000E+00
    0.44261E-07         0.17547E-20         0.00000E+00
    0.44261E-07        -0.29953E-21         0.00000E+00
    0.44261E-07        -0.14552E-20         0.00000E+00
    0.44261E-07         0.00000E+00         0.00000E+00
    0.46537E-07         0.00000E+00         0.00000E+00
    0.46537E-07         0.00000E+00         0.00000E+00
    0.46537E-07        -0.29104E-20         0.00000E+00
    0.46537E-07        -0.34020E-20         0.00000E+00
    0.46537E-07        -0.24188E-20         0.00000E+00
    0.46537E-07        -0.11996E-20         0.00000E+00
    0.46537E-07         0.00000E+00         0.00000E+00
    0.46537E-07        -0.31659E-20         0.00000E+00
    0.46537E-07        -0.34020E-20         0.00000E+00
    0.46537E-07         0.49158E-21         0.00000E+00
    0.46537E-07         0.23602E-21         0.00000E+00
    0.46537E-07        -0.21828E-20         0.00000E+00
    0.46537E-07         0.21828E-20         0.00000E+00
    0.46537E-07         0.36380E-20         0.00000E+00
    0.46537E-07         0.12192E-20         0.00000E+00
    0.46537E-07        -0.29104E-20         0.00000E+00
    0.48806E-07        -0.43656E-20         0.00000E+00
    0.48806E-07        -0.36380E-20         0.00000E+00
    0.48806E-07        -0.14552E-20         0.00000E+00
    0.48806E-07        -0.14552E-20         0.00000E+00
    0.48806E-07        -0.36380E-20         0.00000E+00
    0.48806E-07        -0.21828E-20         0.00000E+00
    0.48806E-07        -0.19431E-21         0.00000E+00
    0.48806E-07        -0.23771E-20         0.00000E+00
    0.48806E-07        -0.19885E-20         0.00000E+00
    0.48806E-07         0.31047E-20         0.00000E+00
    0.48806E-07         0.16247E-20         0.00000E+00
    0.48806E-07        -0.16495E-20         0.00000E+00
    0.48806E-07         0.00000E+00         0.00000E+00
    0.48806E-07         0.21828E-20         0.00000E+00
    0.48806E-07         0.10914E-20         0.00000E+00
    0.48806E-07        -0.14552E-20         0.00000E+00
    0.51066E-07        -0.43656E-20         0.00000E+00
    0.51066E-07        -0.14552E-20         0.00000E+00
    0.51066E-07        -0.14552E-20         0.00000E+00
    0.51066E-07        -0.43656E-20         0.00000E+00
    0.51066E-07        -0.72760E-21         0.00000E+00
    0.51066E-07        -0.72760E-21         0.00000E+00
    0.51066E-07        -0.21828E-20         0.00000E+00
    0.51066E-07         0.00000E+00         0.00000E+00
    0.51066E-07         0.72760E-21         0.00000E+00
    0.51066E-07         0.18190E-20         0.00000E+00
    0.51066E-07        -0.10914E-20         0.00000E+00
    0.51066E-07        -0.21828E-20         0.00000E+00
    0.51066E-07         0.00000E+00         0.00000E+00
    0.51066E-07         0.24466E-20         0.00000E+00
    0.51066E-07         0.32742E-20         0.00000E+00
    0.51066E-07         0.16551E-20         0.00000E+00
    0.53316E-07         0.86763E-20         0.00000E+00
    0.53316E-07         0.21828E-20         0.00000E+00
    0.53316E-07        -0.43381E-20         0.00000E+00
    0.53316E-07        -0.43656E-20         0.00000E+00
    0.53316E-07        -0.43656E-20         0.00000E+00
    0.53316E-07         0.14552E-20         0.00000E+00
    0.53316E-07         0.29104E-20         0.00000E+00
    0.53316E-07        -0.14552E-20         0.00000E+00
    0.53316E-07         0.00000E+00         0.00000E+00
    0.53316E-07         0.72760E-21         0.00000E+00
    0.53316E-07        -0.27426E-22         0.00000E+00
    0.53316E-07        -0.21828E-20         0.00000E+00
    0.53316E-07         0.27426E-22         0.00000E+00
    0.53316E-07         0.32742E-20         0.00000E+00
    0.53316E-07        -0.14552E-20         0.00000E+00
    0.53316E-07        -0.43656E-20         0.00000E+00
    0.55558E-07        -0.66445E-20         0.00000E+00
    0.55558E-07        -0.50932E-20         0.00000E+00
    0.55558E-07        -0.46813E-20         0.00000E+00
    0.55558E-07        -0.21828E-20         0.00000E+00
    0.55558E-07         0.43656E-20         0.00000E+00
    0.55558E-07         0.43656E-20         0.00000E+00
    0.55558E-07        -0.21828E-20         0.00000E+00
    0.55558E-07        -0.65484E-20         0.00000E+00
    0.55558E-07        -0.43656E-20         0.00000E+00
    0.55558E-07         0.00000E+00         0.00000E+00
    0.55558E-07        -0.41188E-21         0.00000E+00
    0.55558E-07        -0.48081E-22         0.00000E+00
    0.55558E-07        -0.17709E-20         0.00000E+00
    0.55558E-07        -0.24985E-20         0.00000E+00
    0.55558E-07         0.39537E-20         0.00000E+00
    0.55558E-07         0.93626E-20         0.00000E+00
    0.57789E-07         0.00000E+00         0.00000E+00
    0.57789E-07        -0.21828E-20         0.00000E+00
    0.57789E-07        -0.19455E-20         0.00000E+00
    0.57789E-07        -0.27083E-34         0.00000E+00
    0.57789E-07         0.19455E-20         0.00000E+00
    0.57789E-07         0.00000E+00         0.00000E+00
    0.57789E-07        -0.43656E-20         0.00000E+00
    0.57789E-07        -0.43656E-20         0.00000E+00
    0.57789E-07        -0.49825E-20         0.00000E+00
    0.57789E-07        -0.15817E-20         0.00000E+00
    0.57789E-07         0.49035E-21         0.00000E+00
    0.57789E-07        -0.96484E-21         0.00000E+00
    0.57789E-07        -0.11614E-34         0.00000E+00
    0.57789E-07         0.96484E-21         0.00000E+00
    0.57789E-07        -0.14552E-20         0.00000E+00
    0.57789E-07        -0.29104E-20         0.00000E+00
    0.60009E-07        -0.14552E-20         0.00000E+00
    0.60009E-07        -0.27546E-20         0.00000E+00
    0.60009E-07        -0.40018E-20         0.00000E+00
    0.60009E-07        -0.21828E-20         0.00000E+00
    0.60009E-07        -0.72760E-21         0.00000E+00
    0.60009E-07        -0.21828E-20         0.00000E+00
    0.60009E-07        -0.65484E-20         0.00000E+00
    0.60009E-07        -0.60287E-20         0.00000E+00
    0.60009E-07        -0.41596E-21         0.00000E+00
    0.60009E-07        -0.10392E-20         0.00000E+00
    0.60009E-07        -0.32220E-20         0.00000E+00
    0.60009E-07         0.31164E-21         0.00000E+00
    0.60009E-07         0.30662E-20         0.00000E+00
    0.60009E-07         0.29104E-20         0.00000E+00
    0.60009E-07         0.72760E-21         0.00000E+00
    0.60009E-07        -0.24944E-20         0.00000E+00
    0.62219E-07         0.87051E-21         0.00000E+00
    0.62219E-07         0.43526E-21         0.00000E+00
    0.62219E-07        -0.72760E-21         0.00000E+00
    0.62219E-07        -0.40732E-20         0.00000E+00
    0.62219E-07        -0.55284E-20         0.00000E+00
    0.62219E-07        -0.61131E-20         0.00000E+00
    0.62219E-07        -0.36380E-20         0.00000E+00
    0.62219E-07        -0.18904E-20         0.00000E+00
    0.62219E-07        -0.21828E-20         0.00000E+00
    0.62219E-07        -0.58468E-21         0.00000E+00
    0.62219E-07         0.43526E-21         0.00000E+00
    0.62219E-07        -0.77583E-35         0.00000E+00
    0.62219E-07        -0.10914E-20         0.00000E+00
    0.62219E-07        -0.79906E-21         0.00000E+00
    0.62219E-07         0.00000E+00         0.00000E+00
    0.62219E-07         0.00000E+00         0.00000E+00
    0.64418E-07        -0.31645E-22         0.00000E+00
    0.64418E-07        -0.18032E-20         0.00000E+00
    0.64418E-07        -0.71177E-21         0.00000E+00
    0.64418E-07        -0.15822E-22         0.00000E+00
    0.64418E-07        -0.50932E-20         0.00000E+00
    0.64418E-07        -0.11072E-20         0.00000E+00
    0.64418E-07         0.11072E-20         0.00000E+00
    0.64418E-07        -0.36380E-20         0.00000E+00
    0.64418E-07        -0.40334E-20         0.00000E+00
    0.64418E-07        -0.14552E-20         0.00000E+00
    0.64418E-07         0.14552E-20         0.00000E+00
    0.64418E-07        -0.43656E-20         0.00000E+00
    0.64418E-07        -0.50773E-20         0.00000E+00
    0.64418E-07         0.10914E-20         0.00000E+00
    0.64418E-07         0.25466E-20         0.00000E+00
    0.64418E-07         0.22144E-20         0.00000E+00
    0.66604E-07        -0.30356E-21         0.00000E+00
    0.66604E-07        -0.21828E-20         0.00000E+00
    0.66604E-07        -0.20310E-20         0.00000E+00
    0.66604E-07        -0.19708E-20         0.00000E+00
    0.66604E-07        -0.19708E-20         0.00000E+00
    0.66604E-07        -0.57582E-21         0.00000E+00
    0.66604E-07        -0.72760E-21         0.00000E+00
    0.66604E-07        -0.32742E-20         0.00000E+00
    0.66604E-07        -0.38500E-20         0.00000E+00
    0.66604E-07        -0.21828E-20         0.00000E+00
    0.66604E-07        -0.29104E-20         0.00000E+00
    0.66604E-07        -0.14552E-20         0.00000E+00
    0.66604E-07        -0.57582E-21         0.00000E+00
    0.66604E-07        -0.18190E-20         0.00000E+00
    0.66604E-07        -0.13950E-20         0.00000E+00
    0.66604E-07         0.11516E-20         0.00000E+00
    0.68778E-07        -0.43656E-20         0.00000E+00
    0.68778E-07        -0.21828E-20         0.00000E+00
    0.68778E-07         0.00000E+00         0.00000E+00
    0.68778E-07         0.00000E+00         0.00000E+00
    0.68778E-07        -0.21828E-20         0.00000E+00
    0.68778E-07        -0.21828E-20         0.00000E+00
    0.68778E-07        -0.43656E-20         0.00000E+00
    0.68778E-07        -0.29104E-20         0.00000E+00
    0.68778E-07         0.00000E+00         0.00000E+00
    0.68778E-07        -0.58208E-20         0.00000E+00
    0.68778E-07        -0.29104E-20         0.00000E+00
    0.68778E-07        -0.72760E-21         0.00000E+00
    0.68778E-07        -0.36380E-20         0.00000E+00
    0.68778E-07        -0.21828E-20         0.00000E+00
    0.68778E-07        -0.32943E-21         0.00000E+00
    0.68778E-07         0.79634E-21         0.00000E+00
    0.70940E-07         0.00000E+00         0.00000E+00
    0.70940E-07         0.00000E+00         0.00000E+00
    0.70940E-07        -0.21828E-20         0.00000E+00
    0.70940E-07        -0.29104E-20         0.00000E+00
    0.70940E-07        -0.72760E-21         0.00000E+00
    0.70940E-07         0.00000E+00         0.00000E+00
    0.70940E-07        -0.86513E-21         0.00000E+00
    0.70940E-07        -0.36380E-20         0.00000E+00
    0.70940E-07        -0.64108E-20         0.00000E+00
    0.70940E-07        -0.65484E-20         0.00000E+00
    0.70940E-07        -0.21828E-20         0.00000E+00
    0.70940E-07         0.00000E+00         0.00000E+00
    0.70940E-07        -0.21828E-20         0.00000E+00
    0.70940E-07        -0.21828E-20         0.00000E+00
    0.70940E-07        -0.13753E-21         0.00000E+00
    0.70940E-07         0.11801E-20         0.00000E+00
    0.73088E-07         0.00000E+00         0.00000E+00
    0.73088E-07         0.00000E+00         0.00000E+00
    0.73088E-07         0.18791E-20         0.00000E+00
    0.73088E-07         0.21828E-20         0.00000E+00
    0.73088E-07         0.30373E-21         0.00000E+00
    0.73088E-07         0.14552E-20         0.00000E+00
    0.73088E-07        -0.72760E-21         0.00000E+00
    0.73088E-07        -0.40618E-20         0.00000E+00
    0.73088E-07        -0.36380E-20         0.00000E+00
    0.73088E-07        -0.39417E-20         0.00000E+00
    0.73088E-07        -0.29705E-20         0.00000E+00
    0.73088E-07        -0.18190E-20         0.00000E+00
    0.73088E-07        -0.17589E-20         0.00000E+00
    0.73088E-07        -0.11515E-20         0.00000E+00
    0.73088E-07         0.36380E-21         0.00000E+00
    0.73088E-07         0.37581E-20         0.00000E+00
    0.75223E-07        -0.29104E-20         0.00000E+00
    0.75223E-07        -0.14552E-20         0.00000E+00
    0.75223E-07         0.00000E+00         0.00000E+00
    0.75223E-07         0.36380E-20         0.00000E+00
    0.75223E-07         0.36380E-20         0.00000E+00
    0.75223E-07        -0.36380E-20         0.00000E+00
    0.75223E-07        -0.14552E-20         0.00000E+00
    0.75223E-07         0.30108E-20         0.00000E+00
    0.75223E-07        -0.14552E-20         0.00000E+00
    0.75223E-07        -0.72760E-21         0.00000E+00
    0.75223E-07         0.10046E-21         0.00000E+00
    0.75223E-07        -0.29104E-20         0.00000E+00
    0.75223E-07        -0.82806E-21         0.00000E+00
    0.75223E-07         0.10914E-20         0.00000E+00
    0.75223E-07        -0.10914E-20         0.00000E+00
    0.75223E-07        -0.16561E-20         0.00000E+00
    0.77343E-07         0.00000E+00         0.00000E+00
    0.77343E-07         0.21828E-20         0.00000E+00
    0.77343E-07         0.36380E-20         0.00000E+00
    0.77343E-07         0.14552E-20         0.00000E+00
    0.77343E-07         0.72760E-21         0.00000E+00
    0.77343E-07         0.21828E-20         0.00000E+00
    0.77343E-07        -0.72760E-21         0.00000E+00
    0.77343E-07        -0.14552E-20         0.00000E+00
    0.77343E-07         0.29104E-20         0.00000E+00
    0.77343E-07         0.00000E+00         0.00000E+00
    0.77343E-07        -0.21828E-20         0.00000E+00
    0.77343E-07        -0.21828E-20         0.00000E+00
    0.77343E-07        -0.21828E-20         0.00000E+00
    0.77343E-07        -0.21828E-20         0.00000E+00
    0.77343E-07        -0.11998E-20         0.00000E+00
    0.77343E-07         0.12383E-20         0.00000E+00
    0.79449E-07         0.00000E+00         0.00000E+00
    0.79449E-07         0.00000E+00         0.00000E+00
    0.79449E-07         0.00000E+00         0.00000E+00
    0.79449E-07         0.72760E-21         0.00000E+00
    0.79449E-07         0.14552E-20         0.00000E+00
    0.79449E-07         0.00000E+00         0.00000E+00
    0.79449E-07        -0.72760E-21         0.00000E+00
    0.79449E-07        -0.17781E-20         0.00000E+00
    0.79449E-07        -0.21828E-20         0.00000E+00
    0.79449E-07         0.14552E-20         0.00000E+00
    0.79449E-07         0.18599E-20         0.00000E+00
    0.79449E-07         0.72760E-21         0.00000E+00
    0.79449E-07         0.00000E+00         0.00000E+00
    0.79449E-07        -0.40869E-22         0.00000E+00
    0.79449E-07         0.72760E-21         0.00000E+00
    0.79449E-07         0.80933E-21         0.00000E+00
    0.81540E-07        -0.14552E-20         0.00000E+00
    0.81540E-07        -0.45502E-20         0.00000E+00
    0.81540E-07        -0.38226E-20         0.00000E+00
    0.81540E-07         0.72760E-21         0.00000E+00
    0.81540E-07         0.21828E-20         0.00000E+00
    0.81540E-07         0.14552E-20         0.00000E+00
    0.81540E-07        -0.45447E-20         0.00000E+00
    0.81540E-07        -0.67275E-20         0.00000E+00
    0.81540E-07        -0.12760E-20         0.00000E+00
    0.81540E-07        -0.36380E-21         0.00000E+00
    0.81540E-07         0.54842E-21         0.00000E+00
    0.81540E-07         0.30896E-20         0.00000E+00
    0.81540E-07         0.36380E-21         0.00000E+00
    0.81540E-07         0.73305E-21         0.00000E+00
    0.81540E-07         0.72760E-21         0.00000E+00
    0.81540E-07         0.10859E-20         0.00000E+00
    0.83615E-07         0.00000E+00         0.00000E+00
    0.83615E-07        -0.36380E-20         0.00000E+00
    0.83615E-07        -0.50932E-20         0.00000E+00
    0.83615E-07        -0.36380E-20         0.00000E+00
    0.83615E-07         0.00000E+00         0.00000E+00
    0.83615E-07         0.14552E-20         0.00000E+00
    0.83615E-07        -0.29104E-20         0.00000E+00
    0.83615E-07        -0.29104E-20         0.00000E+00
    0.83615E-07        -0.29104E-20         0.00000E+00
    0.83615E-07        -0.21828E-20         0.00000E+00
    0.83615E-07         0.14552E-20         0.00000E+00
    0.83615E-07         0.46885E-20         0.00000E+00
    0.83615E-07         0.32742E-20         0.00000E+00
    0.83615E-07         0.40472E-21         0.00000E+00
    0.83615E-07        -0.29104E-20         0.00000E+00
    0.83615E-07        -0.58208E-20         0.00000E+00
    0.85674E-07         0.54387E-21         0.00000E+00
    0.85674E-07         0.99953E-21         0.00000E+00
    0.85674E-07        -0.24547E-20         0.00000E+00
    0.85674E-07        -0.53651E-20         0.00000E+00
    0.85674E-07        -0.58208E-20         0.00000E+00
    0.85674E-07        -0.33660E-20         0.00000E+00
    0.85674E-07         0.18190E-20         0.00000E+00
    0.85674E-07         0.45566E-21         0.00000E+00
    0.85674E-07        -0.36380E-20         0.00000E+00
    0.85674E-07        -0.21828E-20         0.00000E+00
    0.85674E-07         0.36380E-20         0.00000E+00
    0.85674E-07         0.21828E-20         0.00000E+00
    0.85674E-07         0.72760E-21         0.00000E+00
    0.85674E-07        -0.21828E-20         0.00000E+00
    0.85674E-07        -0.43656E-20         0.00000E+00
    0.85674E-07        -0.29104E-20         0.00000E+00
    0.87716E-07         0.43656E-20         0.00000E+00
    0.87716E-07         0.36380E-20         0.00000E+00
    0.87716E-07        -0.16744E-20         0.00000E+00
    0.87716E-07        -0.65484E-20         0.00000E+00
    0.87716E-07        -0.56015E-20         0.00000E+00
    0.87716E-07        -0.21828E-20         0.00000E+00
    0.87716E-07         0.00000E+00         0.00000E+00
    0.87716E-07         0.00000E+00         0.00000E+00
    0.87716E-07         0.00000E+00         0.00000E+00
    0.87716E-07        -0.72760E-21         0.00000E+00
    0.87716E-07         0.14552E-20         0.00000E+00
    0.87716E-07         0.43656E-20         0.00000E+00
    0.87716E-07         0.14552E-20         0.00000E+00
    0.87716E-07        -0.29104E-20         0.00000E+00
    0.87716E-07        -0.26912E-20         0.00000E+00
    0.87716E-07        -0.10167E-20         0.00000E+00
    0.89741E-07         0.00000E+00         0.00000E+00
    0.89741E-07         0.21828E-20         0.00000E+00
    0.89741E-07         0.72760E-21         0.00000E+00
    0.89741E-07        -0.38637E-21         0.00000E+00
    0.89741E-07        -0.29104E-20         0.00000E+00
    0.89741E-07        -0.57982E-20         0.00000E+00
    0.89741E-07        -0.21828E-20         0.00000E+00
    0.89741E-07        -0.72760E-21         0.00000E+00
    0.89741E-07         0.00000E+00         0.00000E+00
    0.89741E-07        -0.72760E-21         0.00000E+00
    0.89741E-07        -0.21828E-20         0.00000E+00
    0.89741E-07         0.72760E-21         0.00000E+00
    0.89741E-07         0.43656E-20         0.00000E+00
    0.89741E-07         0.36154E-20         0.00000E+00
    0.89741E-07         0.10688E-20         0.00000E+00
    0.89741E-07        -0.29104E-20         0.00000E+00
    0.91748E-07         0.00000E+00         0.00000E+00
    0.91748E-07        -0.21828E-20         0.00000E+00
    0.91748E-07         0.72760E-21         0.00000E+00
    0.91748E-07         0.72760E-21         0.00000E+00
    0.91748E-07        -0.29104E-20         0.00000E+00
    0.91748E-07        -0.72760E-21         0.00000E+00
    0.91748E-07        -0.21828E-20         0.00000E+00
    0.91748E-07        -0.17249E-20         0.00000E+00
    0.91748E-07        -0.63350E-21         0.00000E+00
    0.91748E-07        -0.14552E-20         0.00000E+00
    0.91748E-07         0.00000E+00         0.00000E+00
    0.91748E-07         0.21828E-20         0.00000E+00
    0.91748E-07         0.21828E-20         0.00000E+00
    0.91748E-07         0.00000E+00         0.00000E+00
    0.91748E-07        -0.72760E-21         0.00000E+00
    0.91748E-07         0.00000E+00         0.00000E+00
    0.93737E-07        -0.14552E-20         0.00000E+00
    0.93737E-07        -0.52210E-21         0.00000E+00
    0.93737E-07         0.20549E-21         0.00000E+00
    0.93737E-07        -0.16607E-20         0.00000E+00
    0.93737E-07        -0.43656E-20         0.00000E+00
    0.93737E-07        -0.41601E-20         0.00000E+00
    0.93737E-07        -0.36380E-20         0.00000E+00
    0.93737E-07        -0.36380E-20         0.00000E+00
    0.93737E-07        -0.14552E-20         0.00000E+00
    0.93737E-07        -0.72760E-21         0.00000E+00
    0.93737E-07        -0.72760E-21         0.00000E+00
    0.93737E-07         0.72760E-21         0.00000E+00
    0.93737E-07         0.29104E-20         0.00000E+00
    0.93737E-07         0.27049E-20         0.00000E+00
    0.93737E-07         0.00000E+00         0.00000E+00
    0.93737E-07        -0.10442E-20         0.00000E+00
    0.95707E-07         0.00000E+00         0.00000E+00
    0.95707E-07         0.52136E-22         0.00000E+00
    0.95707E-07         0.14552E-20         0.00000E+00
    0.95707E-07         0.14031E-20         0.00000E+00
    0.95707E-07        -0.29104E-20         0.00000E+00
    0.95707E-07        -0.58208E-20         0.00000E+00
    0.95707E-07        -0.43656E-20         0.00000E+00
    0.95707E-07        -0.50932E-20         0.00000E+00
    0.95707E-07        -0.58208E-20         0.00000E+00
    0.95707E-07        -0.14552E-20         0.00000E+00
    0.95707E-07         0.18711E-20         0.00000E+00
    0.95707E-07         0.21828E-20         0.00000E+00
    0.95707E-07         0.32220E-20         0.00000E+00
    0.95707E-07         0.22349E-20         0.00000E+00
    0.95707E-07         0.25861E-35         0.00000E+00
    0.95707E-07        -0.15595E-20         0.00000E+00
    0.97658E-07         0.29104E-20         0.00000E+00
    0.97658E-07         0.00000E+00         0.00000E+00
    0.97658E-07        -0.14552E-20         0.00000E+00
    0.97658E-07        -0.14552E-20         0.00000E+00
    0.97658E-07        -0.36380E-20         0.00000E+00
    0.97658E-07        -0.58208E-20         0.00000E+00
    0.97658E-07        -0.21828E-20         0.00000E+00
    0.97658E-07        -0.72760E-21         0.00000E+00
    0.97658E-07        -0.36380E-20         0.00000E+00
    0.97658E-07        -0.21828E-20         0.00000E+00
    0.97658E-07        -0.29104E-20         0.00000E+00
    0.97658E-07        -0.29104E-20         0.00000E+00
    0.97658E-07         0.00000E+00         0.00000E+00
    0.97658E-07         0.48861E-22         0.00000E+00
    0.97658E-07        -0.72760E-21         0.00000E+00
    0.97658E-07        -0.82532E-21         0.00000E+00
    0.99590E-07        -0.17447E-20         0.00000E+00
    0.99590E-07         0.15999E-20         0.00000E+00
    0.99590E-07         0.50854E-21         0.00000E+00
    0.99590E-07        -0.23275E-20         0.00000E+00
    0.99590E-07        -0.37827E-20         0.00000E+00
    0.99590E-07        -0.34932E-20         0.00000E+00
    0.99590E-07        -0.20380E-20         0.00000E+00
    0.99590E-07        -0.32742E-20         0.00000E+00
    0.99590E-07        -0.42208E-20         0.00000E+00
    0.99590E-07        -0.37827E-20         0.00000E+00
    0.99590E-07        -0.37827E-20         0.00000E+00
    0.99590E-07        -0.27656E-20         0.00000E+00
    0.99590E-07        -0.21828E-20         0.00000E+00
    0.99590E-07        -0.14474E-21         0.00000E+00
    0.99590E-07         0.00000E+00         0.00000E+00
    0.99590E-07        -0.29104E-20         0.00000E+00
    0.10150E-06         0.00000E+00         0.00000E+00
    0.10150E-06         0.59935E-21         0.00000E+00
    0.10150E-06         0.72760E-21         0.00000E+00
    0.10150E-06        -0.72760E-21         0.00000E+00
    0.10150E-06        -0.21828E-20         0.00000E+00
    0.10150E-06        -0.29104E-20         0.00000E+00
    0.10150E-06        -0.36380E-20         0.00000E+00
    0.10150E-06        -0.29104E-20         0.00000E+00
    0.10150E-06        -0.41300E-20         0.00000E+00
    0.10150E-06        -0.65484E-20         0.00000E+00
    0.10150E-06        -0.60563E-20         0.00000E+00
    0.10150E-06        -0.43656E-20         0.00000E+00
    0.10150E-06        -0.12196E-20         0.00000E+00
    0.10150E-06         0.12825E-21         0.00000E+00
    0.10150E-06        -0.72760E-21         0.00000E+00
    0.10150E-06         0.26539E-20         0.00000E+00
    0.10339E-06         0.14552E-20         0.00000E+00
    0.10339E-06         0.68515E-21         0.00000E+00
    0.10339E-06         0.41360E-34         0.00000E+00
    0.10339E-06        -0.14127E-20         0.00000E+00
    0.10339E-06        -0.21828E-20         0.00000E+00
    0.10339E-06        -0.21828E-20         0.00000E+00
    0.10339E-06        -0.14976E-20         0.00000E+00
    0.10339E-06        -0.21828E-20         0.00000E+00
    0.10339E-06        -0.50932E-20         0.00000E+00
    0.10339E-06        -0.51356E-20         0.00000E+00
    0.10339E-06        -0.36380E-20         0.00000E+00
    0.10339E-06        -0.35955E-20         0.00000E+00
    0.10339E-06        -0.35955E-20         0.00000E+00
    0.10339E-06        -0.33591E-20         0.00000E+00
    0.10339E-06        -0.22252E-20         0.00000E+00
    0.10339E-06        -0.64271E-21         0.00000E+00
    0.10526E-06         0.14552E-20         0.00000E+00
    0.10526E-06         0.72760E-21         0.00000E+00
    0.10526E-06        -0.21828E-20         0.00000E+00
    0.10526E-06        -0.43656E-20         0.00000E+00
    0.10526E-06        -0.29104E-20         0.00000E+00
    0.10526E-06        -0.32358E-20         0.00000E+00
    0.10526E-06        -0.29104E-20         0.00000E+00
    0.10526E-06        -0.76601E-21         0.00000E+00
    0.10526E-06        -0.29104E-20         0.00000E+00
    0.10526E-06        -0.36380E-20         0.00000E+00
    0.10526E-06        -0.21828E-20         0.00000E+00
    0.10526E-06        -0.32539E-21         0.00000E+00
    0.10526E-06         0.38410E-22         0.00000E+00
    0.10526E-06        -0.29104E-20         0.00000E+00
    0.10526E-06        -0.50932E-20         0.00000E+00
    0.10526E-06        -0.43656E-20         0.00000E+00
    0.10711E-06        -0.24115E-20         0.00000E+00
    0.10711E-06         0.21828E-20         0.00000E+00
    0.10711E-06         0.84197E-21         0.00000E+00
    0.10711E-06        -0.43656E-20         0.00000E+00
    0.10711E-06        -0.36380E-20         0.00000E+00
    0.10711E-06        -0.43656E-20         0.00000E+00
    0.10711E-06        -0.29104E-20         0.00000E+00
    0.10711E-06         0.72760E-21         0.00000E+00
    0.10711E-06        -0.21828E-20         0.00000E+00
    0.10711E-06        -0.43656E-20         0.00000E+00
    0.10711E-06        -0.29104E-20         0.00000E+00
    0.10711E-06        -0.72760E-21         0.00000E+00
    0.10711E-06        -0.11437E-21         0.00000E+00
    0.10711E-06         0.24943E-21         0.00000E+00
    0.10711E-06         0.26610E-20         0.00000E+00
    0.10711E-06         0.31391E-20         0.00000E+00
    0.10893E-06        -0.10842E-20         0.00000E+00
    0.10893E-06        -0.30959E-20         0.00000E+00
    0.10893E-06        -0.27321E-20         0.00000E+00
    0.10893E-06        -0.41801E-20         0.00000E+00
    0.10893E-06        -0.52787E-20         0.00000E+00
    0.10893E-06        -0.38235E-20         0.00000E+00
    0.10893E-06        -0.29104E-20         0.00000E+00
    0.10893E-06        -0.35659E-21         0.00000E+00
    0.10893E-06        -0.29104E-20         0.00000E+00
    0.10893E-06        -0.43656E-20         0.00000E+00
    0.10893E-06        -0.35659E-21         0.00000E+00
    0.10893E-06         0.72760E-21         0.00000E+00
    0.10893E-06        -0.18550E-21         0.00000E+00
    0.10893E-06         0.23611E-20         0.00000E+00
    0.10893E-06         0.25466E-20         0.00000E+00
    0.10893E-06         0.00000E+00         0.00000E+00
    0.11073E-06         0.00000E+00         0.00000E+00
    0.11073E-06        -0.13433E-20         0.00000E+00
    0.11073E-06        -0.36380E-20         0.00000E+00
    0.11073E-06        -0.44775E-20         0.00000E+00
    0.11073E-06        -0.43656E-20         0.00000E+00
    0.11073E-06        -0.49812E-20         0.00000E+00
    0.11073E-06        -0.40018E-20         0.00000E+00
    0.11073E-06        -0.22947E-20         0.00000E+00
    0.11073E-06        -0.30223E-20         0.00000E+00
    0.11073E-06        -0.25466E-20         0.00000E+00
    0.11073E-06         0.12033E-20         0.00000E+00
    0.11073E-06         0.72760E-21         0.00000E+00
    0.11073E-06        -0.11194E-21         0.00000E+00
    0.11073E-06        -0.36380E-21         0.00000E+00
    0.11073E-06        -0.61566E-21         0.00000E+00
    0.11073E-06         0.00000E+00         0.00000E+00
    0.11251E-06         0.14552E-20         0.00000E+00
    0.11251E-06         0.41408E-21         0.00000E+00
    0.11251E-06        -0.43656E-20         0.00000E+00
    0.11251E-06        -0.62348E-20         0.00000E+00
    0.11251E-06        -0.43656E-20         0.00000E+00
    0.11251E-06        -0.39515E-20         0.00000E+00
    0.11251E-06        -0.36380E-20         0.00000E+00
    0.11251E-06        -0.22833E-20         0.00000E+00
    0.11251E-06        -0.11417E-20         0.00000E+00
    0.11251E-06        -0.24963E-20         0.00000E+00
    0.11251E-06         0.00000E+00         0.00000E+00
    0.11251E-06        -0.41408E-21         0.00000E+00
    0.11251E-06        -0.14552E-20         0.00000E+00
    0.11251E-06         0.11417E-20         0.00000E+00
    0.11251E-06        -0.51722E-35         0.00000E+00
    0.11251E-06         0.20822E-20         0.00000E+00
    0.11427E-06         0.00000E+00         0.00000E+00
    0.11427E-06         0.14552E-20         0.00000E+00
    0.11427E-06         0.73433E-21         0.00000E+00
    0.11427E-06        -0.32742E-20         0.00000E+00
    0.11427E-06        -0.43656E-20         0.00000E+00
    0.11427E-06        -0.18190E-20         0.00000E+00
    0.11427E-06        -0.73433E-21         0.00000E+00
    0.11427E-06        -0.39950E-20         0.00000E+00
    0.11427E-06        -0.54435E-20         0.00000E+00
    0.11427E-06        -0.18257E-20         0.00000E+00
    0.11427E-06        -0.37053E-21         0.00000E+00
    0.11427E-06        -0.36380E-21         0.00000E+00
    0.11427E-06        -0.10914E-20         0.00000E+00
    0.11427E-06         0.37053E-21         0.00000E+00
    0.11427E-06         0.14552E-20         0.00000E+00
    0.11427E-06        -0.14552E-20         0.00000E+00
    0.11599E-06         0.29104E-20         0.00000E+00
    0.11599E-06         0.21828E-20         0.00000E+00
    0.11599E-06        -0.72760E-21         0.00000E+00
    0.11599E-06        -0.18782E-20         0.00000E+00
    0.11599E-06        -0.18190E-20         0.00000E+00
    0.11599E-06        -0.25466E-20         0.00000E+00
    0.11599E-06        -0.40018E-20         0.00000E+00
    0.11599E-06        -0.39426E-20         0.00000E+00
    0.11599E-06        -0.10322E-20         0.00000E+00
    0.11599E-06         0.00000E+00         0.00000E+00
    0.11599E-06        -0.11506E-20         0.00000E+00
    0.11599E-06        -0.14552E-20         0.00000E+00
    0.11599E-06         0.00000E+00         0.00000E+00
    0.11599E-06         0.21828E-20         0.00000E+00
    0.11599E-06         0.32742E-20         0.00000E+00
    0.11599E-06         0.50932E-20         0.00000E+00
    0.11770E-06        -0.21421E-21         0.00000E+00
    0.11770E-06        -0.22899E-20         0.00000E+00
    0.11770E-06        -0.29104E-20         0.00000E+00
    0.11770E-06        -0.72760E-21         0.00000E+00
    0.11770E-06         0.10710E-21         0.00000E+00
    0.11770E-06        -0.62049E-21         0.00000E+00
    0.11770E-06        -0.21828E-20         0.00000E+00
    0.11770E-06        -0.15623E-20         0.00000E+00
    0.11770E-06        -0.10710E-21         0.00000E+00
    0.11770E-06        -0.12410E-20         0.00000E+00
    0.11770E-06        -0.51339E-21         0.00000E+00
    0.11770E-06         0.20757E-20         0.00000E+00
    0.11770E-06         0.28033E-20         0.00000E+00
    0.11770E-06         0.00000E+00         0.00000E+00
    0.11770E-06        -0.18190E-20         0.00000E+00
    0.11770E-06        -0.14552E-20         0.00000E+00
    0.11938E-06        -0.14552E-20         0.00000E+00
    0.11938E-06        -0.14552E-20         0.00000E+00
    0.11938E-06        -0.72760E-21         0.00000E+00
    0.11938E-06         0.00000E+00         0.00000E+00
    0.11938E-06         0.72760E-21         0.00000E+00
    0.11938E-06         0.72760E-21         0.00000E+00
    0.11938E-06        -0.72760E-21         0.00000E+00
    0.11938E-06        -0.72760E-21         0.00000E+00
    0.11938E-06         0.72760E-21         0.00000E+00
    0.11938E-06         0.14552E-20         0.00000E+00
    0.11938E-06         0.00000E+00         0.00000E+00
    0.11938E-06         0.14552E-20         0.00000E+00
    0.11938E-06         0.29104E-20         0.00000E+00
    0.11938E-06         0.51440E-21         0.00000E+00
    0.11938E-06        -0.10914E-20         0.00000E+00
    0.11938E-06        -0.17564E-20         0.00000E+00
    0.12103E-06        -0.14552E-20         0.00000E+00
    0.12103E-06        -0.14552E-20         0.00000E+00
    0.12103E-06        -0.16449E-20         0.00000E+00
    0.12103E-06        -0.90167E-21         0.00000E+00
    0.12103E-06         0.12811E-20         0.00000E+00
    0.12103E-06         0.90167E-21         0.00000E+00
    0.12103E-06         0.00000E+00         0.00000E+00
    0.12103E-06         0.16449E-20         0.00000E+00
    0.12103E-06         0.23725E-20         0.00000E+00
    0.12103E-06         0.53787E-21         0.00000E+00
    0.12103E-06         0.16293E-20         0.00000E+00
    0.12103E-06         0.14552E-20         0.00000E+00
    0.12103E-06         0.12655E-20         0.00000E+00
    0.12103E-06         0.10914E-20         0.00000E+00
    0.12103E-06         0.23725E-20         0.00000E+00
    0.12103E-06         0.36380E-20         0.00000E+00
    0.12265E-06        -0.14552E-20         0.00000E+00
    0.12265E-06        -0.14552E-20         0.00000E+00
    0.12265E-06         0.72760E-21         0.00000E+00
    0.12265E-06         0.14552E-20         0.00000E+00
    0.12265E-06         0.72760E-21         0.00000E+00
    0.12265E-06         0.00000E+00         0.00000E+00
    0.12265E-06         0.00000E+00         0.00000E+00
    0.12265E-06         0.72760E-21         0.00000E+00
    0.12265E-06         0.85320E-22         0.00000E+00
    0.12265E-06         0.26319E-20         0.00000E+00
    0.12265E-06         0.29104E-20         0.00000E+00
    0.12265E-06         0.64228E-21         0.00000E+00
    0.12265E-06        -0.44912E-21         0.00000E+00
    0.12265E-06         0.72760E-21         0.00000E+00
    0.12265E-06         0.14552E-20         0.00000E+00
    0.12265E-06         0.00000E+00         0.00000E+00
    0.12425E-06         0.43450E-21         0.00000E+00
    0.12425E-06         0.20362E-20         0.00000E+00
    0.12425E-06         0.87414E-21         0.00000E+00
    0.12425E-06         0.10914E-20         0.00000E+00
    0.12425E-06         0.18190E-20         0.00000E+00
    0.12425E-06         0.25466E-20         0.00000E+00
    0.12425E-06         0.18190E-20         0.00000E+00
    0.12425E-06         0.87414E-21         0.00000E+00
    0.12425E-06         0.00000E+00         0.00000E+00
    0.12425E-06         0.00000E+00         0.00000E+00
    0.12425E-06         0.72760E-21         0.00000E+00
    0.12425E-06         0.72760E-21         0.00000E+00
    0.12425E-06         0.21828E-20         0.00000E+00
    0.12425E-06         0.13086E-20         0.00000E+00
    0.12425E-06        -0.87414E-21         0.00000E+00
    0.12425E-06         0.00000E+00         0.00000E+00
    0.12582E-06        -0.14552E-20         0.00000E+00
    0.12582E-06         0.72760E-21         0.00000E+00
    0.12582E-06         0.14552E-20         0.00000E+00
    0.12582E-06         0.72760E-21         0.00000E+00
    0.12582E-06         0.29104E-20         0.00000E+00
    0.12582E-06         0.29104E-20         0.00000E+00
    0.12582E-06         0.72760E-21         0.00000E+00
    0.12582E-06         0.00000E+00         0.00000E+00
    0.12582E-06         0.21828E-20         0.00000E+00
    0.12582E-06         0.21828E-20         0.00000E+00
    0.12582E-06         0.00000E+00         0.00000E+00
    0.12582E-06         0.72760E-21         0.00000E+00
    0.12582E-06         0.72760E-21         0.00000E+00
    0.12582E-06         0.20185E-20         0.00000E+00
    0.12582E-06         0.32742E-20         0.00000E+00
    0.12582E-06         0.10562E-20         0.00000E+00
    0.12736E-06         0.29104E-20         0.00000E+00
    0.12736E-06         0.14552E-20         0.00000E+00
    0.12736E-06         0.00000E+00         0.00000E+00
    0.12736E-06         0.00000E+00         0.00000E+00
    0.12736E-06         0.00000E+00         0.00000E+00
    0.12736E-06         0.21828E-20         0.00000E+00
    0.12736E-06         0.36380E-20         0.00000E+00
    0.12736E-06         0.21828E-20         0.00000E+00
    0.12736E-06         0.00000E+00         0.00000E+00
    0.12736E-06         0.72760E-21         0.00000E+00
    0.12736E-06         0.29104E-20         0.00000E+00
    0.12736E-06         0.14552E-20         0.00000E+00
    0.12736E-06         0.00000E+00         0.00000E+00
    0.12736E-06         0.00000E+00         0.00000E+00
    0.12736E-06         0.72760E-21         0.00000E+00
    0.12736E-06         0.14552E-20         0.00000E+00
    0.12888E-06         0.14552E-20         0.00000E+00
    0.12888E-06         0.72760E-21         0.00000E+00
    0.12888E-06         0.00000E+00         0.00000E+00
    0.12888E-06         0.00000E+00         0.00000E+00
    0.12888E-06         0.00000E+00         0.00000E+00
    0.12888E-06         0.00000E+00         0.00000E+00
    0.12888E-06         0.21828E-20         0.00000E+00
    0.12888E-06         0.29104E-20         0.00000E+00
    0.12888E-06         0.29104E-20         0.00000E+00
    0.12888E-06         0.72760E-21         0.00000E+00
    0.12888E-06        -0.44650E-21         0.00000E+00
    0.12888E-06         0.28109E-21         0.00000E+00
    0.12888E-06        -0.28109E-21         0.00000E+00
    0.12888E-06         0.15379E-20         0.00000E+00
    0.12888E-06         0.18190E-20         0.00000E+00
    0.12888E-06         0.14552E-20         0.00000E+00
    0.13036E-06        -0.35306E-20         0.00000E+00
    0.13036E-06        -0.21828E-20         0.00000E+00
    0.13036E-06        -0.41751E-21         0.00000E+00
    0.13036E-06        -0.72760E-21         0.00000E+00
    0.13036E-06         0.72760E-21         0.00000E+00
    0.13036E-06         0.21828E-20         0.00000E+00
    0.13036E-06         0.14552E-20         0.00000E+00
    0.13036E-06         0.14552E-20         0.00000E+00
    0.13036E-06         0.26003E-20         0.00000E+00
    0.13036E-06         0.72760E-21         0.00000E+00
    0.13036E-06        -0.83501E-21         0.00000E+00
    0.13036E-06        -0.72760E-21         0.00000E+00
    0.13036E-06         0.41751E-21         0.00000E+00
    0.13036E-06         0.17653E-20         0.00000E+00
    0.13036E-06         0.36380E-21         0.00000E+00
    0.13036E-06        -0.20754E-20         0.00000E+00
    0.13181E-06         0.24818E-20         0.00000E+00
    0.13181E-06         0.12733E-20         0.00000E+00
    0.13181E-06        -0.18190E-21         0.00000E+00
    0.13181E-06        -0.72363E-34         0.00000E+00
    0.13181E-06         0.16371E-20         0.00000E+00
    0.13181E-06        -0.32373E-22         0.00000E+00
    0.13181E-06        -0.36380E-21         0.00000E+00
    0.13181E-06         0.14552E-20         0.00000E+00
    0.13181E-06         0.10914E-20         0.00000E+00
    0.13181E-06         0.16371E-20         0.00000E+00
    0.13181E-06        -0.36380E-21         0.00000E+00
    0.13181E-06        -0.10914E-20         0.00000E+00
    0.13181E-06         0.36380E-21         0.00000E+00
    0.13181E-06         0.14552E-20         0.00000E+00
    0.13181E-06         0.22152E-20         0.00000E+00
    0.13181E-06         0.22475E-20         0.00000E+00
    0.13323E-06        -0.21828E-20         0.00000E+00
    0.13323E-06         0.00000E+00         0.00000E+00
    0.13323E-06         0.10914E-20         0.00000E+00
    0.13323E-06         0.10914E-20         0.00000E+00
    0.13323E-06        -0.10914E-20         0.00000E+00
    0.13323E-06        -0.10914E-20         0.00000E+00
    0.13323E-06         0.10914E-20         0.00000E+00
    0.13323E-06         0.00000E+00         0.00000E+00
    0.13323E-06         0.10914E-20         0.00000E+00
    0.13323E-06         0.72760E-21         0.00000E+00
    0.13323E-06        -0.36380E-21         0.00000E+00
    0.13323E-06         0.36380E-21         0.00000E+00
    0.13323E-06         0.10914E-20         0.00000E+00
    0.13323E-06         0.21828E-20         0.00000E+00
    0.13323E-06         0.18190E-20         0.00000E+00
    0.13323E-06         0.72760E-21         0.00000E+00
    0.13462E-06        -0.11154E-20         0.00000E+00
    0.13462E-06         0.10914E-20         0.00000E+00
    0.13462E-06         0.36380E-21         0.00000E+00
    0.13462E-06        -0.16491E-20         0.00000E+00
    0.13462E-06         0.00000E+00         0.00000E+00
    0.13462E-06        -0.10914E-20         0.00000E+00
    0.13462E-06         0.00000E+00         0.00000E+00
    0.13462E-06         0.72760E-21         0.00000E+00
    0.13462E-06        -0.36380E-21         0.00000E+00
    0.13462E-06         0.00000E+00         0.00000E+00
    0.13462E-06         0.00000E+00         0.00000E+00
    0.13462E-06         0.10914E-20         0.00000E+00
    0.13462E-06         0.14552E-20         0.00000E+00
    0.13462E-06         0.36380E-21         0.00000E+00
    0.13462E-06         0.19391E-21         0.00000E+00
    0.13462E-06         0.11154E-20         0.00000E+00
    0.13598E-06         0.14552E-20         0.00000E+00
    0.13598E-06         0.72760E-21         0.00000E+00
    0.13598E-06         0.10914E-20         0.00000E+00
    0.13598E-06         0.00000E+00         0.00000E+00
    0.13598E-06        -0.18190E-20         0.00000E+00
    0.13598E-06        -0.72760E-21         0.00000E+00
    0.13598E-06         0.10914E-20         0.00000E+00
    0.13598E-06         0.10914E-20         0.00000E+00
    0.13598E-06         0.72760E-21         0.00000E+00
    0.13598E-06         0.72760E-21         0.00000E+00
    0.13598E-06         0.10914E-20         0.00000E+00
    0.13598E-06         0.72760E-21         0.00000E+00
    0.13598E-06        -0.36380E-21         0.00000E+00
    0.13598E-06         0.72760E-21         0.00000E+00
    0.13598E-06         0.14552E-20         0.00000E+00
    0.13598E-06         0.14552E-20         0.00000E+00
    0.13731E-06         0.00000E+00         0.00000E+00
    0.13731E-06         0.36380E-21         0.00000E+00
    0.13731E-06         0.10914E-20         0.00000E+00
    0.13731E-06         0.72760E-21         0.00000E+00
    0.13731E-06        -0.72760E-21         0.00000E+00
    0.13731E-06         0.36380E-21         0.00000E+00
    0.13731E-06         0.72760E-21         0.00000E+00
    0.13731E-06         0.00000E+00         0.00000E+00
    0.13731E-06         0.36380E-21         0.00000E+00
    0.13731E-06         0.10914E-20         0.00000E+00
    0.13731E-06         0.18190E-20         0.00000E+00
    0.13731E-06         0.72760E-21         0.00000E+00
    0.13731E-06         0.10914E-20         0.00000E+00
    0.13731E-06         0.14552E-20         0.00000E+00
    0.13731E-06        -0.72760E-21         0.00000E+00
    0.13731E-06        -0.21828E-20         0.00000E+00
    0.13860E-06         0.00000E+00         0.00000E+00
    0.13860E-06         0.72760E-21         0.00000E+00
    0.13860E-06         0.10914E-20         0.00000E+00
    0.13860E-06         0.36380E-21         0.00000E+00
    0.13860E-06         0.10914E-20         0.00000E+00
    0.13860E-06         0.10914E-20         0.00000E+00
    0.13860E-06        -0.72760E-21         0.00000E+00
    0.13860E-06        -0.72760E-21         0.00000E+00
    0.13860E-06         0.72760E-21         0.00000E+00
    0.13860E-06         0.14552E-20         0.00000E+00
    0.13860E-06         0.19662E-20         0.00000E+00
    0.13860E-06         0.12386E-20         0.00000E+00
    0.13860E-06         0.21659E-21         0.00000E+00
    0.13860E-06         0.18190E-21         0.00000E+00
    0.13860E-06        -0.39849E-21         0.00000E+00
    0.13860E-06         0.00000E+00         0.00000E+00
    0.13986E-06         0.19305E-20         0.00000E+00
    0.13986E-06         0.10914E-20         0.00000E+00
    0.13986E-06         0.48996E-21         0.00000E+00
    0.13986E-06         0.13290E-20         0.00000E+00
    0.13986E-06         0.96524E-21         0.00000E+00
    0.13986E-06         0.12616E-21         0.00000E+00
    0.13986E-06         0.12616E-21         0.00000E+00
    0.13986E-06        -0.72760E-21         0.00000E+00
    0.13986E-06        -0.36380E-21         0.00000E+00
    0.13986E-06         0.72760E-21         0.00000E+00
    0.13986E-06         0.36380E-21         0.00000E+00
    0.13986E-06         0.72760E-21         0.00000E+00
    0.13986E-06         0.72760E-21         0.00000E+00
    0.13986E-06         0.17632E-20         0.00000E+00
    0.13986E-06         0.72760E-21         0.00000E+00
    0.13986E-06        -0.24351E-20         0.00000E+00
    0.14109E-06         0.00000E+00         0.00000E+00
    0.14109E-06         0.72760E-21         0.00000E+00
    0.14109E-06         0.36380E-21         0.00000E+00
    0.14109E-06        -0.81082E-21         0.00000E+00
    0.14109E-06        -0.44703E-21         0.00000E+00
    0.14109E-06         0.81082E-21         0.00000E+00
    0.14109E-06         0.11746E-20         0.00000E+00
    0.14109E-06         0.14552E-20         0.00000E+00
    0.14109E-06         0.36380E-21         0.00000E+00
    0.14109E-06        -0.20841E-20         0.00000E+00
    0.14109E-06         0.36380E-21         0.00000E+00
    0.14109E-06         0.21828E-20         0.00000E+00
    0.14109E-06         0.11901E-20         0.00000E+00
    0.14109E-06        -0.54570E-21         0.00000E+00
    0.14109E-06        -0.10914E-20         0.00000E+00
    0.14109E-06         0.00000E+00         0.00000E+00
    0.14228E-06         0.26764E-20         0.00000E+00
    0.14228E-06         0.72760E-21         0.00000E+00
    0.14228E-06        -0.61062E-21         0.00000E+00
    0.14228E-06        -0.36380E-21         0.00000E+00
    0.14228E-06         0.00000E+00         0.00000E+00
    0.14228E-06         0.36380E-21         0.00000E+00
    0.14228E-06        -0.36380E-21         0.00000E+00
    0.14228E-06         0.36380E-21         0.00000E+00
    0.14228E-06         0.72760E-21         0.00000E+00
    0.14228E-06         0.72760E-21         0.00000E+00
    0.14228E-06         0.72760E-21         0.00000E+00
    0.14228E-06         0.00000E+00         0.00000E+00
    0.14228E-06        -0.72760E-21         0.00000E+00
    0.14228E-06        -0.17541E-20         0.00000E+00
    0.14228E-06        -0.11697E-21         0.00000E+00
    0.14228E-06         0.14552E-20         0.00000E+00
    0.14343E-06         0.00000E+00         0.00000E+00
    0.14343E-06         0.52058E-21         0.00000E+00
    0.14343E-06         0.15678E-21         0.00000E+00
    0.14343E-06        -0.72760E-21         0.00000E+00
    0.14343E-06        -0.10914E-20         0.00000E+00
    0.14343E-06         0.00000E+00         0.00000E+00
    0.14343E-06         0.10914E-20         0.00000E+00
    0.14343E-06         0.72760E-21         0.00000E+00
    0.14343E-06         0.20260E-20         0.00000E+00
    0.14343E-06         0.12984E-20         0.00000E+00
    0.14343E-06         0.00000E+00         0.00000E+00
    0.14343E-06        -0.93461E-21         0.00000E+00
    0.14343E-06        -0.25466E-20         0.00000E+00
    0.14343E-06        -0.88438E-21         0.00000E+00
    0.14343E-06        -0.36380E-21         0.00000E+00
    0.14343E-06        -0.14552E-20         0.00000E+00
    0.14456E-06         0.14552E-20         0.00000E+00
    0.14456E-06         0.72760E-21         0.00000E+00
    0.14456E-06        -0.14552E-20         0.00000E+00
    0.14456E-06        -0.25466E-20         0.00000E+00
    0.14456E-06        -0.10914E-20         0.00000E+00
    0.14456E-06         0.72760E-21         0.00000E+00
    0.14456E-06         0.10914E-20         0.00000E+00
    0.14456E-06         0.70702E-21         0.00000E+00
    0.14456E-06         0.16133E-21         0.00000E+00
    0.14456E-06         0.10914E-20         0.00000E+00
    0.14456E-06         0.36380E-21         0.00000E+00
    0.14456E-06        -0.70702E-21         0.00000E+00
    0.14456E-06         0.72760E-21         0.00000E+00
    0.14456E-06        -0.77583E-35         0.00000E+00
    0.14456E-06        -0.90949E-21         0.00000E+00
    0.14456E-06        -0.76874E-21         0.00000E+00
    0.14564E-06         0.00000E+00         0.00000E+00
    0.14564E-06        -0.10914E-20         0.00000E+00
    0.14564E-06        -0.22927E-20         0.00000E+00
    0.14564E-06        -0.14552E-20         0.00000E+00
    0.14564E-06         0.10995E-21         0.00000E+00
    0.14564E-06         0.14552E-20         0.00000E+00
    0.14564E-06         0.72760E-21         0.00000E+00
    0.14564E-06         0.00000E+00         0.00000E+00
    0.14564E-06         0.15651E-20         0.00000E+00
    0.14564E-06         0.12733E-20         0.00000E+00
    0.14564E-06        -0.29185E-21         0.00000E+00
    0.14564E-06        -0.72760E-21         0.00000E+00
    0.14564E-06        -0.36380E-21         0.00000E+00
    0.14564E-06         0.18190E-21         0.00000E+00
    0.14564E-06         0.00000E+00         0.00000E+00
    0.14564E-06        -0.72760E-21         0.00000E+00
    0.14669E-06         0.20766E-20         0.00000E+00
    0.14669E-06         0.49260E-21         0.00000E+00
    0.14669E-06         0.00000E+00         0.00000E+00
    0.14669E-06         0.53096E-22         0.00000E+00
    0.14669E-06        -0.23116E-20         0.00000E+00
    0.14669E-06         0.85640E-21         0.00000E+00
    0.14669E-06         0.23116E-20         0.00000E+00
    0.14669E-06         0.72760E-21         0.00000E+00
    0.14669E-06        -0.43951E-21         0.00000E+00
    0.14669E-06        -0.12977E-34         0.00000E+00
    0.14669E-06        -0.59879E-21         0.00000E+00
    0.14669E-06        -0.36380E-21         0.00000E+00
    0.14669E-06         0.54570E-21         0.00000E+00
    0.14669E-06        -0.17659E-20         0.00000E+00
    0.14669E-06        -0.36380E-21         0.00000E+00
    0.14669E-06         0.72760E-21         0.00000E+00
    0.14770E-06        -0.10733E-20         0.00000E+00
    0.14770E-06        -0.36380E-21         0.00000E+00
    0.14770E-06        -0.19095E-21         0.00000E+00
    0.14770E-06        -0.20099E-20         0.00000E+00
    0.14770E-06         0.72760E-21         0.00000E+00
    0.14770E-06         0.14552E-20         0.00000E+00
    0.14770E-06         0.10914E-20         0.00000E+00
    0.14770E-06         0.00000E+00         0.00000E+00
    0.14770E-06        -0.10914E-20         0.00000E+00
    0.14770E-06        -0.18190E-21         0.00000E+00
    0.14770E-06         0.18190E-21         0.00000E+00
    0.14770E-06         0.12823E-20         0.00000E+00
    0.14770E-06        -0.12823E-20         0.00000E+00
    0.14770E-06         0.18190E-21         0.00000E+00
    0.14770E-06         0.25391E-35         0.00000E+00
    0.14770E-06        -0.32923E-20         0.00000E+00
    0.14867E-06         0.00000E+00         0.00000E+00
    0.14867E-06         0.44008E-21         0.00000E+00
    0.14867E-06        -0.12733E-20         0.00000E+00
    0.14867E-06        -0.21681E-20         0.00000E+00
    0.14867E-06         0.62198E-21         0.00000E+00
    0.14867E-06        -0.54570E-21         0.00000E+00
    0.14867E-06        -0.15315E-20         0.00000E+00
    0.14867E-06         0.00000E+00         0.00000E+00
    0.14867E-06         0.00000E+00         0.00000E+00
    0.14867E-06        -0.54570E-21         0.00000E+00
    0.14867E-06         0.00000E+00         0.00000E+00
    0.14867E-06         0.36380E-21         0.00000E+00
    0.14867E-06         0.18190E-21         0.00000E+00
    0.14867E-06        -0.36380E-21         0.00000E+00
    0.14867E-06        -0.27285E-21         0.00000E+00
    0.14867E-06         0.10914E-20         0.00000E+00
    0.14961E-06         0.61270E-21         0.00000E+00
    0.14961E-06        -0.27285E-21         0.00000E+00
    0.14961E-06        -0.85205E-21         0.00000E+00
    0.14961E-06        -0.42125E-21         0.00000E+00
    0.14961E-06        -0.18190E-21         0.00000E+00
    0.14961E-06        -0.90949E-22         0.00000E+00
    0.14961E-06        -0.10914E-20         0.00000E+00
    0.14961E-06        -0.90949E-21         0.00000E+00
    0.14961E-06         0.21540E-21         0.00000E+00
    0.14961E-06         0.18190E-21         0.00000E+00
    0.14961E-06         0.18190E-21         0.00000E+00
    0.14961E-06         0.00000E+00         0.00000E+00
    0.14961E-06        -0.90949E-21         0.00000E+00
    0.14961E-06        -0.54570E-21         0.00000E+00
    0.14961E-06        -0.18190E-21         0.00000E+00
    0.14961E-06        -0.10914E-20         0.00000E+00
    0.15050E-06        -0.72760E-21         0.00000E+00
    0.15050E-06         0.41146E-21         0.00000E+00
    0.15050E-06         0.18190E-21         0.00000E+00
    0.15050E-06        -0.59336E-21         0.00000E+00
    0.15050E-06         0.47659E-22         0.00000E+00
    0.15050E-06        -0.54570E-21         0.00000E+00
    0.15050E-06        -0.47659E-22         0.00000E+00
    0.15050E-06         0.54570E-21         0.00000E+00
    0.15050E-06         0.47659E-22         0.00000E+00
    0.15050E-06         0.47659E-22         0.00000E+00
    0.15050E-06        -0.86620E-21         0.00000E+00
    0.15050E-06        -0.11391E-20         0.00000E+00
    0.15050E-06        -0.41146E-21         0.00000E+00
    0.15050E-06        -0.13424E-21         0.00000E+00
    0.15050E-06         0.45912E-21         0.00000E+00
    0.15050E-06         0.72760E-21         0.00000E+00
    0.15136E-06         0.36380E-21         0.00000E+00
    0.15136E-06        -0.78495E-21         0.00000E+00
    0.15136E-06        -0.45475E-21         0.00000E+00
    0.15136E-06        -0.16833E-34         0.00000E+00
    0.15136E-06         0.00000E+00         0.00000E+00
    0.15136E-06         0.78495E-21         0.00000E+00
    0.15136E-06         0.54570E-21         0.00000E+00
    0.15136E-06         0.72760E-21         0.00000E+00
    0.15136E-06        -0.36380E-21         0.00000E+00
    0.15136E-06        -0.18190E-20         0.00000E+00
    0.15136E-06        -0.12733E-20         0.00000E+00
    0.15136E-06         0.00000E+00         0.00000E+00
    0.15136E-06         0.18190E-21         0.00000E+00
    0.15136E-06        -0.27285E-21         0.00000E+00
    0.15136E-06        -0.18190E-21         0.00000E+00
    0.15136E-06         0.00000E+00         0.00000E+00
    0.15218E-06         0.36380E-21         0.00000E+00
    0.15218E-06         0.18190E-21         0.00000E+00
    0.15218E-06        -0.54570E-21         0.00000E+00
    0.15218E-06         0.00000E+00         0.00000E+00
    0.15218E-06         0.00000E+00         0.00000E+00
    0.15218E-06        -0.54570E-21         0.00000E+00
    0.15218E-06        -0.54570E-21         0.00000E+00
    0.15218E-06        -0.72760E-21         0.00000E+00
    0.15218E-06        -0.54570E-21         0.00000E+00
    0.15218E-06        -0.54570E-21         0.00000E+00
    0.15218E-06        -0.54570E-21         0.00000E+00
    0.15218E-06         0.00000E+00         0.00000E+00
    0.15218E-06         0.60849E-21         0.00000E+00
    0.15218E-06         0.62790E-22         0.00000E+00
    0.15218E-06        -0.18190E-21         0.00000E+00
    0.15218E-06        -0.36380E-21         0.00000E+00
    0.15296E-06        -0.12198E-20         0.00000E+00
    0.15296E-06         0.00000E+00         0.00000E+00
    0.15296E-06         0.42799E-21         0.00000E+00
    0.15296E-06        -0.72760E-21         0.00000E+00
    0.15296E-06        -0.18190E-21         0.00000E+00
    0.15296E-06        -0.24609E-21         0.00000E+00
    0.15296E-06        -0.72760E-21         0.00000E+00
    0.15296E-06        -0.29961E-21         0.00000E+00
    0.15296E-06        -0.72760E-21         0.00000E+00
    0.15296E-06        -0.18190E-21         0.00000E+00
    0.15296E-06         0.97368E-21         0.00000E+00
    0.15296E-06         0.00000E+00         0.00000E+00
    0.15296E-06        -0.60988E-21         0.00000E+00
    0.15296E-06        -0.45475E-21         0.00000E+00
    0.15296E-06         0.00000E+00         0.00000E+00
    0.15296E-06         0.10914E-20         0.00000E+00
    0.15370E-06         0.54570E-21         0.00000E+00
    0.15370E-06        -0.16208E-20         0.00000E+00
    0.15370E-06        -0.21665E-20         0.00000E+00
    0.15370E-06         0.16208E-20         0.00000E+00
    0.15370E-06        -0.11473E-34         0.00000E+00
    0.15370E-06        -0.20756E-20         0.00000E+00
    0.15370E-06        -0.63665E-21         0.00000E+00
    0.15370E-06        -0.72760E-21         0.00000E+00
    0.15370E-06        -0.27285E-21         0.00000E+00
    0.15370E-06         0.00000E+00         0.00000E+00
    0.15370E-06        -0.27285E-21         0.00000E+00
    0.15370E-06         0.00000E+00         0.00000E+00
    0.15370E-06         0.00000E+00         0.00000E+00
    0.15370E-06         0.16663E-20         0.00000E+00
    0.15370E-06        -0.13166E-35         0.00000E+00
    0.15370E-06        -0.37873E-20         0.00000E+00
    0.15439E-06         0.12938E-20         0.00000E+00
    0.15439E-06         0.36380E-21         0.00000E+00
    0.15439E-06        -0.10120E-21         0.00000E+00
    0.15439E-06         0.90949E-22         0.00000E+00
    0.15439E-06        -0.18190E-21         0.00000E+00
    0.15439E-06        -0.54570E-21         0.00000E+00
    0.15439E-06        -0.72760E-21         0.00000E+00
    0.15439E-06         0.28310E-21         0.00000E+00
    0.15439E-06         0.45609E-35         0.00000E+00
    0.15439E-06        -0.55595E-21         0.00000E+00
    0.15439E-06         0.00000E+00         0.00000E+00
    0.15439E-06        -0.36380E-21         0.00000E+00
    0.15439E-06        -0.12617E-21         0.00000E+00
    0.15439E-06         0.45475E-22         0.00000E+00
    0.15439E-06         0.13642E-21         0.00000E+00
    0.15439E-06         0.74811E-21         0.00000E+00
    0.15505E-06        -0.41820E-20         0.00000E+00
    0.15505E-06        -0.36380E-21         0.00000E+00
    0.15505E-06         0.99961E-21         0.00000E+00
    0.15505E-06        -0.81855E-21         0.00000E+00
    0.15505E-06        -0.27285E-21         0.00000E+00
    0.15505E-06        -0.18190E-21         0.00000E+00
    0.15505E-06         0.27285E-21         0.00000E+00
    0.15505E-06         0.27285E-21         0.00000E+00
    0.15505E-06        -0.18190E-21         0.00000E+00
    0.15505E-06        -0.36380E-21         0.00000E+00
    0.15505E-06        -0.11815E-20         0.00000E+00
    0.15505E-06        -0.11360E-20         0.00000E+00
    0.15505E-06        -0.27285E-21         0.00000E+00
    0.15505E-06         0.18190E-21         0.00000E+00
    0.15505E-06        -0.18190E-21         0.00000E+00
    0.15505E-06        -0.90949E-21         0.00000E+00
    0.15566E-06         0.54570E-21         0.00000E+00
    0.15566E-06        -0.13532E-20         0.00000E+00
    0.15566E-06         0.13642E-21         0.00000E+00
    0.15566E-06         0.16261E-20         0.00000E+00
    0.15566E-06        -0.18190E-21         0.00000E+00
    0.15566E-06        -0.90949E-22         0.00000E+00
    0.15566E-06        -0.13642E-21         0.00000E+00
    0.15566E-06        -0.31832E-21         0.00000E+00
    0.15566E-06        -0.31832E-21         0.00000E+00
    0.15566E-06        -0.31832E-21         0.00000E+00
    0.15566E-06        -0.22173E-20         0.00000E+00
    0.15566E-06        -0.54570E-21         0.00000E+00
    0.15566E-06         0.14442E-20         0.00000E+00
    0.15566E-06        -0.18989E-20         0.00000E+00
    0.15566E-06        -0.15351E-20         0.00000E+00
    0.15566E-06         0.81855E-21         0.00000E+00
    0.15624E-06         0.18190E-21         0.00000E+00
    0.15624E-06         0.90949E-22         0.00000E+00
    0.15624E-06         0.90949E-22         0.00000E+00
    0.15624E-06        -0.90949E-22         0.00000E+00
    0.15624E-06        -0.18190E-21         0.00000E+00
    0.15624E-06        -0.18190E-21         0.00000E+00
    0.15624E-06        -0.18190E-21         0.00000E+00
    0.15624E-06        -0.27285E-21         0.00000E+00
    0.15624E-06        -0.36380E-21         0.00000E+00
    0.15624E-06        -0.22737E-21         0.00000E+00
    0.15624E-06        -0.22737E-21         0.00000E+00
    0.15624E-06        -0.22737E-21         0.00000E+00
    0.15624E-06        -0.18190E-21         0.00000E+00
    0.15624E-06         0.33655E-21         0.00000E+00
    0.15624E-06        -0.13642E-21         0.00000E+00
    0.15624E-06        -0.10369E-20         0.00000E+00
    0.15677E-06        -0.10004E-20         0.00000E+00
    0.15677E-06        -0.90949E-22         0.00000E+00
    0.15677E-06        -0.68212E-22         0.00000E+00
    0.15677E-06        -0.29559E-21         0.00000E+00
    0.15677E-06        -0.20464E-21         0.00000E+00
    0.15677E-06        -0.68212E-22         0.00000E+00
    0.15677E-06        -0.47748E-21         0.00000E+00
    0.15677E-06        -0.32969E-21         0.00000E+00
    0.15677E-06        -0.56843E-22         0.00000E+00
    0.15677E-06        -0.35243E-21         0.00000E+00
    0.15677E-06         0.17053E-21         0.00000E+00
    0.15677E-06         0.29559E-21         0.00000E+00
    0.15677E-06         0.15916E-21         0.00000E+00
    0.15677E-06        -0.18190E-21         0.00000E+00
    0.15677E-06         0.31832E-21         0.00000E+00
    0.15677E-06         0.68212E-21         0.00000E+00
    0.15702E-06         0.33471E-20         0.00000E+00
    0.15702E-06        -0.16735E-20         0.00000E+00
    0.15702E-06        -0.16735E-20         0.00000E+00
    0.15702E-06         0.16735E-20         0.00000E+00
    0.15702E-06         0.16735E-20         0.00000E+00
    0.15702E-06        -0.16735E-20         0.00000E+00
    0.15702E-06        -0.16735E-20         0.00000E+00
    0.15702E-06        -0.22569E-35         0.00000E+00
    0.15702E-06        -0.16735E-20         0.00000E+00
    0.15702E-06         0.16735E-20         0.00000E+00
    0.15702E-06         0.16735E-20         0.00000E+00
    0.15702E-06        -0.16735E-20         0.00000E+00
    0.15702E-06        -0.18808E-35         0.00000E+00
    0.15702E-06         0.16735E-20         0.00000E+00
    0.15702E-06         0.00000E+00         0.00000E+00
    0.15702E-06         0.00000E+00         0.00000E+00
CELL_DATA       1350
TENSORS stressef double 
    0.92647E+05         0.99385E-10         0.00000E+00
    0.99385E-10        -0.45071E+06         0.00000E+00
    0.00000E+00         0.00000E+00        -0.71614E+05
 
    0.92647E+05        -0.90350E-11         0.00000E+00
   -0.90350E-11        -0.45071E+06         0.00000E+00
    0.00000E+00         0.00000E+00        -0.71614E+05
 
    0.92647E+05         0.13553E-09         0.00000E+00
    0.13553E-09        -0.45071E+06         0.00000E+00
    0.00000E+00         0.00000E+00        -0.71614E+05
 
    0.92647E+05         0.18070E-09         0.00000E+00
    0.18070E-09        -0.45071E+06         0.00000E+00
    0.00000E+00         0.00000E+00        -0.71614E+05
 
    0.92647E+05         0.40658E-10         0.00000E+00
    0.40658E-10        -0.45071E+06         0.00000E+00
    0.00000E+00         0.00000E+00        -0.71614E+05
 
    0.92647E+05         0.22588E-10         0.00000E+00
    0.22588E-10        -0.45071E+06         0.00000E+00
    0.00000E+00         0.00000E+00        -0.71614E+05
 
    0.92647E+05         0.31623E-10         0.00000E+00
    0.31623E-10        -0.45071E+06         0.00000E+00
    0.00000E+00         0.00000E+00        -0.71614E+05
 
    0.92647E+05         0.40658E-10         0.00000E+00
    0.40658E-10        -0.45071E+06         0.00000E+00
    0.00000E+00         0.00000E+00        -0.71614E+05
 
    0.92647E+05        -0.58728E-10         0.00000E+00
   -0.58728E-10        -0.45071E+06         0.00000E+00
    0.00000E+00         0.00000E+00        -0.71614E+05
 
    0.92647E+05        -0.85833E-10         0.00000E+00
   -0.85833E-10        -0.45071E+06         0.00000E+00
    0.00000E+00         0.00000E+00        -0.71614E+05
 
    0.92647E+05         0.22588E-10         0.00000E+00
    0.22588E-10        -0.45071E+06         0.00000E+00
    0.00000E+00         0.00000E+00        -0.71614E+05
 
    0.92647E+05        -0.31623E-10         0.00000E+00
   -0.31623E-10        -0.45071E+06         0.00000E+00
    0.00000E+00         0.00000E+00        -0.71614E+05
 
    0.92647E+05        -0.20329E-10         0.00000E+00
   -0.20329E-10        -0.45071E+06         0.00000E+00
    0.00000E+00         0.00000E+00        -0.71614E+05
 
    0.92647E+05         0.10164E-10         0.00000E+00
    0.10164E-10        -0.45071E+06         0.00000E+00
    0.00000E+00         0.00000E+00        -0.71614E+05
 
    0.92647E+05         0.00000E+00         0.00000E+00
    0.00000E+00        -0.45071E+06         0.00000E+00
    0.00000E+00         0.00000E+00        -0.71614E+05
 
    0.92620E+05        -0.19877E-09         0.00000E+00
   -0.19877E-09        -0.45072E+06         0.00000E+00
    0.00000E+00         0.00000E+00        -0.71620E+05
 
    0.92620E+05        -0.72280E-10         0.00000E+00
   -0.72280E-10        -0.45072E+06         0.00000E+00
    0.00000E+00         0.00000E+00        -0.71620E+05
 
    0.92620E+05         0.36140E-10         0.00000E+00
    0.36140E-10        -0.45072E+06         0.00000E+00
    0.00000E+00         0.00000E+00        -0.71620E+05
 
    0.92620E+05        -0.81315E-10         0.00000E+00
   -0.81315E-10        -0.45072E+06         0.00000E+00
    0.00000E+00         0.00000E+00        -0.71620E+05
 
    0.92620E+05        -0.27105E-10         0.00000E+00
   -0.27105E-10        -0.45072E+06         0.00000E+00
    0.00000E+00         0.00000E+00        -0.71620E+05
 
    0.92620E+05         0.18070E-10         0.00000E+00
    0.18070E-10        -0.45072E+06         0.00000E+00
    0.00000E+00         0.00000E+00        -0.71620E+05
 
    0.92620E+05         0.67763E-10         0.00000E+00
    0.67763E-10        -0.45072E+06         0.00000E+00
    0.00000E+00         0.00000E+00        -0.71620E+05
 
    0.92620E+05        -0.31623E-10         0.00000E+00
   -0.31623E-10        -0.45072E+06         0.00000E+00
    0.00000E+00         0.00000E+00        -0.71620E+05
 
    0.92620E+05         0.27105E-10         0.00000E+00
    0.27105E-10        -0.45072E+06         0.00000E+00
    0.00000E+00         0.00000E+00        -0.71620E+05
 
    0.92620E+05         0.45175E-11         0.00000E+00
    0.45175E-11        -0.45072E+06         0.00000E+00
    0.00000E+00         0.00000E+00        -0.71620E+05
 
    0.92620E+05        -0.33881E-10         0.00000E+00
   -0.33881E-10        -0.45072E+06         0.00000E+00
    0.00000E+00         0.00000E+00        -0.71620E+05
 
    0.92620E+05        -0.40658E-10         0.00000E+00
   -0.40658E-10        -0.45072E+06         0.00000E+00
    0.00000E+00         0.00000E+00        -0.71620E+05
 
    0.92620E+05        -0.38399E-10         0.00000E+00
   -0.38399E-10        -0.45072E+06         0.00000E+00
    0.00000E+00         0.00000E+00        -0.71620E+05
 
    0.92620E+05        -0.13553E-10         0.00000E+00
   -0.13553E-10        -0.45072E+06         0.00000E+00
    0.00000E+00         0.00000E+00        -0.71620E+05
 
    0.92620E+05         0.22588E-10         0.00000E+00
    0.22588E-10        -0.45072E+06         0.00000E+00
    0.00000E+00         0.00000E+00        -0.71620E+05
 
    0.92568E+05         0.00000E+00         0.00000E+00
    0.00000E+00        -0.45073E+06         0.00000E+00
    0.00000E+00         0.00000E+00        -0.71633E+05
 
    0.92568E+05         0.54210E-10         0.00000E+00
    0.54210E-10        -0.45073E+06         0.00000E+00
    0.00000E+00         0.00000E+00        -0.71633E+05
 
    0.92568E+05        -0.14456E-09         0.00000E+00
   -0.14456E-09        -0.45073E+06         0.00000E+00
    0.00000E+00         0.00000E+00        -0.71633E+05
 
    0.92568E+05        -0.23491E-09         0.00000E+00
   -0.23491E-09        -0.45073E+06         0.00000E+00
    0.00000E+00         0.00000E+00        -0.71633E+05
 
    0.92568E+05         0.27105E-10         0.00000E+00
    0.27105E-10        -0.45073E+06         0.00000E+00
    0.00000E+00         0.00000E+00        -0.71633E+05
 
    0.92568E+05         0.13553E-10         0.00000E+00
    0.13553E-10        -0.45073E+06         0.00000E+00
    0.00000E+00         0.00000E+00        -0.71633E+05
 
    0.92568E+05        -0.22588E-10         0.00000E+00
   -0.22588E-10        -0.45073E+06         0.00000E+00
    0.00000E+00         0.00000E+00        -0.71633E+05
 
    0.92568E+05         0.67763E-10         0.00000E+00
    0.67763E-10        -0.45073E+06         0.00000E+00
    0.00000E+00         0.00000E+00        -0.71633E+05
 
    0.92568E+05        -0.90350E-10         0.00000E+00
   -0.90350E-10        -0.45073E+06         0.00000E+00
    0.00000E+00         0.00000E+00        -0.71633E+05
 
    0.92568E+05         0.90350E-11         0.00000E+00
    0.90350E-11        -0.45073E+06         0.00000E+00
    0.00000E+00         0.00000E+00        -0.71633E+05
 
    0.92568E+05        -0.45175E-11         0.00000E+00
   -0.45175E-11        -0.45073E+06         0.00000E+00
    0.00000E+00         0.00000E+00        -0.71633E+05
 
    0.92568E+05        -0.27105E-10         0.00000E+00
   -0.27105E-10        -0.45073E+06         0.00000E+00
    0.00000E+00         0.00000E+00        -0.71633E+05
 
    0.92568E+05        -0.24846E-10         0.00000E+00
   -0.24846E-10        -0.45073E+06         0.00000E+00
    0.00000E+00         0.00000E+00        -0.71633E+05
 
    0.92568E+05         0.22588E-11         0.00000E+00
    0.22588E-11        -0.45073E+06         0.00000E+00
    0.00000E+00         0.00000E+00        -0.71633E+05
 
    0.92568E+05        -0.20329E-10         0.00000E+00
   -0.20329E-10        -0.45073E+06         0.00000E+00
    0.00000E+00         0.00000E+00        -0.71633E+05
 
    0.92490E+05         0.72280E-10         0.00000E+00
    0.72280E-10        -0.45075E+06         0.00000E+00
    0.00000E+00         0.00000E+00        -0.71653E+05
 
    0.92490E+05         0.72280E-10         0.00000E+00
    0.72280E-10        -0.45075E+06         0.00000E+00
    0.00000E+00         0.00000E+00        -0.71653E+05
 
    0.92490E+05         0.90350E-10         0.00000E+00
    0.90350E-10        -0.45075E+06         0.00000E+00
    0.00000E+00         0.00000E+00        -0.71653E+05
 
    0.92490E+05         0.27105E-10         0.00000E+00
    0.27105E-10        -0.45075E+06         0.00000E+00
    0.00000E+00         0.00000E+00        -0.71653E+05
 
    0.92490E+05         0.22588E-10         0.00000E+00
    0.22588E-10        -0.45075E+06         0.00000E+00
    0.00000E+00         0.00000E+00        -0.71653E+05
 
    0.92490E+05         0.45175E-11         0.00000E+00
    0.45175E-11        -0.45075E+06         0.00000E+00
    0.00000E+00         0.00000E+00        -0.71653E+05
 
    0.92490E+05        -0.99385E-10         0.00000E+00
   -0.99385E-10        -0.45075E+06         0.00000E+00
    0.00000E+00         0.00000E+00        -0.71653E+05
 
    0.92490E+05        -0.63245E-10         0.00000E+00
   -0.63245E-10        -0.45075E+06         0.00000E+00
    0.00000E+00         0.00000E+00        -0.71653E+05
 
    0.92490E+05        -0.67763E-10         0.00000E+00
   -0.67763E-10        -0.45075E+06         0.00000E+00
    0.00000E+00         0.00000E+00        -0.71653E+05
 
    0.92490E+05        -0.90350E-11         0.00000E+00
   -0.90350E-11        -0.45075E+06         0.00000E+00
    0.00000E+00         0.00000E+00        -0.71653E+05
 
    0.92490E+05        -0.81315E-10         0.00000E+00
   -0.81315E-10        -0.45075E+06         0.00000E+00
    0.00000E+00         0.00000E+00        -0.71653E+05
 
    0.92490E+05         0.67763E-10         0.00000E+00
    0.67763E-10        -0.45075E+06         0.00000E+00
    0.00000E+00         0.00000E+00        -0.71653E+05
 
    0.92490E+05         0.67763E-10         0.00000E+00
    0.67763E-10        -0.45075E+06         0.00000E+00
    0.00000E+00         0.00000E+00        -0.71653E+05
 
    0.92490E+05        -0.60986E-10         0.00000E+00
   -0.60986E-10        -0.45075E+06         0.00000E+00
    0.00000E+00         0.00000E+00        -0.71653E+05
 
    0.92490E+05         0.00000E+00         0.00000E+00
    0.00000E+00        -0.45075E+06         0.00000E+00
    0.00000E+00         0.00000E+00        -0.71653E+05
 
    0.92385E+05         0.15360E-09         0.00000E+00
    0.15360E-09        -0.45078E+06         0.00000E+00
    0.00000E+00         0.00000E+00        -0.71679E+05
 
    0.92385E+05         0.27105E-10         0.00000E+00
    0.27105E-10        -0.45078E+06         0.00000E+00
    0.00000E+00         0.00000E+00        -0.71679E+05
 
    0.92385E+05         0.81315E-10         0.00000E+00
    0.81315E-10        -0.45078E+06         0.00000E+00
    0.00000E+00         0.00000E+00        -0.71679E+05
 
    0.92385E+05         0.81315E-10         0.00000E+00
    0.81315E-10        -0.45078E+06         0.00000E+00
    0.00000E+00         0.00000E+00        -0.71679E+05
 
    0.92385E+05        -0.54210E-10         0.00000E+00
   -0.54210E-10        -0.45078E+06         0.00000E+00
    0.00000E+00         0.00000E+00        -0.71679E+05
 
    0.92385E+05        -0.17167E-09         0.00000E+00
   -0.17167E-09        -0.45078E+06         0.00000E+00
    0.00000E+00         0.00000E+00        -0.71679E+05
 
    0.92385E+05        -0.14908E-09         0.00000E+00
   -0.14908E-09        -0.45078E+06         0.00000E+00
    0.00000E+00         0.00000E+00        -0.71679E+05
 
    0.92385E+05         0.90350E-10         0.00000E+00
    0.90350E-10        -0.45078E+06         0.00000E+00
    0.00000E+00         0.00000E+00        -0.71679E+05
 
    0.92385E+05        -0.13553E-10         0.00000E+00
   -0.13553E-10        -0.45078E+06         0.00000E+00
    0.00000E+00         0.00000E+00        -0.71679E+05
 
    0.92385E+05         0.58728E-10         0.00000E+00
    0.58728E-10        -0.45078E+06         0.00000E+00
    0.00000E+00         0.00000E+00        -0.71679E+05
 
    0.92385E+05         0.36140E-10         0.00000E+00
    0.36140E-10        -0.45078E+06         0.00000E+00
    0.00000E+00         0.00000E+00        -0.71679E+05
 
    0.92385E+05        -0.76798E-10         0.00000E+00
   -0.76798E-10        -0.45078E+06         0.00000E+00
    0.00000E+00         0.00000E+00        -0.71679E+05
 
    0.92385E+05         0.18748E-09         0.00000E+00
    0.18748E-09        -0.45078E+06         0.00000E+00
    0.00000E+00         0.00000E+00        -0.71679E+05
 
    0.92385E+05        -0.54210E-10         0.00000E+00
   -0.54210E-10        -0.45078E+06         0.00000E+00
    0.00000E+00         0.00000E+00        -0.71679E+05
 
    0.92385E+05         0.31623E-10         0.00000E+00
    0.31623E-10        -0.45078E+06         0.00000E+00
    0.00000E+00         0.00000E+00        -0.71679E+05
 
    0.92254E+05        -0.23491E-09         0.00000E+00
   -0.23491E-09        -0.45081E+06         0.00000E+00
    0.00000E+00         0.00000E+00        -0.71712E+05
 
    0.92254E+05        -0.18974E-09         0.00000E+00
   -0.18974E-09        -0.45081E+06         0.00000E+00
    0.00000E+00         0.00000E+00        -0.71712E+05
 
    0.92254E+05        -0.25298E-09         0.00000E+00
   -0.25298E-09        -0.45081E+06         0.00000E+00
    0.00000E+00         0.00000E+00        -0.71712E+05
 
    0.92254E+05        -0.45175E-10         0.00000E+00
   -0.45175E-10        -0.45081E+06         0.00000E+00
    0.00000E+00         0.00000E+00        -0.71712E+05
 
    0.92254E+05        -0.45175E-10         0.00000E+00
   -0.45175E-10        -0.45081E+06         0.00000E+00
    0.00000E+00         0.00000E+00        -0.71712E+05
 
    0.92254E+05         0.23491E-09         0.00000E+00
    0.23491E-09        -0.45081E+06         0.00000E+00
    0.00000E+00         0.00000E+00        -0.71712E+05
 
    0.92254E+05        -0.90350E-10         0.00000E+00
   -0.90350E-10        -0.45081E+06         0.00000E+00
    0.00000E+00         0.00000E+00        -0.71712E+05
 
    0.92254E+05        -0.19877E-09         0.00000E+00
   -0.19877E-09        -0.45081E+06         0.00000E+00
    0.00000E+00         0.00000E+00        -0.71712E+05
 
    0.92254E+05        -0.45175E-10         0.00000E+00
   -0.45175E-10        -0.45081E+06         0.00000E+00
    0.00000E+00         0.00000E+00        -0.71712E+05
 
    0.92254E+05        -0.58728E-10         0.00000E+00
   -0.58728E-10        -0.45081E+06         0.00000E+00
    0.00000E+00         0.00000E+00        -0.71712E+05
 
    0.92254E+05        -0.31623E-10         0.00000E+00
   -0.31623E-10        -0.45081E+06         0.00000E+00
    0.00000E+00         0.00000E+00        -0.71712E+05
 
    0.92254E+05        -0.36140E-10         0.00000E+00
   -0.36140E-10        -0.45081E+06         0.00000E+00
    0.00000E+00         0.00000E+00        -0.71712E+05
 
    0.92254E+05         0.58728E-10         0.00000E+00
    0.58728E-10        -0.45081E+06         0.00000E+00
    0.00000E+00         0.00000E+00        -0.71712E+05
 
    0.92254E+05        -0.67763E-10         0.00000E+00
   -0.67763E-10        -0.45081E+06         0.00000E+00
    0.00000E+00         0.00000E+00        -0.71712E+05
 
    0.92254E+05        -0.45175E-11         0.00000E+00
   -0.45175E-11        -0.45081E+06         0.00000E+00
    0.00000E+00         0.00000E+00        -0.71712E+05
 
    0.92098E+05         0.13553E-09         0.00000E+00
    0.13553E-09        -0.45085E+06         0.00000E+00
    0.00000E+00         0.00000E+00        -0.71751E+05
 
    0.92098E+05        -0.18070E-10         0.00000E+00
   -0.18070E-10        -0.45085E+06         0.00000E+00
    0.00000E+00         0.00000E+00        -0.71751E+05
 
    0.92098E+05        -0.25298E-09         0.00000E+00
   -0.25298E-09        -0.45085E+06         0.00000E+00
    0.00000E+00         0.00000E+00        -0.71751E+05
 
    0.92098E+05         0.72280E-10         0.00000E+00
    0.72280E-10        -0.45085E+06         0.00000E+00
    0.00000E+00         0.00000E+00        -0.71751E+05
 
    0.92098E+05        -0.15360E-09         0.00000E+00
   -0.15360E-09        -0.45085E+06         0.00000E+00
    0.00000E+00         0.00000E+00        -0.71751E+05
 
    0.92098E+05        -0.63245E-10         0.00000E+00
   -0.63245E-10        -0.45085E+06         0.00000E+00
    0.00000E+00         0.00000E+00        -0.71751E+05
 
    0.92098E+05         0.00000E+00         0.00000E+00
    0.00000E+00        -0.45085E+06         0.00000E+00
    0.00000E+00         0.00000E+00        -0.71751E+05
 
    0.92098E+05        -0.90350E-10         0.00000E+00
   -0.90350E-10        -0.45085E+06         0.00000E+00
    0.00000E+00         0.00000E+00        -0.71751E+05
 
    0.92098E+05        -0.54210E-10         0.00000E+00
   -0.54210E-10        -0.45085E+06         0.00000E+00
    0.00000E+00         0.00000E+00        -0.71751E+05
 
    0.92098E+05        -0.45175E-10         0.00000E+00
   -0.45175E-10        -0.45085E+06         0.00000E+00
    0.00000E+00         0.00000E+00        -0.71751E+05
 
    0.92098E+05        -0.85833E-10         0.00000E+00
   -0.85833E-10        -0.45085E+06         0.00000E+00
    0.00000E+00         0.00000E+00        -0.71751E+05
 
    0.92098E+05         0.81315E-10         0.00000E+00
    0.81315E-10        -0.45085E+06         0.00000E+00
    0.00000E+00         0.00000E+00        -0.71751E+05
 
    0.92098E+05        -0.63245E-10         0.00000E+00
   -0.63245E-10        -0.45085E+06         0.00000E+00
    0.00000E+00         0.00000E+00        -0.71751E+05
 
    0.92098E+05        -0.13553E-09         0.00000E+00
   -0.13553E-09        -0.45085E+06         0.00000E+00
    0.00000E+00         0.00000E+00        -0.71751E+05
 
    0.92098E+05         0.40658E-10         0.00000E+00
    0.40658E-10        -0.45085E+06         0.00000E+00
    0.00000E+00         0.00000E+00        -0.71751E+05
 
    0.91915E+05        -0.10842E-09         0.00000E+00
   -0.10842E-09        -0.45090E+06         0.00000E+00
    0.00000E+00         0.00000E+00        -0.71796E+05
 
    0.91915E+05         0.12649E-09         0.00000E+00
    0.12649E-09        -0.45090E+06         0.00000E+00
    0.00000E+00         0.00000E+00        -0.71796E+05
 
    0.91915E+05        -0.14456E-09         0.00000E+00
   -0.14456E-09        -0.45090E+06         0.00000E+00
    0.00000E+00         0.00000E+00        -0.71796E+05
 
    0.91915E+05        -0.18974E-09         0.00000E+00
   -0.18974E-09        -0.45090E+06         0.00000E+00
    0.00000E+00         0.00000E+00        -0.71796E+05
 
    0.91915E+05        -0.63245E-10         0.00000E+00
   -0.63245E-10        -0.45090E+06         0.00000E+00
    0.00000E+00         0.00000E+00        -0.71796E+05
 
    0.91915E+05        -0.13553E-09         0.00000E+00
   -0.13553E-09        -0.45090E+06         0.00000E+00
    0.00000E+00         0.00000E+00        -0.71796E+05
 
    0.91915E+05        -0.90350E-11         0.00000E+00
   -0.90350E-11        -0.45090E+06         0.00000E+00
    0.00000E+00         0.00000E+00        -0.71796E+05
 
    0.91915E+05        -0.90350E-11         0.00000E+00
   -0.90350E-11        -0.45090E+06         0.00000E+00
    0.00000E+00         0.00000E+00        -0.71796E+05
 
    0.91915E+05        -0.99385E-10         0.00000E+00
   -0.99385E-10        -0.45090E+06         0.00000E+00
    0.00000E+00         0.00000E+00        -0.71796E+05
 
    0.91915E+05        -0.40658E-10         0.00000E+00
   -0.40658E-10        -0.45090E+06         0.00000E+00
    0.00000E+00         0.00000E+00        -0.71796E+05
 
    0.91915E+05        -0.10390E-09         0.00000E+00
   -0.10390E-09        -0.45090E+06         0.00000E+00
    0.00000E+00         0.00000E+00        -0.71796E+05
 
    0.91915E+05        -0.13553E-10         0.00000E+00
   -0.13553E-10        -0.45090E+06         0.00000E+00
    0.00000E+00         0.00000E+00        -0.71796E+05
 
    0.91915E+05        -0.18070E-10         0.00000E+00
   -0.18070E-10        -0.45090E+06         0.00000E+00
    0.00000E+00         0.00000E+00        -0.71796E+05
 
    0.91915E+05        -0.45175E-10         0.00000E+00
   -0.45175E-10        -0.45090E+06         0.00000E+00
    0.00000E+00         0.00000E+00        -0.71796E+05
 
    0.91915E+05        -0.27105E-10         0.00000E+00
   -0.27105E-10        -0.45090E+06         0.00000E+00
    0.00000E+00         0.00000E+00        -0.71796E+05
 
    0.91706E+05         0.37044E-09         0.00000E+00
    0.37044E-09        -0.45095E+06         0.00000E+00
    0.00000E+00         0.00000E+00        -0.71849E+05
 
    0.91706E+05        -0.18070E-10         0.00000E+00
   -0.18070E-10        -0.45095E+06         0.00000E+00
    0.00000E+00         0.00000E+00        -0.71849E+05
 
    0.91706E+05        -0.10842E-09         0.00000E+00
   -0.10842E-09        -0.45095E+06         0.00000E+00
    0.00000E+00         0.00000E+00        -0.71849E+05
 
    0.91706E+05        -0.11746E-09         0.00000E+00
   -0.11746E-09        -0.45095E+06         0.00000E+00
    0.00000E+00         0.00000E+00        -0.71849E+05
 
    0.91706E+05         0.12649E-09         0.00000E+00
    0.12649E-09        -0.45095E+06         0.00000E+00
    0.00000E+00         0.00000E+00        -0.71849E+05
 
    0.91706E+05         0.36140E-10         0.00000E+00
    0.36140E-10        -0.45095E+06         0.00000E+00
    0.00000E+00         0.00000E+00        -0.71849E+05
 
    0.91706E+05         0.22588E-09         0.00000E+00
    0.22588E-09        -0.45095E+06         0.00000E+00
    0.00000E+00         0.00000E+00        -0.71849E+05
 
    0.91706E+05        -0.63245E-10         0.00000E+00
   -0.63245E-10        -0.45095E+06         0.00000E+00
    0.00000E+00         0.00000E+00        -0.71849E+05
 
    0.91706E+05         0.18974E-09         0.00000E+00
    0.18974E-09        -0.45095E+06         0.00000E+00
    0.00000E+00         0.00000E+00        -0.71849E+05
 
    0.91706E+05        -0.76798E-10         0.00000E+00
   -0.76798E-10        -0.45095E+06         0.00000E+00
    0.00000E+00         0.00000E+00        -0.71849E+05
 
    0.91706E+05        -0.40658E-10         0.00000E+00
   -0.40658E-10        -0.45095E+06         0.00000E+00
    0.00000E+00         0.00000E+00        -0.71849E+05
 
    0.91706E+05         0.54210E-10         0.00000E+00
    0.54210E-10        -0.45095E+06         0.00000E+00
    0.00000E+00         0.00000E+00        -0.71849E+05
 
    0.91706E+05         0.72280E-10         0.00000E+00
    0.72280E-10        -0.45095E+06         0.00000E+00
    0.00000E+00         0.00000E+00        -0.71849E+05
 
    0.91706E+05        -0.90350E-11         0.00000E+00
   -0.90350E-11        -0.45095E+06         0.00000E+00
    0.00000E+00         0.00000E+00        -0.71849E+05
 
    0.91706E+05        -0.27105E-10         0.00000E+00
   -0.27105E-10        -0.45095E+06         0.00000E+00
    0.00000E+00         0.00000E+00        -0.71849E+05
 
    0.91471E+05        -0.63245E-10         0.00000E+00
   -0.63245E-10        -0.45101E+06         0.00000E+00
    0.00000E+00         0.00000E+00        -0.71907E+05
 
    0.91471E+05        -0.20781E-09         0.00000E+00
   -0.20781E-09        -0.45101E+06         0.00000E+00
    0.00000E+00         0.00000E+00        -0.71907E+05
 
    0.91471E+05        -0.90350E-11         0.00000E+00
   -0.90350E-11        -0.45101E+06         0.00000E+00
    0.00000E+00         0.00000E+00        -0.71907E+05
 
    0.91471E+05        -0.99385E-10         0.00000E+00
   -0.99385E-10        -0.45101E+06         0.00000E+00
    0.00000E+00         0.00000E+00        -0.71907E+05
 
    0.91471E+05         0.13553E-09         0.00000E+00
    0.13553E-09        -0.45101E+06         0.00000E+00
    0.00000E+00         0.00000E+00        -0.71907E+05
 
    0.91471E+05         0.00000E+00         0.00000E+00
    0.00000E+00        -0.45101E+06         0.00000E+00
    0.00000E+00         0.00000E+00        -0.71907E+05
 
    0.91471E+05         0.27105E-10         0.00000E+00
    0.27105E-10        -0.45101E+06         0.00000E+00
    0.00000E+00         0.00000E+00        -0.71907E+05
 
    0.91471E+05        -0.30719E-09         0.00000E+00
   -0.30719E-09        -0.45101E+06         0.00000E+00
    0.00000E+00         0.00000E+00        -0.71907E+05
 
    0.91471E+05         0.81315E-10         0.00000E+00
    0.81315E-10        -0.45101E+06         0.00000E+00
    0.00000E+00         0.00000E+00        -0.71907E+05
 
    0.91471E+05         0.27105E-10         0.00000E+00
    0.27105E-10        -0.45101E+06         0.00000E+00
    0.00000E+00         0.00000E+00        -0.71907E+05
 
    0.91471E+05         0.00000E+00         0.00000E+00
    0.00000E+00        -0.45101E+06         0.00000E+00
    0.00000E+00         0.00000E+00        -0.71907E+05
 
    0.91471E+05         0.20781E-09         0.00000E+00
    0.20781E-09        -0.45101E+06         0.00000E+00
    0.00000E+00         0.00000E+00        -0.71907E+05
 
    0.91471E+05        -0.11746E-09         0.00000E+00
   -0.11746E-09        -0.45101E+06         0.00000E+00
    0.00000E+00         0.00000E+00        -0.71907E+05
 
    0.91471E+05        -0.27105E-10         0.00000E+00
   -0.27105E-10        -0.45101E+06         0.00000E+00
    0.00000E+00         0.00000E+00        -0.71907E+05
 
    0.91471E+05         0.00000E+00         0.00000E+00
    0.00000E+00        -0.45101E+06         0.00000E+00
    0.00000E+00         0.00000E+00        -0.71907E+05
 
    0.91210E+05         0.14456E-09         0.00000E+00
    0.14456E-09        -0.45107E+06         0.00000E+00
    0.00000E+00         0.00000E+00        -0.71973E+05
 
    0.91210E+05         0.81315E-10         0.00000E+00
    0.81315E-10        -0.45107E+06         0.00000E+00
    0.00000E+00         0.00000E+00        -0.71973E+05
 
    0.91210E+05         0.18070E-10         0.00000E+00
    0.18070E-10        -0.45107E+06         0.00000E+00
    0.00000E+00         0.00000E+00        -0.71973E+05
 
    0.91210E+05         0.36140E-10         0.00000E+00
    0.36140E-10        -0.45107E+06         0.00000E+00
    0.00000E+00         0.00000E+00        -0.71973E+05
 
    0.91210E+05         0.16263E-09         0.00000E+00
    0.16263E-09        -0.45107E+06         0.00000E+00
    0.00000E+00         0.00000E+00        -0.71973E+05
 
    0.91210E+05         0.18974E-09         0.00000E+00
    0.18974E-09        -0.45107E+06         0.00000E+00
    0.00000E+00         0.00000E+00        -0.71973E+05
 
    0.91210E+05        -0.11746E-09         0.00000E+00
   -0.11746E-09        -0.45107E+06         0.00000E+00
    0.00000E+00         0.00000E+00        -0.71973E+05
 
    0.91210E+05         0.54210E-10         0.00000E+00
    0.54210E-10        -0.45107E+06         0.00000E+00
    0.00000E+00         0.00000E+00        -0.71973E+05
 
    0.91210E+05        -0.27105E-10         0.00000E+00
   -0.27105E-10        -0.45107E+06         0.00000E+00
    0.00000E+00         0.00000E+00        -0.71973E+05
 
    0.91210E+05        -0.36140E-10         0.00000E+00
   -0.36140E-10        -0.45107E+06         0.00000E+00
    0.00000E+00         0.00000E+00        -0.71973E+05
 
    0.91210E+05         0.13553E-09         0.00000E+00
    0.13553E-09        -0.45107E+06         0.00000E+00
    0.00000E+00         0.00000E+00        -0.71973E+05
 
    0.91210E+05         0.90350E-11         0.00000E+00
    0.90350E-11        -0.45107E+06         0.00000E+00
    0.00000E+00         0.00000E+00        -0.71973E+05
 
    0.91210E+05         0.00000E+00         0.00000E+00
    0.00000E+00        -0.45107E+06         0.00000E+00
    0.00000E+00         0.00000E+00        -0.71973E+05
 
    0.91210E+05        -0.27105E-10         0.00000E+00
   -0.27105E-10        -0.45107E+06         0.00000E+00
    0.00000E+00         0.00000E+00        -0.71973E+05
 
    0.91210E+05         0.00000E+00         0.00000E+00
    0.00000E+00        -0.45107E+06         0.00000E+00
    0.00000E+00         0.00000E+00        -0.71973E+05
 
    0.90924E+05        -0.18070E-10         0.00000E+00
   -0.18070E-10        -0.45115E+06         0.00000E+00
    0.00000E+00         0.00000E+00        -0.72044E+05
 
    0.90924E+05        -0.18070E-10         0.00000E+00
   -0.18070E-10        -0.45115E+06         0.00000E+00
    0.00000E+00         0.00000E+00        -0.72044E+05
 
    0.90924E+05        -0.15360E-09         0.00000E+00
   -0.15360E-09        -0.45115E+06         0.00000E+00
    0.00000E+00         0.00000E+00        -0.72044E+05
 
    0.90924E+05         0.27105E-10         0.00000E+00
    0.27105E-10        -0.45115E+06         0.00000E+00
    0.00000E+00         0.00000E+00        -0.72044E+05
 
    0.90924E+05        -0.63245E-10         0.00000E+00
   -0.63245E-10        -0.45115E+06         0.00000E+00
    0.00000E+00         0.00000E+00        -0.72044E+05
 
    0.90924E+05        -0.12649E-09         0.00000E+00
   -0.12649E-09        -0.45115E+06         0.00000E+00
    0.00000E+00         0.00000E+00        -0.72044E+05
 
    0.90924E+05        -0.90350E-10         0.00000E+00
   -0.90350E-10        -0.45115E+06         0.00000E+00
    0.00000E+00         0.00000E+00        -0.72044E+05
 
    0.90924E+05         0.18070E-10         0.00000E+00
    0.18070E-10        -0.45115E+06         0.00000E+00
    0.00000E+00         0.00000E+00        -0.72044E+05
 
    0.90924E+05         0.99385E-10         0.00000E+00
    0.99385E-10        -0.45115E+06         0.00000E+00
    0.00000E+00         0.00000E+00        -0.72044E+05
 
    0.90924E+05         0.72280E-10         0.00000E+00
    0.72280E-10        -0.45115E+06         0.00000E+00
    0.00000E+00         0.00000E+00        -0.72044E+05
 
    0.90924E+05         0.36140E-10         0.00000E+00
    0.36140E-10        -0.45115E+06         0.00000E+00
    0.00000E+00         0.00000E+00        -0.72044E+05
 
    0.90924E+05         0.63245E-10         0.00000E+00
    0.63245E-10        -0.45115E+06         0.00000E+00
    0.00000E+00         0.00000E+00        -0.72044E+05
 
    0.90924E+05         0.90350E-11         0.00000E+00
    0.90350E-11        -0.45115E+06         0.00000E+00
    0.00000E+00         0.00000E+00        -0.72044E+05
 
    0.90924E+05         0.14456E-09         0.00000E+00
    0.14456E-09        -0.45115E+06         0.00000E+00
    0.00000E+00         0.00000E+00        -0.72044E+05
 
    0.90924E+05         0.45175E-10         0.00000E+00
    0.45175E-10        -0.45115E+06         0.00000E+00
    0.00000E+00         0.00000E+00        -0.72044E+05
 
    0.90611E+05        -0.16263E-09         0.00000E+00
   -0.16263E-09        -0.45122E+06         0.00000E+00
    0.00000E+00         0.00000E+00        -0.72122E+05
 
    0.90611E+05        -0.36140E-10         0.00000E+00
   -0.36140E-10        -0.45122E+06         0.00000E+00
    0.00000E+00         0.00000E+00        -0.72122E+05
 
    0.90611E+05         0.33430E-09         0.00000E+00
    0.33430E-09        -0.45122E+06         0.00000E+00
    0.00000E+00         0.00000E+00        -0.72122E+05
 
    0.90611E+05        -0.90350E-10         0.00000E+00
   -0.90350E-10        -0.45122E+06         0.00000E+00
    0.00000E+00         0.00000E+00        -0.72122E+05
 
    0.90611E+05        -0.90350E-10         0.00000E+00
   -0.90350E-10        -0.45122E+06         0.00000E+00
    0.00000E+00         0.00000E+00        -0.72122E+05
 
    0.90611E+05        -0.36140E-10         0.00000E+00
   -0.36140E-10        -0.45122E+06         0.00000E+00
    0.00000E+00         0.00000E+00        -0.72122E+05
 
    0.90611E+05         0.12649E-09         0.00000E+00
    0.12649E-09        -0.45122E+06         0.00000E+00
    0.00000E+00         0.00000E+00        -0.72122E+05
 
    0.90611E+05         0.63245E-10         0.00000E+00
    0.63245E-10        -0.45122E+06         0.00000E+00
    0.00000E+00         0.00000E+00        -0.72122E+05
 
    0.90611E+05        -0.63245E-10         0.00000E+00
   -0.63245E-10        -0.45122E+06         0.00000E+00
    0.00000E+00         0.00000E+00        -0.72122E+05
 
    0.90611E+05        -0.54210E-10         0.00000E+00
   -0.54210E-10        -0.45122E+06         0.00000E+00
    0.00000E+00         0.00000E+00        -0.72122E+05
 
    0.90611E+05         0.20781E-09         0.00000E+00
    0.20781E-09        -0.45122E+06         0.00000E+00
    0.00000E+00         0.00000E+00        -0.72122E+05
 
    0.90611E+05         0.25298E-09         0.00000E+00
    0.25298E-09        -0.45122E+06         0.00000E+00
    0.00000E+00         0.00000E+00        -0.72122E+05
 
    0.90611E+05         0.20781E-09         0.00000E+00
    0.20781E-09        -0.45122E+06         0.00000E+00
    0.00000E+00         0.00000E+00        -0.72122E+05
 
    0.90611E+05        -0.45175E-10         0.00000E+00
   -0.45175E-10        -0.45122E+06         0.00000E+00
    0.00000E+00         0.00000E+00        -0.72122E+05
 
    0.90611E+05         0.90350E-11         0.00000E+00
    0.90350E-11        -0.45122E+06         0.00000E+00
    0.00000E+00         0.00000E+00        -0.72122E+05
 
    0.90273E+05        -0.27105E-09         0.00000E+00
   -0.27105E-09        -0.45131E+06         0.00000E+00
    0.00000E+00         0.00000E+00        -0.72207E+05
 
    0.90273E+05        -0.10842E-09         0.00000E+00
   -0.10842E-09        -0.45131E+06         0.00000E+00
    0.00000E+00         0.00000E+00        -0.72207E+05
 
    0.90273E+05         0.13553E-09         0.00000E+00
    0.13553E-09        -0.45131E+06         0.00000E+00
    0.00000E+00         0.00000E+00        -0.72207E+05
 
    0.90273E+05         0.20781E-09         0.00000E+00
    0.20781E-09        -0.45131E+06         0.00000E+00
    0.00000E+00         0.00000E+00        -0.72207E+05
 
    0.90273E+05        -0.81315E-10         0.00000E+00
   -0.81315E-10        -0.45131E+06         0.00000E+00
    0.00000E+00         0.00000E+00        -0.72207E+05
 
    0.90273E+05         0.99385E-10         0.00000E+00
    0.99385E-10        -0.45131E+06         0.00000E+00
    0.00000E+00         0.00000E+00        -0.72207E+05
 
    0.90273E+05        -0.18070E-10         0.00000E+00
   -0.18070E-10        -0.45131E+06         0.00000E+00
    0.00000E+00         0.00000E+00        -0.72207E+05
 
    0.90273E+05         0.81315E-10         0.00000E+00
    0.81315E-10        -0.45131E+06         0.00000E+00
    0.00000E+00         0.00000E+00        -0.72207E+05
 
    0.90273E+05        -0.54210E-10         0.00000E+00
   -0.54210E-10        -0.45131E+06         0.00000E+00
    0.00000E+00         0.00000E+00        -0.72207E+05
 
    0.90273E+05        -0.14456E-09         0.00000E+00
   -0.14456E-09        -0.45131E+06         0.00000E+00
    0.00000E+00         0.00000E+00        -0.72207E+05
 
    0.90273E+05         0.15360E-09         0.00000E+00
    0.15360E-09        -0.45131E+06         0.00000E+00
    0.00000E+00         0.00000E+00        -0.72207E+05
 
    0.90273E+05         0.10842E-09         0.00000E+00
    0.10842E-09        -0.45131E+06         0.00000E+00
    0.00000E+00         0.00000E+00        -0.72207E+05
 
    0.90273E+05        -0.15360E-09         0.00000E+00
   -0.15360E-09        -0.45131E+06         0.00000E+00
    0.00000E+00         0.00000E+00        -0.72207E+05
 
    0.90273E+05        -0.90350E-10         0.00000E+00
   -0.90350E-10        -0.45131E+06         0.00000E+00
    0.00000E+00         0.00000E+00        -0.72207E+05
 
    0.90273E+05         0.21684E-09         0.00000E+00
    0.21684E-09        -0.45131E+06         0.00000E+00
    0.00000E+00         0.00000E+00        -0.72207E+05
 
    0.89909E+05         0.10842E-09         0.00000E+00
    0.10842E-09        -0.45140E+06         0.00000E+00
    0.00000E+00         0.00000E+00        -0.72298E+05
 
    0.89909E+05        -0.54210E-10         0.00000E+00
   -0.54210E-10        -0.45140E+06         0.00000E+00
    0.00000E+00         0.00000E+00        -0.72298E+05
 
    0.89909E+05         0.72280E-10         0.00000E+00
    0.72280E-10        -0.45140E+06         0.00000E+00
    0.00000E+00         0.00000E+00        -0.72298E+05
 
    0.89909E+05        -0.45175E-10         0.00000E+00
   -0.45175E-10        -0.45140E+06         0.00000E+00
    0.00000E+00         0.00000E+00        -0.72298E+05
 
    0.89909E+05        -0.11746E-09         0.00000E+00
   -0.11746E-09        -0.45140E+06         0.00000E+00
    0.00000E+00         0.00000E+00        -0.72298E+05
 
    0.89909E+05        -0.11746E-09         0.00000E+00
   -0.11746E-09        -0.45140E+06         0.00000E+00
    0.00000E+00         0.00000E+00        -0.72298E+05
 
    0.89909E+05        -0.45175E-10         0.00000E+00
   -0.45175E-10        -0.45140E+06         0.00000E+00
    0.00000E+00         0.00000E+00        -0.72298E+05
 
    0.89909E+05        -0.16263E-09         0.00000E+00
   -0.16263E-09        -0.45140E+06         0.00000E+00
    0.00000E+00         0.00000E+00        -0.72298E+05
 
    0.89909E+05         0.54210E-10         0.00000E+00
    0.54210E-10        -0.45140E+06         0.00000E+00
    0.00000E+00         0.00000E+00        -0.72298E+05
 
    0.89909E+05         0.10842E-09         0.00000E+00
    0.10842E-09        -0.45140E+06         0.00000E+00
    0.00000E+00         0.00000E+00        -0.72298E+05
 
    0.89909E+05         0.14456E-09         0.00000E+00
    0.14456E-09        -0.45140E+06         0.00000E+00
    0.00000E+00         0.00000E+00        -0.72298E+05
 
    0.89909E+05         0.90350E-10         0.00000E+00
    0.90350E-10        -0.45140E+06         0.00000E+00
    0.00000E+00         0.00000E+00        -0.72298E+05
 
    0.89909E+05        -0.41561E-09         0.00000E+00
   -0.41561E-09        -0.45140E+06         0.00000E+00
    0.00000E+00         0.00000E+00        -0.72298E+05
 
    0.89909E+05         0.63245E-10         0.00000E+00
    0.63245E-10        -0.45140E+06         0.00000E+00
    0.00000E+00         0.00000E+00        -0.72298E+05
 
    0.89909E+05        -0.90350E-10         0.00000E+00
   -0.90350E-10        -0.45140E+06         0.00000E+00
    0.00000E+00         0.00000E+00        -0.72298E+05
 
    0.89519E+05         0.45175E-09         0.00000E+00
    0.45175E-09        -0.45150E+06         0.00000E+00
    0.00000E+00         0.00000E+00        -0.72395E+05
 
    0.89519E+05        -0.72280E-10         0.00000E+00
   -0.72280E-10        -0.45150E+06         0.00000E+00
    0.00000E+00         0.00000E+00        -0.72395E+05
 
    0.89519E+05        -0.26202E-09         0.00000E+00
   -0.26202E-09        -0.45150E+06         0.00000E+00
    0.00000E+00         0.00000E+00        -0.72395E+05
 
    0.89519E+05        -0.22588E-09         0.00000E+00
   -0.22588E-09        -0.45150E+06         0.00000E+00
    0.00000E+00         0.00000E+00        -0.72395E+05
 
    0.89519E+05         0.21684E-09         0.00000E+00
    0.21684E-09        -0.45150E+06         0.00000E+00
    0.00000E+00         0.00000E+00        -0.72395E+05
 
    0.89519E+05        -0.10842E-09         0.00000E+00
   -0.10842E-09        -0.45150E+06         0.00000E+00
    0.00000E+00         0.00000E+00        -0.72395E+05
 
    0.89519E+05        -0.13553E-09         0.00000E+00
   -0.13553E-09        -0.45150E+06         0.00000E+00
    0.00000E+00         0.00000E+00        -0.72395E+05
 
    0.89519E+05         0.00000E+00         0.00000E+00
    0.00000E+00        -0.45150E+06         0.00000E+00
    0.00000E+00         0.00000E+00        -0.72395E+05
 
    0.89519E+05        -0.90350E-11         0.00000E+00
   -0.90350E-11        -0.45150E+06         0.00000E+00
    0.00000E+00         0.00000E+00        -0.72395E+05
 
    0.89519E+05         0.10842E-09         0.00000E+00
    0.10842E-09        -0.45150E+06         0.00000E+00
    0.00000E+00         0.00000E+00        -0.72395E+05
 
    0.89519E+05         0.90350E-10         0.00000E+00
    0.90350E-10        -0.45150E+06         0.00000E+00
    0.00000E+00         0.00000E+00        -0.72395E+05
 
    0.89519E+05        -0.54210E-10         0.00000E+00
   -0.54210E-10        -0.45150E+06         0.00000E+00
    0.00000E+00         0.00000E+00        -0.72395E+05
 
    0.89519E+05        -0.40658E-09         0.00000E+00
   -0.40658E-09        -0.45150E+06         0.00000E+00
    0.00000E+00         0.00000E+00        -0.72395E+05
 
    0.89519E+05         0.41561E-09         0.00000E+00
    0.41561E-09        -0.45150E+06         0.00000E+00
    0.00000E+00         0.00000E+00        -0.72395E+05
 
    0.89519E+05        -0.18070E-09         0.00000E+00
   -0.18070E-09        -0.45150E+06         0.00000E+00
    0.00000E+00         0.00000E+00        -0.72395E+05
 
    0.89104E+05         0.00000E+00         0.00000E+00
    0.00000E+00        -0.45160E+06         0.00000E+00
    0.00000E+00         0.00000E+00        -0.72499E+05
 
    0.89104E+05        -0.32526E-09         0.00000E+00
   -0.32526E-09        -0.45160E+06         0.00000E+00
    0.00000E+00         0.00000E+00        -0.72499E+05
 
    0.89104E+05        -0.63245E-10         0.00000E+00
   -0.63245E-10        -0.45160E+06         0.00000E+00
    0.00000E+00         0.00000E+00        -0.72499E+05
 
    0.89104E+05        -0.27105E-10         0.00000E+00
   -0.27105E-10        -0.45160E+06         0.00000E+00
    0.00000E+00         0.00000E+00        -0.72499E+05
 
    0.89104E+05         0.16263E-09         0.00000E+00
    0.16263E-09        -0.45160E+06         0.00000E+00
    0.00000E+00         0.00000E+00        -0.72499E+05
 
    0.89104E+05        -0.23491E-09         0.00000E+00
   -0.23491E-09        -0.45160E+06         0.00000E+00
    0.00000E+00         0.00000E+00        -0.72499E+05
 
    0.89104E+05         0.12649E-09         0.00000E+00
    0.12649E-09        -0.45160E+06         0.00000E+00
    0.00000E+00         0.00000E+00        -0.72499E+05
 
    0.89104E+05         0.13553E-09         0.00000E+00
    0.13553E-09        -0.45160E+06         0.00000E+00
    0.00000E+00         0.00000E+00        -0.72499E+05
 
    0.89104E+05         0.44272E-09         0.00000E+00
    0.44272E-09        -0.45160E+06         0.00000E+00
    0.00000E+00         0.00000E+00        -0.72499E+05
 
    0.89104E+05        -0.18070E-10         0.00000E+00
   -0.18070E-10        -0.45160E+06         0.00000E+00
    0.00000E+00         0.00000E+00        -0.72499E+05
 
    0.89104E+05        -0.37947E-09         0.00000E+00
   -0.37947E-09        -0.45160E+06         0.00000E+00
    0.00000E+00         0.00000E+00        -0.72499E+05
 
    0.89104E+05         0.34333E-09         0.00000E+00
    0.34333E-09        -0.45160E+06         0.00000E+00
    0.00000E+00         0.00000E+00        -0.72499E+05
 
    0.89104E+05        -0.36140E-10         0.00000E+00
   -0.36140E-10        -0.45160E+06         0.00000E+00
    0.00000E+00         0.00000E+00        -0.72499E+05
 
    0.89104E+05        -0.21684E-09         0.00000E+00
   -0.21684E-09        -0.45160E+06         0.00000E+00
    0.00000E+00         0.00000E+00        -0.72499E+05
 
    0.89104E+05         0.21684E-09         0.00000E+00
    0.21684E-09        -0.45160E+06         0.00000E+00
    0.00000E+00         0.00000E+00        -0.72499E+05
 
    0.88663E+05        -0.12649E-09         0.00000E+00
   -0.12649E-09        -0.45171E+06         0.00000E+00
    0.00000E+00         0.00000E+00        -0.72610E+05
 
    0.88663E+05        -0.10842E-09         0.00000E+00
   -0.10842E-09        -0.45171E+06         0.00000E+00
    0.00000E+00         0.00000E+00        -0.72610E+05
 
    0.88663E+05        -0.36140E-10         0.00000E+00
   -0.36140E-10        -0.45171E+06         0.00000E+00
    0.00000E+00         0.00000E+00        -0.72610E+05
 
    0.88663E+05        -0.37947E-09         0.00000E+00
   -0.37947E-09        -0.45171E+06         0.00000E+00
    0.00000E+00         0.00000E+00        -0.72610E+05
 
    0.88663E+05        -0.13553E-09         0.00000E+00
   -0.13553E-09        -0.45171E+06         0.00000E+00
    0.00000E+00         0.00000E+00        -0.72610E+05
 
    0.88663E+05        -0.16263E-09         0.00000E+00
   -0.16263E-09        -0.45171E+06         0.00000E+00
    0.00000E+00         0.00000E+00        -0.72610E+05
 
    0.88663E+05        -0.11746E-09         0.00000E+00
   -0.11746E-09        -0.45171E+06         0.00000E+00
    0.00000E+00         0.00000E+00        -0.72610E+05
 
    0.88663E+05        -0.18974E-09         0.00000E+00
   -0.18974E-09        -0.45171E+06         0.00000E+00
    0.00000E+00         0.00000E+00        -0.72610E+05
 
    0.88663E+05        -0.10842E-09         0.00000E+00
   -0.10842E-09        -0.45171E+06         0.00000E+00
    0.00000E+00         0.00000E+00        -0.72610E+05
 
    0.88663E+05        -0.36140E-10         0.00000E+00
   -0.36140E-10        -0.45171E+06         0.00000E+00
    0.00000E+00         0.00000E+00        -0.72610E+05
 
    0.88663E+05        -0.16263E-09         0.00000E+00
   -0.16263E-09        -0.45171E+06         0.00000E+00
    0.00000E+00         0.00000E+00        -0.72610E+05
 
    0.88663E+05         0.46982E-09         0.00000E+00
    0.46982E-09        -0.45171E+06         0.00000E+00
    0.00000E+00         0.00000E+00        -0.72610E+05
 
    0.88663E+05        -0.29816E-09         0.00000E+00
   -0.29816E-09        -0.45171E+06         0.00000E+00
    0.00000E+00         0.00000E+00        -0.72610E+05
 
    0.88663E+05        -0.16263E-09         0.00000E+00
   -0.16263E-09        -0.45171E+06         0.00000E+00
    0.00000E+00         0.00000E+00        -0.72610E+05
 
    0.88663E+05         0.14456E-09         0.00000E+00
    0.14456E-09        -0.45171E+06         0.00000E+00
    0.00000E+00         0.00000E+00        -0.72610E+05
 
    0.88196E+05        -0.50596E-09         0.00000E+00
   -0.50596E-09        -0.45183E+06         0.00000E+00
    0.00000E+00         0.00000E+00        -0.72726E+05
 
    0.88196E+05         0.18070E-09         0.00000E+00
    0.18070E-09        -0.45183E+06         0.00000E+00
    0.00000E+00         0.00000E+00        -0.72726E+05
 
    0.88196E+05         0.56017E-09         0.00000E+00
    0.56017E-09        -0.45183E+06         0.00000E+00
    0.00000E+00         0.00000E+00        -0.72726E+05
 
    0.88196E+05         0.90350E-11         0.00000E+00
    0.90350E-11        -0.45183E+06         0.00000E+00
    0.00000E+00         0.00000E+00        -0.72726E+05
 
    0.88196E+05         0.14456E-09         0.00000E+00
    0.14456E-09        -0.45183E+06         0.00000E+00
    0.00000E+00         0.00000E+00        -0.72726E+05
 
    0.88196E+05         0.23491E-09         0.00000E+00
    0.23491E-09        -0.45183E+06         0.00000E+00
    0.00000E+00         0.00000E+00        -0.72726E+05
 
    0.88196E+05        -0.72280E-10         0.00000E+00
   -0.72280E-10        -0.45183E+06         0.00000E+00
    0.00000E+00         0.00000E+00        -0.72726E+05
 
    0.88196E+05        -0.12649E-09         0.00000E+00
   -0.12649E-09        -0.45183E+06         0.00000E+00
    0.00000E+00         0.00000E+00        -0.72726E+05
 
    0.88196E+05         0.14456E-09         0.00000E+00
    0.14456E-09        -0.45183E+06         0.00000E+00
    0.00000E+00         0.00000E+00        -0.72726E+05
 
    0.88196E+05        -0.12649E-09         0.00000E+00
   -0.12649E-09        -0.45183E+06         0.00000E+00
    0.00000E+00         0.00000E+00        -0.72726E+05
 
    0.88196E+05        -0.18070E-10         0.00000E+00
   -0.18070E-10        -0.45183E+06         0.00000E+00
    0.00000E+00         0.00000E+00        -0.72726E+05
 
    0.88196E+05        -0.10842E-09         0.00000E+00
   -0.10842E-09        -0.45183E+06         0.00000E+00
    0.00000E+00         0.00000E+00        -0.72726E+05
 
    0.88196E+05        -0.63245E-10         0.00000E+00
   -0.63245E-10        -0.45183E+06         0.00000E+00
    0.00000E+00         0.00000E+00        -0.72726E+05
 
    0.88196E+05        -0.21684E-09         0.00000E+00
   -0.21684E-09        -0.45183E+06         0.00000E+00
    0.00000E+00         0.00000E+00        -0.72726E+05
 
    0.88196E+05         0.21684E-09         0.00000E+00
    0.21684E-09        -0.45183E+06         0.00000E+00
    0.00000E+00         0.00000E+00        -0.72726E+05
 
    0.87704E+05        -0.54210E-10         0.00000E+00
   -0.54210E-10        -0.45195E+06         0.00000E+00
    0.00000E+00         0.00000E+00        -0.72849E+05
 
    0.87704E+05        -0.41561E-09         0.00000E+00
   -0.41561E-09        -0.45195E+06         0.00000E+00
    0.00000E+00         0.00000E+00        -0.72849E+05
 
    0.87704E+05         0.99385E-10         0.00000E+00
    0.99385E-10        -0.45195E+06         0.00000E+00
    0.00000E+00         0.00000E+00        -0.72849E+05
 
    0.87704E+05        -0.63245E-10         0.00000E+00
   -0.63245E-10        -0.45195E+06         0.00000E+00
    0.00000E+00         0.00000E+00        -0.72849E+05
 
    0.87704E+05        -0.12649E-09         0.00000E+00
   -0.12649E-09        -0.45195E+06         0.00000E+00
    0.00000E+00         0.00000E+00        -0.72849E+05
 
    0.87704E+05         0.90350E-10         0.00000E+00
    0.90350E-10        -0.45195E+06         0.00000E+00
    0.00000E+00         0.00000E+00        -0.72849E+05
 
    0.87704E+05        -0.10842E-09         0.00000E+00
   -0.10842E-09        -0.45195E+06         0.00000E+00
    0.00000E+00         0.00000E+00        -0.72849E+05
 
    0.87704E+05        -0.16263E-09         0.00000E+00
   -0.16263E-09        -0.45195E+06         0.00000E+00
    0.00000E+00         0.00000E+00        -0.72849E+05
 
    0.87704E+05         0.41561E-09         0.00000E+00
    0.41561E-09        -0.45195E+06         0.00000E+00
    0.00000E+00         0.00000E+00        -0.72849E+05
 
    0.87704E+05        -0.23491E-09         0.00000E+00
   -0.23491E-09        -0.45195E+06         0.00000E+00
    0.00000E+00         0.00000E+00        -0.72849E+05
 
    0.87704E+05        -0.90350E-10         0.00000E+00
   -0.90350E-10        -0.45195E+06         0.00000E+00
    0.00000E+00         0.00000E+00        -0.72849E+05
 
    0.87704E+05         0.72280E-10         0.00000E+00
    0.72280E-10        -0.45195E+06         0.00000E+00
    0.00000E+00         0.00000E+00        -0.72849E+05
 
    0.87704E+05        -0.17167E-09         0.00000E+00
   -0.17167E-09        -0.45195E+06         0.00000E+00
    0.00000E+00         0.00000E+00        -0.72849E+05
 
    0.87704E+05        -0.14456E-09         0.00000E+00
   -0.14456E-09        -0.45195E+06         0.00000E+00
    0.00000E+00         0.00000E+00        -0.72849E+05
 
    0.87704E+05         0.18070E-09         0.00000E+00
    0.18070E-09        -0.45195E+06         0.00000E+00
    0.00000E+00         0.00000E+00        -0.72849E+05
 
    0.87187E+05        -0.18070E-09         0.00000E+00
   -0.18070E-09        -0.45208E+06         0.00000E+00
    0.00000E+00         0.00000E+00        -0.72978E+05
 
    0.87187E+05         0.18070E-09         0.00000E+00
    0.18070E-09        -0.45208E+06         0.00000E+00
    0.00000E+00         0.00000E+00        -0.72978E+05
 
    0.87187E+05         0.13553E-09         0.00000E+00
    0.13553E-09        -0.45208E+06         0.00000E+00
    0.00000E+00         0.00000E+00        -0.72978E+05
 
    0.87187E+05         0.49693E-09         0.00000E+00
    0.49693E-09        -0.45208E+06         0.00000E+00
    0.00000E+00         0.00000E+00        -0.72978E+05
 
    0.87187E+05         0.68666E-09         0.00000E+00
    0.68666E-09        -0.45208E+06         0.00000E+00
    0.00000E+00         0.00000E+00        -0.72978E+05
 
    0.87187E+05         0.45175E-09         0.00000E+00
    0.45175E-09        -0.45208E+06         0.00000E+00
    0.00000E+00         0.00000E+00        -0.72978E+05
 
    0.87187E+05        -0.72280E-10         0.00000E+00
   -0.72280E-10        -0.45208E+06         0.00000E+00
    0.00000E+00         0.00000E+00        -0.72978E+05
 
    0.87187E+05         0.30719E-09         0.00000E+00
    0.30719E-09        -0.45208E+06         0.00000E+00
    0.00000E+00         0.00000E+00        -0.72978E+05
 
    0.87187E+05         0.46982E-09         0.00000E+00
    0.46982E-09        -0.45208E+06         0.00000E+00
    0.00000E+00         0.00000E+00        -0.72978E+05
 
    0.87187E+05        -0.36140E-10         0.00000E+00
   -0.36140E-10        -0.45208E+06         0.00000E+00
    0.00000E+00         0.00000E+00        -0.72978E+05
 
    0.87187E+05        -0.90350E-10         0.00000E+00
   -0.90350E-10        -0.45208E+06         0.00000E+00
    0.00000E+00         0.00000E+00        -0.72978E+05
 
    0.87187E+05        -0.12649E-09         0.00000E+00
   -0.12649E-09        -0.45208E+06         0.00000E+00
    0.00000E+00         0.00000E+00        -0.72978E+05
 
    0.87187E+05         0.12649E-09         0.00000E+00
    0.12649E-09        -0.45208E+06         0.00000E+00
    0.00000E+00         0.00000E+00        -0.72978E+05
 
    0.87187E+05        -0.18070E-09         0.00000E+00
   -0.18070E-09        -0.45208E+06         0.00000E+00
    0.00000E+00         0.00000E+00        -0.72978E+05
 
    0.87187E+05         0.00000E+00         0.00000E+00
    0.00000E+00        -0.45208E+06         0.00000E+00
    0.00000E+00         0.00000E+00        -0.72978E+05
 
    0.86645E+05         0.72280E-10         0.00000E+00
    0.72280E-10        -0.45221E+06         0.00000E+00
    0.00000E+00         0.00000E+00        -0.73114E+05
 
    0.86645E+05        -0.90350E-10         0.00000E+00
   -0.90350E-10        -0.45221E+06         0.00000E+00
    0.00000E+00         0.00000E+00        -0.73114E+05
 
    0.86645E+05         0.81315E-10         0.00000E+00
    0.81315E-10        -0.45221E+06         0.00000E+00
    0.00000E+00         0.00000E+00        -0.73114E+05
 
    0.86645E+05        -0.43368E-09         0.00000E+00
   -0.43368E-09        -0.45221E+06         0.00000E+00
    0.00000E+00         0.00000E+00        -0.73114E+05
 
    0.86645E+05         0.34333E-09         0.00000E+00
    0.34333E-09        -0.45221E+06         0.00000E+00
    0.00000E+00         0.00000E+00        -0.73114E+05
 
    0.86645E+05         0.90350E-10         0.00000E+00
    0.90350E-10        -0.45221E+06         0.00000E+00
    0.00000E+00         0.00000E+00        -0.73114E+05
 
    0.86645E+05         0.90350E-10         0.00000E+00
    0.90350E-10        -0.45221E+06         0.00000E+00
    0.00000E+00         0.00000E+00        -0.73114E+05
 
    0.86645E+05        -0.72280E-10         0.00000E+00
   -0.72280E-10        -0.45221E+06         0.00000E+00
    0.00000E+00         0.00000E+00        -0.73114E+05
 
    0.86645E+05        -0.18070E-10         0.00000E+00
   -0.18070E-10        -0.45221E+06         0.00000E+00
    0.00000E+00         0.00000E+00        -0.73114E+05
 
    0.86645E+05         0.19877E-09         0.00000E+00
    0.19877E-09        -0.45221E+06         0.00000E+00
    0.00000E+00         0.00000E+00        -0.73114E+05
 
    0.86645E+05         0.54210E-10         0.00000E+00
    0.54210E-10        -0.45221E+06         0.00000E+00
    0.00000E+00         0.00000E+00        -0.73114E+05
 
    0.86645E+05         0.72280E-10         0.00000E+00
    0.72280E-10        -0.45221E+06         0.00000E+00
    0.00000E+00         0.00000E+00        -0.73114E+05
 
    0.86645E+05         0.54210E-10         0.00000E+00
    0.54210E-10        -0.45221E+06         0.00000E+00
    0.00000E+00         0.00000E+00        -0.73114E+05
 
    0.86645E+05         0.19877E-09         0.00000E+00
    0.19877E-09        -0.45221E+06         0.00000E+00
    0.00000E+00         0.00000E+00        -0.73114E+05
 
    0.86645E+05         0.18070E-10         0.00000E+00
    0.18070E-10        -0.45221E+06         0.00000E+00
    0.00000E+00         0.00000E+00        -0.73114E+05
 
    0.86078E+05         0.10842E-09         0.00000E+00
    0.10842E-09        -0.45236E+06         0.00000E+00
    0.00000E+00         0.00000E+00        -0.73256E+05
 
    0.86078E+05        -0.10842E-09         0.00000E+00
   -0.10842E-09        -0.45236E+06         0.00000E+00
    0.00000E+00         0.00000E+00        -0.73256E+05
 
    0.86078E+05         0.57824E-09         0.00000E+00
    0.57824E-09        -0.45236E+06         0.00000E+00
    0.00000E+00         0.00000E+00        -0.73256E+05
 
    0.86078E+05        -0.18070E-09         0.00000E+00
   -0.18070E-09        -0.45236E+06         0.00000E+00
    0.00000E+00         0.00000E+00        -0.73256E+05
 
    0.86078E+05         0.43368E-09         0.00000E+00
    0.43368E-09        -0.45236E+06         0.00000E+00
    0.00000E+00         0.00000E+00        -0.73256E+05
 
    0.86078E+05         0.36140E-10         0.00000E+00
    0.36140E-10        -0.45236E+06         0.00000E+00
    0.00000E+00         0.00000E+00        -0.73256E+05
 
    0.86078E+05         0.25298E-09         0.00000E+00
    0.25298E-09        -0.45236E+06         0.00000E+00
    0.00000E+00         0.00000E+00        -0.73256E+05
 
    0.86078E+05         0.90350E-10         0.00000E+00
    0.90350E-10        -0.45236E+06         0.00000E+00
    0.00000E+00         0.00000E+00        -0.73256E+05
 
    0.86078E+05         0.54210E-10         0.00000E+00
    0.54210E-10        -0.45236E+06         0.00000E+00
    0.00000E+00         0.00000E+00        -0.73256E+05
 
    0.86078E+05         0.18070E-10         0.00000E+00
    0.18070E-10        -0.45236E+06         0.00000E+00
    0.00000E+00         0.00000E+00        -0.73256E+05
 
    0.86078E+05         0.19877E-09         0.00000E+00
    0.19877E-09        -0.45236E+06         0.00000E+00
    0.00000E+00         0.00000E+00        -0.73256E+05
 
    0.86078E+05         0.19877E-09         0.00000E+00
    0.19877E-09        -0.45236E+06         0.00000E+00
    0.00000E+00         0.00000E+00        -0.73256E+05
 
    0.86078E+05        -0.41561E-09         0.00000E+00
   -0.41561E-09        -0.45236E+06         0.00000E+00
    0.00000E+00         0.00000E+00        -0.73256E+05
 
    0.86078E+05        -0.32526E-09         0.00000E+00
   -0.32526E-09        -0.45236E+06         0.00000E+00
    0.00000E+00         0.00000E+00        -0.73256E+05
 
    0.86078E+05         0.21684E-09         0.00000E+00
    0.21684E-09        -0.45236E+06         0.00000E+00
    0.00000E+00         0.00000E+00        -0.73256E+05
 
    0.85485E+05        -0.32526E-09         0.00000E+00
   -0.32526E-09        -0.45250E+06         0.00000E+00
    0.00000E+00         0.00000E+00        -0.73404E+05
 
    0.85485E+05        -0.10842E-09         0.00000E+00
   -0.10842E-09        -0.45250E+06         0.00000E+00
    0.00000E+00         0.00000E+00        -0.73404E+05
 
    0.85485E+05        -0.16263E-09         0.00000E+00
   -0.16263E-09        -0.45250E+06         0.00000E+00
    0.00000E+00         0.00000E+00        -0.73404E+05
 
    0.85485E+05         0.10842E-09         0.00000E+00
    0.10842E-09        -0.45250E+06         0.00000E+00
    0.00000E+00         0.00000E+00        -0.73404E+05
 
    0.85485E+05         0.41561E-09         0.00000E+00
    0.41561E-09        -0.45250E+06         0.00000E+00
    0.00000E+00         0.00000E+00        -0.73404E+05
 
    0.85485E+05         0.18070E-10         0.00000E+00
    0.18070E-10        -0.45250E+06         0.00000E+00
    0.00000E+00         0.00000E+00        -0.73404E+05
 
    0.85485E+05         0.72280E-10         0.00000E+00
    0.72280E-10        -0.45250E+06         0.00000E+00
    0.00000E+00         0.00000E+00        -0.73404E+05
 
    0.85485E+05        -0.72280E-10         0.00000E+00
   -0.72280E-10        -0.45250E+06         0.00000E+00
    0.00000E+00         0.00000E+00        -0.73404E+05
 
    0.85485E+05         0.72280E-10         0.00000E+00
    0.72280E-10        -0.45250E+06         0.00000E+00
    0.00000E+00         0.00000E+00        -0.73404E+05
 
    0.85485E+05        -0.72280E-10         0.00000E+00
   -0.72280E-10        -0.45250E+06         0.00000E+00
    0.00000E+00         0.00000E+00        -0.73404E+05
 
    0.85485E+05        -0.41561E-09         0.00000E+00
   -0.41561E-09        -0.45250E+06         0.00000E+00
    0.00000E+00         0.00000E+00        -0.73404E+05
 
    0.85485E+05         0.54210E-09         0.00000E+00
    0.54210E-09        -0.45250E+06         0.00000E+00
    0.00000E+00         0.00000E+00        -0.73404E+05
 
    0.85485E+05         0.14456E-09         0.00000E+00
    0.14456E-09        -0.45250E+06         0.00000E+00
    0.00000E+00         0.00000E+00        -0.73404E+05
 
    0.85485E+05         0.90350E-10         0.00000E+00
    0.90350E-10        -0.45250E+06         0.00000E+00
    0.00000E+00         0.00000E+00        -0.73404E+05
 
    0.85485E+05        -0.28912E-09         0.00000E+00
   -0.28912E-09        -0.45250E+06         0.00000E+00
    0.00000E+00         0.00000E+00        -0.73404E+05
 
    0.84868E+05        -0.21684E-09         0.00000E+00
   -0.21684E-09        -0.45266E+06         0.00000E+00
    0.00000E+00         0.00000E+00        -0.73558E+05
 
    0.84868E+05        -0.18070E-09         0.00000E+00
   -0.18070E-09        -0.45266E+06         0.00000E+00
    0.00000E+00         0.00000E+00        -0.73558E+05
 
    0.84868E+05         0.28912E-09         0.00000E+00
    0.28912E-09        -0.45266E+06         0.00000E+00
    0.00000E+00         0.00000E+00        -0.73558E+05
 
    0.84868E+05        -0.16263E-09         0.00000E+00
   -0.16263E-09        -0.45266E+06         0.00000E+00
    0.00000E+00         0.00000E+00        -0.73558E+05
 
    0.84868E+05         0.30719E-09         0.00000E+00
    0.30719E-09        -0.45266E+06         0.00000E+00
    0.00000E+00         0.00000E+00        -0.73558E+05
 
    0.84868E+05         0.16263E-09         0.00000E+00
    0.16263E-09        -0.45266E+06         0.00000E+00
    0.00000E+00         0.00000E+00        -0.73558E+05
 
    0.84868E+05         0.10842E-09         0.00000E+00
    0.10842E-09        -0.45266E+06         0.00000E+00
    0.00000E+00         0.00000E+00        -0.73558E+05
 
    0.84868E+05         0.36140E-10         0.00000E+00
    0.36140E-10        -0.45266E+06         0.00000E+00
    0.00000E+00         0.00000E+00        -0.73558E+05
 
    0.84868E+05         0.90350E-10         0.00000E+00
    0.90350E-10        -0.45266E+06         0.00000E+00
    0.00000E+00         0.00000E+00        -0.73558E+05
 
    0.84868E+05        -0.54210E-10         0.00000E+00
   -0.54210E-10        -0.45266E+06         0.00000E+00
    0.00000E+00         0.00000E+00        -0.73558E+05
 
    0.84868E+05        -0.16263E-09         0.00000E+00
   -0.16263E-09        -0.45266E+06         0.00000E+00
    0.00000E+00         0.00000E+00        -0.73558E+05
 
    0.84868E+05        -0.36140E-10         0.00000E+00
   -0.36140E-10        -0.45266E+06         0.00000E+00
    0.00000E+00         0.00000E+00        -0.73558E+05
 
    0.84868E+05         0.10842E-09         0.00000E+00
    0.10842E-09        -0.45266E+06         0.00000E+00
    0.00000E+00         0.00000E+00        -0.73558E+05
 
    0.84868E+05         0.72280E-10         0.00000E+00
    0.72280E-10        -0.45266E+06         0.00000E+00
    0.00000E+00         0.00000E+00        -0.73558E+05
 
    0.84868E+05         0.18070E-09         0.00000E+00
    0.18070E-09        -0.45266E+06         0.00000E+00
    0.00000E+00         0.00000E+00        -0.73558E+05
 
    0.84226E+05        -0.54210E-10         0.00000E+00
   -0.54210E-10        -0.45282E+06         0.00000E+00
    0.00000E+00         0.00000E+00        -0.73719E+05
 
    0.84226E+05        -0.27105E-09         0.00000E+00
   -0.27105E-09        -0.45282E+06         0.00000E+00
    0.00000E+00         0.00000E+00        -0.73719E+05
 
    0.84226E+05        -0.18070E-09         0.00000E+00
   -0.18070E-09        -0.45282E+06         0.00000E+00
    0.00000E+00         0.00000E+00        -0.73719E+05
 
    0.84226E+05        -0.72280E-10         0.00000E+00
   -0.72280E-10        -0.45282E+06         0.00000E+00
    0.00000E+00         0.00000E+00        -0.73719E+05
 
    0.84226E+05         0.32526E-09         0.00000E+00
    0.32526E-09        -0.45282E+06         0.00000E+00
    0.00000E+00         0.00000E+00        -0.73719E+05
 
    0.84226E+05         0.72280E-10         0.00000E+00
    0.72280E-10        -0.45282E+06         0.00000E+00
    0.00000E+00         0.00000E+00        -0.73719E+05
 
    0.84226E+05         0.36140E-09         0.00000E+00
    0.36140E-09        -0.45282E+06         0.00000E+00
    0.00000E+00         0.00000E+00        -0.73719E+05
 
    0.84226E+05         0.00000E+00         0.00000E+00
    0.00000E+00        -0.45282E+06         0.00000E+00
    0.00000E+00         0.00000E+00        -0.73719E+05
 
    0.84226E+05        -0.28912E-09         0.00000E+00
   -0.28912E-09        -0.45282E+06         0.00000E+00
    0.00000E+00         0.00000E+00        -0.73719E+05
 
    0.84226E+05        -0.30719E-09         0.00000E+00
   -0.30719E-09        -0.45282E+06         0.00000E+00
    0.00000E+00         0.00000E+00        -0.73719E+05
 
    0.84226E+05         0.10842E-09         0.00000E+00
    0.10842E-09        -0.45282E+06         0.00000E+00
    0.00000E+00         0.00000E+00        -0.73719E+05
 
    0.84226E+05        -0.10842E-09         0.00000E+00
   -0.10842E-09        -0.45282E+06         0.00000E+00
    0.00000E+00         0.00000E+00        -0.73719E+05
 
    0.84226E+05         0.39754E-09         0.00000E+00
    0.39754E-09        -0.45282E+06         0.00000E+00
    0.00000E+00         0.00000E+00        -0.73719E+05
 
    0.84226E+05         0.18070E-09         0.00000E+00
    0.18070E-09        -0.45282E+06         0.00000E+00
    0.00000E+00         0.00000E+00        -0.73719E+05
 
    0.84226E+05        -0.36140E-10         0.00000E+00
   -0.36140E-10        -0.45282E+06         0.00000E+00
    0.00000E+00         0.00000E+00        -0.73719E+05
 
    0.83559E+05         0.00000E+00         0.00000E+00
    0.00000E+00        -0.45299E+06         0.00000E+00
    0.00000E+00         0.00000E+00        -0.73885E+05
 
    0.83559E+05         0.54210E-10         0.00000E+00
    0.54210E-10        -0.45299E+06         0.00000E+00
    0.00000E+00         0.00000E+00        -0.73885E+05
 
    0.83559E+05        -0.56017E-09         0.00000E+00
   -0.56017E-09        -0.45299E+06         0.00000E+00
    0.00000E+00         0.00000E+00        -0.73885E+05
 
    0.83559E+05         0.46982E-09         0.00000E+00
    0.46982E-09        -0.45299E+06         0.00000E+00
    0.00000E+00         0.00000E+00        -0.73885E+05
 
    0.83559E+05         0.90350E-10         0.00000E+00
    0.90350E-10        -0.45299E+06         0.00000E+00
    0.00000E+00         0.00000E+00        -0.73885E+05
 
    0.83559E+05        -0.54210E-10         0.00000E+00
   -0.54210E-10        -0.45299E+06         0.00000E+00
    0.00000E+00         0.00000E+00        -0.73885E+05
 
    0.83559E+05         0.25298E-09         0.00000E+00
    0.25298E-09        -0.45299E+06         0.00000E+00
    0.00000E+00         0.00000E+00        -0.73885E+05
 
    0.83559E+05         0.18070E-09         0.00000E+00
    0.18070E-09        -0.45299E+06         0.00000E+00
    0.00000E+00         0.00000E+00        -0.73885E+05
 
    0.83559E+05         0.16263E-09         0.00000E+00
    0.16263E-09        -0.45299E+06         0.00000E+00
    0.00000E+00         0.00000E+00        -0.73885E+05
 
    0.83559E+05        -0.34333E-09         0.00000E+00
   -0.34333E-09        -0.45299E+06         0.00000E+00
    0.00000E+00         0.00000E+00        -0.73885E+05
 
    0.83559E+05         0.37947E-09         0.00000E+00
    0.37947E-09        -0.45299E+06         0.00000E+00
    0.00000E+00         0.00000E+00        -0.73885E+05
 
    0.83559E+05        -0.37947E-09         0.00000E+00
   -0.37947E-09        -0.45299E+06         0.00000E+00
    0.00000E+00         0.00000E+00        -0.73885E+05
 
    0.83559E+05        -0.43368E-09         0.00000E+00
   -0.43368E-09        -0.45299E+06         0.00000E+00
    0.00000E+00         0.00000E+00        -0.73885E+05
 
    0.83559E+05         0.14456E-09         0.00000E+00
    0.14456E-09        -0.45299E+06         0.00000E+00
    0.00000E+00         0.00000E+00        -0.73885E+05
 
    0.83559E+05        -0.32526E-09         0.00000E+00
   -0.32526E-09        -0.45299E+06         0.00000E+00
    0.00000E+00         0.00000E+00        -0.73885E+05
 
    0.82868E+05         0.12649E-09         0.00000E+00
    0.12649E-09        -0.45316E+06         0.00000E+00
    0.00000E+00         0.00000E+00        -0.74058E+05
 
    0.82868E+05         0.23491E-09         0.00000E+00
    0.23491E-09        -0.45316E+06         0.00000E+00
    0.00000E+00         0.00000E+00        -0.74058E+05
 
    0.82868E+05        -0.39754E-09         0.00000E+00
   -0.39754E-09        -0.45316E+06         0.00000E+00
    0.00000E+00         0.00000E+00        -0.74058E+05
 
    0.82868E+05         0.10842E-09         0.00000E+00
    0.10842E-09        -0.45316E+06         0.00000E+00
    0.00000E+00         0.00000E+00        -0.74058E+05
 
    0.82868E+05         0.32526E-09         0.00000E+00
    0.32526E-09        -0.45316E+06         0.00000E+00
    0.00000E+00         0.00000E+00        -0.74058E+05
 
    0.82868E+05        -0.36140E-10         0.00000E+00
   -0.36140E-10        -0.45316E+06         0.00000E+00
    0.00000E+00         0.00000E+00        -0.74058E+05
 
    0.82868E+05        -0.27105E-09         0.00000E+00
   -0.27105E-09        -0.45316E+06         0.00000E+00
    0.00000E+00         0.00000E+00        -0.74058E+05
 
    0.82868E+05        -0.36140E-10         0.00000E+00
   -0.36140E-10        -0.45316E+06         0.00000E+00
    0.00000E+00         0.00000E+00        -0.74058E+05
 
    0.82868E+05         0.36140E-10         0.00000E+00
    0.36140E-10        -0.45316E+06         0.00000E+00
    0.00000E+00         0.00000E+00        -0.74058E+05
 
    0.82868E+05        -0.12649E-09         0.00000E+00
   -0.12649E-09        -0.45316E+06         0.00000E+00
    0.00000E+00         0.00000E+00        -0.74058E+05
 
    0.82868E+05        -0.90350E-10         0.00000E+00
   -0.90350E-10        -0.45316E+06         0.00000E+00
    0.00000E+00         0.00000E+00        -0.74058E+05
 
    0.82868E+05         0.93964E-09         0.00000E+00
    0.93964E-09        -0.45316E+06         0.00000E+00
    0.00000E+00         0.00000E+00        -0.74058E+05
 
    0.82868E+05         0.00000E+00         0.00000E+00
    0.00000E+00        -0.45316E+06         0.00000E+00
    0.00000E+00         0.00000E+00        -0.74058E+05
 
    0.82868E+05         0.36140E-10         0.00000E+00
    0.36140E-10        -0.45316E+06         0.00000E+00
    0.00000E+00         0.00000E+00        -0.74058E+05
 
    0.82868E+05         0.14456E-09         0.00000E+00
    0.14456E-09        -0.45316E+06         0.00000E+00
    0.00000E+00         0.00000E+00        -0.74058E+05
 
    0.82152E+05         0.34333E-09         0.00000E+00
    0.34333E-09        -0.45334E+06         0.00000E+00
    0.00000E+00         0.00000E+00        -0.74237E+05
 
    0.82152E+05        -0.83122E-09         0.00000E+00
   -0.83122E-09        -0.45334E+06         0.00000E+00
    0.00000E+00         0.00000E+00        -0.74237E+05
 
    0.82152E+05         0.18070E-09         0.00000E+00
    0.18070E-09        -0.45334E+06         0.00000E+00
    0.00000E+00         0.00000E+00        -0.74237E+05
 
    0.82152E+05         0.12649E-09         0.00000E+00
    0.12649E-09        -0.45334E+06         0.00000E+00
    0.00000E+00         0.00000E+00        -0.74237E+05
 
    0.82152E+05         0.65052E-09         0.00000E+00
    0.65052E-09        -0.45334E+06         0.00000E+00
    0.00000E+00         0.00000E+00        -0.74237E+05
 
    0.82152E+05        -0.25298E-09         0.00000E+00
   -0.25298E-09        -0.45334E+06         0.00000E+00
    0.00000E+00         0.00000E+00        -0.74237E+05
 
    0.82152E+05         0.39754E-09         0.00000E+00
    0.39754E-09        -0.45334E+06         0.00000E+00
    0.00000E+00         0.00000E+00        -0.74237E+05
 
    0.82152E+05         0.54210E-09         0.00000E+00
    0.54210E-09        -0.45334E+06         0.00000E+00
    0.00000E+00         0.00000E+00        -0.74237E+05
 
    0.82152E+05         0.10842E-09         0.00000E+00
    0.10842E-09        -0.45334E+06         0.00000E+00
    0.00000E+00         0.00000E+00        -0.74237E+05
 
    0.82152E+05        -0.36140E-09         0.00000E+00
   -0.36140E-09        -0.45334E+06         0.00000E+00
    0.00000E+00         0.00000E+00        -0.74237E+05
 
    0.82152E+05         0.00000E+00         0.00000E+00
    0.00000E+00        -0.45334E+06         0.00000E+00
    0.00000E+00         0.00000E+00        -0.74237E+05
 
    0.82152E+05         0.30719E-09         0.00000E+00
    0.30719E-09        -0.45334E+06         0.00000E+00
    0.00000E+00         0.00000E+00        -0.74237E+05
 
    0.82152E+05        -0.21684E-09         0.00000E+00
   -0.21684E-09        -0.45334E+06         0.00000E+00
    0.00000E+00         0.00000E+00        -0.74237E+05
 
    0.82152E+05         0.46982E-09         0.00000E+00
    0.46982E-09        -0.45334E+06         0.00000E+00
    0.00000E+00         0.00000E+00        -0.74237E+05
 
    0.82152E+05        -0.72280E-10         0.00000E+00
   -0.72280E-10        -0.45334E+06         0.00000E+00
    0.00000E+00         0.00000E+00        -0.74237E+05
 
    0.81412E+05        -0.16263E-09         0.00000E+00
   -0.16263E-09        -0.45352E+06         0.00000E+00
    0.00000E+00         0.00000E+00        -0.74422E+05
 
    0.81412E+05         0.32526E-09         0.00000E+00
    0.32526E-09        -0.45352E+06         0.00000E+00
    0.00000E+00         0.00000E+00        -0.74422E+05
 
    0.81412E+05         0.37947E-09         0.00000E+00
    0.37947E-09        -0.45352E+06         0.00000E+00
    0.00000E+00         0.00000E+00        -0.74422E+05
 
    0.81412E+05        -0.56017E-09         0.00000E+00
   -0.56017E-09        -0.45352E+06         0.00000E+00
    0.00000E+00         0.00000E+00        -0.74422E+05
 
    0.81412E+05         0.10842E-08         0.00000E+00
    0.10842E-08        -0.45352E+06         0.00000E+00
    0.00000E+00         0.00000E+00        -0.74422E+05
 
    0.81412E+05         0.21684E-09         0.00000E+00
    0.21684E-09        -0.45352E+06         0.00000E+00
    0.00000E+00         0.00000E+00        -0.74422E+05
 
    0.81412E+05        -0.36140E-10         0.00000E+00
   -0.36140E-10        -0.45352E+06         0.00000E+00
    0.00000E+00         0.00000E+00        -0.74422E+05
 
    0.81412E+05        -0.36140E-09         0.00000E+00
   -0.36140E-09        -0.45352E+06         0.00000E+00
    0.00000E+00         0.00000E+00        -0.74422E+05
 
    0.81412E+05         0.72280E-10         0.00000E+00
    0.72280E-10        -0.45352E+06         0.00000E+00
    0.00000E+00         0.00000E+00        -0.74422E+05
 
    0.81412E+05        -0.10842E-09         0.00000E+00
   -0.10842E-09        -0.45352E+06         0.00000E+00
    0.00000E+00         0.00000E+00        -0.74422E+05
 
    0.81412E+05        -0.90350E-10         0.00000E+00
   -0.90350E-10        -0.45352E+06         0.00000E+00
    0.00000E+00         0.00000E+00        -0.74422E+05
 
    0.81412E+05        -0.90350E-10         0.00000E+00
   -0.90350E-10        -0.45352E+06         0.00000E+00
    0.00000E+00         0.00000E+00        -0.74422E+05
 
    0.81412E+05        -0.30719E-09         0.00000E+00
   -0.30719E-09        -0.45352E+06         0.00000E+00
    0.00000E+00         0.00000E+00        -0.74422E+05
 
    0.81412E+05         0.10842E-09         0.00000E+00
    0.10842E-09        -0.45352E+06         0.00000E+00
    0.00000E+00         0.00000E+00        -0.74422E+05
 
    0.81412E+05         0.25298E-09         0.00000E+00
    0.25298E-09        -0.45352E+06         0.00000E+00
    0.00000E+00         0.00000E+00        -0.74422E+05
 
    0.80648E+05         0.18070E-10         0.00000E+00
    0.18070E-10        -0.45371E+06         0.00000E+00
    0.00000E+00         0.00000E+00        -0.74613E+05
 
    0.80648E+05         0.54210E-10         0.00000E+00
    0.54210E-10        -0.45371E+06         0.00000E+00
    0.00000E+00         0.00000E+00        -0.74613E+05
 
    0.80648E+05        -0.36140E-10         0.00000E+00
   -0.36140E-10        -0.45371E+06         0.00000E+00
    0.00000E+00         0.00000E+00        -0.74613E+05
 
    0.80648E+05         0.36140E-10         0.00000E+00
    0.36140E-10        -0.45371E+06         0.00000E+00
    0.00000E+00         0.00000E+00        -0.74613E+05
 
    0.80648E+05         0.72280E-09         0.00000E+00
    0.72280E-09        -0.45371E+06         0.00000E+00
    0.00000E+00         0.00000E+00        -0.74613E+05
 
    0.80648E+05         0.36140E-10         0.00000E+00
    0.36140E-10        -0.45371E+06         0.00000E+00
    0.00000E+00         0.00000E+00        -0.74613E+05
 
    0.80648E+05        -0.14456E-09         0.00000E+00
   -0.14456E-09        -0.45371E+06         0.00000E+00
    0.00000E+00         0.00000E+00        -0.74613E+05
 
    0.80648E+05        -0.54210E-09         0.00000E+00
   -0.54210E-09        -0.45371E+06         0.00000E+00
    0.00000E+00         0.00000E+00        -0.74613E+05
 
    0.80648E+05        -0.37947E-09         0.00000E+00
   -0.37947E-09        -0.45371E+06         0.00000E+00
    0.00000E+00         0.00000E+00        -0.74613E+05
 
    0.80648E+05         0.34333E-09         0.00000E+00
    0.34333E-09        -0.45371E+06         0.00000E+00
    0.00000E+00         0.00000E+00        -0.74613E+05
 
    0.80648E+05        -0.41561E-09         0.00000E+00
   -0.41561E-09        -0.45371E+06         0.00000E+00
    0.00000E+00         0.00000E+00        -0.74613E+05
 
    0.80648E+05         0.28912E-09         0.00000E+00
    0.28912E-09        -0.45371E+06         0.00000E+00
    0.00000E+00         0.00000E+00        -0.74613E+05
 
    0.80648E+05         0.10842E-09         0.00000E+00
    0.10842E-09        -0.45371E+06         0.00000E+00
    0.00000E+00         0.00000E+00        -0.74613E+05
 
    0.80648E+05        -0.72280E-10         0.00000E+00
   -0.72280E-10        -0.45371E+06         0.00000E+00
    0.00000E+00         0.00000E+00        -0.74613E+05
 
    0.80648E+05        -0.36140E-10         0.00000E+00
   -0.36140E-10        -0.45371E+06         0.00000E+00
    0.00000E+00         0.00000E+00        -0.74613E+05
 
    0.79860E+05         0.90350E-10         0.00000E+00
    0.90350E-10        -0.45391E+06         0.00000E+00
    0.00000E+00         0.00000E+00        -0.74810E+05
 
    0.79860E+05        -0.21684E-09         0.00000E+00
   -0.21684E-09        -0.45391E+06         0.00000E+00
    0.00000E+00         0.00000E+00        -0.74810E+05
 
    0.79860E+05         0.90350E-10         0.00000E+00
    0.90350E-10        -0.45391E+06         0.00000E+00
    0.00000E+00         0.00000E+00        -0.74810E+05
 
    0.79860E+05         0.10842E-09         0.00000E+00
    0.10842E-09        -0.45391E+06         0.00000E+00
    0.00000E+00         0.00000E+00        -0.74810E+05
 
    0.79860E+05        -0.18070E-10         0.00000E+00
   -0.18070E-10        -0.45391E+06         0.00000E+00
    0.00000E+00         0.00000E+00        -0.74810E+05
 
    0.79860E+05        -0.72280E-10         0.00000E+00
   -0.72280E-10        -0.45391E+06         0.00000E+00
    0.00000E+00         0.00000E+00        -0.74810E+05
 
    0.79860E+05         0.14456E-09         0.00000E+00
    0.14456E-09        -0.45391E+06         0.00000E+00
    0.00000E+00         0.00000E+00        -0.74810E+05
 
    0.79860E+05        -0.54210E-09         0.00000E+00
   -0.54210E-09        -0.45391E+06         0.00000E+00
    0.00000E+00         0.00000E+00        -0.74810E+05
 
    0.79860E+05        -0.18070E-09         0.00000E+00
   -0.18070E-09        -0.45391E+06         0.00000E+00
    0.00000E+00         0.00000E+00        -0.74810E+05
 
    0.79860E+05         0.39754E-09         0.00000E+00
    0.39754E-09        -0.45391E+06         0.00000E+00
    0.00000E+00         0.00000E+00        -0.74810E+05
 
    0.79860E+05        -0.81315E-09         0.00000E+00
   -0.81315E-09        -0.45391E+06         0.00000E+00
    0.00000E+00         0.00000E+00        -0.74810E+05
 
    0.79860E+05        -0.18070E-10         0.00000E+00
   -0.18070E-10        -0.45391E+06         0.00000E+00
    0.00000E+00         0.00000E+00        -0.74810E+05
 
    0.79860E+05        -0.72280E-10         0.00000E+00
   -0.72280E-10        -0.45391E+06         0.00000E+00
    0.00000E+00         0.00000E+00        -0.74810E+05
 
    0.79860E+05        -0.72280E-10         0.00000E+00
   -0.72280E-10        -0.45391E+06         0.00000E+00
    0.00000E+00         0.00000E+00        -0.74810E+05
 
    0.79860E+05         0.68666E-09         0.00000E+00
    0.68666E-09        -0.45391E+06         0.00000E+00
    0.00000E+00         0.00000E+00        -0.74810E+05
 
    0.79047E+05        -0.92157E-09         0.00000E+00
   -0.92157E-09        -0.45411E+06         0.00000E+00
    0.00000E+00         0.00000E+00        -0.75013E+05
 
    0.79047E+05         0.00000E+00         0.00000E+00
    0.00000E+00        -0.45411E+06         0.00000E+00
    0.00000E+00         0.00000E+00        -0.75013E+05
 
    0.79047E+05         0.28912E-09         0.00000E+00
    0.28912E-09        -0.45411E+06         0.00000E+00
    0.00000E+00         0.00000E+00        -0.75013E+05
 
    0.79047E+05        -0.43368E-09         0.00000E+00
   -0.43368E-09        -0.45411E+06         0.00000E+00
    0.00000E+00         0.00000E+00        -0.75013E+05
 
    0.79047E+05         0.72280E-10         0.00000E+00
    0.72280E-10        -0.45411E+06         0.00000E+00
    0.00000E+00         0.00000E+00        -0.75013E+05
 
    0.79047E+05        -0.18070E-09         0.00000E+00
   -0.18070E-09        -0.45411E+06         0.00000E+00
    0.00000E+00         0.00000E+00        -0.75013E+05
 
    0.79047E+05         0.57824E-09         0.00000E+00
    0.57824E-09        -0.45411E+06         0.00000E+00
    0.00000E+00         0.00000E+00        -0.75013E+05
 
    0.79047E+05        -0.28912E-09         0.00000E+00
   -0.28912E-09        -0.45411E+06         0.00000E+00
    0.00000E+00         0.00000E+00        -0.75013E+05
 
    0.79047E+05         0.72280E-10         0.00000E+00
    0.72280E-10        -0.45411E+06         0.00000E+00
    0.00000E+00         0.00000E+00        -0.75013E+05
 
    0.79047E+05        -0.25298E-09         0.00000E+00
   -0.25298E-09        -0.45411E+06         0.00000E+00
    0.00000E+00         0.00000E+00        -0.75013E+05
 
    0.79047E+05        -0.75894E-09         0.00000E+00
   -0.75894E-09        -0.45411E+06         0.00000E+00
    0.00000E+00         0.00000E+00        -0.75013E+05
 
    0.79047E+05        -0.37947E-09         0.00000E+00
   -0.37947E-09        -0.45411E+06         0.00000E+00
    0.00000E+00         0.00000E+00        -0.75013E+05
 
    0.79047E+05         0.72280E-10         0.00000E+00
    0.72280E-10        -0.45411E+06         0.00000E+00
    0.00000E+00         0.00000E+00        -0.75013E+05
 
    0.79047E+05        -0.54210E-09         0.00000E+00
   -0.54210E-09        -0.45411E+06         0.00000E+00
    0.00000E+00         0.00000E+00        -0.75013E+05
 
    0.79047E+05         0.72280E-10         0.00000E+00
    0.72280E-10        -0.45411E+06         0.00000E+00
    0.00000E+00         0.00000E+00        -0.75013E+05
 
    0.78212E+05        -0.46982E-09         0.00000E+00
   -0.46982E-09        -0.45432E+06         0.00000E+00
    0.00000E+00         0.00000E+00        -0.75222E+05
 
    0.78212E+05         0.37947E-09         0.00000E+00
    0.37947E-09        -0.45432E+06         0.00000E+00
    0.00000E+00         0.00000E+00        -0.75222E+05
 
    0.78212E+05         0.72280E-09         0.00000E+00
    0.72280E-09        -0.45432E+06         0.00000E+00
    0.00000E+00         0.00000E+00        -0.75222E+05
 
    0.78212E+05        -0.14456E-08         0.00000E+00
   -0.14456E-08        -0.45432E+06         0.00000E+00
    0.00000E+00         0.00000E+00        -0.75222E+05
 
    0.78212E+05         0.14456E-09         0.00000E+00
    0.14456E-09        -0.45432E+06         0.00000E+00
    0.00000E+00         0.00000E+00        -0.75222E+05
 
    0.78212E+05        -0.65052E-09         0.00000E+00
   -0.65052E-09        -0.45432E+06         0.00000E+00
    0.00000E+00         0.00000E+00        -0.75222E+05
 
    0.78212E+05         0.75894E-09         0.00000E+00
    0.75894E-09        -0.45432E+06         0.00000E+00
    0.00000E+00         0.00000E+00        -0.75222E+05
 
    0.78212E+05         0.10842E-09         0.00000E+00
    0.10842E-09        -0.45432E+06         0.00000E+00
    0.00000E+00         0.00000E+00        -0.75222E+05
 
    0.78212E+05         0.18070E-09         0.00000E+00
    0.18070E-09        -0.45432E+06         0.00000E+00
    0.00000E+00         0.00000E+00        -0.75222E+05
 
    0.78212E+05         0.16263E-09         0.00000E+00
    0.16263E-09        -0.45432E+06         0.00000E+00
    0.00000E+00         0.00000E+00        -0.75222E+05
 
    0.78212E+05         0.30719E-09         0.00000E+00
    0.30719E-09        -0.45432E+06         0.00000E+00
    0.00000E+00         0.00000E+00        -0.75222E+05
 
    0.78212E+05        -0.39754E-09         0.00000E+00
   -0.39754E-09        -0.45432E+06         0.00000E+00
    0.00000E+00         0.00000E+00        -0.75222E+05
 
    0.78212E+05         0.43368E-09         0.00000E+00
    0.43368E-09        -0.45432E+06         0.00000E+00
    0.00000E+00         0.00000E+00        -0.75222E+05
 
    0.78212E+05         0.65052E-09         0.00000E+00
    0.65052E-09        -0.45432E+06         0.00000E+00
    0.00000E+00         0.00000E+00        -0.75222E+05
 
    0.78212E+05         0.36140E-09         0.00000E+00
    0.36140E-09        -0.45432E+06         0.00000E+00
    0.00000E+00         0.00000E+00        -0.75222E+05
 
    0.77352E+05         0.90350E-10         0.00000E+00
    0.90350E-10        -0.45454E+06         0.00000E+00
    0.00000E+00         0.00000E+00        -0.75437E+05
 
    0.77352E+05         0.00000E+00         0.00000E+00
    0.00000E+00        -0.45454E+06         0.00000E+00
    0.00000E+00         0.00000E+00        -0.75437E+05
 
    0.77352E+05         0.00000E+00         0.00000E+00
    0.00000E+00        -0.45454E+06         0.00000E+00
    0.00000E+00         0.00000E+00        -0.75437E+05
 
    0.77352E+05        -0.68666E-09         0.00000E+00
   -0.68666E-09        -0.45454E+06         0.00000E+00
    0.00000E+00         0.00000E+00        -0.75437E+05
 
    0.77352E+05         0.46982E-09         0.00000E+00
    0.46982E-09        -0.45454E+06         0.00000E+00
    0.00000E+00         0.00000E+00        -0.75437E+05
 
    0.77352E+05        -0.25298E-09         0.00000E+00
   -0.25298E-09        -0.45454E+06         0.00000E+00
    0.00000E+00         0.00000E+00        -0.75437E+05
 
    0.77352E+05         0.50596E-09         0.00000E+00
    0.50596E-09        -0.45454E+06         0.00000E+00
    0.00000E+00         0.00000E+00        -0.75437E+05
 
    0.77352E+05        -0.10842E-09         0.00000E+00
   -0.10842E-09        -0.45454E+06         0.00000E+00
    0.00000E+00         0.00000E+00        -0.75437E+05
 
    0.77352E+05        -0.41561E-09         0.00000E+00
   -0.41561E-09        -0.45454E+06         0.00000E+00
    0.00000E+00         0.00000E+00        -0.75437E+05
 
    0.77352E+05        -0.16263E-09         0.00000E+00
   -0.16263E-09        -0.45454E+06         0.00000E+00
    0.00000E+00         0.00000E+00        -0.75437E+05
 
    0.77352E+05         0.00000E+00         0.00000E+00
    0.00000E+00        -0.45454E+06         0.00000E+00
    0.00000E+00         0.00000E+00        -0.75437E+05
 
    0.77352E+05         0.16263E-09         0.00000E+00
    0.16263E-09        -0.45454E+06         0.00000E+00
    0.00000E+00         0.00000E+00        -0.75437E+05
 
    0.77352E+05        -0.50596E-09         0.00000E+00
   -0.50596E-09        -0.45454E+06         0.00000E+00
    0.00000E+00         0.00000E+00        -0.75437E+05
 
    0.77352E+05         0.68666E-09         0.00000E+00
    0.68666E-09        -0.45454E+06         0.00000E+00
    0.00000E+00         0.00000E+00        -0.75437E+05
 
    0.77352E+05         0.10842E-09         0.00000E+00
    0.10842E-09        -0.45454E+06         0.00000E+00
    0.00000E+00         0.00000E+00        -0.75437E+05
 
    0.76469E+05         0.14456E-09         0.00000E+00
    0.14456E-09        -0.45476E+06         0.00000E+00
    0.00000E+00         0.00000E+00        -0.75658E+05
 
    0.76469E+05         0.18070E-09         0.00000E+00
    0.18070E-09        -0.45476E+06         0.00000E+00
    0.00000E+00         0.00000E+00        -0.75658E+05
 
    0.76469E+05        -0.54210E-09         0.00000E+00
   -0.54210E-09        -0.45476E+06         0.00000E+00
    0.00000E+00         0.00000E+00        -0.75658E+05
 
    0.76469E+05         0.54210E-09         0.00000E+00
    0.54210E-09        -0.45476E+06         0.00000E+00
    0.00000E+00         0.00000E+00        -0.75658E+05
 
    0.76469E+05        -0.21684E-09         0.00000E+00
   -0.21684E-09        -0.45476E+06         0.00000E+00
    0.00000E+00         0.00000E+00        -0.75658E+05
 
    0.76469E+05        -0.36140E-09         0.00000E+00
   -0.36140E-09        -0.45476E+06         0.00000E+00
    0.00000E+00         0.00000E+00        -0.75658E+05
 
    0.76469E+05        -0.54210E-09         0.00000E+00
   -0.54210E-09        -0.45476E+06         0.00000E+00
    0.00000E+00         0.00000E+00        -0.75658E+05
 
    0.76469E+05        -0.25298E-09         0.00000E+00
   -0.25298E-09        -0.45476E+06         0.00000E+00
    0.00000E+00         0.00000E+00        -0.75658E+05
 
    0.76469E+05        -0.16263E-09         0.00000E+00
   -0.16263E-09        -0.45476E+06         0.00000E+00
    0.00000E+00         0.00000E+00        -0.75658E+05
 
    0.76469E+05        -0.25298E-09         0.00000E+00
   -0.25298E-09        -0.45476E+06         0.00000E+00
    0.00000E+00         0.00000E+00        -0.75658E+05
 
    0.76469E+05        -0.68666E-09         0.00000E+00
   -0.68666E-09        -0.45476E+06         0.00000E+00
    0.00000E+00         0.00000E+00        -0.75658E+05
 
    0.76469E+05         0.50596E-09         0.00000E+00
    0.50596E-09        -0.45476E+06         0.00000E+00
    0.00000E+00         0.00000E+00        -0.75658E+05
 
    0.76469E+05        -0.75894E-09         0.00000E+00
   -0.75894E-09        -0.45476E+06         0.00000E+00
    0.00000E+00         0.00000E+00        -0.75658E+05
 
    0.76469E+05        -0.14456E-09         0.00000E+00
   -0.14456E-09        -0.45476E+06         0.00000E+00
    0.00000E+00         0.00000E+00        -0.75658E+05
 
    0.76469E+05         0.39754E-09         0.00000E+00
    0.39754E-09        -0.45476E+06         0.00000E+00
    0.00000E+00         0.00000E+00        -0.75658E+05
 
    0.75563E+05        -0.21684E-09         0.00000E+00
   -0.21684E-09        -0.45499E+06         0.00000E+00
    0.00000E+00         0.00000E+00        -0.75884E+05
 
    0.75563E+05        -0.28912E-09         0.00000E+00
   -0.28912E-09        -0.45499E+06         0.00000E+00
    0.00000E+00         0.00000E+00        -0.75884E+05
 
    0.75563E+05        -0.90350E-09         0.00000E+00
   -0.90350E-09        -0.45499E+06         0.00000E+00
    0.00000E+00         0.00000E+00        -0.75884E+05
 
    0.75563E+05         0.10842E-09         0.00000E+00
    0.10842E-09        -0.45499E+06         0.00000E+00
    0.00000E+00         0.00000E+00        -0.75884E+05
 
    0.75563E+05         0.36140E-10         0.00000E+00
    0.36140E-10        -0.45499E+06         0.00000E+00
    0.00000E+00         0.00000E+00        -0.75884E+05
 
    0.75563E+05         0.25298E-09         0.00000E+00
    0.25298E-09        -0.45499E+06         0.00000E+00
    0.00000E+00         0.00000E+00        -0.75884E+05
 
    0.75563E+05        -0.18070E-09         0.00000E+00
   -0.18070E-09        -0.45499E+06         0.00000E+00
    0.00000E+00         0.00000E+00        -0.75884E+05
 
    0.75563E+05         0.83122E-09         0.00000E+00
    0.83122E-09        -0.45499E+06         0.00000E+00
    0.00000E+00         0.00000E+00        -0.75884E+05
 
    0.75563E+05        -0.25298E-09         0.00000E+00
   -0.25298E-09        -0.45499E+06         0.00000E+00
    0.00000E+00         0.00000E+00        -0.75884E+05
 
    0.75563E+05         0.45175E-09         0.00000E+00
    0.45175E-09        -0.45499E+06         0.00000E+00
    0.00000E+00         0.00000E+00        -0.75884E+05
 
    0.75563E+05        -0.57824E-09         0.00000E+00
   -0.57824E-09        -0.45499E+06         0.00000E+00
    0.00000E+00         0.00000E+00        -0.75884E+05
 
    0.75563E+05         0.10842E-09         0.00000E+00
    0.10842E-09        -0.45499E+06         0.00000E+00
    0.00000E+00         0.00000E+00        -0.75884E+05
 
    0.75563E+05        -0.21684E-09         0.00000E+00
   -0.21684E-09        -0.45499E+06         0.00000E+00
    0.00000E+00         0.00000E+00        -0.75884E+05
 
    0.75563E+05         0.68666E-09         0.00000E+00
    0.68666E-09        -0.45499E+06         0.00000E+00
    0.00000E+00         0.00000E+00        -0.75884E+05
 
    0.75563E+05         0.36140E-10         0.00000E+00
    0.36140E-10        -0.45499E+06         0.00000E+00
    0.00000E+00         0.00000E+00        -0.75884E+05
 
    0.74634E+05        -0.61438E-09         0.00000E+00
   -0.61438E-09        -0.45522E+06         0.00000E+00
    0.00000E+00         0.00000E+00        -0.76117E+05
 
    0.74634E+05        -0.10842E-09         0.00000E+00
   -0.10842E-09        -0.45522E+06         0.00000E+00
    0.00000E+00         0.00000E+00        -0.76117E+05
 
    0.74634E+05         0.10842E-09         0.00000E+00
    0.10842E-09        -0.45522E+06         0.00000E+00
    0.00000E+00         0.00000E+00        -0.76117E+05
 
    0.74634E+05        -0.72280E-10         0.00000E+00
   -0.72280E-10        -0.45522E+06         0.00000E+00
    0.00000E+00         0.00000E+00        -0.76117E+05
 
    0.74634E+05         0.18070E-09         0.00000E+00
    0.18070E-09        -0.45522E+06         0.00000E+00
    0.00000E+00         0.00000E+00        -0.76117E+05
 
    0.74634E+05         0.00000E+00         0.00000E+00
    0.00000E+00        -0.45522E+06         0.00000E+00
    0.00000E+00         0.00000E+00        -0.76117E+05
 
    0.74634E+05        -0.36140E-09         0.00000E+00
   -0.36140E-09        -0.45522E+06         0.00000E+00
    0.00000E+00         0.00000E+00        -0.76117E+05
 
    0.74634E+05        -0.21684E-09         0.00000E+00
   -0.21684E-09        -0.45522E+06         0.00000E+00
    0.00000E+00         0.00000E+00        -0.76117E+05
 
    0.74634E+05        -0.14456E-09         0.00000E+00
   -0.14456E-09        -0.45522E+06         0.00000E+00
    0.00000E+00         0.00000E+00        -0.76117E+05
 
    0.74634E+05         0.18070E-10         0.00000E+00
    0.18070E-10        -0.45522E+06         0.00000E+00
    0.00000E+00         0.00000E+00        -0.76117E+05
 
    0.74634E+05        -0.37947E-09         0.00000E+00
   -0.37947E-09        -0.45522E+06         0.00000E+00
    0.00000E+00         0.00000E+00        -0.76117E+05
 
    0.74634E+05         0.72280E-10         0.00000E+00
    0.72280E-10        -0.45522E+06         0.00000E+00
    0.00000E+00         0.00000E+00        -0.76117E+05
 
    0.74634E+05        -0.28912E-09         0.00000E+00
   -0.28912E-09        -0.45522E+06         0.00000E+00
    0.00000E+00         0.00000E+00        -0.76117E+05
 
    0.74634E+05         0.25298E-09         0.00000E+00
    0.25298E-09        -0.45522E+06         0.00000E+00
    0.00000E+00         0.00000E+00        -0.76117E+05
 
    0.74634E+05         0.00000E+00         0.00000E+00
    0.00000E+00        -0.45522E+06         0.00000E+00
    0.00000E+00         0.00000E+00        -0.76117E+05
 
    0.73683E+05         0.21684E-09         0.00000E+00
    0.21684E-09        -0.45546E+06         0.00000E+00
    0.00000E+00         0.00000E+00        -0.76355E+05
 
    0.73683E+05        -0.28912E-09         0.00000E+00
   -0.28912E-09        -0.45546E+06         0.00000E+00
    0.00000E+00         0.00000E+00        -0.76355E+05
 
    0.73683E+05        -0.18070E-09         0.00000E+00
   -0.18070E-09        -0.45546E+06         0.00000E+00
    0.00000E+00         0.00000E+00        -0.76355E+05
 
    0.73683E+05         0.21684E-09         0.00000E+00
    0.21684E-09        -0.45546E+06         0.00000E+00
    0.00000E+00         0.00000E+00        -0.76355E+05
 
    0.73683E+05        -0.36140E-10         0.00000E+00
   -0.36140E-10        -0.45546E+06         0.00000E+00
    0.00000E+00         0.00000E+00        -0.76355E+05
 
    0.73683E+05         0.72280E-10         0.00000E+00
    0.72280E-10        -0.45546E+06         0.00000E+00
    0.00000E+00         0.00000E+00        -0.76355E+05
 
    0.73683E+05        -0.18070E-09         0.00000E+00
   -0.18070E-09        -0.45546E+06         0.00000E+00
    0.00000E+00         0.00000E+00        -0.76355E+05
 
    0.73683E+05         0.21684E-09         0.00000E+00
    0.21684E-09        -0.45546E+06         0.00000E+00
    0.00000E+00         0.00000E+00        -0.76355E+05
 
    0.73683E+05        -0.10842E-09         0.00000E+00
   -0.10842E-09        -0.45546E+06         0.00000E+00
    0.00000E+00         0.00000E+00        -0.76355E+05
 
    0.73683E+05         0.18070E-09         0.00000E+00
    0.18070E-09        -0.45546E+06         0.00000E+00
    0.00000E+00         0.00000E+00        -0.76355E+05
 
    0.73683E+05        -0.21684E-09         0.00000E+00
   -0.21684E-09        -0.45546E+06         0.00000E+00
    0.00000E+00         0.00000E+00        -0.76355E+05
 
    0.73683E+05         0.28912E-09         0.00000E+00
    0.28912E-09        -0.45546E+06         0.00000E+00
    0.00000E+00         0.00000E+00        -0.76355E+05
 
    0.73683E+05        -0.10842E-09         0.00000E+00
   -0.10842E-09        -0.45546E+06         0.00000E+00
    0.00000E+00         0.00000E+00        -0.76355E+05
 
    0.73683E+05         0.21684E-09         0.00000E+00
    0.21684E-09        -0.45546E+06         0.00000E+00
    0.00000E+00         0.00000E+00        -0.76355E+05
 
    0.73683E+05        -0.21684E-09         0.00000E+00
   -0.21684E-09        -0.45546E+06         0.00000E+00
    0.00000E+00         0.00000E+00        -0.76355E+05
 
    0.72708E+05         0.86736E-09         0.00000E+00
    0.86736E-09        -0.45570E+06         0.00000E+00
    0.00000E+00         0.00000E+00        -0.76598E+05
 
    0.72708E+05        -0.79508E-09         0.00000E+00
   -0.79508E-09        -0.45570E+06         0.00000E+00
    0.00000E+00         0.00000E+00        -0.76598E+05
 
    0.72708E+05        -0.14456E-09         0.00000E+00
   -0.14456E-09        -0.45570E+06         0.00000E+00
    0.00000E+00         0.00000E+00        -0.76598E+05
 
    0.72708E+05        -0.18070E-09         0.00000E+00
   -0.18070E-09        -0.45570E+06         0.00000E+00
    0.00000E+00         0.00000E+00        -0.76598E+05
 
    0.72708E+05         0.36140E-10         0.00000E+00
    0.36140E-10        -0.45570E+06         0.00000E+00
    0.00000E+00         0.00000E+00        -0.76598E+05
 
    0.72708E+05        -0.28912E-09         0.00000E+00
   -0.28912E-09        -0.45570E+06         0.00000E+00
    0.00000E+00         0.00000E+00        -0.76598E+05
 
    0.72708E+05         0.97578E-09         0.00000E+00
    0.97578E-09        -0.45570E+06         0.00000E+00
    0.00000E+00         0.00000E+00        -0.76598E+05
 
    0.72708E+05        -0.18070E-09         0.00000E+00
   -0.18070E-09        -0.45570E+06         0.00000E+00
    0.00000E+00         0.00000E+00        -0.76598E+05
 
    0.72708E+05        -0.56017E-09         0.00000E+00
   -0.56017E-09        -0.45570E+06         0.00000E+00
    0.00000E+00         0.00000E+00        -0.76598E+05
 
    0.72708E+05         0.10842E-09         0.00000E+00
    0.10842E-09        -0.45570E+06         0.00000E+00
    0.00000E+00         0.00000E+00        -0.76598E+05
 
    0.72708E+05        -0.36140E-10         0.00000E+00
   -0.36140E-10        -0.45570E+06         0.00000E+00
    0.00000E+00         0.00000E+00        -0.76598E+05
 
    0.72708E+05         0.72280E-10         0.00000E+00
    0.72280E-10        -0.45570E+06         0.00000E+00
    0.00000E+00         0.00000E+00        -0.76598E+05
 
    0.72708E+05        -0.36140E-10         0.00000E+00
   -0.36140E-10        -0.45570E+06         0.00000E+00
    0.00000E+00         0.00000E+00        -0.76598E+05
 
    0.72708E+05         0.14456E-09         0.00000E+00
    0.14456E-09        -0.45570E+06         0.00000E+00
    0.00000E+00         0.00000E+00        -0.76598E+05
 
    0.72708E+05        -0.75894E-09         0.00000E+00
   -0.75894E-09        -0.45570E+06         0.00000E+00
    0.00000E+00         0.00000E+00        -0.76598E+05
 
    0.71711E+05         0.75894E-09         0.00000E+00
    0.75894E-09        -0.45595E+06         0.00000E+00
    0.00000E+00         0.00000E+00        -0.76848E+05
 
    0.71711E+05        -0.50596E-09         0.00000E+00
   -0.50596E-09        -0.45595E+06         0.00000E+00
    0.00000E+00         0.00000E+00        -0.76848E+05
 
    0.71711E+05        -0.18070E-09         0.00000E+00
   -0.18070E-09        -0.45595E+06         0.00000E+00
    0.00000E+00         0.00000E+00        -0.76848E+05
 
    0.71711E+05        -0.79508E-09         0.00000E+00
   -0.79508E-09        -0.45595E+06         0.00000E+00
    0.00000E+00         0.00000E+00        -0.76848E+05
 
    0.71711E+05         0.68666E-09         0.00000E+00
    0.68666E-09        -0.45595E+06         0.00000E+00
    0.00000E+00         0.00000E+00        -0.76848E+05
 
    0.71711E+05        -0.10842E-09         0.00000E+00
   -0.10842E-09        -0.45595E+06         0.00000E+00
    0.00000E+00         0.00000E+00        -0.76848E+05
 
    0.71711E+05         0.25298E-09         0.00000E+00
    0.25298E-09        -0.45595E+06         0.00000E+00
    0.00000E+00         0.00000E+00        -0.76848E+05
 
    0.71711E+05        -0.32526E-09         0.00000E+00
   -0.32526E-09        -0.45595E+06         0.00000E+00
    0.00000E+00         0.00000E+00        -0.76848E+05
 
    0.71711E+05        -0.41561E-09         0.00000E+00
   -0.41561E-09        -0.45595E+06         0.00000E+00
    0.00000E+00         0.00000E+00        -0.76848E+05
 
    0.71711E+05         0.46982E-09         0.00000E+00
    0.46982E-09        -0.45595E+06         0.00000E+00
    0.00000E+00         0.00000E+00        -0.76848E+05
 
    0.71711E+05         0.14456E-09         0.00000E+00
    0.14456E-09        -0.45595E+06         0.00000E+00
    0.00000E+00         0.00000E+00        -0.76848E+05
 
    0.71711E+05         0.46982E-09         0.00000E+00
    0.46982E-09        -0.45595E+06         0.00000E+00
    0.00000E+00         0.00000E+00        -0.76848E+05
 
    0.71711E+05         0.14456E-09         0.00000E+00
    0.14456E-09        -0.45595E+06         0.00000E+00
    0.00000E+00         0.00000E+00        -0.76848E+05
 
    0.71711E+05         0.36140E-10         0.00000E+00
    0.36140E-10        -0.45595E+06         0.00000E+00
    0.00000E+00         0.00000E+00        -0.76848E+05
 
    0.71711E+05        -0.10842E-09         0.00000E+00
   -0.10842E-09        -0.45595E+06         0.00000E+00
    0.00000E+00         0.00000E+00        -0.76848E+05
 
    0.70691E+05         0.32526E-09         0.00000E+00
    0.32526E-09        -0.45620E+06         0.00000E+00
    0.00000E+00         0.00000E+00        -0.77102E+05
 
    0.70691E+05         0.32526E-09         0.00000E+00
    0.32526E-09        -0.45620E+06         0.00000E+00
    0.00000E+00         0.00000E+00        -0.77102E+05
 
    0.70691E+05        -0.21684E-09         0.00000E+00
   -0.21684E-09        -0.45620E+06         0.00000E+00
    0.00000E+00         0.00000E+00        -0.77102E+05
 
    0.70691E+05        -0.68666E-09         0.00000E+00
   -0.68666E-09        -0.45620E+06         0.00000E+00
    0.00000E+00         0.00000E+00        -0.77102E+05
 
    0.70691E+05         0.21684E-09         0.00000E+00
    0.21684E-09        -0.45620E+06         0.00000E+00
    0.00000E+00         0.00000E+00        -0.77102E+05
 
    0.70691E+05        -0.25298E-09         0.00000E+00
   -0.25298E-09        -0.45620E+06         0.00000E+00
    0.00000E+00         0.00000E+00        -0.77102E+05
 
    0.70691E+05         0.00000E+00         0.00000E+00
    0.00000E+00        -0.45620E+06         0.00000E+00
    0.00000E+00         0.00000E+00        -0.77102E+05
 
    0.70691E+05        -0.25298E-09         0.00000E+00
   -0.25298E-09        -0.45620E+06         0.00000E+00
    0.00000E+00         0.00000E+00        -0.77102E+05
 
    0.70691E+05        -0.12649E-09         0.00000E+00
   -0.12649E-09        -0.45620E+06         0.00000E+00
    0.00000E+00         0.00000E+00        -0.77102E+05
 
    0.70691E+05         0.90350E-10         0.00000E+00
    0.90350E-10        -0.45620E+06         0.00000E+00
    0.00000E+00         0.00000E+00        -0.77102E+05
 
    0.70691E+05        -0.10842E-09         0.00000E+00
   -0.10842E-09        -0.45620E+06         0.00000E+00
    0.00000E+00         0.00000E+00        -0.77102E+05
 
    0.70691E+05         0.14456E-09         0.00000E+00
    0.14456E-09        -0.45620E+06         0.00000E+00
    0.00000E+00         0.00000E+00        -0.77102E+05
 
    0.70691E+05         0.36140E-10         0.00000E+00
    0.36140E-10        -0.45620E+06         0.00000E+00
    0.00000E+00         0.00000E+00        -0.77102E+05
 
    0.70691E+05         0.36140E-10         0.00000E+00
    0.36140E-10        -0.45620E+06         0.00000E+00
    0.00000E+00         0.00000E+00        -0.77102E+05
 
    0.70691E+05         0.28912E-09         0.00000E+00
    0.28912E-09        -0.45620E+06         0.00000E+00
    0.00000E+00         0.00000E+00        -0.77102E+05
 
    0.69650E+05         0.10842E-09         0.00000E+00
    0.10842E-09        -0.45646E+06         0.00000E+00
    0.00000E+00         0.00000E+00        -0.77363E+05
 
    0.69650E+05        -0.57824E-09         0.00000E+00
   -0.57824E-09        -0.45646E+06         0.00000E+00
    0.00000E+00         0.00000E+00        -0.77363E+05
 
    0.69650E+05         0.00000E+00         0.00000E+00
    0.00000E+00        -0.45646E+06         0.00000E+00
    0.00000E+00         0.00000E+00        -0.77363E+05
 
    0.69650E+05        -0.10842E-09         0.00000E+00
   -0.10842E-09        -0.45646E+06         0.00000E+00
    0.00000E+00         0.00000E+00        -0.77363E+05
 
    0.69650E+05        -0.36140E-10         0.00000E+00
   -0.36140E-10        -0.45646E+06         0.00000E+00
    0.00000E+00         0.00000E+00        -0.77363E+05
 
    0.69650E+05         0.25298E-09         0.00000E+00
    0.25298E-09        -0.45646E+06         0.00000E+00
    0.00000E+00         0.00000E+00        -0.77363E+05
 
    0.69650E+05         0.14456E-09         0.00000E+00
    0.14456E-09        -0.45646E+06         0.00000E+00
    0.00000E+00         0.00000E+00        -0.77363E+05
 
    0.69650E+05        -0.10842E-09         0.00000E+00
   -0.10842E-09        -0.45646E+06         0.00000E+00
    0.00000E+00         0.00000E+00        -0.77363E+05
 
    0.69650E+05         0.23491E-09         0.00000E+00
    0.23491E-09        -0.45646E+06         0.00000E+00
    0.00000E+00         0.00000E+00        -0.77363E+05
 
    0.69650E+05        -0.39754E-09         0.00000E+00
   -0.39754E-09        -0.45646E+06         0.00000E+00
    0.00000E+00         0.00000E+00        -0.77363E+05
 
    0.69650E+05         0.46982E-09         0.00000E+00
    0.46982E-09        -0.45646E+06         0.00000E+00
    0.00000E+00         0.00000E+00        -0.77363E+05
 
    0.69650E+05        -0.32526E-09         0.00000E+00
   -0.32526E-09        -0.45646E+06         0.00000E+00
    0.00000E+00         0.00000E+00        -0.77363E+05
 
    0.69650E+05        -0.10842E-09         0.00000E+00
   -0.10842E-09        -0.45646E+06         0.00000E+00
    0.00000E+00         0.00000E+00        -0.77363E+05
 
    0.69650E+05         0.14456E-09         0.00000E+00
    0.14456E-09        -0.45646E+06         0.00000E+00
    0.00000E+00         0.00000E+00        -0.77363E+05
 
    0.69650E+05         0.21684E-09         0.00000E+00
    0.21684E-09        -0.45646E+06         0.00000E+00
    0.00000E+00         0.00000E+00        -0.77363E+05
 
    0.68586E+05         0.72280E-09         0.00000E+00
    0.72280E-09        -0.45673E+06         0.00000E+00
    0.00000E+00         0.00000E+00        -0.77629E+05
 
    0.68586E+05         0.28912E-09         0.00000E+00
    0.28912E-09        -0.45673E+06         0.00000E+00
    0.00000E+00         0.00000E+00        -0.77629E+05
 
    0.68586E+05         0.14456E-09         0.00000E+00
    0.14456E-09        -0.45673E+06         0.00000E+00
    0.00000E+00         0.00000E+00        -0.77629E+05
 
    0.68586E+05         0.00000E+00         0.00000E+00
    0.00000E+00        -0.45673E+06         0.00000E+00
    0.00000E+00         0.00000E+00        -0.77629E+05
 
    0.68586E+05         0.72280E-10         0.00000E+00
    0.72280E-10        -0.45673E+06         0.00000E+00
    0.00000E+00         0.00000E+00        -0.77629E+05
 
    0.68586E+05         0.14456E-09         0.00000E+00
    0.14456E-09        -0.45673E+06         0.00000E+00
    0.00000E+00         0.00000E+00        -0.77629E+05
 
    0.68586E+05         0.10842E-09         0.00000E+00
    0.10842E-09        -0.45673E+06         0.00000E+00
    0.00000E+00         0.00000E+00        -0.77629E+05
 
    0.68586E+05         0.72280E-10         0.00000E+00
    0.72280E-10        -0.45673E+06         0.00000E+00
    0.00000E+00         0.00000E+00        -0.77629E+05
 
    0.68586E+05        -0.12649E-09         0.00000E+00
   -0.12649E-09        -0.45673E+06         0.00000E+00
    0.00000E+00         0.00000E+00        -0.77629E+05
 
    0.68586E+05        -0.72280E-09         0.00000E+00
   -0.72280E-09        -0.45673E+06         0.00000E+00
    0.00000E+00         0.00000E+00        -0.77629E+05
 
    0.68586E+05         0.61438E-09         0.00000E+00
    0.61438E-09        -0.45673E+06         0.00000E+00
    0.00000E+00         0.00000E+00        -0.77629E+05
 
    0.68586E+05        -0.32526E-09         0.00000E+00
   -0.32526E-09        -0.45673E+06         0.00000E+00
    0.00000E+00         0.00000E+00        -0.77629E+05
 
    0.68586E+05        -0.36140E-10         0.00000E+00
   -0.36140E-10        -0.45673E+06         0.00000E+00
    0.00000E+00         0.00000E+00        -0.77629E+05
 
    0.68586E+05         0.00000E+00         0.00000E+00
    0.00000E+00        -0.45673E+06         0.00000E+00
    0.00000E+00         0.00000E+00        -0.77629E+05
 
    0.68586E+05        -0.39754E-09         0.00000E+00
   -0.39754E-09        -0.45673E+06         0.00000E+00
    0.00000E+00         0.00000E+00        -0.77629E+05
 
    0.67501E+05         0.32526E-09         0.00000E+00
    0.32526E-09        -0.45700E+06         0.00000E+00
    0.00000E+00         0.00000E+00        -0.77900E+05
 
    0.67501E+05         0.00000E+00         0.00000E+00
    0.00000E+00        -0.45700E+06         0.00000E+00
    0.00000E+00         0.00000E+00        -0.77900E+05
 
    0.67501E+05         0.10842E-09         0.00000E+00
    0.10842E-09        -0.45700E+06         0.00000E+00
    0.00000E+00         0.00000E+00        -0.77900E+05
 
    0.67501E+05         0.39754E-09         0.00000E+00
    0.39754E-09        -0.45700E+06         0.00000E+00
    0.00000E+00         0.00000E+00        -0.77900E+05
 
    0.67501E+05        -0.14456E-09         0.00000E+00
   -0.14456E-09        -0.45700E+06         0.00000E+00
    0.00000E+00         0.00000E+00        -0.77900E+05
 
    0.67501E+05        -0.21684E-09         0.00000E+00
   -0.21684E-09        -0.45700E+06         0.00000E+00
    0.00000E+00         0.00000E+00        -0.77900E+05
 
    0.67501E+05        -0.54210E-09         0.00000E+00
   -0.54210E-09        -0.45700E+06         0.00000E+00
    0.00000E+00         0.00000E+00        -0.77900E+05
 
    0.67501E+05         0.79508E-09         0.00000E+00
    0.79508E-09        -0.45700E+06         0.00000E+00
    0.00000E+00         0.00000E+00        -0.77900E+05
 
    0.67501E+05        -0.61438E-09         0.00000E+00
   -0.61438E-09        -0.45700E+06         0.00000E+00
    0.00000E+00         0.00000E+00        -0.77900E+05
 
    0.67501E+05         0.21684E-09         0.00000E+00
    0.21684E-09        -0.45700E+06         0.00000E+00
    0.00000E+00         0.00000E+00        -0.77900E+05
 
    0.67501E+05        -0.21684E-09         0.00000E+00
   -0.21684E-09        -0.45700E+06         0.00000E+00
    0.00000E+00         0.00000E+00        -0.77900E+05
 
    0.67501E+05        -0.39754E-09         0.00000E+00
   -0.39754E-09        -0.45700E+06         0.00000E+00
    0.00000E+00         0.00000E+00        -0.77900E+05
 
    0.67501E+05         0.18070E-09         0.00000E+00
    0.18070E-09        -0.45700E+06         0.00000E+00
    0.00000E+00         0.00000E+00        -0.77900E+05
 
    0.67501E+05        -0.14456E-09         0.00000E+00
   -0.14456E-09        -0.45700E+06         0.00000E+00
    0.00000E+00         0.00000E+00        -0.77900E+05
 
    0.67501E+05        -0.36140E-10         0.00000E+00
   -0.36140E-10        -0.45700E+06         0.00000E+00
    0.00000E+00         0.00000E+00        -0.77900E+05
 
    0.66395E+05         0.10842E-09         0.00000E+00
    0.10842E-09        -0.45728E+06         0.00000E+00
    0.00000E+00         0.00000E+00        -0.78177E+05
 
    0.66395E+05         0.00000E+00         0.00000E+00
    0.00000E+00        -0.45728E+06         0.00000E+00
    0.00000E+00         0.00000E+00        -0.78177E+05
 
    0.66395E+05        -0.36140E-09         0.00000E+00
   -0.36140E-09        -0.45728E+06         0.00000E+00
    0.00000E+00         0.00000E+00        -0.78177E+05
 
    0.66395E+05         0.54210E-09         0.00000E+00
    0.54210E-09        -0.45728E+06         0.00000E+00
    0.00000E+00         0.00000E+00        -0.78177E+05
 
    0.66395E+05        -0.14456E-09         0.00000E+00
   -0.14456E-09        -0.45728E+06         0.00000E+00
    0.00000E+00         0.00000E+00        -0.78177E+05
 
    0.66395E+05        -0.75894E-09         0.00000E+00
   -0.75894E-09        -0.45728E+06         0.00000E+00
    0.00000E+00         0.00000E+00        -0.78177E+05
 
    0.66395E+05         0.28912E-09         0.00000E+00
    0.28912E-09        -0.45728E+06         0.00000E+00
    0.00000E+00         0.00000E+00        -0.78177E+05
 
    0.66395E+05         0.21684E-09         0.00000E+00
    0.21684E-09        -0.45728E+06         0.00000E+00
    0.00000E+00         0.00000E+00        -0.78177E+05
 
    0.66395E+05        -0.48789E-09         0.00000E+00
   -0.48789E-09        -0.45728E+06         0.00000E+00
    0.00000E+00         0.00000E+00        -0.78177E+05
 
    0.66395E+05         0.75894E-09         0.00000E+00
    0.75894E-09        -0.45728E+06         0.00000E+00
    0.00000E+00         0.00000E+00        -0.78177E+05
 
    0.66395E+05         0.18070E-09         0.00000E+00
    0.18070E-09        -0.45728E+06         0.00000E+00
    0.00000E+00         0.00000E+00        -0.78177E+05
 
    0.66395E+05        -0.90350E-09         0.00000E+00
   -0.90350E-09        -0.45728E+06         0.00000E+00
    0.00000E+00         0.00000E+00        -0.78177E+05
 
    0.66395E+05         0.68666E-09         0.00000E+00
    0.68666E-09        -0.45728E+06         0.00000E+00
    0.00000E+00         0.00000E+00        -0.78177E+05
 
    0.66395E+05         0.72280E-10         0.00000E+00
    0.72280E-10        -0.45728E+06         0.00000E+00
    0.00000E+00         0.00000E+00        -0.78177E+05
 
    0.66395E+05        -0.39754E-09         0.00000E+00
   -0.39754E-09        -0.45728E+06         0.00000E+00
    0.00000E+00         0.00000E+00        -0.78177E+05
 
    0.65267E+05         0.00000E+00         0.00000E+00
    0.00000E+00        -0.45756E+06         0.00000E+00
    0.00000E+00         0.00000E+00        -0.78458E+05
 
    0.65267E+05         0.72280E-10         0.00000E+00
    0.72280E-10        -0.45756E+06         0.00000E+00
    0.00000E+00         0.00000E+00        -0.78458E+05
 
    0.65267E+05         0.39754E-09         0.00000E+00
    0.39754E-09        -0.45756E+06         0.00000E+00
    0.00000E+00         0.00000E+00        -0.78458E+05
 
    0.65267E+05         0.36140E-09         0.00000E+00
    0.36140E-09        -0.45756E+06         0.00000E+00
    0.00000E+00         0.00000E+00        -0.78458E+05
 
    0.65267E+05        -0.18070E-09         0.00000E+00
   -0.18070E-09        -0.45756E+06         0.00000E+00
    0.00000E+00         0.00000E+00        -0.78458E+05
 
    0.65267E+05         0.36140E-10         0.00000E+00
    0.36140E-10        -0.45756E+06         0.00000E+00
    0.00000E+00         0.00000E+00        -0.78458E+05
 
    0.65267E+05         0.21684E-09         0.00000E+00
    0.21684E-09        -0.45756E+06         0.00000E+00
    0.00000E+00         0.00000E+00        -0.78458E+05
 
    0.65267E+05        -0.28912E-09         0.00000E+00
   -0.28912E-09        -0.45756E+06         0.00000E+00
    0.00000E+00         0.00000E+00        -0.78458E+05
 
    0.65267E+05         0.54210E-09         0.00000E+00
    0.54210E-09        -0.45756E+06         0.00000E+00
    0.00000E+00         0.00000E+00        -0.78458E+05
 
    0.65267E+05         0.14456E-09         0.00000E+00
    0.14456E-09        -0.45756E+06         0.00000E+00
    0.00000E+00         0.00000E+00        -0.78458E+05
 
    0.65267E+05        -0.10842E-09         0.00000E+00
   -0.10842E-09        -0.45756E+06         0.00000E+00
    0.00000E+00         0.00000E+00        -0.78458E+05
 
    0.65267E+05        -0.25298E-09         0.00000E+00
   -0.25298E-09        -0.45756E+06         0.00000E+00
    0.00000E+00         0.00000E+00        -0.78458E+05
 
    0.65267E+05        -0.39754E-09         0.00000E+00
   -0.39754E-09        -0.45756E+06         0.00000E+00
    0.00000E+00         0.00000E+00        -0.78458E+05
 
    0.65267E+05        -0.21684E-09         0.00000E+00
   -0.21684E-09        -0.45756E+06         0.00000E+00
    0.00000E+00         0.00000E+00        -0.78458E+05
 
    0.65267E+05        -0.18070E-09         0.00000E+00
   -0.18070E-09        -0.45756E+06         0.00000E+00
    0.00000E+00         0.00000E+00        -0.78458E+05
 
    0.64118E+05         0.93964E-09         0.00000E+00
    0.93964E-09        -0.45785E+06         0.00000E+00
    0.00000E+00         0.00000E+00        -0.78746E+05
 
    0.64118E+05        -0.28912E-09         0.00000E+00
   -0.28912E-09        -0.45785E+06         0.00000E+00
    0.00000E+00         0.00000E+00        -0.78746E+05
 
    0.64118E+05         0.18070E-09         0.00000E+00
    0.18070E-09        -0.45785E+06         0.00000E+00
    0.00000E+00         0.00000E+00        -0.78746E+05
 
    0.64118E+05        -0.36140E-10         0.00000E+00
   -0.36140E-10        -0.45785E+06         0.00000E+00
    0.00000E+00         0.00000E+00        -0.78746E+05
 
    0.64118E+05        -0.46982E-09         0.00000E+00
   -0.46982E-09        -0.45785E+06         0.00000E+00
    0.00000E+00         0.00000E+00        -0.78746E+05
 
    0.64118E+05         0.50596E-09         0.00000E+00
    0.50596E-09        -0.45785E+06         0.00000E+00
    0.00000E+00         0.00000E+00        -0.78746E+05
 
    0.64118E+05         0.10119E-08         0.00000E+00
    0.10119E-08        -0.45785E+06         0.00000E+00
    0.00000E+00         0.00000E+00        -0.78746E+05
 
    0.64118E+05        -0.46982E-09         0.00000E+00
   -0.46982E-09        -0.45785E+06         0.00000E+00
    0.00000E+00         0.00000E+00        -0.78746E+05
 
    0.64118E+05         0.50596E-09         0.00000E+00
    0.50596E-09        -0.45785E+06         0.00000E+00
    0.00000E+00         0.00000E+00        -0.78746E+05
 
    0.64118E+05         0.10842E-09         0.00000E+00
    0.10842E-09        -0.45785E+06         0.00000E+00
    0.00000E+00         0.00000E+00        -0.78746E+05
 
    0.64118E+05         0.10481E-08         0.00000E+00
    0.10481E-08        -0.45785E+06         0.00000E+00
    0.00000E+00         0.00000E+00        -0.78746E+05
 
    0.64118E+05         0.32526E-09         0.00000E+00
    0.32526E-09        -0.45785E+06         0.00000E+00
    0.00000E+00         0.00000E+00        -0.78746E+05
 
    0.64118E+05         0.36140E-10         0.00000E+00
    0.36140E-10        -0.45785E+06         0.00000E+00
    0.00000E+00         0.00000E+00        -0.78746E+05
 
    0.64118E+05         0.75894E-09         0.00000E+00
    0.75894E-09        -0.45785E+06         0.00000E+00
    0.00000E+00         0.00000E+00        -0.78746E+05
 
    0.64118E+05         0.28912E-09         0.00000E+00
    0.28912E-09        -0.45785E+06         0.00000E+00
    0.00000E+00         0.00000E+00        -0.78746E+05
 
    0.62949E+05        -0.72280E-10         0.00000E+00
   -0.72280E-10        -0.45814E+06         0.00000E+00
    0.00000E+00         0.00000E+00        -0.79038E+05
 
    0.62949E+05        -0.50596E-09         0.00000E+00
   -0.50596E-09        -0.45814E+06         0.00000E+00
    0.00000E+00         0.00000E+00        -0.79038E+05
 
    0.62949E+05         0.18070E-09         0.00000E+00
    0.18070E-09        -0.45814E+06         0.00000E+00
    0.00000E+00         0.00000E+00        -0.79038E+05
 
    0.62949E+05         0.25298E-09         0.00000E+00
    0.25298E-09        -0.45814E+06         0.00000E+00
    0.00000E+00         0.00000E+00        -0.79038E+05
 
    0.62949E+05        -0.14456E-09         0.00000E+00
   -0.14456E-09        -0.45814E+06         0.00000E+00
    0.00000E+00         0.00000E+00        -0.79038E+05
 
    0.62949E+05         0.72280E-10         0.00000E+00
    0.72280E-10        -0.45814E+06         0.00000E+00
    0.00000E+00         0.00000E+00        -0.79038E+05
 
    0.62949E+05        -0.14456E-09         0.00000E+00
   -0.14456E-09        -0.45814E+06         0.00000E+00
    0.00000E+00         0.00000E+00        -0.79038E+05
 
    0.62949E+05         0.00000E+00         0.00000E+00
    0.00000E+00        -0.45814E+06         0.00000E+00
    0.00000E+00         0.00000E+00        -0.79038E+05
 
    0.62949E+05         0.43368E-09         0.00000E+00
    0.43368E-09        -0.45814E+06         0.00000E+00
    0.00000E+00         0.00000E+00        -0.79038E+05
 
    0.62949E+05        -0.28912E-09         0.00000E+00
   -0.28912E-09        -0.45814E+06         0.00000E+00
    0.00000E+00         0.00000E+00        -0.79038E+05
 
    0.62949E+05         0.50596E-09         0.00000E+00
    0.50596E-09        -0.45814E+06         0.00000E+00
    0.00000E+00         0.00000E+00        -0.79038E+05
 
    0.62949E+05         0.39754E-09         0.00000E+00
    0.39754E-09        -0.45814E+06         0.00000E+00
    0.00000E+00         0.00000E+00        -0.79038E+05
 
    0.62949E+05         0.46982E-09         0.00000E+00
    0.46982E-09        -0.45814E+06         0.00000E+00
    0.00000E+00         0.00000E+00        -0.79038E+05
 
    0.62949E+05         0.50596E-09         0.00000E+00
    0.50596E-09        -0.45814E+06         0.00000E+00
    0.00000E+00         0.00000E+00        -0.79038E+05
 
    0.62949E+05         0.25298E-09         0.00000E+00
    0.25298E-09        -0.45814E+06         0.00000E+00
    0.00000E+00         0.00000E+00        -0.79038E+05
 
    0.61759E+05        -0.36140E-10         0.00000E+00
   -0.36140E-10        -0.45844E+06         0.00000E+00
    0.00000E+00         0.00000E+00        -0.79336E+05
 
    0.61759E+05         0.32526E-09         0.00000E+00
    0.32526E-09        -0.45844E+06         0.00000E+00
    0.00000E+00         0.00000E+00        -0.79336E+05
 
    0.61759E+05         0.14456E-09         0.00000E+00
    0.14456E-09        -0.45844E+06         0.00000E+00
    0.00000E+00         0.00000E+00        -0.79336E+05
 
    0.61759E+05        -0.72280E-10         0.00000E+00
   -0.72280E-10        -0.45844E+06         0.00000E+00
    0.00000E+00         0.00000E+00        -0.79336E+05
 
    0.61759E+05         0.25298E-09         0.00000E+00
    0.25298E-09        -0.45844E+06         0.00000E+00
    0.00000E+00         0.00000E+00        -0.79336E+05
 
    0.61759E+05        -0.72280E-10         0.00000E+00
   -0.72280E-10        -0.45844E+06         0.00000E+00
    0.00000E+00         0.00000E+00        -0.79336E+05
 
    0.61759E+05        -0.79508E-09         0.00000E+00
   -0.79508E-09        -0.45844E+06         0.00000E+00
    0.00000E+00         0.00000E+00        -0.79336E+05
 
    0.61759E+05         0.25298E-09         0.00000E+00
    0.25298E-09        -0.45844E+06         0.00000E+00
    0.00000E+00         0.00000E+00        -0.79336E+05
 
    0.61759E+05         0.28912E-09         0.00000E+00
    0.28912E-09        -0.45844E+06         0.00000E+00
    0.00000E+00         0.00000E+00        -0.79336E+05
 
    0.61759E+05         0.43368E-09         0.00000E+00
    0.43368E-09        -0.45844E+06         0.00000E+00
    0.00000E+00         0.00000E+00        -0.79336E+05
 
    0.61759E+05        -0.57824E-09         0.00000E+00
   -0.57824E-09        -0.45844E+06         0.00000E+00
    0.00000E+00         0.00000E+00        -0.79336E+05
 
    0.61759E+05        -0.10842E-09         0.00000E+00
   -0.10842E-09        -0.45844E+06         0.00000E+00
    0.00000E+00         0.00000E+00        -0.79336E+05
 
    0.61759E+05        -0.46982E-09         0.00000E+00
   -0.46982E-09        -0.45844E+06         0.00000E+00
    0.00000E+00         0.00000E+00        -0.79336E+05
 
    0.61759E+05         0.14456E-09         0.00000E+00
    0.14456E-09        -0.45844E+06         0.00000E+00
    0.00000E+00         0.00000E+00        -0.79336E+05
 
    0.61759E+05         0.36140E-10         0.00000E+00
    0.36140E-10        -0.45844E+06         0.00000E+00
    0.00000E+00         0.00000E+00        -0.79336E+05
 
    0.60548E+05         0.15902E-08         0.00000E+00
    0.15902E-08        -0.45874E+06         0.00000E+00
    0.00000E+00         0.00000E+00        -0.79638E+05
 
    0.60548E+05        -0.72280E-10         0.00000E+00
   -0.72280E-10        -0.45874E+06         0.00000E+00
    0.00000E+00         0.00000E+00        -0.79638E+05
 
    0.60548E+05        -0.50596E-09         0.00000E+00
   -0.50596E-09        -0.45874E+06         0.00000E+00
    0.00000E+00         0.00000E+00        -0.79638E+05
 
    0.60548E+05        -0.25298E-09         0.00000E+00
   -0.25298E-09        -0.45874E+06         0.00000E+00
    0.00000E+00         0.00000E+00        -0.79638E+05
 
    0.60548E+05         0.46982E-09         0.00000E+00
    0.46982E-09        -0.45874E+06         0.00000E+00
    0.00000E+00         0.00000E+00        -0.79638E+05
 
    0.60548E+05        -0.21684E-09         0.00000E+00
   -0.21684E-09        -0.45874E+06         0.00000E+00
    0.00000E+00         0.00000E+00        -0.79638E+05
 
    0.60548E+05         0.36140E-10         0.00000E+00
    0.36140E-10        -0.45874E+06         0.00000E+00
    0.00000E+00         0.00000E+00        -0.79638E+05
 
    0.60548E+05        -0.83122E-09         0.00000E+00
   -0.83122E-09        -0.45874E+06         0.00000E+00
    0.00000E+00         0.00000E+00        -0.79638E+05
 
    0.60548E+05         0.86736E-09         0.00000E+00
    0.86736E-09        -0.45874E+06         0.00000E+00
    0.00000E+00         0.00000E+00        -0.79638E+05
 
    0.60548E+05         0.14456E-09         0.00000E+00
    0.14456E-09        -0.45874E+06         0.00000E+00
    0.00000E+00         0.00000E+00        -0.79638E+05
 
    0.60548E+05         0.65052E-09         0.00000E+00
    0.65052E-09        -0.45874E+06         0.00000E+00
    0.00000E+00         0.00000E+00        -0.79638E+05
 
    0.60548E+05        -0.61438E-09         0.00000E+00
   -0.61438E-09        -0.45874E+06         0.00000E+00
    0.00000E+00         0.00000E+00        -0.79638E+05
 
    0.60548E+05        -0.79508E-09         0.00000E+00
   -0.79508E-09        -0.45874E+06         0.00000E+00
    0.00000E+00         0.00000E+00        -0.79638E+05
 
    0.60548E+05         0.14456E-09         0.00000E+00
    0.14456E-09        -0.45874E+06         0.00000E+00
    0.00000E+00         0.00000E+00        -0.79638E+05
 
    0.60548E+05        -0.14456E-09         0.00000E+00
   -0.14456E-09        -0.45874E+06         0.00000E+00
    0.00000E+00         0.00000E+00        -0.79638E+05
 
    0.59318E+05        -0.14456E-09         0.00000E+00
   -0.14456E-09        -0.45905E+06         0.00000E+00
    0.00000E+00         0.00000E+00        -0.79946E+05
 
    0.59318E+05        -0.50596E-09         0.00000E+00
   -0.50596E-09        -0.45905E+06         0.00000E+00
    0.00000E+00         0.00000E+00        -0.79946E+05
 
    0.59318E+05        -0.18070E-09         0.00000E+00
   -0.18070E-09        -0.45905E+06         0.00000E+00
    0.00000E+00         0.00000E+00        -0.79946E+05
 
    0.59318E+05         0.18070E-09         0.00000E+00
    0.18070E-09        -0.45905E+06         0.00000E+00
    0.00000E+00         0.00000E+00        -0.79946E+05
 
    0.59318E+05         0.25298E-09         0.00000E+00
    0.25298E-09        -0.45905E+06         0.00000E+00
    0.00000E+00         0.00000E+00        -0.79946E+05
 
    0.59318E+05        -0.43368E-09         0.00000E+00
   -0.43368E-09        -0.45905E+06         0.00000E+00
    0.00000E+00         0.00000E+00        -0.79946E+05
 
    0.59318E+05         0.00000E+00         0.00000E+00
    0.00000E+00        -0.45905E+06         0.00000E+00
    0.00000E+00         0.00000E+00        -0.79946E+05
 
    0.59318E+05         0.65052E-09         0.00000E+00
    0.65052E-09        -0.45905E+06         0.00000E+00
    0.00000E+00         0.00000E+00        -0.79946E+05
 
    0.59318E+05         0.54210E-09         0.00000E+00
    0.54210E-09        -0.45905E+06         0.00000E+00
    0.00000E+00         0.00000E+00        -0.79946E+05
 
    0.59318E+05         0.36140E-10         0.00000E+00
    0.36140E-10        -0.45905E+06         0.00000E+00
    0.00000E+00         0.00000E+00        -0.79946E+05
 
    0.59318E+05        -0.46982E-09         0.00000E+00
   -0.46982E-09        -0.45905E+06         0.00000E+00
    0.00000E+00         0.00000E+00        -0.79946E+05
 
    0.59318E+05        -0.28912E-09         0.00000E+00
   -0.28912E-09        -0.45905E+06         0.00000E+00
    0.00000E+00         0.00000E+00        -0.79946E+05
 
    0.59318E+05         0.36140E-10         0.00000E+00
    0.36140E-10        -0.45905E+06         0.00000E+00
    0.00000E+00         0.00000E+00        -0.79946E+05
 
    0.59318E+05        -0.43368E-09         0.00000E+00
   -0.43368E-09        -0.45905E+06         0.00000E+00
    0.00000E+00         0.00000E+00        -0.79946E+05
 
    0.59318E+05         0.00000E+00         0.00000E+00
    0.00000E+00        -0.45905E+06         0.00000E+00
    0.00000E+00         0.00000E+00        -0.79946E+05
 
    0.58068E+05        -0.65052E-09         0.00000E+00
   -0.65052E-09        -0.45936E+06         0.00000E+00
    0.00000E+00         0.00000E+00        -0.80258E+05
 
    0.58068E+05         0.36140E-10         0.00000E+00
    0.36140E-10        -0.45936E+06         0.00000E+00
    0.00000E+00         0.00000E+00        -0.80258E+05
 
    0.58068E+05         0.72280E-10         0.00000E+00
    0.72280E-10        -0.45936E+06         0.00000E+00
    0.00000E+00         0.00000E+00        -0.80258E+05
 
    0.58068E+05         0.93964E-09         0.00000E+00
    0.93964E-09        -0.45936E+06         0.00000E+00
    0.00000E+00         0.00000E+00        -0.80258E+05
 
    0.58068E+05        -0.72280E-10         0.00000E+00
   -0.72280E-10        -0.45936E+06         0.00000E+00
    0.00000E+00         0.00000E+00        -0.80258E+05
 
    0.58068E+05        -0.46982E-09         0.00000E+00
   -0.46982E-09        -0.45936E+06         0.00000E+00
    0.00000E+00         0.00000E+00        -0.80258E+05
 
    0.58068E+05         0.10842E-09         0.00000E+00
    0.10842E-09        -0.45936E+06         0.00000E+00
    0.00000E+00         0.00000E+00        -0.80258E+05
 
    0.58068E+05         0.54210E-09         0.00000E+00
    0.54210E-09        -0.45936E+06         0.00000E+00
    0.00000E+00         0.00000E+00        -0.80258E+05
 
    0.58068E+05         0.57824E-09         0.00000E+00
    0.57824E-09        -0.45936E+06         0.00000E+00
    0.00000E+00         0.00000E+00        -0.80258E+05
 
    0.58068E+05        -0.86736E-09         0.00000E+00
   -0.86736E-09        -0.45936E+06         0.00000E+00
    0.00000E+00         0.00000E+00        -0.80258E+05
 
    0.58068E+05        -0.14456E-09         0.00000E+00
   -0.14456E-09        -0.45936E+06         0.00000E+00
    0.00000E+00         0.00000E+00        -0.80258E+05
 
    0.58068E+05        -0.21684E-09         0.00000E+00
   -0.21684E-09        -0.45936E+06         0.00000E+00
    0.00000E+00         0.00000E+00        -0.80258E+05
 
    0.58068E+05         0.86736E-09         0.00000E+00
    0.86736E-09        -0.45936E+06         0.00000E+00
    0.00000E+00         0.00000E+00        -0.80258E+05
 
    0.58068E+05         0.14456E-09         0.00000E+00
    0.14456E-09        -0.45936E+06         0.00000E+00
    0.00000E+00         0.00000E+00        -0.80258E+05
 
    0.58068E+05        -0.28912E-09         0.00000E+00
   -0.28912E-09        -0.45936E+06         0.00000E+00
    0.00000E+00         0.00000E+00        -0.80258E+05
 
    0.56798E+05        -0.65052E-09         0.00000E+00
   -0.65052E-09        -0.45968E+06         0.00000E+00
    0.00000E+00         0.00000E+00        -0.80576E+05
 
    0.56798E+05        -0.72280E-10         0.00000E+00
   -0.72280E-10        -0.45968E+06         0.00000E+00
    0.00000E+00         0.00000E+00        -0.80576E+05
 
    0.56798E+05        -0.36140E-10         0.00000E+00
   -0.36140E-10        -0.45968E+06         0.00000E+00
    0.00000E+00         0.00000E+00        -0.80576E+05
 
    0.56798E+05         0.43368E-09         0.00000E+00
    0.43368E-09        -0.45968E+06         0.00000E+00
    0.00000E+00         0.00000E+00        -0.80576E+05
 
    0.56798E+05         0.43368E-09         0.00000E+00
    0.43368E-09        -0.45968E+06         0.00000E+00
    0.00000E+00         0.00000E+00        -0.80576E+05
 
    0.56798E+05        -0.36140E-09         0.00000E+00
   -0.36140E-09        -0.45968E+06         0.00000E+00
    0.00000E+00         0.00000E+00        -0.80576E+05
 
    0.56798E+05        -0.10842E-09         0.00000E+00
   -0.10842E-09        -0.45968E+06         0.00000E+00
    0.00000E+00         0.00000E+00        -0.80576E+05
 
    0.56798E+05        -0.36140E-09         0.00000E+00
   -0.36140E-09        -0.45968E+06         0.00000E+00
    0.00000E+00         0.00000E+00        -0.80576E+05
 
    0.56798E+05        -0.72280E-10         0.00000E+00
   -0.72280E-10        -0.45968E+06         0.00000E+00
    0.00000E+00         0.00000E+00        -0.80576E+05
 
    0.56798E+05         0.65052E-09         0.00000E+00
    0.65052E-09        -0.45968E+06         0.00000E+00
    0.00000E+00         0.00000E+00        -0.80576E+05
 
    0.56798E+05         0.32526E-09         0.00000E+00
    0.32526E-09        -0.45968E+06         0.00000E+00
    0.00000E+00         0.00000E+00        -0.80576E+05
 
    0.56798E+05         0.21684E-09         0.00000E+00
    0.21684E-09        -0.45968E+06         0.00000E+00
    0.00000E+00         0.00000E+00        -0.80576E+05
 
    0.56798E+05         0.25298E-09         0.00000E+00
    0.25298E-09        -0.45968E+06         0.00000E+00
    0.00000E+00         0.00000E+00        -0.80576E+05
 
    0.56798E+05        -0.32526E-09         0.00000E+00
   -0.32526E-09        -0.45968E+06         0.00000E+00
    0.00000E+00         0.00000E+00        -0.80576E+05
 
    0.56798E+05        -0.14456E-09         0.00000E+00
   -0.14456E-09        -0.45968E+06         0.00000E+00
    0.00000E+00         0.00000E+00        -0.80576E+05
 
    0.55509E+05        -0.14456E-09         0.00000E+00
   -0.14456E-09        -0.46000E+06         0.00000E+00
    0.00000E+00         0.00000E+00        -0.80898E+05
 
    0.55509E+05         0.10842E-09         0.00000E+00
    0.10842E-09        -0.46000E+06         0.00000E+00
    0.00000E+00         0.00000E+00        -0.80898E+05
 
    0.55509E+05        -0.39754E-09         0.00000E+00
   -0.39754E-09        -0.46000E+06         0.00000E+00
    0.00000E+00         0.00000E+00        -0.80898E+05
 
    0.55509E+05        -0.50596E-09         0.00000E+00
   -0.50596E-09        -0.46000E+06         0.00000E+00
    0.00000E+00         0.00000E+00        -0.80898E+05
 
    0.55509E+05         0.18070E-09         0.00000E+00
    0.18070E-09        -0.46000E+06         0.00000E+00
    0.00000E+00         0.00000E+00        -0.80898E+05
 
    0.55509E+05        -0.21684E-09         0.00000E+00
   -0.21684E-09        -0.46000E+06         0.00000E+00
    0.00000E+00         0.00000E+00        -0.80898E+05
 
    0.55509E+05         0.97578E-09         0.00000E+00
    0.97578E-09        -0.46000E+06         0.00000E+00
    0.00000E+00         0.00000E+00        -0.80898E+05
 
    0.55509E+05        -0.93964E-09         0.00000E+00
   -0.93964E-09        -0.46000E+06         0.00000E+00
    0.00000E+00         0.00000E+00        -0.80898E+05
 
    0.55509E+05        -0.43368E-09         0.00000E+00
   -0.43368E-09        -0.46000E+06         0.00000E+00
    0.00000E+00         0.00000E+00        -0.80898E+05
 
    0.55509E+05        -0.28912E-09         0.00000E+00
   -0.28912E-09        -0.46000E+06         0.00000E+00
    0.00000E+00         0.00000E+00        -0.80898E+05
 
    0.55509E+05        -0.72280E-09         0.00000E+00
   -0.72280E-09        -0.46000E+06         0.00000E+00
    0.00000E+00         0.00000E+00        -0.80898E+05
 
    0.55509E+05         0.00000E+00         0.00000E+00
    0.00000E+00        -0.46000E+06         0.00000E+00
    0.00000E+00         0.00000E+00        -0.80898E+05
 
    0.55509E+05         0.21684E-09         0.00000E+00
    0.21684E-09        -0.46000E+06         0.00000E+00
    0.00000E+00         0.00000E+00        -0.80898E+05
 
    0.55509E+05        -0.28912E-09         0.00000E+00
   -0.28912E-09        -0.46000E+06         0.00000E+00
    0.00000E+00         0.00000E+00        -0.80898E+05
 
    0.55509E+05         0.14456E-09         0.00000E+00
    0.14456E-09        -0.46000E+06         0.00000E+00
    0.00000E+00         0.00000E+00        -0.80898E+05
 
    0.54201E+05        -0.43368E-09         0.00000E+00
   -0.43368E-09        -0.46033E+06         0.00000E+00
    0.00000E+00         0.00000E+00        -0.81225E+05
 
    0.54201E+05        -0.14456E-09         0.00000E+00
   -0.14456E-09        -0.46033E+06         0.00000E+00
    0.00000E+00         0.00000E+00        -0.81225E+05
 
    0.54201E+05         0.00000E+00         0.00000E+00
    0.00000E+00        -0.46033E+06         0.00000E+00
    0.00000E+00         0.00000E+00        -0.81225E+05
 
    0.54201E+05        -0.14456E-09         0.00000E+00
   -0.14456E-09        -0.46033E+06         0.00000E+00
    0.00000E+00         0.00000E+00        -0.81225E+05
 
    0.54201E+05        -0.14456E-09         0.00000E+00
   -0.14456E-09        -0.46033E+06         0.00000E+00
    0.00000E+00         0.00000E+00        -0.81225E+05
 
    0.54201E+05        -0.14456E-09         0.00000E+00
   -0.14456E-09        -0.46033E+06         0.00000E+00
    0.00000E+00         0.00000E+00        -0.81225E+05
 
    0.54201E+05        -0.36140E-10         0.00000E+00
   -0.36140E-10        -0.46033E+06         0.00000E+00
    0.00000E+00         0.00000E+00        -0.81225E+05
 
    0.54201E+05        -0.93964E-09         0.00000E+00
   -0.93964E-09        -0.46033E+06         0.00000E+00
    0.00000E+00         0.00000E+00        -0.81225E+05
 
    0.54201E+05        -0.43368E-09         0.00000E+00
   -0.43368E-09        -0.46033E+06         0.00000E+00
    0.00000E+00         0.00000E+00        -0.81225E+05
 
    0.54201E+05        -0.72280E-10         0.00000E+00
   -0.72280E-10        -0.46033E+06         0.00000E+00
    0.00000E+00         0.00000E+00        -0.81225E+05
 
    0.54201E+05         0.00000E+00         0.00000E+00
    0.00000E+00        -0.46033E+06         0.00000E+00
    0.00000E+00         0.00000E+00        -0.81225E+05
 
    0.54201E+05        -0.21684E-09         0.00000E+00
   -0.21684E-09        -0.46033E+06         0.00000E+00
    0.00000E+00         0.00000E+00        -0.81225E+05
 
    0.54201E+05         0.10842E-09         0.00000E+00
    0.10842E-09        -0.46033E+06         0.00000E+00
    0.00000E+00         0.00000E+00        -0.81225E+05
 
    0.54201E+05         0.14456E-09         0.00000E+00
    0.14456E-09        -0.46033E+06         0.00000E+00
    0.00000E+00         0.00000E+00        -0.81225E+05
 
    0.54201E+05         0.79508E-09         0.00000E+00
    0.79508E-09        -0.46033E+06         0.00000E+00
    0.00000E+00         0.00000E+00        -0.81225E+05
 
    0.52875E+05         0.72280E-10         0.00000E+00
    0.72280E-10        -0.46066E+06         0.00000E+00
    0.00000E+00         0.00000E+00        -0.81556E+05
 
    0.52875E+05         0.61438E-09         0.00000E+00
    0.61438E-09        -0.46066E+06         0.00000E+00
    0.00000E+00         0.00000E+00        -0.81556E+05
 
    0.52875E+05        -0.14456E-09         0.00000E+00
   -0.14456E-09        -0.46066E+06         0.00000E+00
    0.00000E+00         0.00000E+00        -0.81556E+05
 
    0.52875E+05         0.12649E-08         0.00000E+00
    0.12649E-08        -0.46066E+06         0.00000E+00
    0.00000E+00         0.00000E+00        -0.81556E+05
 
    0.52875E+05         0.43368E-09         0.00000E+00
    0.43368E-09        -0.46066E+06         0.00000E+00
    0.00000E+00         0.00000E+00        -0.81556E+05
 
    0.52875E+05         0.10842E-09         0.00000E+00
    0.10842E-09        -0.46066E+06         0.00000E+00
    0.00000E+00         0.00000E+00        -0.81556E+05
 
    0.52875E+05        -0.39754E-09         0.00000E+00
   -0.39754E-09        -0.46066E+06         0.00000E+00
    0.00000E+00         0.00000E+00        -0.81556E+05
 
    0.52875E+05         0.28912E-09         0.00000E+00
    0.28912E-09        -0.46066E+06         0.00000E+00
    0.00000E+00         0.00000E+00        -0.81556E+05
 
    0.52875E+05        -0.10842E-09         0.00000E+00
   -0.10842E-09        -0.46066E+06         0.00000E+00
    0.00000E+00         0.00000E+00        -0.81556E+05
 
    0.52875E+05        -0.28912E-09         0.00000E+00
   -0.28912E-09        -0.46066E+06         0.00000E+00
    0.00000E+00         0.00000E+00        -0.81556E+05
 
    0.52875E+05         0.93964E-09         0.00000E+00
    0.93964E-09        -0.46066E+06         0.00000E+00
    0.00000E+00         0.00000E+00        -0.81556E+05
 
    0.52875E+05         0.72280E-10         0.00000E+00
    0.72280E-10        -0.46066E+06         0.00000E+00
    0.00000E+00         0.00000E+00        -0.81556E+05
 
    0.52875E+05         0.14456E-09         0.00000E+00
    0.14456E-09        -0.46066E+06         0.00000E+00
    0.00000E+00         0.00000E+00        -0.81556E+05
 
    0.52875E+05         0.72280E-10         0.00000E+00
    0.72280E-10        -0.46066E+06         0.00000E+00
    0.00000E+00         0.00000E+00        -0.81556E+05
 
    0.52875E+05         0.86736E-09         0.00000E+00
    0.86736E-09        -0.46066E+06         0.00000E+00
    0.00000E+00         0.00000E+00        -0.81556E+05
 
    0.51530E+05        -0.72280E-10         0.00000E+00
   -0.72280E-10        -0.46099E+06         0.00000E+00
    0.00000E+00         0.00000E+00        -0.81893E+05
 
    0.51530E+05        -0.65052E-09         0.00000E+00
   -0.65052E-09        -0.46099E+06         0.00000E+00
    0.00000E+00         0.00000E+00        -0.81893E+05
 
    0.51530E+05        -0.10842E-09         0.00000E+00
   -0.10842E-09        -0.46099E+06         0.00000E+00
    0.00000E+00         0.00000E+00        -0.81893E+05
 
    0.51530E+05        -0.61438E-09         0.00000E+00
   -0.61438E-09        -0.46099E+06         0.00000E+00
    0.00000E+00         0.00000E+00        -0.81893E+05
 
    0.51530E+05        -0.54210E-09         0.00000E+00
   -0.54210E-09        -0.46099E+06         0.00000E+00
    0.00000E+00         0.00000E+00        -0.81893E+05
 
    0.51530E+05        -0.36140E-09         0.00000E+00
   -0.36140E-09        -0.46099E+06         0.00000E+00
    0.00000E+00         0.00000E+00        -0.81893E+05
 
    0.51530E+05        -0.32526E-09         0.00000E+00
   -0.32526E-09        -0.46099E+06         0.00000E+00
    0.00000E+00         0.00000E+00        -0.81893E+05
 
    0.51530E+05        -0.72280E-10         0.00000E+00
   -0.72280E-10        -0.46099E+06         0.00000E+00
    0.00000E+00         0.00000E+00        -0.81893E+05
 
    0.51530E+05        -0.21684E-09         0.00000E+00
   -0.21684E-09        -0.46099E+06         0.00000E+00
    0.00000E+00         0.00000E+00        -0.81893E+05
 
    0.51530E+05        -0.25298E-09         0.00000E+00
   -0.25298E-09        -0.46099E+06         0.00000E+00
    0.00000E+00         0.00000E+00        -0.81893E+05
 
    0.51530E+05        -0.79508E-09         0.00000E+00
   -0.79508E-09        -0.46099E+06         0.00000E+00
    0.00000E+00         0.00000E+00        -0.81893E+05
 
    0.51530E+05        -0.72280E-09         0.00000E+00
   -0.72280E-09        -0.46099E+06         0.00000E+00
    0.00000E+00         0.00000E+00        -0.81893E+05
 
    0.51530E+05         0.79508E-09         0.00000E+00
    0.79508E-09        -0.46099E+06         0.00000E+00
    0.00000E+00         0.00000E+00        -0.81893E+05
 
    0.51530E+05         0.72280E-10         0.00000E+00
    0.72280E-10        -0.46099E+06         0.00000E+00
    0.00000E+00         0.00000E+00        -0.81893E+05
 
    0.51530E+05         0.10119E-08         0.00000E+00
    0.10119E-08        -0.46099E+06         0.00000E+00
    0.00000E+00         0.00000E+00        -0.81893E+05
 
    0.50167E+05         0.36140E-10         0.00000E+00
    0.36140E-10        -0.46133E+06         0.00000E+00
    0.00000E+00         0.00000E+00        -0.82233E+05
 
    0.50167E+05         0.10842E-09         0.00000E+00
    0.10842E-09        -0.46133E+06         0.00000E+00
    0.00000E+00         0.00000E+00        -0.82233E+05
 
    0.50167E+05         0.54210E-09         0.00000E+00
    0.54210E-09        -0.46133E+06         0.00000E+00
    0.00000E+00         0.00000E+00        -0.82233E+05
 
    0.50167E+05        -0.72280E-10         0.00000E+00
   -0.72280E-10        -0.46133E+06         0.00000E+00
    0.00000E+00         0.00000E+00        -0.82233E+05
 
    0.50167E+05         0.93964E-09         0.00000E+00
    0.93964E-09        -0.46133E+06         0.00000E+00
    0.00000E+00         0.00000E+00        -0.82233E+05
 
    0.50167E+05        -0.39754E-09         0.00000E+00
   -0.39754E-09        -0.46133E+06         0.00000E+00
    0.00000E+00         0.00000E+00        -0.82233E+05
 
    0.50167E+05         0.39754E-09         0.00000E+00
    0.39754E-09        -0.46133E+06         0.00000E+00
    0.00000E+00         0.00000E+00        -0.82233E+05
 
    0.50167E+05        -0.68666E-09         0.00000E+00
   -0.68666E-09        -0.46133E+06         0.00000E+00
    0.00000E+00         0.00000E+00        -0.82233E+05
 
    0.50167E+05        -0.86736E-09         0.00000E+00
   -0.86736E-09        -0.46133E+06         0.00000E+00
    0.00000E+00         0.00000E+00        -0.82233E+05
 
    0.50167E+05        -0.43368E-09         0.00000E+00
   -0.43368E-09        -0.46133E+06         0.00000E+00
    0.00000E+00         0.00000E+00        -0.82233E+05
 
    0.50167E+05        -0.93964E-09         0.00000E+00
   -0.93964E-09        -0.46133E+06         0.00000E+00
    0.00000E+00         0.00000E+00        -0.82233E+05
 
    0.50167E+05         0.28912E-09         0.00000E+00
    0.28912E-09        -0.46133E+06         0.00000E+00
    0.00000E+00         0.00000E+00        -0.82233E+05
 
    0.50167E+05        -0.72280E-10         0.00000E+00
   -0.72280E-10        -0.46133E+06         0.00000E+00
    0.00000E+00         0.00000E+00        -0.82233E+05
 
    0.50167E+05        -0.14456E-09         0.00000E+00
   -0.14456E-09        -0.46133E+06         0.00000E+00
    0.00000E+00         0.00000E+00        -0.82233E+05
 
    0.50167E+05        -0.72280E-10         0.00000E+00
   -0.72280E-10        -0.46133E+06         0.00000E+00
    0.00000E+00         0.00000E+00        -0.82233E+05
 
    0.48787E+05        -0.65052E-09         0.00000E+00
   -0.65052E-09        -0.46168E+06         0.00000E+00
    0.00000E+00         0.00000E+00        -0.82578E+05
 
    0.48787E+05         0.00000E+00         0.00000E+00
    0.00000E+00        -0.46168E+06         0.00000E+00
    0.00000E+00         0.00000E+00        -0.82578E+05
 
    0.48787E+05        -0.14456E-09         0.00000E+00
   -0.14456E-09        -0.46168E+06         0.00000E+00
    0.00000E+00         0.00000E+00        -0.82578E+05
 
    0.48787E+05         0.25298E-09         0.00000E+00
    0.25298E-09        -0.46168E+06         0.00000E+00
    0.00000E+00         0.00000E+00        -0.82578E+05
 
    0.48787E+05         0.93964E-09         0.00000E+00
    0.93964E-09        -0.46168E+06         0.00000E+00
    0.00000E+00         0.00000E+00        -0.82578E+05
 
    0.48787E+05        -0.32526E-09         0.00000E+00
   -0.32526E-09        -0.46168E+06         0.00000E+00
    0.00000E+00         0.00000E+00        -0.82578E+05
 
    0.48787E+05         0.57824E-09         0.00000E+00
    0.57824E-09        -0.46168E+06         0.00000E+00
    0.00000E+00         0.00000E+00        -0.82578E+05
 
    0.48787E+05         0.18070E-09         0.00000E+00
    0.18070E-09        -0.46168E+06         0.00000E+00
    0.00000E+00         0.00000E+00        -0.82578E+05
 
    0.48787E+05         0.25298E-09         0.00000E+00
    0.25298E-09        -0.46168E+06         0.00000E+00
    0.00000E+00         0.00000E+00        -0.82578E+05
 
    0.48787E+05        -0.18070E-09         0.00000E+00
   -0.18070E-09        -0.46168E+06         0.00000E+00
    0.00000E+00         0.00000E+00        -0.82578E+05
 
    0.48787E+05         0.21684E-09         0.00000E+00
    0.21684E-09        -0.46168E+06         0.00000E+00
    0.00000E+00         0.00000E+00        -0.82578E+05
 
    0.48787E+05        -0.36140E-09         0.00000E+00
   -0.36140E-09        -0.46168E+06         0.00000E+00
    0.00000E+00         0.00000E+00        -0.82578E+05
 
    0.48787E+05         0.36140E-09         0.00000E+00
    0.36140E-09        -0.46168E+06         0.00000E+00
    0.00000E+00         0.00000E+00        -0.82578E+05
 
    0.48787E+05         0.72280E-09         0.00000E+00
    0.72280E-09        -0.46168E+06         0.00000E+00
    0.00000E+00         0.00000E+00        -0.82578E+05
 
    0.48787E+05         0.72280E-10         0.00000E+00
    0.72280E-10        -0.46168E+06         0.00000E+00
    0.00000E+00         0.00000E+00        -0.82578E+05
 
    0.47389E+05         0.25298E-09         0.00000E+00
    0.25298E-09        -0.46203E+06         0.00000E+00
    0.00000E+00         0.00000E+00        -0.82928E+05
 
    0.47389E+05        -0.25298E-09         0.00000E+00
   -0.25298E-09        -0.46203E+06         0.00000E+00
    0.00000E+00         0.00000E+00        -0.82928E+05
 
    0.47389E+05        -0.14456E-09         0.00000E+00
   -0.14456E-09        -0.46203E+06         0.00000E+00
    0.00000E+00         0.00000E+00        -0.82928E+05
 
    0.47389E+05         0.61438E-09         0.00000E+00
    0.61438E-09        -0.46203E+06         0.00000E+00
    0.00000E+00         0.00000E+00        -0.82928E+05
 
    0.47389E+05         0.36140E-10         0.00000E+00
    0.36140E-10        -0.46203E+06         0.00000E+00
    0.00000E+00         0.00000E+00        -0.82928E+05
 
    0.47389E+05         0.72280E-10         0.00000E+00
    0.72280E-10        -0.46203E+06         0.00000E+00
    0.00000E+00         0.00000E+00        -0.82928E+05
 
    0.47389E+05        -0.14456E-09         0.00000E+00
   -0.14456E-09        -0.46203E+06         0.00000E+00
    0.00000E+00         0.00000E+00        -0.82928E+05
 
    0.47389E+05         0.50596E-09         0.00000E+00
    0.50596E-09        -0.46203E+06         0.00000E+00
    0.00000E+00         0.00000E+00        -0.82928E+05
 
    0.47389E+05         0.00000E+00         0.00000E+00
    0.00000E+00        -0.46203E+06         0.00000E+00
    0.00000E+00         0.00000E+00        -0.82928E+05
 
    0.47389E+05         0.36140E-10         0.00000E+00
    0.36140E-10        -0.46203E+06         0.00000E+00
    0.00000E+00         0.00000E+00        -0.82928E+05
 
    0.47389E+05         0.72280E-09         0.00000E+00
    0.72280E-09        -0.46203E+06         0.00000E+00
    0.00000E+00         0.00000E+00        -0.82928E+05
 
    0.47389E+05         0.21684E-09         0.00000E+00
    0.21684E-09        -0.46203E+06         0.00000E+00
    0.00000E+00         0.00000E+00        -0.82928E+05
 
    0.47389E+05         0.00000E+00         0.00000E+00
    0.00000E+00        -0.46203E+06         0.00000E+00
    0.00000E+00         0.00000E+00        -0.82928E+05
 
    0.47389E+05         0.14456E-09         0.00000E+00
    0.14456E-09        -0.46203E+06         0.00000E+00
    0.00000E+00         0.00000E+00        -0.82928E+05
 
    0.47389E+05        -0.65052E-09         0.00000E+00
   -0.65052E-09        -0.46203E+06         0.00000E+00
    0.00000E+00         0.00000E+00        -0.82928E+05
 
    0.45974E+05        -0.28912E-09         0.00000E+00
   -0.28912E-09        -0.46238E+06         0.00000E+00
    0.00000E+00         0.00000E+00        -0.83282E+05
 
    0.45974E+05         0.46982E-09         0.00000E+00
    0.46982E-09        -0.46238E+06         0.00000E+00
    0.00000E+00         0.00000E+00        -0.83282E+05
 
    0.45974E+05         0.36140E-10         0.00000E+00
    0.36140E-10        -0.46238E+06         0.00000E+00
    0.00000E+00         0.00000E+00        -0.83282E+05
 
    0.45974E+05         0.72280E-10         0.00000E+00
    0.72280E-10        -0.46238E+06         0.00000E+00
    0.00000E+00         0.00000E+00        -0.83282E+05
 
    0.45974E+05        -0.39754E-09         0.00000E+00
   -0.39754E-09        -0.46238E+06         0.00000E+00
    0.00000E+00         0.00000E+00        -0.83282E+05
 
    0.45974E+05        -0.18070E-09         0.00000E+00
   -0.18070E-09        -0.46238E+06         0.00000E+00
    0.00000E+00         0.00000E+00        -0.83282E+05
 
    0.45974E+05        -0.10842E-09         0.00000E+00
   -0.10842E-09        -0.46238E+06         0.00000E+00
    0.00000E+00         0.00000E+00        -0.83282E+05
 
    0.45974E+05         0.14456E-09         0.00000E+00
    0.14456E-09        -0.46238E+06         0.00000E+00
    0.00000E+00         0.00000E+00        -0.83282E+05
 
    0.45974E+05         0.18070E-09         0.00000E+00
    0.18070E-09        -0.46238E+06         0.00000E+00
    0.00000E+00         0.00000E+00        -0.83282E+05
 
    0.45974E+05        -0.32526E-09         0.00000E+00
   -0.32526E-09        -0.46238E+06         0.00000E+00
    0.00000E+00         0.00000E+00        -0.83282E+05
 
    0.45974E+05         0.28912E-09         0.00000E+00
    0.28912E-09        -0.46238E+06         0.00000E+00
    0.00000E+00         0.00000E+00        -0.83282E+05
 
    0.45974E+05         0.21684E-09         0.00000E+00
    0.21684E-09        -0.46238E+06         0.00000E+00
    0.00000E+00         0.00000E+00        -0.83282E+05
 
    0.45974E+05        -0.43368E-09         0.00000E+00
   -0.43368E-09        -0.46238E+06         0.00000E+00
    0.00000E+00         0.00000E+00        -0.83282E+05
 
    0.45974E+05         0.72280E-10         0.00000E+00
    0.72280E-10        -0.46238E+06         0.00000E+00
    0.00000E+00         0.00000E+00        -0.83282E+05
 
    0.45974E+05        -0.57824E-09         0.00000E+00
   -0.57824E-09        -0.46238E+06         0.00000E+00
    0.00000E+00         0.00000E+00        -0.83282E+05
 
    0.44542E+05        -0.10842E-08         0.00000E+00
   -0.10842E-08        -0.46274E+06         0.00000E+00
    0.00000E+00         0.00000E+00        -0.83640E+05
 
    0.44542E+05         0.11565E-08         0.00000E+00
    0.11565E-08        -0.46274E+06         0.00000E+00
    0.00000E+00         0.00000E+00        -0.83640E+05
 
    0.44542E+05        -0.32526E-09         0.00000E+00
   -0.32526E-09        -0.46274E+06         0.00000E+00
    0.00000E+00         0.00000E+00        -0.83640E+05
 
    0.44542E+05         0.36140E-10         0.00000E+00
    0.36140E-10        -0.46274E+06         0.00000E+00
    0.00000E+00         0.00000E+00        -0.83640E+05
 
    0.44542E+05        -0.18070E-09         0.00000E+00
   -0.18070E-09        -0.46274E+06         0.00000E+00
    0.00000E+00         0.00000E+00        -0.83640E+05
 
    0.44542E+05        -0.32526E-09         0.00000E+00
   -0.32526E-09        -0.46274E+06         0.00000E+00
    0.00000E+00         0.00000E+00        -0.83640E+05
 
    0.44542E+05        -0.32526E-09         0.00000E+00
   -0.32526E-09        -0.46274E+06         0.00000E+00
    0.00000E+00         0.00000E+00        -0.83640E+05
 
    0.44542E+05         0.43368E-09         0.00000E+00
    0.43368E-09        -0.46274E+06         0.00000E+00
    0.00000E+00         0.00000E+00        -0.83640E+05
 
    0.44542E+05        -0.93964E-09         0.00000E+00
   -0.93964E-09        -0.46274E+06         0.00000E+00
    0.00000E+00         0.00000E+00        -0.83640E+05
 
    0.44542E+05         0.10842E-08         0.00000E+00
    0.10842E-08        -0.46274E+06         0.00000E+00
    0.00000E+00         0.00000E+00        -0.83640E+05
 
    0.44542E+05        -0.57824E-09         0.00000E+00
   -0.57824E-09        -0.46274E+06         0.00000E+00
    0.00000E+00         0.00000E+00        -0.83640E+05
 
    0.44542E+05        -0.21684E-09         0.00000E+00
   -0.21684E-09        -0.46274E+06         0.00000E+00
    0.00000E+00         0.00000E+00        -0.83640E+05
 
    0.44542E+05         0.72280E-09         0.00000E+00
    0.72280E-09        -0.46274E+06         0.00000E+00
    0.00000E+00         0.00000E+00        -0.83640E+05
 
    0.44542E+05         0.86736E-09         0.00000E+00
    0.86736E-09        -0.46274E+06         0.00000E+00
    0.00000E+00         0.00000E+00        -0.83640E+05
 
    0.44542E+05        -0.10842E-08         0.00000E+00
   -0.10842E-08        -0.46274E+06         0.00000E+00
    0.00000E+00         0.00000E+00        -0.83640E+05
 
    0.43093E+05         0.14456E-09         0.00000E+00
    0.14456E-09        -0.46310E+06         0.00000E+00
    0.00000E+00         0.00000E+00        -0.84002E+05
 
    0.43093E+05         0.14456E-09         0.00000E+00
    0.14456E-09        -0.46310E+06         0.00000E+00
    0.00000E+00         0.00000E+00        -0.84002E+05
 
    0.43093E+05         0.86736E-09         0.00000E+00
    0.86736E-09        -0.46310E+06         0.00000E+00
    0.00000E+00         0.00000E+00        -0.84002E+05
 
    0.43093E+05        -0.57824E-09         0.00000E+00
   -0.57824E-09        -0.46310E+06         0.00000E+00
    0.00000E+00         0.00000E+00        -0.84002E+05
 
    0.43093E+05         0.28912E-09         0.00000E+00
    0.28912E-09        -0.46310E+06         0.00000E+00
    0.00000E+00         0.00000E+00        -0.84002E+05
 
    0.43093E+05        -0.39754E-09         0.00000E+00
   -0.39754E-09        -0.46310E+06         0.00000E+00
    0.00000E+00         0.00000E+00        -0.84002E+05
 
    0.43093E+05        -0.28912E-09         0.00000E+00
   -0.28912E-09        -0.46310E+06         0.00000E+00
    0.00000E+00         0.00000E+00        -0.84002E+05
 
    0.43093E+05        -0.68666E-09         0.00000E+00
   -0.68666E-09        -0.46310E+06         0.00000E+00
    0.00000E+00         0.00000E+00        -0.84002E+05
 
    0.43093E+05        -0.32526E-09         0.00000E+00
   -0.32526E-09        -0.46310E+06         0.00000E+00
    0.00000E+00         0.00000E+00        -0.84002E+05
 
    0.43093E+05         0.90350E-09         0.00000E+00
    0.90350E-09        -0.46310E+06         0.00000E+00
    0.00000E+00         0.00000E+00        -0.84002E+05
 
    0.43093E+05        -0.13010E-08         0.00000E+00
   -0.13010E-08        -0.46310E+06         0.00000E+00
    0.00000E+00         0.00000E+00        -0.84002E+05
 
    0.43093E+05         0.11565E-08         0.00000E+00
    0.11565E-08        -0.46310E+06         0.00000E+00
    0.00000E+00         0.00000E+00        -0.84002E+05
 
    0.43093E+05         0.79508E-09         0.00000E+00
    0.79508E-09        -0.46310E+06         0.00000E+00
    0.00000E+00         0.00000E+00        -0.84002E+05
 
    0.43093E+05         0.21684E-09         0.00000E+00
    0.21684E-09        -0.46310E+06         0.00000E+00
    0.00000E+00         0.00000E+00        -0.84002E+05
 
    0.43093E+05        -0.65052E-09         0.00000E+00
   -0.65052E-09        -0.46310E+06         0.00000E+00
    0.00000E+00         0.00000E+00        -0.84002E+05
 
    0.41629E+05        -0.57824E-09         0.00000E+00
   -0.57824E-09        -0.46347E+06         0.00000E+00
    0.00000E+00         0.00000E+00        -0.84368E+05
 
    0.41629E+05         0.72280E-09         0.00000E+00
    0.72280E-09        -0.46347E+06         0.00000E+00
    0.00000E+00         0.00000E+00        -0.84368E+05
 
    0.41629E+05        -0.83122E-09         0.00000E+00
   -0.83122E-09        -0.46347E+06         0.00000E+00
    0.00000E+00         0.00000E+00        -0.84368E+05
 
    0.41629E+05         0.61438E-09         0.00000E+00
    0.61438E-09        -0.46347E+06         0.00000E+00
    0.00000E+00         0.00000E+00        -0.84368E+05
 
    0.41629E+05         0.00000E+00         0.00000E+00
    0.00000E+00        -0.46347E+06         0.00000E+00
    0.00000E+00         0.00000E+00        -0.84368E+05
 
    0.41629E+05         0.10842E-09         0.00000E+00
    0.10842E-09        -0.46347E+06         0.00000E+00
    0.00000E+00         0.00000E+00        -0.84368E+05
 
    0.41629E+05        -0.36140E-10         0.00000E+00
   -0.36140E-10        -0.46347E+06         0.00000E+00
    0.00000E+00         0.00000E+00        -0.84368E+05
 
    0.41629E+05        -0.83122E-09         0.00000E+00
   -0.83122E-09        -0.46347E+06         0.00000E+00
    0.00000E+00         0.00000E+00        -0.84368E+05
 
    0.41629E+05         0.61438E-09         0.00000E+00
    0.61438E-09        -0.46347E+06         0.00000E+00
    0.00000E+00         0.00000E+00        -0.84368E+05
 
    0.41629E+05         0.72280E-10         0.00000E+00
    0.72280E-10        -0.46347E+06         0.00000E+00
    0.00000E+00         0.00000E+00        -0.84368E+05
 
    0.41629E+05        -0.61438E-09         0.00000E+00
   -0.61438E-09        -0.46347E+06         0.00000E+00
    0.00000E+00         0.00000E+00        -0.84368E+05
 
    0.41629E+05         0.50596E-09         0.00000E+00
    0.50596E-09        -0.46347E+06         0.00000E+00
    0.00000E+00         0.00000E+00        -0.84368E+05
 
    0.41629E+05        -0.72280E-10         0.00000E+00
   -0.72280E-10        -0.46347E+06         0.00000E+00
    0.00000E+00         0.00000E+00        -0.84368E+05
 
    0.41629E+05         0.00000E+00         0.00000E+00
    0.00000E+00        -0.46347E+06         0.00000E+00
    0.00000E+00         0.00000E+00        -0.84368E+05
 
    0.41629E+05         0.21684E-09         0.00000E+00
    0.21684E-09        -0.46347E+06         0.00000E+00
    0.00000E+00         0.00000E+00        -0.84368E+05
 
    0.40148E+05        -0.28912E-09         0.00000E+00
   -0.28912E-09        -0.46384E+06         0.00000E+00
    0.00000E+00         0.00000E+00        -0.84738E+05
 
    0.40148E+05        -0.10842E-09         0.00000E+00
   -0.10842E-09        -0.46384E+06         0.00000E+00
    0.00000E+00         0.00000E+00        -0.84738E+05
 
    0.40148E+05        -0.72280E-10         0.00000E+00
   -0.72280E-10        -0.46384E+06         0.00000E+00
    0.00000E+00         0.00000E+00        -0.84738E+05
 
    0.40148E+05         0.32526E-09         0.00000E+00
    0.32526E-09        -0.46384E+06         0.00000E+00
    0.00000E+00         0.00000E+00        -0.84738E+05
 
    0.40148E+05         0.21684E-09         0.00000E+00
    0.21684E-09        -0.46384E+06         0.00000E+00
    0.00000E+00         0.00000E+00        -0.84738E+05
 
    0.40148E+05         0.36140E-09         0.00000E+00
    0.36140E-09        -0.46384E+06         0.00000E+00
    0.00000E+00         0.00000E+00        -0.84738E+05
 
    0.40148E+05         0.21684E-09         0.00000E+00
    0.21684E-09        -0.46384E+06         0.00000E+00
    0.00000E+00         0.00000E+00        -0.84738E+05
 
    0.40148E+05        -0.32526E-09         0.00000E+00
   -0.32526E-09        -0.46384E+06         0.00000E+00
    0.00000E+00         0.00000E+00        -0.84738E+05
 
    0.40148E+05         0.25298E-09         0.00000E+00
    0.25298E-09        -0.46384E+06         0.00000E+00
    0.00000E+00         0.00000E+00        -0.84738E+05
 
    0.40148E+05        -0.39754E-09         0.00000E+00
   -0.39754E-09        -0.46384E+06         0.00000E+00
    0.00000E+00         0.00000E+00        -0.84738E+05
 
    0.40148E+05         0.14456E-09         0.00000E+00
    0.14456E-09        -0.46384E+06         0.00000E+00
    0.00000E+00         0.00000E+00        -0.84738E+05
 
    0.40148E+05        -0.14456E-09         0.00000E+00
   -0.14456E-09        -0.46384E+06         0.00000E+00
    0.00000E+00         0.00000E+00        -0.84738E+05
 
    0.40148E+05         0.14456E-09         0.00000E+00
    0.14456E-09        -0.46384E+06         0.00000E+00
    0.00000E+00         0.00000E+00        -0.84738E+05
 
    0.40148E+05         0.72280E-10         0.00000E+00
    0.72280E-10        -0.46384E+06         0.00000E+00
    0.00000E+00         0.00000E+00        -0.84738E+05
 
    0.40148E+05        -0.86736E-09         0.00000E+00
   -0.86736E-09        -0.46384E+06         0.00000E+00
    0.00000E+00         0.00000E+00        -0.84738E+05
 
    0.38653E+05         0.43368E-09         0.00000E+00
    0.43368E-09        -0.46421E+06         0.00000E+00
    0.00000E+00         0.00000E+00        -0.85112E+05
 
    0.38653E+05         0.14456E-08         0.00000E+00
    0.14456E-08        -0.46421E+06         0.00000E+00
    0.00000E+00         0.00000E+00        -0.85112E+05
 
    0.38653E+05         0.14456E-09         0.00000E+00
    0.14456E-09        -0.46421E+06         0.00000E+00
    0.00000E+00         0.00000E+00        -0.85112E+05
 
    0.38653E+05         0.18070E-09         0.00000E+00
    0.18070E-09        -0.46421E+06         0.00000E+00
    0.00000E+00         0.00000E+00        -0.85112E+05
 
    0.38653E+05        -0.28912E-09         0.00000E+00
   -0.28912E-09        -0.46421E+06         0.00000E+00
    0.00000E+00         0.00000E+00        -0.85112E+05
 
    0.38653E+05        -0.25298E-09         0.00000E+00
   -0.25298E-09        -0.46421E+06         0.00000E+00
    0.00000E+00         0.00000E+00        -0.85112E+05
 
    0.38653E+05         0.10842E-09         0.00000E+00
    0.10842E-09        -0.46421E+06         0.00000E+00
    0.00000E+00         0.00000E+00        -0.85112E+05
 
    0.38653E+05         0.61438E-09         0.00000E+00
    0.61438E-09        -0.46421E+06         0.00000E+00
    0.00000E+00         0.00000E+00        -0.85112E+05
 
    0.38653E+05        -0.57824E-09         0.00000E+00
   -0.57824E-09        -0.46421E+06         0.00000E+00
    0.00000E+00         0.00000E+00        -0.85112E+05
 
    0.38653E+05        -0.18070E-09         0.00000E+00
   -0.18070E-09        -0.46421E+06         0.00000E+00
    0.00000E+00         0.00000E+00        -0.85112E+05
 
    0.38653E+05        -0.43368E-09         0.00000E+00
   -0.43368E-09        -0.46421E+06         0.00000E+00
    0.00000E+00         0.00000E+00        -0.85112E+05
 
    0.38653E+05         0.28912E-09         0.00000E+00
    0.28912E-09        -0.46421E+06         0.00000E+00
    0.00000E+00         0.00000E+00        -0.85112E+05
 
    0.38653E+05         0.00000E+00         0.00000E+00
    0.00000E+00        -0.46421E+06         0.00000E+00
    0.00000E+00         0.00000E+00        -0.85112E+05
 
    0.38653E+05        -0.21684E-09         0.00000E+00
   -0.21684E-09        -0.46421E+06         0.00000E+00
    0.00000E+00         0.00000E+00        -0.85112E+05
 
    0.38653E+05        -0.43368E-09         0.00000E+00
   -0.43368E-09        -0.46421E+06         0.00000E+00
    0.00000E+00         0.00000E+00        -0.85112E+05
 
    0.37142E+05        -0.21684E-09         0.00000E+00
   -0.21684E-09        -0.46459E+06         0.00000E+00
    0.00000E+00         0.00000E+00        -0.85490E+05
 
    0.37142E+05         0.25298E-09         0.00000E+00
    0.25298E-09        -0.46459E+06         0.00000E+00
    0.00000E+00         0.00000E+00        -0.85490E+05
 
    0.37142E+05        -0.11926E-08         0.00000E+00
   -0.11926E-08        -0.46459E+06         0.00000E+00
    0.00000E+00         0.00000E+00        -0.85490E+05
 
    0.37142E+05         0.18070E-09         0.00000E+00
    0.18070E-09        -0.46459E+06         0.00000E+00
    0.00000E+00         0.00000E+00        -0.85490E+05
 
    0.37142E+05         0.72280E-10         0.00000E+00
    0.72280E-10        -0.46459E+06         0.00000E+00
    0.00000E+00         0.00000E+00        -0.85490E+05
 
    0.37142E+05        -0.28912E-09         0.00000E+00
   -0.28912E-09        -0.46459E+06         0.00000E+00
    0.00000E+00         0.00000E+00        -0.85490E+05
 
    0.37142E+05         0.14456E-09         0.00000E+00
    0.14456E-09        -0.46459E+06         0.00000E+00
    0.00000E+00         0.00000E+00        -0.85490E+05
 
    0.37142E+05        -0.36140E-10         0.00000E+00
   -0.36140E-10        -0.46459E+06         0.00000E+00
    0.00000E+00         0.00000E+00        -0.85490E+05
 
    0.37142E+05         0.32526E-09         0.00000E+00
    0.32526E-09        -0.46459E+06         0.00000E+00
    0.00000E+00         0.00000E+00        -0.85490E+05
 
    0.37142E+05        -0.72280E-10         0.00000E+00
   -0.72280E-10        -0.46459E+06         0.00000E+00
    0.00000E+00         0.00000E+00        -0.85490E+05
 
    0.37142E+05        -0.72280E-10         0.00000E+00
   -0.72280E-10        -0.46459E+06         0.00000E+00
    0.00000E+00         0.00000E+00        -0.85490E+05
 
    0.37142E+05         0.00000E+00         0.00000E+00
    0.00000E+00        -0.46459E+06         0.00000E+00
    0.00000E+00         0.00000E+00        -0.85490E+05
 
    0.37142E+05        -0.21684E-09         0.00000E+00
   -0.21684E-09        -0.46459E+06         0.00000E+00
    0.00000E+00         0.00000E+00        -0.85490E+05
 
    0.37142E+05        -0.10119E-08         0.00000E+00
   -0.10119E-08        -0.46459E+06         0.00000E+00
    0.00000E+00         0.00000E+00        -0.85490E+05
 
    0.37142E+05        -0.72280E-10         0.00000E+00
   -0.72280E-10        -0.46459E+06         0.00000E+00
    0.00000E+00         0.00000E+00        -0.85490E+05
 
    0.35616E+05         0.21684E-09         0.00000E+00
    0.21684E-09        -0.46497E+06         0.00000E+00
    0.00000E+00         0.00000E+00        -0.85871E+05
 
    0.35616E+05        -0.10842E-09         0.00000E+00
   -0.10842E-09        -0.46497E+06         0.00000E+00
    0.00000E+00         0.00000E+00        -0.85871E+05
 
    0.35616E+05        -0.10842E-09         0.00000E+00
   -0.10842E-09        -0.46497E+06         0.00000E+00
    0.00000E+00         0.00000E+00        -0.85871E+05
 
    0.35616E+05        -0.36140E-09         0.00000E+00
   -0.36140E-09        -0.46497E+06         0.00000E+00
    0.00000E+00         0.00000E+00        -0.85871E+05
 
    0.35616E+05        -0.14456E-09         0.00000E+00
   -0.14456E-09        -0.46497E+06         0.00000E+00
    0.00000E+00         0.00000E+00        -0.85871E+05
 
    0.35616E+05        -0.25298E-09         0.00000E+00
   -0.25298E-09        -0.46497E+06         0.00000E+00
    0.00000E+00         0.00000E+00        -0.85871E+05
 
    0.35616E+05        -0.18070E-09         0.00000E+00
   -0.18070E-09        -0.46497E+06         0.00000E+00
    0.00000E+00         0.00000E+00        -0.85871E+05
 
    0.35616E+05        -0.10842E-09         0.00000E+00
   -0.10842E-09        -0.46497E+06         0.00000E+00
    0.00000E+00         0.00000E+00        -0.85871E+05
 
    0.35616E+05         0.00000E+00         0.00000E+00
    0.00000E+00        -0.46497E+06         0.00000E+00
    0.00000E+00         0.00000E+00        -0.85871E+05
 
    0.35616E+05        -0.21684E-09         0.00000E+00
   -0.21684E-09        -0.46497E+06         0.00000E+00
    0.00000E+00         0.00000E+00        -0.85871E+05
 
    0.35616E+05         0.12288E-08         0.00000E+00
    0.12288E-08        -0.46497E+06         0.00000E+00
    0.00000E+00         0.00000E+00        -0.85871E+05
 
    0.35616E+05         0.72280E-10         0.00000E+00
    0.72280E-10        -0.46497E+06         0.00000E+00
    0.00000E+00         0.00000E+00        -0.85871E+05
 
    0.35616E+05        -0.28912E-09         0.00000E+00
   -0.28912E-09        -0.46497E+06         0.00000E+00
    0.00000E+00         0.00000E+00        -0.85871E+05
 
    0.35616E+05        -0.43368E-09         0.00000E+00
   -0.43368E-09        -0.46497E+06         0.00000E+00
    0.00000E+00         0.00000E+00        -0.85871E+05
 
    0.35616E+05        -0.14456E-09         0.00000E+00
   -0.14456E-09        -0.46497E+06         0.00000E+00
    0.00000E+00         0.00000E+00        -0.85871E+05
 
    0.34076E+05        -0.20961E-08         0.00000E+00
   -0.20961E-08        -0.46536E+06         0.00000E+00
    0.00000E+00         0.00000E+00        -0.86256E+05
 
    0.34076E+05         0.90350E-09         0.00000E+00
    0.90350E-09        -0.46536E+06         0.00000E+00
    0.00000E+00         0.00000E+00        -0.86256E+05
 
    0.34076E+05         0.14456E-09         0.00000E+00
    0.14456E-09        -0.46536E+06         0.00000E+00
    0.00000E+00         0.00000E+00        -0.86256E+05
 
    0.34076E+05        -0.18070E-09         0.00000E+00
   -0.18070E-09        -0.46536E+06         0.00000E+00
    0.00000E+00         0.00000E+00        -0.86256E+05
 
    0.34076E+05        -0.18070E-09         0.00000E+00
   -0.18070E-09        -0.46536E+06         0.00000E+00
    0.00000E+00         0.00000E+00        -0.86256E+05
 
    0.34076E+05        -0.14456E-09         0.00000E+00
   -0.14456E-09        -0.46536E+06         0.00000E+00
    0.00000E+00         0.00000E+00        -0.86256E+05
 
    0.34076E+05         0.14456E-09         0.00000E+00
    0.14456E-09        -0.46536E+06         0.00000E+00
    0.00000E+00         0.00000E+00        -0.86256E+05
 
    0.34076E+05        -0.72280E-10         0.00000E+00
   -0.72280E-10        -0.46536E+06         0.00000E+00
    0.00000E+00         0.00000E+00        -0.86256E+05
 
    0.34076E+05         0.43368E-09         0.00000E+00
    0.43368E-09        -0.46536E+06         0.00000E+00
    0.00000E+00         0.00000E+00        -0.86256E+05
 
    0.34076E+05        -0.28912E-09         0.00000E+00
   -0.28912E-09        -0.46536E+06         0.00000E+00
    0.00000E+00         0.00000E+00        -0.86256E+05
 
    0.34076E+05         0.14456E-09         0.00000E+00
    0.14456E-09        -0.46536E+06         0.00000E+00
    0.00000E+00         0.00000E+00        -0.86256E+05
 
    0.34076E+05         0.14456E-09         0.00000E+00
    0.14456E-09        -0.46536E+06         0.00000E+00
    0.00000E+00         0.00000E+00        -0.86256E+05
 
    0.34076E+05         0.14456E-09         0.00000E+00
    0.14456E-09        -0.46536E+06         0.00000E+00
    0.00000E+00         0.00000E+00        -0.86256E+05
 
    0.34076E+05         0.65052E-09         0.00000E+00
    0.65052E-09        -0.46536E+06         0.00000E+00
    0.00000E+00         0.00000E+00        -0.86256E+05
 
    0.34076E+05        -0.13733E-08         0.00000E+00
   -0.13733E-08        -0.46536E+06         0.00000E+00
    0.00000E+00         0.00000E+00        -0.86256E+05
 
    0.32522E+05        -0.57824E-09         0.00000E+00
   -0.57824E-09        -0.46575E+06         0.00000E+00
    0.00000E+00         0.00000E+00        -0.86645E+05
 
    0.32522E+05         0.10119E-08         0.00000E+00
    0.10119E-08        -0.46575E+06         0.00000E+00
    0.00000E+00         0.00000E+00        -0.86645E+05
 
    0.32522E+05         0.43368E-09         0.00000E+00
    0.43368E-09        -0.46575E+06         0.00000E+00
    0.00000E+00         0.00000E+00        -0.86645E+05
 
    0.32522E+05         0.68666E-09         0.00000E+00
    0.68666E-09        -0.46575E+06         0.00000E+00
    0.00000E+00         0.00000E+00        -0.86645E+05
 
    0.32522E+05         0.10481E-08         0.00000E+00
    0.10481E-08        -0.46575E+06         0.00000E+00
    0.00000E+00         0.00000E+00        -0.86645E+05
 
    0.32522E+05        -0.18070E-09         0.00000E+00
   -0.18070E-09        -0.46575E+06         0.00000E+00
    0.00000E+00         0.00000E+00        -0.86645E+05
 
    0.32522E+05         0.25298E-09         0.00000E+00
    0.25298E-09        -0.46575E+06         0.00000E+00
    0.00000E+00         0.00000E+00        -0.86645E+05
 
    0.32522E+05         0.61438E-09         0.00000E+00
    0.61438E-09        -0.46575E+06         0.00000E+00
    0.00000E+00         0.00000E+00        -0.86645E+05
 
    0.32522E+05        -0.10842E-08         0.00000E+00
   -0.10842E-08        -0.46575E+06         0.00000E+00
    0.00000E+00         0.00000E+00        -0.86645E+05
 
    0.32522E+05        -0.21684E-09         0.00000E+00
   -0.21684E-09        -0.46575E+06         0.00000E+00
    0.00000E+00         0.00000E+00        -0.86645E+05
 
    0.32522E+05        -0.21684E-09         0.00000E+00
   -0.21684E-09        -0.46575E+06         0.00000E+00
    0.00000E+00         0.00000E+00        -0.86645E+05
 
    0.32522E+05         0.13733E-08         0.00000E+00
    0.13733E-08        -0.46575E+06         0.00000E+00
    0.00000E+00         0.00000E+00        -0.86645E+05
 
    0.32522E+05         0.50596E-09         0.00000E+00
    0.50596E-09        -0.46575E+06         0.00000E+00
    0.00000E+00         0.00000E+00        -0.86645E+05
 
    0.32522E+05        -0.36140E-09         0.00000E+00
   -0.36140E-09        -0.46575E+06         0.00000E+00
    0.00000E+00         0.00000E+00        -0.86645E+05
 
    0.32522E+05         0.72280E-10         0.00000E+00
    0.72280E-10        -0.46575E+06         0.00000E+00
    0.00000E+00         0.00000E+00        -0.86645E+05
 
    0.30954E+05         0.57824E-09         0.00000E+00
    0.57824E-09        -0.46614E+06         0.00000E+00
    0.00000E+00         0.00000E+00        -0.87037E+05
 
    0.30954E+05        -0.14456E-09         0.00000E+00
   -0.14456E-09        -0.46614E+06         0.00000E+00
    0.00000E+00         0.00000E+00        -0.87037E+05
 
    0.30954E+05         0.79508E-09         0.00000E+00
    0.79508E-09        -0.46614E+06         0.00000E+00
    0.00000E+00         0.00000E+00        -0.87037E+05
 
    0.30954E+05        -0.36140E-10         0.00000E+00
   -0.36140E-10        -0.46614E+06         0.00000E+00
    0.00000E+00         0.00000E+00        -0.87037E+05
 
    0.30954E+05         0.50596E-09         0.00000E+00
    0.50596E-09        -0.46614E+06         0.00000E+00
    0.00000E+00         0.00000E+00        -0.87037E+05
 
    0.30954E+05        -0.68666E-09         0.00000E+00
   -0.68666E-09        -0.46614E+06         0.00000E+00
    0.00000E+00         0.00000E+00        -0.87037E+05
 
    0.30954E+05        -0.14456E-09         0.00000E+00
   -0.14456E-09        -0.46614E+06         0.00000E+00
    0.00000E+00         0.00000E+00        -0.87037E+05
 
    0.30954E+05         0.93964E-09         0.00000E+00
    0.93964E-09        -0.46614E+06         0.00000E+00
    0.00000E+00         0.00000E+00        -0.87037E+05
 
    0.30954E+05        -0.54210E-09         0.00000E+00
   -0.54210E-09        -0.46614E+06         0.00000E+00
    0.00000E+00         0.00000E+00        -0.87037E+05
 
    0.30954E+05         0.14456E-08         0.00000E+00
    0.14456E-08        -0.46614E+06         0.00000E+00
    0.00000E+00         0.00000E+00        -0.87037E+05
 
    0.30954E+05        -0.16624E-08         0.00000E+00
   -0.16624E-08        -0.46614E+06         0.00000E+00
    0.00000E+00         0.00000E+00        -0.87037E+05
 
    0.30954E+05         0.20961E-08         0.00000E+00
    0.20961E-08        -0.46614E+06         0.00000E+00
    0.00000E+00         0.00000E+00        -0.87037E+05
 
    0.30954E+05        -0.57824E-09         0.00000E+00
   -0.57824E-09        -0.46614E+06         0.00000E+00
    0.00000E+00         0.00000E+00        -0.87037E+05
 
    0.30954E+05         0.57824E-09         0.00000E+00
    0.57824E-09        -0.46614E+06         0.00000E+00
    0.00000E+00         0.00000E+00        -0.87037E+05
 
    0.30954E+05        -0.72280E-10         0.00000E+00
   -0.72280E-10        -0.46614E+06         0.00000E+00
    0.00000E+00         0.00000E+00        -0.87037E+05
 
    0.29374E+05         0.36140E-09         0.00000E+00
    0.36140E-09        -0.46653E+06         0.00000E+00
    0.00000E+00         0.00000E+00        -0.87432E+05
 
    0.29374E+05         0.57824E-09         0.00000E+00
    0.57824E-09        -0.46653E+06         0.00000E+00
    0.00000E+00         0.00000E+00        -0.87432E+05
 
    0.29374E+05         0.79508E-09         0.00000E+00
    0.79508E-09        -0.46653E+06         0.00000E+00
    0.00000E+00         0.00000E+00        -0.87432E+05
 
    0.29374E+05        -0.72280E-09         0.00000E+00
   -0.72280E-09        -0.46653E+06         0.00000E+00
    0.00000E+00         0.00000E+00        -0.87432E+05
 
    0.29374E+05         0.83122E-09         0.00000E+00
    0.83122E-09        -0.46653E+06         0.00000E+00
    0.00000E+00         0.00000E+00        -0.87432E+05
 
    0.29374E+05         0.21684E-09         0.00000E+00
    0.21684E-09        -0.46653E+06         0.00000E+00
    0.00000E+00         0.00000E+00        -0.87432E+05
 
    0.29374E+05        -0.50596E-09         0.00000E+00
   -0.50596E-09        -0.46653E+06         0.00000E+00
    0.00000E+00         0.00000E+00        -0.87432E+05
 
    0.29374E+05        -0.61438E-09         0.00000E+00
   -0.61438E-09        -0.46653E+06         0.00000E+00
    0.00000E+00         0.00000E+00        -0.87432E+05
 
    0.29374E+05        -0.10842E-08         0.00000E+00
   -0.10842E-08        -0.46653E+06         0.00000E+00
    0.00000E+00         0.00000E+00        -0.87432E+05
 
    0.29374E+05         0.28912E-09         0.00000E+00
    0.28912E-09        -0.46653E+06         0.00000E+00
    0.00000E+00         0.00000E+00        -0.87432E+05
 
    0.29374E+05        -0.17347E-08         0.00000E+00
   -0.17347E-08        -0.46653E+06         0.00000E+00
    0.00000E+00         0.00000E+00        -0.87432E+05
 
    0.29374E+05        -0.72280E-09         0.00000E+00
   -0.72280E-09        -0.46653E+06         0.00000E+00
    0.00000E+00         0.00000E+00        -0.87432E+05
 
    0.29374E+05        -0.36140E-09         0.00000E+00
   -0.36140E-09        -0.46653E+06         0.00000E+00
    0.00000E+00         0.00000E+00        -0.87432E+05
 
    0.29374E+05         0.00000E+00         0.00000E+00
    0.00000E+00        -0.46653E+06         0.00000E+00
    0.00000E+00         0.00000E+00        -0.87432E+05
 
    0.29374E+05         0.00000E+00         0.00000E+00
    0.00000E+00        -0.46653E+06         0.00000E+00
    0.00000E+00         0.00000E+00        -0.87432E+05
 
    0.27780E+05        -0.65052E-09         0.00000E+00
   -0.65052E-09        -0.46693E+06         0.00000E+00
    0.00000E+00         0.00000E+00        -0.87830E+05
 
    0.27780E+05        -0.21684E-09         0.00000E+00
   -0.21684E-09        -0.46693E+06         0.00000E+00
    0.00000E+00         0.00000E+00        -0.87830E+05
 
    0.27780E+05         0.10119E-08         0.00000E+00
    0.10119E-08        -0.46693E+06         0.00000E+00
    0.00000E+00         0.00000E+00        -0.87830E+05
 
    0.27780E+05        -0.14456E-08         0.00000E+00
   -0.14456E-08        -0.46693E+06         0.00000E+00
    0.00000E+00         0.00000E+00        -0.87830E+05
 
    0.27780E+05         0.28912E-09         0.00000E+00
    0.28912E-09        -0.46693E+06         0.00000E+00
    0.00000E+00         0.00000E+00        -0.87830E+05
 
    0.27780E+05         0.72280E-10         0.00000E+00
    0.72280E-10        -0.46693E+06         0.00000E+00
    0.00000E+00         0.00000E+00        -0.87830E+05
 
    0.27780E+05         0.36140E-09         0.00000E+00
    0.36140E-09        -0.46693E+06         0.00000E+00
    0.00000E+00         0.00000E+00        -0.87830E+05
 
    0.27780E+05         0.93964E-09         0.00000E+00
    0.93964E-09        -0.46693E+06         0.00000E+00
    0.00000E+00         0.00000E+00        -0.87830E+05
 
    0.27780E+05         0.43368E-09         0.00000E+00
    0.43368E-09        -0.46693E+06         0.00000E+00
    0.00000E+00         0.00000E+00        -0.87830E+05
 
    0.27780E+05        -0.10842E-08         0.00000E+00
   -0.10842E-08        -0.46693E+06         0.00000E+00
    0.00000E+00         0.00000E+00        -0.87830E+05
 
    0.27780E+05         0.14456E-08         0.00000E+00
    0.14456E-08        -0.46693E+06         0.00000E+00
    0.00000E+00         0.00000E+00        -0.87830E+05
 
    0.27780E+05         0.72280E-10         0.00000E+00
    0.72280E-10        -0.46693E+06         0.00000E+00
    0.00000E+00         0.00000E+00        -0.87830E+05
 
    0.27780E+05         0.86736E-09         0.00000E+00
    0.86736E-09        -0.46693E+06         0.00000E+00
    0.00000E+00         0.00000E+00        -0.87830E+05
 
    0.27780E+05        -0.43368E-09         0.00000E+00
   -0.43368E-09        -0.46693E+06         0.00000E+00
    0.00000E+00         0.00000E+00        -0.87830E+05
 
    0.27780E+05         0.36140E-09         0.00000E+00
    0.36140E-09        -0.46693E+06         0.00000E+00
    0.00000E+00         0.00000E+00        -0.87830E+05
 
    0.26174E+05        -0.21684E-09         0.00000E+00
   -0.21684E-09        -0.46733E+06         0.00000E+00
    0.00000E+00         0.00000E+00        -0.88232E+05
 
    0.26174E+05         0.10842E-08         0.00000E+00
    0.10842E-08        -0.46733E+06         0.00000E+00
    0.00000E+00         0.00000E+00        -0.88232E+05
 
    0.26174E+05         0.57824E-09         0.00000E+00
    0.57824E-09        -0.46733E+06         0.00000E+00
    0.00000E+00         0.00000E+00        -0.88232E+05
 
    0.26174E+05        -0.11565E-08         0.00000E+00
   -0.11565E-08        -0.46733E+06         0.00000E+00
    0.00000E+00         0.00000E+00        -0.88232E+05
 
    0.26174E+05         0.21684E-09         0.00000E+00
    0.21684E-09        -0.46733E+06         0.00000E+00
    0.00000E+00         0.00000E+00        -0.88232E+05
 
    0.26174E+05        -0.28912E-09         0.00000E+00
   -0.28912E-09        -0.46733E+06         0.00000E+00
    0.00000E+00         0.00000E+00        -0.88232E+05
 
    0.26174E+05         0.11203E-08         0.00000E+00
    0.11203E-08        -0.46733E+06         0.00000E+00
    0.00000E+00         0.00000E+00        -0.88232E+05
 
    0.26174E+05        -0.43368E-09         0.00000E+00
   -0.43368E-09        -0.46733E+06         0.00000E+00
    0.00000E+00         0.00000E+00        -0.88232E+05
 
    0.26174E+05        -0.43368E-09         0.00000E+00
   -0.43368E-09        -0.46733E+06         0.00000E+00
    0.00000E+00         0.00000E+00        -0.88232E+05
 
    0.26174E+05        -0.20961E-08         0.00000E+00
   -0.20961E-08        -0.46733E+06         0.00000E+00
    0.00000E+00         0.00000E+00        -0.88232E+05
 
    0.26174E+05         0.14456E-08         0.00000E+00
    0.14456E-08        -0.46733E+06         0.00000E+00
    0.00000E+00         0.00000E+00        -0.88232E+05
 
    0.26174E+05         0.36140E-09         0.00000E+00
    0.36140E-09        -0.46733E+06         0.00000E+00
    0.00000E+00         0.00000E+00        -0.88232E+05
 
    0.26174E+05        -0.72280E-09         0.00000E+00
   -0.72280E-09        -0.46733E+06         0.00000E+00
    0.00000E+00         0.00000E+00        -0.88232E+05
 
    0.26174E+05         0.50596E-09         0.00000E+00
    0.50596E-09        -0.46733E+06         0.00000E+00
    0.00000E+00         0.00000E+00        -0.88232E+05
 
    0.26174E+05        -0.36140E-09         0.00000E+00
   -0.36140E-09        -0.46733E+06         0.00000E+00
    0.00000E+00         0.00000E+00        -0.88232E+05
 
    0.24555E+05         0.10842E-08         0.00000E+00
    0.10842E-08        -0.46774E+06         0.00000E+00
    0.00000E+00         0.00000E+00        -0.88636E+05
 
    0.24555E+05         0.11565E-08         0.00000E+00
    0.11565E-08        -0.46774E+06         0.00000E+00
    0.00000E+00         0.00000E+00        -0.88636E+05
 
    0.24555E+05        -0.15540E-08         0.00000E+00
   -0.15540E-08        -0.46774E+06         0.00000E+00
    0.00000E+00         0.00000E+00        -0.88636E+05
 
    0.24555E+05        -0.14456E-09         0.00000E+00
   -0.14456E-09        -0.46774E+06         0.00000E+00
    0.00000E+00         0.00000E+00        -0.88636E+05
 
    0.24555E+05         0.36140E-10         0.00000E+00
    0.36140E-10        -0.46774E+06         0.00000E+00
    0.00000E+00         0.00000E+00        -0.88636E+05
 
    0.24555E+05        -0.72280E-09         0.00000E+00
   -0.72280E-09        -0.46774E+06         0.00000E+00
    0.00000E+00         0.00000E+00        -0.88636E+05
 
    0.24555E+05         0.23130E-08         0.00000E+00
    0.23130E-08        -0.46774E+06         0.00000E+00
    0.00000E+00         0.00000E+00        -0.88636E+05
 
    0.24555E+05         0.72280E-10         0.00000E+00
    0.72280E-10        -0.46774E+06         0.00000E+00
    0.00000E+00         0.00000E+00        -0.88636E+05
 
    0.24555E+05        -0.13010E-08         0.00000E+00
   -0.13010E-08        -0.46774E+06         0.00000E+00
    0.00000E+00         0.00000E+00        -0.88636E+05
 
    0.24555E+05         0.14456E-09         0.00000E+00
    0.14456E-09        -0.46774E+06         0.00000E+00
    0.00000E+00         0.00000E+00        -0.88636E+05
 
    0.24555E+05         0.28912E-09         0.00000E+00
    0.28912E-09        -0.46774E+06         0.00000E+00
    0.00000E+00         0.00000E+00        -0.88636E+05
 
    0.24555E+05        -0.36140E-09         0.00000E+00
   -0.36140E-09        -0.46774E+06         0.00000E+00
    0.00000E+00         0.00000E+00        -0.88636E+05
 
    0.24555E+05        -0.65052E-09         0.00000E+00
   -0.65052E-09        -0.46774E+06         0.00000E+00
    0.00000E+00         0.00000E+00        -0.88636E+05
 
    0.24555E+05         0.36140E-09         0.00000E+00
    0.36140E-09        -0.46774E+06         0.00000E+00
    0.00000E+00         0.00000E+00        -0.88636E+05
 
    0.24555E+05         0.00000E+00         0.00000E+00
    0.00000E+00        -0.46774E+06         0.00000E+00
    0.00000E+00         0.00000E+00        -0.88636E+05
 
    0.22926E+05         0.14456E-09         0.00000E+00
    0.14456E-09        -0.46814E+06         0.00000E+00
    0.00000E+00         0.00000E+00        -0.89044E+05
 
    0.22926E+05         0.61438E-09         0.00000E+00
    0.61438E-09        -0.46814E+06         0.00000E+00
    0.00000E+00         0.00000E+00        -0.89044E+05
 
    0.22926E+05        -0.61438E-09         0.00000E+00
   -0.61438E-09        -0.46814E+06         0.00000E+00
    0.00000E+00         0.00000E+00        -0.89044E+05
 
    0.22926E+05         0.75894E-09         0.00000E+00
    0.75894E-09        -0.46814E+06         0.00000E+00
    0.00000E+00         0.00000E+00        -0.89044E+05
 
    0.22926E+05         0.68666E-09         0.00000E+00
    0.68666E-09        -0.46814E+06         0.00000E+00
    0.00000E+00         0.00000E+00        -0.89044E+05
 
    0.22926E+05        -0.21684E-09         0.00000E+00
   -0.21684E-09        -0.46814E+06         0.00000E+00
    0.00000E+00         0.00000E+00        -0.89044E+05
 
    0.22926E+05         0.79508E-09         0.00000E+00
    0.79508E-09        -0.46814E+06         0.00000E+00
    0.00000E+00         0.00000E+00        -0.89044E+05
 
    0.22926E+05        -0.25298E-09         0.00000E+00
   -0.25298E-09        -0.46814E+06         0.00000E+00
    0.00000E+00         0.00000E+00        -0.89044E+05
 
    0.22926E+05        -0.65052E-09         0.00000E+00
   -0.65052E-09        -0.46814E+06         0.00000E+00
    0.00000E+00         0.00000E+00        -0.89044E+05
 
    0.22926E+05         0.14456E-08         0.00000E+00
    0.14456E-08        -0.46814E+06         0.00000E+00
    0.00000E+00         0.00000E+00        -0.89044E+05
 
    0.22926E+05        -0.57824E-09         0.00000E+00
   -0.57824E-09        -0.46814E+06         0.00000E+00
    0.00000E+00         0.00000E+00        -0.89044E+05
 
    0.22926E+05         0.43368E-09         0.00000E+00
    0.43368E-09        -0.46814E+06         0.00000E+00
    0.00000E+00         0.00000E+00        -0.89044E+05
 
    0.22926E+05         0.72280E-09         0.00000E+00
    0.72280E-09        -0.46814E+06         0.00000E+00
    0.00000E+00         0.00000E+00        -0.89044E+05
 
    0.22926E+05        -0.28912E-09         0.00000E+00
   -0.28912E-09        -0.46814E+06         0.00000E+00
    0.00000E+00         0.00000E+00        -0.89044E+05
 
    0.22926E+05         0.00000E+00         0.00000E+00
    0.00000E+00        -0.46814E+06         0.00000E+00
    0.00000E+00         0.00000E+00        -0.89044E+05
 
    0.21284E+05        -0.57824E-09         0.00000E+00
   -0.57824E-09        -0.46855E+06         0.00000E+00
    0.00000E+00         0.00000E+00        -0.89454E+05
 
    0.21284E+05        -0.72280E-09         0.00000E+00
   -0.72280E-09        -0.46855E+06         0.00000E+00
    0.00000E+00         0.00000E+00        -0.89454E+05
 
    0.21284E+05         0.57824E-09         0.00000E+00
    0.57824E-09        -0.46855E+06         0.00000E+00
    0.00000E+00         0.00000E+00        -0.89454E+05
 
    0.21284E+05        -0.18070E-09         0.00000E+00
   -0.18070E-09        -0.46855E+06         0.00000E+00
    0.00000E+00         0.00000E+00        -0.89454E+05
 
    0.21284E+05         0.11926E-08         0.00000E+00
    0.11926E-08        -0.46855E+06         0.00000E+00
    0.00000E+00         0.00000E+00        -0.89454E+05
 
    0.21284E+05        -0.54210E-09         0.00000E+00
   -0.54210E-09        -0.46855E+06         0.00000E+00
    0.00000E+00         0.00000E+00        -0.89454E+05
 
    0.21284E+05         0.00000E+00         0.00000E+00
    0.00000E+00        -0.46855E+06         0.00000E+00
    0.00000E+00         0.00000E+00        -0.89454E+05
 
    0.21284E+05        -0.50596E-09         0.00000E+00
   -0.50596E-09        -0.46855E+06         0.00000E+00
    0.00000E+00         0.00000E+00        -0.89454E+05
 
    0.21284E+05        -0.11565E-08         0.00000E+00
   -0.11565E-08        -0.46855E+06         0.00000E+00
    0.00000E+00         0.00000E+00        -0.89454E+05
 
    0.21284E+05         0.79508E-09         0.00000E+00
    0.79508E-09        -0.46855E+06         0.00000E+00
    0.00000E+00         0.00000E+00        -0.89454E+05
 
    0.21284E+05        -0.43368E-09         0.00000E+00
   -0.43368E-09        -0.46855E+06         0.00000E+00
    0.00000E+00         0.00000E+00        -0.89454E+05
 
    0.21284E+05         0.86736E-09         0.00000E+00
    0.86736E-09        -0.46855E+06         0.00000E+00
    0.00000E+00         0.00000E+00        -0.89454E+05
 
    0.21284E+05         0.65052E-09         0.00000E+00
    0.65052E-09        -0.46855E+06         0.00000E+00
    0.00000E+00         0.00000E+00        -0.89454E+05
 
    0.21284E+05         0.21684E-09         0.00000E+00
    0.21684E-09        -0.46855E+06         0.00000E+00
    0.00000E+00         0.00000E+00        -0.89454E+05
 
    0.21284E+05         0.00000E+00         0.00000E+00
    0.00000E+00        -0.46855E+06         0.00000E+00
    0.00000E+00         0.00000E+00        -0.89454E+05
 
    0.19633E+05        -0.57824E-09         0.00000E+00
   -0.57824E-09        -0.46897E+06         0.00000E+00
    0.00000E+00         0.00000E+00        -0.89867E+05
 
    0.19633E+05        -0.90350E-09         0.00000E+00
   -0.90350E-09        -0.46897E+06         0.00000E+00
    0.00000E+00         0.00000E+00        -0.89867E+05
 
    0.19633E+05        -0.65052E-09         0.00000E+00
   -0.65052E-09        -0.46897E+06         0.00000E+00
    0.00000E+00         0.00000E+00        -0.89867E+05
 
    0.19633E+05         0.93964E-09         0.00000E+00
    0.93964E-09        -0.46897E+06         0.00000E+00
    0.00000E+00         0.00000E+00        -0.89867E+05
 
    0.19633E+05        -0.75894E-09         0.00000E+00
   -0.75894E-09        -0.46897E+06         0.00000E+00
    0.00000E+00         0.00000E+00        -0.89867E+05
 
    0.19633E+05        -0.90350E-09         0.00000E+00
   -0.90350E-09        -0.46897E+06         0.00000E+00
    0.00000E+00         0.00000E+00        -0.89867E+05
 
    0.19633E+05        -0.14817E-08         0.00000E+00
   -0.14817E-08        -0.46897E+06         0.00000E+00
    0.00000E+00         0.00000E+00        -0.89867E+05
 
    0.19633E+05         0.54210E-09         0.00000E+00
    0.54210E-09        -0.46897E+06         0.00000E+00
    0.00000E+00         0.00000E+00        -0.89867E+05
 
    0.19633E+05        -0.86736E-09         0.00000E+00
   -0.86736E-09        -0.46897E+06         0.00000E+00
    0.00000E+00         0.00000E+00        -0.89867E+05
 
    0.19633E+05        -0.50596E-09         0.00000E+00
   -0.50596E-09        -0.46897E+06         0.00000E+00
    0.00000E+00         0.00000E+00        -0.89867E+05
 
    0.19633E+05        -0.21684E-09         0.00000E+00
   -0.21684E-09        -0.46897E+06         0.00000E+00
    0.00000E+00         0.00000E+00        -0.89867E+05
 
    0.19633E+05        -0.16624E-08         0.00000E+00
   -0.16624E-08        -0.46897E+06         0.00000E+00
    0.00000E+00         0.00000E+00        -0.89867E+05
 
    0.19633E+05         0.00000E+00         0.00000E+00
    0.00000E+00        -0.46897E+06         0.00000E+00
    0.00000E+00         0.00000E+00        -0.89867E+05
 
    0.19633E+05         0.15902E-08         0.00000E+00
    0.15902E-08        -0.46897E+06         0.00000E+00
    0.00000E+00         0.00000E+00        -0.89867E+05
 
    0.19633E+05        -0.79508E-09         0.00000E+00
   -0.79508E-09        -0.46897E+06         0.00000E+00
    0.00000E+00         0.00000E+00        -0.89867E+05
 
    0.17970E+05        -0.79508E-09         0.00000E+00
   -0.79508E-09        -0.46938E+06         0.00000E+00
    0.00000E+00         0.00000E+00        -0.90283E+05
 
    0.17970E+05         0.11565E-08         0.00000E+00
    0.11565E-08        -0.46938E+06         0.00000E+00
    0.00000E+00         0.00000E+00        -0.90283E+05
 
    0.17970E+05        -0.93964E-09         0.00000E+00
   -0.93964E-09        -0.46938E+06         0.00000E+00
    0.00000E+00         0.00000E+00        -0.90283E+05
 
    0.17970E+05        -0.46982E-09         0.00000E+00
   -0.46982E-09        -0.46938E+06         0.00000E+00
    0.00000E+00         0.00000E+00        -0.90283E+05
 
    0.17970E+05        -0.14456E-09         0.00000E+00
   -0.14456E-09        -0.46938E+06         0.00000E+00
    0.00000E+00         0.00000E+00        -0.90283E+05
 
    0.17970E+05        -0.18070E-09         0.00000E+00
   -0.18070E-09        -0.46938E+06         0.00000E+00
    0.00000E+00         0.00000E+00        -0.90283E+05
 
    0.17970E+05        -0.18070E-09         0.00000E+00
   -0.18070E-09        -0.46938E+06         0.00000E+00
    0.00000E+00         0.00000E+00        -0.90283E+05
 
    0.17970E+05        -0.10119E-08         0.00000E+00
   -0.10119E-08        -0.46938E+06         0.00000E+00
    0.00000E+00         0.00000E+00        -0.90283E+05
 
    0.17970E+05         0.10842E-08         0.00000E+00
    0.10842E-08        -0.46938E+06         0.00000E+00
    0.00000E+00         0.00000E+00        -0.90283E+05
 
    0.17970E+05         0.72280E-10         0.00000E+00
    0.72280E-10        -0.46938E+06         0.00000E+00
    0.00000E+00         0.00000E+00        -0.90283E+05
 
    0.17970E+05        -0.36140E-09         0.00000E+00
   -0.36140E-09        -0.46938E+06         0.00000E+00
    0.00000E+00         0.00000E+00        -0.90283E+05
 
    0.17970E+05        -0.36140E-09         0.00000E+00
   -0.36140E-09        -0.46938E+06         0.00000E+00
    0.00000E+00         0.00000E+00        -0.90283E+05
 
    0.17970E+05        -0.79508E-09         0.00000E+00
   -0.79508E-09        -0.46938E+06         0.00000E+00
    0.00000E+00         0.00000E+00        -0.90283E+05
 
    0.17970E+05         0.10119E-08         0.00000E+00
    0.10119E-08        -0.46938E+06         0.00000E+00
    0.00000E+00         0.00000E+00        -0.90283E+05
 
    0.17970E+05        -0.65052E-09         0.00000E+00
   -0.65052E-09        -0.46938E+06         0.00000E+00
    0.00000E+00         0.00000E+00        -0.90283E+05
 
    0.16298E+05         0.72280E-10         0.00000E+00
    0.72280E-10        -0.46980E+06         0.00000E+00
    0.00000E+00         0.00000E+00        -0.90701E+05
 
    0.16298E+05        -0.36140E-09         0.00000E+00
   -0.36140E-09        -0.46980E+06         0.00000E+00
    0.00000E+00         0.00000E+00        -0.90701E+05
 
    0.16298E+05        -0.36140E-10         0.00000E+00
   -0.36140E-10        -0.46980E+06         0.00000E+00
    0.00000E+00         0.00000E+00        -0.90701E+05
 
    0.16298E+05        -0.14456E-09         0.00000E+00
   -0.14456E-09        -0.46980E+06         0.00000E+00
    0.00000E+00         0.00000E+00        -0.90701E+05
 
    0.16298E+05         0.93964E-09         0.00000E+00
    0.93964E-09        -0.46980E+06         0.00000E+00
    0.00000E+00         0.00000E+00        -0.90701E+05
 
    0.16298E+05        -0.18070E-09         0.00000E+00
   -0.18070E-09        -0.46980E+06         0.00000E+00
    0.00000E+00         0.00000E+00        -0.90701E+05
 
    0.16298E+05         0.10842E-09         0.00000E+00
    0.10842E-09        -0.46980E+06         0.00000E+00
    0.00000E+00         0.00000E+00        -0.90701E+05
 
    0.16298E+05        -0.72280E-10         0.00000E+00
   -0.72280E-10        -0.46980E+06         0.00000E+00
    0.00000E+00         0.00000E+00        -0.90701E+05
 
    0.16298E+05         0.28912E-09         0.00000E+00
    0.28912E-09        -0.46980E+06         0.00000E+00
    0.00000E+00         0.00000E+00        -0.90701E+05
 
    0.16298E+05         0.21684E-09         0.00000E+00
    0.21684E-09        -0.46980E+06         0.00000E+00
    0.00000E+00         0.00000E+00        -0.90701E+05
 
    0.16298E+05        -0.21684E-09         0.00000E+00
   -0.21684E-09        -0.46980E+06         0.00000E+00
    0.00000E+00         0.00000E+00        -0.90701E+05
 
    0.16298E+05        -0.57824E-09         0.00000E+00
   -0.57824E-09        -0.46980E+06         0.00000E+00
    0.00000E+00         0.00000E+00        -0.90701E+05
 
    0.16298E+05        -0.14456E-09         0.00000E+00
   -0.14456E-09        -0.46980E+06         0.00000E+00
    0.00000E+00         0.00000E+00        -0.90701E+05
 
    0.16298E+05         0.86736E-09         0.00000E+00
    0.86736E-09        -0.46980E+06         0.00000E+00
    0.00000E+00         0.00000E+00        -0.90701E+05
 
    0.16298E+05         0.00000E+00         0.00000E+00
    0.00000E+00        -0.46980E+06         0.00000E+00
    0.00000E+00         0.00000E+00        -0.90701E+05
 
    0.14616E+05         0.00000E+00         0.00000E+00
    0.00000E+00        -0.47022E+06         0.00000E+00
    0.00000E+00         0.00000E+00        -0.91121E+05
 
    0.14616E+05         0.14095E-08         0.00000E+00
    0.14095E-08        -0.47022E+06         0.00000E+00
    0.00000E+00         0.00000E+00        -0.91121E+05
 
    0.14616E+05        -0.20238E-08         0.00000E+00
   -0.20238E-08        -0.47022E+06         0.00000E+00
    0.00000E+00         0.00000E+00        -0.91121E+05
 
    0.14616E+05         0.11203E-08         0.00000E+00
    0.11203E-08        -0.47022E+06         0.00000E+00
    0.00000E+00         0.00000E+00        -0.91121E+05
 
    0.14616E+05        -0.46982E-09         0.00000E+00
   -0.46982E-09        -0.47022E+06         0.00000E+00
    0.00000E+00         0.00000E+00        -0.91121E+05
 
    0.14616E+05         0.13372E-08         0.00000E+00
    0.13372E-08        -0.47022E+06         0.00000E+00
    0.00000E+00         0.00000E+00        -0.91121E+05
 
    0.14616E+05        -0.50596E-09         0.00000E+00
   -0.50596E-09        -0.47022E+06         0.00000E+00
    0.00000E+00         0.00000E+00        -0.91121E+05
 
    0.14616E+05        -0.72280E-10         0.00000E+00
   -0.72280E-10        -0.47022E+06         0.00000E+00
    0.00000E+00         0.00000E+00        -0.91121E+05
 
    0.14616E+05         0.36140E-09         0.00000E+00
    0.36140E-09        -0.47022E+06         0.00000E+00
    0.00000E+00         0.00000E+00        -0.91121E+05
 
    0.14616E+05        -0.13010E-08         0.00000E+00
   -0.13010E-08        -0.47022E+06         0.00000E+00
    0.00000E+00         0.00000E+00        -0.91121E+05
 
    0.14616E+05         0.72280E-10         0.00000E+00
    0.72280E-10        -0.47022E+06         0.00000E+00
    0.00000E+00         0.00000E+00        -0.91121E+05
 
    0.14616E+05        -0.28912E-09         0.00000E+00
   -0.28912E-09        -0.47022E+06         0.00000E+00
    0.00000E+00         0.00000E+00        -0.91121E+05
 
    0.14616E+05         0.50596E-09         0.00000E+00
    0.50596E-09        -0.47022E+06         0.00000E+00
    0.00000E+00         0.00000E+00        -0.91121E+05
 
    0.14616E+05        -0.28912E-09         0.00000E+00
   -0.28912E-09        -0.47022E+06         0.00000E+00
    0.00000E+00         0.00000E+00        -0.91121E+05
 
    0.14616E+05        -0.14456E-09         0.00000E+00
   -0.14456E-09        -0.47022E+06         0.00000E+00
    0.00000E+00         0.00000E+00        -0.91121E+05
 
    0.12925E+05        -0.57824E-09         0.00000E+00
   -0.57824E-09        -0.47064E+06         0.00000E+00
    0.00000E+00         0.00000E+00        -0.91544E+05
 
    0.12925E+05         0.19877E-08         0.00000E+00
    0.19877E-08        -0.47064E+06         0.00000E+00
    0.00000E+00         0.00000E+00        -0.91544E+05
 
    0.12925E+05        -0.93964E-09         0.00000E+00
   -0.93964E-09        -0.47064E+06         0.00000E+00
    0.00000E+00         0.00000E+00        -0.91544E+05
 
    0.12925E+05        -0.72280E-09         0.00000E+00
   -0.72280E-09        -0.47064E+06         0.00000E+00
    0.00000E+00         0.00000E+00        -0.91544E+05
 
    0.12925E+05         0.39754E-09         0.00000E+00
    0.39754E-09        -0.47064E+06         0.00000E+00
    0.00000E+00         0.00000E+00        -0.91544E+05
 
    0.12925E+05         0.43368E-09         0.00000E+00
    0.43368E-09        -0.47064E+06         0.00000E+00
    0.00000E+00         0.00000E+00        -0.91544E+05
 
    0.12925E+05         0.28912E-09         0.00000E+00
    0.28912E-09        -0.47064E+06         0.00000E+00
    0.00000E+00         0.00000E+00        -0.91544E+05
 
    0.12925E+05        -0.79508E-09         0.00000E+00
   -0.79508E-09        -0.47064E+06         0.00000E+00
    0.00000E+00         0.00000E+00        -0.91544E+05
 
    0.12925E+05        -0.43368E-09         0.00000E+00
   -0.43368E-09        -0.47064E+06         0.00000E+00
    0.00000E+00         0.00000E+00        -0.91544E+05
 
    0.12925E+05        -0.10119E-08         0.00000E+00
   -0.10119E-08        -0.47064E+06         0.00000E+00
    0.00000E+00         0.00000E+00        -0.91544E+05
 
    0.12925E+05         0.93964E-09         0.00000E+00
    0.93964E-09        -0.47064E+06         0.00000E+00
    0.00000E+00         0.00000E+00        -0.91544E+05
 
    0.12925E+05        -0.50596E-09         0.00000E+00
   -0.50596E-09        -0.47064E+06         0.00000E+00
    0.00000E+00         0.00000E+00        -0.91544E+05
 
    0.12925E+05         0.00000E+00         0.00000E+00
    0.00000E+00        -0.47064E+06         0.00000E+00
    0.00000E+00         0.00000E+00        -0.91544E+05
 
    0.12925E+05         0.36140E-09         0.00000E+00
    0.36140E-09        -0.47064E+06         0.00000E+00
    0.00000E+00         0.00000E+00        -0.91544E+05
 
    0.12925E+05         0.72280E-10         0.00000E+00
    0.72280E-10        -0.47064E+06         0.00000E+00
    0.00000E+00         0.00000E+00        -0.91544E+05
 
    0.11226E+05        -0.93964E-09         0.00000E+00
   -0.93964E-09        -0.47107E+06         0.00000E+00
    0.00000E+00         0.00000E+00        -0.91969E+05
 
    0.11226E+05         0.72280E-09         0.00000E+00
    0.72280E-09        -0.47107E+06         0.00000E+00
    0.00000E+00         0.00000E+00        -0.91969E+05
 
    0.11226E+05        -0.21684E-09         0.00000E+00
   -0.21684E-09        -0.47107E+06         0.00000E+00
    0.00000E+00         0.00000E+00        -0.91969E+05
 
    0.11226E+05        -0.32526E-09         0.00000E+00
   -0.32526E-09        -0.47107E+06         0.00000E+00
    0.00000E+00         0.00000E+00        -0.91969E+05
 
    0.11226E+05         0.50596E-09         0.00000E+00
    0.50596E-09        -0.47107E+06         0.00000E+00
    0.00000E+00         0.00000E+00        -0.91969E+05
 
    0.11226E+05         0.36140E-09         0.00000E+00
    0.36140E-09        -0.47107E+06         0.00000E+00
    0.00000E+00         0.00000E+00        -0.91969E+05
 
    0.11226E+05         0.72280E-10         0.00000E+00
    0.72280E-10        -0.47107E+06         0.00000E+00
    0.00000E+00         0.00000E+00        -0.91969E+05
 
    0.11226E+05        -0.43368E-09         0.00000E+00
   -0.43368E-09        -0.47107E+06         0.00000E+00
    0.00000E+00         0.00000E+00        -0.91969E+05
 
    0.11226E+05         0.72280E-10         0.00000E+00
    0.72280E-10        -0.47107E+06         0.00000E+00
    0.00000E+00         0.00000E+00        -0.91969E+05
 
    0.11226E+05        -0.50596E-09         0.00000E+00
   -0.50596E-09        -0.47107E+06         0.00000E+00
    0.00000E+00         0.00000E+00        -0.91969E+05
 
    0.11226E+05         0.00000E+00         0.00000E+00
    0.00000E+00        -0.47107E+06         0.00000E+00
    0.00000E+00         0.00000E+00        -0.91969E+05
 
    0.11226E+05         0.11565E-08         0.00000E+00
    0.11565E-08        -0.47107E+06         0.00000E+00
    0.00000E+00         0.00000E+00        -0.91969E+05
 
    0.11226E+05        -0.65052E-09         0.00000E+00
   -0.65052E-09        -0.47107E+06         0.00000E+00
    0.00000E+00         0.00000E+00        -0.91969E+05
 
    0.11226E+05        -0.72280E-10         0.00000E+00
   -0.72280E-10        -0.47107E+06         0.00000E+00
    0.00000E+00         0.00000E+00        -0.91969E+05
 
    0.11226E+05         0.72280E-10         0.00000E+00
    0.72280E-10        -0.47107E+06         0.00000E+00
    0.00000E+00         0.00000E+00        -0.91969E+05
 
    0.95180E+04         0.93964E-09         0.00000E+00
    0.93964E-09        -0.47150E+06         0.00000E+00
    0.00000E+00         0.00000E+00        -0.92396E+05
 
    0.95180E+04         0.72280E-09         0.00000E+00
    0.72280E-09        -0.47150E+06         0.00000E+00
    0.00000E+00         0.00000E+00        -0.92396E+05
 
    0.95180E+04         0.39754E-09         0.00000E+00
    0.39754E-09        -0.47150E+06         0.00000E+00
    0.00000E+00         0.00000E+00        -0.92396E+05
 
    0.95180E+04        -0.68666E-09         0.00000E+00
   -0.68666E-09        -0.47150E+06         0.00000E+00
    0.00000E+00         0.00000E+00        -0.92396E+05
 
    0.95180E+04         0.14456E-09         0.00000E+00
    0.14456E-09        -0.47150E+06         0.00000E+00
    0.00000E+00         0.00000E+00        -0.92396E+05
 
    0.95180E+04         0.54210E-09         0.00000E+00
    0.54210E-09        -0.47150E+06         0.00000E+00
    0.00000E+00         0.00000E+00        -0.92396E+05
 
    0.95180E+04        -0.21684E-09         0.00000E+00
   -0.21684E-09        -0.47150E+06         0.00000E+00
    0.00000E+00         0.00000E+00        -0.92396E+05
 
    0.95180E+04         0.93964E-09         0.00000E+00
    0.93964E-09        -0.47150E+06         0.00000E+00
    0.00000E+00         0.00000E+00        -0.92396E+05
 
    0.95180E+04        -0.36140E-09         0.00000E+00
   -0.36140E-09        -0.47150E+06         0.00000E+00
    0.00000E+00         0.00000E+00        -0.92396E+05
 
    0.95180E+04         0.65052E-09         0.00000E+00
    0.65052E-09        -0.47150E+06         0.00000E+00
    0.00000E+00         0.00000E+00        -0.92396E+05
 
    0.95180E+04        -0.79508E-09         0.00000E+00
   -0.79508E-09        -0.47150E+06         0.00000E+00
    0.00000E+00         0.00000E+00        -0.92396E+05
 
    0.95180E+04         0.43368E-09         0.00000E+00
    0.43368E-09        -0.47150E+06         0.00000E+00
    0.00000E+00         0.00000E+00        -0.92396E+05
 
    0.95180E+04         0.72280E-10         0.00000E+00
    0.72280E-10        -0.47150E+06         0.00000E+00
    0.00000E+00         0.00000E+00        -0.92396E+05
 
    0.95180E+04        -0.16624E-08         0.00000E+00
   -0.16624E-08        -0.47150E+06         0.00000E+00
    0.00000E+00         0.00000E+00        -0.92396E+05
 
    0.95180E+04        -0.21684E-09         0.00000E+00
   -0.21684E-09        -0.47150E+06         0.00000E+00
    0.00000E+00         0.00000E+00        -0.92396E+05
 
    0.78025E+04        -0.57824E-09         0.00000E+00
   -0.57824E-09        -0.47193E+06         0.00000E+00
    0.00000E+00         0.00000E+00        -0.92825E+05
 
    0.78025E+04        -0.39754E-09         0.00000E+00
   -0.39754E-09        -0.47193E+06         0.00000E+00
    0.00000E+00         0.00000E+00        -0.92825E+05
 
    0.78025E+04         0.18070E-09         0.00000E+00
    0.18070E-09        -0.47193E+06         0.00000E+00
    0.00000E+00         0.00000E+00        -0.92825E+05
 
    0.78025E+04         0.25298E-09         0.00000E+00
    0.25298E-09        -0.47193E+06         0.00000E+00
    0.00000E+00         0.00000E+00        -0.92825E+05
 
    0.78025E+04         0.61438E-09         0.00000E+00
    0.61438E-09        -0.47193E+06         0.00000E+00
    0.00000E+00         0.00000E+00        -0.92825E+05
 
    0.78025E+04        -0.93964E-09         0.00000E+00
   -0.93964E-09        -0.47193E+06         0.00000E+00
    0.00000E+00         0.00000E+00        -0.92825E+05
 
    0.78025E+04         0.14456E-09         0.00000E+00
    0.14456E-09        -0.47193E+06         0.00000E+00
    0.00000E+00         0.00000E+00        -0.92825E+05
 
    0.78025E+04         0.00000E+00         0.00000E+00
    0.00000E+00        -0.47193E+06         0.00000E+00
    0.00000E+00         0.00000E+00        -0.92825E+05
 
    0.78025E+04         0.14456E-09         0.00000E+00
    0.14456E-09        -0.47193E+06         0.00000E+00
    0.00000E+00         0.00000E+00        -0.92825E+05
 
    0.78025E+04         0.10842E-08         0.00000E+00
    0.10842E-08        -0.47193E+06         0.00000E+00
    0.00000E+00         0.00000E+00        -0.92825E+05
 
    0.78025E+04         0.21684E-09         0.00000E+00
    0.21684E-09        -0.47193E+06         0.00000E+00
    0.00000E+00         0.00000E+00        -0.92825E+05
 
    0.78025E+04         0.21684E-09         0.00000E+00
    0.21684E-09        -0.47193E+06         0.00000E+00
    0.00000E+00         0.00000E+00        -0.92825E+05
 
    0.78025E+04         0.43368E-09         0.00000E+00
    0.43368E-09        -0.47193E+06         0.00000E+00
    0.00000E+00         0.00000E+00        -0.92825E+05
 
    0.78025E+04        -0.43368E-09         0.00000E+00
   -0.43368E-09        -0.47193E+06         0.00000E+00
    0.00000E+00         0.00000E+00        -0.92825E+05
 
    0.78025E+04        -0.86736E-09         0.00000E+00
   -0.86736E-09        -0.47193E+06         0.00000E+00
    0.00000E+00         0.00000E+00        -0.92825E+05
 
    0.60797E+04         0.14456E-09         0.00000E+00
    0.14456E-09        -0.47236E+06         0.00000E+00
    0.00000E+00         0.00000E+00        -0.93255E+05
 
    0.60797E+04         0.72280E-10         0.00000E+00
    0.72280E-10        -0.47236E+06         0.00000E+00
    0.00000E+00         0.00000E+00        -0.93255E+05
 
    0.60797E+04        -0.46982E-09         0.00000E+00
   -0.46982E-09        -0.47236E+06         0.00000E+00
    0.00000E+00         0.00000E+00        -0.93255E+05
 
    0.60797E+04         0.28912E-09         0.00000E+00
    0.28912E-09        -0.47236E+06         0.00000E+00
    0.00000E+00         0.00000E+00        -0.93255E+05
 
    0.60797E+04         0.11565E-08         0.00000E+00
    0.11565E-08        -0.47236E+06         0.00000E+00
    0.00000E+00         0.00000E+00        -0.93255E+05
 
    0.60797E+04        -0.61438E-09         0.00000E+00
   -0.61438E-09        -0.47236E+06         0.00000E+00
    0.00000E+00         0.00000E+00        -0.93255E+05
 
    0.60797E+04         0.65052E-09         0.00000E+00
    0.65052E-09        -0.47236E+06         0.00000E+00
    0.00000E+00         0.00000E+00        -0.93255E+05
 
    0.60797E+04         0.21684E-09         0.00000E+00
    0.21684E-09        -0.47236E+06         0.00000E+00
    0.00000E+00         0.00000E+00        -0.93255E+05
 
    0.60797E+04         0.00000E+00         0.00000E+00
    0.00000E+00        -0.47236E+06         0.00000E+00
    0.00000E+00         0.00000E+00        -0.93255E+05
 
    0.60797E+04         0.12288E-08         0.00000E+00
    0.12288E-08        -0.47236E+06         0.00000E+00
    0.00000E+00         0.00000E+00        -0.93255E+05
 
    0.60797E+04         0.57824E-09         0.00000E+00
    0.57824E-09        -0.47236E+06         0.00000E+00
    0.00000E+00         0.00000E+00        -0.93255E+05
 
    0.60797E+04        -0.72280E-10         0.00000E+00
   -0.72280E-10        -0.47236E+06         0.00000E+00
    0.00000E+00         0.00000E+00        -0.93255E+05
 
    0.60797E+04        -0.21684E-09         0.00000E+00
   -0.21684E-09        -0.47236E+06         0.00000E+00
    0.00000E+00         0.00000E+00        -0.93255E+05
 
    0.60797E+04        -0.50596E-09         0.00000E+00
   -0.50596E-09        -0.47236E+06         0.00000E+00
    0.00000E+00         0.00000E+00        -0.93255E+05
 
    0.60797E+04         0.10119E-08         0.00000E+00
    0.10119E-08        -0.47236E+06         0.00000E+00
    0.00000E+00         0.00000E+00        -0.93255E+05
 
    0.43501E+04         0.28912E-09         0.00000E+00
    0.28912E-09        -0.47279E+06         0.00000E+00
    0.00000E+00         0.00000E+00        -0.93688E+05
 
    0.43501E+04         0.32526E-09         0.00000E+00
    0.32526E-09        -0.47279E+06         0.00000E+00
    0.00000E+00         0.00000E+00        -0.93688E+05
 
    0.43501E+04         0.25298E-09         0.00000E+00
    0.25298E-09        -0.47279E+06         0.00000E+00
    0.00000E+00         0.00000E+00        -0.93688E+05
 
    0.43501E+04         0.21684E-09         0.00000E+00
    0.21684E-09        -0.47279E+06         0.00000E+00
    0.00000E+00         0.00000E+00        -0.93688E+05
 
    0.43501E+04         0.50596E-09         0.00000E+00
    0.50596E-09        -0.47279E+06         0.00000E+00
    0.00000E+00         0.00000E+00        -0.93688E+05
 
    0.43501E+04         0.10842E-09         0.00000E+00
    0.10842E-09        -0.47279E+06         0.00000E+00
    0.00000E+00         0.00000E+00        -0.93688E+05
 
    0.43501E+04         0.43368E-09         0.00000E+00
    0.43368E-09        -0.47279E+06         0.00000E+00
    0.00000E+00         0.00000E+00        -0.93688E+05
 
    0.43501E+04        -0.93964E-09         0.00000E+00
   -0.93964E-09        -0.47279E+06         0.00000E+00
    0.00000E+00         0.00000E+00        -0.93688E+05
 
    0.43501E+04        -0.28912E-09         0.00000E+00
   -0.28912E-09        -0.47279E+06         0.00000E+00
    0.00000E+00         0.00000E+00        -0.93688E+05
 
    0.43501E+04        -0.15179E-08         0.00000E+00
   -0.15179E-08        -0.47279E+06         0.00000E+00
    0.00000E+00         0.00000E+00        -0.93688E+05
 
    0.43501E+04        -0.11565E-08         0.00000E+00
   -0.11565E-08        -0.47279E+06         0.00000E+00
    0.00000E+00         0.00000E+00        -0.93688E+05
 
    0.43501E+04        -0.10119E-08         0.00000E+00
   -0.10119E-08        -0.47279E+06         0.00000E+00
    0.00000E+00         0.00000E+00        -0.93688E+05
 
    0.43501E+04        -0.93964E-09         0.00000E+00
   -0.93964E-09        -0.47279E+06         0.00000E+00
    0.00000E+00         0.00000E+00        -0.93688E+05
 
    0.43501E+04        -0.65052E-09         0.00000E+00
   -0.65052E-09        -0.47279E+06         0.00000E+00
    0.00000E+00         0.00000E+00        -0.93688E+05
 
    0.43501E+04         0.72280E-10         0.00000E+00
    0.72280E-10        -0.47279E+06         0.00000E+00
    0.00000E+00         0.00000E+00        -0.93688E+05
 
    0.26142E+04         0.10842E-08         0.00000E+00
    0.10842E-08        -0.47322E+06         0.00000E+00
    0.00000E+00         0.00000E+00        -0.94122E+05
 
    0.26142E+04         0.43368E-09         0.00000E+00
    0.43368E-09        -0.47322E+06         0.00000E+00
    0.00000E+00         0.00000E+00        -0.94122E+05
 
    0.26142E+04        -0.54210E-09         0.00000E+00
   -0.54210E-09        -0.47322E+06         0.00000E+00
    0.00000E+00         0.00000E+00        -0.94122E+05
 
    0.26142E+04         0.65052E-09         0.00000E+00
    0.65052E-09        -0.47322E+06         0.00000E+00
    0.00000E+00         0.00000E+00        -0.94122E+05
 
    0.26142E+04        -0.61438E-09         0.00000E+00
   -0.61438E-09        -0.47322E+06         0.00000E+00
    0.00000E+00         0.00000E+00        -0.94122E+05
 
    0.26142E+04        -0.18070E-09         0.00000E+00
   -0.18070E-09        -0.47322E+06         0.00000E+00
    0.00000E+00         0.00000E+00        -0.94122E+05
 
    0.26142E+04         0.16624E-08         0.00000E+00
    0.16624E-08        -0.47322E+06         0.00000E+00
    0.00000E+00         0.00000E+00        -0.94122E+05
 
    0.26142E+04         0.21684E-09         0.00000E+00
    0.21684E-09        -0.47322E+06         0.00000E+00
    0.00000E+00         0.00000E+00        -0.94122E+05
 
    0.26142E+04        -0.17347E-08         0.00000E+00
   -0.17347E-08        -0.47322E+06         0.00000E+00
    0.00000E+00         0.00000E+00        -0.94122E+05
 
    0.26142E+04        -0.28912E-09         0.00000E+00
   -0.28912E-09        -0.47322E+06         0.00000E+00
    0.00000E+00         0.00000E+00        -0.94122E+05
 
    0.26142E+04        -0.65052E-09         0.00000E+00
   -0.65052E-09        -0.47322E+06         0.00000E+00
    0.00000E+00         0.00000E+00        -0.94122E+05
 
    0.26142E+04         0.72280E-10         0.00000E+00
    0.72280E-10        -0.47322E+06         0.00000E+00
    0.00000E+00         0.00000E+00        -0.94122E+05
 
    0.26142E+04        -0.72280E-10         0.00000E+00
   -0.72280E-10        -0.47322E+06         0.00000E+00
    0.00000E+00         0.00000E+00        -0.94122E+05
 
    0.26142E+04        -0.10119E-08         0.00000E+00
   -0.10119E-08        -0.47322E+06         0.00000E+00
    0.00000E+00         0.00000E+00        -0.94122E+05
 
    0.26142E+04         0.14456E-09         0.00000E+00
    0.14456E-09        -0.47322E+06         0.00000E+00
    0.00000E+00         0.00000E+00        -0.94122E+05
 
    0.87233E+03         0.86736E-09         0.00000E+00
    0.86736E-09        -0.47366E+06         0.00000E+00
    0.00000E+00         0.00000E+00        -0.94557E+05
 
    0.87233E+03        -0.24575E-08         0.00000E+00
   -0.24575E-08        -0.47366E+06         0.00000E+00
    0.00000E+00         0.00000E+00        -0.94557E+05
 
    0.87233E+03        -0.32526E-09         0.00000E+00
   -0.32526E-09        -0.47366E+06         0.00000E+00
    0.00000E+00         0.00000E+00        -0.94557E+05
 
    0.87233E+03         0.10119E-08         0.00000E+00
    0.10119E-08        -0.47366E+06         0.00000E+00
    0.00000E+00         0.00000E+00        -0.94557E+05
 
    0.87233E+03        -0.61438E-09         0.00000E+00
   -0.61438E-09        -0.47366E+06         0.00000E+00
    0.00000E+00         0.00000E+00        -0.94557E+05
 
    0.87233E+03        -0.20238E-08         0.00000E+00
   -0.20238E-08        -0.47366E+06         0.00000E+00
    0.00000E+00         0.00000E+00        -0.94557E+05
 
    0.87233E+03        -0.72280E-09         0.00000E+00
   -0.72280E-09        -0.47366E+06         0.00000E+00
    0.00000E+00         0.00000E+00        -0.94557E+05
 
    0.87233E+03        -0.93964E-09         0.00000E+00
   -0.93964E-09        -0.47366E+06         0.00000E+00
    0.00000E+00         0.00000E+00        -0.94557E+05
 
    0.87233E+03         0.36140E-09         0.00000E+00
    0.36140E-09        -0.47366E+06         0.00000E+00
    0.00000E+00         0.00000E+00        -0.94557E+05
 
    0.87233E+03         0.16624E-08         0.00000E+00
    0.16624E-08        -0.47366E+06         0.00000E+00
    0.00000E+00         0.00000E+00        -0.94557E+05
 
    0.87233E+03        -0.14456E-09         0.00000E+00
   -0.14456E-09        -0.47366E+06         0.00000E+00
    0.00000E+00         0.00000E+00        -0.94557E+05
 
    0.87233E+03        -0.72280E-10         0.00000E+00
   -0.72280E-10        -0.47366E+06         0.00000E+00
    0.00000E+00         0.00000E+00        -0.94557E+05
 
    0.87233E+03        -0.14456E-09         0.00000E+00
   -0.14456E-09        -0.47366E+06         0.00000E+00
    0.00000E+00         0.00000E+00        -0.94557E+05
 
    0.87233E+03         0.18793E-08         0.00000E+00
    0.18793E-08        -0.47366E+06         0.00000E+00
    0.00000E+00         0.00000E+00        -0.94557E+05
 
    0.87233E+03        -0.43368E-09         0.00000E+00
   -0.43368E-09        -0.47366E+06         0.00000E+00
    0.00000E+00         0.00000E+00        -0.94557E+05
 
TENSORS stresstot double 
    0.14552E-10         0.99385E-10         0.00000E+00
    0.99385E-10        -0.54336E+06         0.00000E+00
    0.00000E+00         0.00000E+00        -0.16426E+06
 
   -0.17099E-09        -0.90350E-11         0.00000E+00
   -0.90350E-11        -0.54336E+06         0.00000E+00
    0.00000E+00         0.00000E+00        -0.16426E+06
 
    0.11278E-09         0.13553E-09         0.00000E+00
    0.13553E-09        -0.54336E+06         0.00000E+00
    0.00000E+00         0.00000E+00        -0.16426E+06
 
   -0.61846E-10         0.18070E-09         0.00000E+00
    0.18070E-09        -0.54336E+06         0.00000E+00
    0.00000E+00         0.00000E+00        -0.16426E+06
 
    0.76398E-10         0.40658E-10         0.00000E+00
    0.40658E-10        -0.54336E+06         0.00000E+00
    0.00000E+00         0.00000E+00        -0.16426E+06
 
    0.76398E-10         0.22588E-10         0.00000E+00
    0.22588E-10        -0.54336E+06         0.00000E+00
    0.00000E+00         0.00000E+00        -0.16426E+06
 
   -0.25466E-10         0.31623E-10         0.00000E+00
    0.31623E-10        -0.54336E+06         0.00000E+00
    0.00000E+00         0.00000E+00        -0.16426E+06
 
   -0.54570E-10         0.40658E-10         0.00000E+00
    0.40658E-10        -0.54336E+06         0.00000E+00
    0.00000E+00         0.00000E+00        -0.16426E+06
 
   -0.18190E-10        -0.58728E-10         0.00000E+00
   -0.58728E-10        -0.54336E+06         0.00000E+00
    0.00000E+00         0.00000E+00        -0.16426E+06
 
   -0.10914E-10        -0.85833E-10         0.00000E+00
   -0.85833E-10        -0.54336E+06         0.00000E+00
    0.00000E+00         0.00000E+00        -0.16426E+06
 
   -0.94587E-10         0.22588E-10         0.00000E+00
    0.22588E-10        -0.54336E+06         0.00000E+00
    0.00000E+00         0.00000E+00        -0.16426E+06
 
   -0.87311E-10        -0.31623E-10         0.00000E+00
   -0.31623E-10        -0.54336E+06         0.00000E+00
    0.00000E+00         0.00000E+00        -0.16426E+06
 
    0.10914E-10        -0.20329E-10         0.00000E+00
   -0.20329E-10        -0.54336E+06         0.00000E+00
    0.00000E+00         0.00000E+00        -0.16426E+06
 
   -0.36380E-11         0.10164E-10         0.00000E+00
    0.10164E-10        -0.54336E+06         0.00000E+00
    0.00000E+00         0.00000E+00        -0.16426E+06
 
    0.25466E-10         0.00000E+00         0.00000E+00
    0.00000E+00        -0.54336E+06         0.00000E+00
    0.00000E+00         0.00000E+00        -0.16426E+06
 
    0.00000E+00        -0.19877E-09         0.00000E+00
   -0.19877E-09        -0.54334E+06         0.00000E+00
    0.00000E+00         0.00000E+00        -0.16424E+06
 
    0.25466E-10        -0.72280E-10         0.00000E+00
   -0.72280E-10        -0.54334E+06         0.00000E+00
    0.00000E+00         0.00000E+00        -0.16424E+06
 
   -0.10914E-10         0.36140E-10         0.00000E+00
    0.36140E-10        -0.54334E+06         0.00000E+00
    0.00000E+00         0.00000E+00        -0.16424E+06
 
   -0.12005E-09        -0.81315E-10         0.00000E+00
   -0.81315E-10        -0.54334E+06         0.00000E+00
    0.00000E+00         0.00000E+00        -0.16424E+06
 
    0.17826E-09        -0.27105E-10         0.00000E+00
   -0.27105E-10        -0.54334E+06         0.00000E+00
    0.00000E+00         0.00000E+00        -0.16424E+06
 
    0.72760E-11         0.18070E-10         0.00000E+00
    0.18070E-10        -0.54334E+06         0.00000E+00
    0.00000E+00         0.00000E+00        -0.16424E+06
 
    0.00000E+00         0.67763E-10         0.00000E+00
    0.67763E-10        -0.54334E+06         0.00000E+00
    0.00000E+00         0.00000E+00        -0.16424E+06
 
   -0.14188E-09        -0.31623E-10         0.00000E+00
   -0.31623E-10        -0.54334E+06         0.00000E+00
    0.00000E+00         0.00000E+00        -0.16424E+06
 
   -0.10914E-10         0.27105E-10         0.00000E+00
    0.27105E-10        -0.54334E+06         0.00000E+00
    0.00000E+00         0.00000E+00        -0.16424E+06
 
    0.72760E-11         0.45175E-11         0.00000E+00
    0.45175E-11        -0.54334E+06         0.00000E+00
    0.00000E+00         0.00000E+00        -0.16424E+06
 
   -0.72760E-11        -0.33881E-10         0.00000E+00
   -0.33881E-10        -0.54334E+06         0.00000E+00
    0.00000E+00         0.00000E+00        -0.16424E+06
 
    0.10186E-09        -0.40658E-10         0.00000E+00
   -0.40658E-10        -0.54334E+06         0.00000E+00
    0.00000E+00         0.00000E+00        -0.16424E+06
 
    0.54570E-10        -0.38399E-10         0.00000E+00
   -0.38399E-10        -0.54334E+06         0.00000E+00
    0.00000E+00         0.00000E+00        -0.16424E+06
 
    0.72760E-11        -0.13553E-10         0.00000E+00
   -0.13553E-10        -0.54334E+06         0.00000E+00
    0.00000E+00         0.00000E+00        -0.16424E+06
 
    0.72760E-11         0.22588E-10         0.00000E+00
    0.22588E-10        -0.54334E+06         0.00000E+00
    0.00000E+00         0.00000E+00        -0.16424E+06
 
    0.00000E+00         0.00000E+00         0.00000E+00
    0.00000E+00        -0.54330E+06         0.00000E+00
    0.00000E+00         0.00000E+00        -0.16420E+06
 
   -0.36380E-11         0.54210E-10         0.00000E+00
    0.54210E-10        -0.54330E+06         0.00000E+00
    0.00000E+00         0.00000E+00        -0.16420E+06
 
    0.94587E-10        -0.14456E-09         0.00000E+00
   -0.14456E-09        -0.54330E+06         0.00000E+00
    0.00000E+00         0.00000E+00        -0.16420E+06
 
    0.14552E-10        -0.23491E-09         0.00000E+00
   -0.23491E-09        -0.54330E+06         0.00000E+00
    0.00000E+00         0.00000E+00        -0.16420E+06
 
   -0.29104E-10         0.27105E-10         0.00000E+00
    0.27105E-10        -0.54330E+06         0.00000E+00
    0.00000E+00         0.00000E+00        -0.16420E+06
 
    0.72760E-11         0.13553E-10         0.00000E+00
    0.13553E-10        -0.54330E+06         0.00000E+00
    0.00000E+00         0.00000E+00        -0.16420E+06
 
    0.69122E-10        -0.22588E-10         0.00000E+00
   -0.22588E-10        -0.54330E+06         0.00000E+00
    0.00000E+00         0.00000E+00        -0.16420E+06
 
   -0.11278E-09         0.67763E-10         0.00000E+00
    0.67763E-10        -0.54330E+06         0.00000E+00
    0.00000E+00         0.00000E+00        -0.16420E+06
 
   -0.36380E-10        -0.90350E-10         0.00000E+00
   -0.90350E-10        -0.54330E+06         0.00000E+00
    0.00000E+00         0.00000E+00        -0.16420E+06
 
    0.00000E+00         0.90350E-11         0.00000E+00
    0.90350E-11        -0.54330E+06         0.00000E+00
    0.00000E+00         0.00000E+00        -0.16420E+06
 
   -0.36380E-10        -0.45175E-11         0.00000E+00
   -0.45175E-11        -0.54330E+06         0.00000E+00
    0.00000E+00         0.00000E+00        -0.16420E+06
 
   -0.36380E-10        -0.27105E-10         0.00000E+00
   -0.27105E-10        -0.54330E+06         0.00000E+00
    0.00000E+00         0.00000E+00        -0.16420E+06
 
   -0.14552E-10        -0.24846E-10         0.00000E+00
   -0.24846E-10        -0.54330E+06         0.00000E+00
    0.00000E+00         0.00000E+00        -0.16420E+06
 
    0.25466E-10         0.22588E-11         0.00000E+00
    0.22588E-11        -0.54330E+06         0.00000E+00
    0.00000E+00         0.00000E+00        -0.16420E+06
 
    0.36380E-11        -0.20329E-10         0.00000E+00
   -0.20329E-10        -0.54330E+06         0.00000E+00
    0.00000E+00         0.00000E+00        -0.16420E+06
 
   -0.21828E-09         0.72280E-10         0.00000E+00
    0.72280E-10        -0.54324E+06         0.00000E+00
    0.00000E+00         0.00000E+00        -0.16414E+06
 
    0.69122E-10         0.72280E-10         0.00000E+00
    0.72280E-10        -0.54324E+06         0.00000E+00
    0.00000E+00         0.00000E+00        -0.16414E+06
 
   -0.36380E-10         0.90350E-10         0.00000E+00
    0.90350E-10        -0.54324E+06         0.00000E+00
    0.00000E+00         0.00000E+00        -0.16414E+06
 
    0.29104E-10         0.27105E-10         0.00000E+00
    0.27105E-10        -0.54324E+06         0.00000E+00
    0.00000E+00         0.00000E+00        -0.16414E+06
 
   -0.54570E-10         0.22588E-10         0.00000E+00
    0.22588E-10        -0.54324E+06         0.00000E+00
    0.00000E+00         0.00000E+00        -0.16414E+06
 
    0.83674E-10         0.45175E-11         0.00000E+00
    0.45175E-11        -0.54324E+06         0.00000E+00
    0.00000E+00         0.00000E+00        -0.16414E+06
 
    0.11642E-09        -0.99385E-10         0.00000E+00
   -0.99385E-10        -0.54324E+06         0.00000E+00
    0.00000E+00         0.00000E+00        -0.16414E+06
 
    0.21828E-10        -0.63245E-10         0.00000E+00
   -0.63245E-10        -0.54324E+06         0.00000E+00
    0.00000E+00         0.00000E+00        -0.16414E+06
 
   -0.24374E-09        -0.67763E-10         0.00000E+00
   -0.67763E-10        -0.54324E+06         0.00000E+00
    0.00000E+00         0.00000E+00        -0.16414E+06
 
   -0.36380E-11        -0.90350E-11         0.00000E+00
   -0.90350E-11        -0.54324E+06         0.00000E+00
    0.00000E+00         0.00000E+00        -0.16414E+06
 
   -0.40018E-10        -0.81315E-10         0.00000E+00
   -0.81315E-10        -0.54324E+06         0.00000E+00
    0.00000E+00         0.00000E+00        -0.16414E+06
 
    0.50932E-10         0.67763E-10         0.00000E+00
    0.67763E-10        -0.54324E+06         0.00000E+00
    0.00000E+00         0.00000E+00        -0.16414E+06
 
    0.72760E-10         0.67763E-10         0.00000E+00
    0.67763E-10        -0.54324E+06         0.00000E+00
    0.00000E+00         0.00000E+00        -0.16414E+06
 
    0.72760E-11        -0.60986E-10         0.00000E+00
   -0.60986E-10        -0.54324E+06         0.00000E+00
    0.00000E+00         0.00000E+00        -0.16414E+06
 
    0.69122E-10         0.00000E+00         0.00000E+00
    0.00000E+00        -0.54324E+06         0.00000E+00
    0.00000E+00         0.00000E+00        -0.16414E+06
 
   -0.36380E-11         0.15360E-09         0.00000E+00
    0.15360E-09        -0.54316E+06         0.00000E+00
    0.00000E+00         0.00000E+00        -0.16406E+06
 
   -0.13097E-09         0.27105E-10         0.00000E+00
    0.27105E-10        -0.54316E+06         0.00000E+00
    0.00000E+00         0.00000E+00        -0.16406E+06
 
   -0.76398E-10         0.81315E-10         0.00000E+00
    0.81315E-10        -0.54316E+06         0.00000E+00
    0.00000E+00         0.00000E+00        -0.16406E+06
 
   -0.83674E-10         0.81315E-10         0.00000E+00
    0.81315E-10        -0.54316E+06         0.00000E+00
    0.00000E+00         0.00000E+00        -0.16406E+06
 
    0.58208E-10        -0.54210E-10         0.00000E+00
   -0.54210E-10        -0.54316E+06         0.00000E+00
    0.00000E+00         0.00000E+00        -0.16406E+06
 
   -0.12369E-09        -0.17167E-09         0.00000E+00
   -0.17167E-09        -0.54316E+06         0.00000E+00
    0.00000E+00         0.00000E+00        -0.16406E+06
 
   -0.15643E-09        -0.14908E-09         0.00000E+00
   -0.14908E-09        -0.54316E+06         0.00000E+00
    0.00000E+00         0.00000E+00        -0.16406E+06
 
    0.13097E-09         0.90350E-10         0.00000E+00
    0.90350E-10        -0.54316E+06         0.00000E+00
    0.00000E+00         0.00000E+00        -0.16406E+06
 
    0.14552E-10        -0.13553E-10         0.00000E+00
   -0.13553E-10        -0.54316E+06         0.00000E+00
    0.00000E+00         0.00000E+00        -0.16406E+06
 
    0.65484E-10         0.58728E-10         0.00000E+00
    0.58728E-10        -0.54316E+06         0.00000E+00
    0.00000E+00         0.00000E+00        -0.16406E+06
 
    0.50932E-10         0.36140E-10         0.00000E+00
    0.36140E-10        -0.54316E+06         0.00000E+00
    0.00000E+00         0.00000E+00        -0.16406E+06
 
   -0.36380E-11        -0.76798E-10         0.00000E+00
   -0.76798E-10        -0.54316E+06         0.00000E+00
    0.00000E+00         0.00000E+00        -0.16406E+06
 
    0.00000E+00         0.18748E-09         0.00000E+00
    0.18748E-09        -0.54316E+06         0.00000E+00
    0.00000E+00         0.00000E+00        -0.16406E+06
 
   -0.32742E-10        -0.54210E-10         0.00000E+00
   -0.54210E-10        -0.54316E+06         0.00000E+00
    0.00000E+00         0.00000E+00        -0.16406E+06
 
    0.00000E+00         0.31623E-10         0.00000E+00
    0.31623E-10        -0.54316E+06         0.00000E+00
    0.00000E+00         0.00000E+00        -0.16406E+06
 
    0.36380E-11        -0.23491E-09         0.00000E+00
   -0.23491E-09        -0.54307E+06         0.00000E+00
    0.00000E+00         0.00000E+00        -0.16397E+06
 
   -0.16371E-09        -0.18974E-09         0.00000E+00
   -0.18974E-09        -0.54307E+06         0.00000E+00
    0.00000E+00         0.00000E+00        -0.16397E+06
 
   -0.47294E-10        -0.25298E-09         0.00000E+00
   -0.25298E-09        -0.54307E+06         0.00000E+00
    0.00000E+00         0.00000E+00        -0.16397E+06
 
   -0.12733E-09        -0.45175E-10         0.00000E+00
   -0.45175E-10        -0.54307E+06         0.00000E+00
    0.00000E+00         0.00000E+00        -0.16397E+06
 
   -0.61846E-10        -0.45175E-10         0.00000E+00
   -0.45175E-10        -0.54307E+06         0.00000E+00
    0.00000E+00         0.00000E+00        -0.16397E+06
 
   -0.17099E-09         0.23491E-09         0.00000E+00
    0.23491E-09        -0.54307E+06         0.00000E+00
    0.00000E+00         0.00000E+00        -0.16397E+06
 
   -0.50932E-10        -0.90350E-10         0.00000E+00
   -0.90350E-10        -0.54307E+06         0.00000E+00
    0.00000E+00         0.00000E+00        -0.16397E+06
 
    0.16735E-09        -0.19877E-09         0.00000E+00
   -0.19877E-09        -0.54307E+06         0.00000E+00
    0.00000E+00         0.00000E+00        -0.16397E+06
 
    0.90949E-10        -0.45175E-10         0.00000E+00
   -0.45175E-10        -0.54307E+06         0.00000E+00
    0.00000E+00         0.00000E+00        -0.16397E+06
 
    0.98225E-10        -0.58728E-10         0.00000E+00
   -0.58728E-10        -0.54307E+06         0.00000E+00
    0.00000E+00         0.00000E+00        -0.16397E+06
 
    0.69122E-10        -0.31623E-10         0.00000E+00
   -0.31623E-10        -0.54307E+06         0.00000E+00
    0.00000E+00         0.00000E+00        -0.16397E+06
 
   -0.72760E-10        -0.36140E-10         0.00000E+00
   -0.36140E-10        -0.54307E+06         0.00000E+00
    0.00000E+00         0.00000E+00        -0.16397E+06
 
   -0.14552E-10         0.58728E-10         0.00000E+00
    0.58728E-10        -0.54307E+06         0.00000E+00
    0.00000E+00         0.00000E+00        -0.16397E+06
 
    0.14552E-10        -0.67763E-10         0.00000E+00
   -0.67763E-10        -0.54307E+06         0.00000E+00
    0.00000E+00         0.00000E+00        -0.16397E+06
 
    0.10550E-09        -0.45175E-11         0.00000E+00
   -0.45175E-11        -0.54307E+06         0.00000E+00
    0.00000E+00         0.00000E+00        -0.16397E+06
 
    0.54570E-10         0.13553E-09         0.00000E+00
    0.13553E-09        -0.54295E+06         0.00000E+00
    0.00000E+00         0.00000E+00        -0.16385E+06
 
   -0.21828E-09        -0.18070E-10         0.00000E+00
   -0.18070E-10        -0.54295E+06         0.00000E+00
    0.00000E+00         0.00000E+00        -0.16385E+06
 
    0.16735E-09        -0.25298E-09         0.00000E+00
   -0.25298E-09        -0.54295E+06         0.00000E+00
    0.00000E+00         0.00000E+00        -0.16385E+06
 
   -0.14552E-09         0.72280E-10         0.00000E+00
    0.72280E-10        -0.54295E+06         0.00000E+00
    0.00000E+00         0.00000E+00        -0.16385E+06
 
   -0.11642E-09        -0.15360E-09         0.00000E+00
   -0.15360E-09        -0.54295E+06         0.00000E+00
    0.00000E+00         0.00000E+00        -0.16385E+06
 
   -0.10914E-10        -0.63245E-10         0.00000E+00
   -0.63245E-10        -0.54295E+06         0.00000E+00
    0.00000E+00         0.00000E+00        -0.16385E+06
 
    0.27649E-09         0.00000E+00         0.00000E+00
    0.00000E+00        -0.54295E+06         0.00000E+00
    0.00000E+00         0.00000E+00        -0.16385E+06
 
    0.15280E-09        -0.90350E-10         0.00000E+00
   -0.90350E-10        -0.54295E+06         0.00000E+00
    0.00000E+00         0.00000E+00        -0.16385E+06
 
    0.18190E-10        -0.54210E-10         0.00000E+00
   -0.54210E-10        -0.54295E+06         0.00000E+00
    0.00000E+00         0.00000E+00        -0.16385E+06
 
   -0.65484E-10        -0.45175E-10         0.00000E+00
   -0.45175E-10        -0.54295E+06         0.00000E+00
    0.00000E+00         0.00000E+00        -0.16385E+06
 
    0.40018E-10        -0.85833E-10         0.00000E+00
   -0.85833E-10        -0.54295E+06         0.00000E+00
    0.00000E+00         0.00000E+00        -0.16385E+06
 
   -0.36380E-11         0.81315E-10         0.00000E+00
    0.81315E-10        -0.54295E+06         0.00000E+00
    0.00000E+00         0.00000E+00        -0.16385E+06
 
   -0.87311E-10        -0.63245E-10         0.00000E+00
   -0.63245E-10        -0.54295E+06         0.00000E+00
    0.00000E+00         0.00000E+00        -0.16385E+06
 
    0.40018E-10        -0.13553E-09         0.00000E+00
   -0.13553E-09        -0.54295E+06         0.00000E+00
    0.00000E+00         0.00000E+00        -0.16385E+06
 
    0.76398E-10         0.40658E-10         0.00000E+00
    0.40658E-10        -0.54295E+06         0.00000E+00
    0.00000E+00         0.00000E+00        -0.16385E+06
 
    0.83674E-10        -0.10842E-09         0.00000E+00
   -0.10842E-09        -0.54281E+06         0.00000E+00
    0.00000E+00         0.00000E+00        -0.16371E+06
 
   -0.61846E-09         0.12649E-09         0.00000E+00
    0.12649E-09        -0.54281E+06         0.00000E+00
    0.00000E+00         0.00000E+00        -0.16371E+06
 
    0.11278E-09        -0.14456E-09         0.00000E+00
   -0.14456E-09        -0.54281E+06         0.00000E+00
    0.00000E+00         0.00000E+00        -0.16371E+06
 
    0.29104E-10        -0.18974E-09         0.00000E+00
   -0.18974E-09        -0.54281E+06         0.00000E+00
    0.00000E+00         0.00000E+00        -0.16371E+06
 
   -0.25466E-10        -0.63245E-10         0.00000E+00
   -0.63245E-10        -0.54281E+06         0.00000E+00
    0.00000E+00         0.00000E+00        -0.16371E+06
 
   -0.15643E-09        -0.13553E-09         0.00000E+00
   -0.13553E-09        -0.54281E+06         0.00000E+00
    0.00000E+00         0.00000E+00        -0.16371E+06
 
   -0.29104E-10        -0.90350E-11         0.00000E+00
   -0.90350E-11        -0.54281E+06         0.00000E+00
    0.00000E+00         0.00000E+00        -0.16371E+06
 
   -0.87311E-10        -0.90350E-11         0.00000E+00
   -0.90350E-11        -0.54281E+06         0.00000E+00
    0.00000E+00         0.00000E+00        -0.16371E+06
 
    0.15280E-09        -0.99385E-10         0.00000E+00
   -0.99385E-10        -0.54281E+06         0.00000E+00
    0.00000E+00         0.00000E+00        -0.16371E+06
 
   -0.21828E-09        -0.40658E-10         0.00000E+00
   -0.40658E-10        -0.54281E+06         0.00000E+00
    0.00000E+00         0.00000E+00        -0.16371E+06
 
   -0.36380E-11        -0.10390E-09         0.00000E+00
   -0.10390E-09        -0.54281E+06         0.00000E+00
    0.00000E+00         0.00000E+00        -0.16371E+06
 
    0.76398E-10        -0.13553E-10         0.00000E+00
   -0.13553E-10        -0.54281E+06         0.00000E+00
    0.00000E+00         0.00000E+00        -0.16371E+06
 
    0.12005E-09        -0.18070E-10         0.00000E+00
   -0.18070E-10        -0.54281E+06         0.00000E+00
    0.00000E+00         0.00000E+00        -0.16371E+06
 
    0.94587E-10        -0.45175E-10         0.00000E+00
   -0.45175E-10        -0.54281E+06         0.00000E+00
    0.00000E+00         0.00000E+00        -0.16371E+06
 
   -0.12369E-09        -0.27105E-10         0.00000E+00
   -0.27105E-10        -0.54281E+06         0.00000E+00
    0.00000E+00         0.00000E+00        -0.16371E+06
 
   -0.28012E-09         0.37044E-09         0.00000E+00
    0.37044E-09        -0.54266E+06         0.00000E+00
    0.00000E+00         0.00000E+00        -0.16355E+06
 
   -0.65484E-10        -0.18070E-10         0.00000E+00
   -0.18070E-10        -0.54266E+06         0.00000E+00
    0.00000E+00         0.00000E+00        -0.16355E+06
 
   -0.27285E-09        -0.10842E-09         0.00000E+00
   -0.10842E-09        -0.54266E+06         0.00000E+00
    0.00000E+00         0.00000E+00        -0.16355E+06
 
    0.46930E-09        -0.11746E-09         0.00000E+00
   -0.11746E-09        -0.54266E+06         0.00000E+00
    0.00000E+00         0.00000E+00        -0.16355E+06
 
    0.22192E-09         0.12649E-09         0.00000E+00
    0.12649E-09        -0.54266E+06         0.00000E+00
    0.00000E+00         0.00000E+00        -0.16355E+06
 
    0.38199E-09         0.36140E-10         0.00000E+00
    0.36140E-10        -0.54266E+06         0.00000E+00
    0.00000E+00         0.00000E+00        -0.16355E+06
 
    0.25102E-09         0.22588E-09         0.00000E+00
    0.22588E-09        -0.54266E+06         0.00000E+00
    0.00000E+00         0.00000E+00        -0.16355E+06
 
   -0.36380E-11        -0.63245E-10         0.00000E+00
   -0.63245E-10        -0.54266E+06         0.00000E+00
    0.00000E+00         0.00000E+00        -0.16355E+06
 
    0.13824E-09         0.18974E-09         0.00000E+00
    0.18974E-09        -0.54266E+06         0.00000E+00
    0.00000E+00         0.00000E+00        -0.16355E+06
 
   -0.10550E-09        -0.76798E-10         0.00000E+00
   -0.76798E-10        -0.54266E+06         0.00000E+00
    0.00000E+00         0.00000E+00        -0.16355E+06
 
   -0.25466E-10        -0.40658E-10         0.00000E+00
   -0.40658E-10        -0.54266E+06         0.00000E+00
    0.00000E+00         0.00000E+00        -0.16355E+06
 
    0.12005E-09         0.54210E-10         0.00000E+00
    0.54210E-10        -0.54266E+06         0.00000E+00
    0.00000E+00         0.00000E+00        -0.16355E+06
 
    0.36380E-10         0.72280E-10         0.00000E+00
    0.72280E-10        -0.54266E+06         0.00000E+00
    0.00000E+00         0.00000E+00        -0.16355E+06
 
    0.87311E-10        -0.90350E-11         0.00000E+00
   -0.90350E-11        -0.54266E+06         0.00000E+00
    0.00000E+00         0.00000E+00        -0.16355E+06
 
   -0.32742E-10        -0.27105E-10         0.00000E+00
   -0.27105E-10        -0.54266E+06         0.00000E+00
    0.00000E+00         0.00000E+00        -0.16355E+06
 
   -0.36380E-10        -0.63245E-10         0.00000E+00
   -0.63245E-10        -0.54248E+06         0.00000E+00
    0.00000E+00         0.00000E+00        -0.16338E+06
 
   -0.32742E-10        -0.20781E-09         0.00000E+00
   -0.20781E-09        -0.54248E+06         0.00000E+00
    0.00000E+00         0.00000E+00        -0.16338E+06
 
   -0.49477E-09        -0.90350E-11         0.00000E+00
   -0.90350E-11        -0.54248E+06         0.00000E+00
    0.00000E+00         0.00000E+00        -0.16338E+06
 
    0.23283E-09        -0.99385E-10         0.00000E+00
   -0.99385E-10        -0.54248E+06         0.00000E+00
    0.00000E+00         0.00000E+00        -0.16338E+06
 
   -0.36380E-11         0.13553E-09         0.00000E+00
    0.13553E-09        -0.54248E+06         0.00000E+00
    0.00000E+00         0.00000E+00        -0.16338E+06
 
   -0.21828E-09         0.00000E+00         0.00000E+00
    0.00000E+00        -0.54248E+06         0.00000E+00
    0.00000E+00         0.00000E+00        -0.16338E+06
 
   -0.17826E-09         0.27105E-10         0.00000E+00
    0.27105E-10        -0.54248E+06         0.00000E+00
    0.00000E+00         0.00000E+00        -0.16338E+06
 
    0.36380E-10        -0.30719E-09         0.00000E+00
   -0.30719E-09        -0.54248E+06         0.00000E+00
    0.00000E+00         0.00000E+00        -0.16338E+06
 
    0.43656E-10         0.81315E-10         0.00000E+00
    0.81315E-10        -0.54248E+06         0.00000E+00
    0.00000E+00         0.00000E+00        -0.16338E+06
 
    0.30923E-09         0.27105E-10         0.00000E+00
    0.27105E-10        -0.54248E+06         0.00000E+00
    0.00000E+00         0.00000E+00        -0.16338E+06
 
    0.19281E-09         0.00000E+00         0.00000E+00
    0.00000E+00        -0.54248E+06         0.00000E+00
    0.00000E+00         0.00000E+00        -0.16338E+06
 
    0.26193E-09         0.20781E-09         0.00000E+00
    0.20781E-09        -0.54248E+06         0.00000E+00
    0.00000E+00         0.00000E+00        -0.16338E+06
 
    0.87311E-10        -0.11746E-09         0.00000E+00
   -0.11746E-09        -0.54248E+06         0.00000E+00
    0.00000E+00         0.00000E+00        -0.16338E+06
 
    0.35652E-09        -0.27105E-10         0.00000E+00
   -0.27105E-10        -0.54248E+06         0.00000E+00
    0.00000E+00         0.00000E+00        -0.16338E+06
 
    0.27649E-09         0.00000E+00         0.00000E+00
    0.00000E+00        -0.54248E+06         0.00000E+00
    0.00000E+00         0.00000E+00        -0.16338E+06
 
    0.44747E-09         0.14456E-09         0.00000E+00
    0.14456E-09        -0.54228E+06         0.00000E+00
    0.00000E+00         0.00000E+00        -0.16318E+06
 
    0.52751E-09         0.81315E-10         0.00000E+00
    0.81315E-10        -0.54228E+06         0.00000E+00
    0.00000E+00         0.00000E+00        -0.16318E+06
 
    0.29104E-09         0.18070E-10         0.00000E+00
    0.18070E-10        -0.54228E+06         0.00000E+00
    0.00000E+00         0.00000E+00        -0.16318E+06
 
    0.47294E-10         0.36140E-10         0.00000E+00
    0.36140E-10        -0.54228E+06         0.00000E+00
    0.00000E+00         0.00000E+00        -0.16318E+06
 
   -0.41837E-09         0.16263E-09         0.00000E+00
    0.16263E-09        -0.54228E+06         0.00000E+00
    0.00000E+00         0.00000E+00        -0.16318E+06
 
   -0.54570E-10         0.18974E-09         0.00000E+00
    0.18974E-09        -0.54228E+06         0.00000E+00
    0.00000E+00         0.00000E+00        -0.16318E+06
 
   -0.40018E-10        -0.11746E-09         0.00000E+00
   -0.11746E-09        -0.54228E+06         0.00000E+00
    0.00000E+00         0.00000E+00        -0.16318E+06
 
   -0.13097E-09         0.54210E-10         0.00000E+00
    0.54210E-10        -0.54228E+06         0.00000E+00
    0.00000E+00         0.00000E+00        -0.16318E+06
 
   -0.11642E-09        -0.27105E-10         0.00000E+00
   -0.27105E-10        -0.54228E+06         0.00000E+00
    0.00000E+00         0.00000E+00        -0.16318E+06
 
    0.32742E-10        -0.36140E-10         0.00000E+00
   -0.36140E-10        -0.54228E+06         0.00000E+00
    0.00000E+00         0.00000E+00        -0.16318E+06
 
    0.10914E-10         0.13553E-09         0.00000E+00
    0.13553E-09        -0.54228E+06         0.00000E+00
    0.00000E+00         0.00000E+00        -0.16318E+06
 
    0.72760E-10         0.90350E-11         0.00000E+00
    0.90350E-11        -0.54228E+06         0.00000E+00
    0.00000E+00         0.00000E+00        -0.16318E+06
 
    0.98225E-10         0.00000E+00         0.00000E+00
    0.00000E+00        -0.54228E+06         0.00000E+00
    0.00000E+00         0.00000E+00        -0.16318E+06
 
   -0.20009E-09        -0.27105E-10         0.00000E+00
   -0.27105E-10        -0.54228E+06         0.00000E+00
    0.00000E+00         0.00000E+00        -0.16318E+06
 
   -0.50932E-09         0.00000E+00         0.00000E+00
    0.00000E+00        -0.54228E+06         0.00000E+00
    0.00000E+00         0.00000E+00        -0.16318E+06
 
    0.43656E-10        -0.18070E-10         0.00000E+00
   -0.18070E-10        -0.54207E+06         0.00000E+00
    0.00000E+00         0.00000E+00        -0.16297E+06
 
   -0.45475E-09        -0.18070E-10         0.00000E+00
   -0.18070E-10        -0.54207E+06         0.00000E+00
    0.00000E+00         0.00000E+00        -0.16297E+06
 
   -0.31650E-09        -0.15360E-09         0.00000E+00
   -0.15360E-09        -0.54207E+06         0.00000E+00
    0.00000E+00         0.00000E+00        -0.16297E+06
 
    0.32378E-09         0.27105E-10         0.00000E+00
    0.27105E-10        -0.54207E+06         0.00000E+00
    0.00000E+00         0.00000E+00        -0.16297E+06
 
    0.41837E-09        -0.63245E-10         0.00000E+00
   -0.63245E-10        -0.54207E+06         0.00000E+00
    0.00000E+00         0.00000E+00        -0.16297E+06
 
    0.69122E-09        -0.12649E-09         0.00000E+00
   -0.12649E-09        -0.54207E+06         0.00000E+00
    0.00000E+00         0.00000E+00        -0.16297E+06
 
   -0.10914E-09        -0.90350E-10         0.00000E+00
   -0.90350E-10        -0.54207E+06         0.00000E+00
    0.00000E+00         0.00000E+00        -0.16297E+06
 
   -0.36380E-11         0.18070E-10         0.00000E+00
    0.18070E-10        -0.54207E+06         0.00000E+00
    0.00000E+00         0.00000E+00        -0.16297E+06
 
    0.16007E-09         0.99385E-10         0.00000E+00
    0.99385E-10        -0.54207E+06         0.00000E+00
    0.00000E+00         0.00000E+00        -0.16297E+06
 
    0.63301E-09         0.72280E-10         0.00000E+00
    0.72280E-10        -0.54207E+06         0.00000E+00
    0.00000E+00         0.00000E+00        -0.16297E+06
 
    0.40018E-09         0.36140E-10         0.00000E+00
    0.36140E-10        -0.54207E+06         0.00000E+00
    0.00000E+00         0.00000E+00        -0.16297E+06
 
    0.12369E-09         0.63245E-10         0.00000E+00
    0.63245E-10        -0.54207E+06         0.00000E+00
    0.00000E+00         0.00000E+00        -0.16297E+06
 
    0.90949E-10         0.90350E-11         0.00000E+00
    0.90350E-11        -0.54207E+06         0.00000E+00
    0.00000E+00         0.00000E+00        -0.16297E+06
 
    0.43656E-10         0.14456E-09         0.00000E+00
    0.14456E-09        -0.54207E+06         0.00000E+00
    0.00000E+00         0.00000E+00        -0.16297E+06
 
    0.42928E-09         0.45175E-10         0.00000E+00
    0.45175E-10        -0.54207E+06         0.00000E+00
    0.00000E+00         0.00000E+00        -0.16297E+06
 
   -0.28012E-09        -0.16263E-09         0.00000E+00
   -0.16263E-09        -0.54183E+06         0.00000E+00
    0.00000E+00         0.00000E+00        -0.16273E+06
 
    0.36744E-09        -0.36140E-10         0.00000E+00
   -0.36140E-10        -0.54183E+06         0.00000E+00
    0.00000E+00         0.00000E+00        -0.16273E+06
 
    0.17462E-09         0.33430E-09         0.00000E+00
    0.33430E-09        -0.54183E+06         0.00000E+00
    0.00000E+00         0.00000E+00        -0.16273E+06
 
    0.29104E-10        -0.90350E-10         0.00000E+00
   -0.90350E-10        -0.54183E+06         0.00000E+00
    0.00000E+00         0.00000E+00        -0.16273E+06
 
   -0.18554E-09        -0.90350E-10         0.00000E+00
   -0.90350E-10        -0.54183E+06         0.00000E+00
    0.00000E+00         0.00000E+00        -0.16273E+06
 
   -0.37107E-09        -0.36140E-10         0.00000E+00
   -0.36140E-10        -0.54183E+06         0.00000E+00
    0.00000E+00         0.00000E+00        -0.16273E+06
 
   -0.72760E-11         0.12649E-09         0.00000E+00
    0.12649E-09        -0.54183E+06         0.00000E+00
    0.00000E+00         0.00000E+00        -0.16273E+06
 
   -0.12005E-09         0.63245E-10         0.00000E+00
    0.63245E-10        -0.54183E+06         0.00000E+00
    0.00000E+00         0.00000E+00        -0.16273E+06
 
   -0.12369E-09        -0.63245E-10         0.00000E+00
   -0.63245E-10        -0.54183E+06         0.00000E+00
    0.00000E+00         0.00000E+00        -0.16273E+06
 
   -0.61846E-10        -0.54210E-10         0.00000E+00
   -0.54210E-10        -0.54183E+06         0.00000E+00
    0.00000E+00         0.00000E+00        -0.16273E+06
 
   -0.17099E-09         0.20781E-09         0.00000E+00
    0.20781E-09        -0.54183E+06         0.00000E+00
    0.00000E+00         0.00000E+00        -0.16273E+06
 
   -0.36380E-11         0.25298E-09         0.00000E+00
    0.25298E-09        -0.54183E+06         0.00000E+00
    0.00000E+00         0.00000E+00        -0.16273E+06
 
   -0.12733E-09         0.20781E-09         0.00000E+00
    0.20781E-09        -0.54183E+06         0.00000E+00
    0.00000E+00         0.00000E+00        -0.16273E+06
 
   -0.10914E-10        -0.45175E-10         0.00000E+00
   -0.45175E-10        -0.54183E+06         0.00000E+00
    0.00000E+00         0.00000E+00        -0.16273E+06
 
   -0.32378E-09         0.90350E-11         0.00000E+00
    0.90350E-11        -0.54183E+06         0.00000E+00
    0.00000E+00         0.00000E+00        -0.16273E+06
 
    0.13824E-09        -0.27105E-09         0.00000E+00
   -0.27105E-09        -0.54158E+06         0.00000E+00
    0.00000E+00         0.00000E+00        -0.16248E+06
 
   -0.28012E-09        -0.10842E-09         0.00000E+00
   -0.10842E-09        -0.54158E+06         0.00000E+00
    0.00000E+00         0.00000E+00        -0.16248E+06
 
   -0.65484E-10         0.13553E-09         0.00000E+00
    0.13553E-09        -0.54158E+06         0.00000E+00
    0.00000E+00         0.00000E+00        -0.16248E+06
 
    0.20736E-09         0.20781E-09         0.00000E+00
    0.20781E-09        -0.54158E+06         0.00000E+00
    0.00000E+00         0.00000E+00        -0.16248E+06
 
    0.49477E-09        -0.81315E-10         0.00000E+00
   -0.81315E-10        -0.54158E+06         0.00000E+00
    0.00000E+00         0.00000E+00        -0.16248E+06
 
    0.28740E-09         0.99385E-10         0.00000E+00
    0.99385E-10        -0.54158E+06         0.00000E+00
    0.00000E+00         0.00000E+00        -0.16248E+06
 
    0.57844E-09        -0.18070E-10         0.00000E+00
   -0.18070E-10        -0.54158E+06         0.00000E+00
    0.00000E+00         0.00000E+00        -0.16248E+06
 
   -0.21464E-09         0.81315E-10         0.00000E+00
    0.81315E-10        -0.54158E+06         0.00000E+00
    0.00000E+00         0.00000E+00        -0.16248E+06
 
    0.76398E-10        -0.54210E-10         0.00000E+00
   -0.54210E-10        -0.54158E+06         0.00000E+00
    0.00000E+00         0.00000E+00        -0.16248E+06
 
    0.11278E-09        -0.14456E-09         0.00000E+00
   -0.14456E-09        -0.54158E+06         0.00000E+00
    0.00000E+00         0.00000E+00        -0.16248E+06
 
    0.20736E-09         0.15360E-09         0.00000E+00
    0.15360E-09        -0.54158E+06         0.00000E+00
    0.00000E+00         0.00000E+00        -0.16248E+06
 
   -0.47294E-10         0.10842E-09         0.00000E+00
    0.10842E-09        -0.54158E+06         0.00000E+00
    0.00000E+00         0.00000E+00        -0.16248E+06
 
    0.23647E-09        -0.15360E-09         0.00000E+00
   -0.15360E-09        -0.54158E+06         0.00000E+00
    0.00000E+00         0.00000E+00        -0.16248E+06
 
    0.52751E-09        -0.90350E-10         0.00000E+00
   -0.90350E-10        -0.54158E+06         0.00000E+00
    0.00000E+00         0.00000E+00        -0.16248E+06
 
    0.11278E-09         0.21684E-09         0.00000E+00
    0.21684E-09        -0.54158E+06         0.00000E+00
    0.00000E+00         0.00000E+00        -0.16248E+06
 
    0.98225E-10         0.10842E-09         0.00000E+00
    0.10842E-09        -0.54131E+06         0.00000E+00
    0.00000E+00         0.00000E+00        -0.16221E+06
 
   -0.10914E-10        -0.54210E-10         0.00000E+00
   -0.54210E-10        -0.54131E+06         0.00000E+00
    0.00000E+00         0.00000E+00        -0.16221E+06
 
    0.80036E-10         0.72280E-10         0.00000E+00
    0.72280E-10        -0.54131E+06         0.00000E+00
    0.00000E+00         0.00000E+00        -0.16221E+06
 
    0.32742E-10        -0.45175E-10         0.00000E+00
   -0.45175E-10        -0.54131E+06         0.00000E+00
    0.00000E+00         0.00000E+00        -0.16221E+06
 
    0.90949E-10        -0.11746E-09         0.00000E+00
   -0.11746E-09        -0.54131E+06         0.00000E+00
    0.00000E+00         0.00000E+00        -0.16221E+06
 
   -0.11278E-09        -0.11746E-09         0.00000E+00
   -0.11746E-09        -0.54131E+06         0.00000E+00
    0.00000E+00         0.00000E+00        -0.16221E+06
 
    0.10550E-09        -0.45175E-10         0.00000E+00
   -0.45175E-10        -0.54131E+06         0.00000E+00
    0.00000E+00         0.00000E+00        -0.16221E+06
 
    0.22555E-09        -0.16263E-09         0.00000E+00
   -0.16263E-09        -0.54131E+06         0.00000E+00
    0.00000E+00         0.00000E+00        -0.16221E+06
 
    0.23647E-09         0.54210E-10         0.00000E+00
    0.54210E-10        -0.54131E+06         0.00000E+00
    0.00000E+00         0.00000E+00        -0.16221E+06
 
    0.29104E-10         0.10842E-09         0.00000E+00
    0.10842E-09        -0.54131E+06         0.00000E+00
    0.00000E+00         0.00000E+00        -0.16221E+06
 
   -0.50932E-09         0.14456E-09         0.00000E+00
    0.14456E-09        -0.54131E+06         0.00000E+00
    0.00000E+00         0.00000E+00        -0.16221E+06
 
   -0.32014E-09         0.90350E-10         0.00000E+00
    0.90350E-10        -0.54131E+06         0.00000E+00
    0.00000E+00         0.00000E+00        -0.16221E+06
 
    0.10186E-09        -0.41561E-09         0.00000E+00
   -0.41561E-09        -0.54131E+06         0.00000E+00
    0.00000E+00         0.00000E+00        -0.16221E+06
 
    0.14552E-09         0.63245E-10         0.00000E+00
    0.63245E-10        -0.54131E+06         0.00000E+00
    0.00000E+00         0.00000E+00        -0.16221E+06
 
    0.36380E-11        -0.90350E-10         0.00000E+00
   -0.90350E-10        -0.54131E+06         0.00000E+00
    0.00000E+00         0.00000E+00        -0.16221E+06
 
   -0.13097E-09         0.45175E-09         0.00000E+00
    0.45175E-09        -0.54102E+06         0.00000E+00
    0.00000E+00         0.00000E+00        -0.16191E+06
 
   -0.15280E-09        -0.72280E-10         0.00000E+00
   -0.72280E-10        -0.54102E+06         0.00000E+00
    0.00000E+00         0.00000E+00        -0.16191E+06
 
    0.98225E-10        -0.26202E-09         0.00000E+00
   -0.26202E-09        -0.54102E+06         0.00000E+00
    0.00000E+00         0.00000E+00        -0.16191E+06
 
    0.48021E-09        -0.22588E-09         0.00000E+00
   -0.22588E-09        -0.54102E+06         0.00000E+00
    0.00000E+00         0.00000E+00        -0.16191E+06
 
   -0.50932E-10         0.21684E-09         0.00000E+00
    0.21684E-09        -0.54102E+06         0.00000E+00
    0.00000E+00         0.00000E+00        -0.16191E+06
 
   -0.26193E-09        -0.10842E-09         0.00000E+00
   -0.10842E-09        -0.54102E+06         0.00000E+00
    0.00000E+00         0.00000E+00        -0.16191E+06
 
   -0.42928E-09        -0.13553E-09         0.00000E+00
   -0.13553E-09        -0.54102E+06         0.00000E+00
    0.00000E+00         0.00000E+00        -0.16191E+06
 
   -0.58208E-09         0.00000E+00         0.00000E+00
    0.00000E+00        -0.54102E+06         0.00000E+00
    0.00000E+00         0.00000E+00        -0.16191E+06
 
   -0.17826E-09        -0.90350E-11         0.00000E+00
   -0.90350E-11        -0.54102E+06         0.00000E+00
    0.00000E+00         0.00000E+00        -0.16191E+06
 
   -0.61118E-09         0.10842E-09         0.00000E+00
    0.10842E-09        -0.54102E+06         0.00000E+00
    0.00000E+00         0.00000E+00        -0.16191E+06
 
    0.13824E-09         0.90350E-10         0.00000E+00
    0.90350E-10        -0.54102E+06         0.00000E+00
    0.00000E+00         0.00000E+00        -0.16191E+06
 
    0.52751E-09        -0.54210E-10         0.00000E+00
   -0.54210E-10        -0.54102E+06         0.00000E+00
    0.00000E+00         0.00000E+00        -0.16191E+06
 
    0.61846E-10        -0.40658E-09         0.00000E+00
   -0.40658E-09        -0.54102E+06         0.00000E+00
    0.00000E+00         0.00000E+00        -0.16191E+06
 
   -0.36380E-10         0.41561E-09         0.00000E+00
    0.41561E-09        -0.54102E+06         0.00000E+00
    0.00000E+00         0.00000E+00        -0.16191E+06
 
   -0.36380E-11        -0.18070E-09         0.00000E+00
   -0.18070E-09        -0.54102E+06         0.00000E+00
    0.00000E+00         0.00000E+00        -0.16191E+06
 
   -0.27649E-09         0.00000E+00         0.00000E+00
    0.00000E+00        -0.54070E+06         0.00000E+00
    0.00000E+00         0.00000E+00        -0.16160E+06
 
    0.22555E-09        -0.32526E-09         0.00000E+00
   -0.32526E-09        -0.54070E+06         0.00000E+00
    0.00000E+00         0.00000E+00        -0.16160E+06
 
   -0.72760E-10        -0.63245E-10         0.00000E+00
   -0.63245E-10        -0.54070E+06         0.00000E+00
    0.00000E+00         0.00000E+00        -0.16160E+06
 
   -0.62573E-09        -0.27105E-10         0.00000E+00
   -0.27105E-10        -0.54070E+06         0.00000E+00
    0.00000E+00         0.00000E+00        -0.16160E+06
 
    0.41109E-09         0.16263E-09         0.00000E+00
    0.16263E-09        -0.54070E+06         0.00000E+00
    0.00000E+00         0.00000E+00        -0.16160E+06
 
    0.63301E-09        -0.23491E-09         0.00000E+00
   -0.23491E-09        -0.54070E+06         0.00000E+00
    0.00000E+00         0.00000E+00        -0.16160E+06
 
    0.48385E-09         0.12649E-09         0.00000E+00
    0.12649E-09        -0.54070E+06         0.00000E+00
    0.00000E+00         0.00000E+00        -0.16160E+06
 
    0.58935E-09         0.13553E-09         0.00000E+00
    0.13553E-09        -0.54070E+06         0.00000E+00
    0.00000E+00         0.00000E+00        -0.16160E+06
 
    0.29104E-09         0.44272E-09         0.00000E+00
    0.44272E-09        -0.54070E+06         0.00000E+00
    0.00000E+00         0.00000E+00        -0.16160E+06
 
   -0.20009E-09        -0.18070E-10         0.00000E+00
   -0.18070E-10        -0.54070E+06         0.00000E+00
    0.00000E+00         0.00000E+00        -0.16160E+06
 
    0.29468E-09        -0.37947E-09         0.00000E+00
   -0.37947E-09        -0.54070E+06         0.00000E+00
    0.00000E+00         0.00000E+00        -0.16160E+06
 
   -0.30559E-09         0.34333E-09         0.00000E+00
    0.34333E-09        -0.54070E+06         0.00000E+00
    0.00000E+00         0.00000E+00        -0.16160E+06
 
    0.58571E-09        -0.36140E-10         0.00000E+00
   -0.36140E-10        -0.54070E+06         0.00000E+00
    0.00000E+00         0.00000E+00        -0.16160E+06
 
    0.65120E-09        -0.21684E-09         0.00000E+00
   -0.21684E-09        -0.54070E+06         0.00000E+00
    0.00000E+00         0.00000E+00        -0.16160E+06
 
    0.21464E-09         0.21684E-09         0.00000E+00
    0.21684E-09        -0.54070E+06         0.00000E+00
    0.00000E+00         0.00000E+00        -0.16160E+06
 
    0.19281E-09        -0.12649E-09         0.00000E+00
   -0.12649E-09        -0.54037E+06         0.00000E+00
    0.00000E+00         0.00000E+00        -0.16127E+06
 
    0.44747E-09        -0.10842E-09         0.00000E+00
   -0.10842E-09        -0.54037E+06         0.00000E+00
    0.00000E+00         0.00000E+00        -0.16127E+06
 
   -0.41473E-09        -0.36140E-10         0.00000E+00
   -0.36140E-10        -0.54037E+06         0.00000E+00
    0.00000E+00         0.00000E+00        -0.16127E+06
 
   -0.19645E-09        -0.37947E-09         0.00000E+00
   -0.37947E-09        -0.54037E+06         0.00000E+00
    0.00000E+00         0.00000E+00        -0.16127E+06
 
    0.47294E-09        -0.13553E-09         0.00000E+00
   -0.13553E-09        -0.54037E+06         0.00000E+00
    0.00000E+00         0.00000E+00        -0.16127E+06
 
   -0.50932E-10        -0.16263E-09         0.00000E+00
   -0.16263E-09        -0.54037E+06         0.00000E+00
    0.00000E+00         0.00000E+00        -0.16127E+06
 
   -0.80036E-10        -0.11746E-09         0.00000E+00
   -0.11746E-09        -0.54037E+06         0.00000E+00
    0.00000E+00         0.00000E+00        -0.16127E+06
 
    0.76398E-10        -0.18974E-09         0.00000E+00
   -0.18974E-09        -0.54037E+06         0.00000E+00
    0.00000E+00         0.00000E+00        -0.16127E+06
 
    0.33106E-09        -0.10842E-09         0.00000E+00
   -0.10842E-09        -0.54037E+06         0.00000E+00
    0.00000E+00         0.00000E+00        -0.16127E+06
 
    0.48749E-09        -0.36140E-10         0.00000E+00
   -0.36140E-10        -0.54037E+06         0.00000E+00
    0.00000E+00         0.00000E+00        -0.16127E+06
 
    0.49113E-09        -0.16263E-09         0.00000E+00
   -0.16263E-09        -0.54037E+06         0.00000E+00
    0.00000E+00         0.00000E+00        -0.16127E+06
 
    0.54570E-10         0.46982E-09         0.00000E+00
    0.46982E-09        -0.54037E+06         0.00000E+00
    0.00000E+00         0.00000E+00        -0.16127E+06
 
    0.43656E-10        -0.29816E-09         0.00000E+00
   -0.29816E-09        -0.54037E+06         0.00000E+00
    0.00000E+00         0.00000E+00        -0.16127E+06
 
    0.14552E-10        -0.16263E-09         0.00000E+00
   -0.16263E-09        -0.54037E+06         0.00000E+00
    0.00000E+00         0.00000E+00        -0.16127E+06
 
    0.51296E-09         0.14456E-09         0.00000E+00
    0.14456E-09        -0.54037E+06         0.00000E+00
    0.00000E+00         0.00000E+00        -0.16127E+06
 
   -0.38199E-09        -0.50596E-09         0.00000E+00
   -0.50596E-09        -0.54002E+06         0.00000E+00
    0.00000E+00         0.00000E+00        -0.16092E+06
 
   -0.17462E-09         0.18070E-09         0.00000E+00
    0.18070E-09        -0.54002E+06         0.00000E+00
    0.00000E+00         0.00000E+00        -0.16092E+06
 
    0.13461E-09         0.56017E-09         0.00000E+00
    0.56017E-09        -0.54002E+06         0.00000E+00
    0.00000E+00         0.00000E+00        -0.16092E+06
 
    0.80036E-10         0.90350E-11         0.00000E+00
    0.90350E-11        -0.54002E+06         0.00000E+00
    0.00000E+00         0.00000E+00        -0.16092E+06
 
   -0.20009E-09         0.14456E-09         0.00000E+00
    0.14456E-09        -0.54002E+06         0.00000E+00
    0.00000E+00         0.00000E+00        -0.16092E+06
 
   -0.26193E-09         0.23491E-09         0.00000E+00
    0.23491E-09        -0.54002E+06         0.00000E+00
    0.00000E+00         0.00000E+00        -0.16092E+06
 
   -0.10914E-09        -0.72280E-10         0.00000E+00
   -0.72280E-10        -0.54002E+06         0.00000E+00
    0.00000E+00         0.00000E+00        -0.16092E+06
 
    0.00000E+00        -0.12649E-09         0.00000E+00
   -0.12649E-09        -0.54002E+06         0.00000E+00
    0.00000E+00         0.00000E+00        -0.16092E+06
 
   -0.39654E-09         0.14456E-09         0.00000E+00
    0.14456E-09        -0.54002E+06         0.00000E+00
    0.00000E+00         0.00000E+00        -0.16092E+06
 
   -0.32742E-10        -0.12649E-09         0.00000E+00
   -0.12649E-09        -0.54002E+06         0.00000E+00
    0.00000E+00         0.00000E+00        -0.16092E+06
 
   -0.57480E-09        -0.18070E-10         0.00000E+00
   -0.18070E-10        -0.54002E+06         0.00000E+00
    0.00000E+00         0.00000E+00        -0.16092E+06
 
    0.21100E-09        -0.10842E-09         0.00000E+00
   -0.10842E-09        -0.54002E+06         0.00000E+00
    0.00000E+00         0.00000E+00        -0.16092E+06
 
    0.12369E-09        -0.63245E-10         0.00000E+00
   -0.63245E-10        -0.54002E+06         0.00000E+00
    0.00000E+00         0.00000E+00        -0.16092E+06
 
    0.22192E-09        -0.21684E-09         0.00000E+00
   -0.21684E-09        -0.54002E+06         0.00000E+00
    0.00000E+00         0.00000E+00        -0.16092E+06
 
    0.26921E-09         0.21684E-09         0.00000E+00
    0.21684E-09        -0.54002E+06         0.00000E+00
    0.00000E+00         0.00000E+00        -0.16092E+06
 
   -0.25830E-09        -0.54210E-10         0.00000E+00
   -0.54210E-10        -0.53965E+06         0.00000E+00
    0.00000E+00         0.00000E+00        -0.16055E+06
 
    0.22192E-09        -0.41561E-09         0.00000E+00
   -0.41561E-09        -0.53965E+06         0.00000E+00
    0.00000E+00         0.00000E+00        -0.16055E+06
 
   -0.25466E-09         0.99385E-10         0.00000E+00
    0.99385E-10        -0.53965E+06         0.00000E+00
    0.00000E+00         0.00000E+00        -0.16055E+06
 
    0.20009E-09        -0.63245E-10         0.00000E+00
   -0.63245E-10        -0.53965E+06         0.00000E+00
    0.00000E+00         0.00000E+00        -0.16055E+06
 
    0.72760E-11        -0.12649E-09         0.00000E+00
   -0.12649E-09        -0.53965E+06         0.00000E+00
    0.00000E+00         0.00000E+00        -0.16055E+06
 
   -0.18190E-10         0.90350E-10         0.00000E+00
    0.90350E-10        -0.53965E+06         0.00000E+00
    0.00000E+00         0.00000E+00        -0.16055E+06
 
   -0.40382E-09        -0.10842E-09         0.00000E+00
   -0.10842E-09        -0.53965E+06         0.00000E+00
    0.00000E+00         0.00000E+00        -0.16055E+06
 
   -0.18917E-09        -0.16263E-09         0.00000E+00
   -0.16263E-09        -0.53965E+06         0.00000E+00
    0.00000E+00         0.00000E+00        -0.16055E+06
 
   -0.17826E-09         0.41561E-09         0.00000E+00
    0.41561E-09        -0.53965E+06         0.00000E+00
    0.00000E+00         0.00000E+00        -0.16055E+06
 
    0.60390E-09        -0.23491E-09         0.00000E+00
   -0.23491E-09        -0.53965E+06         0.00000E+00
    0.00000E+00         0.00000E+00        -0.16055E+06
 
    0.59299E-09        -0.90350E-10         0.00000E+00
   -0.90350E-10        -0.53965E+06         0.00000E+00
    0.00000E+00         0.00000E+00        -0.16055E+06
 
    0.20736E-09         0.72280E-10         0.00000E+00
    0.72280E-10        -0.53965E+06         0.00000E+00
    0.00000E+00         0.00000E+00        -0.16055E+06
 
   -0.72760E-11        -0.17167E-09         0.00000E+00
   -0.17167E-09        -0.53965E+06         0.00000E+00
    0.00000E+00         0.00000E+00        -0.16055E+06
 
   -0.90949E-10        -0.14456E-09         0.00000E+00
   -0.14456E-09        -0.53965E+06         0.00000E+00
    0.00000E+00         0.00000E+00        -0.16055E+06
 
    0.29104E-09         0.18070E-09         0.00000E+00
    0.18070E-09        -0.53965E+06         0.00000E+00
    0.00000E+00         0.00000E+00        -0.16055E+06
 
    0.18554E-09        -0.18070E-09         0.00000E+00
   -0.18070E-09        -0.53927E+06         0.00000E+00
    0.00000E+00         0.00000E+00        -0.16017E+06
 
   -0.49840E-09         0.18070E-09         0.00000E+00
    0.18070E-09        -0.53927E+06         0.00000E+00
    0.00000E+00         0.00000E+00        -0.16017E+06
 
    0.13097E-09         0.13553E-09         0.00000E+00
    0.13553E-09        -0.53927E+06         0.00000E+00
    0.00000E+00         0.00000E+00        -0.16017E+06
 
   -0.50932E-10         0.49693E-09         0.00000E+00
    0.49693E-09        -0.53927E+06         0.00000E+00
    0.00000E+00         0.00000E+00        -0.16017E+06
 
   -0.36016E-09         0.68666E-09         0.00000E+00
    0.68666E-09        -0.53927E+06         0.00000E+00
    0.00000E+00         0.00000E+00        -0.16017E+06
 
   -0.29831E-09         0.45175E-09         0.00000E+00
    0.45175E-09        -0.53927E+06         0.00000E+00
    0.00000E+00         0.00000E+00        -0.16017E+06
 
    0.65484E-10        -0.72280E-10         0.00000E+00
   -0.72280E-10        -0.53927E+06         0.00000E+00
    0.00000E+00         0.00000E+00        -0.16017E+06
 
    0.12733E-09         0.30719E-09         0.00000E+00
    0.30719E-09        -0.53927E+06         0.00000E+00
    0.00000E+00         0.00000E+00        -0.16017E+06
 
   -0.29831E-09         0.46982E-09         0.00000E+00
    0.46982E-09        -0.53927E+06         0.00000E+00
    0.00000E+00         0.00000E+00        -0.16017E+06
 
   -0.42201E-09        -0.36140E-10         0.00000E+00
   -0.36140E-10        -0.53927E+06         0.00000E+00
    0.00000E+00         0.00000E+00        -0.16017E+06
 
    0.22919E-09        -0.90350E-10         0.00000E+00
   -0.90350E-10        -0.53927E+06         0.00000E+00
    0.00000E+00         0.00000E+00        -0.16017E+06
 
   -0.14552E-09        -0.12649E-09         0.00000E+00
   -0.12649E-09        -0.53927E+06         0.00000E+00
    0.00000E+00         0.00000E+00        -0.16017E+06
 
    0.46930E-09         0.12649E-09         0.00000E+00
    0.12649E-09        -0.53927E+06         0.00000E+00
    0.00000E+00         0.00000E+00        -0.16017E+06
 
   -0.25466E-09        -0.18070E-09         0.00000E+00
   -0.18070E-09        -0.53927E+06         0.00000E+00
    0.00000E+00         0.00000E+00        -0.16017E+06
 
   -0.84401E-09         0.00000E+00         0.00000E+00
    0.00000E+00        -0.53927E+06         0.00000E+00
    0.00000E+00         0.00000E+00        -0.16017E+06
 
    0.52751E-09         0.72280E-10         0.00000E+00
    0.72280E-10        -0.53886E+06         0.00000E+00
    0.00000E+00         0.00000E+00        -0.15976E+06
 
    0.41837E-09        -0.90350E-10         0.00000E+00
   -0.90350E-10        -0.53886E+06         0.00000E+00
    0.00000E+00         0.00000E+00        -0.15976E+06
 
    0.13461E-09         0.81315E-10         0.00000E+00
    0.81315E-10        -0.53886E+06         0.00000E+00
    0.00000E+00         0.00000E+00        -0.15976E+06
 
   -0.49113E-09        -0.43368E-09         0.00000E+00
   -0.43368E-09        -0.53886E+06         0.00000E+00
    0.00000E+00         0.00000E+00        -0.15976E+06
 
    0.94587E-10         0.34333E-09         0.00000E+00
    0.34333E-09        -0.53886E+06         0.00000E+00
    0.00000E+00         0.00000E+00        -0.15976E+06
 
    0.21100E-09         0.90350E-10         0.00000E+00
    0.90350E-10        -0.53886E+06         0.00000E+00
    0.00000E+00         0.00000E+00        -0.15976E+06
 
   -0.47294E-09         0.90350E-10         0.00000E+00
    0.90350E-10        -0.53886E+06         0.00000E+00
    0.00000E+00         0.00000E+00        -0.15976E+06
 
    0.17826E-09        -0.72280E-10         0.00000E+00
   -0.72280E-10        -0.53886E+06         0.00000E+00
    0.00000E+00         0.00000E+00        -0.15976E+06
 
   -0.22192E-09        -0.18070E-10         0.00000E+00
   -0.18070E-10        -0.53886E+06         0.00000E+00
    0.00000E+00         0.00000E+00        -0.15976E+06
 
   -0.19645E-09         0.19877E-09         0.00000E+00
    0.19877E-09        -0.53886E+06         0.00000E+00
    0.00000E+00         0.00000E+00        -0.15976E+06
 
   -0.54570E-10         0.54210E-10         0.00000E+00
    0.54210E-10        -0.53886E+06         0.00000E+00
    0.00000E+00         0.00000E+00        -0.15976E+06
 
    0.26921E-09         0.72280E-10         0.00000E+00
    0.72280E-10        -0.53886E+06         0.00000E+00
    0.00000E+00         0.00000E+00        -0.15976E+06
 
    0.37835E-09         0.54210E-10         0.00000E+00
    0.54210E-10        -0.53886E+06         0.00000E+00
    0.00000E+00         0.00000E+00        -0.15976E+06
 
    0.42564E-09         0.19877E-09         0.00000E+00
    0.19877E-09        -0.53886E+06         0.00000E+00
    0.00000E+00         0.00000E+00        -0.15976E+06
 
   -0.16735E-09         0.18070E-10         0.00000E+00
    0.18070E-10        -0.53886E+06         0.00000E+00
    0.00000E+00         0.00000E+00        -0.15976E+06
 
   -0.72760E-11         0.10842E-09         0.00000E+00
    0.10842E-09        -0.53843E+06         0.00000E+00
    0.00000E+00         0.00000E+00        -0.15933E+06
 
    0.11278E-09        -0.10842E-09         0.00000E+00
   -0.10842E-09        -0.53843E+06         0.00000E+00
    0.00000E+00         0.00000E+00        -0.15933E+06
 
    0.43292E-09         0.57824E-09         0.00000E+00
    0.57824E-09        -0.53843E+06         0.00000E+00
    0.00000E+00         0.00000E+00        -0.15933E+06
 
    0.80763E-09        -0.18070E-09         0.00000E+00
   -0.18070E-09        -0.53843E+06         0.00000E+00
    0.00000E+00         0.00000E+00        -0.15933E+06
 
   -0.90949E-10         0.43368E-09         0.00000E+00
    0.43368E-09        -0.53843E+06         0.00000E+00
    0.00000E+00         0.00000E+00        -0.15933E+06
 
    0.24374E-09         0.36140E-10         0.00000E+00
    0.36140E-10        -0.53843E+06         0.00000E+00
    0.00000E+00         0.00000E+00        -0.15933E+06
 
    0.22192E-09         0.25298E-09         0.00000E+00
    0.25298E-09        -0.53843E+06         0.00000E+00
    0.00000E+00         0.00000E+00        -0.15933E+06
 
    0.50932E-10         0.90350E-10         0.00000E+00
    0.90350E-10        -0.53843E+06         0.00000E+00
    0.00000E+00         0.00000E+00        -0.15933E+06
 
   -0.87311E-10         0.54210E-10         0.00000E+00
    0.54210E-10        -0.53843E+06         0.00000E+00
    0.00000E+00         0.00000E+00        -0.15933E+06
 
    0.36016E-09         0.18070E-10         0.00000E+00
    0.18070E-10        -0.53843E+06         0.00000E+00
    0.00000E+00         0.00000E+00        -0.15933E+06
 
    0.52751E-09         0.19877E-09         0.00000E+00
    0.19877E-09        -0.53843E+06         0.00000E+00
    0.00000E+00         0.00000E+00        -0.15933E+06
 
    0.38199E-09         0.19877E-09         0.00000E+00
    0.19877E-09        -0.53843E+06         0.00000E+00
    0.00000E+00         0.00000E+00        -0.15933E+06
 
    0.21100E-09        -0.41561E-09         0.00000E+00
   -0.41561E-09        -0.53843E+06         0.00000E+00
    0.00000E+00         0.00000E+00        -0.15933E+06
 
   -0.98225E-10        -0.32526E-09         0.00000E+00
   -0.32526E-09        -0.53843E+06         0.00000E+00
    0.00000E+00         0.00000E+00        -0.15933E+06
 
    0.25466E-10         0.21684E-09         0.00000E+00
    0.21684E-09        -0.53843E+06         0.00000E+00
    0.00000E+00         0.00000E+00        -0.15933E+06
 
    0.34197E-09        -0.32526E-09         0.00000E+00
   -0.32526E-09        -0.53799E+06         0.00000E+00
    0.00000E+00         0.00000E+00        -0.15889E+06
 
   -0.16735E-09        -0.10842E-09         0.00000E+00
   -0.10842E-09        -0.53799E+06         0.00000E+00
    0.00000E+00         0.00000E+00        -0.15889E+06
 
   -0.32742E-10        -0.16263E-09         0.00000E+00
   -0.16263E-09        -0.53799E+06         0.00000E+00
    0.00000E+00         0.00000E+00        -0.15889E+06
 
   -0.24011E-09         0.10842E-09         0.00000E+00
    0.10842E-09        -0.53799E+06         0.00000E+00
    0.00000E+00         0.00000E+00        -0.15889E+06
 
    0.20736E-09         0.41561E-09         0.00000E+00
    0.41561E-09        -0.53799E+06         0.00000E+00
    0.00000E+00         0.00000E+00        -0.15889E+06
 
   -0.13461E-09         0.18070E-10         0.00000E+00
    0.18070E-10        -0.53799E+06         0.00000E+00
    0.00000E+00         0.00000E+00        -0.15889E+06
 
   -0.40018E-09         0.72280E-10         0.00000E+00
    0.72280E-10        -0.53799E+06         0.00000E+00
    0.00000E+00         0.00000E+00        -0.15889E+06
 
    0.25102E-09        -0.72280E-10         0.00000E+00
   -0.72280E-10        -0.53799E+06         0.00000E+00
    0.00000E+00         0.00000E+00        -0.15889E+06
 
    0.37107E-09         0.72280E-10         0.00000E+00
    0.72280E-10        -0.53799E+06         0.00000E+00
    0.00000E+00         0.00000E+00        -0.15889E+06
 
    0.31287E-09        -0.72280E-10         0.00000E+00
   -0.72280E-10        -0.53799E+06         0.00000E+00
    0.00000E+00         0.00000E+00        -0.15889E+06
 
    0.53842E-09        -0.41561E-09         0.00000E+00
   -0.41561E-09        -0.53799E+06         0.00000E+00
    0.00000E+00         0.00000E+00        -0.15889E+06
 
    0.13824E-09         0.54210E-09         0.00000E+00
    0.54210E-09        -0.53799E+06         0.00000E+00
    0.00000E+00         0.00000E+00        -0.15889E+06
 
    0.40382E-09         0.14456E-09         0.00000E+00
    0.14456E-09        -0.53799E+06         0.00000E+00
    0.00000E+00         0.00000E+00        -0.15889E+06
 
    0.49477E-09         0.90350E-10         0.00000E+00
    0.90350E-10        -0.53799E+06         0.00000E+00
    0.00000E+00         0.00000E+00        -0.15889E+06
 
    0.26921E-09        -0.28912E-09         0.00000E+00
   -0.28912E-09        -0.53799E+06         0.00000E+00
    0.00000E+00         0.00000E+00        -0.15889E+06
 
   -0.11496E-08        -0.21684E-09         0.00000E+00
   -0.21684E-09        -0.53753E+06         0.00000E+00
    0.00000E+00         0.00000E+00        -0.15843E+06
 
    0.35652E-09        -0.18070E-09         0.00000E+00
   -0.18070E-09        -0.53753E+06         0.00000E+00
    0.00000E+00         0.00000E+00        -0.15843E+06
 
   -0.14188E-09         0.28912E-09         0.00000E+00
    0.28912E-09        -0.53753E+06         0.00000E+00
    0.00000E+00         0.00000E+00        -0.15843E+06
 
   -0.11642E-09        -0.16263E-09         0.00000E+00
   -0.16263E-09        -0.53753E+06         0.00000E+00
    0.00000E+00         0.00000E+00        -0.15843E+06
 
    0.19645E-09         0.30719E-09         0.00000E+00
    0.30719E-09        -0.53753E+06         0.00000E+00
    0.00000E+00         0.00000E+00        -0.15843E+06
 
    0.26193E-09         0.16263E-09         0.00000E+00
    0.16263E-09        -0.53753E+06         0.00000E+00
    0.00000E+00         0.00000E+00        -0.15843E+06
 
    0.14916E-09         0.10842E-09         0.00000E+00
    0.10842E-09        -0.53753E+06         0.00000E+00
    0.00000E+00         0.00000E+00        -0.15843E+06
 
   -0.11278E-09         0.36140E-10         0.00000E+00
    0.36140E-10        -0.53753E+06         0.00000E+00
    0.00000E+00         0.00000E+00        -0.15843E+06
 
   -0.65484E-10         0.90350E-10         0.00000E+00
    0.90350E-10        -0.53753E+06         0.00000E+00
    0.00000E+00         0.00000E+00        -0.15843E+06
 
   -0.11278E-09        -0.54210E-10         0.00000E+00
   -0.54210E-10        -0.53753E+06         0.00000E+00
    0.00000E+00         0.00000E+00        -0.15843E+06
 
   -0.17099E-09        -0.16263E-09         0.00000E+00
   -0.16263E-09        -0.53753E+06         0.00000E+00
    0.00000E+00         0.00000E+00        -0.15843E+06
 
   -0.94224E-09        -0.36140E-10         0.00000E+00
   -0.36140E-10        -0.53753E+06         0.00000E+00
    0.00000E+00         0.00000E+00        -0.15843E+06
 
    0.61846E-10         0.10842E-09         0.00000E+00
    0.10842E-09        -0.53753E+06         0.00000E+00
    0.00000E+00         0.00000E+00        -0.15843E+06
 
   -0.24738E-09         0.72280E-10         0.00000E+00
    0.72280E-10        -0.53753E+06         0.00000E+00
    0.00000E+00         0.00000E+00        -0.15843E+06
 
   -0.10186E-09         0.18070E-09         0.00000E+00
    0.18070E-09        -0.53753E+06         0.00000E+00
    0.00000E+00         0.00000E+00        -0.15843E+06
 
    0.12369E-09        -0.54210E-10         0.00000E+00
   -0.54210E-10        -0.53705E+06         0.00000E+00
    0.00000E+00         0.00000E+00        -0.15794E+06
 
   -0.83674E-09        -0.27105E-09         0.00000E+00
   -0.27105E-09        -0.53705E+06         0.00000E+00
    0.00000E+00         0.00000E+00        -0.15794E+06
 
    0.16371E-09        -0.18070E-09         0.00000E+00
   -0.18070E-09        -0.53705E+06         0.00000E+00
    0.00000E+00         0.00000E+00        -0.15794E+06
 
    0.10550E-09        -0.72280E-10         0.00000E+00
   -0.72280E-10        -0.53705E+06         0.00000E+00
    0.00000E+00         0.00000E+00        -0.15794E+06
 
   -0.10223E-08         0.32526E-09         0.00000E+00
    0.32526E-09        -0.53705E+06         0.00000E+00
    0.00000E+00         0.00000E+00        -0.15794E+06
 
   -0.46566E-09         0.72280E-10         0.00000E+00
    0.72280E-10        -0.53705E+06         0.00000E+00
    0.00000E+00         0.00000E+00        -0.15794E+06
 
   -0.27285E-09         0.36140E-09         0.00000E+00
    0.36140E-09        -0.53705E+06         0.00000E+00
    0.00000E+00         0.00000E+00        -0.15794E+06
 
    0.83674E-10         0.00000E+00         0.00000E+00
    0.00000E+00        -0.53705E+06         0.00000E+00
    0.00000E+00         0.00000E+00        -0.15794E+06
 
    0.54570E-10        -0.28912E-09         0.00000E+00
   -0.28912E-09        -0.53705E+06         0.00000E+00
    0.00000E+00         0.00000E+00        -0.15794E+06
 
    0.48749E-09        -0.30719E-09         0.00000E+00
   -0.30719E-09        -0.53705E+06         0.00000E+00
    0.00000E+00         0.00000E+00        -0.15794E+06
 
    0.83674E-10         0.10842E-09         0.00000E+00
    0.10842E-09        -0.53705E+06         0.00000E+00
    0.00000E+00         0.00000E+00        -0.15794E+06
 
    0.33469E-09        -0.10842E-09         0.00000E+00
   -0.10842E-09        -0.53705E+06         0.00000E+00
    0.00000E+00         0.00000E+00        -0.15794E+06
 
    0.76034E-09         0.39754E-09         0.00000E+00
    0.39754E-09        -0.53705E+06         0.00000E+00
    0.00000E+00         0.00000E+00        -0.15794E+06
 
    0.67303E-09         0.18070E-09         0.00000E+00
    0.18070E-09        -0.53705E+06         0.00000E+00
    0.00000E+00         0.00000E+00        -0.15794E+06
 
    0.55661E-09        -0.36140E-10         0.00000E+00
   -0.36140E-10        -0.53705E+06         0.00000E+00
    0.00000E+00         0.00000E+00        -0.15794E+06
 
   -0.32742E-10         0.00000E+00         0.00000E+00
    0.00000E+00        -0.53655E+06         0.00000E+00
    0.00000E+00         0.00000E+00        -0.15744E+06
 
    0.49113E-09         0.54210E-10         0.00000E+00
    0.54210E-10        -0.53655E+06         0.00000E+00
    0.00000E+00         0.00000E+00        -0.15744E+06
 
   -0.50932E-09        -0.56017E-09         0.00000E+00
   -0.56017E-09        -0.53655E+06         0.00000E+00
    0.00000E+00         0.00000E+00        -0.15744E+06
 
    0.50932E-10         0.46982E-09         0.00000E+00
    0.46982E-09        -0.53655E+06         0.00000E+00
    0.00000E+00         0.00000E+00        -0.15744E+06
 
    0.66939E-09         0.90350E-10         0.00000E+00
    0.90350E-10        -0.53655E+06         0.00000E+00
    0.00000E+00         0.00000E+00        -0.15744E+06
 
    0.24011E-09        -0.54210E-10         0.00000E+00
   -0.54210E-10        -0.53655E+06         0.00000E+00
    0.00000E+00         0.00000E+00        -0.15744E+06
 
   -0.41473E-09         0.25298E-09         0.00000E+00
    0.25298E-09        -0.53655E+06         0.00000E+00
    0.00000E+00         0.00000E+00        -0.15744E+06
 
    0.43292E-09         0.18070E-09         0.00000E+00
    0.18070E-09        -0.53655E+06         0.00000E+00
    0.00000E+00         0.00000E+00        -0.15744E+06
 
   -0.22919E-09         0.16263E-09         0.00000E+00
    0.16263E-09        -0.53655E+06         0.00000E+00
    0.00000E+00         0.00000E+00        -0.15744E+06
 
   -0.45111E-09        -0.34333E-09         0.00000E+00
   -0.34333E-09        -0.53655E+06         0.00000E+00
    0.00000E+00         0.00000E+00        -0.15744E+06
 
    0.93132E-09         0.37947E-09         0.00000E+00
    0.37947E-09        -0.53655E+06         0.00000E+00
    0.00000E+00         0.00000E+00        -0.15744E+06
 
   -0.46566E-09        -0.37947E-09         0.00000E+00
   -0.37947E-09        -0.53655E+06         0.00000E+00
    0.00000E+00         0.00000E+00        -0.15744E+06
 
   -0.26921E-09        -0.43368E-09         0.00000E+00
   -0.43368E-09        -0.53655E+06         0.00000E+00
    0.00000E+00         0.00000E+00        -0.15744E+06
 
   -0.25466E-09         0.14456E-09         0.00000E+00
    0.14456E-09        -0.53655E+06         0.00000E+00
    0.00000E+00         0.00000E+00        -0.15744E+06
 
   -0.69122E-10        -0.32526E-09         0.00000E+00
   -0.32526E-09        -0.53655E+06         0.00000E+00
    0.00000E+00         0.00000E+00        -0.15744E+06
 
   -0.13461E-09         0.12649E-09         0.00000E+00
    0.12649E-09        -0.53603E+06         0.00000E+00
    0.00000E+00         0.00000E+00        -0.15693E+06
 
    0.70941E-09         0.23491E-09         0.00000E+00
    0.23491E-09        -0.53603E+06         0.00000E+00
    0.00000E+00         0.00000E+00        -0.15693E+06
 
   -0.63665E-09        -0.39754E-09         0.00000E+00
   -0.39754E-09        -0.53603E+06         0.00000E+00
    0.00000E+00         0.00000E+00        -0.15693E+06
 
    0.50932E-10         0.10842E-09         0.00000E+00
    0.10842E-09        -0.53603E+06         0.00000E+00
    0.00000E+00         0.00000E+00        -0.15693E+06
 
    0.42928E-09         0.32526E-09         0.00000E+00
    0.32526E-09        -0.53603E+06         0.00000E+00
    0.00000E+00         0.00000E+00        -0.15693E+06
 
    0.29104E-09        -0.36140E-10         0.00000E+00
   -0.36140E-10        -0.53603E+06         0.00000E+00
    0.00000E+00         0.00000E+00        -0.15693E+06
 
    0.79672E-09        -0.27105E-09         0.00000E+00
   -0.27105E-09        -0.53603E+06         0.00000E+00
    0.00000E+00         0.00000E+00        -0.15693E+06
 
    0.27285E-09        -0.36140E-10         0.00000E+00
   -0.36140E-10        -0.53603E+06         0.00000E+00
    0.00000E+00         0.00000E+00        -0.15693E+06
 
   -0.30559E-09         0.36140E-10         0.00000E+00
    0.36140E-10        -0.53603E+06         0.00000E+00
    0.00000E+00         0.00000E+00        -0.15693E+06
 
    0.42564E-09        -0.12649E-09         0.00000E+00
   -0.12649E-09        -0.53603E+06         0.00000E+00
    0.00000E+00         0.00000E+00        -0.15693E+06
 
    0.15643E-09        -0.90350E-10         0.00000E+00
   -0.90350E-10        -0.53603E+06         0.00000E+00
    0.00000E+00         0.00000E+00        -0.15693E+06
 
   -0.46202E-09         0.93964E-09         0.00000E+00
    0.93964E-09        -0.53603E+06         0.00000E+00
    0.00000E+00         0.00000E+00        -0.15693E+06
 
   -0.21100E-09         0.00000E+00         0.00000E+00
    0.00000E+00        -0.53603E+06         0.00000E+00
    0.00000E+00         0.00000E+00        -0.15693E+06
 
    0.69122E-10         0.36140E-10         0.00000E+00
    0.36140E-10        -0.53603E+06         0.00000E+00
    0.00000E+00         0.00000E+00        -0.15693E+06
 
   -0.83674E-10         0.14456E-09         0.00000E+00
    0.14456E-09        -0.53603E+06         0.00000E+00
    0.00000E+00         0.00000E+00        -0.15693E+06
 
   -0.76761E-09         0.34333E-09         0.00000E+00
    0.34333E-09        -0.53549E+06         0.00000E+00
    0.00000E+00         0.00000E+00        -0.15639E+06
 
    0.10914E-09        -0.83122E-09         0.00000E+00
   -0.83122E-09        -0.53549E+06         0.00000E+00
    0.00000E+00         0.00000E+00        -0.15639E+06
 
    0.14552E-10         0.18070E-09         0.00000E+00
    0.18070E-09        -0.53549E+06         0.00000E+00
    0.00000E+00         0.00000E+00        -0.15639E+06
 
   -0.40382E-09         0.12649E-09         0.00000E+00
    0.12649E-09        -0.53549E+06         0.00000E+00
    0.00000E+00         0.00000E+00        -0.15639E+06
 
    0.36380E-10         0.65052E-09         0.00000E+00
    0.65052E-09        -0.53549E+06         0.00000E+00
    0.00000E+00         0.00000E+00        -0.15639E+06
 
   -0.21464E-09        -0.25298E-09         0.00000E+00
   -0.25298E-09        -0.53549E+06         0.00000E+00
    0.00000E+00         0.00000E+00        -0.15639E+06
 
   -0.39290E-09         0.39754E-09         0.00000E+00
    0.39754E-09        -0.53549E+06         0.00000E+00
    0.00000E+00         0.00000E+00        -0.15639E+06
 
   -0.98225E-10         0.54210E-09         0.00000E+00
    0.54210E-09        -0.53549E+06         0.00000E+00
    0.00000E+00         0.00000E+00        -0.15639E+06
 
    0.21828E-09         0.10842E-09         0.00000E+00
    0.10842E-09        -0.53549E+06         0.00000E+00
    0.00000E+00         0.00000E+00        -0.15639E+06
 
   -0.12369E-09        -0.36140E-09         0.00000E+00
   -0.36140E-09        -0.53549E+06         0.00000E+00
    0.00000E+00         0.00000E+00        -0.15639E+06
 
   -0.16735E-09         0.00000E+00         0.00000E+00
    0.00000E+00        -0.53549E+06         0.00000E+00
    0.00000E+00         0.00000E+00        -0.15639E+06
 
    0.24374E-09         0.30719E-09         0.00000E+00
    0.30719E-09        -0.53549E+06         0.00000E+00
    0.00000E+00         0.00000E+00        -0.15639E+06
 
    0.15643E-09        -0.21684E-09         0.00000E+00
   -0.21684E-09        -0.53549E+06         0.00000E+00
    0.00000E+00         0.00000E+00        -0.15639E+06
 
   -0.35652E-09         0.46982E-09         0.00000E+00
    0.46982E-09        -0.53549E+06         0.00000E+00
    0.00000E+00         0.00000E+00        -0.15639E+06
 
   -0.16371E-09        -0.72280E-10         0.00000E+00
   -0.72280E-10        -0.53549E+06         0.00000E+00
    0.00000E+00         0.00000E+00        -0.15639E+06
 
   -0.50932E-10        -0.16263E-09         0.00000E+00
   -0.16263E-09        -0.53493E+06         0.00000E+00
    0.00000E+00         0.00000E+00        -0.15583E+06
 
    0.33106E-09         0.32526E-09         0.00000E+00
    0.32526E-09        -0.53493E+06         0.00000E+00
    0.00000E+00         0.00000E+00        -0.15583E+06
 
    0.21464E-09         0.37947E-09         0.00000E+00
    0.37947E-09        -0.53493E+06         0.00000E+00
    0.00000E+00         0.00000E+00        -0.15583E+06
 
    0.78580E-09        -0.56017E-09         0.00000E+00
   -0.56017E-09        -0.53493E+06         0.00000E+00
    0.00000E+00         0.00000E+00        -0.15583E+06
 
    0.28012E-09         0.10842E-08         0.00000E+00
    0.10842E-08        -0.53493E+06         0.00000E+00
    0.00000E+00         0.00000E+00        -0.15583E+06
 
   -0.57844E-09         0.21684E-09         0.00000E+00
    0.21684E-09        -0.53493E+06         0.00000E+00
    0.00000E+00         0.00000E+00        -0.15583E+06
 
   -0.41837E-09        -0.36140E-10         0.00000E+00
   -0.36140E-10        -0.53493E+06         0.00000E+00
    0.00000E+00         0.00000E+00        -0.15583E+06
 
    0.20373E-09        -0.36140E-09         0.00000E+00
   -0.36140E-09        -0.53493E+06         0.00000E+00
    0.00000E+00         0.00000E+00        -0.15583E+06
 
    0.42201E-09         0.72280E-10         0.00000E+00
    0.72280E-10        -0.53493E+06         0.00000E+00
    0.00000E+00         0.00000E+00        -0.15583E+06
 
    0.34197E-09        -0.10842E-09         0.00000E+00
   -0.10842E-09        -0.53493E+06         0.00000E+00
    0.00000E+00         0.00000E+00        -0.15583E+06
 
    0.42564E-09        -0.90350E-10         0.00000E+00
   -0.90350E-10        -0.53493E+06         0.00000E+00
    0.00000E+00         0.00000E+00        -0.15583E+06
 
    0.17826E-09        -0.90350E-10         0.00000E+00
   -0.90350E-10        -0.53493E+06         0.00000E+00
    0.00000E+00         0.00000E+00        -0.15583E+06
 
    0.59663E-09        -0.30719E-09         0.00000E+00
   -0.30719E-09        -0.53493E+06         0.00000E+00
    0.00000E+00         0.00000E+00        -0.15583E+06
 
    0.61118E-09         0.10842E-09         0.00000E+00
    0.10842E-09        -0.53493E+06         0.00000E+00
    0.00000E+00         0.00000E+00        -0.15583E+06
 
   -0.28376E-09         0.25298E-09         0.00000E+00
    0.25298E-09        -0.53493E+06         0.00000E+00
    0.00000E+00         0.00000E+00        -0.15583E+06
 
   -0.44383E-09         0.18070E-10         0.00000E+00
    0.18070E-10        -0.53436E+06         0.00000E+00
    0.00000E+00         0.00000E+00        -0.15526E+06
 
   -0.52387E-09         0.54210E-10         0.00000E+00
    0.54210E-10        -0.53436E+06         0.00000E+00
    0.00000E+00         0.00000E+00        -0.15526E+06
 
   -0.67666E-09        -0.36140E-10         0.00000E+00
   -0.36140E-10        -0.53436E+06         0.00000E+00
    0.00000E+00         0.00000E+00        -0.15526E+06
 
   -0.90586E-09         0.36140E-10         0.00000E+00
    0.36140E-10        -0.53436E+06         0.00000E+00
    0.00000E+00         0.00000E+00        -0.15526E+06
 
    0.59299E-09         0.72280E-09         0.00000E+00
    0.72280E-09        -0.53436E+06         0.00000E+00
    0.00000E+00         0.00000E+00        -0.15526E+06
 
    0.11169E-08         0.36140E-10         0.00000E+00
    0.36140E-10        -0.53436E+06         0.00000E+00
    0.00000E+00         0.00000E+00        -0.15526E+06
 
    0.72396E-09        -0.14456E-09         0.00000E+00
   -0.14456E-09        -0.53436E+06         0.00000E+00
    0.00000E+00         0.00000E+00        -0.15526E+06
 
    0.39654E-09        -0.54210E-09         0.00000E+00
   -0.54210E-09        -0.53436E+06         0.00000E+00
    0.00000E+00         0.00000E+00        -0.15526E+06
 
   -0.65484E-09        -0.37947E-09         0.00000E+00
   -0.37947E-09        -0.53436E+06         0.00000E+00
    0.00000E+00         0.00000E+00        -0.15526E+06
 
   -0.11642E-08         0.34333E-09         0.00000E+00
    0.34333E-09        -0.53436E+06         0.00000E+00
    0.00000E+00         0.00000E+00        -0.15526E+06
 
   -0.16080E-08        -0.41561E-09         0.00000E+00
   -0.41561E-09        -0.53436E+06         0.00000E+00
    0.00000E+00         0.00000E+00        -0.15526E+06
 
   -0.96406E-09         0.28912E-09         0.00000E+00
    0.28912E-09        -0.53436E+06         0.00000E+00
    0.00000E+00         0.00000E+00        -0.15526E+06
 
    0.10186E-09         0.10842E-09         0.00000E+00
    0.10842E-09        -0.53436E+06         0.00000E+00
    0.00000E+00         0.00000E+00        -0.15526E+06
 
   -0.88767E-09        -0.72280E-10         0.00000E+00
   -0.72280E-10        -0.53436E+06         0.00000E+00
    0.00000E+00         0.00000E+00        -0.15526E+06
 
   -0.80036E-10        -0.36140E-10         0.00000E+00
   -0.36140E-10        -0.53436E+06         0.00000E+00
    0.00000E+00         0.00000E+00        -0.15526E+06
 
   -0.79308E-09         0.90350E-10         0.00000E+00
    0.90350E-10        -0.53377E+06         0.00000E+00
    0.00000E+00         0.00000E+00        -0.15467E+06
 
   -0.11787E-08        -0.21684E-09         0.00000E+00
   -0.21684E-09        -0.53377E+06         0.00000E+00
    0.00000E+00         0.00000E+00        -0.15467E+06
 
   -0.31650E-09         0.90350E-10         0.00000E+00
    0.90350E-10        -0.53377E+06         0.00000E+00
    0.00000E+00         0.00000E+00        -0.15467E+06
 
   -0.48749E-09         0.10842E-09         0.00000E+00
    0.10842E-09        -0.53377E+06         0.00000E+00
    0.00000E+00         0.00000E+00        -0.15467E+06
 
   -0.44383E-09        -0.18070E-10         0.00000E+00
   -0.18070E-10        -0.53377E+06         0.00000E+00
    0.00000E+00         0.00000E+00        -0.15467E+06
 
   -0.48021E-09        -0.72280E-10         0.00000E+00
   -0.72280E-10        -0.53377E+06         0.00000E+00
    0.00000E+00         0.00000E+00        -0.15467E+06
 
   -0.11096E-08         0.14456E-09         0.00000E+00
    0.14456E-09        -0.53377E+06         0.00000E+00
    0.00000E+00         0.00000E+00        -0.15467E+06
 
   -0.98953E-09        -0.54210E-09         0.00000E+00
   -0.54210E-09        -0.53377E+06         0.00000E+00
    0.00000E+00         0.00000E+00        -0.15467E+06
 
   -0.47658E-09        -0.18070E-09         0.00000E+00
   -0.18070E-09        -0.53377E+06         0.00000E+00
    0.00000E+00         0.00000E+00        -0.15467E+06
 
    0.14916E-09         0.39754E-09         0.00000E+00
    0.39754E-09        -0.53377E+06         0.00000E+00
    0.00000E+00         0.00000E+00        -0.15467E+06
 
    0.37471E-09        -0.81315E-09         0.00000E+00
   -0.81315E-09        -0.53377E+06         0.00000E+00
    0.00000E+00         0.00000E+00        -0.15467E+06
 
   -0.65847E-09        -0.18070E-10         0.00000E+00
   -0.18070E-10        -0.53377E+06         0.00000E+00
    0.00000E+00         0.00000E+00        -0.15467E+06
 
   -0.37471E-09        -0.72280E-10         0.00000E+00
   -0.72280E-10        -0.53377E+06         0.00000E+00
    0.00000E+00         0.00000E+00        -0.15467E+06
 
   -0.41473E-09        -0.72280E-10         0.00000E+00
   -0.72280E-10        -0.53377E+06         0.00000E+00
    0.00000E+00         0.00000E+00        -0.15467E+06
 
   -0.57844E-09         0.68666E-09         0.00000E+00
    0.68666E-09        -0.53377E+06         0.00000E+00
    0.00000E+00         0.00000E+00        -0.15467E+06
 
    0.10186E-09        -0.92157E-09         0.00000E+00
   -0.92157E-09        -0.53316E+06         0.00000E+00
    0.00000E+00         0.00000E+00        -0.15406E+06
 
    0.89858E-09         0.00000E+00         0.00000E+00
    0.00000E+00        -0.53316E+06         0.00000E+00
    0.00000E+00         0.00000E+00        -0.15406E+06
 
   -0.10186E-09         0.28912E-09         0.00000E+00
    0.28912E-09        -0.53316E+06         0.00000E+00
    0.00000E+00         0.00000E+00        -0.15406E+06
 
    0.10914E-10        -0.43368E-09         0.00000E+00
   -0.43368E-09        -0.53316E+06         0.00000E+00
    0.00000E+00         0.00000E+00        -0.15406E+06
 
    0.15898E-08         0.72280E-10         0.00000E+00
    0.72280E-10        -0.53316E+06         0.00000E+00
    0.00000E+00         0.00000E+00        -0.15406E+06
 
    0.14916E-08        -0.18070E-09         0.00000E+00
   -0.18070E-09        -0.53316E+06         0.00000E+00
    0.00000E+00         0.00000E+00        -0.15406E+06
 
    0.69485E-09         0.57824E-09         0.00000E+00
    0.57824E-09        -0.53316E+06         0.00000E+00
    0.00000E+00         0.00000E+00        -0.15406E+06
 
    0.54933E-09        -0.28912E-09         0.00000E+00
   -0.28912E-09        -0.53316E+06         0.00000E+00
    0.00000E+00         0.00000E+00        -0.15406E+06
 
    0.18554E-09         0.72280E-10         0.00000E+00
    0.72280E-10        -0.53316E+06         0.00000E+00
    0.00000E+00         0.00000E+00        -0.15406E+06
 
   -0.47294E-09        -0.25298E-09         0.00000E+00
   -0.25298E-09        -0.53316E+06         0.00000E+00
    0.00000E+00         0.00000E+00        -0.15406E+06
 
   -0.75306E-09        -0.75894E-09         0.00000E+00
   -0.75894E-09        -0.53316E+06         0.00000E+00
    0.00000E+00         0.00000E+00        -0.15406E+06
 
    0.49840E-09        -0.37947E-09         0.00000E+00
   -0.37947E-09        -0.53316E+06         0.00000E+00
    0.00000E+00         0.00000E+00        -0.15406E+06
 
    0.61482E-09         0.72280E-10         0.00000E+00
    0.72280E-10        -0.53316E+06         0.00000E+00
    0.00000E+00         0.00000E+00        -0.15406E+06
 
   -0.32014E-09        -0.54210E-09         0.00000E+00
   -0.54210E-09        -0.53316E+06         0.00000E+00
    0.00000E+00         0.00000E+00        -0.15406E+06
 
    0.10550E-09         0.72280E-10         0.00000E+00
    0.72280E-10        -0.53316E+06         0.00000E+00
    0.00000E+00         0.00000E+00        -0.15406E+06
 
   -0.11278E-08        -0.46982E-09         0.00000E+00
   -0.46982E-09        -0.53253E+06         0.00000E+00
    0.00000E+00         0.00000E+00        -0.15343E+06
 
   -0.13169E-08         0.37947E-09         0.00000E+00
    0.37947E-09        -0.53253E+06         0.00000E+00
    0.00000E+00         0.00000E+00        -0.15343E+06
 
   -0.94951E-09         0.72280E-09         0.00000E+00
    0.72280E-09        -0.53253E+06         0.00000E+00
    0.00000E+00         0.00000E+00        -0.15343E+06
 
   -0.69122E-10        -0.14456E-08         0.00000E+00
   -0.14456E-08        -0.53253E+06         0.00000E+00
    0.00000E+00         0.00000E+00        -0.15343E+06
 
   -0.78580E-09         0.14456E-09         0.00000E+00
    0.14456E-09        -0.53253E+06         0.00000E+00
    0.00000E+00         0.00000E+00        -0.15343E+06
 
   -0.85493E-09        -0.65052E-09         0.00000E+00
   -0.65052E-09        -0.53253E+06         0.00000E+00
    0.00000E+00         0.00000E+00        -0.15343E+06
 
   -0.16735E-09         0.75894E-09         0.00000E+00
    0.75894E-09        -0.53253E+06         0.00000E+00
    0.00000E+00         0.00000E+00        -0.15343E+06
 
   -0.72760E-10         0.10842E-09         0.00000E+00
    0.10842E-09        -0.53253E+06         0.00000E+00
    0.00000E+00         0.00000E+00        -0.15343E+06
 
   -0.96043E-09         0.18070E-09         0.00000E+00
    0.18070E-09        -0.53253E+06         0.00000E+00
    0.00000E+00         0.00000E+00        -0.15343E+06
 
    0.63665E-09         0.16263E-09         0.00000E+00
    0.16263E-09        -0.53253E+06         0.00000E+00
    0.00000E+00         0.00000E+00        -0.15343E+06
 
    0.81855E-09         0.30719E-09         0.00000E+00
    0.30719E-09        -0.53253E+06         0.00000E+00
    0.00000E+00         0.00000E+00        -0.15343E+06
 
    0.77125E-09        -0.39754E-09         0.00000E+00
   -0.39754E-09        -0.53253E+06         0.00000E+00
    0.00000E+00         0.00000E+00        -0.15343E+06
 
    0.16116E-08         0.43368E-09         0.00000E+00
    0.43368E-09        -0.53253E+06         0.00000E+00
    0.00000E+00         0.00000E+00        -0.15343E+06
 
    0.60754E-09         0.65052E-09         0.00000E+00
    0.65052E-09        -0.53253E+06         0.00000E+00
    0.00000E+00         0.00000E+00        -0.15343E+06
 
    0.00000E+00         0.36140E-09         0.00000E+00
    0.36140E-09        -0.53253E+06         0.00000E+00
    0.00000E+00         0.00000E+00        -0.15343E+06
 
    0.50932E-09         0.90350E-10         0.00000E+00
    0.90350E-10        -0.53189E+06         0.00000E+00
    0.00000E+00         0.00000E+00        -0.15279E+06
 
    0.80036E-10         0.00000E+00         0.00000E+00
    0.00000E+00        -0.53189E+06         0.00000E+00
    0.00000E+00         0.00000E+00        -0.15279E+06
 
   -0.65484E-10         0.00000E+00         0.00000E+00
    0.00000E+00        -0.53189E+06         0.00000E+00
    0.00000E+00         0.00000E+00        -0.15279E+06
 
    0.40018E-10        -0.68666E-09         0.00000E+00
   -0.68666E-09        -0.53189E+06         0.00000E+00
    0.00000E+00         0.00000E+00        -0.15279E+06
 
   -0.98225E-09         0.46982E-09         0.00000E+00
    0.46982E-09        -0.53189E+06         0.00000E+00
    0.00000E+00         0.00000E+00        -0.15279E+06
 
    0.26557E-09        -0.25298E-09         0.00000E+00
   -0.25298E-09        -0.53189E+06         0.00000E+00
    0.00000E+00         0.00000E+00        -0.15279E+06
 
   -0.91677E-09         0.50596E-09         0.00000E+00
    0.50596E-09        -0.53189E+06         0.00000E+00
    0.00000E+00         0.00000E+00        -0.15279E+06
 
    0.17099E-09        -0.10842E-09         0.00000E+00
   -0.10842E-09        -0.53189E+06         0.00000E+00
    0.00000E+00         0.00000E+00        -0.15279E+06
 
    0.00000E+00        -0.41561E-09         0.00000E+00
   -0.41561E-09        -0.53189E+06         0.00000E+00
    0.00000E+00         0.00000E+00        -0.15279E+06
 
   -0.76761E-09        -0.16263E-09         0.00000E+00
   -0.16263E-09        -0.53189E+06         0.00000E+00
    0.00000E+00         0.00000E+00        -0.15279E+06
 
   -0.13024E-08         0.00000E+00         0.00000E+00
    0.00000E+00        -0.53189E+06         0.00000E+00
    0.00000E+00         0.00000E+00        -0.15279E+06
 
   -0.63301E-09         0.16263E-09         0.00000E+00
    0.16263E-09        -0.53189E+06         0.00000E+00
    0.00000E+00         0.00000E+00        -0.15279E+06
 
    0.14188E-09        -0.50596E-09         0.00000E+00
   -0.50596E-09        -0.53189E+06         0.00000E+00
    0.00000E+00         0.00000E+00        -0.15279E+06
 
    0.14188E-09         0.68666E-09         0.00000E+00
    0.68666E-09        -0.53189E+06         0.00000E+00
    0.00000E+00         0.00000E+00        -0.15279E+06
 
   -0.17826E-09         0.10842E-09         0.00000E+00
    0.10842E-09        -0.53189E+06         0.00000E+00
    0.00000E+00         0.00000E+00        -0.15279E+06
 
   -0.90949E-10         0.14456E-09         0.00000E+00
    0.14456E-09        -0.53123E+06         0.00000E+00
    0.00000E+00         0.00000E+00        -0.15213E+06
 
   -0.10914E-09         0.18070E-09         0.00000E+00
    0.18070E-09        -0.53123E+06         0.00000E+00
    0.00000E+00         0.00000E+00        -0.15213E+06
 
   -0.26921E-09        -0.54210E-09         0.00000E+00
   -0.54210E-09        -0.53123E+06         0.00000E+00
    0.00000E+00         0.00000E+00        -0.15213E+06
 
    0.12005E-09         0.54210E-09         0.00000E+00
    0.54210E-09        -0.53123E+06         0.00000E+00
    0.00000E+00         0.00000E+00        -0.15213E+06
 
   -0.82582E-09        -0.21684E-09         0.00000E+00
   -0.21684E-09        -0.53123E+06         0.00000E+00
    0.00000E+00         0.00000E+00        -0.15213E+06
 
   -0.10077E-08        -0.36140E-09         0.00000E+00
   -0.36140E-09        -0.53123E+06         0.00000E+00
    0.00000E+00         0.00000E+00        -0.15213E+06
 
    0.70941E-09        -0.54210E-09         0.00000E+00
   -0.54210E-09        -0.53123E+06         0.00000E+00
    0.00000E+00         0.00000E+00        -0.15213E+06
 
    0.64028E-09        -0.25298E-09         0.00000E+00
   -0.25298E-09        -0.53123E+06         0.00000E+00
    0.00000E+00         0.00000E+00        -0.15213E+06
 
   -0.36016E-09        -0.16263E-09         0.00000E+00
   -0.16263E-09        -0.53123E+06         0.00000E+00
    0.00000E+00         0.00000E+00        -0.15213E+06
 
    0.83310E-09        -0.25298E-09         0.00000E+00
   -0.25298E-09        -0.53123E+06         0.00000E+00
    0.00000E+00         0.00000E+00        -0.15213E+06
 
    0.90586E-09        -0.68666E-09         0.00000E+00
   -0.68666E-09        -0.53123E+06         0.00000E+00
    0.00000E+00         0.00000E+00        -0.15213E+06
 
    0.52023E-09         0.50596E-09         0.00000E+00
    0.50596E-09        -0.53123E+06         0.00000E+00
    0.00000E+00         0.00000E+00        -0.15213E+06
 
   -0.29831E-09        -0.75894E-09         0.00000E+00
   -0.75894E-09        -0.53123E+06         0.00000E+00
    0.00000E+00         0.00000E+00        -0.15213E+06
 
   -0.98225E-10        -0.14456E-09         0.00000E+00
   -0.14456E-09        -0.53123E+06         0.00000E+00
    0.00000E+00         0.00000E+00        -0.15213E+06
 
    0.90586E-09         0.39754E-09         0.00000E+00
    0.39754E-09        -0.53123E+06         0.00000E+00
    0.00000E+00         0.00000E+00        -0.15213E+06
 
    0.14734E-08        -0.21684E-09         0.00000E+00
   -0.21684E-09        -0.53055E+06         0.00000E+00
    0.00000E+00         0.00000E+00        -0.15145E+06
 
    0.88039E-09        -0.28912E-09         0.00000E+00
   -0.28912E-09        -0.53055E+06         0.00000E+00
    0.00000E+00         0.00000E+00        -0.15145E+06
 
    0.28012E-09        -0.90350E-09         0.00000E+00
   -0.90350E-09        -0.53055E+06         0.00000E+00
    0.00000E+00         0.00000E+00        -0.15145E+06
 
   -0.52751E-09         0.10842E-09         0.00000E+00
    0.10842E-09        -0.53055E+06         0.00000E+00
    0.00000E+00         0.00000E+00        -0.15145E+06
 
    0.75670E-09         0.36140E-10         0.00000E+00
    0.36140E-10        -0.53055E+06         0.00000E+00
    0.00000E+00         0.00000E+00        -0.15145E+06
 
    0.10368E-08         0.25298E-09         0.00000E+00
    0.25298E-09        -0.53055E+06         0.00000E+00
    0.00000E+00         0.00000E+00        -0.15145E+06
 
    0.13097E-09        -0.18070E-09         0.00000E+00
   -0.18070E-09        -0.53055E+06         0.00000E+00
    0.00000E+00         0.00000E+00        -0.15145E+06
 
   -0.37107E-09         0.83122E-09         0.00000E+00
    0.83122E-09        -0.53055E+06         0.00000E+00
    0.00000E+00         0.00000E+00        -0.15145E+06
 
    0.92768E-09        -0.25298E-09         0.00000E+00
   -0.25298E-09        -0.53055E+06         0.00000E+00
    0.00000E+00         0.00000E+00        -0.15145E+06
 
    0.15643E-09         0.45175E-09         0.00000E+00
    0.45175E-09        -0.53055E+06         0.00000E+00
    0.00000E+00         0.00000E+00        -0.15145E+06
 
    0.92041E-09        -0.57824E-09         0.00000E+00
   -0.57824E-09        -0.53055E+06         0.00000E+00
    0.00000E+00         0.00000E+00        -0.15145E+06
 
   -0.20009E-09         0.10842E-09         0.00000E+00
    0.10842E-09        -0.53055E+06         0.00000E+00
    0.00000E+00         0.00000E+00        -0.15145E+06
 
   -0.58208E-10        -0.21684E-09         0.00000E+00
   -0.21684E-09        -0.53055E+06         0.00000E+00
    0.00000E+00         0.00000E+00        -0.15145E+06
 
   -0.47658E-09         0.68666E-09         0.00000E+00
    0.68666E-09        -0.53055E+06         0.00000E+00
    0.00000E+00         0.00000E+00        -0.15145E+06
 
   -0.46930E-09         0.36140E-10         0.00000E+00
    0.36140E-10        -0.53055E+06         0.00000E+00
    0.00000E+00         0.00000E+00        -0.15145E+06
 
   -0.94951E-09        -0.61438E-09         0.00000E+00
   -0.61438E-09        -0.52985E+06         0.00000E+00
    0.00000E+00         0.00000E+00        -0.15075E+06
 
   -0.10805E-08        -0.10842E-09         0.00000E+00
   -0.10842E-09        -0.52985E+06         0.00000E+00
    0.00000E+00         0.00000E+00        -0.15075E+06
 
   -0.71668E-09         0.10842E-09         0.00000E+00
    0.10842E-09        -0.52985E+06         0.00000E+00
    0.00000E+00         0.00000E+00        -0.15075E+06
 
   -0.96406E-09        -0.72280E-10         0.00000E+00
   -0.72280E-10        -0.52985E+06         0.00000E+00
    0.00000E+00         0.00000E+00        -0.15075E+06
 
   -0.10150E-08         0.18070E-09         0.00000E+00
    0.18070E-09        -0.52985E+06         0.00000E+00
    0.00000E+00         0.00000E+00        -0.15075E+06
 
   -0.45475E-09         0.00000E+00         0.00000E+00
    0.00000E+00        -0.52985E+06         0.00000E+00
    0.00000E+00         0.00000E+00        -0.15075E+06
 
   -0.75670E-09        -0.36140E-09         0.00000E+00
   -0.36140E-09        -0.52985E+06         0.00000E+00
    0.00000E+00         0.00000E+00        -0.15075E+06
 
   -0.18917E-09        -0.21684E-09         0.00000E+00
   -0.21684E-09        -0.52985E+06         0.00000E+00
    0.00000E+00         0.00000E+00        -0.15075E+06
 
   -0.30195E-09        -0.14456E-09         0.00000E+00
   -0.14456E-09        -0.52985E+06         0.00000E+00
    0.00000E+00         0.00000E+00        -0.15075E+06
 
   -0.90586E-09         0.18070E-10         0.00000E+00
    0.18070E-10        -0.52985E+06         0.00000E+00
    0.00000E+00         0.00000E+00        -0.15075E+06
 
   -0.12442E-08        -0.37947E-09         0.00000E+00
   -0.37947E-09        -0.52985E+06         0.00000E+00
    0.00000E+00         0.00000E+00        -0.15075E+06
 
   -0.18190E-10         0.72280E-10         0.00000E+00
    0.72280E-10        -0.52985E+06         0.00000E+00
    0.00000E+00         0.00000E+00        -0.15075E+06
 
    0.55661E-09        -0.28912E-09         0.00000E+00
   -0.28912E-09        -0.52985E+06         0.00000E+00
    0.00000E+00         0.00000E+00        -0.15075E+06
 
   -0.27649E-09         0.25298E-09         0.00000E+00
    0.25298E-09        -0.52985E+06         0.00000E+00
    0.00000E+00         0.00000E+00        -0.15075E+06
 
   -0.78944E-09         0.00000E+00         0.00000E+00
    0.00000E+00        -0.52985E+06         0.00000E+00
    0.00000E+00         0.00000E+00        -0.15075E+06
 
    0.82946E-09         0.21684E-09         0.00000E+00
    0.21684E-09        -0.52914E+06         0.00000E+00
    0.00000E+00         0.00000E+00        -0.15004E+06
 
    0.95679E-09        -0.28912E-09         0.00000E+00
   -0.28912E-09        -0.52914E+06         0.00000E+00
    0.00000E+00         0.00000E+00        -0.15004E+06
 
   -0.69122E-10        -0.18070E-09         0.00000E+00
   -0.18070E-09        -0.52914E+06         0.00000E+00
    0.00000E+00         0.00000E+00        -0.15004E+06
 
    0.94951E-09         0.21684E-09         0.00000E+00
    0.21684E-09        -0.52914E+06         0.00000E+00
    0.00000E+00         0.00000E+00        -0.15004E+06
 
    0.93860E-09        -0.36140E-10         0.00000E+00
   -0.36140E-10        -0.52914E+06         0.00000E+00
    0.00000E+00         0.00000E+00        -0.15004E+06
 
    0.32014E-09         0.72280E-10         0.00000E+00
    0.72280E-10        -0.52914E+06         0.00000E+00
    0.00000E+00         0.00000E+00        -0.15004E+06
 
    0.36016E-09        -0.18070E-09         0.00000E+00
   -0.18070E-09        -0.52914E+06         0.00000E+00
    0.00000E+00         0.00000E+00        -0.15004E+06
 
    0.18190E-09         0.21684E-09         0.00000E+00
    0.21684E-09        -0.52914E+06         0.00000E+00
    0.00000E+00         0.00000E+00        -0.15004E+06
 
    0.38563E-09        -0.10842E-09         0.00000E+00
   -0.10842E-09        -0.52914E+06         0.00000E+00
    0.00000E+00         0.00000E+00        -0.15004E+06
 
    0.54570E-09         0.18070E-09         0.00000E+00
    0.18070E-09        -0.52914E+06         0.00000E+00
    0.00000E+00         0.00000E+00        -0.15004E+06
 
    0.88767E-09        -0.21684E-09         0.00000E+00
   -0.21684E-09        -0.52914E+06         0.00000E+00
    0.00000E+00         0.00000E+00        -0.15004E+06
 
   -0.35288E-09         0.28912E-09         0.00000E+00
    0.28912E-09        -0.52914E+06         0.00000E+00
    0.00000E+00         0.00000E+00        -0.15004E+06
 
   -0.53842E-09        -0.10842E-09         0.00000E+00
   -0.10842E-09        -0.52914E+06         0.00000E+00
    0.00000E+00         0.00000E+00        -0.15004E+06
 
    0.77125E-09         0.21684E-09         0.00000E+00
    0.21684E-09        -0.52914E+06         0.00000E+00
    0.00000E+00         0.00000E+00        -0.15004E+06
 
    0.12842E-08        -0.21684E-09         0.00000E+00
   -0.21684E-09        -0.52914E+06         0.00000E+00
    0.00000E+00         0.00000E+00        -0.15004E+06
 
   -0.37835E-09         0.86736E-09         0.00000E+00
    0.86736E-09        -0.52841E+06         0.00000E+00
    0.00000E+00         0.00000E+00        -0.14931E+06
 
   -0.10332E-08        -0.79508E-09         0.00000E+00
   -0.79508E-09        -0.52841E+06         0.00000E+00
    0.00000E+00         0.00000E+00        -0.14931E+06
 
    0.42201E-09        -0.14456E-09         0.00000E+00
   -0.14456E-09        -0.52841E+06         0.00000E+00
    0.00000E+00         0.00000E+00        -0.14931E+06
 
   -0.13461E-09        -0.18070E-09         0.00000E+00
   -0.18070E-09        -0.52841E+06         0.00000E+00
    0.00000E+00         0.00000E+00        -0.14931E+06
 
    0.37471E-09         0.36140E-10         0.00000E+00
    0.36140E-10        -0.52841E+06         0.00000E+00
    0.00000E+00         0.00000E+00        -0.14931E+06
 
    0.32014E-09        -0.28912E-09         0.00000E+00
   -0.28912E-09        -0.52841E+06         0.00000E+00
    0.00000E+00         0.00000E+00        -0.14931E+06
 
   -0.32378E-09         0.97578E-09         0.00000E+00
    0.97578E-09        -0.52841E+06         0.00000E+00
    0.00000E+00         0.00000E+00        -0.14931E+06
 
   -0.12187E-08        -0.18070E-09         0.00000E+00
   -0.18070E-09        -0.52841E+06         0.00000E+00
    0.00000E+00         0.00000E+00        -0.14931E+06
 
   -0.80036E-09        -0.56017E-09         0.00000E+00
   -0.56017E-09        -0.52841E+06         0.00000E+00
    0.00000E+00         0.00000E+00        -0.14931E+06
 
   -0.94587E-10         0.10842E-09         0.00000E+00
    0.10842E-09        -0.52841E+06         0.00000E+00
    0.00000E+00         0.00000E+00        -0.14931E+06
 
   -0.25466E-09        -0.36140E-10         0.00000E+00
   -0.36140E-10        -0.52841E+06         0.00000E+00
    0.00000E+00         0.00000E+00        -0.14931E+06
 
   -0.37835E-09         0.72280E-10         0.00000E+00
    0.72280E-10        -0.52841E+06         0.00000E+00
    0.00000E+00         0.00000E+00        -0.14931E+06
 
    0.65484E-09        -0.36140E-10         0.00000E+00
   -0.36140E-10        -0.52841E+06         0.00000E+00
    0.00000E+00         0.00000E+00        -0.14931E+06
 
   -0.18554E-09         0.14456E-09         0.00000E+00
    0.14456E-09        -0.52841E+06         0.00000E+00
    0.00000E+00         0.00000E+00        -0.14931E+06
 
    0.81855E-09        -0.75894E-09         0.00000E+00
   -0.75894E-09        -0.52841E+06         0.00000E+00
    0.00000E+00         0.00000E+00        -0.14931E+06
 
   -0.10805E-08         0.75894E-09         0.00000E+00
    0.75894E-09        -0.52766E+06         0.00000E+00
    0.00000E+00         0.00000E+00        -0.14856E+06
 
    0.21828E-10        -0.50596E-09         0.00000E+00
   -0.50596E-09        -0.52766E+06         0.00000E+00
    0.00000E+00         0.00000E+00        -0.14856E+06
 
   -0.95679E-09        -0.18070E-09         0.00000E+00
   -0.18070E-09        -0.52766E+06         0.00000E+00
    0.00000E+00         0.00000E+00        -0.14856E+06
 
   -0.25830E-09        -0.79508E-09         0.00000E+00
   -0.79508E-09        -0.52766E+06         0.00000E+00
    0.00000E+00         0.00000E+00        -0.14856E+06
 
   -0.15498E-08         0.68666E-09         0.00000E+00
    0.68666E-09        -0.52766E+06         0.00000E+00
    0.00000E+00         0.00000E+00        -0.14856E+06
 
   -0.81855E-09        -0.10842E-09         0.00000E+00
   -0.10842E-09        -0.52766E+06         0.00000E+00
    0.00000E+00         0.00000E+00        -0.14856E+06
 
   -0.31650E-09         0.25298E-09         0.00000E+00
    0.25298E-09        -0.52766E+06         0.00000E+00
    0.00000E+00         0.00000E+00        -0.14856E+06
 
    0.14916E-09        -0.32526E-09         0.00000E+00
   -0.32526E-09        -0.52766E+06         0.00000E+00
    0.00000E+00         0.00000E+00        -0.14856E+06
 
   -0.25466E-10        -0.41561E-09         0.00000E+00
   -0.41561E-09        -0.52766E+06         0.00000E+00
    0.00000E+00         0.00000E+00        -0.14856E+06
 
    0.29104E-09         0.46982E-09         0.00000E+00
    0.46982E-09        -0.52766E+06         0.00000E+00
    0.00000E+00         0.00000E+00        -0.14856E+06
 
    0.35652E-09         0.14456E-09         0.00000E+00
    0.14456E-09        -0.52766E+06         0.00000E+00
    0.00000E+00         0.00000E+00        -0.14856E+06
 
    0.32742E-09         0.46982E-09         0.00000E+00
    0.46982E-09        -0.52766E+06         0.00000E+00
    0.00000E+00         0.00000E+00        -0.14856E+06
 
    0.54933E-09         0.14456E-09         0.00000E+00
    0.14456E-09        -0.52766E+06         0.00000E+00
    0.00000E+00         0.00000E+00        -0.14856E+06
 
    0.40382E-09         0.36140E-10         0.00000E+00
    0.36140E-10        -0.52766E+06         0.00000E+00
    0.00000E+00         0.00000E+00        -0.14856E+06
 
   -0.77125E-09        -0.10842E-09         0.00000E+00
   -0.10842E-09        -0.52766E+06         0.00000E+00
    0.00000E+00         0.00000E+00        -0.14856E+06
 
    0.10368E-08         0.32526E-09         0.00000E+00
    0.32526E-09        -0.52689E+06         0.00000E+00
    0.00000E+00         0.00000E+00        -0.14779E+06
 
    0.12369E-09         0.32526E-09         0.00000E+00
    0.32526E-09        -0.52689E+06         0.00000E+00
    0.00000E+00         0.00000E+00        -0.14779E+06
 
    0.53478E-09        -0.21684E-09         0.00000E+00
   -0.21684E-09        -0.52689E+06         0.00000E+00
    0.00000E+00         0.00000E+00        -0.14779E+06
 
   -0.98589E-09        -0.68666E-09         0.00000E+00
   -0.68666E-09        -0.52689E+06         0.00000E+00
    0.00000E+00         0.00000E+00        -0.14779E+06
 
    0.30195E-09         0.21684E-09         0.00000E+00
    0.21684E-09        -0.52689E+06         0.00000E+00
    0.00000E+00         0.00000E+00        -0.14779E+06
 
    0.33833E-09        -0.25298E-09         0.00000E+00
   -0.25298E-09        -0.52689E+06         0.00000E+00
    0.00000E+00         0.00000E+00        -0.14779E+06
 
    0.76034E-09         0.00000E+00         0.00000E+00
    0.00000E+00        -0.52689E+06         0.00000E+00
    0.00000E+00         0.00000E+00        -0.14779E+06
 
    0.94951E-09        -0.25298E-09         0.00000E+00
   -0.25298E-09        -0.52689E+06         0.00000E+00
    0.00000E+00         0.00000E+00        -0.14779E+06
 
   -0.13097E-09        -0.12649E-09         0.00000E+00
   -0.12649E-09        -0.52689E+06         0.00000E+00
    0.00000E+00         0.00000E+00        -0.14779E+06
 
   -0.10768E-08         0.90350E-10         0.00000E+00
    0.90350E-10        -0.52689E+06         0.00000E+00
    0.00000E+00         0.00000E+00        -0.14779E+06
 
   -0.97862E-09        -0.10842E-09         0.00000E+00
   -0.10842E-09        -0.52689E+06         0.00000E+00
    0.00000E+00         0.00000E+00        -0.14779E+06
 
   -0.10550E-08         0.14456E-09         0.00000E+00
    0.14456E-09        -0.52689E+06         0.00000E+00
    0.00000E+00         0.00000E+00        -0.14779E+06
 
   -0.77489E-09         0.36140E-10         0.00000E+00
    0.36140E-10        -0.52689E+06         0.00000E+00
    0.00000E+00         0.00000E+00        -0.14779E+06
 
   -0.53114E-09         0.36140E-10         0.00000E+00
    0.36140E-10        -0.52689E+06         0.00000E+00
    0.00000E+00         0.00000E+00        -0.14779E+06
 
   -0.68394E-09         0.28912E-09         0.00000E+00
    0.28912E-09        -0.52689E+06         0.00000E+00
    0.00000E+00         0.00000E+00        -0.14779E+06
 
   -0.68394E-09         0.10842E-09         0.00000E+00
    0.10842E-09        -0.52611E+06         0.00000E+00
    0.00000E+00         0.00000E+00        -0.14701E+06
 
    0.87311E-10        -0.57824E-09         0.00000E+00
   -0.57824E-09        -0.52611E+06         0.00000E+00
    0.00000E+00         0.00000E+00        -0.14701E+06
 
   -0.94951E-09         0.00000E+00         0.00000E+00
    0.00000E+00        -0.52611E+06         0.00000E+00
    0.00000E+00         0.00000E+00        -0.14701E+06
 
   -0.90949E-10        -0.10842E-09         0.00000E+00
   -0.10842E-09        -0.52611E+06         0.00000E+00
    0.00000E+00         0.00000E+00        -0.14701E+06
 
   -0.12915E-08        -0.36140E-10         0.00000E+00
   -0.36140E-10        -0.52611E+06         0.00000E+00
    0.00000E+00         0.00000E+00        -0.14701E+06
 
   -0.90949E-09         0.25298E-09         0.00000E+00
    0.25298E-09        -0.52611E+06         0.00000E+00
    0.00000E+00         0.00000E+00        -0.14701E+06
 
   -0.48749E-09         0.14456E-09         0.00000E+00
    0.14456E-09        -0.52611E+06         0.00000E+00
    0.00000E+00         0.00000E+00        -0.14701E+06
 
    0.14916E-09        -0.10842E-09         0.00000E+00
   -0.10842E-09        -0.52611E+06         0.00000E+00
    0.00000E+00         0.00000E+00        -0.14701E+06
 
    0.27649E-09         0.23491E-09         0.00000E+00
    0.23491E-09        -0.52611E+06         0.00000E+00
    0.00000E+00         0.00000E+00        -0.14701E+06
 
    0.67666E-09        -0.39754E-09         0.00000E+00
   -0.39754E-09        -0.52611E+06         0.00000E+00
    0.00000E+00         0.00000E+00        -0.14701E+06
 
    0.43292E-09         0.46982E-09         0.00000E+00
    0.46982E-09        -0.52611E+06         0.00000E+00
    0.00000E+00         0.00000E+00        -0.14701E+06
 
    0.15643E-09        -0.32526E-09         0.00000E+00
   -0.32526E-09        -0.52611E+06         0.00000E+00
    0.00000E+00         0.00000E+00        -0.14701E+06
 
   -0.10514E-08        -0.10842E-09         0.00000E+00
   -0.10842E-09        -0.52611E+06         0.00000E+00
    0.00000E+00         0.00000E+00        -0.14701E+06
 
   -0.38926E-09         0.14456E-09         0.00000E+00
    0.14456E-09        -0.52611E+06         0.00000E+00
    0.00000E+00         0.00000E+00        -0.14701E+06
 
    0.17826E-09         0.21684E-09         0.00000E+00
    0.21684E-09        -0.52611E+06         0.00000E+00
    0.00000E+00         0.00000E+00        -0.14701E+06
 
    0.97498E-09         0.72280E-09         0.00000E+00
    0.72280E-09        -0.52532E+06         0.00000E+00
    0.00000E+00         0.00000E+00        -0.14622E+06
 
   -0.10186E-09         0.28912E-09         0.00000E+00
    0.28912E-09        -0.52532E+06         0.00000E+00
    0.00000E+00         0.00000E+00        -0.14622E+06
 
    0.10114E-08         0.14456E-09         0.00000E+00
    0.14456E-09        -0.52532E+06         0.00000E+00
    0.00000E+00         0.00000E+00        -0.14622E+06
 
    0.17571E-08         0.00000E+00         0.00000E+00
    0.00000E+00        -0.52532E+06         0.00000E+00
    0.00000E+00         0.00000E+00        -0.14622E+06
 
    0.25138E-08         0.72280E-10         0.00000E+00
    0.72280E-10        -0.52532E+06         0.00000E+00
    0.00000E+00         0.00000E+00        -0.14622E+06
 
    0.15498E-08         0.14456E-09         0.00000E+00
    0.14456E-09        -0.52532E+06         0.00000E+00
    0.00000E+00         0.00000E+00        -0.14622E+06
 
    0.31650E-09         0.10842E-09         0.00000E+00
    0.10842E-09        -0.52532E+06         0.00000E+00
    0.00000E+00         0.00000E+00        -0.14622E+06
 
    0.16589E-08         0.72280E-10         0.00000E+00
    0.72280E-10        -0.52532E+06         0.00000E+00
    0.00000E+00         0.00000E+00        -0.14622E+06
 
    0.57116E-09        -0.12649E-09         0.00000E+00
   -0.12649E-09        -0.52532E+06         0.00000E+00
    0.00000E+00         0.00000E+00        -0.14622E+06
 
   -0.29104E-09        -0.72280E-09         0.00000E+00
   -0.72280E-09        -0.52532E+06         0.00000E+00
    0.00000E+00         0.00000E+00        -0.14622E+06
 
   -0.72760E-11         0.61438E-09         0.00000E+00
    0.61438E-09        -0.52532E+06         0.00000E+00
    0.00000E+00         0.00000E+00        -0.14622E+06
 
    0.51296E-09        -0.32526E-09         0.00000E+00
   -0.32526E-09        -0.52532E+06         0.00000E+00
    0.00000E+00         0.00000E+00        -0.14622E+06
 
    0.18226E-08        -0.36140E-10         0.00000E+00
   -0.36140E-10        -0.52532E+06         0.00000E+00
    0.00000E+00         0.00000E+00        -0.14622E+06
 
    0.16080E-08         0.00000E+00         0.00000E+00
    0.00000E+00        -0.52532E+06         0.00000E+00
    0.00000E+00         0.00000E+00        -0.14622E+06
 
   -0.94224E-09        -0.39754E-09         0.00000E+00
   -0.39754E-09        -0.52532E+06         0.00000E+00
    0.00000E+00         0.00000E+00        -0.14622E+06
 
   -0.65484E-10         0.32526E-09         0.00000E+00
    0.32526E-09        -0.52450E+06         0.00000E+00
    0.00000E+00         0.00000E+00        -0.14540E+06
 
   -0.53114E-09         0.00000E+00         0.00000E+00
    0.00000E+00        -0.52450E+06         0.00000E+00
    0.00000E+00         0.00000E+00        -0.14540E+06
 
   -0.64392E-09         0.10842E-09         0.00000E+00
    0.10842E-09        -0.52450E+06         0.00000E+00
    0.00000E+00         0.00000E+00        -0.14540E+06
 
   -0.44747E-09         0.39754E-09         0.00000E+00
    0.39754E-09        -0.52450E+06         0.00000E+00
    0.00000E+00         0.00000E+00        -0.14540E+06
 
   -0.16516E-08        -0.14456E-09         0.00000E+00
   -0.14456E-09        -0.52450E+06         0.00000E+00
    0.00000E+00         0.00000E+00        -0.14540E+06
 
   -0.94587E-09        -0.21684E-09         0.00000E+00
   -0.21684E-09        -0.52450E+06         0.00000E+00
    0.00000E+00         0.00000E+00        -0.14540E+06
 
    0.15207E-08        -0.54210E-09         0.00000E+00
   -0.54210E-09        -0.52450E+06         0.00000E+00
    0.00000E+00         0.00000E+00        -0.14540E+06
 
   -0.81491E-09         0.79508E-09         0.00000E+00
    0.79508E-09        -0.52450E+06         0.00000E+00
    0.00000E+00         0.00000E+00        -0.14540E+06
 
   -0.53842E-09        -0.61438E-09         0.00000E+00
   -0.61438E-09        -0.52450E+06         0.00000E+00
    0.00000E+00         0.00000E+00        -0.14540E+06
 
    0.11387E-08         0.21684E-09         0.00000E+00
    0.21684E-09        -0.52450E+06         0.00000E+00
    0.00000E+00         0.00000E+00        -0.14540E+06
 
   -0.39290E-09        -0.21684E-09         0.00000E+00
   -0.21684E-09        -0.52450E+06         0.00000E+00
    0.00000E+00         0.00000E+00        -0.14540E+06
 
   -0.12005E-09        -0.39754E-09         0.00000E+00
   -0.39754E-09        -0.52450E+06         0.00000E+00
    0.00000E+00         0.00000E+00        -0.14540E+06
 
   -0.76761E-09         0.18070E-09         0.00000E+00
    0.18070E-09        -0.52450E+06         0.00000E+00
    0.00000E+00         0.00000E+00        -0.14540E+06
 
   -0.13133E-08        -0.14456E-09         0.00000E+00
   -0.14456E-09        -0.52450E+06         0.00000E+00
    0.00000E+00         0.00000E+00        -0.14540E+06
 
   -0.10587E-08        -0.36140E-10         0.00000E+00
   -0.36140E-10        -0.52450E+06         0.00000E+00
    0.00000E+00         0.00000E+00        -0.14540E+06
 
    0.10587E-08         0.10842E-09         0.00000E+00
    0.10842E-09        -0.52367E+06         0.00000E+00
    0.00000E+00         0.00000E+00        -0.14457E+06
 
    0.51296E-09         0.00000E+00         0.00000E+00
    0.00000E+00        -0.52367E+06         0.00000E+00
    0.00000E+00         0.00000E+00        -0.14457E+06
 
    0.62209E-09        -0.36140E-09         0.00000E+00
   -0.36140E-09        -0.52367E+06         0.00000E+00
    0.00000E+00         0.00000E+00        -0.14457E+06
 
    0.89130E-09         0.54210E-09         0.00000E+00
    0.54210E-09        -0.52367E+06         0.00000E+00
    0.00000E+00         0.00000E+00        -0.14457E+06
 
    0.21828E-10        -0.14456E-09         0.00000E+00
   -0.14456E-09        -0.52367E+06         0.00000E+00
    0.00000E+00         0.00000E+00        -0.14457E+06
 
   -0.80399E-09        -0.75894E-09         0.00000E+00
   -0.75894E-09        -0.52367E+06         0.00000E+00
    0.00000E+00         0.00000E+00        -0.14457E+06
 
   -0.10587E-08         0.28912E-09         0.00000E+00
    0.28912E-09        -0.52367E+06         0.00000E+00
    0.00000E+00         0.00000E+00        -0.14457E+06
 
    0.73123E-09         0.21684E-09         0.00000E+00
    0.21684E-09        -0.52367E+06         0.00000E+00
    0.00000E+00         0.00000E+00        -0.14457E+06
 
    0.17826E-09        -0.48789E-09         0.00000E+00
   -0.48789E-09        -0.52367E+06         0.00000E+00
    0.00000E+00         0.00000E+00        -0.14457E+06
 
    0.86948E-09         0.75894E-09         0.00000E+00
    0.75894E-09        -0.52367E+06         0.00000E+00
    0.00000E+00         0.00000E+00        -0.14457E+06
 
    0.21100E-09         0.18070E-09         0.00000E+00
    0.18070E-09        -0.52367E+06         0.00000E+00
    0.00000E+00         0.00000E+00        -0.14457E+06
 
   -0.37835E-09        -0.90350E-09         0.00000E+00
   -0.90350E-09        -0.52367E+06         0.00000E+00
    0.00000E+00         0.00000E+00        -0.14457E+06
 
    0.78944E-09         0.68666E-09         0.00000E+00
    0.68666E-09        -0.52367E+06         0.00000E+00
    0.00000E+00         0.00000E+00        -0.14457E+06
 
    0.27649E-09         0.72280E-10         0.00000E+00
    0.72280E-10        -0.52367E+06         0.00000E+00
    0.00000E+00         0.00000E+00        -0.14457E+06
 
    0.68394E-09        -0.39754E-09         0.00000E+00
   -0.39754E-09        -0.52367E+06         0.00000E+00
    0.00000E+00         0.00000E+00        -0.14457E+06
 
   -0.79672E-09         0.00000E+00         0.00000E+00
    0.00000E+00        -0.52283E+06         0.00000E+00
    0.00000E+00         0.00000E+00        -0.14373E+06
 
   -0.11314E-08         0.72280E-10         0.00000E+00
    0.72280E-10        -0.52283E+06         0.00000E+00
    0.00000E+00         0.00000E+00        -0.14373E+06
 
   -0.18299E-08         0.39754E-09         0.00000E+00
    0.39754E-09        -0.52283E+06         0.00000E+00
    0.00000E+00         0.00000E+00        -0.14373E+06
 
   -0.12678E-08         0.36140E-09         0.00000E+00
    0.36140E-09        -0.52283E+06         0.00000E+00
    0.00000E+00         0.00000E+00        -0.14373E+06
 
    0.41109E-09        -0.18070E-09         0.00000E+00
   -0.18070E-09        -0.52283E+06         0.00000E+00
    0.00000E+00         0.00000E+00        -0.14373E+06
 
   -0.41837E-09         0.36140E-10         0.00000E+00
    0.36140E-10        -0.52283E+06         0.00000E+00
    0.00000E+00         0.00000E+00        -0.14373E+06
 
   -0.62028E-09         0.21684E-09         0.00000E+00
    0.21684E-09        -0.52283E+06         0.00000E+00
    0.00000E+00         0.00000E+00        -0.14373E+06
 
   -0.23829E-09        -0.28912E-09         0.00000E+00
   -0.28912E-09        -0.52283E+06         0.00000E+00
    0.00000E+00         0.00000E+00        -0.14373E+06
 
   -0.43656E-09         0.54210E-09         0.00000E+00
    0.54210E-09        -0.52283E+06         0.00000E+00
    0.00000E+00         0.00000E+00        -0.14373E+06
 
   -0.87311E-10         0.14456E-09         0.00000E+00
    0.14456E-09        -0.52283E+06         0.00000E+00
    0.00000E+00         0.00000E+00        -0.14373E+06
 
    0.18244E-08        -0.10842E-09         0.00000E+00
   -0.10842E-09        -0.52283E+06         0.00000E+00
    0.00000E+00         0.00000E+00        -0.14373E+06
 
   -0.19645E-09        -0.25298E-09         0.00000E+00
   -0.25298E-09        -0.52283E+06         0.00000E+00
    0.00000E+00         0.00000E+00        -0.14373E+06
 
   -0.21828E-09        -0.39754E-09         0.00000E+00
   -0.39754E-09        -0.52283E+06         0.00000E+00
    0.00000E+00         0.00000E+00        -0.14373E+06
 
    0.17044E-08        -0.21684E-09         0.00000E+00
   -0.21684E-09        -0.52283E+06         0.00000E+00
    0.00000E+00         0.00000E+00        -0.14373E+06
 
    0.10023E-08        -0.18070E-09         0.00000E+00
   -0.18070E-09        -0.52283E+06         0.00000E+00
    0.00000E+00         0.00000E+00        -0.14373E+06
 
    0.10186E-09         0.93964E-09         0.00000E+00
    0.93964E-09        -0.52196E+06         0.00000E+00
    0.00000E+00         0.00000E+00        -0.14286E+06
 
   -0.92587E-09        -0.28912E-09         0.00000E+00
   -0.28912E-09        -0.52196E+06         0.00000E+00
    0.00000E+00         0.00000E+00        -0.14286E+06
 
    0.10605E-08         0.18070E-09         0.00000E+00
    0.18070E-09        -0.52196E+06         0.00000E+00
    0.00000E+00         0.00000E+00        -0.14286E+06
 
    0.55479E-09        -0.36140E-10         0.00000E+00
   -0.36140E-10        -0.52196E+06         0.00000E+00
    0.00000E+00         0.00000E+00        -0.14286E+06
 
   -0.80217E-09        -0.46982E-09         0.00000E+00
   -0.46982E-09        -0.52196E+06         0.00000E+00
    0.00000E+00         0.00000E+00        -0.14286E+06
 
    0.13351E-08         0.50596E-09         0.00000E+00
    0.50596E-09        -0.52196E+06         0.00000E+00
    0.00000E+00         0.00000E+00        -0.14286E+06
 
    0.46930E-09         0.10119E-08         0.00000E+00
    0.10119E-08        -0.52196E+06         0.00000E+00
    0.00000E+00         0.00000E+00        -0.14286E+06
 
   -0.43838E-09        -0.46982E-09         0.00000E+00
   -0.46982E-09        -0.52196E+06         0.00000E+00
    0.00000E+00         0.00000E+00        -0.14286E+06
 
   -0.41473E-09         0.50596E-09         0.00000E+00
    0.50596E-09        -0.52196E+06         0.00000E+00
    0.00000E+00         0.00000E+00        -0.14286E+06
 
   -0.62755E-09         0.10842E-09         0.00000E+00
    0.10842E-09        -0.52196E+06         0.00000E+00
    0.00000E+00         0.00000E+00        -0.14286E+06
 
   -0.86402E-09         0.10481E-08         0.00000E+00
    0.10481E-08        -0.52196E+06         0.00000E+00
    0.00000E+00         0.00000E+00        -0.14286E+06
 
   -0.96770E-09         0.32526E-09         0.00000E+00
    0.32526E-09        -0.52196E+06         0.00000E+00
    0.00000E+00         0.00000E+00        -0.14286E+06
 
    0.50932E-10         0.36140E-10         0.00000E+00
    0.36140E-10        -0.52196E+06         0.00000E+00
    0.00000E+00         0.00000E+00        -0.14286E+06
 
   -0.52751E-09         0.75894E-09         0.00000E+00
    0.75894E-09        -0.52196E+06         0.00000E+00
    0.00000E+00         0.00000E+00        -0.14286E+06
 
   -0.12660E-08         0.28912E-09         0.00000E+00
    0.28912E-09        -0.52196E+06         0.00000E+00
    0.00000E+00         0.00000E+00        -0.14286E+06
 
    0.76034E-09        -0.72280E-10         0.00000E+00
   -0.72280E-10        -0.52109E+06         0.00000E+00
    0.00000E+00         0.00000E+00        -0.14199E+06
 
   -0.14916E-09        -0.50596E-09         0.00000E+00
   -0.50596E-09        -0.52109E+06         0.00000E+00
    0.00000E+00         0.00000E+00        -0.14199E+06
 
   -0.47294E-09         0.18070E-09         0.00000E+00
    0.18070E-09        -0.52109E+06         0.00000E+00
    0.00000E+00         0.00000E+00        -0.14199E+06
 
   -0.26739E-09         0.25298E-09         0.00000E+00
    0.25298E-09        -0.52109E+06         0.00000E+00
    0.00000E+00         0.00000E+00        -0.14199E+06
 
    0.96406E-10        -0.14456E-09         0.00000E+00
   -0.14456E-09        -0.52109E+06         0.00000E+00
    0.00000E+00         0.00000E+00        -0.14199E+06
 
   -0.40927E-09         0.72280E-10         0.00000E+00
    0.72280E-10        -0.52109E+06         0.00000E+00
    0.00000E+00         0.00000E+00        -0.14199E+06
 
   -0.33833E-09        -0.14456E-09         0.00000E+00
   -0.14456E-09        -0.52109E+06         0.00000E+00
    0.00000E+00         0.00000E+00        -0.14199E+06
 
    0.12278E-08         0.00000E+00         0.00000E+00
    0.00000E+00        -0.52109E+06         0.00000E+00
    0.00000E+00         0.00000E+00        -0.14199E+06
 
    0.15316E-08         0.43368E-09         0.00000E+00
    0.43368E-09        -0.52109E+06         0.00000E+00
    0.00000E+00         0.00000E+00        -0.14199E+06
 
   -0.16062E-08        -0.28912E-09         0.00000E+00
   -0.28912E-09        -0.52109E+06         0.00000E+00
    0.00000E+00         0.00000E+00        -0.14199E+06
 
   -0.38017E-09         0.50596E-09         0.00000E+00
    0.50596E-09        -0.52109E+06         0.00000E+00
    0.00000E+00         0.00000E+00        -0.14199E+06
 
    0.92950E-09         0.39754E-09         0.00000E+00
    0.39754E-09        -0.52109E+06         0.00000E+00
    0.00000E+00         0.00000E+00        -0.14199E+06
 
    0.24738E-09         0.46982E-09         0.00000E+00
    0.46982E-09        -0.52109E+06         0.00000E+00
    0.00000E+00         0.00000E+00        -0.14199E+06
 
   -0.81855E-10         0.50596E-09         0.00000E+00
    0.50596E-09        -0.52109E+06         0.00000E+00
    0.00000E+00         0.00000E+00        -0.14199E+06
 
    0.10841E-08         0.25298E-09         0.00000E+00
    0.25298E-09        -0.52109E+06         0.00000E+00
    0.00000E+00         0.00000E+00        -0.14199E+06
 
    0.55297E-09        -0.36140E-10         0.00000E+00
   -0.36140E-10        -0.52019E+06         0.00000E+00
    0.00000E+00         0.00000E+00        -0.14109E+06
 
   -0.74579E-10         0.32526E-09         0.00000E+00
    0.32526E-09        -0.52019E+06         0.00000E+00
    0.00000E+00         0.00000E+00        -0.14109E+06
 
    0.10841E-08         0.14456E-09         0.00000E+00
    0.14456E-09        -0.52019E+06         0.00000E+00
    0.00000E+00         0.00000E+00        -0.14109E+06
 
    0.20700E-08        -0.72280E-10         0.00000E+00
   -0.72280E-10        -0.52019E+06         0.00000E+00
    0.00000E+00         0.00000E+00        -0.14109E+06
 
    0.11059E-08         0.25298E-09         0.00000E+00
    0.25298E-09        -0.52019E+06         0.00000E+00
    0.00000E+00         0.00000E+00        -0.14109E+06
 
    0.15280E-09        -0.72280E-10         0.00000E+00
   -0.72280E-10        -0.52019E+06         0.00000E+00
    0.00000E+00         0.00000E+00        -0.14109E+06
 
    0.74033E-09        -0.79508E-09         0.00000E+00
   -0.79508E-09        -0.52019E+06         0.00000E+00
    0.00000E+00         0.00000E+00        -0.14109E+06
 
    0.31469E-09         0.25298E-09         0.00000E+00
    0.25298E-09        -0.52019E+06         0.00000E+00
    0.00000E+00         0.00000E+00        -0.14109E+06
 
    0.89312E-09         0.28912E-09         0.00000E+00
    0.28912E-09        -0.52019E+06         0.00000E+00
    0.00000E+00         0.00000E+00        -0.14109E+06
 
    0.35652E-09         0.43368E-09         0.00000E+00
    0.43368E-09        -0.52019E+06         0.00000E+00
    0.00000E+00         0.00000E+00        -0.14109E+06
 
   -0.72214E-09        -0.57824E-09         0.00000E+00
   -0.57824E-09        -0.52019E+06         0.00000E+00
    0.00000E+00         0.00000E+00        -0.14109E+06
 
   -0.10532E-08        -0.10842E-09         0.00000E+00
   -0.10842E-09        -0.52019E+06         0.00000E+00
    0.00000E+00         0.00000E+00        -0.14109E+06
 
    0.98225E-10        -0.46982E-09         0.00000E+00
   -0.46982E-09        -0.52019E+06         0.00000E+00
    0.00000E+00         0.00000E+00        -0.14109E+06
 
   -0.60754E-09         0.14456E-09         0.00000E+00
    0.14456E-09        -0.52019E+06         0.00000E+00
    0.00000E+00         0.00000E+00        -0.14109E+06
 
   -0.68394E-09         0.36140E-10         0.00000E+00
    0.36140E-10        -0.52019E+06         0.00000E+00
    0.00000E+00         0.00000E+00        -0.14109E+06
 
    0.71304E-09         0.15902E-08         0.00000E+00
    0.15902E-08        -0.51929E+06         0.00000E+00
    0.00000E+00         0.00000E+00        -0.14019E+06
 
    0.18190E-09        -0.72280E-10         0.00000E+00
   -0.72280E-10        -0.51929E+06         0.00000E+00
    0.00000E+00         0.00000E+00        -0.14019E+06
 
   -0.23647E-10        -0.50596E-09         0.00000E+00
   -0.50596E-09        -0.51929E+06         0.00000E+00
    0.00000E+00         0.00000E+00        -0.14019E+06
 
    0.96406E-10        -0.25298E-09         0.00000E+00
   -0.25298E-09        -0.51929E+06         0.00000E+00
    0.00000E+00         0.00000E+00        -0.14019E+06
 
    0.40382E-09         0.46982E-09         0.00000E+00
    0.46982E-09        -0.51929E+06         0.00000E+00
    0.00000E+00         0.00000E+00        -0.14019E+06
 
    0.72578E-09        -0.21684E-09         0.00000E+00
   -0.21684E-09        -0.51929E+06         0.00000E+00
    0.00000E+00         0.00000E+00        -0.14019E+06
 
   -0.25830E-09         0.36140E-10         0.00000E+00
    0.36140E-10        -0.51929E+06         0.00000E+00
    0.00000E+00         0.00000E+00        -0.14019E+06
 
   -0.40018E-10        -0.83122E-09         0.00000E+00
   -0.83122E-09        -0.51929E+06         0.00000E+00
    0.00000E+00         0.00000E+00        -0.14019E+06
 
    0.86038E-09         0.86736E-09         0.00000E+00
    0.86736E-09        -0.51929E+06         0.00000E+00
    0.00000E+00         0.00000E+00        -0.14019E+06
 
    0.10605E-08         0.14456E-09         0.00000E+00
    0.14456E-09        -0.51929E+06         0.00000E+00
    0.00000E+00         0.00000E+00        -0.14019E+06
 
   -0.12187E-09         0.65052E-09         0.00000E+00
    0.65052E-09        -0.51929E+06         0.00000E+00
    0.00000E+00         0.00000E+00        -0.14019E+06
 
   -0.21828E-09        -0.61438E-09         0.00000E+00
   -0.61438E-09        -0.51929E+06         0.00000E+00
    0.00000E+00         0.00000E+00        -0.14019E+06
 
    0.67303E-10        -0.79508E-09         0.00000E+00
   -0.79508E-09        -0.51929E+06         0.00000E+00
    0.00000E+00         0.00000E+00        -0.14019E+06
 
    0.38744E-09         0.14456E-09         0.00000E+00
    0.14456E-09        -0.51929E+06         0.00000E+00
    0.00000E+00         0.00000E+00        -0.14019E+06
 
    0.54206E-09        -0.14456E-09         0.00000E+00
   -0.14456E-09        -0.51929E+06         0.00000E+00
    0.00000E+00         0.00000E+00        -0.14019E+06
 
    0.63665E-10        -0.14456E-09         0.00000E+00
   -0.14456E-09        -0.51836E+06         0.00000E+00
    0.00000E+00         0.00000E+00        -0.13926E+06
 
   -0.35470E-09        -0.50596E-09         0.00000E+00
   -0.50596E-09        -0.51836E+06         0.00000E+00
    0.00000E+00         0.00000E+00        -0.13926E+06
 
   -0.83310E-09        -0.18070E-09         0.00000E+00
   -0.18070E-09        -0.51836E+06         0.00000E+00
    0.00000E+00         0.00000E+00        -0.13926E+06
 
   -0.19099E-09         0.18070E-09         0.00000E+00
    0.18070E-09        -0.51836E+06         0.00000E+00
    0.00000E+00         0.00000E+00        -0.13926E+06
 
   -0.23829E-09         0.25298E-09         0.00000E+00
    0.25298E-09        -0.51836E+06         0.00000E+00
    0.00000E+00         0.00000E+00        -0.13926E+06
 
   -0.16335E-08        -0.43368E-09         0.00000E+00
   -0.43368E-09        -0.51836E+06         0.00000E+00
    0.00000E+00         0.00000E+00        -0.13926E+06
 
   -0.15061E-08         0.00000E+00         0.00000E+00
    0.00000E+00        -0.51836E+06         0.00000E+00
    0.00000E+00         0.00000E+00        -0.13926E+06
 
   -0.30923E-09         0.65052E-09         0.00000E+00
    0.65052E-09        -0.51836E+06         0.00000E+00
    0.00000E+00         0.00000E+00        -0.13926E+06
 
    0.14006E-09         0.54210E-09         0.00000E+00
    0.54210E-09        -0.51836E+06         0.00000E+00
    0.00000E+00         0.00000E+00        -0.13926E+06
 
   -0.96952E-09         0.36140E-10         0.00000E+00
    0.36140E-10        -0.51836E+06         0.00000E+00
    0.00000E+00         0.00000E+00        -0.13926E+06
 
    0.13879E-08        -0.46982E-09         0.00000E+00
   -0.46982E-09        -0.51836E+06         0.00000E+00
    0.00000E+00         0.00000E+00        -0.13926E+06
 
    0.36016E-09        -0.28912E-09         0.00000E+00
   -0.28912E-09        -0.51836E+06         0.00000E+00
    0.00000E+00         0.00000E+00        -0.13926E+06
 
    0.70395E-09         0.36140E-10         0.00000E+00
    0.36140E-10        -0.51836E+06         0.00000E+00
    0.00000E+00         0.00000E+00        -0.13926E+06
 
    0.10732E-09        -0.43368E-09         0.00000E+00
   -0.43368E-09        -0.51836E+06         0.00000E+00
    0.00000E+00         0.00000E+00        -0.13926E+06
 
   -0.24193E-09         0.00000E+00         0.00000E+00
    0.00000E+00        -0.51836E+06         0.00000E+00
    0.00000E+00         0.00000E+00        -0.13926E+06
 
   -0.12915E-08        -0.65052E-09         0.00000E+00
   -0.65052E-09        -0.51743E+06         0.00000E+00
    0.00000E+00         0.00000E+00        -0.13833E+06
 
   -0.52569E-09         0.36140E-10         0.00000E+00
    0.36140E-10        -0.51743E+06         0.00000E+00
    0.00000E+00         0.00000E+00        -0.13833E+06
 
    0.67303E-10         0.72280E-10         0.00000E+00
    0.72280E-10        -0.51743E+06         0.00000E+00
    0.00000E+00         0.00000E+00        -0.13833E+06
 
   -0.30195E-09         0.93964E-09         0.00000E+00
    0.93964E-09        -0.51743E+06         0.00000E+00
    0.00000E+00         0.00000E+00        -0.13833E+06
 
   -0.14697E-08        -0.72280E-10         0.00000E+00
   -0.72280E-10        -0.51743E+06         0.00000E+00
    0.00000E+00         0.00000E+00        -0.13833E+06
 
    0.14115E-08        -0.46982E-09         0.00000E+00
   -0.46982E-09        -0.51743E+06         0.00000E+00
    0.00000E+00         0.00000E+00        -0.13833E+06
 
   -0.52387E-09         0.10842E-09         0.00000E+00
    0.10842E-09        -0.51743E+06         0.00000E+00
    0.00000E+00         0.00000E+00        -0.13833E+06
 
    0.72760E-09         0.54210E-09         0.00000E+00
    0.54210E-09        -0.51743E+06         0.00000E+00
    0.00000E+00         0.00000E+00        -0.13833E+06
 
    0.95497E-09         0.57824E-09         0.00000E+00
    0.57824E-09        -0.51743E+06         0.00000E+00
    0.00000E+00         0.00000E+00        -0.13833E+06
 
    0.13388E-08        -0.86736E-09         0.00000E+00
   -0.86736E-09        -0.51743E+06         0.00000E+00
    0.00000E+00         0.00000E+00        -0.13833E+06
 
    0.13097E-09        -0.14456E-09         0.00000E+00
   -0.14456E-09        -0.51743E+06         0.00000E+00
    0.00000E+00         0.00000E+00        -0.13833E+06
 
    0.96770E-09        -0.21684E-09         0.00000E+00
   -0.21684E-09        -0.51743E+06         0.00000E+00
    0.00000E+00         0.00000E+00        -0.13833E+06
 
    0.16189E-09         0.86736E-09         0.00000E+00
    0.86736E-09        -0.51743E+06         0.00000E+00
    0.00000E+00         0.00000E+00        -0.13833E+06
 
   -0.83310E-09         0.14456E-09         0.00000E+00
    0.14456E-09        -0.51743E+06         0.00000E+00
    0.00000E+00         0.00000E+00        -0.13833E+06
 
    0.90949E-09        -0.28912E-09         0.00000E+00
   -0.28912E-09        -0.51743E+06         0.00000E+00
    0.00000E+00         0.00000E+00        -0.13833E+06
 
    0.15079E-08        -0.65052E-09         0.00000E+00
   -0.65052E-09        -0.51647E+06         0.00000E+00
    0.00000E+00         0.00000E+00        -0.13737E+06
 
    0.91495E-09        -0.72280E-10         0.00000E+00
   -0.72280E-10        -0.51647E+06         0.00000E+00
    0.00000E+00         0.00000E+00        -0.13737E+06
 
   -0.47294E-09        -0.36140E-10         0.00000E+00
   -0.36140E-10        -0.51647E+06         0.00000E+00
    0.00000E+00         0.00000E+00        -0.13737E+06
 
    0.95497E-09         0.43368E-09         0.00000E+00
    0.43368E-09        -0.51647E+06         0.00000E+00
    0.00000E+00         0.00000E+00        -0.13737E+06
 
    0.10223E-08         0.43368E-09         0.00000E+00
    0.43368E-09        -0.51647E+06         0.00000E+00
    0.00000E+00         0.00000E+00        -0.13737E+06
 
    0.70759E-09        -0.36140E-09         0.00000E+00
   -0.36140E-09        -0.51647E+06         0.00000E+00
    0.00000E+00         0.00000E+00        -0.13737E+06
 
   -0.50204E-09        -0.10842E-09         0.00000E+00
   -0.10842E-09        -0.51647E+06         0.00000E+00
    0.00000E+00         0.00000E+00        -0.13737E+06
 
    0.20373E-09        -0.36140E-09         0.00000E+00
   -0.36140E-09        -0.51647E+06         0.00000E+00
    0.00000E+00         0.00000E+00        -0.13737E+06
 
   -0.27285E-09        -0.72280E-10         0.00000E+00
   -0.72280E-10        -0.51647E+06         0.00000E+00
    0.00000E+00         0.00000E+00        -0.13737E+06
 
    0.14134E-08         0.65052E-09         0.00000E+00
    0.65052E-09        -0.51647E+06         0.00000E+00
    0.00000E+00         0.00000E+00        -0.13737E+06
 
    0.11569E-08         0.32526E-09         0.00000E+00
    0.32526E-09        -0.51647E+06         0.00000E+00
    0.00000E+00         0.00000E+00        -0.13737E+06
 
   -0.19099E-09         0.21684E-09         0.00000E+00
    0.21684E-09        -0.51647E+06         0.00000E+00
    0.00000E+00         0.00000E+00        -0.13737E+06
 
   -0.36925E-09         0.25298E-09         0.00000E+00
    0.25298E-09        -0.51647E+06         0.00000E+00
    0.00000E+00         0.00000E+00        -0.13737E+06
 
   -0.85311E-09        -0.32526E-09         0.00000E+00
   -0.32526E-09        -0.51647E+06         0.00000E+00
    0.00000E+00         0.00000E+00        -0.13737E+06
 
   -0.32014E-09        -0.14456E-09         0.00000E+00
   -0.14456E-09        -0.51647E+06         0.00000E+00
    0.00000E+00         0.00000E+00        -0.13737E+06
 
    0.29104E-10        -0.14456E-09         0.00000E+00
   -0.14456E-09        -0.51551E+06         0.00000E+00
    0.00000E+00         0.00000E+00        -0.13641E+06
 
    0.10205E-08         0.10842E-09         0.00000E+00
    0.10842E-09        -0.51551E+06         0.00000E+00
    0.00000E+00         0.00000E+00        -0.13641E+06
 
    0.35470E-09        -0.39754E-09         0.00000E+00
   -0.39754E-09        -0.51551E+06         0.00000E+00
    0.00000E+00         0.00000E+00        -0.13641E+06
 
    0.50386E-09        -0.50596E-09         0.00000E+00
   -0.50596E-09        -0.51551E+06         0.00000E+00
    0.00000E+00         0.00000E+00        -0.13641E+06
 
    0.49113E-09         0.18070E-09         0.00000E+00
    0.18070E-09        -0.51551E+06         0.00000E+00
    0.00000E+00         0.00000E+00        -0.13641E+06
 
   -0.23101E-09        -0.21684E-09         0.00000E+00
   -0.21684E-09        -0.51551E+06         0.00000E+00
    0.00000E+00         0.00000E+00        -0.13641E+06
 
   -0.39108E-09         0.97578E-09         0.00000E+00
    0.97578E-09        -0.51551E+06         0.00000E+00
    0.00000E+00         0.00000E+00        -0.13641E+06
 
    0.97498E-09        -0.93964E-09         0.00000E+00
   -0.93964E-09        -0.51551E+06         0.00000E+00
    0.00000E+00         0.00000E+00        -0.13641E+06
 
    0.33469E-09        -0.43368E-09         0.00000E+00
   -0.43368E-09        -0.51551E+06         0.00000E+00
    0.00000E+00         0.00000E+00        -0.13641E+06
 
   -0.16207E-08        -0.28912E-09         0.00000E+00
   -0.28912E-09        -0.51551E+06         0.00000E+00
    0.00000E+00         0.00000E+00        -0.13641E+06
 
   -0.13151E-08        -0.72280E-09         0.00000E+00
   -0.72280E-09        -0.51551E+06         0.00000E+00
    0.00000E+00         0.00000E+00        -0.13641E+06
 
    0.67666E-09         0.00000E+00         0.00000E+00
    0.00000E+00        -0.51551E+06         0.00000E+00
    0.00000E+00         0.00000E+00        -0.13641E+06
 
    0.13879E-08         0.21684E-09         0.00000E+00
    0.21684E-09        -0.51551E+06         0.00000E+00
    0.00000E+00         0.00000E+00        -0.13641E+06
 
    0.11878E-08        -0.28912E-09         0.00000E+00
   -0.28912E-09        -0.51551E+06         0.00000E+00
    0.00000E+00         0.00000E+00        -0.13641E+06
 
   -0.67303E-10         0.14456E-09         0.00000E+00
    0.14456E-09        -0.51551E+06         0.00000E+00
    0.00000E+00         0.00000E+00        -0.13641E+06
 
   -0.61118E-09        -0.43368E-09         0.00000E+00
   -0.43368E-09        -0.51453E+06         0.00000E+00
    0.00000E+00         0.00000E+00        -0.13543E+06
 
   -0.72578E-09        -0.14456E-09         0.00000E+00
   -0.14456E-09        -0.51453E+06         0.00000E+00
    0.00000E+00         0.00000E+00        -0.13543E+06
 
   -0.69303E-09         0.00000E+00         0.00000E+00
    0.00000E+00        -0.51453E+06         0.00000E+00
    0.00000E+00         0.00000E+00        -0.13543E+06
 
   -0.10623E-08        -0.14456E-09         0.00000E+00
   -0.14456E-09        -0.51453E+06         0.00000E+00
    0.00000E+00         0.00000E+00        -0.13543E+06
 
   -0.13169E-08        -0.14456E-09         0.00000E+00
   -0.14456E-09        -0.51453E+06         0.00000E+00
    0.00000E+00         0.00000E+00        -0.13543E+06
 
   -0.15061E-08        -0.14456E-09         0.00000E+00
   -0.14456E-09        -0.51453E+06         0.00000E+00
    0.00000E+00         0.00000E+00        -0.13543E+06
 
    0.34925E-09        -0.36140E-10         0.00000E+00
   -0.36140E-10        -0.51453E+06         0.00000E+00
    0.00000E+00         0.00000E+00        -0.13543E+06
 
    0.45293E-09        -0.93964E-09         0.00000E+00
   -0.93964E-09        -0.51453E+06         0.00000E+00
    0.00000E+00         0.00000E+00        -0.13543E+06
 
   -0.10641E-08        -0.43368E-09         0.00000E+00
   -0.43368E-09        -0.51453E+06         0.00000E+00
    0.00000E+00         0.00000E+00        -0.13543E+06
 
    0.59481E-09        -0.72280E-10         0.00000E+00
   -0.72280E-10        -0.51453E+06         0.00000E+00
    0.00000E+00         0.00000E+00        -0.13543E+06
 
    0.86402E-09         0.00000E+00         0.00000E+00
    0.00000E+00        -0.51453E+06         0.00000E+00
    0.00000E+00         0.00000E+00        -0.13543E+06
 
   -0.10732E-08        -0.21684E-09         0.00000E+00
   -0.21684E-09        -0.51453E+06         0.00000E+00
    0.00000E+00         0.00000E+00        -0.13543E+06
 
   -0.68030E-09         0.10842E-09         0.00000E+00
    0.10842E-09        -0.51453E+06         0.00000E+00
    0.00000E+00         0.00000E+00        -0.13543E+06
 
    0.18736E-09         0.14456E-09         0.00000E+00
    0.14456E-09        -0.51453E+06         0.00000E+00
    0.00000E+00         0.00000E+00        -0.13543E+06
 
    0.12060E-08         0.79508E-09         0.00000E+00
    0.79508E-09        -0.51453E+06         0.00000E+00
    0.00000E+00         0.00000E+00        -0.13543E+06
 
    0.30923E-09         0.72280E-10         0.00000E+00
    0.72280E-10        -0.51353E+06         0.00000E+00
    0.00000E+00         0.00000E+00        -0.13443E+06
 
    0.48749E-09         0.61438E-09         0.00000E+00
    0.61438E-09        -0.51353E+06         0.00000E+00
    0.00000E+00         0.00000E+00        -0.13443E+06
 
    0.14916E-09        -0.14456E-09         0.00000E+00
   -0.14456E-09        -0.51353E+06         0.00000E+00
    0.00000E+00         0.00000E+00        -0.13443E+06
 
   -0.75488E-09         0.12649E-08         0.00000E+00
    0.12649E-08        -0.51353E+06         0.00000E+00
    0.00000E+00         0.00000E+00        -0.13443E+06
 
    0.33651E-09         0.43368E-09         0.00000E+00
    0.43368E-09        -0.51353E+06         0.00000E+00
    0.00000E+00         0.00000E+00        -0.13443E+06
 
    0.29104E-09         0.10842E-09         0.00000E+00
    0.10842E-09        -0.51353E+06         0.00000E+00
    0.00000E+00         0.00000E+00        -0.13443E+06
 
    0.60390E-09        -0.39754E-09         0.00000E+00
   -0.39754E-09        -0.51353E+06         0.00000E+00
    0.00000E+00         0.00000E+00        -0.13443E+06
 
    0.90040E-09         0.28912E-09         0.00000E+00
    0.28912E-09        -0.51353E+06         0.00000E+00
    0.00000E+00         0.00000E+00        -0.13443E+06
 
    0.78217E-10        -0.10842E-09         0.00000E+00
   -0.10842E-09        -0.51353E+06         0.00000E+00
    0.00000E+00         0.00000E+00        -0.13443E+06
 
    0.29104E-10        -0.28912E-09         0.00000E+00
   -0.28912E-09        -0.51353E+06         0.00000E+00
    0.00000E+00         0.00000E+00        -0.13443E+06
 
    0.16389E-08         0.93964E-09         0.00000E+00
    0.93964E-09        -0.51353E+06         0.00000E+00
    0.00000E+00         0.00000E+00        -0.13443E+06
 
    0.10368E-09         0.72280E-10         0.00000E+00
    0.72280E-10        -0.51353E+06         0.00000E+00
    0.00000E+00         0.00000E+00        -0.13443E+06
 
   -0.95315E-09         0.14456E-09         0.00000E+00
    0.14456E-09        -0.51353E+06         0.00000E+00
    0.00000E+00         0.00000E+00        -0.13443E+06
 
   -0.10532E-08         0.72280E-10         0.00000E+00
    0.72280E-10        -0.51353E+06         0.00000E+00
    0.00000E+00         0.00000E+00        -0.13443E+06
 
   -0.40382E-09         0.86736E-09         0.00000E+00
    0.86736E-09        -0.51353E+06         0.00000E+00
    0.00000E+00         0.00000E+00        -0.13443E+06
 
    0.11187E-08        -0.72280E-10         0.00000E+00
   -0.72280E-10        -0.51252E+06         0.00000E+00
    0.00000E+00         0.00000E+00        -0.13342E+06
 
    0.52569E-09        -0.65052E-09         0.00000E+00
   -0.65052E-09        -0.51252E+06         0.00000E+00
    0.00000E+00         0.00000E+00        -0.13342E+06
 
   -0.60027E-10        -0.10842E-09         0.00000E+00
   -0.10842E-09        -0.51252E+06         0.00000E+00
    0.00000E+00         0.00000E+00        -0.13342E+06
 
    0.37653E-09        -0.61438E-09         0.00000E+00
   -0.61438E-09        -0.51252E+06         0.00000E+00
    0.00000E+00         0.00000E+00        -0.13342E+06
 
   -0.36562E-09        -0.54210E-09         0.00000E+00
   -0.54210E-09        -0.51252E+06         0.00000E+00
    0.00000E+00         0.00000E+00        -0.13342E+06
 
   -0.61846E-10        -0.36140E-09         0.00000E+00
   -0.36140E-09        -0.51252E+06         0.00000E+00
    0.00000E+00         0.00000E+00        -0.13342E+06
 
    0.18190E-10        -0.32526E-09         0.00000E+00
   -0.32526E-09        -0.51252E+06         0.00000E+00
    0.00000E+00         0.00000E+00        -0.13342E+06
 
   -0.67121E-09        -0.72280E-10         0.00000E+00
   -0.72280E-10        -0.51252E+06         0.00000E+00
    0.00000E+00         0.00000E+00        -0.13342E+06
 
   -0.14570E-08        -0.21684E-09         0.00000E+00
   -0.21684E-09        -0.51252E+06         0.00000E+00
    0.00000E+00         0.00000E+00        -0.13342E+06
 
   -0.18263E-08        -0.25298E-09         0.00000E+00
   -0.25298E-09        -0.51252E+06         0.00000E+00
    0.00000E+00         0.00000E+00        -0.13342E+06
 
   -0.14134E-08        -0.79508E-09         0.00000E+00
   -0.79508E-09        -0.51252E+06         0.00000E+00
    0.00000E+00         0.00000E+00        -0.13342E+06
 
   -0.26012E-09        -0.72280E-09         0.00000E+00
   -0.72280E-09        -0.51252E+06         0.00000E+00
    0.00000E+00         0.00000E+00        -0.13342E+06
 
    0.83674E-10         0.79508E-09         0.00000E+00
    0.79508E-09        -0.51252E+06         0.00000E+00
    0.00000E+00         0.00000E+00        -0.13342E+06
 
   -0.85674E-09         0.72280E-10         0.00000E+00
    0.72280E-10        -0.51252E+06         0.00000E+00
    0.00000E+00         0.00000E+00        -0.13342E+06
 
   -0.21100E-09         0.10119E-08         0.00000E+00
    0.10119E-08        -0.51252E+06         0.00000E+00
    0.00000E+00         0.00000E+00        -0.13342E+06
 
   -0.85856E-09         0.36140E-10         0.00000E+00
    0.36140E-10        -0.51150E+06         0.00000E+00
    0.00000E+00         0.00000E+00        -0.13240E+06
 
   -0.23101E-09         0.10842E-09         0.00000E+00
    0.10842E-09        -0.51150E+06         0.00000E+00
    0.00000E+00         0.00000E+00        -0.13240E+06
 
   -0.10878E-08         0.54210E-09         0.00000E+00
    0.54210E-09        -0.51150E+06         0.00000E+00
    0.00000E+00         0.00000E+00        -0.13240E+06
 
   -0.10696E-08        -0.72280E-10         0.00000E+00
   -0.72280E-10        -0.51150E+06         0.00000E+00
    0.00000E+00         0.00000E+00        -0.13240E+06
 
   -0.52569E-09         0.93964E-09         0.00000E+00
    0.93964E-09        -0.51150E+06         0.00000E+00
    0.00000E+00         0.00000E+00        -0.13240E+06
 
   -0.90768E-09        -0.39754E-09         0.00000E+00
   -0.39754E-09        -0.51150E+06         0.00000E+00
    0.00000E+00         0.00000E+00        -0.13240E+06
 
   -0.90949E-10         0.39754E-09         0.00000E+00
    0.39754E-09        -0.51150E+06         0.00000E+00
    0.00000E+00         0.00000E+00        -0.13240E+06
 
    0.47294E-10        -0.68666E-09         0.00000E+00
   -0.68666E-09        -0.51150E+06         0.00000E+00
    0.00000E+00         0.00000E+00        -0.13240E+06
 
   -0.45111E-09        -0.86736E-09         0.00000E+00
   -0.86736E-09        -0.51150E+06         0.00000E+00
    0.00000E+00         0.00000E+00        -0.13240E+06
 
   -0.49295E-09        -0.43368E-09         0.00000E+00
   -0.43368E-09        -0.51150E+06         0.00000E+00
    0.00000E+00         0.00000E+00        -0.13240E+06
 
   -0.25466E-09        -0.93964E-09         0.00000E+00
   -0.93964E-09        -0.51150E+06         0.00000E+00
    0.00000E+00         0.00000E+00        -0.13240E+06
 
   -0.55843E-09         0.28912E-09         0.00000E+00
    0.28912E-09        -0.51150E+06         0.00000E+00
    0.00000E+00         0.00000E+00        -0.13240E+06
 
   -0.11041E-08        -0.72280E-10         0.00000E+00
   -0.72280E-10        -0.51150E+06         0.00000E+00
    0.00000E+00         0.00000E+00        -0.13240E+06
 
   -0.15534E-08        -0.14456E-09         0.00000E+00
   -0.14456E-09        -0.51150E+06         0.00000E+00
    0.00000E+00         0.00000E+00        -0.13240E+06
 
   -0.24920E-09        -0.72280E-10         0.00000E+00
   -0.72280E-10        -0.51150E+06         0.00000E+00
    0.00000E+00         0.00000E+00        -0.13240E+06
 
    0.63665E-09        -0.65052E-09         0.00000E+00
   -0.65052E-09        -0.51047E+06         0.00000E+00
    0.00000E+00         0.00000E+00        -0.13137E+06
 
    0.60390E-09         0.00000E+00         0.00000E+00
    0.00000E+00        -0.51047E+06         0.00000E+00
    0.00000E+00         0.00000E+00        -0.13137E+06
 
   -0.53842E-09        -0.14456E-09         0.00000E+00
   -0.14456E-09        -0.51047E+06         0.00000E+00
    0.00000E+00         0.00000E+00        -0.13137E+06
 
   -0.58571E-09         0.25298E-09         0.00000E+00
    0.25298E-09        -0.51047E+06         0.00000E+00
    0.00000E+00         0.00000E+00        -0.13137E+06
 
    0.78035E-09         0.93964E-09         0.00000E+00
    0.93964E-09        -0.51047E+06         0.00000E+00
    0.00000E+00         0.00000E+00        -0.13137E+06
 
   -0.38199E-09        -0.32526E-09         0.00000E+00
   -0.32526E-09        -0.51047E+06         0.00000E+00
    0.00000E+00         0.00000E+00        -0.13137E+06
 
    0.55843E-09         0.57824E-09         0.00000E+00
    0.57824E-09        -0.51047E+06         0.00000E+00
    0.00000E+00         0.00000E+00        -0.13137E+06
 
    0.66757E-09         0.18070E-09         0.00000E+00
    0.18070E-09        -0.51047E+06         0.00000E+00
    0.00000E+00         0.00000E+00        -0.13137E+06
 
   -0.25648E-09         0.25298E-09         0.00000E+00
    0.25298E-09        -0.51047E+06         0.00000E+00
    0.00000E+00         0.00000E+00        -0.13137E+06
 
    0.19645E-09        -0.18070E-09         0.00000E+00
   -0.18070E-09        -0.51047E+06         0.00000E+00
    0.00000E+00         0.00000E+00        -0.13137E+06
 
    0.29468E-09         0.21684E-09         0.00000E+00
    0.21684E-09        -0.51047E+06         0.00000E+00
    0.00000E+00         0.00000E+00        -0.13137E+06
 
    0.54024E-09        -0.36140E-09         0.00000E+00
   -0.36140E-09        -0.51047E+06         0.00000E+00
    0.00000E+00         0.00000E+00        -0.13137E+06
 
    0.80399E-09         0.36140E-09         0.00000E+00
    0.36140E-09        -0.51047E+06         0.00000E+00
    0.00000E+00         0.00000E+00        -0.13137E+06
 
    0.10550E-08         0.72280E-09         0.00000E+00
    0.72280E-09        -0.51047E+06         0.00000E+00
    0.00000E+00         0.00000E+00        -0.13137E+06
 
   -0.41837E-09         0.72280E-10         0.00000E+00
    0.72280E-10        -0.51047E+06         0.00000E+00
    0.00000E+00         0.00000E+00        -0.13137E+06
 
   -0.32924E-09         0.25298E-09         0.00000E+00
    0.25298E-09        -0.50942E+06         0.00000E+00
    0.00000E+00         0.00000E+00        -0.13032E+06
 
    0.86766E-09        -0.25298E-09         0.00000E+00
   -0.25298E-09        -0.50942E+06         0.00000E+00
    0.00000E+00         0.00000E+00        -0.13032E+06
 
    0.25466E-10        -0.14456E-09         0.00000E+00
   -0.14456E-09        -0.50942E+06         0.00000E+00
    0.00000E+00         0.00000E+00        -0.13032E+06
 
    0.45111E-09         0.61438E-09         0.00000E+00
    0.61438E-09        -0.50942E+06         0.00000E+00
    0.00000E+00         0.00000E+00        -0.13032E+06
 
    0.28213E-08         0.36140E-10         0.00000E+00
    0.36140E-10        -0.50942E+06         0.00000E+00
    0.00000E+00         0.00000E+00        -0.13032E+06
 
    0.28358E-08         0.72280E-10         0.00000E+00
    0.72280E-10        -0.50942E+06         0.00000E+00
    0.00000E+00         0.00000E+00        -0.13032E+06
 
    0.20882E-08        -0.14456E-09         0.00000E+00
   -0.14456E-09        -0.50942E+06         0.00000E+00
    0.00000E+00         0.00000E+00        -0.13032E+06
 
    0.10368E-08         0.50596E-09         0.00000E+00
    0.50596E-09        -0.50942E+06         0.00000E+00
    0.00000E+00         0.00000E+00        -0.13032E+06
 
   -0.17099E-09         0.00000E+00         0.00000E+00
    0.00000E+00        -0.50942E+06         0.00000E+00
    0.00000E+00         0.00000E+00        -0.13032E+06
 
    0.75852E-09         0.36140E-10         0.00000E+00
    0.36140E-10        -0.50942E+06         0.00000E+00
    0.00000E+00         0.00000E+00        -0.13032E+06
 
    0.96406E-10         0.72280E-09         0.00000E+00
    0.72280E-09        -0.50942E+06         0.00000E+00
    0.00000E+00         0.00000E+00        -0.13032E+06
 
   -0.24193E-09         0.21684E-09         0.00000E+00
    0.21684E-09        -0.50942E+06         0.00000E+00
    0.00000E+00         0.00000E+00        -0.13032E+06
 
   -0.19281E-09         0.00000E+00         0.00000E+00
    0.00000E+00        -0.50942E+06         0.00000E+00
    0.00000E+00         0.00000E+00        -0.13032E+06
 
   -0.31650E-09         0.14456E-09         0.00000E+00
    0.14456E-09        -0.50942E+06         0.00000E+00
    0.00000E+00         0.00000E+00        -0.13032E+06
 
    0.11460E-08        -0.65052E-09         0.00000E+00
   -0.65052E-09        -0.50942E+06         0.00000E+00
    0.00000E+00         0.00000E+00        -0.13032E+06
 
   -0.19245E-08        -0.28912E-09         0.00000E+00
   -0.28912E-09        -0.50836E+06         0.00000E+00
    0.00000E+00         0.00000E+00        -0.12926E+06
 
   -0.25102E-08         0.46982E-09         0.00000E+00
    0.46982E-09        -0.50836E+06         0.00000E+00
    0.00000E+00         0.00000E+00        -0.12926E+06
 
   -0.24593E-08         0.36140E-10         0.00000E+00
    0.36140E-10        -0.50836E+06         0.00000E+00
    0.00000E+00         0.00000E+00        -0.12926E+06
 
   -0.11205E-08         0.72280E-10         0.00000E+00
    0.72280E-10        -0.50836E+06         0.00000E+00
    0.00000E+00         0.00000E+00        -0.12926E+06
 
   -0.23938E-08        -0.39754E-09         0.00000E+00
   -0.39754E-09        -0.50836E+06         0.00000E+00
    0.00000E+00         0.00000E+00        -0.12926E+06
 
   -0.23483E-08        -0.18070E-09         0.00000E+00
   -0.18070E-09        -0.50836E+06         0.00000E+00
    0.00000E+00         0.00000E+00        -0.12926E+06
 
   -0.23701E-08        -0.10842E-09         0.00000E+00
   -0.10842E-09        -0.50836E+06         0.00000E+00
    0.00000E+00         0.00000E+00        -0.12926E+06
 
   -0.18135E-08         0.14456E-09         0.00000E+00
    0.14456E-09        -0.50836E+06         0.00000E+00
    0.00000E+00         0.00000E+00        -0.12926E+06
 
   -0.78217E-09         0.18070E-09         0.00000E+00
    0.18070E-09        -0.50836E+06         0.00000E+00
    0.00000E+00         0.00000E+00        -0.12926E+06
 
   -0.51114E-09        -0.32526E-09         0.00000E+00
   -0.32526E-09        -0.50836E+06         0.00000E+00
    0.00000E+00         0.00000E+00        -0.12926E+06
 
   -0.10932E-08         0.28912E-09         0.00000E+00
    0.28912E-09        -0.50836E+06         0.00000E+00
    0.00000E+00         0.00000E+00        -0.12926E+06
 
   -0.19609E-08         0.21684E-09         0.00000E+00
    0.21684E-09        -0.50836E+06         0.00000E+00
    0.00000E+00         0.00000E+00        -0.12926E+06
 
   -0.55479E-09        -0.43368E-09         0.00000E+00
   -0.43368E-09        -0.50836E+06         0.00000E+00
    0.00000E+00         0.00000E+00        -0.12926E+06
 
   -0.53478E-09         0.72280E-10         0.00000E+00
    0.72280E-10        -0.50836E+06         0.00000E+00
    0.00000E+00         0.00000E+00        -0.12926E+06
 
   -0.92768E-09        -0.57824E-09         0.00000E+00
   -0.57824E-09        -0.50836E+06         0.00000E+00
    0.00000E+00         0.00000E+00        -0.12926E+06
 
   -0.28740E-09        -0.10842E-08         0.00000E+00
   -0.10842E-08        -0.50728E+06         0.00000E+00
    0.00000E+00         0.00000E+00        -0.12818E+06
 
   -0.85311E-09         0.11565E-08         0.00000E+00
    0.11565E-08        -0.50728E+06         0.00000E+00
    0.00000E+00         0.00000E+00        -0.12818E+06
 
   -0.13260E-08        -0.32526E-09         0.00000E+00
   -0.32526E-09        -0.50728E+06         0.00000E+00
    0.00000E+00         0.00000E+00        -0.12818E+06
 
   -0.15934E-08         0.36140E-10         0.00000E+00
    0.36140E-10        -0.50728E+06         0.00000E+00
    0.00000E+00         0.00000E+00        -0.12818E+06
 
   -0.13551E-08        -0.18070E-09         0.00000E+00
   -0.18070E-09        -0.50728E+06         0.00000E+00
    0.00000E+00         0.00000E+00        -0.12818E+06
 
   -0.19554E-08        -0.32526E-09         0.00000E+00
   -0.32526E-09        -0.50728E+06         0.00000E+00
    0.00000E+00         0.00000E+00        -0.12818E+06
 
   -0.11387E-08        -0.32526E-09         0.00000E+00
   -0.32526E-09        -0.50728E+06         0.00000E+00
    0.00000E+00         0.00000E+00        -0.12818E+06
 
   -0.15116E-08         0.43368E-09         0.00000E+00
    0.43368E-09        -0.50728E+06         0.00000E+00
    0.00000E+00         0.00000E+00        -0.12818E+06
 
    0.71304E-09        -0.93964E-09         0.00000E+00
   -0.93964E-09        -0.50728E+06         0.00000E+00
    0.00000E+00         0.00000E+00        -0.12818E+06
 
    0.80763E-09         0.10842E-08         0.00000E+00
    0.10842E-08        -0.50728E+06         0.00000E+00
    0.00000E+00         0.00000E+00        -0.12818E+06
 
    0.56025E-09        -0.57824E-09         0.00000E+00
   -0.57824E-09        -0.50728E+06         0.00000E+00
    0.00000E+00         0.00000E+00        -0.12818E+06
 
    0.18954E-08        -0.21684E-09         0.00000E+00
   -0.21684E-09        -0.50728E+06         0.00000E+00
    0.00000E+00         0.00000E+00        -0.12818E+06
 
    0.50022E-09         0.72280E-09         0.00000E+00
    0.72280E-09        -0.50728E+06         0.00000E+00
    0.00000E+00         0.00000E+00        -0.12818E+06
 
   -0.85856E-09         0.86736E-09         0.00000E+00
    0.86736E-09        -0.50728E+06         0.00000E+00
    0.00000E+00         0.00000E+00        -0.12818E+06
 
   -0.16844E-08        -0.10842E-08         0.00000E+00
   -0.10842E-08        -0.50728E+06         0.00000E+00
    0.00000E+00         0.00000E+00        -0.12818E+06
 
   -0.43838E-09         0.14456E-09         0.00000E+00
    0.14456E-09        -0.50620E+06         0.00000E+00
    0.00000E+00         0.00000E+00        -0.12710E+06
 
    0.14606E-08         0.14456E-09         0.00000E+00
    0.14456E-09        -0.50620E+06         0.00000E+00
    0.00000E+00         0.00000E+00        -0.12710E+06
 
   -0.66939E-09         0.86736E-09         0.00000E+00
    0.86736E-09        -0.50620E+06         0.00000E+00
    0.00000E+00         0.00000E+00        -0.12710E+06
 
    0.16116E-08        -0.57824E-09         0.00000E+00
   -0.57824E-09        -0.50620E+06         0.00000E+00
    0.00000E+00         0.00000E+00        -0.12710E+06
 
    0.12187E-09         0.28912E-09         0.00000E+00
    0.28912E-09        -0.50620E+06         0.00000E+00
    0.00000E+00         0.00000E+00        -0.12710E+06
 
    0.10496E-08        -0.39754E-09         0.00000E+00
   -0.39754E-09        -0.50620E+06         0.00000E+00
    0.00000E+00         0.00000E+00        -0.12710E+06
 
    0.45839E-09        -0.28912E-09         0.00000E+00
   -0.28912E-09        -0.50620E+06         0.00000E+00
    0.00000E+00         0.00000E+00        -0.12710E+06
 
    0.19663E-08        -0.68666E-09         0.00000E+00
   -0.68666E-09        -0.50620E+06         0.00000E+00
    0.00000E+00         0.00000E+00        -0.12710E+06
 
    0.22919E-09        -0.32526E-09         0.00000E+00
   -0.32526E-09        -0.50620E+06         0.00000E+00
    0.00000E+00         0.00000E+00        -0.12710E+06
 
   -0.12205E-08         0.90350E-09         0.00000E+00
    0.90350E-09        -0.50620E+06         0.00000E+00
    0.00000E+00         0.00000E+00        -0.12710E+06
 
    0.34561E-09        -0.13010E-08         0.00000E+00
   -0.13010E-08        -0.50620E+06         0.00000E+00
    0.00000E+00         0.00000E+00        -0.12710E+06
 
   -0.17790E-08         0.11565E-08         0.00000E+00
    0.11565E-08        -0.50620E+06         0.00000E+00
    0.00000E+00         0.00000E+00        -0.12710E+06
 
    0.44020E-09         0.79508E-09         0.00000E+00
    0.79508E-09        -0.50620E+06         0.00000E+00
    0.00000E+00         0.00000E+00        -0.12710E+06
 
    0.13861E-08         0.21684E-09         0.00000E+00
    0.21684E-09        -0.50620E+06         0.00000E+00
    0.00000E+00         0.00000E+00        -0.12710E+06
 
    0.63665E-09        -0.65052E-09         0.00000E+00
   -0.65052E-09        -0.50620E+06         0.00000E+00
    0.00000E+00         0.00000E+00        -0.12710E+06
 
   -0.93496E-09        -0.57824E-09         0.00000E+00
   -0.57824E-09        -0.50510E+06         0.00000E+00
    0.00000E+00         0.00000E+00        -0.12600E+06
 
   -0.40200E-09         0.72280E-09         0.00000E+00
    0.72280E-09        -0.50510E+06         0.00000E+00
    0.00000E+00         0.00000E+00        -0.12600E+06
 
   -0.24011E-09        -0.83122E-09         0.00000E+00
   -0.83122E-09        -0.50510E+06         0.00000E+00
    0.00000E+00         0.00000E+00        -0.12600E+06
 
    0.17026E-08         0.61438E-09         0.00000E+00
    0.61438E-09        -0.50510E+06         0.00000E+00
    0.00000E+00         0.00000E+00        -0.12600E+06
 
    0.90222E-09         0.00000E+00         0.00000E+00
    0.00000E+00        -0.50510E+06         0.00000E+00
    0.00000E+00         0.00000E+00        -0.12600E+06
 
    0.14734E-08         0.10842E-09         0.00000E+00
    0.10842E-09        -0.50510E+06         0.00000E+00
    0.00000E+00         0.00000E+00        -0.12600E+06
 
    0.11132E-08        -0.36140E-10         0.00000E+00
   -0.36140E-10        -0.50510E+06         0.00000E+00
    0.00000E+00         0.00000E+00        -0.12600E+06
 
    0.12678E-08        -0.83122E-09         0.00000E+00
   -0.83122E-09        -0.50510E+06         0.00000E+00
    0.00000E+00         0.00000E+00        -0.12600E+06
 
    0.51659E-09         0.61438E-09         0.00000E+00
    0.61438E-09        -0.50510E+06         0.00000E+00
    0.00000E+00         0.00000E+00        -0.12600E+06
 
    0.11187E-08         0.72280E-10         0.00000E+00
    0.72280E-10        -0.50510E+06         0.00000E+00
    0.00000E+00         0.00000E+00        -0.12600E+06
 
   -0.51114E-09        -0.61438E-09         0.00000E+00
   -0.61438E-09        -0.50510E+06         0.00000E+00
    0.00000E+00         0.00000E+00        -0.12600E+06
 
    0.91859E-09         0.50596E-09         0.00000E+00
    0.50596E-09        -0.50510E+06         0.00000E+00
    0.00000E+00         0.00000E+00        -0.12600E+06
 
    0.84037E-09        -0.72280E-10         0.00000E+00
   -0.72280E-10        -0.50510E+06         0.00000E+00
    0.00000E+00         0.00000E+00        -0.12600E+06
 
    0.12260E-08         0.00000E+00         0.00000E+00
    0.00000E+00        -0.50510E+06         0.00000E+00
    0.00000E+00         0.00000E+00        -0.12600E+06
 
    0.15989E-08         0.21684E-09         0.00000E+00
    0.21684E-09        -0.50510E+06         0.00000E+00
    0.00000E+00         0.00000E+00        -0.12600E+06
 
    0.21919E-08        -0.28912E-09         0.00000E+00
   -0.28912E-09        -0.50399E+06         0.00000E+00
    0.00000E+00         0.00000E+00        -0.12489E+06
 
   -0.58571E-09        -0.10842E-09         0.00000E+00
   -0.10842E-09        -0.50399E+06         0.00000E+00
    0.00000E+00         0.00000E+00        -0.12489E+06
 
    0.34925E-09        -0.72280E-10         0.00000E+00
   -0.72280E-10        -0.50399E+06         0.00000E+00
    0.00000E+00         0.00000E+00        -0.12489E+06
 
   -0.27248E-08         0.32526E-09         0.00000E+00
    0.32526E-09        -0.50399E+06         0.00000E+00
    0.00000E+00         0.00000E+00        -0.12489E+06
 
   -0.25830E-08         0.21684E-09         0.00000E+00
    0.21684E-09        -0.50399E+06         0.00000E+00
    0.00000E+00         0.00000E+00        -0.12489E+06
 
   -0.13260E-08         0.36140E-09         0.00000E+00
    0.36140E-09        -0.50399E+06         0.00000E+00
    0.00000E+00         0.00000E+00        -0.12489E+06
 
   -0.12078E-08         0.21684E-09         0.00000E+00
    0.21684E-09        -0.50399E+06         0.00000E+00
    0.00000E+00         0.00000E+00        -0.12489E+06
 
   -0.17444E-08        -0.32526E-09         0.00000E+00
   -0.32526E-09        -0.50399E+06         0.00000E+00
    0.00000E+00         0.00000E+00        -0.12489E+06
 
   -0.18754E-08         0.25298E-09         0.00000E+00
    0.25298E-09        -0.50399E+06         0.00000E+00
    0.00000E+00         0.00000E+00        -0.12489E+06
 
   -0.19008E-08        -0.39754E-09         0.00000E+00
   -0.39754E-09        -0.50399E+06         0.00000E+00
    0.00000E+00         0.00000E+00        -0.12489E+06
 
   -0.39381E-08         0.14456E-09         0.00000E+00
    0.14456E-09        -0.50399E+06         0.00000E+00
    0.00000E+00         0.00000E+00        -0.12489E+06
 
   -0.14170E-08        -0.14456E-09         0.00000E+00
   -0.14456E-09        -0.50399E+06         0.00000E+00
    0.00000E+00         0.00000E+00        -0.12489E+06
 
   -0.32505E-08         0.14456E-09         0.00000E+00
    0.14456E-09        -0.50399E+06         0.00000E+00
    0.00000E+00         0.00000E+00        -0.12489E+06
 
   -0.28558E-08         0.72280E-10         0.00000E+00
    0.72280E-10        -0.50399E+06         0.00000E+00
    0.00000E+00         0.00000E+00        -0.12489E+06
 
   -0.85856E-09        -0.86736E-09         0.00000E+00
   -0.86736E-09        -0.50399E+06         0.00000E+00
    0.00000E+00         0.00000E+00        -0.12489E+06
 
    0.60209E-09         0.43368E-09         0.00000E+00
    0.43368E-09        -0.50287E+06         0.00000E+00
    0.00000E+00         0.00000E+00        -0.12376E+06
 
   -0.11296E-08         0.14456E-08         0.00000E+00
    0.14456E-08        -0.50287E+06         0.00000E+00
    0.00000E+00         0.00000E+00        -0.12376E+06
 
    0.23829E-09         0.14456E-09         0.00000E+00
    0.14456E-09        -0.50287E+06         0.00000E+00
    0.00000E+00         0.00000E+00        -0.12376E+06
 
    0.12169E-08         0.18070E-09         0.00000E+00
    0.18070E-09        -0.50287E+06         0.00000E+00
    0.00000E+00         0.00000E+00        -0.12376E+06
 
    0.13461E-08        -0.28912E-09         0.00000E+00
   -0.28912E-09        -0.50287E+06         0.00000E+00
    0.00000E+00         0.00000E+00        -0.12376E+06
 
    0.91677E-09        -0.25298E-09         0.00000E+00
   -0.25298E-09        -0.50287E+06         0.00000E+00
    0.00000E+00         0.00000E+00        -0.12376E+06
 
    0.14443E-08         0.10842E-09         0.00000E+00
    0.10842E-09        -0.50287E+06         0.00000E+00
    0.00000E+00         0.00000E+00        -0.12376E+06
 
    0.75852E-09         0.61438E-09         0.00000E+00
    0.61438E-09        -0.50287E+06         0.00000E+00
    0.00000E+00         0.00000E+00        -0.12376E+06
 
   -0.18190E-11        -0.57824E-09         0.00000E+00
   -0.57824E-09        -0.50287E+06         0.00000E+00
    0.00000E+00         0.00000E+00        -0.12376E+06
 
    0.36380E-09        -0.18070E-09         0.00000E+00
   -0.18070E-09        -0.50287E+06         0.00000E+00
    0.00000E+00         0.00000E+00        -0.12376E+06
 
    0.11223E-08        -0.43368E-09         0.00000E+00
   -0.43368E-09        -0.50287E+06         0.00000E+00
    0.00000E+00         0.00000E+00        -0.12376E+06
 
   -0.15461E-09         0.28912E-09         0.00000E+00
    0.28912E-09        -0.50287E+06         0.00000E+00
    0.00000E+00         0.00000E+00        -0.12376E+06
 
    0.12824E-08         0.00000E+00         0.00000E+00
    0.00000E+00        -0.50287E+06         0.00000E+00
    0.00000E+00         0.00000E+00        -0.12376E+06
 
    0.13242E-08        -0.21684E-09         0.00000E+00
   -0.21684E-09        -0.50287E+06         0.00000E+00
    0.00000E+00         0.00000E+00        -0.12376E+06
 
    0.69485E-09        -0.43368E-09         0.00000E+00
   -0.43368E-09        -0.50287E+06         0.00000E+00
    0.00000E+00         0.00000E+00        -0.12376E+06
 
    0.17826E-09        -0.21684E-09         0.00000E+00
   -0.21684E-09        -0.50173E+06         0.00000E+00
    0.00000E+00         0.00000E+00        -0.12263E+06
 
    0.19718E-08         0.25298E-09         0.00000E+00
    0.25298E-09        -0.50173E+06         0.00000E+00
    0.00000E+00         0.00000E+00        -0.12263E+06
 
    0.74215E-09        -0.11926E-08         0.00000E+00
   -0.11926E-08        -0.50173E+06         0.00000E+00
    0.00000E+00         0.00000E+00        -0.12263E+06
 
   -0.62391E-09         0.18070E-09         0.00000E+00
    0.18070E-09        -0.50173E+06         0.00000E+00
    0.00000E+00         0.00000E+00        -0.12263E+06
 
   -0.14552E-09         0.72280E-10         0.00000E+00
    0.72280E-10        -0.50173E+06         0.00000E+00
    0.00000E+00         0.00000E+00        -0.12263E+06
 
   -0.24193E-09        -0.28912E-09         0.00000E+00
   -0.28912E-09        -0.50173E+06         0.00000E+00
    0.00000E+00         0.00000E+00        -0.12263E+06
 
    0.21282E-09         0.14456E-09         0.00000E+00
    0.14456E-09        -0.50173E+06         0.00000E+00
    0.00000E+00         0.00000E+00        -0.12263E+06
 
   -0.28558E-09        -0.36140E-10         0.00000E+00
   -0.36140E-10        -0.50173E+06         0.00000E+00
    0.00000E+00         0.00000E+00        -0.12263E+06
 
   -0.90222E-09         0.32526E-09         0.00000E+00
    0.32526E-09        -0.50173E+06         0.00000E+00
    0.00000E+00         0.00000E+00        -0.12263E+06
 
   -0.46930E-09        -0.72280E-10         0.00000E+00
   -0.72280E-10        -0.50173E+06         0.00000E+00
    0.00000E+00         0.00000E+00        -0.12263E+06
 
    0.50750E-09        -0.72280E-10         0.00000E+00
   -0.72280E-10        -0.50173E+06         0.00000E+00
    0.00000E+00         0.00000E+00        -0.12263E+06
 
   -0.76398E-10         0.00000E+00         0.00000E+00
    0.00000E+00        -0.50173E+06         0.00000E+00
    0.00000E+00         0.00000E+00        -0.12263E+06
 
    0.70031E-09        -0.21684E-09         0.00000E+00
   -0.21684E-09        -0.50173E+06         0.00000E+00
    0.00000E+00         0.00000E+00        -0.12263E+06
 
    0.85311E-09        -0.10119E-08         0.00000E+00
   -0.10119E-08        -0.50173E+06         0.00000E+00
    0.00000E+00         0.00000E+00        -0.12263E+06
 
    0.17153E-08        -0.72280E-10         0.00000E+00
   -0.72280E-10        -0.50173E+06         0.00000E+00
    0.00000E+00         0.00000E+00        -0.12263E+06
 
   -0.80763E-09         0.21684E-09         0.00000E+00
    0.21684E-09        -0.50059E+06         0.00000E+00
    0.00000E+00         0.00000E+00        -0.12149E+06
 
   -0.30013E-09        -0.10842E-09         0.00000E+00
   -0.10842E-09        -0.50059E+06         0.00000E+00
    0.00000E+00         0.00000E+00        -0.12149E+06
 
   -0.93860E-09        -0.10842E-09         0.00000E+00
   -0.10842E-09        -0.50059E+06         0.00000E+00
    0.00000E+00         0.00000E+00        -0.12149E+06
 
    0.12369E-09        -0.36140E-09         0.00000E+00
   -0.36140E-09        -0.50059E+06         0.00000E+00
    0.00000E+00         0.00000E+00        -0.12149E+06
 
    0.13824E-09        -0.14456E-09         0.00000E+00
   -0.14456E-09        -0.50059E+06         0.00000E+00
    0.00000E+00         0.00000E+00        -0.12149E+06
 
   -0.15098E-09        -0.25298E-09         0.00000E+00
   -0.25298E-09        -0.50059E+06         0.00000E+00
    0.00000E+00         0.00000E+00        -0.12149E+06
 
   -0.13515E-08        -0.18070E-09         0.00000E+00
   -0.18070E-09        -0.50059E+06         0.00000E+00
    0.00000E+00         0.00000E+00        -0.12149E+06
 
   -0.10732E-08        -0.10842E-09         0.00000E+00
   -0.10842E-09        -0.50059E+06         0.00000E+00
    0.00000E+00         0.00000E+00        -0.12149E+06
 
   -0.22555E-09         0.00000E+00         0.00000E+00
    0.00000E+00        -0.50059E+06         0.00000E+00
    0.00000E+00         0.00000E+00        -0.12149E+06
 
    0.50750E-09        -0.21684E-09         0.00000E+00
   -0.21684E-09        -0.50059E+06         0.00000E+00
    0.00000E+00         0.00000E+00        -0.12149E+06
 
   -0.13024E-08         0.12288E-08         0.00000E+00
    0.12288E-08        -0.50059E+06         0.00000E+00
    0.00000E+00         0.00000E+00        -0.12149E+06
 
   -0.48567E-09         0.72280E-10         0.00000E+00
    0.72280E-10        -0.50059E+06         0.00000E+00
    0.00000E+00         0.00000E+00        -0.12149E+06
 
    0.23829E-09        -0.28912E-09         0.00000E+00
   -0.28912E-09        -0.50059E+06         0.00000E+00
    0.00000E+00         0.00000E+00        -0.12149E+06
 
   -0.24229E-08        -0.43368E-09         0.00000E+00
   -0.43368E-09        -0.50059E+06         0.00000E+00
    0.00000E+00         0.00000E+00        -0.12149E+06
 
   -0.34051E-08        -0.14456E-09         0.00000E+00
   -0.14456E-09        -0.50059E+06         0.00000E+00
    0.00000E+00         0.00000E+00        -0.12149E+06
 
   -0.23101E-09        -0.20961E-08         0.00000E+00
   -0.20961E-08        -0.49943E+06         0.00000E+00
    0.00000E+00         0.00000E+00        -0.12033E+06
 
    0.44747E-09         0.90350E-09         0.00000E+00
    0.90350E-09        -0.49943E+06         0.00000E+00
    0.00000E+00         0.00000E+00        -0.12033E+06
 
   -0.79672E-09         0.14456E-09         0.00000E+00
    0.14456E-09        -0.49943E+06         0.00000E+00
    0.00000E+00         0.00000E+00        -0.12033E+06
 
   -0.93132E-09        -0.18070E-09         0.00000E+00
   -0.18070E-09        -0.49943E+06         0.00000E+00
    0.00000E+00         0.00000E+00        -0.12033E+06
 
   -0.18263E-08        -0.18070E-09         0.00000E+00
   -0.18070E-09        -0.49943E+06         0.00000E+00
    0.00000E+00         0.00000E+00        -0.12033E+06
 
   -0.15953E-08        -0.14456E-09         0.00000E+00
   -0.14456E-09        -0.49943E+06         0.00000E+00
    0.00000E+00         0.00000E+00        -0.12033E+06
 
   -0.47658E-09         0.14456E-09         0.00000E+00
    0.14456E-09        -0.49943E+06         0.00000E+00
    0.00000E+00         0.00000E+00        -0.12033E+06
 
   -0.42382E-09        -0.72280E-10         0.00000E+00
   -0.72280E-10        -0.49943E+06         0.00000E+00
    0.00000E+00         0.00000E+00        -0.12033E+06
 
    0.26557E-09         0.43368E-09         0.00000E+00
    0.43368E-09        -0.49943E+06         0.00000E+00
    0.00000E+00         0.00000E+00        -0.12033E+06
 
    0.49113E-09        -0.28912E-09         0.00000E+00
   -0.28912E-09        -0.49943E+06         0.00000E+00
    0.00000E+00         0.00000E+00        -0.12033E+06
 
   -0.60936E-09         0.14456E-09         0.00000E+00
    0.14456E-09        -0.49943E+06         0.00000E+00
    0.00000E+00         0.00000E+00        -0.12033E+06
 
    0.54752E-09         0.14456E-09         0.00000E+00
    0.14456E-09        -0.49943E+06         0.00000E+00
    0.00000E+00         0.00000E+00        -0.12033E+06
 
   -0.11587E-08         0.14456E-09         0.00000E+00
    0.14456E-09        -0.49943E+06         0.00000E+00
    0.00000E+00         0.00000E+00        -0.12033E+06
 
   -0.32924E-09         0.65052E-09         0.00000E+00
    0.65052E-09        -0.49943E+06         0.00000E+00
    0.00000E+00         0.00000E+00        -0.12033E+06
 
    0.23829E-08        -0.13733E-08         0.00000E+00
   -0.13733E-08        -0.49943E+06         0.00000E+00
    0.00000E+00         0.00000E+00        -0.12033E+06
 
   -0.19008E-09        -0.57824E-09         0.00000E+00
   -0.57824E-09        -0.49827E+06         0.00000E+00
    0.00000E+00         0.00000E+00        -0.11917E+06
 
    0.20154E-08         0.10119E-08         0.00000E+00
    0.10119E-08        -0.49827E+06         0.00000E+00
    0.00000E+00         0.00000E+00        -0.11917E+06
 
    0.57662E-09         0.43368E-09         0.00000E+00
    0.43368E-09        -0.49827E+06         0.00000E+00
    0.00000E+00         0.00000E+00        -0.11917E+06
 
    0.14379E-08         0.68666E-09         0.00000E+00
    0.68666E-09        -0.49827E+06         0.00000E+00
    0.00000E+00         0.00000E+00        -0.11917E+06
 
    0.14688E-08         0.10481E-08         0.00000E+00
    0.10481E-08        -0.49827E+06         0.00000E+00
    0.00000E+00         0.00000E+00        -0.11917E+06
 
    0.26748E-08        -0.18070E-09         0.00000E+00
   -0.18070E-09        -0.49827E+06         0.00000E+00
    0.00000E+00         0.00000E+00        -0.11917E+06
 
    0.16644E-08         0.25298E-09         0.00000E+00
    0.25298E-09        -0.49827E+06         0.00000E+00
    0.00000E+00         0.00000E+00        -0.11917E+06
 
    0.80308E-09         0.61438E-09         0.00000E+00
    0.61438E-09        -0.49827E+06         0.00000E+00
    0.00000E+00         0.00000E+00        -0.11917E+06
 
    0.75488E-10        -0.10842E-08         0.00000E+00
   -0.10842E-08        -0.49827E+06         0.00000E+00
    0.00000E+00         0.00000E+00        -0.11917E+06
 
    0.43656E-10        -0.21684E-09         0.00000E+00
   -0.21684E-09        -0.49827E+06         0.00000E+00
    0.00000E+00         0.00000E+00        -0.11917E+06
 
    0.10095E-09        -0.21684E-09         0.00000E+00
   -0.21684E-09        -0.49827E+06         0.00000E+00
    0.00000E+00         0.00000E+00        -0.11917E+06
 
   -0.19190E-09         0.13733E-08         0.00000E+00
    0.13733E-08        -0.49827E+06         0.00000E+00
    0.00000E+00         0.00000E+00        -0.11917E+06
 
   -0.85674E-09         0.50596E-09         0.00000E+00
    0.50596E-09        -0.49827E+06         0.00000E+00
    0.00000E+00         0.00000E+00        -0.11917E+06
 
   -0.11187E-09        -0.36140E-09         0.00000E+00
   -0.36140E-09        -0.49827E+06         0.00000E+00
    0.00000E+00         0.00000E+00        -0.11917E+06
 
   -0.76125E-09         0.72280E-10         0.00000E+00
    0.72280E-10        -0.49827E+06         0.00000E+00
    0.00000E+00         0.00000E+00        -0.11917E+06
 
    0.89040E-09         0.57824E-09         0.00000E+00
    0.57824E-09        -0.49709E+06         0.00000E+00
    0.00000E+00         0.00000E+00        -0.11799E+06
 
   -0.30541E-08        -0.14456E-09         0.00000E+00
   -0.14456E-09        -0.49709E+06         0.00000E+00
    0.00000E+00         0.00000E+00        -0.11799E+06
 
   -0.17353E-08         0.79508E-09         0.00000E+00
    0.79508E-09        -0.49709E+06         0.00000E+00
    0.00000E+00         0.00000E+00        -0.11799E+06
 
   -0.23647E-10        -0.36140E-10         0.00000E+00
   -0.36140E-10        -0.49709E+06         0.00000E+00
    0.00000E+00         0.00000E+00        -0.11799E+06
 
    0.56207E-09         0.50596E-09         0.00000E+00
    0.50596E-09        -0.49709E+06         0.00000E+00
    0.00000E+00         0.00000E+00        -0.11799E+06
 
   -0.14461E-08        -0.68666E-09         0.00000E+00
   -0.68666E-09        -0.49709E+06         0.00000E+00
    0.00000E+00         0.00000E+00        -0.11799E+06
 
   -0.18217E-08        -0.14456E-09         0.00000E+00
   -0.14456E-09        -0.49709E+06         0.00000E+00
    0.00000E+00         0.00000E+00        -0.11799E+06
 
   -0.43110E-09         0.93964E-09         0.00000E+00
    0.93964E-09        -0.49709E+06         0.00000E+00
    0.00000E+00         0.00000E+00        -0.11799E+06
 
   -0.36380E-11        -0.54210E-09         0.00000E+00
   -0.54210E-09        -0.49709E+06         0.00000E+00
    0.00000E+00         0.00000E+00        -0.11799E+06
 
    0.13461E-09         0.14456E-08         0.00000E+00
    0.14456E-08        -0.49709E+06         0.00000E+00
    0.00000E+00         0.00000E+00        -0.11799E+06
 
    0.16189E-09        -0.16624E-08         0.00000E+00
   -0.16624E-08        -0.49709E+06         0.00000E+00
    0.00000E+00         0.00000E+00        -0.11799E+06
 
   -0.37289E-10         0.20961E-08         0.00000E+00
    0.20961E-08        -0.49709E+06         0.00000E+00
    0.00000E+00         0.00000E+00        -0.11799E+06
 
   -0.17917E-09        -0.57824E-09         0.00000E+00
   -0.57824E-09        -0.49709E+06         0.00000E+00
    0.00000E+00         0.00000E+00        -0.11799E+06
 
   -0.63119E-09         0.57824E-09         0.00000E+00
    0.57824E-09        -0.49709E+06         0.00000E+00
    0.00000E+00         0.00000E+00        -0.11799E+06
 
   -0.11087E-08        -0.72280E-10         0.00000E+00
   -0.72280E-10        -0.49709E+06         0.00000E+00
    0.00000E+00         0.00000E+00        -0.11799E+06
 
   -0.10441E-08         0.36140E-09         0.00000E+00
    0.36140E-09        -0.49591E+06         0.00000E+00
    0.00000E+00         0.00000E+00        -0.11681E+06
 
    0.52933E-09         0.57824E-09         0.00000E+00
    0.57824E-09        -0.49591E+06         0.00000E+00
    0.00000E+00         0.00000E+00        -0.11681E+06
 
    0.13433E-08         0.79508E-09         0.00000E+00
    0.79508E-09        -0.49591E+06         0.00000E+00
    0.00000E+00         0.00000E+00        -0.11681E+06
 
   -0.10641E-09        -0.72280E-09         0.00000E+00
   -0.72280E-09        -0.49591E+06         0.00000E+00
    0.00000E+00         0.00000E+00        -0.11681E+06
 
   -0.92678E-09         0.83122E-09         0.00000E+00
    0.83122E-09        -0.49591E+06         0.00000E+00
    0.00000E+00         0.00000E+00        -0.11681E+06
 
    0.16344E-08         0.21684E-09         0.00000E+00
    0.21684E-09        -0.49591E+06         0.00000E+00
    0.00000E+00         0.00000E+00        -0.11681E+06
 
    0.77307E-09        -0.50596E-09         0.00000E+00
   -0.50596E-09        -0.49591E+06         0.00000E+00
    0.00000E+00         0.00000E+00        -0.11681E+06
 
    0.15561E-08        -0.61438E-09         0.00000E+00
   -0.61438E-09        -0.49591E+06         0.00000E+00
    0.00000E+00         0.00000E+00        -0.11681E+06
 
    0.29104E-09        -0.10842E-08         0.00000E+00
   -0.10842E-08        -0.49591E+06         0.00000E+00
    0.00000E+00         0.00000E+00        -0.11681E+06
 
   -0.16280E-08         0.28912E-09         0.00000E+00
    0.28912E-09        -0.49591E+06         0.00000E+00
    0.00000E+00         0.00000E+00        -0.11681E+06
 
   -0.17162E-08        -0.17347E-08         0.00000E+00
   -0.17347E-08        -0.49591E+06         0.00000E+00
    0.00000E+00         0.00000E+00        -0.11681E+06
 
   -0.10523E-08        -0.72280E-09         0.00000E+00
   -0.72280E-09        -0.49591E+06         0.00000E+00
    0.00000E+00         0.00000E+00        -0.11681E+06
 
    0.78489E-09        -0.36140E-09         0.00000E+00
   -0.36140E-09        -0.49591E+06         0.00000E+00
    0.00000E+00         0.00000E+00        -0.11681E+06
 
   -0.95952E-09         0.00000E+00         0.00000E+00
    0.00000E+00        -0.49591E+06         0.00000E+00
    0.00000E+00         0.00000E+00        -0.11681E+06
 
   -0.12014E-08         0.00000E+00         0.00000E+00
    0.00000E+00        -0.49591E+06         0.00000E+00
    0.00000E+00         0.00000E+00        -0.11681E+06
 
   -0.27376E-09        -0.65052E-09         0.00000E+00
   -0.65052E-09        -0.49471E+06         0.00000E+00
    0.00000E+00         0.00000E+00        -0.11561E+06
 
    0.72396E-09        -0.21684E-09         0.00000E+00
   -0.21684E-09        -0.49471E+06         0.00000E+00
    0.00000E+00         0.00000E+00        -0.11561E+06
 
   -0.15507E-08         0.10119E-08         0.00000E+00
    0.10119E-08        -0.49471E+06         0.00000E+00
    0.00000E+00         0.00000E+00        -0.11561E+06
 
   -0.26030E-08        -0.14456E-08         0.00000E+00
   -0.14456E-08        -0.49471E+06         0.00000E+00
    0.00000E+00         0.00000E+00        -0.11561E+06
 
   -0.11050E-08         0.28912E-09         0.00000E+00
    0.28912E-09        -0.49471E+06         0.00000E+00
    0.00000E+00         0.00000E+00        -0.11561E+06
 
    0.39199E-09         0.72280E-10         0.00000E+00
    0.72280E-10        -0.49471E+06         0.00000E+00
    0.00000E+00         0.00000E+00        -0.11561E+06
 
   -0.40563E-09         0.36140E-09         0.00000E+00
    0.36140E-09        -0.49471E+06         0.00000E+00
    0.00000E+00         0.00000E+00        -0.11561E+06
 
   -0.14334E-08         0.93964E-09         0.00000E+00
    0.93964E-09        -0.49471E+06         0.00000E+00
    0.00000E+00         0.00000E+00        -0.11561E+06
 
    0.12160E-08         0.43368E-09         0.00000E+00
    0.43368E-09        -0.49471E+06         0.00000E+00
    0.00000E+00         0.00000E+00        -0.11561E+06
 
    0.14034E-08        -0.10842E-08         0.00000E+00
   -0.10842E-08        -0.49471E+06         0.00000E+00
    0.00000E+00         0.00000E+00        -0.11561E+06
 
   -0.67303E-10         0.14456E-08         0.00000E+00
    0.14456E-08        -0.49471E+06         0.00000E+00
    0.00000E+00         0.00000E+00        -0.11561E+06
 
   -0.16462E-09         0.72280E-10         0.00000E+00
    0.72280E-10        -0.49471E+06         0.00000E+00
    0.00000E+00         0.00000E+00        -0.11561E+06
 
    0.12005E-08         0.86736E-09         0.00000E+00
    0.86736E-09        -0.49471E+06         0.00000E+00
    0.00000E+00         0.00000E+00        -0.11561E+06
 
   -0.10032E-08        -0.43368E-09         0.00000E+00
   -0.43368E-09        -0.49471E+06         0.00000E+00
    0.00000E+00         0.00000E+00        -0.11561E+06
 
   -0.27285E-11         0.36140E-09         0.00000E+00
    0.36140E-09        -0.49471E+06         0.00000E+00
    0.00000E+00         0.00000E+00        -0.11561E+06
 
    0.34925E-09        -0.21684E-09         0.00000E+00
   -0.21684E-09        -0.49351E+06         0.00000E+00
    0.00000E+00         0.00000E+00        -0.11441E+06
 
    0.41200E-09         0.10842E-08         0.00000E+00
    0.10842E-08        -0.49351E+06         0.00000E+00
    0.00000E+00         0.00000E+00        -0.11441E+06
 
    0.40109E-09         0.57824E-09         0.00000E+00
    0.57824E-09        -0.49351E+06         0.00000E+00
    0.00000E+00         0.00000E+00        -0.11441E+06
 
    0.11623E-08        -0.11565E-08         0.00000E+00
   -0.11565E-08        -0.49351E+06         0.00000E+00
    0.00000E+00         0.00000E+00        -0.11441E+06
 
    0.27921E-09         0.21684E-09         0.00000E+00
    0.21684E-09        -0.49351E+06         0.00000E+00
    0.00000E+00         0.00000E+00        -0.11441E+06
 
    0.19108E-08        -0.28912E-09         0.00000E+00
   -0.28912E-09        -0.49351E+06         0.00000E+00
    0.00000E+00         0.00000E+00        -0.11441E+06
 
    0.21646E-09         0.11203E-08         0.00000E+00
    0.11203E-08        -0.49351E+06         0.00000E+00
    0.00000E+00         0.00000E+00        -0.11441E+06
 
   -0.12133E-08        -0.43368E-09         0.00000E+00
   -0.43368E-09        -0.49351E+06         0.00000E+00
    0.00000E+00         0.00000E+00        -0.11441E+06
 
    0.94587E-09        -0.43368E-09         0.00000E+00
   -0.43368E-09        -0.49351E+06         0.00000E+00
    0.00000E+00         0.00000E+00        -0.11441E+06
 
    0.62755E-09        -0.20961E-08         0.00000E+00
   -0.20961E-08        -0.49351E+06         0.00000E+00
    0.00000E+00         0.00000E+00        -0.11441E+06
 
   -0.61846E-09         0.14456E-08         0.00000E+00
    0.14456E-08        -0.49351E+06         0.00000E+00
    0.00000E+00         0.00000E+00        -0.11441E+06
 
   -0.48840E-09         0.36140E-09         0.00000E+00
    0.36140E-09        -0.49351E+06         0.00000E+00
    0.00000E+00         0.00000E+00        -0.11441E+06
 
   -0.38563E-09        -0.72280E-09         0.00000E+00
   -0.72280E-09        -0.49351E+06         0.00000E+00
    0.00000E+00         0.00000E+00        -0.11441E+06
 
   -0.59299E-09         0.50596E-09         0.00000E+00
    0.50596E-09        -0.49351E+06         0.00000E+00
    0.00000E+00         0.00000E+00        -0.11441E+06
 
   -0.75852E-09        -0.36140E-09         0.00000E+00
   -0.36140E-09        -0.49351E+06         0.00000E+00
    0.00000E+00         0.00000E+00        -0.11441E+06
 
   -0.68849E-09         0.10842E-08         0.00000E+00
    0.10842E-08        -0.49229E+06         0.00000E+00
    0.00000E+00         0.00000E+00        -0.11319E+06
 
   -0.74760E-09         0.11565E-08         0.00000E+00
    0.11565E-08        -0.49229E+06         0.00000E+00
    0.00000E+00         0.00000E+00        -0.11319E+06
 
    0.93405E-09        -0.15540E-08         0.00000E+00
   -0.15540E-08        -0.49229E+06         0.00000E+00
    0.00000E+00         0.00000E+00        -0.11319E+06
 
    0.24738E-09        -0.14456E-09         0.00000E+00
   -0.14456E-09        -0.49229E+06         0.00000E+00
    0.00000E+00         0.00000E+00        -0.11319E+06
 
   -0.40382E-09         0.36140E-10         0.00000E+00
    0.36140E-10        -0.49229E+06         0.00000E+00
    0.00000E+00         0.00000E+00        -0.11319E+06
 
   -0.16162E-08        -0.72280E-09         0.00000E+00
   -0.72280E-09        -0.49229E+06         0.00000E+00
    0.00000E+00         0.00000E+00        -0.11319E+06
 
    0.12733E-08         0.23130E-08         0.00000E+00
    0.23130E-08        -0.49229E+06         0.00000E+00
    0.00000E+00         0.00000E+00        -0.11319E+06
 
    0.76307E-09         0.72280E-10         0.00000E+00
    0.72280E-10        -0.49229E+06         0.00000E+00
    0.00000E+00         0.00000E+00        -0.11319E+06
 
    0.14006E-09        -0.13010E-08         0.00000E+00
   -0.13010E-08        -0.49229E+06         0.00000E+00
    0.00000E+00         0.00000E+00        -0.11319E+06
 
   -0.55388E-09         0.14456E-09         0.00000E+00
    0.14456E-09        -0.49229E+06         0.00000E+00
    0.00000E+00         0.00000E+00        -0.11319E+06
 
   -0.28649E-09         0.28912E-09         0.00000E+00
    0.28912E-09        -0.49229E+06         0.00000E+00
    0.00000E+00         0.00000E+00        -0.11319E+06
 
    0.54661E-09        -0.36140E-09         0.00000E+00
   -0.36140E-09        -0.49229E+06         0.00000E+00
    0.00000E+00         0.00000E+00        -0.11319E+06
 
   -0.53024E-09        -0.65052E-09         0.00000E+00
   -0.65052E-09        -0.49229E+06         0.00000E+00
    0.00000E+00         0.00000E+00        -0.11319E+06
 
   -0.12878E-08         0.36140E-09         0.00000E+00
    0.36140E-09        -0.49229E+06         0.00000E+00
    0.00000E+00         0.00000E+00        -0.11319E+06
 
   -0.85856E-09         0.00000E+00         0.00000E+00
    0.00000E+00        -0.49229E+06         0.00000E+00
    0.00000E+00         0.00000E+00        -0.11319E+06
 
   -0.34261E-08         0.14456E-09         0.00000E+00
    0.14456E-09        -0.49107E+06         0.00000E+00
    0.00000E+00         0.00000E+00        -0.11197E+06
 
    0.11687E-08         0.61438E-09         0.00000E+00
    0.61438E-09        -0.49107E+06         0.00000E+00
    0.00000E+00         0.00000E+00        -0.11197E+06
 
    0.18181E-08        -0.61438E-09         0.00000E+00
   -0.61438E-09        -0.49107E+06         0.00000E+00
    0.00000E+00         0.00000E+00        -0.11197E+06
 
    0.23974E-08         0.75894E-09         0.00000E+00
    0.75894E-09        -0.49107E+06         0.00000E+00
    0.00000E+00         0.00000E+00        -0.11197E+06
 
    0.27803E-08         0.68666E-09         0.00000E+00
    0.68666E-09        -0.49107E+06         0.00000E+00
    0.00000E+00         0.00000E+00        -0.11197E+06
 
   -0.23583E-08        -0.21684E-09         0.00000E+00
   -0.21684E-09        -0.49107E+06         0.00000E+00
    0.00000E+00         0.00000E+00        -0.11197E+06
 
   -0.21046E-08         0.79508E-09         0.00000E+00
    0.79508E-09        -0.49107E+06         0.00000E+00
    0.00000E+00         0.00000E+00        -0.11197E+06
 
    0.46839E-09        -0.25298E-09         0.00000E+00
   -0.25298E-09        -0.49107E+06         0.00000E+00
    0.00000E+00         0.00000E+00        -0.11197E+06
 
   -0.98498E-09        -0.65052E-09         0.00000E+00
   -0.65052E-09        -0.49107E+06         0.00000E+00
    0.00000E+00         0.00000E+00        -0.11197E+06
 
   -0.99135E-10         0.14456E-08         0.00000E+00
    0.14456E-08        -0.49107E+06         0.00000E+00
    0.00000E+00         0.00000E+00        -0.11197E+06
 
    0.54570E-09        -0.57824E-09         0.00000E+00
   -0.57824E-09        -0.49107E+06         0.00000E+00
    0.00000E+00         0.00000E+00        -0.11197E+06
 
    0.31923E-08         0.43368E-09         0.00000E+00
    0.43368E-09        -0.49107E+06         0.00000E+00
    0.00000E+00         0.00000E+00        -0.11197E+06
 
    0.16007E-08         0.72280E-09         0.00000E+00
    0.72280E-09        -0.49107E+06         0.00000E+00
    0.00000E+00         0.00000E+00        -0.11197E+06
 
   -0.60027E-09        -0.28912E-09         0.00000E+00
   -0.28912E-09        -0.49107E+06         0.00000E+00
    0.00000E+00         0.00000E+00        -0.11197E+06
 
   -0.58481E-09         0.00000E+00         0.00000E+00
    0.00000E+00        -0.49107E+06         0.00000E+00
    0.00000E+00         0.00000E+00        -0.11197E+06
 
    0.90131E-09        -0.57824E-09         0.00000E+00
   -0.57824E-09        -0.48984E+06         0.00000E+00
    0.00000E+00         0.00000E+00        -0.11074E+06
 
    0.80399E-09        -0.72280E-09         0.00000E+00
   -0.72280E-09        -0.48984E+06         0.00000E+00
    0.00000E+00         0.00000E+00        -0.11074E+06
 
   -0.12706E-08         0.57824E-09         0.00000E+00
    0.57824E-09        -0.48984E+06         0.00000E+00
    0.00000E+00         0.00000E+00        -0.11074E+06
 
   -0.14079E-08        -0.18070E-09         0.00000E+00
   -0.18070E-09        -0.48984E+06         0.00000E+00
    0.00000E+00         0.00000E+00        -0.11074E+06
 
   -0.11196E-08         0.11926E-08         0.00000E+00
    0.11926E-08        -0.48984E+06         0.00000E+00
    0.00000E+00         0.00000E+00        -0.11074E+06
 
   -0.10023E-08        -0.54210E-09         0.00000E+00
   -0.54210E-09        -0.48984E+06         0.00000E+00
    0.00000E+00         0.00000E+00        -0.11074E+06
 
    0.14188E-08         0.00000E+00         0.00000E+00
    0.00000E+00        -0.48984E+06         0.00000E+00
    0.00000E+00         0.00000E+00        -0.11074E+06
 
    0.11496E-08        -0.50596E-09         0.00000E+00
   -0.50596E-09        -0.48984E+06         0.00000E+00
    0.00000E+00         0.00000E+00        -0.11074E+06
 
    0.36471E-09        -0.11565E-08         0.00000E+00
   -0.11565E-08        -0.48984E+06         0.00000E+00
    0.00000E+00         0.00000E+00        -0.11074E+06
 
    0.18226E-08         0.79508E-09         0.00000E+00
    0.79508E-09        -0.48984E+06         0.00000E+00
    0.00000E+00         0.00000E+00        -0.11074E+06
 
    0.57025E-09        -0.43368E-09         0.00000E+00
   -0.43368E-09        -0.48984E+06         0.00000E+00
    0.00000E+00         0.00000E+00        -0.11074E+06
 
   -0.15762E-08         0.86736E-09         0.00000E+00
    0.86736E-09        -0.48984E+06         0.00000E+00
    0.00000E+00         0.00000E+00        -0.11074E+06
 
   -0.14088E-08         0.65052E-09         0.00000E+00
    0.65052E-09        -0.48984E+06         0.00000E+00
    0.00000E+00         0.00000E+00        -0.11074E+06
 
    0.93496E-09         0.21684E-09         0.00000E+00
    0.21684E-09        -0.48984E+06         0.00000E+00
    0.00000E+00         0.00000E+00        -0.11074E+06
 
    0.39927E-09         0.00000E+00         0.00000E+00
    0.00000E+00        -0.48984E+06         0.00000E+00
    0.00000E+00         0.00000E+00        -0.11074E+06
 
    0.14179E-08        -0.57824E-09         0.00000E+00
   -0.57824E-09        -0.48860E+06         0.00000E+00
    0.00000E+00         0.00000E+00        -0.10950E+06
 
   -0.64028E-09        -0.90350E-09         0.00000E+00
   -0.90350E-09        -0.48860E+06         0.00000E+00
    0.00000E+00         0.00000E+00        -0.10950E+06
 
   -0.44474E-09        -0.65052E-09         0.00000E+00
   -0.65052E-09        -0.48860E+06         0.00000E+00
    0.00000E+00         0.00000E+00        -0.10950E+06
 
   -0.13288E-08         0.93964E-09         0.00000E+00
    0.93964E-09        -0.48860E+06         0.00000E+00
    0.00000E+00         0.00000E+00        -0.10950E+06
 
    0.40382E-09        -0.75894E-09         0.00000E+00
   -0.75894E-09        -0.48860E+06         0.00000E+00
    0.00000E+00         0.00000E+00        -0.10950E+06
 
   -0.67394E-09        -0.90350E-09         0.00000E+00
   -0.90350E-09        -0.48860E+06         0.00000E+00
    0.00000E+00         0.00000E+00        -0.10950E+06
 
   -0.36380E-09        -0.14817E-08         0.00000E+00
   -0.14817E-08        -0.48860E+06         0.00000E+00
    0.00000E+00         0.00000E+00        -0.10950E+06
 
   -0.17671E-08         0.54210E-09         0.00000E+00
    0.54210E-09        -0.48860E+06         0.00000E+00
    0.00000E+00         0.00000E+00        -0.10950E+06
 
   -0.22310E-08        -0.86736E-09         0.00000E+00
   -0.86736E-09        -0.48860E+06         0.00000E+00
    0.00000E+00         0.00000E+00        -0.10950E+06
 
   -0.13706E-08        -0.50596E-09         0.00000E+00
   -0.50596E-09        -0.48860E+06         0.00000E+00
    0.00000E+00         0.00000E+00        -0.10950E+06
 
   -0.10168E-08        -0.21684E-09         0.00000E+00
   -0.21684E-09        -0.48860E+06         0.00000E+00
    0.00000E+00         0.00000E+00        -0.10950E+06
 
   -0.34106E-09        -0.16624E-08         0.00000E+00
   -0.16624E-08        -0.48860E+06         0.00000E+00
    0.00000E+00         0.00000E+00        -0.10950E+06
 
    0.76852E-09         0.00000E+00         0.00000E+00
    0.00000E+00        -0.48860E+06         0.00000E+00
    0.00000E+00         0.00000E+00        -0.10950E+06
 
    0.12642E-09         0.15902E-08         0.00000E+00
    0.15902E-08        -0.48860E+06         0.00000E+00
    0.00000E+00         0.00000E+00        -0.10950E+06
 
   -0.22737E-10        -0.79508E-09         0.00000E+00
   -0.79508E-09        -0.48860E+06         0.00000E+00
    0.00000E+00         0.00000E+00        -0.10950E+06
 
   -0.99135E-10        -0.79508E-09         0.00000E+00
   -0.79508E-09        -0.48735E+06         0.00000E+00
    0.00000E+00         0.00000E+00        -0.10825E+06
 
   -0.16407E-08         0.11565E-08         0.00000E+00
    0.11565E-08        -0.48735E+06         0.00000E+00
    0.00000E+00         0.00000E+00        -0.10825E+06
 
    0.18017E-08        -0.93964E-09         0.00000E+00
   -0.93964E-09        -0.48735E+06         0.00000E+00
    0.00000E+00         0.00000E+00        -0.10825E+06
 
    0.11414E-08        -0.46982E-09         0.00000E+00
   -0.46982E-09        -0.48735E+06         0.00000E+00
    0.00000E+00         0.00000E+00        -0.10825E+06
 
    0.15916E-09        -0.14456E-09         0.00000E+00
   -0.14456E-09        -0.48735E+06         0.00000E+00
    0.00000E+00         0.00000E+00        -0.10825E+06
 
    0.58935E-09        -0.18070E-09         0.00000E+00
   -0.18070E-09        -0.48735E+06         0.00000E+00
    0.00000E+00         0.00000E+00        -0.10825E+06
 
   -0.31014E-09        -0.18070E-09         0.00000E+00
   -0.18070E-09        -0.48735E+06         0.00000E+00
    0.00000E+00         0.00000E+00        -0.10825E+06
 
   -0.69485E-09        -0.10119E-08         0.00000E+00
   -0.10119E-08        -0.48735E+06         0.00000E+00
    0.00000E+00         0.00000E+00        -0.10825E+06
 
    0.10896E-08         0.10842E-08         0.00000E+00
    0.10842E-08        -0.48735E+06         0.00000E+00
    0.00000E+00         0.00000E+00        -0.10825E+06
 
    0.55570E-09         0.72280E-10         0.00000E+00
    0.72280E-10        -0.48735E+06         0.00000E+00
    0.00000E+00         0.00000E+00        -0.10825E+06
 
    0.19454E-08        -0.36140E-09         0.00000E+00
   -0.36140E-09        -0.48735E+06         0.00000E+00
    0.00000E+00         0.00000E+00        -0.10825E+06
 
    0.21300E-08        -0.36140E-09         0.00000E+00
   -0.36140E-09        -0.48735E+06         0.00000E+00
    0.00000E+00         0.00000E+00        -0.10825E+06
 
    0.74670E-09        -0.79508E-09         0.00000E+00
   -0.79508E-09        -0.48735E+06         0.00000E+00
    0.00000E+00         0.00000E+00        -0.10825E+06
 
    0.25375E-09         0.10119E-08         0.00000E+00
    0.10119E-08        -0.48735E+06         0.00000E+00
    0.00000E+00         0.00000E+00        -0.10825E+06
 
    0.84583E-09        -0.65052E-09         0.00000E+00
   -0.65052E-09        -0.48735E+06         0.00000E+00
    0.00000E+00         0.00000E+00        -0.10825E+06
 
    0.37835E-09         0.72280E-10         0.00000E+00
    0.72280E-10        -0.48610E+06         0.00000E+00
    0.00000E+00         0.00000E+00        -0.10700E+06
 
    0.29427E-08        -0.36140E-09         0.00000E+00
   -0.36140E-09        -0.48610E+06         0.00000E+00
    0.00000E+00         0.00000E+00        -0.10700E+06
 
    0.59617E-09        -0.36140E-10         0.00000E+00
   -0.36140E-10        -0.48610E+06         0.00000E+00
    0.00000E+00         0.00000E+00        -0.10700E+06
 
   -0.11178E-08        -0.14456E-09         0.00000E+00
   -0.14456E-09        -0.48610E+06         0.00000E+00
    0.00000E+00         0.00000E+00        -0.10700E+06
 
   -0.19813E-08         0.93964E-09         0.00000E+00
    0.93964E-09        -0.48610E+06         0.00000E+00
    0.00000E+00         0.00000E+00        -0.10700E+06
 
   -0.28595E-08        -0.18070E-09         0.00000E+00
   -0.18070E-09        -0.48610E+06         0.00000E+00
    0.00000E+00         0.00000E+00        -0.10700E+06
 
    0.78626E-09         0.10842E-09         0.00000E+00
    0.10842E-09        -0.48610E+06         0.00000E+00
    0.00000E+00         0.00000E+00        -0.10700E+06
 
    0.18536E-08        -0.72280E-10         0.00000E+00
   -0.72280E-10        -0.48610E+06         0.00000E+00
    0.00000E+00         0.00000E+00        -0.10700E+06
 
   -0.86038E-09         0.28912E-09         0.00000E+00
    0.28912E-09        -0.48610E+06         0.00000E+00
    0.00000E+00         0.00000E+00        -0.10700E+06
 
    0.22783E-09         0.21684E-09         0.00000E+00
    0.21684E-09        -0.48610E+06         0.00000E+00
    0.00000E+00         0.00000E+00        -0.10700E+06
 
    0.19645E-09        -0.21684E-09         0.00000E+00
   -0.21684E-09        -0.48610E+06         0.00000E+00
    0.00000E+00         0.00000E+00        -0.10700E+06
 
   -0.96588E-09        -0.57824E-09         0.00000E+00
   -0.57824E-09        -0.48610E+06         0.00000E+00
    0.00000E+00         0.00000E+00        -0.10700E+06
 
   -0.25557E-09        -0.14456E-09         0.00000E+00
   -0.14456E-09        -0.48610E+06         0.00000E+00
    0.00000E+00         0.00000E+00        -0.10700E+06
 
   -0.92632E-09         0.86736E-09         0.00000E+00
    0.86736E-09        -0.48610E+06         0.00000E+00
    0.00000E+00         0.00000E+00        -0.10700E+06
 
    0.23510E-09         0.00000E+00         0.00000E+00
    0.00000E+00        -0.48610E+06         0.00000E+00
    0.00000E+00         0.00000E+00        -0.10700E+06
 
    0.15889E-08         0.00000E+00         0.00000E+00
    0.00000E+00        -0.48484E+06         0.00000E+00
    0.00000E+00         0.00000E+00        -0.10574E+06
 
   -0.89494E-09         0.14095E-08         0.00000E+00
    0.14095E-08        -0.48484E+06         0.00000E+00
    0.00000E+00         0.00000E+00        -0.10574E+06
 
   -0.66393E-10        -0.20238E-08         0.00000E+00
   -0.20238E-08        -0.48484E+06         0.00000E+00
    0.00000E+00         0.00000E+00        -0.10574E+06
 
    0.17603E-08         0.11203E-08         0.00000E+00
    0.11203E-08        -0.48484E+06         0.00000E+00
    0.00000E+00         0.00000E+00        -0.10574E+06
 
    0.31037E-08        -0.46982E-09         0.00000E+00
   -0.46982E-09        -0.48484E+06         0.00000E+00
    0.00000E+00         0.00000E+00        -0.10574E+06
 
    0.30791E-08         0.13372E-08         0.00000E+00
    0.13372E-08        -0.48484E+06         0.00000E+00
    0.00000E+00         0.00000E+00        -0.10574E+06
 
   -0.93814E-09        -0.50596E-09         0.00000E+00
   -0.50596E-09        -0.48484E+06         0.00000E+00
    0.00000E+00         0.00000E+00        -0.10574E+06
 
   -0.13893E-08        -0.72280E-10         0.00000E+00
   -0.72280E-10        -0.48484E+06         0.00000E+00
    0.00000E+00         0.00000E+00        -0.10574E+06
 
   -0.92678E-09         0.36140E-09         0.00000E+00
    0.36140E-09        -0.48484E+06         0.00000E+00
    0.00000E+00         0.00000E+00        -0.10574E+06
 
    0.10050E-09        -0.13010E-08         0.00000E+00
   -0.13010E-08        -0.48484E+06         0.00000E+00
    0.00000E+00         0.00000E+00        -0.10574E+06
 
    0.18672E-08         0.72280E-10         0.00000E+00
    0.72280E-10        -0.48484E+06         0.00000E+00
    0.00000E+00         0.00000E+00        -0.10574E+06
 
    0.16203E-08        -0.28912E-09         0.00000E+00
   -0.28912E-09        -0.48484E+06         0.00000E+00
    0.00000E+00         0.00000E+00        -0.10574E+06
 
    0.16507E-09         0.50596E-09         0.00000E+00
    0.50596E-09        -0.48484E+06         0.00000E+00
    0.00000E+00         0.00000E+00        -0.10574E+06
 
   -0.76079E-09        -0.28912E-09         0.00000E+00
   -0.28912E-09        -0.48484E+06         0.00000E+00
    0.00000E+00         0.00000E+00        -0.10574E+06
 
   -0.84356E-09        -0.14456E-09         0.00000E+00
   -0.14456E-09        -0.48484E+06         0.00000E+00
    0.00000E+00         0.00000E+00        -0.10574E+06
 
   -0.78899E-09        -0.57824E-09         0.00000E+00
   -0.57824E-09        -0.48357E+06         0.00000E+00
    0.00000E+00         0.00000E+00        -0.10447E+06
 
    0.82264E-09         0.19877E-08         0.00000E+00
    0.19877E-08        -0.48357E+06         0.00000E+00
    0.00000E+00         0.00000E+00        -0.10447E+06
 
    0.11678E-08        -0.93964E-09         0.00000E+00
   -0.93964E-09        -0.48357E+06         0.00000E+00
    0.00000E+00         0.00000E+00        -0.10447E+06
 
   -0.10264E-08        -0.72280E-09         0.00000E+00
   -0.72280E-09        -0.48357E+06         0.00000E+00
    0.00000E+00         0.00000E+00        -0.10447E+06
 
   -0.92359E-09         0.39754E-09         0.00000E+00
    0.39754E-09        -0.48357E+06         0.00000E+00
    0.00000E+00         0.00000E+00        -0.10447E+06
 
    0.73351E-09         0.43368E-09         0.00000E+00
    0.43368E-09        -0.48357E+06         0.00000E+00
    0.00000E+00         0.00000E+00        -0.10447E+06
 
    0.18058E-08         0.28912E-09         0.00000E+00
    0.28912E-09        -0.48357E+06         0.00000E+00
    0.00000E+00         0.00000E+00        -0.10447E+06
 
    0.30000E-08        -0.79508E-09         0.00000E+00
   -0.79508E-09        -0.48357E+06         0.00000E+00
    0.00000E+00         0.00000E+00        -0.10447E+06
 
    0.27758E-08        -0.43368E-09         0.00000E+00
   -0.43368E-09        -0.48357E+06         0.00000E+00
    0.00000E+00         0.00000E+00        -0.10447E+06
 
   -0.47839E-09        -0.10119E-08         0.00000E+00
   -0.10119E-08        -0.48357E+06         0.00000E+00
    0.00000E+00         0.00000E+00        -0.10447E+06
 
   -0.23106E-08         0.93964E-09         0.00000E+00
    0.93964E-09        -0.48357E+06         0.00000E+00
    0.00000E+00         0.00000E+00        -0.10447E+06
 
   -0.83264E-09        -0.50596E-09         0.00000E+00
   -0.50596E-09        -0.48357E+06         0.00000E+00
    0.00000E+00         0.00000E+00        -0.10447E+06
 
   -0.56389E-09         0.00000E+00         0.00000E+00
    0.00000E+00        -0.48357E+06         0.00000E+00
    0.00000E+00         0.00000E+00        -0.10447E+06
 
   -0.76852E-10         0.36140E-09         0.00000E+00
    0.36140E-09        -0.48357E+06         0.00000E+00
    0.00000E+00         0.00000E+00        -0.10447E+06
 
   -0.75715E-09         0.72280E-10         0.00000E+00
    0.72280E-10        -0.48357E+06         0.00000E+00
    0.00000E+00         0.00000E+00        -0.10447E+06
 
   -0.10409E-08        -0.93964E-09         0.00000E+00
   -0.93964E-09        -0.48230E+06         0.00000E+00
    0.00000E+00         0.00000E+00        -0.10319E+06
 
    0.89767E-09         0.72280E-09         0.00000E+00
    0.72280E-09        -0.48230E+06         0.00000E+00
    0.00000E+00         0.00000E+00        -0.10319E+06
 
   -0.13983E-08        -0.21684E-09         0.00000E+00
   -0.21684E-09        -0.48230E+06         0.00000E+00
    0.00000E+00         0.00000E+00        -0.10319E+06
 
    0.40109E-09        -0.32526E-09         0.00000E+00
   -0.32526E-09        -0.48230E+06         0.00000E+00
    0.00000E+00         0.00000E+00        -0.10319E+06
 
    0.18276E-08         0.50596E-09         0.00000E+00
    0.50596E-09        -0.48230E+06         0.00000E+00
    0.00000E+00         0.00000E+00        -0.10319E+06
 
   -0.11823E-09         0.36140E-09         0.00000E+00
    0.36140E-09        -0.48230E+06         0.00000E+00
    0.00000E+00         0.00000E+00        -0.10319E+06
 
   -0.16785E-08         0.72280E-10         0.00000E+00
    0.72280E-10        -0.48230E+06         0.00000E+00
    0.00000E+00         0.00000E+00        -0.10319E+06
 
   -0.69804E-09        -0.43368E-09         0.00000E+00
   -0.43368E-09        -0.48230E+06         0.00000E+00
    0.00000E+00         0.00000E+00        -0.10319E+06
 
   -0.13670E-08         0.72280E-10         0.00000E+00
    0.72280E-10        -0.48230E+06         0.00000E+00
    0.00000E+00         0.00000E+00        -0.10319E+06
 
   -0.58162E-09        -0.50596E-09         0.00000E+00
   -0.50596E-09        -0.48230E+06         0.00000E+00
    0.00000E+00         0.00000E+00        -0.10319E+06
 
    0.25966E-09         0.00000E+00         0.00000E+00
    0.00000E+00        -0.48230E+06         0.00000E+00
    0.00000E+00         0.00000E+00        -0.10319E+06
 
    0.48067E-09         0.11565E-08         0.00000E+00
    0.11565E-08        -0.48230E+06         0.00000E+00
    0.00000E+00         0.00000E+00        -0.10319E+06
 
    0.21873E-09        -0.65052E-09         0.00000E+00
   -0.65052E-09        -0.48230E+06         0.00000E+00
    0.00000E+00         0.00000E+00        -0.10319E+06
 
    0.67939E-09        -0.72280E-10         0.00000E+00
   -0.72280E-10        -0.48230E+06         0.00000E+00
    0.00000E+00         0.00000E+00        -0.10319E+06
 
   -0.46384E-09         0.72280E-10         0.00000E+00
    0.72280E-10        -0.48230E+06         0.00000E+00
    0.00000E+00         0.00000E+00        -0.10319E+06
 
   -0.60572E-09         0.93964E-09         0.00000E+00
    0.93964E-09        -0.48101E+06         0.00000E+00
    0.00000E+00         0.00000E+00        -0.10191E+06
 
   -0.29104E-09         0.72280E-09         0.00000E+00
    0.72280E-09        -0.48101E+06         0.00000E+00
    0.00000E+00         0.00000E+00        -0.10191E+06
 
    0.17581E-08         0.39754E-09         0.00000E+00
    0.39754E-09        -0.48101E+06         0.00000E+00
    0.00000E+00         0.00000E+00        -0.10191E+06
 
   -0.31923E-09        -0.68666E-09         0.00000E+00
   -0.68666E-09        -0.48101E+06         0.00000E+00
    0.00000E+00         0.00000E+00        -0.10191E+06
 
   -0.12064E-08         0.14456E-09         0.00000E+00
    0.14456E-09        -0.48101E+06         0.00000E+00
    0.00000E+00         0.00000E+00        -0.10191E+06
 
   -0.11601E-08         0.54210E-09         0.00000E+00
    0.54210E-09        -0.48101E+06         0.00000E+00
    0.00000E+00         0.00000E+00        -0.10191E+06
 
    0.96225E-09        -0.21684E-09         0.00000E+00
   -0.21684E-09        -0.48101E+06         0.00000E+00
    0.00000E+00         0.00000E+00        -0.10191E+06
 
    0.38335E-09         0.93964E-09         0.00000E+00
    0.93964E-09        -0.48101E+06         0.00000E+00
    0.00000E+00         0.00000E+00        -0.10191E+06
 
    0.40973E-09        -0.36140E-09         0.00000E+00
   -0.36140E-09        -0.48101E+06         0.00000E+00
    0.00000E+00         0.00000E+00        -0.10191E+06
 
   -0.11073E-08         0.65052E-09         0.00000E+00
    0.65052E-09        -0.48101E+06         0.00000E+00
    0.00000E+00         0.00000E+00        -0.10191E+06
 
   -0.33474E-08        -0.79508E-09         0.00000E+00
   -0.79508E-09        -0.48101E+06         0.00000E+00
    0.00000E+00         0.00000E+00        -0.10191E+06
 
   -0.11505E-09         0.43368E-09         0.00000E+00
    0.43368E-09        -0.48101E+06         0.00000E+00
    0.00000E+00         0.00000E+00        -0.10191E+06
 
   -0.27649E-09         0.72280E-10         0.00000E+00
    0.72280E-10        -0.48101E+06         0.00000E+00
    0.00000E+00         0.00000E+00        -0.10191E+06
 
   -0.81172E-09        -0.16624E-08         0.00000E+00
   -0.16624E-08        -0.48101E+06         0.00000E+00
    0.00000E+00         0.00000E+00        -0.10191E+06
 
   -0.13797E-08        -0.21684E-09         0.00000E+00
   -0.21684E-09        -0.48101E+06         0.00000E+00
    0.00000E+00         0.00000E+00        -0.10191E+06
 
    0.83378E-09        -0.57824E-09         0.00000E+00
   -0.57824E-09        -0.47973E+06         0.00000E+00
    0.00000E+00         0.00000E+00        -0.10063E+06
 
    0.15712E-09        -0.39754E-09         0.00000E+00
   -0.39754E-09        -0.47973E+06         0.00000E+00
    0.00000E+00         0.00000E+00        -0.10063E+06
 
   -0.78853E-09         0.18070E-09         0.00000E+00
    0.18070E-09        -0.47973E+06         0.00000E+00
    0.00000E+00         0.00000E+00        -0.10063E+06
 
   -0.95997E-09         0.25298E-09         0.00000E+00
    0.25298E-09        -0.47973E+06         0.00000E+00
    0.00000E+00         0.00000E+00        -0.10063E+06
 
   -0.17001E-08         0.61438E-09         0.00000E+00
    0.61438E-09        -0.47973E+06         0.00000E+00
    0.00000E+00         0.00000E+00        -0.10063E+06
 
   -0.29854E-08        -0.93964E-09         0.00000E+00
   -0.93964E-09        -0.47973E+06         0.00000E+00
    0.00000E+00         0.00000E+00        -0.10063E+06
 
   -0.80081E-09         0.14456E-09         0.00000E+00
    0.14456E-09        -0.47973E+06         0.00000E+00
    0.00000E+00         0.00000E+00        -0.10063E+06
 
    0.11528E-08         0.00000E+00         0.00000E+00
    0.00000E+00        -0.47973E+06         0.00000E+00
    0.00000E+00         0.00000E+00        -0.10063E+06
 
   -0.81536E-09         0.14456E-09         0.00000E+00
    0.14456E-09        -0.47973E+06         0.00000E+00
    0.00000E+00         0.00000E+00        -0.10063E+06
 
   -0.69781E-09         0.10842E-08         0.00000E+00
    0.10842E-08        -0.47973E+06         0.00000E+00
    0.00000E+00         0.00000E+00        -0.10063E+06
 
   -0.30827E-08         0.21684E-09         0.00000E+00
    0.21684E-09        -0.47973E+06         0.00000E+00
    0.00000E+00         0.00000E+00        -0.10063E+06
 
   -0.31957E-08         0.21684E-09         0.00000E+00
    0.21684E-09        -0.47973E+06         0.00000E+00
    0.00000E+00         0.00000E+00        -0.10063E+06
 
   -0.20973E-08         0.43368E-09         0.00000E+00
    0.43368E-09        -0.47973E+06         0.00000E+00
    0.00000E+00         0.00000E+00        -0.10063E+06
 
    0.86402E-11        -0.43368E-09         0.00000E+00
   -0.43368E-09        -0.47973E+06         0.00000E+00
    0.00000E+00         0.00000E+00        -0.10063E+06
 
    0.43769E-09        -0.86736E-09         0.00000E+00
   -0.86736E-09        -0.47973E+06         0.00000E+00
    0.00000E+00         0.00000E+00        -0.10063E+06
 
    0.16287E-08         0.14456E-09         0.00000E+00
    0.14456E-09        -0.47844E+06         0.00000E+00
    0.00000E+00         0.00000E+00        -0.99335E+05
 
    0.56639E-09         0.72280E-10         0.00000E+00
    0.72280E-10        -0.47844E+06         0.00000E+00
    0.00000E+00         0.00000E+00        -0.99335E+05
 
    0.60390E-09        -0.46982E-09         0.00000E+00
   -0.46982E-09        -0.47844E+06         0.00000E+00
    0.00000E+00         0.00000E+00        -0.99335E+05
 
    0.11742E-08         0.28912E-09         0.00000E+00
    0.28912E-09        -0.47844E+06         0.00000E+00
    0.00000E+00         0.00000E+00        -0.99335E+05
 
    0.31764E-09         0.11565E-08         0.00000E+00
    0.11565E-08        -0.47844E+06         0.00000E+00
    0.00000E+00         0.00000E+00        -0.99335E+05
 
   -0.70008E-09        -0.61438E-09         0.00000E+00
   -0.61438E-09        -0.47844E+06         0.00000E+00
    0.00000E+00         0.00000E+00        -0.99335E+05
 
   -0.77989E-09         0.65052E-09         0.00000E+00
    0.65052E-09        -0.47844E+06         0.00000E+00
    0.00000E+00         0.00000E+00        -0.99335E+05
 
   -0.21255E-08         0.21684E-09         0.00000E+00
    0.21684E-09        -0.47844E+06         0.00000E+00
    0.00000E+00         0.00000E+00        -0.99335E+05
 
   -0.91654E-09         0.00000E+00         0.00000E+00
    0.00000E+00        -0.47844E+06         0.00000E+00
    0.00000E+00         0.00000E+00        -0.99335E+05
 
   -0.41268E-09         0.12288E-08         0.00000E+00
    0.12288E-08        -0.47844E+06         0.00000E+00
    0.00000E+00         0.00000E+00        -0.99335E+05
 
   -0.17326E-09         0.57824E-09         0.00000E+00
    0.57824E-09        -0.47844E+06         0.00000E+00
    0.00000E+00         0.00000E+00        -0.99335E+05
 
    0.41655E-09        -0.72280E-10         0.00000E+00
   -0.72280E-10        -0.47844E+06         0.00000E+00
    0.00000E+00         0.00000E+00        -0.99335E+05
 
    0.15241E-08        -0.21684E-09         0.00000E+00
   -0.21684E-09        -0.47844E+06         0.00000E+00
    0.00000E+00         0.00000E+00        -0.99335E+05
 
    0.17353E-08        -0.50596E-09         0.00000E+00
   -0.50596E-09        -0.47844E+06         0.00000E+00
    0.00000E+00         0.00000E+00        -0.99335E+05
 
   -0.11862E-08         0.10119E-08         0.00000E+00
    0.10119E-08        -0.47844E+06         0.00000E+00
    0.00000E+00         0.00000E+00        -0.99335E+05
 
    0.13623E-08         0.28912E-09         0.00000E+00
    0.28912E-09        -0.47714E+06         0.00000E+00
    0.00000E+00         0.00000E+00        -0.98038E+05
 
   -0.44361E-09         0.32526E-09         0.00000E+00
    0.32526E-09        -0.47714E+06         0.00000E+00
    0.00000E+00         0.00000E+00        -0.98038E+05
 
    0.39677E-10         0.25298E-09         0.00000E+00
    0.25298E-09        -0.47714E+06         0.00000E+00
    0.00000E+00         0.00000E+00        -0.98038E+05
 
   -0.88755E-09         0.21684E-09         0.00000E+00
    0.21684E-09        -0.47714E+06         0.00000E+00
    0.00000E+00         0.00000E+00        -0.98038E+05
 
   -0.42053E-09         0.50596E-09         0.00000E+00
    0.50596E-09        -0.47714E+06         0.00000E+00
    0.00000E+00         0.00000E+00        -0.98038E+05
 
    0.51887E-09         0.10842E-09         0.00000E+00
    0.10842E-09        -0.47714E+06         0.00000E+00
    0.00000E+00         0.00000E+00        -0.98038E+05
 
    0.61436E-09         0.43368E-09         0.00000E+00
    0.43368E-09        -0.47714E+06         0.00000E+00
    0.00000E+00         0.00000E+00        -0.98038E+05
 
   -0.32946E-09        -0.93964E-09         0.00000E+00
   -0.93964E-09        -0.47714E+06         0.00000E+00
    0.00000E+00         0.00000E+00        -0.98038E+05
 
   -0.17423E-08        -0.28912E-09         0.00000E+00
   -0.28912E-09        -0.47714E+06         0.00000E+00
    0.00000E+00         0.00000E+00        -0.98038E+05
 
   -0.12570E-08        -0.15179E-08         0.00000E+00
   -0.15179E-08        -0.47714E+06         0.00000E+00
    0.00000E+00         0.00000E+00        -0.98038E+05
 
    0.79740E-09        -0.11565E-08         0.00000E+00
   -0.11565E-08        -0.47714E+06         0.00000E+00
    0.00000E+00         0.00000E+00        -0.98038E+05
 
    0.87277E-09        -0.10119E-08         0.00000E+00
   -0.10119E-08        -0.47714E+06         0.00000E+00
    0.00000E+00         0.00000E+00        -0.98038E+05
 
    0.44838E-09        -0.93964E-09         0.00000E+00
   -0.93964E-09        -0.47714E+06         0.00000E+00
    0.00000E+00         0.00000E+00        -0.98038E+05
 
   -0.95429E-09        -0.65052E-09         0.00000E+00
   -0.65052E-09        -0.47714E+06         0.00000E+00
    0.00000E+00         0.00000E+00        -0.98038E+05
 
    0.19597E-08         0.72280E-10         0.00000E+00
    0.72280E-10        -0.47714E+06         0.00000E+00
    0.00000E+00         0.00000E+00        -0.98038E+05
 
    0.16468E-08         0.10842E-08         0.00000E+00
    0.10842E-08        -0.47584E+06         0.00000E+00
    0.00000E+00         0.00000E+00        -0.96736E+05
 
   -0.41268E-10         0.43368E-09         0.00000E+00
    0.43368E-09        -0.47584E+06         0.00000E+00
    0.00000E+00         0.00000E+00        -0.96736E+05
 
   -0.97998E-09        -0.54210E-09         0.00000E+00
   -0.54210E-09        -0.47584E+06         0.00000E+00
    0.00000E+00         0.00000E+00        -0.96736E+05
 
    0.68030E-09         0.65052E-09         0.00000E+00
    0.65052E-09        -0.47584E+06         0.00000E+00
    0.00000E+00         0.00000E+00        -0.96736E+05
 
    0.66007E-09        -0.61438E-09         0.00000E+00
   -0.61438E-09        -0.47584E+06         0.00000E+00
    0.00000E+00         0.00000E+00        -0.96736E+05
 
    0.73351E-09        -0.18070E-09         0.00000E+00
   -0.18070E-09        -0.47584E+06         0.00000E+00
    0.00000E+00         0.00000E+00        -0.96736E+05
 
    0.11685E-08         0.16624E-08         0.00000E+00
    0.16624E-08        -0.47584E+06         0.00000E+00
    0.00000E+00         0.00000E+00        -0.96736E+05
 
    0.18307E-08         0.21684E-09         0.00000E+00
    0.21684E-09        -0.47584E+06         0.00000E+00
    0.00000E+00         0.00000E+00        -0.96736E+05
 
   -0.41621E-09        -0.17347E-08         0.00000E+00
   -0.17347E-08        -0.47584E+06         0.00000E+00
    0.00000E+00         0.00000E+00        -0.96736E+05
 
   -0.16325E-09        -0.28912E-09         0.00000E+00
   -0.28912E-09        -0.47584E+06         0.00000E+00
    0.00000E+00         0.00000E+00        -0.96736E+05
 
   -0.30500E-08        -0.65052E-09         0.00000E+00
   -0.65052E-09        -0.47584E+06         0.00000E+00
    0.00000E+00         0.00000E+00        -0.96736E+05
 
   -0.17260E-08         0.72280E-10         0.00000E+00
    0.72280E-10        -0.47584E+06         0.00000E+00
    0.00000E+00         0.00000E+00        -0.96736E+05
 
   -0.47419E-09        -0.72280E-10         0.00000E+00
   -0.72280E-10        -0.47584E+06         0.00000E+00
    0.00000E+00         0.00000E+00        -0.96736E+05
 
   -0.10587E-08        -0.10119E-08         0.00000E+00
   -0.10119E-08        -0.47584E+06         0.00000E+00
    0.00000E+00         0.00000E+00        -0.96736E+05
 
   -0.21436E-08         0.14456E-09         0.00000E+00
    0.14456E-09        -0.47584E+06         0.00000E+00
    0.00000E+00         0.00000E+00        -0.96736E+05
 
    0.13432E-08         0.86736E-09         0.00000E+00
    0.86736E-09        -0.47453E+06         0.00000E+00
    0.00000E+00         0.00000E+00        -0.95429E+05
 
   -0.99568E-09        -0.24575E-08         0.00000E+00
   -0.24575E-08        -0.47453E+06         0.00000E+00
    0.00000E+00         0.00000E+00        -0.95429E+05
 
    0.22325E-09        -0.32526E-09         0.00000E+00
   -0.32526E-09        -0.47453E+06         0.00000E+00
    0.00000E+00         0.00000E+00        -0.95429E+05
 
   -0.51054E-09         0.10119E-08         0.00000E+00
    0.10119E-08        -0.47453E+06         0.00000E+00
    0.00000E+00         0.00000E+00        -0.95429E+05
 
    0.10436E-08        -0.61438E-09         0.00000E+00
   -0.61438E-09        -0.47453E+06         0.00000E+00
    0.00000E+00         0.00000E+00        -0.95429E+05
 
   -0.86985E-09        -0.20238E-08         0.00000E+00
   -0.20238E-08        -0.47453E+06         0.00000E+00
    0.00000E+00         0.00000E+00        -0.95429E+05
 
   -0.24872E-08        -0.72280E-09         0.00000E+00
   -0.72280E-09        -0.47453E+06         0.00000E+00
    0.00000E+00         0.00000E+00        -0.95429E+05
 
   -0.91278E-09        -0.93964E-09         0.00000E+00
   -0.93964E-09        -0.47453E+06         0.00000E+00
    0.00000E+00         0.00000E+00        -0.95429E+05
 
   -0.18657E-08         0.36140E-09         0.00000E+00
    0.36140E-09        -0.47453E+06         0.00000E+00
    0.00000E+00         0.00000E+00        -0.95429E+05
 
    0.98045E-09         0.16624E-08         0.00000E+00
    0.16624E-08        -0.47453E+06         0.00000E+00
    0.00000E+00         0.00000E+00        -0.95429E+05
 
    0.10253E-08        -0.14456E-09         0.00000E+00
   -0.14456E-09        -0.47453E+06         0.00000E+00
    0.00000E+00         0.00000E+00        -0.95429E+05
 
   -0.10385E-08        -0.72280E-10         0.00000E+00
   -0.72280E-10        -0.47453E+06         0.00000E+00
    0.00000E+00         0.00000E+00        -0.95429E+05
 
    0.18349E-08        -0.14456E-09         0.00000E+00
   -0.14456E-09        -0.47453E+06         0.00000E+00
    0.00000E+00         0.00000E+00        -0.95429E+05
 
    0.73686E-09         0.18793E-08         0.00000E+00
    0.18793E-08        -0.47453E+06         0.00000E+00
    0.00000E+00         0.00000E+00        -0.95429E+05
 
    0.70045E-10        -0.43368E-09         0.00000E+00
   -0.43368E-09        -0.47453E+06         0.00000E+00
    0.00000E+00         0.00000E+00        -0.95429E+05
 
SCALARS stressS double 
LOOKUP_TABLE default
  -235873.701534386     
  -235873.701534386     
  -235873.701534385     
  -235873.701534386     
  -235873.701534386     
  -235873.701534386     
  -235873.701534386     
  -235873.701534386     
  -235873.701534386     
  -235873.701534386     
  -235873.701534386     
  -235873.701534386     
  -235873.701534386     
  -235873.701534386     
  -235873.701534386     
  -235860.625458401     
  -235860.625458401     
  -235860.625458401     
  -235860.625458402     
  -235860.625458401     
  -235860.625458402     
  -235860.625458401     
  -235860.625458402     
  -235860.625458401     
  -235860.625458401     
  -235860.625458402     
  -235860.625458401     
  -235860.625458401     
  -235860.625458401     
  -235860.625458401     
  -235834.475527057     
  -235834.475527057     
  -235834.475527057     
  -235834.475527057     
  -235834.475527057     
  -235834.475527057     
  -235834.475527057     
  -235834.475527057     
  -235834.475527057     
  -235834.475527057     
  -235834.475527057     
  -235834.475527057     
  -235834.475527057     
  -235834.475527057     
  -235834.475527057     
  -235795.256182621     
  -235795.256182621     
  -235795.256182621     
  -235795.256182621     
  -235795.256182621     
  -235795.256182621     
  -235795.256182621     
  -235795.256182621     
  -235795.256182621     
  -235795.256182621     
  -235795.256182621     
  -235795.256182621     
  -235795.256182621     
  -235795.256182621     
  -235795.256182621     
  -235742.974091043     
  -235742.974091043     
  -235742.974091043     
  -235742.974091043     
  -235742.974091043     
  -235742.974091043     
  -235742.974091043     
  -235742.974091043     
  -235742.974091043     
  -235742.974091043     
  -235742.974091043     
  -235742.974091043     
  -235742.974091043     
  -235742.974091043     
  -235742.974091043     
  -235677.638145006     
  -235677.638145006     
  -235677.638145006     
  -235677.638145006     
  -235677.638145006     
  -235677.638145006     
  -235677.638145006     
  -235677.638145006     
  -235677.638145006     
  -235677.638145006     
  -235677.638145006     
  -235677.638145006     
  -235677.638145006     
  -235677.638145006     
  -235677.638145006     
  -235599.259467989     
  -235599.259467990     
  -235599.259467989     
  -235599.259467990     
  -235599.259467989     
  -235599.259467990     
  -235599.259467989     
  -235599.259467989     
  -235599.259467989     
  -235599.259467989     
  -235599.259467989     
  -235599.259467989     
  -235599.259467989     
  -235599.259467989     
  -235599.259467989     
  -235507.851419331     
  -235507.851419332     
  -235507.851419331     
  -235507.851419331     
  -235507.851419331     
  -235507.851419331     
  -235507.851419331     
  -235507.851419331     
  -235507.851419331     
  -235507.851419331     
  -235507.851419331     
  -235507.851419331     
  -235507.851419331     
  -235507.851419331     
  -235507.851419331     
  -235403.429600289     
  -235403.429600289     
  -235403.429600289     
  -235403.429600288     
  -235403.429600289     
  -235403.429600288     
  -235403.429600288     
  -235403.429600289     
  -235403.429600288     
  -235403.429600289     
  -235403.429600289     
  -235403.429600289     
  -235403.429600289     
  -235403.429600289     
  -235403.429600289     
  -235286.011861081     
  -235286.011861081     
  -235286.011861082     
  -235286.011861081     
  -235286.011861081     
  -235286.011861081     
  -235286.011861081     
  -235286.011861081     
  -235286.011861081     
  -235286.011861081     
  -235286.011861081     
  -235286.011861081     
  -235286.011861081     
  -235286.011861081     
  -235286.011861081     
  -235155.618308905     
  -235155.618308905     
  -235155.618308905     
  -235155.618308905     
  -235155.618308905     
  -235155.618308905     
  -235155.618308905     
  -235155.618308905     
  -235155.618308905     
  -235155.618308905     
  -235155.618308905     
  -235155.618308905     
  -235155.618308905     
  -235155.618308905     
  -235155.618308905     
  -235012.271316909     
  -235012.271316910     
  -235012.271316910     
  -235012.271316909     
  -235012.271316909     
  -235012.271316909     
  -235012.271316909     
  -235012.271316909     
  -235012.271316909     
  -235012.271316909     
  -235012.271316909     
  -235012.271316909     
  -235012.271316909     
  -235012.271316909     
  -235012.271316909     
  -234855.995534112     
  -234855.995534112     
  -234855.995534112     
  -234855.995534112     
  -234855.995534112     
  -234855.995534112     
  -234855.995534112     
  -234855.995534112     
  -234855.995534112     
  -234855.995534112     
  -234855.995534112     
  -234855.995534112     
  -234855.995534112     
  -234855.995534112     
  -234855.995534112     
  -234686.817896247     
  -234686.817896247     
  -234686.817896247     
  -234686.817896247     
  -234686.817896247     
  -234686.817896247     
  -234686.817896247     
  -234686.817896247     
  -234686.817896247     
  -234686.817896247     
  -234686.817896247     
  -234686.817896247     
  -234686.817896247     
  -234686.817896247     
  -234686.817896247     
  -234504.767637513     
  -234504.767637514     
  -234504.767637513     
  -234504.767637513     
  -234504.767637513     
  -234504.767637514     
  -234504.767637513     
  -234504.767637513     
  -234504.767637513     
  -234504.767637513     
  -234504.767637514     
  -234504.767637514     
  -234504.767637513     
  -234504.767637513     
  -234504.767637513     
  -234309.876303217     
  -234309.876303217     
  -234309.876303217     
  -234309.876303217     
  -234309.876303217     
  -234309.876303217     
  -234309.876303217     
  -234309.876303217     
  -234309.876303217     
  -234309.876303217     
  -234309.876303217     
  -234309.876303217     
  -234309.876303217     
  -234309.876303217     
  -234309.876303217     
  -234102.177763272     
  -234102.177763272     
  -234102.177763272     
  -234102.177763273     
  -234102.177763272     
  -234102.177763272     
  -234102.177763272     
  -234102.177763272     
  -234102.177763272     
  -234102.177763273     
  -234102.177763272     
  -234102.177763272     
  -234102.177763272     
  -234102.177763272     
  -234102.177763272     
  -233881.708226549     
  -233881.708226549     
  -233881.708226549     
  -233881.708226550     
  -233881.708226549     
  -233881.708226549     
  -233881.708226549     
  -233881.708226549     
  -233881.708226549     
  -233881.708226549     
  -233881.708226549     
  -233881.708226549     
  -233881.708226549     
  -233881.708226549     
  -233881.708226549     
  -233648.506256029     
  -233648.506256029     
  -233648.506256029     
  -233648.506256029     
  -233648.506256029     
  -233648.506256029     
  -233648.506256029     
  -233648.506256029     
  -233648.506256029     
  -233648.506256029     
  -233648.506256029     
  -233648.506256029     
  -233648.506256029     
  -233648.506256029     
  -233648.506256029     
  -233402.612784750     
  -233402.612784750     
  -233402.612784750     
  -233402.612784750     
  -233402.612784750     
  -233402.612784750     
  -233402.612784750     
  -233402.612784750     
  -233402.612784750     
  -233402.612784750     
  -233402.612784750     
  -233402.612784750     
  -233402.612784750     
  -233402.612784750     
  -233402.612784750     
  -233144.071132509     
  -233144.071132510     
  -233144.071132510     
  -233144.071132510     
  -233144.071132510     
  -233144.071132509     
  -233144.071132509     
  -233144.071132510     
  -233144.071132510     
  -233144.071132510     
  -233144.071132510     
  -233144.071132510     
  -233144.071132510     
  -233144.071132510     
  -233144.071132510     
  -232872.927023289     
  -232872.927023289     
  -232872.927023289     
  -232872.927023289     
  -232872.927023289     
  -232872.927023289     
  -232872.927023289     
  -232872.927023289     
  -232872.927023289     
  -232872.927023289     
  -232872.927023289     
  -232872.927023289     
  -232872.927023289     
  -232872.927023289     
  -232872.927023289     
  -232589.228603372     
  -232589.228603372     
  -232589.228603372     
  -232589.228603371     
  -232589.228603372     
  -232589.228603371     
  -232589.228603372     
  -232589.228603372     
  -232589.228603372     
  -232589.228603372     
  -232589.228603372     
  -232589.228603372     
  -232589.228603372     
  -232589.228603372     
  -232589.228603372     
  -232293.026460115     
  -232293.026460115     
  -232293.026460115     
  -232293.026460115     
  -232293.026460115     
  -232293.026460115     
  -232293.026460115     
  -232293.026460115     
  -232293.026460115     
  -232293.026460114     
  -232293.026460115     
  -232293.026460114     
  -232293.026460115     
  -232293.026460114     
  -232293.026460115     
  -231984.373641340     
  -231984.373641339     
  -231984.373641339     
  -231984.373641340     
  -231984.373641339     
  -231984.373641339     
  -231984.373641339     
  -231984.373641340     
  -231984.373641340     
  -231984.373641340     
  -231984.373641340     
  -231984.373641340     
  -231984.373641339     
  -231984.373641340     
  -231984.373641340     
  -231663.325675300     
  -231663.325675301     
  -231663.325675300     
  -231663.325675301     
  -231663.325675301     
  -231663.325675301     
  -231663.325675301     
  -231663.325675301     
  -231663.325675301     
  -231663.325675300     
  -231663.325675301     
  -231663.325675300     
  -231663.325675300     
  -231663.325675300     
  -231663.325675300     
  -231329.940591191     
  -231329.940591191     
  -231329.940591192     
  -231329.940591191     
  -231329.940591191     
  -231329.940591191     
  -231329.940591192     
  -231329.940591191     
  -231329.940591191     
  -231329.940591191     
  -231329.940591191     
  -231329.940591191     
  -231329.940591191     
  -231329.940591191     
  -231329.940591191     
  -230984.278940141     
  -230984.278940140     
  -230984.278940141     
  -230984.278940141     
  -230984.278940141     
  -230984.278940141     
  -230984.278940141     
  -230984.278940141     
  -230984.278940141     
  -230984.278940141     
  -230984.278940140     
  -230984.278940141     
  -230984.278940141     
  -230984.278940141     
  -230984.278940141     
  -230626.403816663     
  -230626.403816662     
  -230626.403816663     
  -230626.403816663     
  -230626.403816662     
  -230626.403816663     
  -230626.403816663     
  -230626.403816662     
  -230626.403816662     
  -230626.403816662     
  -230626.403816662     
  -230626.403816662     
  -230626.403816662     
  -230626.403816663     
  -230626.403816662     
  -230256.380880497     
  -230256.380880497     
  -230256.380880496     
  -230256.380880496     
  -230256.380880497     
  -230256.380880497     
  -230256.380880497     
  -230256.380880497     
  -230256.380880496     
  -230256.380880496     
  -230256.380880496     
  -230256.380880496     
  -230256.380880496     
  -230256.380880496     
  -230256.380880497     
  -229874.278378809     
  -229874.278378809     
  -229874.278378809     
  -229874.278378809     
  -229874.278378809     
  -229874.278378808     
  -229874.278378808     
  -229874.278378809     
  -229874.278378809     
  -229874.278378809     
  -229874.278378810     
  -229874.278378809     
  -229874.278378809     
  -229874.278378809     
  -229874.278378809     
  -229480.167168683     
  -229480.167168684     
  -229480.167168683     
  -229480.167168683     
  -229480.167168683     
  -229480.167168683     
  -229480.167168683     
  -229480.167168683     
  -229480.167168683     
  -229480.167168683     
  -229480.167168683     
  -229480.167168683     
  -229480.167168683     
  -229480.167168683     
  -229480.167168683     
  -229074.120739859     
  -229074.120739859     
  -229074.120739860     
  -229074.120739860     
  -229074.120739859     
  -229074.120739859     
  -229074.120739859     
  -229074.120739859     
  -229074.120739860     
  -229074.120739860     
  -229074.120739860     
  -229074.120739859     
  -229074.120739859     
  -229074.120739860     
  -229074.120739859     
  -228656.215237665     
  -228656.215237664     
  -228656.215237665     
  -228656.215237664     
  -228656.215237664     
  -228656.215237664     
  -228656.215237664     
  -228656.215237664     
  -228656.215237664     
  -228656.215237664     
  -228656.215237664     
  -228656.215237664     
  -228656.215237663     
  -228656.215237664     
  -228656.215237664     
  -228226.529486064     
  -228226.529486064     
  -228226.529486064     
  -228226.529486064     
  -228226.529486065     
  -228226.529486064     
  -228226.529486065     
  -228226.529486064     
  -228226.529486064     
  -228226.529486065     
  -228226.529486065     
  -228226.529486064     
  -228226.529486064     
  -228226.529486064     
  -228226.529486064     
  -227785.145010799     
  -227785.145010799     
  -227785.145010799     
  -227785.145010798     
  -227785.145010799     
  -227785.145010799     
  -227785.145010798     
  -227785.145010799     
  -227785.145010799     
  -227785.145010798     
  -227785.145010799     
  -227785.145010799     
  -227785.145010799     
  -227785.145010799     
  -227785.145010798     
  -227332.146062515     
  -227332.146062515     
  -227332.146062515     
  -227332.146062516     
  -227332.146062515     
  -227332.146062515     
  -227332.146062515     
  -227332.146062516     
  -227332.146062515     
  -227332.146062515     
  -227332.146062515     
  -227332.146062516     
  -227332.146062516     
  -227332.146062515     
  -227332.146062516     
  -226867.619639853     
  -226867.619639853     
  -226867.619639853     
  -226867.619639853     
  -226867.619639853     
  -226867.619639853     
  -226867.619639853     
  -226867.619639853     
  -226867.619639853     
  -226867.619639853     
  -226867.619639853     
  -226867.619639853     
  -226867.619639853     
  -226867.619639853     
  -226867.619639853     
  -226391.655512401     
  -226391.655512401     
  -226391.655512402     
  -226391.655512401     
  -226391.655512402     
  -226391.655512401     
  -226391.655512402     
  -226391.655512402     
  -226391.655512402     
  -226391.655512401     
  -226391.655512401     
  -226391.655512402     
  -226391.655512402     
  -226391.655512401     
  -226391.655512401     
  -225904.346243479     
  -225904.346243479     
  -225904.346243479     
  -225904.346243479     
  -225904.346243479     
  -225904.346243479     
  -225904.346243479     
  -225904.346243479     
  -225904.346243479     
  -225904.346243479     
  -225904.346243479     
  -225904.346243479     
  -225904.346243478     
  -225904.346243479     
  -225904.346243479     
  -225405.787212639     
  -225405.787212639     
  -225405.787212639     
  -225405.787212639     
  -225405.787212639     
  -225405.787212639     
  -225405.787212639     
  -225405.787212639     
  -225405.787212639     
  -225405.787212639     
  -225405.787212639     
  -225405.787212639     
  -225405.787212638     
  -225405.787212638     
  -225405.787212639     
  -224896.076637860     
  -224896.076637860     
  -224896.076637860     
  -224896.076637861     
  -224896.076637860     
  -224896.076637860     
  -224896.076637860     
  -224896.076637860     
  -224896.076637861     
  -224896.076637861     
  -224896.076637861     
  -224896.076637861     
  -224896.076637861     
  -224896.076637860     
  -224896.076637861     
  -224375.315597328     
  -224375.315597326     
  -224375.315597328     
  -224375.315597327     
  -224375.315597328     
  -224375.315597328     
  -224375.315597327     
  -224375.315597327     
  -224375.315597327     
  -224375.315597327     
  -224375.315597327     
  -224375.315597327     
  -224375.315597328     
  -224375.315597327     
  -224375.315597327     
  -223843.608050730     
  -223843.608050730     
  -223843.608050730     
  -223843.608050730     
  -223843.608050730     
  -223843.608050730     
  -223843.608050731     
  -223843.608050730     
  -223843.608050730     
  -223843.608050731     
  -223843.608050730     
  -223843.608050730     
  -223843.608050730     
  -223843.608050729     
  -223843.608050731     
  -223301.060860020     
  -223301.060860020     
  -223301.060860020     
  -223301.060860020     
  -223301.060860021     
  -223301.060860020     
  -223301.060860019     
  -223301.060860020     
  -223301.060860020     
  -223301.060860019     
  -223301.060860020     
  -223301.060860020     
  -223301.060860020     
  -223301.060860020     
  -223301.060860020     
  -222747.783809520     
  -222747.783809520     
  -222747.783809520     
  -222747.783809520     
  -222747.783809520     
  -222747.783809521     
  -222747.783809521     
  -222747.783809520     
  -222747.783809520     
  -222747.783809520     
  -222747.783809520     
  -222747.783809520     
  -222747.783809520     
  -222747.783809520     
  -222747.783809520     
  -222183.889625341     
  -222183.889625342     
  -222183.889625342     
  -222183.889625342     
  -222183.889625341     
  -222183.889625341     
  -222183.889625342     
  -222183.889625341     
  -222183.889625341     
  -222183.889625341     
  -222183.889625340     
  -222183.889625341     
  -222183.889625341     
  -222183.889625340     
  -222183.889625341     
  -221609.493993990     
  -221609.493993991     
  -221609.493993989     
  -221609.493993990     
  -221609.493993991     
  -221609.493993990     
  -221609.493993990     
  -221609.493993990     
  -221609.493993991     
  -221609.493993990     
  -221609.493993991     
  -221609.493993991     
  -221609.493993991     
  -221609.493993991     
  -221609.493993991     
  -221024.715580121     
  -221024.715580121     
  -221024.715580122     
  -221024.715580122     
  -221024.715580122     
  -221024.715580122     
  -221024.715580122     
  -221024.715580121     
  -221024.715580121     
  -221024.715580122     
  -221024.715580122     
  -221024.715580121     
  -221024.715580122     
  -221024.715580121     
  -221024.715580121     
  -220429.676043325     
  -220429.676043325     
  -220429.676043325     
  -220429.676043324     
  -220429.676043325     
  -220429.676043325     
  -220429.676043325     
  -220429.676043325     
  -220429.676043325     
  -220429.676043325     
  -220429.676043326     
  -220429.676043326     
  -220429.676043325     
  -220429.676043325     
  -220429.676043325     
  -219824.500053884     
  -219824.500053884     
  -219824.500053884     
  -219824.500053884     
  -219824.500053884     
  -219824.500053883     
  -219824.500053884     
  -219824.500053884     
  -219824.500053884     
  -219824.500053883     
  -219824.500053884     
  -219824.500053884     
  -219824.500053884     
  -219824.500053884     
  -219824.500053884     
  -219209.315307410     
  -219209.315307409     
  -219209.315307409     
  -219209.315307410     
  -219209.315307410     
  -219209.315307410     
  -219209.315307410     
  -219209.315307409     
  -219209.315307409     
  -219209.315307409     
  -219209.315307408     
  -219209.315307409     
  -219209.315307409     
  -219209.315307409     
  -219209.315307409     
  -218584.252538278     
  -218584.252538277     
  -218584.252538276     
  -218584.252538277     
  -218584.252538278     
  -218584.252538276     
  -218584.252538277     
  -218584.252538276     
  -218584.252538276     
  -218584.252538275     
  -218584.252538277     
  -218584.252538276     
  -218584.252538276     
  -218584.252538277     
  -218584.252538276     
  -217949.445531778     
  -217949.445531778     
  -217949.445531779     
  -217949.445531778     
  -217949.445531778     
  -217949.445531778     
  -217949.445531779     
  -217949.445531778     
  -217949.445531778     
  -217949.445531777     
  -217949.445531778     
  -217949.445531778     
  -217949.445531779     
  -217949.445531778     
  -217949.445531778     
  -217305.031134906     
  -217305.031134905     
  -217305.031134906     
  -217305.031134906     
  -217305.031134906     
  -217305.031134906     
  -217305.031134906     
  -217305.031134905     
  -217305.031134905     
  -217305.031134907     
  -217305.031134907     
  -217305.031134906     
  -217305.031134905     
  -217305.031134905     
  -217305.031134906     
  -216651.149265688     
  -216651.149265687     
  -216651.149265688     
  -216651.149265688     
  -216651.149265688     
  -216651.149265688     
  -216651.149265687     
  -216651.149265687     
  -216651.149265687     
  -216651.149265687     
  -216651.149265687     
  -216651.149265688     
  -216651.149265687     
  -216651.149265687     
  -216651.149265686     
  -215987.942920994     
  -215987.942920994     
  -215987.942920994     
  -215987.942920995     
  -215987.942920994     
  -215987.942920994     
  -215987.942920994     
  -215987.942920994     
  -215987.942920994     
  -215987.942920994     
  -215987.942920993     
  -215987.942920994     
  -215987.942920995     
  -215987.942920995     
  -215987.942920995     
  -215315.558182743     
  -215315.558182743     
  -215315.558182743     
  -215315.558182743     
  -215315.558182743     
  -215315.558182743     
  -215315.558182743     
  -215315.558182744     
  -215315.558182744     
  -215315.558182744     
  -215315.558182744     
  -215315.558182744     
  -215315.558182743     
  -215315.558182743     
  -215315.558182743     
  -214634.144222411     
  -214634.144222410     
  -214634.144222411     
  -214634.144222411     
  -214634.144222411     
  -214634.144222411     
  -214634.144222411     
  -214634.144222410     
  -214634.144222411     
  -214634.144222411     
  -214634.144222411     
  -214634.144222411     
  -214634.144222411     
  -214634.144222411     
  -214634.144222411     
  -213943.853303787     
  -213943.853303787     
  -213943.853303787     
  -213943.853303788     
  -213943.853303787     
  -213943.853303787     
  -213943.853303787     
  -213943.853303787     
  -213943.853303788     
  -213943.853303787     
  -213943.853303787     
  -213943.853303787     
  -213943.853303787     
  -213943.853303787     
  -213943.853303788     
  -213244.840783907     
  -213244.840783906     
  -213244.840783906     
  -213244.840783906     
  -213244.840783905     
  -213244.840783905     
  -213244.840783906     
  -213244.840783906     
  -213244.840783907     
  -213244.840783906     
  -213244.840783906     
  -213244.840783907     
  -213244.840783907     
  -213244.840783907     
  -213244.840783906     
  -212537.265112066     
  -212537.265112066     
  -212537.265112066     
  -212537.265112065     
  -212537.265112066     
  -212537.265112066     
  -212537.265112066     
  -212537.265112066     
  -212537.265112065     
  -212537.265112065     
  -212537.265112065     
  -212537.265112066     
  -212537.265112065     
  -212537.265112065     
  -212537.265112065     
  -211821.287826882     
  -211821.287826882     
  -211821.287826883     
  -211821.287826883     
  -211821.287826882     
  -211821.287826883     
  -211821.287826883     
  -211821.287826883     
  -211821.287826881     
  -211821.287826881     
  -211821.287826882     
  -211821.287826881     
  -211821.287826882     
  -211821.287826882     
  -211821.287826883     
  -211097.073551334     
  -211097.073551332     
  -211097.073551334     
  -211097.073551333     
  -211097.073551333     
  -211097.073551333     
  -211097.073551333     
  -211097.073551332     
  -211097.073551333     
  -211097.073551334     
  -211097.073551333     
  -211097.073551334     
  -211097.073551333     
  -211097.073551333     
  -211097.073551333     
  -210364.789985699     
  -210364.789985699     
  -210364.789985699     
  -210364.789985698     
  -210364.789985698     
  -210364.789985698     
  -210364.789985698     
  -210364.789985698     
  -210364.789985699     
  -210364.789985698     
  -210364.789985699     
  -210364.789985698     
  -210364.789985699     
  -210364.789985698     
  -210364.789985698     
  -209624.607898379     
  -209624.607898379     
  -209624.607898380     
  -209624.607898381     
  -209624.607898381     
  -209624.607898380     
  -209624.607898380     
  -209624.607898381     
  -209624.607898381     
  -209624.607898381     
  -209624.607898382     
  -209624.607898380     
  -209624.607898381     
  -209624.607898381     
  -209624.607898380     
  -208876.701114537     
  -208876.701114537     
  -208876.701114537     
  -208876.701114536     
  -208876.701114536     
  -208876.701114536     
  -208876.701114536     
  -208876.701114536     
  -208876.701114537     
  -208876.701114537     
  -208876.701114536     
  -208876.701114537     
  -208876.701114536     
  -208876.701114536     
  -208876.701114536     
  -208121.246502513     
  -208121.246502513     
  -208121.246502513     
  -208121.246502514     
  -208121.246502513     
  -208121.246502513     
  -208121.246502513     
  -208121.246502513     
  -208121.246502514     
  -208121.246502513     
  -208121.246502513     
  -208121.246502513     
  -208121.246502513     
  -208121.246502513     
  -208121.246502513     
  -207358.423958011     
  -207358.423958011     
  -207358.423958011     
  -207358.423958011     
  -207358.423958010     
  -207358.423958011     
  -207358.423958011     
  -207358.423958011     
  -207358.423958011     
  -207358.423958010     
  -207358.423958011     
  -207358.423958011     
  -207358.423958011     
  -207358.423958012     
  -207358.423958012     
  -206588.416385994     
  -206588.416385994     
  -206588.416385995     
  -206588.416385995     
  -206588.416385995     
  -206588.416385995     
  -206588.416385995     
  -206588.416385995     
  -206588.416385994     
  -206588.416385994     
  -206588.416385995     
  -206588.416385994     
  -206588.416385995     
  -206588.416385995     
  -206588.416385993     
  -205811.409680316     
  -205811.409680316     
  -205811.409680316     
  -205811.409680316     
  -205811.409680316     
  -205811.409680315     
  -205811.409680315     
  -205811.409680316     
  -205811.409680316     
  -205811.409680316     
  -205811.409680317     
  -205811.409680317     
  -205811.409680317     
  -205811.409680316     
  -205811.409680317     
  -205027.592701047     
  -205027.592701049     
  -205027.592701048     
  -205027.592701048     
  -205027.592701046     
  -205027.592701049     
  -205027.592701048     
  -205027.592701047     
  -205027.592701047     
  -205027.592701047     
  -205027.592701048     
  -205027.592701048     
  -205027.592701047     
  -205027.592701047     
  -205027.592701048     
  -204237.157249527     
  -204237.157249527     
  -204237.157249526     
  -204237.157249527     
  -204237.157249527     
  -204237.157249526     
  -204237.157249526     
  -204237.157249526     
  -204237.157249527     
  -204237.157249528     
  -204237.157249528     
  -204237.157249528     
  -204237.157249526     
  -204237.157249527     
  -204237.157249528     
  -203440.298041141     
  -203440.298041141     
  -203440.298041141     
  -203440.298041142     
  -203440.298041141     
  -203440.298041140     
  -203440.298041141     
  -203440.298041141     
  -203440.298041140     
  -203440.298041140     
  -203440.298041141     
  -203440.298041141     
  -203440.298041140     
  -203440.298041141     
  -203440.298041141     
  -202637.212675858     
  -202637.212675858     
  -202637.212675858     
  -202637.212675858     
  -202637.212675858     
  -202637.212675858     
  -202637.212675858     
  -202637.212675859     
  -202637.212675858     
  -202637.212675858     
  -202637.212675859     
  -202637.212675859     
  -202637.212675859     
  -202637.212675859     
  -202637.212675859     
  -201828.101606565     
  -201828.101606565     
  -201828.101606564     
  -201828.101606564     
  -201828.101606565     
  -201828.101606565     
  -201828.101606564     
  -201828.101606564     
  -201828.101606564     
  -201828.101606564     
  -201828.101606564     
  -201828.101606564     
  -201828.101606565     
  -201828.101606565     
  -201828.101606565     
  -201013.168105236     
  -201013.168105234     
  -201013.168105233     
  -201013.168105233     
  -201013.168105232     
  -201013.168105236     
  -201013.168105235     
  -201013.168105234     
  -201013.168105234     
  -201013.168105233     
  -201013.168105234     
  -201013.168105232     
  -201013.168105234     
  -201013.168105234     
  -201013.168105235     
  -200192.618227020     
  -200192.618227020     
  -200192.618227019     
  -200192.618227019     
  -200192.618227020     
  -200192.618227019     
  -200192.618227018     
  -200192.618227018     
  -200192.618227018     
  -200192.618227017     
  -200192.618227018     
  -200192.618227019     
  -200192.618227020     
  -200192.618227018     
  -200192.618227019     
  -199366.660772313     
  -199366.660772315     
  -199366.660772315     
  -199366.660772314     
  -199366.660772314     
  -199366.660772315     
  -199366.660772314     
  -199366.660772314     
  -199366.660772315     
  -199366.660772314     
  -199366.660772314     
  -199366.660772314     
  -199366.660772314     
  -199366.660772314     
  -199366.660772314     
  -198535.507246899     
  -198535.507246900     
  -198535.507246899     
  -198535.507246898     
  -198535.507246899     
  -198535.507246899     
  -198535.507246899     
  -198535.507246899     
  -198535.507246899     
  -198535.507246899     
  -198535.507246899     
  -198535.507246898     
  -198535.507246899     
  -198535.507246899     
  -198535.507246899     
  -197699.371820256     
  -197699.371820254     
  -197699.371820257     
  -197699.371820256     
  -197699.371820257     
  -197699.371820258     
  -197699.371820255     
  -197699.371820255     
  -197699.371820257     
  -197699.371820256     
  -197699.371820256     
  -197699.371820257     
  -197699.371820256     
  -197699.371820256     
  -197699.371820256     
  -196858.471282175     
  -196858.471282176     
  -196858.471282175     
  -196858.471282175     
  -196858.471282174     
  -196858.471282174     
  -196858.471282176     
  -196858.471282176     
  -196858.471282176     
  -196858.471282175     
  -196858.471282174     
  -196858.471282175     
  -196858.471282175     
  -196858.471282176     
  -196858.471282176     
  -196013.024997789     
  -196013.024997788     
  -196013.024997787     
  -196013.024997789     
  -196013.024997789     
  -196013.024997788     
  -196013.024997787     
  -196013.024997787     
  -196013.024997787     
  -196013.024997788     
  -196013.024997789     
  -196013.024997789     
  -196013.024997788     
  -196013.024997788     
  -196013.024997789     
  -195163.254861161     
  -195163.254861160     
  -195163.254861162     
  -195163.254861160     
  -195163.254861160     
  -195163.254861161     
  -195163.254861161     
  -195163.254861161     
  -195163.254861161     
  -195163.254861161     
  -195163.254861161     
  -195163.254861161     
  -195163.254861160     
  -195163.254861160     
  -195163.254861161     
  -194309.385247611     
  -194309.385247611     
  -194309.385247610     
  -194309.385247610     
  -194309.385247611     
  -194309.385247611     
  -194309.385247610     
  -194309.385247611     
  -194309.385247610     
  -194309.385247611     
  -194309.385247612     
  -194309.385247610     
  -194309.385247611     
  -194309.385247611     
  -194309.385247611     
  -193451.642964914     
  -193451.642964915     
  -193451.642964915     
  -193451.642964915     
  -193451.642964915     
  -193451.642964916     
  -193451.642964915     
  -193451.642964915     
  -193451.642964916     
  -193451.642964915     
  -193451.642964915     
  -193451.642964915     
  -193451.642964916     
  -193451.642964915     
  -193451.642964914     
  -192590.257203584     
  -192590.257203586     
  -192590.257203585     
  -192590.257203585     
  -192590.257203585     
  -192590.257203586     
  -192590.257203586     
  -192590.257203587     
  -192590.257203586     
  -192590.257203586     
  -192590.257203585     
  -192590.257203585     
  -192590.257203584     
  -192590.257203584     
  -192590.257203586     
  -191725.459486411     
  -191725.459486412     
  -191725.459486412     
  -191725.459486412     
  -191725.459486412     
  -191725.459486412     
  -191725.459486412     
  -191725.459486412     
  -191725.459486413     
  -191725.459486413     
  -191725.459486412     
  -191725.459486411     
  -191725.459486411     
  -191725.459486412     
  -191725.459486411     
  -190857.483617463     
  -190857.483617463     
  -190857.483617463     
  -190857.483617463     
  -190857.483617464     
  -190857.483617463     
  -190857.483617463     
  -190857.483617463     
  -190857.483617463     
  -190857.483617464     
  -190857.483617466     
  -190857.483617464     
  -190857.483617464     
  -190857.483617464     
  -190857.483617465     
  -189986.565630765     
  -189986.565630767     
  -189986.565630768     
  -189986.565630767     
  -189986.565630764     
  -189986.565630766     
  -189986.565630769     
  -189986.565630768     
  -189986.565630770     
  -189986.565630767     
  -189986.565630765     
  -189986.565630768     
  -189986.565630767     
  -189986.565630766     
  -189986.565630766     
SCALARS 2waySource double 
LOOKUP_TABLE default
 -1.186003332251986E-005
 -1.186003332251903E-005
 -1.186003332251972E-005
 -1.186003332252023E-005
 -1.186003332251925E-005
 -1.186003332251979E-005
 -1.186003332251953E-005
 -1.186003332251979E-005
 -1.186003332251949E-005
 -1.186003332251998E-005
 -1.186003332251975E-005
 -1.186003332251971E-005
 -1.186003332251970E-005
 -1.186003332251980E-005
 -1.186003332251968E-005
 -1.185559245636191E-005
 -1.185559245636183E-005
 -1.185559245636216E-005
 -1.185559245636205E-005
 -1.185559245636190E-005
 -1.185559245636235E-005
 -1.185559245636183E-005
 -1.185559245636212E-005
 -1.185559245636213E-005
 -1.185559245636193E-005
 -1.185559245636217E-005
 -1.185559245636197E-005
 -1.185559245636205E-005
 -1.185559245636207E-005
 -1.185559245636198E-005
 -1.184781874127302E-005
 -1.184781874127310E-005
 -1.184781874127302E-005
 -1.184781874127308E-005
 -1.184781874127319E-005
 -1.184781874127284E-005
 -1.184781874127326E-005
 -1.184781874127300E-005
 -1.184781874127322E-005
 -1.184781874127291E-005
 -1.184781874127306E-005
 -1.184781874127304E-005
 -1.184781874127318E-005
 -1.184781874127303E-005
 -1.184781874127308E-005
 -1.183670861110171E-005
 -1.183670861110218E-005
 -1.183670861110242E-005
 -1.183670861110217E-005
 -1.183670861110201E-005
 -1.183670861110235E-005
 -1.183670861110176E-005
 -1.183670861110221E-005
 -1.183670861110208E-005
 -1.183670861110227E-005
 -1.183670861110196E-005
 -1.183670861110236E-005
 -1.183670861110234E-005
 -1.183670861110227E-005
 -1.183670861110230E-005
 -1.182225697928931E-005
 -1.182225697928917E-005
 -1.182225697928895E-005
 -1.182225697928932E-005
 -1.182225697928907E-005
 -1.182225697928878E-005
 -1.182225697928910E-005
 -1.182225697928905E-005
 -1.182225697928940E-005
 -1.182225697928906E-005
 -1.182225697928900E-005
 -1.182225697928936E-005
 -1.182225697928913E-005
 -1.182225697928919E-005
 -1.182225697928923E-005
 -1.180445724726339E-005
 -1.180445724726249E-005
 -1.180445724726326E-005
 -1.180445724726276E-005
 -1.180445724726285E-005
 -1.180445724726289E-005
 -1.180445724726281E-005
 -1.180445724726318E-005
 -1.180445724726297E-005
 -1.180445724726326E-005
 -1.180445724726317E-005
 -1.180445724726311E-005
 -1.180445724726326E-005
 -1.180445724726322E-005
 -1.180445724726319E-005
 -1.178330131537732E-005
 -1.178330131537694E-005
 -1.178330131537727E-005
 -1.178330131537727E-005
 -1.178330131537746E-005
 -1.178330131537755E-005
 -1.178330131537694E-005
 -1.178330131537744E-005
 -1.178330131537738E-005
 -1.178330131537756E-005
 -1.178330131537754E-005
 -1.178330131537750E-005
 -1.178330131537763E-005
 -1.178330131537755E-005
 -1.178330131537746E-005
 -1.175877959638941E-005
 -1.175877959639006E-005
 -1.175877959638947E-005
 -1.175877959638994E-005
 -1.175877959638918E-005
 -1.175877959638982E-005
 -1.175877959638970E-005
 -1.175877959639005E-005
 -1.175877959638986E-005
 -1.175877959638951E-005
 -1.175877959638968E-005
 -1.175877959638999E-005
 -1.175877959638985E-005
 -1.175877959638986E-005
 -1.175877959639008E-005
 -1.173088103150207E-005
 -1.173088103150264E-005
 -1.173088103150282E-005
 -1.173088103150220E-005
 -1.173088103150325E-005
 -1.173088103150285E-005
 -1.173088103150280E-005
 -1.173088103150271E-005
 -1.173088103150276E-005
 -1.173088103150261E-005
 -1.173088103150290E-005
 -1.173088103150286E-005
 -1.173088103150294E-005
 -1.173088103150284E-005
 -1.173088103150287E-005
 -1.169959310897969E-005
 -1.169959310897932E-005
 -1.169959310898002E-005
 -1.169959310897944E-005
 -1.169959310897961E-005
 -1.169959310897984E-005
 -1.169959310897960E-005
 -1.169959310897941E-005
 -1.169959310897983E-005
 -1.169959310897964E-005
 -1.169959310897967E-005
 -1.169959310897982E-005
 -1.169959310897982E-005
 -1.169959310897978E-005
 -1.169959310897972E-005
 -1.166490188535690E-005
 -1.166490188535688E-005
 -1.166490188535698E-005
 -1.166490188535694E-005
 -1.166490188535704E-005
 -1.166490188535698E-005
 -1.166490188535734E-005
 -1.166490188535728E-005
 -1.166490188535719E-005
 -1.166490188535732E-005
 -1.166490188535716E-005
 -1.166490188535725E-005
 -1.166490188535746E-005
 -1.166490188535741E-005
 -1.166490188535761E-005
 -1.162679200927139E-005
 -1.162679200927139E-005
 -1.162679200927082E-005
 -1.162679200927136E-005
 -1.162679200927148E-005
 -1.162679200927169E-005
 -1.162679200927107E-005
 -1.162679200927144E-005
 -1.162679200927110E-005
 -1.162679200927133E-005
 -1.162679200927133E-005
 -1.162679200927138E-005
 -1.162679200927150E-005
 -1.162679200927145E-005
 -1.162679200927130E-005
 -1.158524674792329E-005
 -1.158524674792380E-005
 -1.158524674792344E-005
 -1.158524674792352E-005
 -1.158524674792329E-005
 -1.158524674792364E-005
 -1.158524674792346E-005
 -1.158524674792403E-005
 -1.158524674792343E-005
 -1.158524674792419E-005
 -1.158524674792362E-005
 -1.158524674792389E-005
 -1.158524674792367E-005
 -1.158524674792352E-005
 -1.158524674792362E-005
 -1.154024801621024E-005
 -1.154024801621059E-005
 -1.154024801621059E-005
 -1.154024801621031E-005
 -1.154024801621017E-005
 -1.154024801621033E-005
 -1.154024801621008E-005
 -1.154024801621041E-005
 -1.154024801620985E-005
 -1.154024801621032E-005
 -1.154024801621034E-005
 -1.154024801621043E-005
 -1.154024801621045E-005
 -1.154024801621032E-005
 -1.154024801621034E-005
 -1.149177640853946E-005
 -1.149177640853914E-005
 -1.149177640853914E-005
 -1.149177640853931E-005
 -1.149177640853862E-005
 -1.149177640853903E-005
 -1.149177640853923E-005
 -1.149177640853941E-005
 -1.149177640853931E-005
 -1.149177640853910E-005
 -1.149177640853940E-005
 -1.149177640853917E-005
 -1.149177640853951E-005
 -1.149177640853987E-005
 -1.149177640853981E-005
 -1.143981123336708E-005
 -1.143981123336710E-005
 -1.143981123336736E-005
 -1.143981123336726E-005
 -1.143981123336753E-005
 -1.143981123336750E-005
 -1.143981123336777E-005
 -1.143981123336751E-005
 -1.143981123336746E-005
 -1.143981123336686E-005
 -1.143981123336727E-005
 -1.143981123336749E-005
 -1.143981123336711E-005
 -1.143981123336703E-005
 -1.143981123336678E-005
 -1.138433055047987E-005
 -1.138433055047984E-005
 -1.138433055048013E-005
 -1.138433055047968E-005
 -1.138433055047978E-005
 -1.138433055047950E-005
 -1.138433055047951E-005
 -1.138433055047955E-005
 -1.138433055047983E-005
 -1.138433055047937E-005
 -1.138433055047983E-005
 -1.138433055047984E-005
 -1.138433055047972E-005
 -1.138433055047968E-005
 -1.138433055047970E-005
 -1.132531121105114E-005
 -1.132531121105099E-005
 -1.132531121105057E-005
 -1.132531121105126E-005
 -1.132531121105190E-005
 -1.132531121105119E-005
 -1.132531121105124E-005
 -1.132531121105094E-005
 -1.132531121105137E-005
 -1.132531121105096E-005
 -1.132531121105081E-005
 -1.132531121105112E-005
 -1.132531121105118E-005
 -1.132531121105103E-005
 -1.132531121105064E-005
 -1.126272890050882E-005
 -1.126272890050931E-005
 -1.126272890050827E-005
 -1.126272890050922E-005
 -1.126272890050869E-005
 -1.126272890050867E-005
 -1.126272890050837E-005
 -1.126272890050875E-005
 -1.126272890050926E-005
 -1.126272890050907E-005
 -1.126272890050940E-005
 -1.126272890050916E-005
 -1.126272890050915E-005
 -1.126272890050899E-005
 -1.126272890050902E-005
 -1.119655818423867E-005
 -1.119655818423826E-005
 -1.119655818423844E-005
 -1.119655818423815E-005
 -1.119655818423799E-005
 -1.119655818423876E-005
 -1.119655818423880E-005
 -1.119655818423858E-005
 -1.119655818423857E-005
 -1.119655818423874E-005
 -1.119655818423825E-005
 -1.119655818423806E-005
 -1.119655818423871E-005
 -1.119655818423828E-005
 -1.119655818423827E-005
 -1.112677255615404E-005
 -1.112677255615443E-005
 -1.112677255615372E-005
 -1.112677255615404E-005
 -1.112677255615394E-005
 -1.112677255615436E-005
 -1.112677255615419E-005
 -1.112677255615476E-005
 -1.112677255615463E-005
 -1.112677255615475E-005
 -1.112677255615412E-005
 -1.112677255615483E-005
 -1.112677255615451E-005
 -1.112677255615474E-005
 -1.112677255615490E-005
 -1.105334449017574E-005
 -1.105334449017581E-005
 -1.105334449017583E-005
 -1.105334449017574E-005
 -1.105334449017618E-005
 -1.105334449017548E-005
 -1.105334449017550E-005
 -1.105334449017584E-005
 -1.105334449017567E-005
 -1.105334449017638E-005
 -1.105334449017556E-005
 -1.105334449017553E-005
 -1.105334449017567E-005
 -1.105334449017566E-005
 -1.105334449017539E-005
 -1.097624549462906E-005
 -1.097624549462956E-005
 -1.097624549462894E-005
 -1.097624549462915E-005
 -1.097624549462889E-005
 -1.097624549462917E-005
 -1.097624549462960E-005
 -1.097624549462949E-005
 -1.097624549462940E-005
 -1.097624549462919E-005
 -1.097624549462931E-005
 -1.097624549462957E-005
 -1.097624549462939E-005
 -1.097624549462968E-005
 -1.097624549462938E-005
 -1.089544616961219E-005
 -1.089544616961223E-005
 -1.089544616961221E-005
 -1.089544616961227E-005
 -1.089544616961230E-005
 -1.089544616961238E-005
 -1.089544616961265E-005
 -1.089544616961255E-005
 -1.089544616961313E-005
 -1.089544616961311E-005
 -1.089544616961230E-005
 -1.089544616961223E-005
 -1.089544616961233E-005
 -1.089544616961236E-005
 -1.089544616961235E-005
 -1.081091626734333E-005
 -1.081091626734384E-005
 -1.081091626734344E-005
 -1.081091626734361E-005
 -1.081091626734352E-005
 -1.081091626734340E-005
 -1.081091626734329E-005
 -1.081091626734335E-005
 -1.081091626734375E-005
 -1.081091626734335E-005
 -1.081091626734381E-005
 -1.081091626734432E-005
 -1.081091626734369E-005
 -1.081091626734353E-005
 -1.081091626734356E-005
 -1.072262475552424E-005
 -1.072262475552486E-005
 -1.072262475552474E-005
 -1.072262475552433E-005
 -1.072262475552491E-005
 -1.072262475552463E-005
 -1.072262475552463E-005
 -1.072262475552443E-005
 -1.072262475552484E-005
 -1.072262475552484E-005
 -1.072262475552440E-005
 -1.072262475552499E-005
 -1.072262475552426E-005
 -1.072262475552482E-005
 -1.072262475552459E-005
 -1.063053988373732E-005
 -1.063053988373753E-005
 -1.063053988373822E-005
 -1.063053988373751E-005
 -1.063053988373876E-005
 -1.063053988373790E-005
 -1.063053988373792E-005
 -1.063053988373748E-005
 -1.063053988373749E-005
 -1.063053988373772E-005
 -1.063053988373761E-005
 -1.063053988373751E-005
 -1.063053988373755E-005
 -1.063053988373770E-005
 -1.063053988373748E-005
 -1.053462925289499E-005
 -1.053462925289486E-005
 -1.053462925289584E-005
 -1.053462925289491E-005
 -1.053462925289596E-005
 -1.053462925289522E-005
 -1.053462925289505E-005
 -1.053462925289566E-005
 -1.053462925289557E-005
 -1.053462925289562E-005
 -1.053462925289531E-005
 -1.053462925289575E-005
 -1.053462925289495E-005
 -1.053462925289531E-005
 -1.053462925289521E-005
 -1.043485988776007E-005
 -1.043485988776046E-005
 -1.043485988776055E-005
 -1.043485988775951E-005
 -1.043485988775955E-005
 -1.043485988776019E-005
 -1.043485988775994E-005
 -1.043485988776007E-005
 -1.043485988775981E-005
 -1.043485988775961E-005
 -1.043485988775935E-005
 -1.043485988776055E-005
 -1.043485988776040E-005
 -1.043485988776014E-005
 -1.043485988776009E-005
 -1.033119831254409E-005
 -1.033119831254488E-005
 -1.033119831254408E-005
 -1.033119831254469E-005
 -1.033119831254540E-005
 -1.033119831254497E-005
 -1.033119831254465E-005
 -1.033119831254437E-005
 -1.033119831254471E-005
 -1.033119831254449E-005
 -1.033119831254483E-005
 -1.033119831254495E-005
 -1.033119831254487E-005
 -1.033119831254458E-005
 -1.033119831254460E-005
 -1.022361062959693E-005
 -1.022361062959764E-005
 -1.022361062959698E-005
 -1.022361062959686E-005
 -1.022361062959693E-005
 -1.022361062959605E-005
 -1.022361062959626E-005
 -1.022361062959638E-005
 -1.022361062959650E-005
 -1.022361062959682E-005
 -1.022361062959675E-005
 -1.022361062959684E-005
 -1.022361062959652E-005
 -1.022361062959679E-005
 -1.022361062959688E-005
 -1.011206260116822E-005
 -1.011206260116810E-005
 -1.011206260116811E-005
 -1.011206260116796E-005
 -1.011206260116835E-005
 -1.011206260116903E-005
 -1.011206260116908E-005
 -1.011206260116826E-005
 -1.011206260116823E-005
 -1.011206260116845E-005
 -1.011206260116856E-005
 -1.011206260116855E-005
 -1.011206260116894E-005
 -1.011206260116901E-005
 -1.011206260116831E-005
 -9.996519734261602E-006
 -9.996519734261307E-006
 -9.996519734261549E-006
 -9.996519734261453E-006
 -9.996519734261468E-006
 -9.996519734261283E-006
 -9.996519734260953E-006
 -9.996519734260817E-006
 -9.996519734261241E-006
 -9.996519734260072E-006
 -9.996519734261363E-006
 -9.996519734261896E-006
 -9.996519734261344E-006
 -9.996519734261502E-006
 -9.996519734261168E-006
 -9.876947368534862E-006
 -9.876947368535593E-006
 -9.876947368535498E-006
 -9.876947368535152E-006
 -9.876947368535523E-006
 -9.876947368535401E-006
 -9.876947368535261E-006
 -9.876947368535355E-006
 -9.876947368535638E-006
 -9.876947368535218E-006
 -9.876947368535217E-006
 -9.876947368535227E-006
 -9.876947368535042E-006
 -9.876947368534727E-006
 -9.876947368535088E-006
 -9.753310767250090E-006
 -9.753310767250451E-006
 -9.753310767250620E-006
 -9.753310767249770E-006
 -9.753310767251501E-006
 -9.753310767250139E-006
 -9.753310767250790E-006
 -9.753310767251039E-006
 -9.753310767250640E-006
 -9.753310767250603E-006
 -9.753310767251040E-006
 -9.753310767251127E-006
 -9.753310767251037E-006
 -9.753310767250829E-006
 -9.753310767251330E-006
 -9.625575211218285E-006
 -9.625575211218101E-006
 -9.625575211217711E-006
 -9.625575211217748E-006
 -9.625575211218331E-006
 -9.625575211218238E-006
 -9.625575211217802E-006
 -9.625575211218482E-006
 -9.625575211218072E-006
 -9.625575211217962E-006
 -9.625575211217323E-006
 -9.625575211217780E-006
 -9.625575211217440E-006
 -9.625575211217763E-006
 -9.625575211217459E-006
 -9.493706095696525E-006
 -9.493706095696547E-006
 -9.493706095696871E-006
 -9.493706095696568E-006
 -9.493706095696485E-006
 -9.493706095696149E-006
 -9.493706095696488E-006
 -9.493706095695013E-006
 -9.493706095695783E-006
 -9.493706095696136E-006
 -9.493706095696295E-006
 -9.493706095695760E-006
 -9.493706095696053E-006
 -9.493706095696678E-006
 -9.493706095696220E-006
 -9.357669030203271E-006
 -9.357669030203408E-006
 -9.357669030202781E-006
 -9.357669030203815E-006
 -9.357669030204433E-006
 -9.357669030203208E-006
 -9.357669030203422E-006
 -9.357669030203855E-006
 -9.357669030203757E-006
 -9.357669030204059E-006
 -9.357669030203539E-006
 -9.357669030203652E-006
 -9.357669030203998E-006
 -9.357669030203652E-006
 -9.357669030203757E-006
 -9.217429941142397E-006
 -9.217429941143663E-006
 -9.217429941143365E-006
 -9.217429941142938E-006
 -9.217429941142477E-006
 -9.217429941142482E-006
 -9.217429941143085E-006
 -9.217429941142882E-006
 -9.217429941142653E-006
 -9.217429941142496E-006
 -9.217429941142236E-006
 -9.217429941142641E-006
 -9.217429941142333E-006
 -9.217429941143175E-006
 -9.217429941142350E-006
 -9.072955177187596E-006
 -9.072955177188254E-006
 -9.072955177187764E-006
 -9.072955177188271E-006
 -9.072955177188301E-006
 -9.072955177188833E-006
 -9.072955177188177E-006
 -9.072955177187283E-006
 -9.072955177188664E-006
 -9.072955177188908E-006
 -9.072955177188918E-006
 -9.072955177188792E-006
 -9.072955177188692E-006
 -9.072955177187090E-006
 -9.072955177187332E-006
 -8.924211617300431E-006
 -8.924211617300151E-006
 -8.924211617298515E-006
 -8.924211617299182E-006
 -8.924211617299257E-006
 -8.924211617299518E-006
 -8.924211617300155E-006
 -8.924211617300063E-006
 -8.924211617299040E-006
 -8.924211617297971E-006
 -8.924211617297941E-006
 -8.924211617298755E-006
 -8.924211617298188E-006
 -8.924211617298715E-006
 -8.924211617300009E-006
 -8.771166781272577E-006
 -8.771166781272904E-006
 -8.771166781272804E-006
 -8.771166781273374E-006
 -8.771166781272477E-006
 -8.771166781272171E-006
 -8.771166781272466E-006
 -8.771166781272760E-006
 -8.771166781273045E-006
 -8.771166781273455E-006
 -8.771166781273668E-006
 -8.771166781272933E-006
 -8.771166781273877E-006
 -8.771166781273474E-006
 -8.771166781273565E-006
 -8.613788942678225E-006
 -8.613788942678724E-006
 -8.613788942678558E-006
 -8.613788942677791E-006
 -8.613788942677603E-006
 -8.613788942678049E-006
 -8.613788942677633E-006
 -8.613788942678132E-006
 -8.613788942678103E-006
 -8.613788942677806E-006
 -8.613788942677952E-006
 -8.613788942678857E-006
 -8.613788942677872E-006
 -8.613788942677740E-006
 -8.613788942678338E-006
 -8.452047244023082E-006
 -8.452047244023790E-006
 -8.452047244022923E-006
 -8.452047244024176E-006
 -8.452047244023824E-006
 -8.452047244024092E-006
 -8.452047244024227E-006
 -8.452047244023980E-006
 -8.452047244024000E-006
 -8.452047244024017E-006
 -8.452047244023788E-006
 -8.452047244022750E-006
 -8.452047244023953E-006
 -8.452047244023717E-006
 -8.452047244023316E-006
 -8.285911813983092E-006
 -8.285911813982121E-006
 -8.285911813983466E-006
 -8.285911813982834E-006
 -8.285911813985233E-006
 -8.285911813983543E-006
 -8.285911813983153E-006
 -8.285911813984003E-006
 -8.285911813983085E-006
 -8.285911813983431E-006
 -8.285911813983466E-006
 -8.285911813982845E-006
 -8.285911813983392E-006
 -8.285911813982538E-006
 -8.285911813982931E-006
 -8.115353886463617E-006
 -8.115353886463671E-006
 -8.115353886464323E-006
 -8.115353886463027E-006
 -8.115353886463088E-006
 -8.115353886463666E-006
 -8.115353886463793E-006
 -8.115353886463066E-006
 -8.115353886463923E-006
 -8.115353886464338E-006
 -8.115353886463525E-006
 -8.115353886463956E-006
 -8.115353886464142E-006
 -8.115353886463181E-006
 -8.115353886463795E-006
 -7.940345921307676E-006
 -7.940345921308154E-006
 -7.940345921307444E-006
 -7.940345921307141E-006
 -7.940345921307741E-006
 -7.940345921308120E-006
 -7.940345921308340E-006
 -7.940345921308334E-006
 -7.940345921308140E-006
 -7.940345921307653E-006
 -7.940345921307968E-006
 -7.940345921308357E-006
 -7.940345921308235E-006
 -7.940345921307544E-006
 -7.940345921308252E-006
 -7.760861726360602E-006
 -7.760861726360573E-006
 -7.760861726361244E-006
 -7.760861726360453E-006
 -7.760861726361404E-006
 -7.760861726360196E-006
 -7.760861726360573E-006
 -7.760861726361143E-006
 -7.760861726361380E-006
 -7.760861726361004E-006
 -7.760861726361370E-006
 -7.760861726361024E-006
 -7.760861726360038E-006
 -7.760861726361217E-006
 -7.760861726361009E-006
 -7.576876580628126E-006
 -7.576876580627300E-006
 -7.576876580626669E-006
 -7.576876580627684E-006
 -7.576876580627062E-006
 -7.576876580627705E-006
 -7.576876580627833E-006
 -7.576876580628352E-006
 -7.576876580628112E-006
 -7.576876580628671E-006
 -7.576876580627548E-006
 -7.576876580628016E-006
 -7.576876580627831E-006
 -7.576876580628285E-006
 -7.576876580627976E-006
 -7.388367358210390E-006
 -7.388367358210544E-006
 -7.388367358210784E-006
 -7.388367358209579E-006
 -7.388367358209708E-006
 -7.388367358209983E-006
 -7.388367358210701E-006
 -7.388367358210877E-006
 -7.388367358210615E-006
 -7.388367358210650E-006
 -7.388367358210972E-006
 -7.388367358210832E-006
 -7.388367358209922E-006
 -7.388367358211003E-006
 -7.388367358210812E-006
 -7.195312652672926E-006
 -7.195312652673855E-006
 -7.195312652674305E-006
 -7.195312652674794E-006
 -7.195312652673860E-006
 -7.195312652674607E-006
 -7.195312652674780E-006
 -7.195312652673335E-006
 -7.195312652673480E-006
 -7.195312652673234E-006
 -7.195312652673424E-006
 -7.195312652673700E-006
 -7.195312652674304E-006
 -7.195312652673883E-006
 -7.195312652673960E-006
 -6.997692901472644E-006
 -6.997692901472627E-006
 -6.997692901473276E-006
 -6.997692901473300E-006
 -6.997692901472880E-006
 -6.997692901471915E-006
 -6.997692901472335E-006
 -6.997692901473359E-006
 -6.997692901474036E-006
 -6.997692901472519E-006
 -6.997692901472707E-006
 -6.997692901473030E-006
 -6.997692901472751E-006
 -6.997692901472790E-006
 -6.997692901473272E-006
 -6.795490510018860E-006
 -6.795490510017698E-006
 -6.795490510017156E-006
 -6.795490510018024E-006
 -6.795490510018236E-006
 -6.795490510017928E-006
 -6.795490510017233E-006
 -6.795490510017269E-006
 -6.795490510017175E-006
 -6.795490510017499E-006
 -6.795490510018171E-006
 -6.795490510018941E-006
 -6.795490510018408E-006
 -6.795490510016835E-006
 -6.795490510016647E-006
 -6.588689974944525E-006
 -6.588689974943554E-006
 -6.588689974943843E-006
 -6.588689974943957E-006
 -6.588689974944074E-006
 -6.588689974943716E-006
 -6.588689974943918E-006
 -6.588689974944050E-006
 -6.588689974943650E-006
 -6.588689974944165E-006
 -6.588689974943826E-006
 -6.588689974943889E-006
 -6.588689974943977E-006
 -6.588689974945827E-006
 -6.588689974945022E-006
 -6.377278006082563E-006
 -6.377278006083482E-006
 -6.377278006083021E-006
 -6.377278006083737E-006
 -6.377278006083407E-006
 -6.377278006083154E-006
 -6.377278006082846E-006
 -6.377278006082339E-006
 -6.377278006082549E-006
 -6.377278006083176E-006
 -6.377278006083417E-006
 -6.377278006082254E-006
 -6.377278006081982E-006
 -6.377278006082080E-006
 -6.377278006082263E-006
 -6.161243646618889E-006
 -6.161243646618407E-006
 -6.161243646617258E-006
 -6.161243646618530E-006
 -6.161243646618579E-006
 -6.161243646619027E-006
 -6.161243646618496E-006
 -6.161243646618805E-006
 -6.161243646619382E-006
 -6.161243646619325E-006
 -6.161243646618600E-006
 -6.161243646619489E-006
 -6.161243646618270E-006
 -6.161243646618910E-006
 -6.161243646619249E-006
 -5.940578390866762E-006
 -5.940578390866881E-006
 -5.940578390869149E-006
 -5.940578390867382E-006
 -5.940578390868134E-006
 -5.940578390867606E-006
 -5.940578390867272E-006
 -5.940578390867760E-006
 -5.940578390867336E-006
 -5.940578390867467E-006
 -5.940578390868541E-006
 -5.940578390868029E-006
 -5.940578390867561E-006
 -5.940578390867896E-006
 -5.940578390867347E-006
 -5.715276299060134E-006
 -5.715276299060697E-006
 -5.715276299059556E-006
 -5.715276299059263E-006
 -5.715276299061118E-006
 -5.715276299061132E-006
 -5.715276299061113E-006
 -5.715276299060037E-006
 -5.715276299060307E-006
 -5.715276299061213E-006
 -5.715276299060371E-006
 -5.715276299061038E-006
 -5.715276299060702E-006
 -5.715276299060140E-006
 -5.715276299060454E-006
 -5.485334108490863E-006
 -5.485334108490619E-006
 -5.485334108490422E-006
 -5.485334108491078E-006
 -5.485334108490987E-006
 -5.485334108490744E-006
 -5.485334108490373E-006
 -5.485334108491037E-006
 -5.485334108490606E-006
 -5.485334108490888E-006
 -5.485334108489568E-006
 -5.485334108491042E-006
 -5.485334108491124E-006
 -5.485334108490244E-006
 -5.485334108490253E-006
 -5.250751340339541E-006
 -5.250751340339528E-006
 -5.250751340339740E-006
 -5.250751340340376E-006
 -5.250751340340328E-006
 -5.250751340339295E-006
 -5.250751340339824E-006
 -5.250751340339509E-006
 -5.250751340338467E-006
 -5.250751340339761E-006
 -5.250751340339569E-006
 -5.250751340340970E-006
 -5.250751340339013E-006
 -5.250751340338761E-006
 -5.250751340339129E-006
 -5.011530401430118E-006
 -5.011530401430454E-006
 -5.011530401430096E-006
 -5.011530401429629E-006
 -5.011530401430033E-006
 -5.011530401430311E-006
 -5.011530401430163E-006
 -5.011530401430423E-006
 -5.011530401431366E-006
 -5.011530401430098E-006
 -5.011530401430061E-006
 -5.011530401429788E-006
 -5.011530401430899E-006
 -5.011530401430237E-006
 -5.011530401430223E-006
 -4.767676680161368E-006
 -4.767676680161064E-006
 -4.767676680160968E-006
 -4.767676680161190E-006
 -4.767676680160698E-006
 -4.767676680161043E-006
 -4.767676680160842E-006
 -4.767676680161244E-006
 -4.767676680161136E-006
 -4.767676680160754E-006
 -4.767676680161044E-006
 -4.767676680160211E-006
 -4.767676680160388E-006
 -4.767676680161036E-006
 -4.767676680160544E-006
 -4.519198635778210E-006
 -4.519198635777748E-006
 -4.519198635778441E-006
 -4.519198635777325E-006
 -4.519198635777443E-006
 -4.519198635777273E-006
 -4.519198635776507E-006
 -4.519198635776955E-006
 -4.519198635777020E-006
 -4.519198635777493E-006
 -4.519198635776903E-006
 -4.519198635776686E-006
 -4.519198635776943E-006
 -4.519198635777365E-006
 -4.519198635777079E-006
 -4.266107880171514E-006
 -4.266107880171037E-006
 -4.266107880170984E-006
 -4.266107880171340E-006
 -4.266107880171287E-006
 -4.266107880170801E-006
 -4.266107880171211E-006
 -4.266107880170559E-006
 -4.266107880171716E-006
 -4.266107880171045E-006
 -4.266107880171362E-006
 -4.266107880170815E-006
 -4.266107880170605E-006
 -4.266107880171786E-006
 -4.266107880170805E-006
 -4.008419251277779E-006
 -4.008419251277602E-006
 -4.008419251277984E-006
 -4.008419251278798E-006
 -4.008419251278117E-006
 -4.008419251279302E-006
 -4.008419251278499E-006
 -4.008419251278745E-006
 -4.008419251276765E-006
 -4.008419251278238E-006
 -4.008419251278583E-006
 -4.008419251278786E-006
 -4.008419251278589E-006
 -4.008419251279177E-006
 -4.008419251279252E-006
 -3.746150877188714E-006
 -3.746150877189578E-006
 -3.746150877188236E-006
 -3.746150877189505E-006
 -3.746150877189713E-006
 -3.746150877189070E-006
 -3.746150877189775E-006
 -3.746150877189648E-006
 -3.746150877190095E-006
 -3.746150877190622E-006
 -3.746150877189432E-006
 -3.746150877189684E-006
 -3.746150877189588E-006
 -3.746150877189592E-006
 -3.746150877188992E-006
 -3.479324230024735E-006
 -3.479324230024418E-006
 -3.479324230025165E-006
 -3.479324230024366E-006
 -3.479324230024297E-006
 -3.479324230025286E-006
 -3.479324230023951E-006
 -3.479324230025006E-006
 -3.479324230024633E-006
 -3.479324230024441E-006
 -3.479324230025748E-006
 -3.479324230025711E-006
 -3.479324230025718E-006
 -3.479324230025514E-006
 -3.479324230024208E-006
 -3.207964168606671E-006
 -3.207964168606086E-006
 -3.207964168605934E-006
 -3.207964168606236E-006
 -3.207964168605804E-006
 -3.207964168605883E-006
 -3.207964168606019E-006
 -3.207964168606492E-006
 -3.207964168606349E-006
 -3.207964168605970E-006
 -3.207964168605073E-006
 -3.207964168605288E-006
 -3.207964168605102E-006
 -3.207964168604718E-006
 -3.207964168605141E-006
 -2.932098968933868E-006
 -2.932098968934253E-006
 -2.932098968933088E-006
 -2.932098968933680E-006
 -2.932098968935123E-006
 -2.932098968935267E-006
 -2.932098968934451E-006
 -2.932098968933772E-006
 -2.932098968932883E-006
 -2.932098968932811E-006
 -2.932098968932687E-006
 -2.932098968934064E-006
 -2.932098968932717E-006
 -2.932098968933838E-006
 -2.932098968934155E-006
 -2.651760341526931E-006
 -2.651760341526962E-006
 -2.651760341526524E-006
 -2.651760341526568E-006
 -2.651760341526117E-006
 -2.651760341527601E-006
 -2.651760341526243E-006
 -2.651760341526555E-006
 -2.651760341527787E-006
 -2.651760341527732E-006
 -2.651760341528122E-006
 -2.651760341527290E-006
 -2.651760341526102E-006
 -2.651760341526021E-006
 -2.651760341526668E-006
 -2.366983434594436E-006
 -2.366983434595704E-006
 -2.366983434594219E-006
 -2.366983434594403E-006
 -2.366983434593897E-006
 -2.366983434592706E-006
 -2.366983434594406E-006
 -2.366983434594018E-006
 -2.366983434593456E-006
 -2.366983434594040E-006
 -2.366983434593469E-006
 -2.366983434594462E-006
 -2.366983434594594E-006
 -2.366983434594842E-006
 -2.366983434596685E-006
 -2.077806822109573E-006
 -2.077806822108849E-006
 -2.077806822109581E-006
 -2.077806822109743E-006
 -2.077806822110654E-006
 -2.077806822109738E-006
 -2.077806822110376E-006
 -2.077806822109687E-006
 -2.077806822108867E-006
 -2.077806822109184E-006
 -2.077806822110038E-006
 -2.077806822109237E-006
 -2.077806822109682E-006
 -2.077806822110081E-006
 -2.077806822110073E-006
 -1.784272475835784E-006
 -1.784272475834902E-006
 -1.784272475835920E-006
 -1.784272475835903E-006
 -1.784272475834787E-006
 -1.784272475834661E-006
 -1.784272475833608E-006
 -1.784272475834471E-006
 -1.784272475835821E-006
 -1.784272475834858E-006
 -1.784272475835225E-006
 -1.784272475835976E-006
 -1.784272475835104E-006
 -1.784272475834338E-006
 -1.784272475835860E-006
 -1.486425720400288E-006
 -1.486425720400891E-006
 -1.486425720400950E-006
 -1.486425720401869E-006
 -1.486425720401882E-006
 -1.486425720401912E-006
 -1.486425720402133E-006
 -1.486425720401470E-006
 -1.486425720401307E-006
 -1.486425720402558E-006
 -1.486425720401763E-006
 -1.486425720402167E-006
 -1.486425720401149E-006
 -1.486425720403913E-006
 -1.486425720403210E-006
 -1.184315170612897E-006
 -1.184315170613115E-006
 -1.184315170612907E-006
 -1.184315170612677E-006
 -1.184315170615368E-006
 -1.184315170612836E-006
 -1.184315170612526E-006
 -1.184315170613044E-006
 -1.184315170613522E-006
 -1.184315170613571E-006
 -1.184315170612563E-006
 -1.184315170612598E-006
 -1.184315170613432E-006
 -1.184315170612295E-006
 -1.184315170612609E-006
 -8.779926501947502E-007
 -8.779926501941932E-007
 -8.779926501949862E-007
 -8.779926501954839E-007
 -8.779926501947528E-007
 -8.779926501944888E-007
 -8.779926501937216E-007
 -8.779926501949039E-007
 -8.779926501950232E-007
 -8.779926501942974E-007
 -8.779926501946345E-007
 -8.779926501945010E-007
 -8.779926501930308E-007
 -8.779926501946645E-007
 -8.779926501934071E-007
 -5.675130913505632E-007
 -5.675130913488527E-007
 -5.675130913489227E-007
 -5.675130913487648E-007
 -5.675130913505031E-007
 -5.675130913491253E-007
 -5.675130913510950E-007
 -5.675130913493634E-007
 -5.675130913495886E-007
 -5.675130913490355E-007
 -5.675130913502135E-007
 -5.675130913496088E-007
 -5.675130913498267E-007
 -5.675130913505995E-007
 -5.675130913495167E-007
 -2.529344145332272E-007
 -2.529344145331416E-007
 -2.529344145328630E-007
 -2.529344145308174E-007
 -2.529344145323409E-007
 -2.529344145320948E-007
 -2.529344145320198E-007
 -2.529344145317651E-007
 -2.529344145308697E-007
 -2.529344145317391E-007
 -2.529344145329423E-007
 -2.529344145320577E-007
 -2.529344145325865E-007
 -2.529344145342503E-007
 -2.529344145327422E-007
  6.568261193758412E-008
  6.568261193725991E-008
  6.568261193737155E-008
  6.568261193620691E-008
  6.568261193681247E-008
  6.568261193800313E-008
  6.568261193738250E-008
  6.568261193772732E-008
  6.568261193615680E-008
  6.568261193559953E-008
  6.568261193653583E-008
  6.568261193621567E-008
  6.568261193653100E-008
  6.568261193635624E-008
  6.568261193647290E-008
  3.882745326971591E-007
  3.882745326964187E-007
  3.882745326973637E-007
  3.882745326965878E-007
  3.882745326964105E-007
  3.882745326974250E-007
  3.882745326978007E-007
  3.882745326979160E-007
  3.882745326976783E-007
  3.882745326979598E-007
  3.882745326977453E-007
  3.882745326984092E-007
  3.882745326977097E-007
  3.882745326988687E-007
  3.882745327004237E-007
  7.147753866793291E-007
  7.147753866798000E-007
  7.147753866800580E-007
  7.147753866796151E-007
  7.147753866804301E-007
  7.147753866801033E-007
  7.147753866787560E-007
  7.147753866800163E-007
  7.147753866794799E-007
  7.147753866798441E-007
  7.147753866802349E-007
  7.147753866786561E-007
  7.147753866789046E-007
  7.147753866784757E-007
  7.147753866791794E-007
  1.045116908783129E-006
  1.045116908783251E-006
  1.045116908783210E-006
  1.045116908783402E-006
  1.045116908784274E-006
  1.045116908783528E-006
  1.045116908784089E-006
  1.045116908783742E-006
  1.045116908784119E-006
  1.045116908784101E-006
  1.045116908784665E-006
  1.045116908783726E-006
  1.045116908785057E-006
  1.045116908782904E-006
  1.045116908783087E-006
  1.379228751593432E-006
  1.379228751593406E-006
  1.379228751594824E-006
  1.379228751593987E-006
  1.379228751594075E-006
  1.379228751593472E-006
  1.379228751592316E-006
  1.379228751592980E-006
  1.379228751593041E-006
  1.379228751593737E-006
  1.379228751593291E-006
  1.379228751592618E-006
  1.379228751592614E-006
  1.379228751592803E-006
  1.379228751593366E-006
  1.717038726460080E-006
  1.717038726460747E-006
  1.717038726461757E-006
  1.717038726461190E-006
  1.717038726461448E-006
  1.717038726461323E-006
  1.717038726461360E-006
  1.717038726460859E-006
  1.717038726459919E-006
  1.717038726461035E-006
  1.717038726460585E-006
  1.717038726460627E-006
  1.717038726461855E-006
  1.717038726462372E-006
  1.717038726462063E-006
  2.058473063149276E-006
  2.058473063149136E-006
  2.058473063149001E-006
  2.058473063150212E-006
  2.058473063150785E-006
  2.058473063150125E-006
  2.058473063150344E-006
  2.058473063150455E-006
  2.058473063150794E-006
  2.058473063150376E-006
  2.058473063150387E-006
  2.058473063149691E-006
  2.058473063149203E-006
  2.058473063149744E-006
  2.058473063149565E-006
  2.403456686844224E-006
  2.403456686843574E-006
  2.403456686843284E-006
  2.403456686844796E-006
  2.403456686843618E-006
  2.403456686842015E-006
  2.403456686842217E-006
  2.403456686844276E-006
  2.403456686844432E-006
  2.403456686844778E-006
  2.403456686844038E-006
  2.403456686842709E-006
  2.403456686844658E-006
  2.403456686843710E-006
  2.403456686842228E-006
  2.751913511166176E-006
  2.751913511165531E-006
  2.751913511165308E-006
  2.751913511166061E-006
  2.751913511164888E-006
  2.751913511164952E-006
  2.751913511165476E-006
  2.751913511165461E-006
  2.751913511165828E-006
  2.751913511167179E-006
  2.751913511165017E-006
  2.751913511166769E-006
  2.751913511166743E-006
  2.751913511166420E-006
  2.751913511167490E-006
  3.103766745465836E-006
  3.103766745465761E-006
  3.103766745466274E-006
  3.103766745467761E-006
  3.103766745467085E-006
  3.103766745465517E-006
  3.103766745467229E-006
  3.103766745467102E-006
  3.103766745467108E-006
  3.103766745465937E-006
  3.103766745466112E-006
  3.103766745464873E-006
  3.103766745465784E-006
  3.103766745468131E-006
  3.103766745465602E-006
  3.458939214485500E-006
  3.458939214484969E-006
  3.458939214485863E-006
  3.458939214485357E-006
  3.458939214486807E-006
  3.458939214486451E-006
  3.458939214485101E-006
  3.458939214483699E-006
  3.458939214485518E-006
  3.458939214484974E-006
  3.458939214485195E-006
  3.458939214486096E-006
  3.458939214485981E-006
  3.458939214484459E-006
  3.458939214484027E-006
  3.817353688187455E-006
  3.817353688187720E-006
  3.817353688186614E-006
  3.817353688184710E-006
  3.817353688186076E-006
  3.817353688187216E-006
  3.817353688185704E-006
  3.817353688186653E-006
  3.817353688185497E-006
  3.817353688185940E-006
  3.817353688186611E-006
  3.817353688185293E-006
  3.817353688186439E-006
  3.817353688187051E-006
  3.817353688186977E-006
SCALARS poroP double 
LOOKUP_TABLE default
  0.000000000000000E+000
  0.000000000000000E+000
  0.000000000000000E+000
  0.000000000000000E+000
  0.000000000000000E+000
  0.000000000000000E+000
  0.000000000000000E+000
  0.000000000000000E+000
  0.000000000000000E+000
  0.000000000000000E+000
  0.000000000000000E+000
  0.000000000000000E+000
  0.000000000000000E+000
  0.000000000000000E+000
  0.000000000000000E+000
  0.000000000000000E+000
  0.000000000000000E+000
  0.000000000000000E+000
  0.000000000000000E+000
  0.000000000000000E+000
  0.000000000000000E+000
  0.000000000000000E+000
  0.000000000000000E+000
  0.000000000000000E+000
  0.000000000000000E+000
  0.000000000000000E+000
  0.000000000000000E+000
  0.000000000000000E+000
  0.000000000000000E+000
  0.000000000000000E+000
  0.000000000000000E+000
  0.000000000000000E+000
  0.000000000000000E+000
  0.000000000000000E+000
  0.000000000000000E+000
  0.000000000000000E+000
  0.000000000000000E+000
  0.000000000000000E+000
  0.000000000000000E+000
  0.000000000000000E+000
  0.000000000000000E+000
  0.000000000000000E+000
  0.000000000000000E+000
  0.000000000000000E+000
  0.000000000000000E+000
  0.000000000000000E+000
  0.000000000000000E+000
  0.000000000000000E+000
  0.000000000000000E+000
  0.000000000000000E+000
  0.000000000000000E+000
  0.000000000000000E+000
  0.000000000000000E+000
  0.000000000000000E+000
  0.000000000000000E+000
  0.000000000000000E+000
  0.000000000000000E+000
  0.000000000000000E+000
  0.000000000000000E+000
  0.000000000000000E+000
  0.000000000000000E+000
  0.000000000000000E+000
  0.000000000000000E+000
  0.000000000000000E+000
  0.000000000000000E+000
  0.000000000000000E+000
  0.000000000000000E+000
  0.000000000000000E+000
  0.000000000000000E+000
  0.000000000000000E+000
  0.000000000000000E+000
  0.000000000000000E+000
  0.000000000000000E+000
  0.000000000000000E+000
  0.000000000000000E+000
  0.000000000000000E+000
  0.000000000000000E+000
  0.000000000000000E+000
  0.000000000000000E+000
  0.000000000000000E+000
  0.000000000000000E+000
  0.000000000000000E+000
  0.000000000000000E+000
  0.000000000000000E+000
  0.000000000000000E+000
  0.000000000000000E+000
  0.000000000000000E+000
  0.000000000000000E+000
  0.000000000000000E+000
  0.000000000000000E+000
  0.000000000000000E+000
  0.000000000000000E+000
  0.000000000000000E+000
  0.000000000000000E+000
  0.000000000000000E+000
  0.000000000000000E+000
  0.000000000000000E+000
  0.000000000000000E+000
  0.000000000000000E+000
  0.000000000000000E+000
  0.000000000000000E+000
  0.000000000000000E+000
  0.000000000000000E+000
  0.000000000000000E+000
  0.000000000000000E+000
  0.000000000000000E+000
  0.000000000000000E+000
  0.000000000000000E+000
  0.000000000000000E+000
  0.000000000000000E+000
  0.000000000000000E+000
  0.000000000000000E+000
  0.000000000000000E+000
  0.000000000000000E+000
  0.000000000000000E+000
  0.000000000000000E+000
  0.000000000000000E+000
  0.000000000000000E+000
  0.000000000000000E+000
  0.000000000000000E+000
  0.000000000000000E+000
  0.000000000000000E+000
  0.000000000000000E+000
  0.000000000000000E+000
  0.000000000000000E+000
  0.000000000000000E+000
  0.000000000000000E+000
  0.000000000000000E+000
  0.000000000000000E+000
  0.000000000000000E+000
  0.000000000000000E+000
  0.000000000000000E+000
  0.000000000000000E+000
  0.000000000000000E+000
  0.000000000000000E+000
  0.000000000000000E+000
  0.000000000000000E+000
  0.000000000000000E+000
  0.000000000000000E+000
  0.000000000000000E+000
  0.000000000000000E+000
  0.000000000000000E+000
  0.000000000000000E+000
  0.000000000000000E+000
  0.000000000000000E+000
  0.000000000000000E+000
  0.000000000000000E+000
  0.000000000000000E+000
  0.000000000000000E+000
  0.000000000000000E+000
  0.000000000000000E+000
  0.000000000000000E+000
  0.000000000000000E+000
  0.000000000000000E+000
  0.000000000000000E+000
  0.000000000000000E+000
  0.000000000000000E+000
  0.000000000000000E+000
  0.000000000000000E+000
  0.000000000000000E+000
  0.000000000000000E+000
  0.000000000000000E+000
  0.000000000000000E+000
  0.000000000000000E+000
  0.000000000000000E+000
  0.000000000000000E+000
  0.000000000000000E+000
  0.000000000000000E+000
  0.000000000000000E+000
  0.000000000000000E+000
  0.000000000000000E+000
  0.000000000000000E+000
  0.000000000000000E+000
  0.000000000000000E+000
  0.000000000000000E+000
  0.000000000000000E+000
  0.000000000000000E+000
  0.000000000000000E+000
  0.000000000000000E+000
  0.000000000000000E+000
  0.000000000000000E+000
  0.000000000000000E+000
  0.000000000000000E+000
  0.000000000000000E+000
  0.000000000000000E+000
  0.000000000000000E+000
  0.000000000000000E+000
  0.000000000000000E+000
  0.000000000000000E+000
  0.000000000000000E+000
  0.000000000000000E+000
  0.000000000000000E+000
  0.000000000000000E+000
  0.000000000000000E+000
  0.000000000000000E+000
  0.000000000000000E+000
  0.000000000000000E+000
  0.000000000000000E+000
  0.000000000000000E+000
  0.000000000000000E+000
  0.000000000000000E+000
  0.000000000000000E+000
  0.000000000000000E+000
  0.000000000000000E+000
  0.000000000000000E+000
  0.000000000000000E+000
  0.000000000000000E+000
  0.000000000000000E+000
  0.000000000000000E+000
  0.000000000000000E+000
  0.000000000000000E+000
  0.000000000000000E+000
  0.000000000000000E+000
  0.000000000000000E+000
  0.000000000000000E+000
  0.000000000000000E+000
  0.000000000000000E+000
  0.000000000000000E+000
  0.000000000000000E+000
  0.000000000000000E+000
  0.000000000000000E+000
  0.000000000000000E+000
  0.000000000000000E+000
  0.000000000000000E+000
  0.000000000000000E+000
  0.000000000000000E+000
  0.000000000000000E+000
  0.000000000000000E+000
  0.000000000000000E+000
  0.000000000000000E+000
  0.000000000000000E+000
  0.000000000000000E+000
  0.000000000000000E+000
  0.000000000000000E+000
  0.000000000000000E+000
  0.000000000000000E+000
  0.000000000000000E+000
  0.000000000000000E+000
  0.000000000000000E+000
  0.000000000000000E+000
  0.000000000000000E+000
  0.000000000000000E+000
  0.000000000000000E+000
  0.000000000000000E+000
  0.000000000000000E+000
  0.000000000000000E+000
  0.000000000000000E+000
  0.000000000000000E+000
  0.000000000000000E+000
  0.000000000000000E+000
  0.000000000000000E+000
  0.000000000000000E+000
  0.000000000000000E+000
  0.000000000000000E+000
  0.000000000000000E+000
  0.000000000000000E+000
  0.000000000000000E+000
  0.000000000000000E+000
  0.000000000000000E+000
  0.000000000000000E+000
  0.000000000000000E+000
  0.000000000000000E+000
  0.000000000000000E+000
  0.000000000000000E+000
  0.000000000000000E+000
  0.000000000000000E+000
  0.000000000000000E+000
  0.000000000000000E+000
  0.000000000000000E+000
  0.000000000000000E+000
  0.000000000000000E+000
  0.000000000000000E+000
  0.000000000000000E+000
  0.000000000000000E+000
  0.000000000000000E+000
  0.000000000000000E+000
  0.000000000000000E+000
  0.000000000000000E+000
  0.000000000000000E+000
  0.000000000000000E+000
  0.000000000000000E+000
  0.000000000000000E+000
  0.000000000000000E+000
  0.000000000000000E+000
  0.000000000000000E+000
  0.000000000000000E+000
  0.000000000000000E+000
  0.000000000000000E+000
  0.000000000000000E+000
  0.000000000000000E+000
  0.000000000000000E+000
  0.000000000000000E+000
  0.000000000000000E+000
  0.000000000000000E+000
  0.000000000000000E+000
  0.000000000000000E+000
  0.000000000000000E+000
  0.000000000000000E+000
  0.000000000000000E+000
  0.000000000000000E+000
  0.000000000000000E+000
  0.000000000000000E+000
  0.000000000000000E+000
  0.000000000000000E+000
  0.000000000000000E+000
  0.000000000000000E+000
  0.000000000000000E+000
  0.000000000000000E+000
  0.000000000000000E+000
  0.000000000000000E+000
  0.000000000000000E+000
  0.000000000000000E+000
  0.000000000000000E+000
  0.000000000000000E+000
  0.000000000000000E+000
  0.000000000000000E+000
  0.000000000000000E+000
  0.000000000000000E+000
  0.000000000000000E+000
  0.000000000000000E+000
  0.000000000000000E+000
  0.000000000000000E+000
  0.000000000000000E+000
  0.000000000000000E+000
  0.000000000000000E+000
  0.000000000000000E+000
  0.000000000000000E+000
  0.000000000000000E+000
  0.000000000000000E+000
  0.000000000000000E+000
  0.000000000000000E+000
  0.000000000000000E+000
  0.000000000000000E+000
  0.000000000000000E+000
  0.000000000000000E+000
  0.000000000000000E+000
  0.000000000000000E+000
  0.000000000000000E+000
  0.000000000000000E+000
  0.000000000000000E+000
  0.000000000000000E+000
  0.000000000000000E+000
  0.000000000000000E+000
  0.000000000000000E+000
  0.000000000000000E+000
  0.000000000000000E+000
  0.000000000000000E+000
  0.000000000000000E+000
  0.000000000000000E+000
  0.000000000000000E+000
  0.000000000000000E+000
  0.000000000000000E+000
  0.000000000000000E+000
  0.000000000000000E+000
  0.000000000000000E+000
  0.000000000000000E+000
  0.000000000000000E+000
  0.000000000000000E+000
  0.000000000000000E+000
  0.000000000000000E+000
  0.000000000000000E+000
  0.000000000000000E+000
  0.000000000000000E+000
  0.000000000000000E+000
  0.000000000000000E+000
  0.000000000000000E+000
  0.000000000000000E+000
  0.000000000000000E+000
  0.000000000000000E+000
  0.000000000000000E+000
  0.000000000000000E+000
  0.000000000000000E+000
  0.000000000000000E+000
  0.000000000000000E+000
  0.000000000000000E+000
  0.000000000000000E+000
  0.000000000000000E+000
  0.000000000000000E+000
  0.000000000000000E+000
  0.000000000000000E+000
  0.000000000000000E+000
  0.000000000000000E+000
  0.000000000000000E+000
  0.000000000000000E+000
  0.000000000000000E+000
  0.000000000000000E+000
  0.000000000000000E+000
  0.000000000000000E+000
  0.000000000000000E+000
  0.000000000000000E+000
  0.000000000000000E+000
  0.000000000000000E+000
  0.000000000000000E+000
  0.000000000000000E+000
  0.000000000000000E+000
  0.000000000000000E+000
  0.000000000000000E+000
  0.000000000000000E+000
  0.000000000000000E+000
  0.000000000000000E+000
  0.000000000000000E+000
  0.000000000000000E+000
  0.000000000000000E+000
  0.000000000000000E+000
  0.000000000000000E+000
  0.000000000000000E+000
  0.000000000000000E+000
  0.000000000000000E+000
  0.000000000000000E+000
  0.000000000000000E+000
  0.000000000000000E+000
  0.000000000000000E+000
  0.000000000000000E+000
  0.000000000000000E+000
  0.000000000000000E+000
  0.000000000000000E+000
  0.000000000000000E+000
  0.000000000000000E+000
  0.000000000000000E+000
  0.000000000000000E+000
  0.000000000000000E+000
  0.000000000000000E+000
  0.000000000000000E+000
  0.000000000000000E+000
  0.000000000000000E+000
  0.000000000000000E+000
  0.000000000000000E+000
  0.000000000000000E+000
  0.000000000000000E+000
  0.000000000000000E+000
  0.000000000000000E+000
  0.000000000000000E+000
  0.000000000000000E+000
  0.000000000000000E+000
  0.000000000000000E+000
  0.000000000000000E+000
  0.000000000000000E+000
  0.000000000000000E+000
  0.000000000000000E+000
  0.000000000000000E+000
  0.000000000000000E+000
  0.000000000000000E+000
  0.000000000000000E+000
  0.000000000000000E+000
  0.000000000000000E+000
  0.000000000000000E+000
  0.000000000000000E+000
  0.000000000000000E+000
  0.000000000000000E+000
  0.000000000000000E+000
  0.000000000000000E+000
  0.000000000000000E+000
  0.000000000000000E+000
  0.000000000000000E+000
  0.000000000000000E+000
  0.000000000000000E+000
  0.000000000000000E+000
  0.000000000000000E+000
  0.000000000000000E+000
  0.000000000000000E+000
  0.000000000000000E+000
  0.000000000000000E+000
  0.000000000000000E+000
  0.000000000000000E+000
  0.000000000000000E+000
  0.000000000000000E+000
  0.000000000000000E+000
  0.000000000000000E+000
  0.000000000000000E+000
  0.000000000000000E+000
  0.000000000000000E+000
  0.000000000000000E+000
  0.000000000000000E+000
  0.000000000000000E+000
  0.000000000000000E+000
  0.000000000000000E+000
  0.000000000000000E+000
  0.000000000000000E+000
  0.000000000000000E+000
  0.000000000000000E+000
  0.000000000000000E+000
  0.000000000000000E+000
  0.000000000000000E+000
  0.000000000000000E+000
  0.000000000000000E+000
  0.000000000000000E+000
  0.000000000000000E+000
  0.000000000000000E+000
  0.000000000000000E+000
  0.000000000000000E+000
  0.000000000000000E+000
  0.000000000000000E+000
  0.000000000000000E+000
  0.000000000000000E+000
  0.000000000000000E+000
  0.000000000000000E+000
  0.000000000000000E+000
  0.000000000000000E+000
  0.000000000000000E+000
  0.000000000000000E+000
  0.000000000000000E+000
  0.000000000000000E+000
  0.000000000000000E+000
  0.000000000000000E+000
  0.000000000000000E+000
  0.000000000000000E+000
  0.000000000000000E+000
  0.000000000000000E+000
  0.000000000000000E+000
  0.000000000000000E+000
  0.000000000000000E+000
  0.000000000000000E+000
  0.000000000000000E+000
  0.000000000000000E+000
  0.000000000000000E+000
  0.000000000000000E+000
  0.000000000000000E+000
  0.000000000000000E+000
  0.000000000000000E+000
  0.000000000000000E+000
  0.000000000000000E+000
  0.000000000000000E+000
  0.000000000000000E+000
  0.000000000000000E+000
  0.000000000000000E+000
  0.000000000000000E+000
  0.000000000000000E+000
  0.000000000000000E+000
  0.000000000000000E+000
  0.000000000000000E+000
  0.000000000000000E+000
  0.000000000000000E+000
  0.000000000000000E+000
  0.000000000000000E+000
  0.000000000000000E+000
  0.000000000000000E+000
  0.000000000000000E+000
  0.000000000000000E+000
  0.000000000000000E+000
  0.000000000000000E+000
  0.000000000000000E+000
  0.000000000000000E+000
  0.000000000000000E+000
  0.000000000000000E+000
  0.000000000000000E+000
  0.000000000000000E+000
  0.000000000000000E+000
  0.000000000000000E+000
  0.000000000000000E+000
  0.000000000000000E+000
  0.000000000000000E+000
  0.000000000000000E+000
  0.000000000000000E+000
  0.000000000000000E+000
  0.000000000000000E+000
  0.000000000000000E+000
  0.000000000000000E+000
  0.000000000000000E+000
  0.000000000000000E+000
  0.000000000000000E+000
  0.000000000000000E+000
  0.000000000000000E+000
  0.000000000000000E+000
  0.000000000000000E+000
  0.000000000000000E+000
  0.000000000000000E+000
  0.000000000000000E+000
  0.000000000000000E+000
  0.000000000000000E+000
  0.000000000000000E+000
  0.000000000000000E+000
  0.000000000000000E+000
  0.000000000000000E+000
  0.000000000000000E+000
  0.000000000000000E+000
  0.000000000000000E+000
  0.000000000000000E+000
  0.000000000000000E+000
  0.000000000000000E+000
  0.000000000000000E+000
  0.000000000000000E+000
  0.000000000000000E+000
  0.000000000000000E+000
  0.000000000000000E+000
  0.000000000000000E+000
  0.000000000000000E+000
  0.000000000000000E+000
  0.000000000000000E+000
  0.000000000000000E+000
  0.000000000000000E+000
  0.000000000000000E+000
  0.000000000000000E+000
  0.000000000000000E+000
  0.000000000000000E+000
  0.000000000000000E+000
  0.000000000000000E+000
  0.000000000000000E+000
  0.000000000000000E+000
  0.000000000000000E+000
  0.000000000000000E+000
  0.000000000000000E+000
  0.000000000000000E+000
  0.000000000000000E+000
  0.000000000000000E+000
  0.000000000000000E+000
  0.000000000000000E+000
  0.000000000000000E+000
  0.000000000000000E+000
  0.000000000000000E+000
  0.000000000000000E+000
  0.000000000000000E+000
  0.000000000000000E+000
  0.000000000000000E+000
  0.000000000000000E+000
  0.000000000000000E+000
  0.000000000000000E+000
  0.000000000000000E+000
  0.000000000000000E+000
  0.000000000000000E+000
  0.000000000000000E+000
  0.000000000000000E+000
  0.000000000000000E+000
  0.000000000000000E+000
  0.000000000000000E+000
  0.000000000000000E+000
  0.000000000000000E+000
  0.000000000000000E+000
  0.000000000000000E+000
  0.000000000000000E+000
  0.000000000000000E+000
  0.000000000000000E+000
  0.000000000000000E+000
  0.000000000000000E+000
  0.000000000000000E+000
  0.000000000000000E+000
  0.000000000000000E+000
  0.000000000000000E+000
  0.000000000000000E+000
  0.000000000000000E+000
  0.000000000000000E+000
  0.000000000000000E+000
  0.000000000000000E+000
  0.000000000000000E+000
  0.000000000000000E+000
  0.000000000000000E+000
  0.000000000000000E+000
  0.000000000000000E+000
  0.000000000000000E+000
  0.000000000000000E+000
  0.000000000000000E+000
  0.000000000000000E+000
  0.000000000000000E+000
  0.000000000000000E+000
  0.000000000000000E+000
  0.000000000000000E+000
  0.000000000000000E+000
  0.000000000000000E+000
  0.000000000000000E+000
  0.000000000000000E+000
  0.000000000000000E+000
  0.000000000000000E+000
  0.000000000000000E+000
  0.000000000000000E+000
  0.000000000000000E+000
  0.000000000000000E+000
  0.000000000000000E+000
  0.000000000000000E+000
  0.000000000000000E+000
  0.000000000000000E+000
  0.000000000000000E+000
  0.000000000000000E+000
  0.000000000000000E+000
  0.000000000000000E+000
  0.000000000000000E+000
  0.000000000000000E+000
  0.000000000000000E+000
  0.000000000000000E+000
  0.000000000000000E+000
  0.000000000000000E+000
  0.000000000000000E+000
  0.000000000000000E+000
  0.000000000000000E+000
  0.000000000000000E+000
  0.000000000000000E+000
  0.000000000000000E+000
  0.000000000000000E+000
  0.000000000000000E+000
  0.000000000000000E+000
  0.000000000000000E+000
  0.000000000000000E+000
  0.000000000000000E+000
  0.000000000000000E+000
  0.000000000000000E+000
  0.000000000000000E+000
  0.000000000000000E+000
  0.000000000000000E+000
  0.000000000000000E+000
  0.000000000000000E+000
  0.000000000000000E+000
  0.000000000000000E+000
  0.000000000000000E+000
  0.000000000000000E+000
  0.000000000000000E+000
  0.000000000000000E+000
  0.000000000000000E+000
  0.000000000000000E+000
  0.000000000000000E+000
  0.000000000000000E+000
  0.000000000000000E+000
  0.000000000000000E+000
  0.000000000000000E+000
  0.000000000000000E+000
  0.000000000000000E+000
  0.000000000000000E+000
  0.000000000000000E+000
  0.000000000000000E+000
  0.000000000000000E+000
  0.000000000000000E+000
  0.000000000000000E+000
  0.000000000000000E+000
  0.000000000000000E+000
  0.000000000000000E+000
  0.000000000000000E+000
  0.000000000000000E+000
  0.000000000000000E+000
  0.000000000000000E+000
  0.000000000000000E+000
  0.000000000000000E+000
  0.000000000000000E+000
  0.000000000000000E+000
  0.000000000000000E+000
  0.000000000000000E+000
  0.000000000000000E+000
  0.000000000000000E+000
  0.000000000000000E+000
  0.000000000000000E+000
  0.000000000000000E+000
  0.000000000000000E+000
  0.000000000000000E+000
  0.000000000000000E+000
  0.000000000000000E+000
  0.000000000000000E+000
  0.000000000000000E+000
  0.000000000000000E+000
  0.000000000000000E+000
  0.000000000000000E+000
  0.000000000000000E+000
  0.000000000000000E+000
  0.000000000000000E+000
  0.000000000000000E+000
  0.000000000000000E+000
  0.000000000000000E+000
  0.000000000000000E+000
  0.000000000000000E+000
  0.000000000000000E+000
  0.000000000000000E+000
  0.000000000000000E+000
  0.000000000000000E+000
  0.000000000000000E+000
  0.000000000000000E+000
  0.000000000000000E+000
  0.000000000000000E+000
  0.000000000000000E+000
  0.000000000000000E+000
  0.000000000000000E+000
  0.000000000000000E+000
  0.000000000000000E+000
  0.000000000000000E+000
  0.000000000000000E+000
  0.000000000000000E+000
  0.000000000000000E+000
  0.000000000000000E+000
  0.000000000000000E+000
  0.000000000000000E+000
  0.000000000000000E+000
  0.000000000000000E+000
  0.000000000000000E+000
  0.000000000000000E+000
  0.000000000000000E+000
  0.000000000000000E+000
  0.000000000000000E+000
  0.000000000000000E+000
  0.000000000000000E+000
  0.000000000000000E+000
  0.000000000000000E+000
  0.000000000000000E+000
  0.000000000000000E+000
  0.000000000000000E+000
  0.000000000000000E+000
  0.000000000000000E+000
  0.000000000000000E+000
  0.000000000000000E+000
  0.000000000000000E+000
  0.000000000000000E+000
  0.000000000000000E+000
  0.000000000000000E+000
  0.000000000000000E+000
  0.000000000000000E+000
  0.000000000000000E+000
  0.000000000000000E+000
  0.000000000000000E+000
  0.000000000000000E+000
  0.000000000000000E+000
  0.000000000000000E+000
  0.000000000000000E+000
  0.000000000000000E+000
  0.000000000000000E+000
  0.000000000000000E+000
  0.000000000000000E+000
  0.000000000000000E+000
  0.000000000000000E+000
  0.000000000000000E+000
  0.000000000000000E+000
  0.000000000000000E+000
  0.000000000000000E+000
  0.000000000000000E+000
  0.000000000000000E+000
  0.000000000000000E+000
  0.000000000000000E+000
  0.000000000000000E+000
  0.000000000000000E+000
  0.000000000000000E+000
  0.000000000000000E+000
  0.000000000000000E+000
  0.000000000000000E+000
  0.000000000000000E+000
  0.000000000000000E+000
  0.000000000000000E+000
  0.000000000000000E+000
  0.000000000000000E+000
  0.000000000000000E+000
  0.000000000000000E+000
  0.000000000000000E+000
  0.000000000000000E+000
  0.000000000000000E+000
  0.000000000000000E+000
  0.000000000000000E+000
  0.000000000000000E+000
  0.000000000000000E+000
  0.000000000000000E+000
  0.000000000000000E+000
  0.000000000000000E+000
  0.000000000000000E+000
  0.000000000000000E+000
  0.000000000000000E+000
  0.000000000000000E+000
  0.000000000000000E+000
  0.000000000000000E+000
  0.000000000000000E+000
  0.000000000000000E+000
  0.000000000000000E+000
  0.000000000000000E+000
  0.000000000000000E+000
  0.000000000000000E+000
  0.000000000000000E+000
  0.000000000000000E+000
  0.000000000000000E+000
  0.000000000000000E+000
  0.000000000000000E+000
  0.000000000000000E+000
  0.000000000000000E+000
  0.000000000000000E+000
  0.000000000000000E+000
  0.000000000000000E+000
  0.000000000000000E+000
  0.000000000000000E+000
  0.000000000000000E+000
  0.000000000000000E+000
  0.000000000000000E+000
  0.000000000000000E+000
  0.000000000000000E+000
  0.000000000000000E+000
  0.000000000000000E+000
  0.000000000000000E+000
  0.000000000000000E+000
  0.000000000000000E+000
  0.000000000000000E+000
  0.000000000000000E+000
  0.000000000000000E+000
  0.000000000000000E+000
  0.000000000000000E+000
  0.000000000000000E+000
  0.000000000000000E+000
  0.000000000000000E+000
  0.000000000000000E+000
  0.000000000000000E+000
  0.000000000000000E+000
  0.000000000000000E+000
  0.000000000000000E+000
  0.000000000000000E+000
  0.000000000000000E+000
  0.000000000000000E+000
  0.000000000000000E+000
  0.000000000000000E+000
  0.000000000000000E+000
  0.000000000000000E+000
  0.000000000000000E+000
  0.000000000000000E+000
  0.000000000000000E+000
  0.000000000000000E+000
  0.000000000000000E+000
  0.000000000000000E+000
  0.000000000000000E+000
  0.000000000000000E+000
  0.000000000000000E+000
  0.000000000000000E+000
  0.000000000000000E+000
  0.000000000000000E+000
  0.000000000000000E+000
  0.000000000000000E+000
  0.000000000000000E+000
  0.000000000000000E+000
  0.000000000000000E+000
  0.000000000000000E+000
  0.000000000000000E+000
  0.000000000000000E+000
  0.000000000000000E+000
  0.000000000000000E+000
  0.000000000000000E+000
  0.000000000000000E+000
  0.000000000000000E+000
  0.000000000000000E+000
  0.000000000000000E+000
  0.000000000000000E+000
  0.000000000000000E+000
  0.000000000000000E+000
  0.000000000000000E+000
  0.000000000000000E+000
  0.000000000000000E+000
  0.000000000000000E+000
  0.000000000000000E+000
  0.000000000000000E+000
  0.000000000000000E+000
  0.000000000000000E+000
  0.000000000000000E+000
  0.000000000000000E+000
  0.000000000000000E+000
  0.000000000000000E+000
  0.000000000000000E+000
  0.000000000000000E+000
  0.000000000000000E+000
  0.000000000000000E+000
  0.000000000000000E+000
  0.000000000000000E+000
  0.000000000000000E+000
  0.000000000000000E+000
  0.000000000000000E+000
  0.000000000000000E+000
  0.000000000000000E+000
  0.000000000000000E+000
  0.000000000000000E+000
  0.000000000000000E+000
  0.000000000000000E+000
  0.000000000000000E+000
  0.000000000000000E+000
  0.000000000000000E+000
  0.000000000000000E+000
  0.000000000000000E+000
  0.000000000000000E+000
  0.000000000000000E+000
  0.000000000000000E+000
  0.000000000000000E+000
  0.000000000000000E+000
  0.000000000000000E+000
  0.000000000000000E+000
  0.000000000000000E+000
  0.000000000000000E+000
  0.000000000000000E+000
  0.000000000000000E+000
  0.000000000000000E+000
  0.000000000000000E+000
  0.000000000000000E+000
  0.000000000000000E+000
  0.000000000000000E+000
  0.000000000000000E+000
  0.000000000000000E+000
  0.000000000000000E+000
  0.000000000000000E+000
  0.000000000000000E+000
  0.000000000000000E+000
  0.000000000000000E+000
  0.000000000000000E+000
  0.000000000000000E+000
  0.000000000000000E+000
  0.000000000000000E+000
  0.000000000000000E+000
  0.000000000000000E+000
  0.000000000000000E+000
  0.000000000000000E+000
  0.000000000000000E+000
  0.000000000000000E+000
  0.000000000000000E+000
  0.000000000000000E+000
  0.000000000000000E+000
  0.000000000000000E+000
  0.000000000000000E+000
  0.000000000000000E+000
  0.000000000000000E+000
  0.000000000000000E+000
  0.000000000000000E+000
  0.000000000000000E+000
  0.000000000000000E+000
  0.000000000000000E+000
  0.000000000000000E+000
  0.000000000000000E+000
  0.000000000000000E+000
  0.000000000000000E+000
  0.000000000000000E+000
  0.000000000000000E+000
  0.000000000000000E+000
  0.000000000000000E+000
  0.000000000000000E+000
  0.000000000000000E+000
  0.000000000000000E+000
  0.000000000000000E+000
  0.000000000000000E+000
  0.000000000000000E+000
  0.000000000000000E+000
  0.000000000000000E+000
  0.000000000000000E+000
  0.000000000000000E+000
  0.000000000000000E+000
  0.000000000000000E+000
  0.000000000000000E+000
  0.000000000000000E+000
  0.000000000000000E+000
  0.000000000000000E+000
  0.000000000000000E+000
  0.000000000000000E+000
  0.000000000000000E+000
  0.000000000000000E+000
  0.000000000000000E+000
  0.000000000000000E+000
  0.000000000000000E+000
  0.000000000000000E+000
  0.000000000000000E+000
  0.000000000000000E+000
  0.000000000000000E+000
  0.000000000000000E+000
  0.000000000000000E+000
  0.000000000000000E+000
  0.000000000000000E+000
  0.000000000000000E+000
  0.000000000000000E+000
  0.000000000000000E+000
  0.000000000000000E+000
  0.000000000000000E+000
  0.000000000000000E+000
  0.000000000000000E+000
  0.000000000000000E+000
  0.000000000000000E+000
  0.000000000000000E+000
  0.000000000000000E+000
  0.000000000000000E+000
  0.000000000000000E+000
  0.000000000000000E+000
  0.000000000000000E+000
  0.000000000000000E+000
  0.000000000000000E+000
  0.000000000000000E+000
  0.000000000000000E+000
  0.000000000000000E+000
  0.000000000000000E+000
  0.000000000000000E+000
  0.000000000000000E+000
  0.000000000000000E+000
  0.000000000000000E+000
  0.000000000000000E+000
  0.000000000000000E+000
  0.000000000000000E+000
  0.000000000000000E+000
  0.000000000000000E+000
  0.000000000000000E+000
  0.000000000000000E+000
  0.000000000000000E+000
  0.000000000000000E+000
  0.000000000000000E+000
  0.000000000000000E+000
  0.000000000000000E+000
  0.000000000000000E+000
  0.000000000000000E+000
  0.000000000000000E+000
  0.000000000000000E+000
  0.000000000000000E+000
  0.000000000000000E+000
  0.000000000000000E+000
  0.000000000000000E+000
  0.000000000000000E+000
  0.000000000000000E+000
  0.000000000000000E+000
  0.000000000000000E+000
  0.000000000000000E+000
  0.000000000000000E+000
  0.000000000000000E+000
  0.000000000000000E+000
  0.000000000000000E+000
  0.000000000000000E+000
  0.000000000000000E+000
  0.000000000000000E+000
  0.000000000000000E+000
  0.000000000000000E+000
  0.000000000000000E+000
  0.000000000000000E+000
  0.000000000000000E+000
  0.000000000000000E+000
  0.000000000000000E+000
  0.000000000000000E+000
  0.000000000000000E+000
  0.000000000000000E+000
  0.000000000000000E+000
  0.000000000000000E+000
  0.000000000000000E+000
  0.000000000000000E+000
  0.000000000000000E+000
  0.000000000000000E+000
  0.000000000000000E+000
  0.000000000000000E+000
  0.000000000000000E+000
  0.000000000000000E+000
  0.000000000000000E+000
  0.000000000000000E+000
  0.000000000000000E+000
  0.000000000000000E+000
  0.000000000000000E+000
  0.000000000000000E+000
  0.000000000000000E+000
  0.000000000000000E+000
  0.000000000000000E+000
  0.000000000000000E+000
  0.000000000000000E+000
  0.000000000000000E+000
  0.000000000000000E+000
  0.000000000000000E+000
  0.000000000000000E+000
  0.000000000000000E+000
  0.000000000000000E+000
  0.000000000000000E+000
  0.000000000000000E+000
  0.000000000000000E+000
  0.000000000000000E+000
  0.000000000000000E+000
  0.000000000000000E+000
  0.000000000000000E+000
  0.000000000000000E+000
  0.000000000000000E+000
  0.000000000000000E+000
  0.000000000000000E+000
  0.000000000000000E+000
  0.000000000000000E+000
  0.000000000000000E+000
  0.000000000000000E+000
  0.000000000000000E+000
  0.000000000000000E+000
  0.000000000000000E+000
  0.000000000000000E+000
  0.000000000000000E+000
  0.000000000000000E+000
  0.000000000000000E+000
  0.000000000000000E+000
  0.000000000000000E+000
  0.000000000000000E+000
  0.000000000000000E+000
  0.000000000000000E+000
  0.000000000000000E+000
  0.000000000000000E+000
  0.000000000000000E+000
  0.000000000000000E+000
  0.000000000000000E+000
  0.000000000000000E+000
  0.000000000000000E+000
  0.000000000000000E+000
  0.000000000000000E+000
  0.000000000000000E+000
  0.000000000000000E+000
  0.000000000000000E+000
  0.000000000000000E+000
  0.000000000000000E+000
  0.000000000000000E+000
  0.000000000000000E+000
  0.000000000000000E+000
  0.000000000000000E+000
  0.000000000000000E+000
  0.000000000000000E+000
  0.000000000000000E+000
  0.000000000000000E+000
  0.000000000000000E+000
  0.000000000000000E+000
  0.000000000000000E+000
  0.000000000000000E+000
  0.000000000000000E+000
  0.000000000000000E+000
  0.000000000000000E+000
  0.000000000000000E+000
  0.000000000000000E+000
  0.000000000000000E+000
  0.000000000000000E+000
  0.000000000000000E+000
  0.000000000000000E+000
  0.000000000000000E+000
  0.000000000000000E+000
  0.000000000000000E+000
  0.000000000000000E+000
  0.000000000000000E+000
  0.000000000000000E+000
  0.000000000000000E+000
  0.000000000000000E+000
  0.000000000000000E+000
  0.000000000000000E+000
  0.000000000000000E+000
  0.000000000000000E+000
  0.000000000000000E+000
  0.000000000000000E+000
  0.000000000000000E+000
  0.000000000000000E+000
  0.000000000000000E+000
  0.000000000000000E+000
  0.000000000000000E+000
  0.000000000000000E+000
  0.000000000000000E+000
  0.000000000000000E+000
  0.000000000000000E+000
  0.000000000000000E+000
  0.000000000000000E+000
  0.000000000000000E+000
  0.000000000000000E+000
  0.000000000000000E+000
  0.000000000000000E+000
  0.000000000000000E+000
  0.000000000000000E+000
  0.000000000000000E+000
  0.000000000000000E+000
  0.000000000000000E+000
  0.000000000000000E+000
  0.000000000000000E+000
  0.000000000000000E+000
  0.000000000000000E+000
  0.000000000000000E+000
  0.000000000000000E+000
  0.000000000000000E+000
  0.000000000000000E+000
  0.000000000000000E+000
  0.000000000000000E+000
  0.000000000000000E+000
  0.000000000000000E+000
  0.000000000000000E+000
  0.000000000000000E+000
  0.000000000000000E+000
  0.000000000000000E+000
  0.000000000000000E+000
  0.000000000000000E+000
  0.000000000000000E+000
  0.000000000000000E+000
  0.000000000000000E+000
  0.000000000000000E+000
  0.000000000000000E+000
  0.000000000000000E+000
  0.000000000000000E+000
  0.000000000000000E+000
  0.000000000000000E+000
  0.000000000000000E+000
  0.000000000000000E+000
  0.000000000000000E+000
  0.000000000000000E+000
  0.000000000000000E+000
  0.000000000000000E+000
  0.000000000000000E+000
  0.000000000000000E+000
  0.000000000000000E+000
  0.000000000000000E+000
  0.000000000000000E+000
  0.000000000000000E+000
  0.000000000000000E+000
  0.000000000000000E+000
  0.000000000000000E+000
  0.000000000000000E+000
  0.000000000000000E+000
  0.000000000000000E+000
  0.000000000000000E+000
  0.000000000000000E+000
  0.000000000000000E+000
  0.000000000000000E+000
  0.000000000000000E+000
  0.000000000000000E+000
  0.000000000000000E+000
  0.000000000000000E+000
  0.000000000000000E+000
  0.000000000000000E+000
  0.000000000000000E+000
  0.000000000000000E+000
  0.000000000000000E+000
  0.000000000000000E+000
  0.000000000000000E+000
  0.000000000000000E+000
  0.000000000000000E+000
  0.000000000000000E+000
  0.000000000000000E+000
  0.000000000000000E+000
  0.000000000000000E+000
  0.000000000000000E+000
  0.000000000000000E+000
  0.000000000000000E+000
  0.000000000000000E+000
  0.000000000000000E+000
  0.000000000000000E+000
  0.000000000000000E+000
  0.000000000000000E+000
  0.000000000000000E+000
  0.000000000000000E+000
  0.000000000000000E+000
  0.000000000000000E+000
  0.000000000000000E+000
  0.000000000000000E+000
  0.000000000000000E+000
  0.000000000000000E+000
  0.000000000000000E+000
  0.000000000000000E+000
  0.000000000000000E+000
  0.000000000000000E+000
  0.000000000000000E+000
  0.000000000000000E+000
  0.000000000000000E+000
  0.000000000000000E+000
  0.000000000000000E+000
  0.000000000000000E+000
  0.000000000000000E+000
  0.000000000000000E+000
  0.000000000000000E+000
  0.000000000000000E+000
  0.000000000000000E+000
  0.000000000000000E+000
  0.000000000000000E+000
  0.000000000000000E+000
  0.000000000000000E+000
  0.000000000000000E+000
  0.000000000000000E+000
  0.000000000000000E+000
  0.000000000000000E+000
  0.000000000000000E+000
  0.000000000000000E+000
  0.000000000000000E+000
  0.000000000000000E+000
  0.000000000000000E+000
  0.000000000000000E+000
  0.000000000000000E+000
  0.000000000000000E+000
  0.000000000000000E+000
  0.000000000000000E+000
  0.000000000000000E+000
  0.000000000000000E+000
  0.000000000000000E+000
SCALARS elementIsPlast double 
LOOKUP_TABLE default
  0.000000000000000E+000
  0.000000000000000E+000
  0.000000000000000E+000
  0.000000000000000E+000
  0.000000000000000E+000
  0.000000000000000E+000
  0.000000000000000E+000
  0.000000000000000E+000
  0.000000000000000E+000
  0.000000000000000E+000
  0.000000000000000E+000
  0.000000000000000E+000
  0.000000000000000E+000
  0.000000000000000E+000
  0.000000000000000E+000
  0.000000000000000E+000
  0.000000000000000E+000
  0.000000000000000E+000
  0.000000000000000E+000
  0.000000000000000E+000
  0.000000000000000E+000
  0.000000000000000E+000
  0.000000000000000E+000
  0.000000000000000E+000
  0.000000000000000E+000
  0.000000000000000E+000
  0.000000000000000E+000
  0.000000000000000E+000
  0.000000000000000E+000
  0.000000000000000E+000
  0.000000000000000E+000
  0.000000000000000E+000
  0.000000000000000E+000
  0.000000000000000E+000
  0.000000000000000E+000
  0.000000000000000E+000
  0.000000000000000E+000
  0.000000000000000E+000
  0.000000000000000E+000
  0.000000000000000E+000
  0.000000000000000E+000
  0.000000000000000E+000
  0.000000000000000E+000
  0.000000000000000E+000
  0.000000000000000E+000
  0.000000000000000E+000
  0.000000000000000E+000
  0.000000000000000E+000
  0.000000000000000E+000
  0.000000000000000E+000
  0.000000000000000E+000
  0.000000000000000E+000
  0.000000000000000E+000
  0.000000000000000E+000
  0.000000000000000E+000
  0.000000000000000E+000
  0.000000000000000E+000
  0.000000000000000E+000
  0.000000000000000E+000
  0.000000000000000E+000
  0.000000000000000E+000
  0.000000000000000E+000
  0.000000000000000E+000
  0.000000000000000E+000
  0.000000000000000E+000
  0.000000000000000E+000
  0.000000000000000E+000
  0.000000000000000E+000
  0.000000000000000E+000
  0.000000000000000E+000
  0.000000000000000E+000
  0.000000000000000E+000
  0.000000000000000E+000
  0.000000000000000E+000
  0.000000000000000E+000
  0.000000000000000E+000
  0.000000000000000E+000
  0.000000000000000E+000
  0.000000000000000E+000
  0.000000000000000E+000
  0.000000000000000E+000
  0.000000000000000E+000
  0.000000000000000E+000
  0.000000000000000E+000
  0.000000000000000E+000
  0.000000000000000E+000
  0.000000000000000E+000
  0.000000000000000E+000
  0.000000000000000E+000
  0.000000000000000E+000
  0.000000000000000E+000
  0.000000000000000E+000
  0.000000000000000E+000
  0.000000000000000E+000
  0.000000000000000E+000
  0.000000000000000E+000
  0.000000000000000E+000
  0.000000000000000E+000
  0.000000000000000E+000
  0.000000000000000E+000
  0.000000000000000E+000
  0.000000000000000E+000
  0.000000000000000E+000
  0.000000000000000E+000
  0.000000000000000E+000
  0.000000000000000E+000
  0.000000000000000E+000
  0.000000000000000E+000
  0.000000000000000E+000
  0.000000000000000E+000
  0.000000000000000E+000
  0.000000000000000E+000
  0.000000000000000E+000
  0.000000000000000E+000
  0.000000000000000E+000
  0.000000000000000E+000
  0.000000000000000E+000
  0.000000000000000E+000
  0.000000000000000E+000
  0.000000000000000E+000
  0.000000000000000E+000
  0.000000000000000E+000
  0.000000000000000E+000
  0.000000000000000E+000
  0.000000000000000E+000
  0.000000000000000E+000
  0.000000000000000E+000
  0.000000000000000E+000
  0.000000000000000E+000
  0.000000000000000E+000
  0.000000000000000E+000
  0.000000000000000E+000
  0.000000000000000E+000
  0.000000000000000E+000
  0.000000000000000E+000
  0.000000000000000E+000
  0.000000000000000E+000
  0.000000000000000E+000
  0.000000000000000E+000
  0.000000000000000E+000
  0.000000000000000E+000
  0.000000000000000E+000
  0.000000000000000E+000
  0.000000000000000E+000
  0.000000000000000E+000
  0.000000000000000E+000
  0.000000000000000E+000
  0.000000000000000E+000
  0.000000000000000E+000
  0.000000000000000E+000
  0.000000000000000E+000
  0.000000000000000E+000
  0.000000000000000E+000
  0.000000000000000E+000
  0.000000000000000E+000
  0.000000000000000E+000
  0.000000000000000E+000
  0.000000000000000E+000
  0.000000000000000E+000
  0.000000000000000E+000
  0.000000000000000E+000
  0.000000000000000E+000
  0.000000000000000E+000
  0.000000000000000E+000
  0.000000000000000E+000
  0.000000000000000E+000
  0.000000000000000E+000
  0.000000000000000E+000
  0.000000000000000E+000
  0.000000000000000E+000
  0.000000000000000E+000
  0.000000000000000E+000
  0.000000000000000E+000
  0.000000000000000E+000
  0.000000000000000E+000
  0.000000000000000E+000
  0.000000000000000E+000
  0.000000000000000E+000
  0.000000000000000E+000
  0.000000000000000E+000
  0.000000000000000E+000
  0.000000000000000E+000
  0.000000000000000E+000
  0.000000000000000E+000
  0.000000000000000E+000
  0.000000000000000E+000
  0.000000000000000E+000
  0.000000000000000E+000
  0.000000000000000E+000
  0.000000000000000E+000
  0.000000000000000E+000
  0.000000000000000E+000
  0.000000000000000E+000
  0.000000000000000E+000
  0.000000000000000E+000
  0.000000000000000E+000
  0.000000000000000E+000
  0.000000000000000E+000
  0.000000000000000E+000
  0.000000000000000E+000
  0.000000000000000E+000
  0.000000000000000E+000
  0.000000000000000E+000
  0.000000000000000E+000
  0.000000000000000E+000
  0.000000000000000E+000
  0.000000000000000E+000
  0.000000000000000E+000
  0.000000000000000E+000
  0.000000000000000E+000
  0.000000000000000E+000
  0.000000000000000E+000
  0.000000000000000E+000
  0.000000000000000E+000
  0.000000000000000E+000
  0.000000000000000E+000
  0.000000000000000E+000
  0.000000000000000E+000
  0.000000000000000E+000
  0.000000000000000E+000
  0.000000000000000E+000
  0.000000000000000E+000
  0.000000000000000E+000
  0.000000000000000E+000
  0.000000000000000E+000
  0.000000000000000E+000
  0.000000000000000E+000
  0.000000000000000E+000
  0.000000000000000E+000
  0.000000000000000E+000
  0.000000000000000E+000
  0.000000000000000E+000
  0.000000000000000E+000
  0.000000000000000E+000
  0.000000000000000E+000
  0.000000000000000E+000
  0.000000000000000E+000
  0.000000000000000E+000
  0.000000000000000E+000
  0.000000000000000E+000
  0.000000000000000E+000
  0.000000000000000E+000
  0.000000000000000E+000
  0.000000000000000E+000
  0.000000000000000E+000
  0.000000000000000E+000
  0.000000000000000E+000
  0.000000000000000E+000
  0.000000000000000E+000
  0.000000000000000E+000
  0.000000000000000E+000
  0.000000000000000E+000
  0.000000000000000E+000
  0.000000000000000E+000
  0.000000000000000E+000
  0.000000000000000E+000
  0.000000000000000E+000
  0.000000000000000E+000
  0.000000000000000E+000
  0.000000000000000E+000
  0.000000000000000E+000
  0.000000000000000E+000
  0.000000000000000E+000
  0.000000000000000E+000
  0.000000000000000E+000
  0.000000000000000E+000
  0.000000000000000E+000
  0.000000000000000E+000
  0.000000000000000E+000
  0.000000000000000E+000
  0.000000000000000E+000
  0.000000000000000E+000
  0.000000000000000E+000
  0.000000000000000E+000
  0.000000000000000E+000
  0.000000000000000E+000
  0.000000000000000E+000
  0.000000000000000E+000
  0.000000000000000E+000
  0.000000000000000E+000
  0.000000000000000E+000
  0.000000000000000E+000
  0.000000000000000E+000
  0.000000000000000E+000
  0.000000000000000E+000
  0.000000000000000E+000
  0.000000000000000E+000
  0.000000000000000E+000
  0.000000000000000E+000
  0.000000000000000E+000
  0.000000000000000E+000
  0.000000000000000E+000
  0.000000000000000E+000
  0.000000000000000E+000
  0.000000000000000E+000
  0.000000000000000E+000
  0.000000000000000E+000
  0.000000000000000E+000
  0.000000000000000E+000
  0.000000000000000E+000
  0.000000000000000E+000
  0.000000000000000E+000
  0.000000000000000E+000
  0.000000000000000E+000
  0.000000000000000E+000
  0.000000000000000E+000
  0.000000000000000E+000
  0.000000000000000E+000
  0.000000000000000E+000
  0.000000000000000E+000
  0.000000000000000E+000
  0.000000000000000E+000
  0.000000000000000E+000
  0.000000000000000E+000
  0.000000000000000E+000
  0.000000000000000E+000
  0.000000000000000E+000
  0.000000000000000E+000
  0.000000000000000E+000
  0.000000000000000E+000
  0.000000000000000E+000
  0.000000000000000E+000
  0.000000000000000E+000
  0.000000000000000E+000
  0.000000000000000E+000
  0.000000000000000E+000
  0.000000000000000E+000
  0.000000000000000E+000
  0.000000000000000E+000
  0.000000000000000E+000
  0.000000000000000E+000
  0.000000000000000E+000
  0.000000000000000E+000
  0.000000000000000E+000
  0.000000000000000E+000
  0.000000000000000E+000
  0.000000000000000E+000
  0.000000000000000E+000
  0.000000000000000E+000
  0.000000000000000E+000
  0.000000000000000E+000
  0.000000000000000E+000
  0.000000000000000E+000
  0.000000000000000E+000
  0.000000000000000E+000
  0.000000000000000E+000
  0.000000000000000E+000
  0.000000000000000E+000
  0.000000000000000E+000
  0.000000000000000E+000
  0.000000000000000E+000
  0.000000000000000E+000
  0.000000000000000E+000
  0.000000000000000E+000
  0.000000000000000E+000
  0.000000000000000E+000
  0.000000000000000E+000
  0.000000000000000E+000
  0.000000000000000E+000
  0.000000000000000E+000
  0.000000000000000E+000
  0.000000000000000E+000
  0.000000000000000E+000
  0.000000000000000E+000
  0.000000000000000E+000
  0.000000000000000E+000
  0.000000000000000E+000
  0.000000000000000E+000
  0.000000000000000E+000
  0.000000000000000E+000
  0.000000000000000E+000
  0.000000000000000E+000
  0.000000000000000E+000
  0.000000000000000E+000
  0.000000000000000E+000
  0.000000000000000E+000
  0.000000000000000E+000
  0.000000000000000E+000
  0.000000000000000E+000
  0.000000000000000E+000
  0.000000000000000E+000
  0.000000000000000E+000
  0.000000000000000E+000
  0.000000000000000E+000
  0.000000000000000E+000
  0.000000000000000E+000
  0.000000000000000E+000
  0.000000000000000E+000
  0.000000000000000E+000
  0.000000000000000E+000
  0.000000000000000E+000
  0.000000000000000E+000
  0.000000000000000E+000
  0.000000000000000E+000
  0.000000000000000E+000
  0.000000000000000E+000
  0.000000000000000E+000
  0.000000000000000E+000
  0.000000000000000E+000
  0.000000000000000E+000
  0.000000000000000E+000
  0.000000000000000E+000
  0.000000000000000E+000
  0.000000000000000E+000
  0.000000000000000E+000
  0.000000000000000E+000
  0.000000000000000E+000
  0.000000000000000E+000
  0.000000000000000E+000
  0.000000000000000E+000
  0.000000000000000E+000
  0.000000000000000E+000
  0.000000000000000E+000
  0.000000000000000E+000
  0.000000000000000E+000
  0.000000000000000E+000
  0.000000000000000E+000
  0.000000000000000E+000
  0.000000000000000E+000
  0.000000000000000E+000
  0.000000000000000E+000
  0.000000000000000E+000
  0.000000000000000E+000
  0.000000000000000E+000
  0.000000000000000E+000
  0.000000000000000E+000
  0.000000000000000E+000
  0.000000000000000E+000
  0.000000000000000E+000
  0.000000000000000E+000
  0.000000000000000E+000
  0.000000000000000E+000
  0.000000000000000E+000
  0.000000000000000E+000
  0.000000000000000E+000
  0.000000000000000E+000
  0.000000000000000E+000
  0.000000000000000E+000
  0.000000000000000E+000
  0.000000000000000E+000
  0.000000000000000E+000
  0.000000000000000E+000
  0.000000000000000E+000
  0.000000000000000E+000
  0.000000000000000E+000
  0.000000000000000E+000
  0.000000000000000E+000
  0.000000000000000E+000
  0.000000000000000E+000
  0.000000000000000E+000
  0.000000000000000E+000
  0.000000000000000E+000
  0.000000000000000E+000
  0.000000000000000E+000
  0.000000000000000E+000
  0.000000000000000E+000
  0.000000000000000E+000
  0.000000000000000E+000
  0.000000000000000E+000
  0.000000000000000E+000
  0.000000000000000E+000
  0.000000000000000E+000
  0.000000000000000E+000
  0.000000000000000E+000
  0.000000000000000E+000
  0.000000000000000E+000
  0.000000000000000E+000
  0.000000000000000E+000
  0.000000000000000E+000
  0.000000000000000E+000
  0.000000000000000E+000
  0.000000000000000E+000
  0.000000000000000E+000
  0.000000000000000E+000
  0.000000000000000E+000
  0.000000000000000E+000
  0.000000000000000E+000
  0.000000000000000E+000
  0.000000000000000E+000
  0.000000000000000E+000
  0.000000000000000E+000
  0.000000000000000E+000
  0.000000000000000E+000
  0.000000000000000E+000
  0.000000000000000E+000
  0.000000000000000E+000
  0.000000000000000E+000
  0.000000000000000E+000
  0.000000000000000E+000
  0.000000000000000E+000
  0.000000000000000E+000
  0.000000000000000E+000
  0.000000000000000E+000
  0.000000000000000E+000
  0.000000000000000E+000
  0.000000000000000E+000
  0.000000000000000E+000
  0.000000000000000E+000
  0.000000000000000E+000
  0.000000000000000E+000
  0.000000000000000E+000
  0.000000000000000E+000
  0.000000000000000E+000
  0.000000000000000E+000
  0.000000000000000E+000
  0.000000000000000E+000
  0.000000000000000E+000
  0.000000000000000E+000
  0.000000000000000E+000
  0.000000000000000E+000
  0.000000000000000E+000
  0.000000000000000E+000
  0.000000000000000E+000
  0.000000000000000E+000
  0.000000000000000E+000
  0.000000000000000E+000
  0.000000000000000E+000
  0.000000000000000E+000
  0.000000000000000E+000
  0.000000000000000E+000
  0.000000000000000E+000
  0.000000000000000E+000
  0.000000000000000E+000
  0.000000000000000E+000
  0.000000000000000E+000
  0.000000000000000E+000
  0.000000000000000E+000
  0.000000000000000E+000
  0.000000000000000E+000
  0.000000000000000E+000
  0.000000000000000E+000
  0.000000000000000E+000
  0.000000000000000E+000
  0.000000000000000E+000
  0.000000000000000E+000
  0.000000000000000E+000
  0.000000000000000E+000
  0.000000000000000E+000
  0.000000000000000E+000
  0.000000000000000E+000
  0.000000000000000E+000
  0.000000000000000E+000
  0.000000000000000E+000
  0.000000000000000E+000
  0.000000000000000E+000
  0.000000000000000E+000
  0.000000000000000E+000
  0.000000000000000E+000
  0.000000000000000E+000
  0.000000000000000E+000
  0.000000000000000E+000
  0.000000000000000E+000
  0.000000000000000E+000
  0.000000000000000E+000
  0.000000000000000E+000
  0.000000000000000E+000
  0.000000000000000E+000
  0.000000000000000E+000
  0.000000000000000E+000
  0.000000000000000E+000
  0.000000000000000E+000
  0.000000000000000E+000
  0.000000000000000E+000
  0.000000000000000E+000
  0.000000000000000E+000
  0.000000000000000E+000
  0.000000000000000E+000
  0.000000000000000E+000
  0.000000000000000E+000
  0.000000000000000E+000
  0.000000000000000E+000
  0.000000000000000E+000
  0.000000000000000E+000
  0.000000000000000E+000
  0.000000000000000E+000
  0.000000000000000E+000
  0.000000000000000E+000
  0.000000000000000E+000
  0.000000000000000E+000
  0.000000000000000E+000
  0.000000000000000E+000
  0.000000000000000E+000
  0.000000000000000E+000
  0.000000000000000E+000
  0.000000000000000E+000
  0.000000000000000E+000
  0.000000000000000E+000
  0.000000000000000E+000
  0.000000000000000E+000
  0.000000000000000E+000
  0.000000000000000E+000
  0.000000000000000E+000
  0.000000000000000E+000
  0.000000000000000E+000
  0.000000000000000E+000
  0.000000000000000E+000
  0.000000000000000E+000
  0.000000000000000E+000
  0.000000000000000E+000
  0.000000000000000E+000
  0.000000000000000E+000
  0.000000000000000E+000
  0.000000000000000E+000
  0.000000000000000E+000
  0.000000000000000E+000
  0.000000000000000E+000
  0.000000000000000E+000
  0.000000000000000E+000
  0.000000000000000E+000
  0.000000000000000E+000
  0.000000000000000E+000
  0.000000000000000E+000
  0.000000000000000E+000
  0.000000000000000E+000
  0.000000000000000E+000
  0.000000000000000E+000
  0.000000000000000E+000
  0.000000000000000E+000
  0.000000000000000E+000
  0.000000000000000E+000
  0.000000000000000E+000
  0.000000000000000E+000
  0.000000000000000E+000
  0.000000000000000E+000
  0.000000000000000E+000
  0.000000000000000E+000
  0.000000000000000E+000
  0.000000000000000E+000
  0.000000000000000E+000
  0.000000000000000E+000
  0.000000000000000E+000
  0.000000000000000E+000
  0.000000000000000E+000
  0.000000000000000E+000
  0.000000000000000E+000
  0.000000000000000E+000
  0.000000000000000E+000
  0.000000000000000E+000
  0.000000000000000E+000
  0.000000000000000E+000
  0.000000000000000E+000
  0.000000000000000E+000
  0.000000000000000E+000
  0.000000000000000E+000
  0.000000000000000E+000
  0.000000000000000E+000
  0.000000000000000E+000
  0.000000000000000E+000
  0.000000000000000E+000
  0.000000000000000E+000
  0.000000000000000E+000
  0.000000000000000E+000
  0.000000000000000E+000
  0.000000000000000E+000
  0.000000000000000E+000
  0.000000000000000E+000
  0.000000000000000E+000
  0.000000000000000E+000
  0.000000000000000E+000
  0.000000000000000E+000
  0.000000000000000E+000
  0.000000000000000E+000
  0.000000000000000E+000
  0.000000000000000E+000
  0.000000000000000E+000
  0.000000000000000E+000
  0.000000000000000E+000
  0.000000000000000E+000
  0.000000000000000E+000
  0.000000000000000E+000
  0.000000000000000E+000
  0.000000000000000E+000
  0.000000000000000E+000
  0.000000000000000E+000
  0.000000000000000E+000
  0.000000000000000E+000
  0.000000000000000E+000
  0.000000000000000E+000
  0.000000000000000E+000
  0.000000000000000E+000
  0.000000000000000E+000
  0.000000000000000E+000
  0.000000000000000E+000
  0.000000000000000E+000
  0.000000000000000E+000
  0.000000000000000E+000
  0.000000000000000E+000
  0.000000000000000E+000
  0.000000000000000E+000
  0.000000000000000E+000
  0.000000000000000E+000
  0.000000000000000E+000
  0.000000000000000E+000
  0.000000000000000E+000
  0.000000000000000E+000
  0.000000000000000E+000
  0.000000000000000E+000
  0.000000000000000E+000
  0.000000000000000E+000
  0.000000000000000E+000
  0.000000000000000E+000
  0.000000000000000E+000
  0.000000000000000E+000
  0.000000000000000E+000
  0.000000000000000E+000
  0.000000000000000E+000
  0.000000000000000E+000
  0.000000000000000E+000
  0.000000000000000E+000
  0.000000000000000E+000
  0.000000000000000E+000
  0.000000000000000E+000
  0.000000000000000E+000
  0.000000000000000E+000
  0.000000000000000E+000
  0.000000000000000E+000
  0.000000000000000E+000
  0.000000000000000E+000
  0.000000000000000E+000
  0.000000000000000E+000
  0.000000000000000E+000
  0.000000000000000E+000
  0.000000000000000E+000
  0.000000000000000E+000
  0.000000000000000E+000
  0.000000000000000E+000
  0.000000000000000E+000
  0.000000000000000E+000
  0.000000000000000E+000
  0.000000000000000E+000
  0.000000000000000E+000
  0.000000000000000E+000
  0.000000000000000E+000
  0.000000000000000E+000
  0.000000000000000E+000
  0.000000000000000E+000
  0.000000000000000E+000
  0.000000000000000E+000
  0.000000000000000E+000
  0.000000000000000E+000
  0.000000000000000E+000
  0.000000000000000E+000
  0.000000000000000E+000
  0.000000000000000E+000
  0.000000000000000E+000
  0.000000000000000E+000
  0.000000000000000E+000
  0.000000000000000E+000
  0.000000000000000E+000
  0.000000000000000E+000
  0.000000000000000E+000
  0.000000000000000E+000
  0.000000000000000E+000
  0.000000000000000E+000
  0.000000000000000E+000
  0.000000000000000E+000
  0.000000000000000E+000
  0.000000000000000E+000
  0.000000000000000E+000
  0.000000000000000E+000
  0.000000000000000E+000
  0.000000000000000E+000
  0.000000000000000E+000
  0.000000000000000E+000
  0.000000000000000E+000
  0.000000000000000E+000
  0.000000000000000E+000
  0.000000000000000E+000
  0.000000000000000E+000
  0.000000000000000E+000
  0.000000000000000E+000
  0.000000000000000E+000
  0.000000000000000E+000
  0.000000000000000E+000
  0.000000000000000E+000
  0.000000000000000E+000
  0.000000000000000E+000
  0.000000000000000E+000
  0.000000000000000E+000
  0.000000000000000E+000
  0.000000000000000E+000
  0.000000000000000E+000
  0.000000000000000E+000
  0.000000000000000E+000
  0.000000000000000E+000
  0.000000000000000E+000
  0.000000000000000E+000
  0.000000000000000E+000
  0.000000000000000E+000
  0.000000000000000E+000
  0.000000000000000E+000
  0.000000000000000E+000
  0.000000000000000E+000
  0.000000000000000E+000
  0.000000000000000E+000
  0.000000000000000E+000
  0.000000000000000E+000
  0.000000000000000E+000
  0.000000000000000E+000
  0.000000000000000E+000
  0.000000000000000E+000
  0.000000000000000E+000
  0.000000000000000E+000
  0.000000000000000E+000
  0.000000000000000E+000
  0.000000000000000E+000
  0.000000000000000E+000
  0.000000000000000E+000
  0.000000000000000E+000
  0.000000000000000E+000
  0.000000000000000E+000
  0.000000000000000E+000
  0.000000000000000E+000
  0.000000000000000E+000
  0.000000000000000E+000
  0.000000000000000E+000
  0.000000000000000E+000
  0.000000000000000E+000
  0.000000000000000E+000
  0.000000000000000E+000
  0.000000000000000E+000
  0.000000000000000E+000
  0.000000000000000E+000
  0.000000000000000E+000
  0.000000000000000E+000
  0.000000000000000E+000
  0.000000000000000E+000
  0.000000000000000E+000
  0.000000000000000E+000
  0.000000000000000E+000
  0.000000000000000E+000
  0.000000000000000E+000
  0.000000000000000E+000
  0.000000000000000E+000
  0.000000000000000E+000
  0.000000000000000E+000
  0.000000000000000E+000
  0.000000000000000E+000
  0.000000000000000E+000
  0.000000000000000E+000
  0.000000000000000E+000
  0.000000000000000E+000
  0.000000000000000E+000
  0.000000000000000E+000
  0.000000000000000E+000
  0.000000000000000E+000
  0.000000000000000E+000
  0.000000000000000E+000
  0.000000000000000E+000
  0.000000000000000E+000
  0.000000000000000E+000
  0.000000000000000E+000
  0.000000000000000E+000
  0.000000000000000E+000
  0.000000000000000E+000
  0.000000000000000E+000
  0.000000000000000E+000
  0.000000000000000E+000
  0.000000000000000E+000
  0.000000000000000E+000
  0.000000000000000E+000
  0.000000000000000E+000
  0.000000000000000E+000
  0.000000000000000E+000
  0.000000000000000E+000
  0.000000000000000E+000
  0.000000000000000E+000
  0.000000000000000E+000
  0.000000000000000E+000
  0.000000000000000E+000
  0.000000000000000E+000
  0.000000000000000E+000
  0.000000000000000E+000
  0.000000000000000E+000
  0.000000000000000E+000
  0.000000000000000E+000
  0.000000000000000E+000
  0.000000000000000E+000
  0.000000000000000E+000
  0.000000000000000E+000
  0.000000000000000E+000
  0.000000000000000E+000
  0.000000000000000E+000
  0.000000000000000E+000
  0.000000000000000E+000
  0.000000000000000E+000
  0.000000000000000E+000
  0.000000000000000E+000
  0.000000000000000E+000
  0.000000000000000E+000
  0.000000000000000E+000
  0.000000000000000E+000
  0.000000000000000E+000
  0.000000000000000E+000
  0.000000000000000E+000
  0.000000000000000E+000
  0.000000000000000E+000
  0.000000000000000E+000
  0.000000000000000E+000
  0.000000000000000E+000
  0.000000000000000E+000
  0.000000000000000E+000
  0.000000000000000E+000
  0.000000000000000E+000
  0.000000000000000E+000
  0.000000000000000E+000
  0.000000000000000E+000
  0.000000000000000E+000
  0.000000000000000E+000
  0.000000000000000E+000
  0.000000000000000E+000
  0.000000000000000E+000
  0.000000000000000E+000
  0.000000000000000E+000
  0.000000000000000E+000
  0.000000000000000E+000
  0.000000000000000E+000
  0.000000000000000E+000
  0.000000000000000E+000
  0.000000000000000E+000
  0.000000000000000E+000
  0.000000000000000E+000
  0.000000000000000E+000
  0.000000000000000E+000
  0.000000000000000E+000
  0.000000000000000E+000
  0.000000000000000E+000
  0.000000000000000E+000
  0.000000000000000E+000
  0.000000000000000E+000
  0.000000000000000E+000
  0.000000000000000E+000
  0.000000000000000E+000
  0.000000000000000E+000
  0.000000000000000E+000
  0.000000000000000E+000
  0.000000000000000E+000
  0.000000000000000E+000
  0.000000000000000E+000
  0.000000000000000E+000
  0.000000000000000E+000
  0.000000000000000E+000
  0.000000000000000E+000
  0.000000000000000E+000
  0.000000000000000E+000
  0.000000000000000E+000
  0.000000000000000E+000
  0.000000000000000E+000
  0.000000000000000E+000
  0.000000000000000E+000
  0.000000000000000E+000
  0.000000000000000E+000
  0.000000000000000E+000
  0.000000000000000E+000
  0.000000000000000E+000
  0.000000000000000E+000
  0.000000000000000E+000
  0.000000000000000E+000
  0.000000000000000E+000
  0.000000000000000E+000
  0.000000000000000E+000
  0.000000000000000E+000
  0.000000000000000E+000
  0.000000000000000E+000
  0.000000000000000E+000
  0.000000000000000E+000
  0.000000000000000E+000
  0.000000000000000E+000
  0.000000000000000E+000
  0.000000000000000E+000
  0.000000000000000E+000
  0.000000000000000E+000
  0.000000000000000E+000
  0.000000000000000E+000
  0.000000000000000E+000
  0.000000000000000E+000
  0.000000000000000E+000
  0.000000000000000E+000
  0.000000000000000E+000
  0.000000000000000E+000
  0.000000000000000E+000
  0.000000000000000E+000
  0.000000000000000E+000
  0.000000000000000E+000
  0.000000000000000E+000
  0.000000000000000E+000
  0.000000000000000E+000
  0.000000000000000E+000
  0.000000000000000E+000
  0.000000000000000E+000
  0.000000000000000E+000
  0.000000000000000E+000
  0.000000000000000E+000
  0.000000000000000E+000
  0.000000000000000E+000
  0.000000000000000E+000
  0.000000000000000E+000
  0.000000000000000E+000
  0.000000000000000E+000
  0.000000000000000E+000
  0.000000000000000E+000
  0.000000000000000E+000
  0.000000000000000E+000
  0.000000000000000E+000
  0.000000000000000E+000
  0.000000000000000E+000
  0.000000000000000E+000
  0.000000000000000E+000
  0.000000000000000E+000
  0.000000000000000E+000
  0.000000000000000E+000
  0.000000000000000E+000
  0.000000000000000E+000
  0.000000000000000E+000
  0.000000000000000E+000
  0.000000000000000E+000
  0.000000000000000E+000
  0.000000000000000E+000
  0.000000000000000E+000
  0.000000000000000E+000
  0.000000000000000E+000
  0.000000000000000E+000
  0.000000000000000E+000
  0.000000000000000E+000
  0.000000000000000E+000
  0.000000000000000E+000
  0.000000000000000E+000
  0.000000000000000E+000
  0.000000000000000E+000
  0.000000000000000E+000
  0.000000000000000E+000
  0.000000000000000E+000
  0.000000000000000E+000
  0.000000000000000E+000
  0.000000000000000E+000
  0.000000000000000E+000
  0.000000000000000E+000
  0.000000000000000E+000
  0.000000000000000E+000
  0.000000000000000E+000
  0.000000000000000E+000
  0.000000000000000E+000
  0.000000000000000E+000
  0.000000000000000E+000
  0.000000000000000E+000
  0.000000000000000E+000
  0.000000000000000E+000
  0.000000000000000E+000
  0.000000000000000E+000
  0.000000000000000E+000
  0.000000000000000E+000
  0.000000000000000E+000
  0.000000000000000E+000
  0.000000000000000E+000
  0.000000000000000E+000
  0.000000000000000E+000
  0.000000000000000E+000
  0.000000000000000E+000
  0.000000000000000E+000
  0.000000000000000E+000
  0.000000000000000E+000
  0.000000000000000E+000
  0.000000000000000E+000
  0.000000000000000E+000
  0.000000000000000E+000
  0.000000000000000E+000
  0.000000000000000E+000
  0.000000000000000E+000
  0.000000000000000E+000
  0.000000000000000E+000
  0.000000000000000E+000
  0.000000000000000E+000
  0.000000000000000E+000
  0.000000000000000E+000
  0.000000000000000E+000
  0.000000000000000E+000
  0.000000000000000E+000
  0.000000000000000E+000
  0.000000000000000E+000
  0.000000000000000E+000
  0.000000000000000E+000
  0.000000000000000E+000
  0.000000000000000E+000
  0.000000000000000E+000
  0.000000000000000E+000
  0.000000000000000E+000
  0.000000000000000E+000
  0.000000000000000E+000
  0.000000000000000E+000
  0.000000000000000E+000
  0.000000000000000E+000
  0.000000000000000E+000
  0.000000000000000E+000
  0.000000000000000E+000
  0.000000000000000E+000
  0.000000000000000E+000
  0.000000000000000E+000
  0.000000000000000E+000
  0.000000000000000E+000
  0.000000000000000E+000
  0.000000000000000E+000
  0.000000000000000E+000
  0.000000000000000E+000
  0.000000000000000E+000
  0.000000000000000E+000
  0.000000000000000E+000
  0.000000000000000E+000
  0.000000000000000E+000
  0.000000000000000E+000
  0.000000000000000E+000
  0.000000000000000E+000
  0.000000000000000E+000
  0.000000000000000E+000
  0.000000000000000E+000
  0.000000000000000E+000
  0.000000000000000E+000
  0.000000000000000E+000
  0.000000000000000E+000
  0.000000000000000E+000
  0.000000000000000E+000
  0.000000000000000E+000
  0.000000000000000E+000
  0.000000000000000E+000
  0.000000000000000E+000
  0.000000000000000E+000
  0.000000000000000E+000
  0.000000000000000E+000
  0.000000000000000E+000
  0.000000000000000E+000
  0.000000000000000E+000
  0.000000000000000E+000
  0.000000000000000E+000
  0.000000000000000E+000
  0.000000000000000E+000
  0.000000000000000E+000
  0.000000000000000E+000
  0.000000000000000E+000
  0.000000000000000E+000
  0.000000000000000E+000
  0.000000000000000E+000
  0.000000000000000E+000
  0.000000000000000E+000
  0.000000000000000E+000
  0.000000000000000E+000
  0.000000000000000E+000
  0.000000000000000E+000
  0.000000000000000E+000
  0.000000000000000E+000
  0.000000000000000E+000
  0.000000000000000E+000
  0.000000000000000E+000
  0.000000000000000E+000
  0.000000000000000E+000
  0.000000000000000E+000
  0.000000000000000E+000
  0.000000000000000E+000
  0.000000000000000E+000
  0.000000000000000E+000
  0.000000000000000E+000
  0.000000000000000E+000
  0.000000000000000E+000
  0.000000000000000E+000
  0.000000000000000E+000
  0.000000000000000E+000
  0.000000000000000E+000
  0.000000000000000E+000
  0.000000000000000E+000
  0.000000000000000E+000
  0.000000000000000E+000
  0.000000000000000E+000
  0.000000000000000E+000
  0.000000000000000E+000
  0.000000000000000E+000
  0.000000000000000E+000
  0.000000000000000E+000
  0.000000000000000E+000
  0.000000000000000E+000
  0.000000000000000E+000
  0.000000000000000E+000
  0.000000000000000E+000
  0.000000000000000E+000
  0.000000000000000E+000
  0.000000000000000E+000
  0.000000000000000E+000
  0.000000000000000E+000
  0.000000000000000E+000
  0.000000000000000E+000
  0.000000000000000E+000
  0.000000000000000E+000
  0.000000000000000E+000
  0.000000000000000E+000
  0.000000000000000E+000
  0.000000000000000E+000
  0.000000000000000E+000
  0.000000000000000E+000
  0.000000000000000E+000
  0.000000000000000E+000
  0.000000000000000E+000
  0.000000000000000E+000
  0.000000000000000E+000
  0.000000000000000E+000
  0.000000000000000E+000
  0.000000000000000E+000
  0.000000000000000E+000
  0.000000000000000E+000
  0.000000000000000E+000
  0.000000000000000E+000
  0.000000000000000E+000
  0.000000000000000E+000
  0.000000000000000E+000
  0.000000000000000E+000
  0.000000000000000E+000
  0.000000000000000E+000
  0.000000000000000E+000
  0.000000000000000E+000
  0.000000000000000E+000
  0.000000000000000E+000
  0.000000000000000E+000
  0.000000000000000E+000
  0.000000000000000E+000
  0.000000000000000E+000
  0.000000000000000E+000
  0.000000000000000E+000
  0.000000000000000E+000
  0.000000000000000E+000
  0.000000000000000E+000
  0.000000000000000E+000
  0.000000000000000E+000
  0.000000000000000E+000
  0.000000000000000E+000
  0.000000000000000E+000
  0.000000000000000E+000
  0.000000000000000E+000
  0.000000000000000E+000
  0.000000000000000E+000
  0.000000000000000E+000
  0.000000000000000E+000
  0.000000000000000E+000
  0.000000000000000E+000
  0.000000000000000E+000
  0.000000000000000E+000
  0.000000000000000E+000
  0.000000000000000E+000
  0.000000000000000E+000
  0.000000000000000E+000
  0.000000000000000E+000
  0.000000000000000E+000
  0.000000000000000E+000
  0.000000000000000E+000
  0.000000000000000E+000
  0.000000000000000E+000
  0.000000000000000E+000
  0.000000000000000E+000
  0.000000000000000E+000
  0.000000000000000E+000
  0.000000000000000E+000
  0.000000000000000E+000
  0.000000000000000E+000
  0.000000000000000E+000
  0.000000000000000E+000
  0.000000000000000E+000
  0.000000000000000E+000
  0.000000000000000E+000
  0.000000000000000E+000
  0.000000000000000E+000
  0.000000000000000E+000
  0.000000000000000E+000
  0.000000000000000E+000
  0.000000000000000E+000
  0.000000000000000E+000
  0.000000000000000E+000
  0.000000000000000E+000
  0.000000000000000E+000
  0.000000000000000E+000
  0.000000000000000E+000
  0.000000000000000E+000
  0.000000000000000E+000
  0.000000000000000E+000
  0.000000000000000E+000
  0.000000000000000E+000
  0.000000000000000E+000
  0.000000000000000E+000
  0.000000000000000E+000
  0.000000000000000E+000
  0.000000000000000E+000
  0.000000000000000E+000
  0.000000000000000E+000
  0.000000000000000E+000
  0.000000000000000E+000
  0.000000000000000E+000
  0.000000000000000E+000
  0.000000000000000E+000
  0.000000000000000E+000
  0.000000000000000E+000
  0.000000000000000E+000
  0.000000000000000E+000
  0.000000000000000E+000
  0.000000000000000E+000
  0.000000000000000E+000
  0.000000000000000E+000
  0.000000000000000E+000
  0.000000000000000E+000
  0.000000000000000E+000
  0.000000000000000E+000
  0.000000000000000E+000
  0.000000000000000E+000
  0.000000000000000E+000
  0.000000000000000E+000
  0.000000000000000E+000
  0.000000000000000E+000
  0.000000000000000E+000
  0.000000000000000E+000
  0.000000000000000E+000
  0.000000000000000E+000
  0.000000000000000E+000
  0.000000000000000E+000
  0.000000000000000E+000
  0.000000000000000E+000
  0.000000000000000E+000
  0.000000000000000E+000
  0.000000000000000E+000
  0.000000000000000E+000
  0.000000000000000E+000
  0.000000000000000E+000
  0.000000000000000E+000
  0.000000000000000E+000
  0.000000000000000E+000
  0.000000000000000E+000
  0.000000000000000E+000
  0.000000000000000E+000
  0.000000000000000E+000
  0.000000000000000E+000
  0.000000000000000E+000
  0.000000000000000E+000
  0.000000000000000E+000
  0.000000000000000E+000
  0.000000000000000E+000
  0.000000000000000E+000
  0.000000000000000E+000
  0.000000000000000E+000
  0.000000000000000E+000
  0.000000000000000E+000
  0.000000000000000E+000
  0.000000000000000E+000
  0.000000000000000E+000
  0.000000000000000E+000
  0.000000000000000E+000
  0.000000000000000E+000
  0.000000000000000E+000
  0.000000000000000E+000
SCALARS poroL double 
LOOKUP_TABLE default
  0.197421912200619     
  0.197421912200619     
  0.197421912200619     
  0.197421912200619     
  0.197421912200619     
  0.197421912200619     
  0.197421912200619     
  0.197421912200619     
  0.197421912200619     
  0.197421912200619     
  0.197421912200619     
  0.197421912200619     
  0.197421912200619     
  0.197421912200619     
  0.197421912200619     
  0.197421676831251     
  0.197421676831251     
  0.197421676831251     
  0.197421676831251     
  0.197421676831251     
  0.197421676831251     
  0.197421676831251     
  0.197421676831251     
  0.197421676831251     
  0.197421676831251     
  0.197421676831251     
  0.197421676831251     
  0.197421676831251     
  0.197421676831251     
  0.197421676831251     
  0.197421206132487     
  0.197421206132487     
  0.197421206132487     
  0.197421206132487     
  0.197421206132487     
  0.197421206132487     
  0.197421206132487     
  0.197421206132487     
  0.197421206132487     
  0.197421206132487     
  0.197421206132487     
  0.197421206132487     
  0.197421206132487     
  0.197421206132487     
  0.197421206132487     
  0.197420500184287     
  0.197420500184287     
  0.197420500184287     
  0.197420500184287     
  0.197420500184287     
  0.197420500184287     
  0.197420500184287     
  0.197420500184287     
  0.197420500184287     
  0.197420500184287     
  0.197420500184287     
  0.197420500184287     
  0.197420500184287     
  0.197420500184287     
  0.197420500184287     
  0.197419559106639     
  0.197419559106639     
  0.197419559106639     
  0.197419559106639     
  0.197419559106639     
  0.197419559106639     
  0.197419559106639     
  0.197419559106639     
  0.197419559106639     
  0.197419559106639     
  0.197419559106639     
  0.197419559106639     
  0.197419559106639     
  0.197419559106639     
  0.197419559106639     
  0.197418383059610     
  0.197418383059610     
  0.197418383059610     
  0.197418383059610     
  0.197418383059610     
  0.197418383059610     
  0.197418383059610     
  0.197418383059610     
  0.197418383059610     
  0.197418383059610     
  0.197418383059610     
  0.197418383059610     
  0.197418383059610     
  0.197418383059610     
  0.197418383059610     
  0.197416972243424     
  0.197416972243424     
  0.197416972243424     
  0.197416972243424     
  0.197416972243424     
  0.197416972243424     
  0.197416972243424     
  0.197416972243424     
  0.197416972243424     
  0.197416972243424     
  0.197416972243424     
  0.197416972243424     
  0.197416972243424     
  0.197416972243424     
  0.197416972243424     
  0.197415326898548     
  0.197415326898548     
  0.197415326898548     
  0.197415326898548     
  0.197415326898548     
  0.197415326898548     
  0.197415326898548     
  0.197415326898548     
  0.197415326898548     
  0.197415326898548     
  0.197415326898548     
  0.197415326898548     
  0.197415326898548     
  0.197415326898548     
  0.197415326898548     
  0.197413447305805     
  0.197413447305805     
  0.197413447305805     
  0.197413447305805     
  0.197413447305805     
  0.197413447305805     
  0.197413447305805     
  0.197413447305805     
  0.197413447305805     
  0.197413447305805     
  0.197413447305805     
  0.197413447305805     
  0.197413447305805     
  0.197413447305805     
  0.197413447305805     
  0.197411333786499     
  0.197411333786499     
  0.197411333786499     
  0.197411333786499     
  0.197411333786499     
  0.197411333786499     
  0.197411333786499     
  0.197411333786499     
  0.197411333786499     
  0.197411333786499     
  0.197411333786499     
  0.197411333786499     
  0.197411333786499     
  0.197411333786499     
  0.197411333786499     
  0.197408986702560     
  0.197408986702560     
  0.197408986702560     
  0.197408986702560     
  0.197408986702560     
  0.197408986702560     
  0.197408986702560     
  0.197408986702560     
  0.197408986702560     
  0.197408986702560     
  0.197408986702560     
  0.197408986702560     
  0.197408986702560     
  0.197408986702560     
  0.197408986702560     
  0.197406406456704     
  0.197406406456704     
  0.197406406456704     
  0.197406406456704     
  0.197406406456704     
  0.197406406456704     
  0.197406406456704     
  0.197406406456704     
  0.197406406456704     
  0.197406406456704     
  0.197406406456704     
  0.197406406456704     
  0.197406406456704     
  0.197406406456704     
  0.197406406456704     
  0.197403593492614     
  0.197403593492614     
  0.197403593492614     
  0.197403593492614     
  0.197403593492614     
  0.197403593492614     
  0.197403593492614     
  0.197403593492614     
  0.197403593492614     
  0.197403593492614     
  0.197403593492614     
  0.197403593492614     
  0.197403593492614     
  0.197403593492614     
  0.197403593492614     
  0.197400548295132     
  0.197400548295132     
  0.197400548295132     
  0.197400548295132     
  0.197400548295132     
  0.197400548295132     
  0.197400548295132     
  0.197400548295132     
  0.197400548295132     
  0.197400548295132     
  0.197400548295132     
  0.197400548295132     
  0.197400548295132     
  0.197400548295132     
  0.197400548295132     
  0.197397271390475     
  0.197397271390475     
  0.197397271390475     
  0.197397271390475     
  0.197397271390475     
  0.197397271390475     
  0.197397271390475     
  0.197397271390475     
  0.197397271390475     
  0.197397271390475     
  0.197397271390475     
  0.197397271390475     
  0.197397271390475     
  0.197397271390475     
  0.197397271390475     
  0.197393763346458     
  0.197393763346458     
  0.197393763346458     
  0.197393763346458     
  0.197393763346458     
  0.197393763346458     
  0.197393763346458     
  0.197393763346458     
  0.197393763346458     
  0.197393763346458     
  0.197393763346458     
  0.197393763346458     
  0.197393763346458     
  0.197393763346458     
  0.197393763346458     
  0.197390024772739     
  0.197390024772739     
  0.197390024772739     
  0.197390024772739     
  0.197390024772739     
  0.197390024772739     
  0.197390024772739     
  0.197390024772739     
  0.197390024772739     
  0.197390024772739     
  0.197390024772739     
  0.197390024772739     
  0.197390024772739     
  0.197390024772739     
  0.197390024772739     
  0.197386056321078     
  0.197386056321078     
  0.197386056321078     
  0.197386056321078     
  0.197386056321078     
  0.197386056321078     
  0.197386056321078     
  0.197386056321078     
  0.197386056321078     
  0.197386056321078     
  0.197386056321078     
  0.197386056321078     
  0.197386056321078     
  0.197386056321078     
  0.197386056321078     
  0.197381858685609     
  0.197381858685609     
  0.197381858685609     
  0.197381858685609     
  0.197381858685609     
  0.197381858685609     
  0.197381858685609     
  0.197381858685609     
  0.197381858685609     
  0.197381858685609     
  0.197381858685609     
  0.197381858685609     
  0.197381858685609     
  0.197381858685609     
  0.197381858685609     
  0.197377432603126     
  0.197377432603126     
  0.197377432603126     
  0.197377432603126     
  0.197377432603126     
  0.197377432603126     
  0.197377432603126     
  0.197377432603126     
  0.197377432603126     
  0.197377432603126     
  0.197377432603126     
  0.197377432603126     
  0.197377432603126     
  0.197377432603126     
  0.197377432603126     
  0.197372778853385     
  0.197372778853385     
  0.197372778853385     
  0.197372778853385     
  0.197372778853385     
  0.197372778853385     
  0.197372778853385     
  0.197372778853385     
  0.197372778853385     
  0.197372778853385     
  0.197372778853385     
  0.197372778853385     
  0.197372778853385     
  0.197372778853385     
  0.197372778853385     
  0.197367898259419     
  0.197367898259419     
  0.197367898259419     
  0.197367898259419     
  0.197367898259419     
  0.197367898259419     
  0.197367898259419     
  0.197367898259419     
  0.197367898259419     
  0.197367898259419     
  0.197367898259419     
  0.197367898259419     
  0.197367898259419     
  0.197367898259419     
  0.197367898259419     
  0.197362791687861     
  0.197362791687861     
  0.197362791687861     
  0.197362791687861     
  0.197362791687861     
  0.197362791687861     
  0.197362791687861     
  0.197362791687861     
  0.197362791687861     
  0.197362791687861     
  0.197362791687861     
  0.197362791687861     
  0.197362791687861     
  0.197362791687861     
  0.197362791687861     
  0.197357460049282     
  0.197357460049282     
  0.197357460049282     
  0.197357460049282     
  0.197357460049282     
  0.197357460049282     
  0.197357460049282     
  0.197357460049282     
  0.197357460049282     
  0.197357460049282     
  0.197357460049282     
  0.197357460049282     
  0.197357460049282     
  0.197357460049282     
  0.197357460049282     
  0.197351904298544     
  0.197351904298544     
  0.197351904298544     
  0.197351904298544     
  0.197351904298544     
  0.197351904298544     
  0.197351904298544     
  0.197351904298544     
  0.197351904298544     
  0.197351904298544     
  0.197351904298544     
  0.197351904298544     
  0.197351904298544     
  0.197351904298544     
  0.197351904298544     
  0.197346125435155     
  0.197346125435155     
  0.197346125435155     
  0.197346125435155     
  0.197346125435155     
  0.197346125435155     
  0.197346125435155     
  0.197346125435155     
  0.197346125435155     
  0.197346125435155     
  0.197346125435155     
  0.197346125435155     
  0.197346125435155     
  0.197346125435155     
  0.197346125435155     
  0.197340124503641     
  0.197340124503641     
  0.197340124503641     
  0.197340124503641     
  0.197340124503641     
  0.197340124503641     
  0.197340124503641     
  0.197340124503641     
  0.197340124503641     
  0.197340124503641     
  0.197340124503641     
  0.197340124503641     
  0.197340124503641     
  0.197340124503641     
  0.197340124503641     
  0.197333902593923     
  0.197333902593923     
  0.197333902593923     
  0.197333902593923     
  0.197333902593923     
  0.197333902593923     
  0.197333902593923     
  0.197333902593923     
  0.197333902593923     
  0.197333902593923     
  0.197333902593923     
  0.197333902593923     
  0.197333902593923     
  0.197333902593923     
  0.197333902593923     
  0.197327460841700     
  0.197327460841700     
  0.197327460841700     
  0.197327460841700     
  0.197327460841700     
  0.197327460841700     
  0.197327460841700     
  0.197327460841700     
  0.197327460841700     
  0.197327460841700     
  0.197327460841700     
  0.197327460841700     
  0.197327460841700     
  0.197327460841700     
  0.197327460841700     
  0.197320800428849     
  0.197320800428849     
  0.197320800428849     
  0.197320800428849     
  0.197320800428849     
  0.197320800428849     
  0.197320800428849     
  0.197320800428849     
  0.197320800428849     
  0.197320800428849     
  0.197320800428849     
  0.197320800428849     
  0.197320800428849     
  0.197320800428849     
  0.197320800428849     
  0.197313922583819     
  0.197313922583819     
  0.197313922583819     
  0.197313922583819     
  0.197313922583819     
  0.197313922583819     
  0.197313922583819     
  0.197313922583819     
  0.197313922583819     
  0.197313922583819     
  0.197313922583819     
  0.197313922583819     
  0.197313922583819     
  0.197313922583819     
  0.197313922583819     
  0.197306828582036     
  0.197306828582036     
  0.197306828582036     
  0.197306828582036     
  0.197306828582036     
  0.197306828582036     
  0.197306828582036     
  0.197306828582036     
  0.197306828582036     
  0.197306828582036     
  0.197306828582036     
  0.197306828582036     
  0.197306828582036     
  0.197306828582036     
  0.197306828582036     
  0.197299519746317     
  0.197299519746317     
  0.197299519746317     
  0.197299519746317     
  0.197299519746317     
  0.197299519746317     
  0.197299519746317     
  0.197299519746317     
  0.197299519746317     
  0.197299519746317     
  0.197299519746317     
  0.197299519746317     
  0.197299519746317     
  0.197299519746317     
  0.197299519746317     
  0.197291997447278     
  0.197291997447278     
  0.197291997447278     
  0.197291997447278     
  0.197291997447278     
  0.197291997447278     
  0.197291997447278     
  0.197291997447278     
  0.197291997447278     
  0.197291997447278     
  0.197291997447278     
  0.197291997447278     
  0.197291997447278     
  0.197291997447278     
  0.197291997447278     
  0.197284263103749     
  0.197284263103749     
  0.197284263103749     
  0.197284263103749     
  0.197284263103749     
  0.197284263103749     
  0.197284263103749     
  0.197284263103749     
  0.197284263103749     
  0.197284263103749     
  0.197284263103749     
  0.197284263103749     
  0.197284263103749     
  0.197284263103749     
  0.197284263103749     
  0.197276318183194     
  0.197276318183194     
  0.197276318183194     
  0.197276318183194     
  0.197276318183194     
  0.197276318183194     
  0.197276318183194     
  0.197276318183194     
  0.197276318183194     
  0.197276318183194     
  0.197276318183194     
  0.197276318183194     
  0.197276318183194     
  0.197276318183194     
  0.197276318183194     
  0.197268164202125     
  0.197268164202125     
  0.197268164202125     
  0.197268164202125     
  0.197268164202125     
  0.197268164202125     
  0.197268164202125     
  0.197268164202125     
  0.197268164202125     
  0.197268164202125     
  0.197268164202125     
  0.197268164202125     
  0.197268164202125     
  0.197268164202125     
  0.197268164202125     
  0.197259802726517     
  0.197259802726517     
  0.197259802726517     
  0.197259802726517     
  0.197259802726517     
  0.197259802726517     
  0.197259802726517     
  0.197259802726517     
  0.197259802726517     
  0.197259802726517     
  0.197259802726517     
  0.197259802726517     
  0.197259802726517     
  0.197259802726517     
  0.197259802726517     
  0.197251235372223     
  0.197251235372223     
  0.197251235372223     
  0.197251235372223     
  0.197251235372223     
  0.197251235372223     
  0.197251235372223     
  0.197251235372223     
  0.197251235372223     
  0.197251235372223     
  0.197251235372223     
  0.197251235372223     
  0.197251235372223     
  0.197251235372223     
  0.197251235372223     
  0.197242463805383     
  0.197242463805383     
  0.197242463805383     
  0.197242463805383     
  0.197242463805383     
  0.197242463805383     
  0.197242463805383     
  0.197242463805383     
  0.197242463805383     
  0.197242463805383     
  0.197242463805383     
  0.197242463805383     
  0.197242463805383     
  0.197242463805383     
  0.197242463805383     
  0.197233489742828     
  0.197233489742828     
  0.197233489742828     
  0.197233489742828     
  0.197233489742828     
  0.197233489742828     
  0.197233489742828     
  0.197233489742828     
  0.197233489742828     
  0.197233489742828     
  0.197233489742828     
  0.197233489742828     
  0.197233489742828     
  0.197233489742828     
  0.197233489742828     
  0.197224314952482     
  0.197224314952481     
  0.197224314952481     
  0.197224314952481     
  0.197224314952481     
  0.197224314952481     
  0.197224314952481     
  0.197224314952481     
  0.197224314952481     
  0.197224314952481     
  0.197224314952481     
  0.197224314952481     
  0.197224314952481     
  0.197224314952481     
  0.197224314952481     
  0.197214941253752     
  0.197214941253752     
  0.197214941253752     
  0.197214941253752     
  0.197214941253752     
  0.197214941253752     
  0.197214941253752     
  0.197214941253752     
  0.197214941253752     
  0.197214941253752     
  0.197214941253752     
  0.197214941253752     
  0.197214941253752     
  0.197214941253752     
  0.197214941253752     
  0.197205370517913     
  0.197205370517913     
  0.197205370517913     
  0.197205370517913     
  0.197205370517913     
  0.197205370517913     
  0.197205370517913     
  0.197205370517913     
  0.197205370517913     
  0.197205370517913     
  0.197205370517913     
  0.197205370517913     
  0.197205370517913     
  0.197205370517913     
  0.197205370517913     
  0.197195604668480     
  0.197195604668480     
  0.197195604668480     
  0.197195604668480     
  0.197195604668480     
  0.197195604668480     
  0.197195604668480     
  0.197195604668480     
  0.197195604668480     
  0.197195604668480     
  0.197195604668480     
  0.197195604668480     
  0.197195604668480     
  0.197195604668480     
  0.197195604668480     
  0.197185645681571     
  0.197185645681571     
  0.197185645681571     
  0.197185645681571     
  0.197185645681571     
  0.197185645681571     
  0.197185645681571     
  0.197185645681571     
  0.197185645681571     
  0.197185645681571     
  0.197185645681571     
  0.197185645681571     
  0.197185645681571     
  0.197185645681571     
  0.197185645681571     
  0.197175495586256     
  0.197175495586256     
  0.197175495586256     
  0.197175495586256     
  0.197175495586256     
  0.197175495586256     
  0.197175495586256     
  0.197175495586256     
  0.197175495586256     
  0.197175495586256     
  0.197175495586256     
  0.197175495586256     
  0.197175495586256     
  0.197175495586256     
  0.197175495586256     
  0.197165156464892     
  0.197165156464892     
  0.197165156464892     
  0.197165156464892     
  0.197165156464892     
  0.197165156464892     
  0.197165156464892     
  0.197165156464892     
  0.197165156464892     
  0.197165156464892     
  0.197165156464892     
  0.197165156464892     
  0.197165156464892     
  0.197165156464892     
  0.197165156464892     
  0.197154630453442     
  0.197154630453442     
  0.197154630453442     
  0.197154630453442     
  0.197154630453442     
  0.197154630453442     
  0.197154630453442     
  0.197154630453442     
  0.197154630453442     
  0.197154630453442     
  0.197154630453442     
  0.197154630453442     
  0.197154630453442     
  0.197154630453442     
  0.197154630453442     
  0.197143919741780     
  0.197143919741780     
  0.197143919741780     
  0.197143919741780     
  0.197143919741780     
  0.197143919741780     
  0.197143919741780     
  0.197143919741780     
  0.197143919741780     
  0.197143919741780     
  0.197143919741780     
  0.197143919741780     
  0.197143919741780     
  0.197143919741780     
  0.197143919741780     
  0.197133026573970     
  0.197133026573970     
  0.197133026573970     
  0.197133026573970     
  0.197133026573970     
  0.197133026573970     
  0.197133026573970     
  0.197133026573970     
  0.197133026573970     
  0.197133026573970     
  0.197133026573970     
  0.197133026573970     
  0.197133026573970     
  0.197133026573970     
  0.197133026573970     
  0.197121953248533     
  0.197121953248533     
  0.197121953248533     
  0.197121953248533     
  0.197121953248533     
  0.197121953248533     
  0.197121953248533     
  0.197121953248533     
  0.197121953248533     
  0.197121953248533     
  0.197121953248533     
  0.197121953248533     
  0.197121953248533     
  0.197121953248533     
  0.197121953248533     
  0.197110702118689     
  0.197110702118689     
  0.197110702118689     
  0.197110702118689     
  0.197110702118689     
  0.197110702118689     
  0.197110702118689     
  0.197110702118689     
  0.197110702118689     
  0.197110702118689     
  0.197110702118689     
  0.197110702118689     
  0.197110702118689     
  0.197110702118689     
  0.197110702118689     
  0.197099275592572     
  0.197099275592572     
  0.197099275592572     
  0.197099275592572     
  0.197099275592572     
  0.197099275592572     
  0.197099275592572     
  0.197099275592572     
  0.197099275592572     
  0.197099275592572     
  0.197099275592572     
  0.197099275592572     
  0.197099275592572     
  0.197099275592572     
  0.197099275592572     
  0.197087676133428     
  0.197087676133428     
  0.197087676133428     
  0.197087676133428     
  0.197087676133428     
  0.197087676133428     
  0.197087676133428     
  0.197087676133428     
  0.197087676133428     
  0.197087676133428     
  0.197087676133428     
  0.197087676133428     
  0.197087676133428     
  0.197087676133428     
  0.197087676133428     
  0.197075906259782     
  0.197075906259782     
  0.197075906259782     
  0.197075906259782     
  0.197075906259782     
  0.197075906259782     
  0.197075906259782     
  0.197075906259782     
  0.197075906259782     
  0.197075906259782     
  0.197075906259782     
  0.197075906259782     
  0.197075906259782     
  0.197075906259782     
  0.197075906259782     
  0.197063968545578     
  0.197063968545578     
  0.197063968545578     
  0.197063968545578     
  0.197063968545578     
  0.197063968545578     
  0.197063968545578     
  0.197063968545578     
  0.197063968545578     
  0.197063968545578     
  0.197063968545578     
  0.197063968545578     
  0.197063968545578     
  0.197063968545578     
  0.197063968545578     
  0.197051865620289     
  0.197051865620289     
  0.197051865620289     
  0.197051865620289     
  0.197051865620289     
  0.197051865620289     
  0.197051865620289     
  0.197051865620289     
  0.197051865620289     
  0.197051865620289     
  0.197051865620289     
  0.197051865620289     
  0.197051865620289     
  0.197051865620289     
  0.197051865620289     
  0.197039600169003     
  0.197039600169003     
  0.197039600169003     
  0.197039600169003     
  0.197039600169003     
  0.197039600169003     
  0.197039600169003     
  0.197039600169003     
  0.197039600169003     
  0.197039600169003     
  0.197039600169003     
  0.197039600169003     
  0.197039600169003     
  0.197039600169003     
  0.197039600169003     
  0.197027174932468     
  0.197027174932468     
  0.197027174932468     
  0.197027174932468     
  0.197027174932468     
  0.197027174932468     
  0.197027174932468     
  0.197027174932468     
  0.197027174932468     
  0.197027174932468     
  0.197027174932468     
  0.197027174932468     
  0.197027174932468     
  0.197027174932468     
  0.197027174932468     
  0.197014592707110     
  0.197014592707110     
  0.197014592707110     
  0.197014592707110     
  0.197014592707110     
  0.197014592707110     
  0.197014592707110     
  0.197014592707110     
  0.197014592707110     
  0.197014592707110     
  0.197014592707110     
  0.197014592707110     
  0.197014592707110     
  0.197014592707110     
  0.197014592707110     
  0.197001856345017     
  0.197001856345017     
  0.197001856345017     
  0.197001856345017     
  0.197001856345017     
  0.197001856345017     
  0.197001856345017     
  0.197001856345017     
  0.197001856345017     
  0.197001856345017     
  0.197001856345017     
  0.197001856345017     
  0.197001856345017     
  0.197001856345017     
  0.197001856345017     
  0.196988968753884     
  0.196988968753884     
  0.196988968753884     
  0.196988968753884     
  0.196988968753884     
  0.196988968753884     
  0.196988968753884     
  0.196988968753884     
  0.196988968753884     
  0.196988968753884     
  0.196988968753884     
  0.196988968753884     
  0.196988968753884     
  0.196988968753884     
  0.196988968753884     
  0.196975932896924     
  0.196975932896924     
  0.196975932896924     
  0.196975932896924     
  0.196975932896924     
  0.196975932896924     
  0.196975932896924     
  0.196975932896924     
  0.196975932896924     
  0.196975932896924     
  0.196975932896924     
  0.196975932896924     
  0.196975932896924     
  0.196975932896924     
  0.196975932896924     
  0.196962751792743     
  0.196962751792743     
  0.196962751792743     
  0.196962751792743     
  0.196962751792743     
  0.196962751792743     
  0.196962751792743     
  0.196962751792743     
  0.196962751792743     
  0.196962751792743     
  0.196962751792743     
  0.196962751792743     
  0.196962751792743     
  0.196962751792743     
  0.196962751792743     
  0.196949428515171     
  0.196949428515171     
  0.196949428515171     
  0.196949428515171     
  0.196949428515171     
  0.196949428515171     
  0.196949428515171     
  0.196949428515171     
  0.196949428515171     
  0.196949428515171     
  0.196949428515171     
  0.196949428515171     
  0.196949428515171     
  0.196949428515171     
  0.196949428515171     
  0.196935966193062     
  0.196935966193062     
  0.196935966193062     
  0.196935966193062     
  0.196935966193062     
  0.196935966193062     
  0.196935966193062     
  0.196935966193062     
  0.196935966193062     
  0.196935966193062     
  0.196935966193062     
  0.196935966193062     
  0.196935966193062     
  0.196935966193062     
  0.196935966193062     
  0.196922368010045     
  0.196922368010045     
  0.196922368010045     
  0.196922368010045     
  0.196922368010045     
  0.196922368010045     
  0.196922368010045     
  0.196922368010045     
  0.196922368010045     
  0.196922368010045     
  0.196922368010045     
  0.196922368010045     
  0.196922368010045     
  0.196922368010045     
  0.196922368010045     
  0.196908637204244     
  0.196908637204244     
  0.196908637204244     
  0.196908637204244     
  0.196908637204244     
  0.196908637204244     
  0.196908637204244     
  0.196908637204244     
  0.196908637204244     
  0.196908637204244     
  0.196908637204244     
  0.196908637204244     
  0.196908637204244     
  0.196908637204244     
  0.196908637204244     
  0.196894777067948     
  0.196894777067948     
  0.196894777067948     
  0.196894777067948     
  0.196894777067948     
  0.196894777067948     
  0.196894777067948     
  0.196894777067948     
  0.196894777067948     
  0.196894777067948     
  0.196894777067948     
  0.196894777067948     
  0.196894777067948     
  0.196894777067948     
  0.196894777067948     
  0.196880790947246     
  0.196880790947246     
  0.196880790947246     
  0.196880790947246     
  0.196880790947246     
  0.196880790947246     
  0.196880790947246     
  0.196880790947246     
  0.196880790947246     
  0.196880790947246     
  0.196880790947246     
  0.196880790947246     
  0.196880790947246     
  0.196880790947246     
  0.196880790947246     
  0.196866682241619     
  0.196866682241619     
  0.196866682241619     
  0.196866682241619     
  0.196866682241619     
  0.196866682241619     
  0.196866682241619     
  0.196866682241619     
  0.196866682241619     
  0.196866682241619     
  0.196866682241619     
  0.196866682241619     
  0.196866682241619     
  0.196866682241619     
  0.196866682241619     
  0.196852454403491     
  0.196852454403492     
  0.196852454403492     
  0.196852454403492     
  0.196852454403492     
  0.196852454403492     
  0.196852454403492     
  0.196852454403492     
  0.196852454403492     
  0.196852454403491     
  0.196852454403491     
  0.196852454403491     
  0.196852454403492     
  0.196852454403492     
  0.196852454403491     
  0.196838110937741     
  0.196838110937741     
  0.196838110937741     
  0.196838110937741     
  0.196838110937741     
  0.196838110937741     
  0.196838110937741     
  0.196838110937741     
  0.196838110937741     
  0.196838110937741     
  0.196838110937741     
  0.196838110937741     
  0.196838110937741     
  0.196838110937741     
  0.196838110937741     
  0.196823655401165     
  0.196823655401165     
  0.196823655401165     
  0.196823655401165     
  0.196823655401165     
  0.196823655401165     
  0.196823655401165     
  0.196823655401165     
  0.196823655401165     
  0.196823655401165     
  0.196823655401165     
  0.196823655401165     
  0.196823655401165     
  0.196823655401165     
  0.196823655401165     
  0.196809091401918     
  0.196809091401918     
  0.196809091401918     
  0.196809091401918     
  0.196809091401918     
  0.196809091401918     
  0.196809091401918     
  0.196809091401918     
  0.196809091401918     
  0.196809091401918     
  0.196809091401918     
  0.196809091401918     
  0.196809091401918     
  0.196809091401918     
  0.196809091401918     
  0.196794422598894     
  0.196794422598894     
  0.196794422598894     
  0.196794422598894     
  0.196794422598894     
  0.196794422598894     
  0.196794422598894     
  0.196794422598894     
  0.196794422598894     
  0.196794422598894     
  0.196794422598894     
  0.196794422598894     
  0.196794422598894     
  0.196794422598894     
  0.196794422598894     
  0.196779652701086     
  0.196779652701086     
  0.196779652701086     
  0.196779652701086     
  0.196779652701086     
  0.196779652701086     
  0.196779652701086     
  0.196779652701086     
  0.196779652701086     
  0.196779652701086     
  0.196779652701086     
  0.196779652701086     
  0.196779652701086     
  0.196779652701086     
  0.196779652701086     
  0.196764785466902     
  0.196764785466902     
  0.196764785466902     
  0.196764785466902     
  0.196764785466902     
  0.196764785466902     
  0.196764785466902     
  0.196764785466902     
  0.196764785466902     
  0.196764785466902     
  0.196764785466902     
  0.196764785466902     
  0.196764785466902     
  0.196764785466902     
  0.196764785466902     
  0.196749824703444     
  0.196749824703444     
  0.196749824703444     
  0.196749824703444     
  0.196749824703444     
  0.196749824703444     
  0.196749824703444     
  0.196749824703444     
  0.196749824703444     
  0.196749824703444     
  0.196749824703444     
  0.196749824703444     
  0.196749824703444     
  0.196749824703444     
  0.196749824703444     
  0.196734774265765     
  0.196734774265765     
  0.196734774265765     
  0.196734774265765     
  0.196734774265765     
  0.196734774265765     
  0.196734774265765     
  0.196734774265765     
  0.196734774265765     
  0.196734774265765     
  0.196734774265765     
  0.196734774265765     
  0.196734774265765     
  0.196734774265765     
  0.196734774265765     
  0.196719638056079     
  0.196719638056079     
  0.196719638056079     
  0.196719638056079     
  0.196719638056079     
  0.196719638056079     
  0.196719638056079     
  0.196719638056079     
  0.196719638056079     
  0.196719638056079     
  0.196719638056079     
  0.196719638056079     
  0.196719638056079     
  0.196719638056079     
  0.196719638056079     
  0.196704420022960     
  0.196704420022960     
  0.196704420022960     
  0.196704420022960     
  0.196704420022960     
  0.196704420022960     
  0.196704420022960     
  0.196704420022960     
  0.196704420022960     
  0.196704420022960     
  0.196704420022960     
  0.196704420022960     
  0.196704420022960     
  0.196704420022960     
  0.196704420022960     
  0.196689124160501     
  0.196689124160501     
  0.196689124160501     
  0.196689124160501     
  0.196689124160501     
  0.196689124160501     
  0.196689124160501     
  0.196689124160501     
  0.196689124160501     
  0.196689124160501     
  0.196689124160501     
  0.196689124160501     
  0.196689124160501     
  0.196689124160501     
  0.196689124160501     
  0.196673754507457     
  0.196673754507457     
  0.196673754507457     
  0.196673754507457     
  0.196673754507457     
  0.196673754507457     
  0.196673754507457     
  0.196673754507457     
  0.196673754507457     
  0.196673754507457     
  0.196673754507457     
  0.196673754507457     
  0.196673754507457     
  0.196673754507457     
  0.196673754507457     
  0.196658315146368     
  0.196658315146368     
  0.196658315146368     
  0.196658315146368     
  0.196658315146368     
  0.196658315146368     
  0.196658315146368     
  0.196658315146368     
  0.196658315146368     
  0.196658315146368     
  0.196658315146368     
  0.196658315146368     
  0.196658315146368     
  0.196658315146368     
  0.196658315146368     
  0.196642810202665     
  0.196642810202665     
  0.196642810202665     
  0.196642810202665     
  0.196642810202665     
  0.196642810202665     
  0.196642810202665     
  0.196642810202665     
  0.196642810202665     
  0.196642810202665     
  0.196642810202665     
  0.196642810202665     
  0.196642810202665     
  0.196642810202665     
  0.196642810202665     
  0.196627243843755     
  0.196627243843755     
  0.196627243843755     
  0.196627243843755     
  0.196627243843755     
  0.196627243843755     
  0.196627243843755     
  0.196627243843755     
  0.196627243843755     
  0.196627243843755     
  0.196627243843755     
  0.196627243843755     
  0.196627243843755     
  0.196627243843755     
  0.196627243843755     
  0.196611620278114     
  0.196611620278114     
  0.196611620278114     
  0.196611620278114     
  0.196611620278114     
  0.196611620278114     
  0.196611620278114     
  0.196611620278114     
  0.196611620278114     
  0.196611620278114     
  0.196611620278114     
  0.196611620278114     
  0.196611620278114     
  0.196611620278114     
  0.196611620278114     
  0.196595943754354     
  0.196595943754354     
  0.196595943754354     
  0.196595943754354     
  0.196595943754354     
  0.196595943754354     
  0.196595943754354     
  0.196595943754354     
  0.196595943754354     
  0.196595943754354     
  0.196595943754354     
  0.196595943754354     
  0.196595943754354     
  0.196595943754354     
  0.196595943754354     
