# vtk DataFile Version 3.0
vtk output
ASCII
DATASET UNSTRUCTURED_GRID
POINTS      1456 double 
  0.00000000E+00  1.00000000E+01  0.00000000E+00
  0.00000000E+00  9.33333333E+00  0.00000000E+00
  0.00000000E+00  8.66666667E+00  0.00000000E+00
  0.00000000E+00  8.00000000E+00  0.00000000E+00
  0.00000000E+00  7.33333333E+00  0.00000000E+00
  0.00000000E+00  6.66666667E+00  0.00000000E+00
  0.00000000E+00  6.00000000E+00  0.00000000E+00
  0.00000000E+00  5.33333333E+00  0.00000000E+00
  0.00000000E+00  4.66666667E+00  0.00000000E+00
  0.00000000E+00  4.00000000E+00  0.00000000E+00
  0.00000000E+00  3.33333333E+00  0.00000000E+00
  0.00000000E+00  2.66666667E+00  0.00000000E+00
  0.00000000E+00  2.00000000E+00  0.00000000E+00
  0.00000000E+00  1.33333333E+00  0.00000000E+00
  0.00000000E+00  6.66666667E-01  0.00000000E+00
  0.00000000E+00  1.66533454E-15  0.00000000E+00
  1.11111111E+00  1.00000000E+01  0.00000000E+00
  1.11111111E+00  9.33333333E+00  0.00000000E+00
  1.11111111E+00  8.66666667E+00  0.00000000E+00
  1.11111111E+00  8.00000000E+00  0.00000000E+00
  1.11111111E+00  7.33333333E+00  0.00000000E+00
  1.11111111E+00  6.66666667E+00  0.00000000E+00
  1.11111111E+00  6.00000000E+00  0.00000000E+00
  1.11111111E+00  5.33333333E+00  0.00000000E+00
  1.11111111E+00  4.66666667E+00  0.00000000E+00
  1.11111111E+00  4.00000000E+00  0.00000000E+00
  1.11111111E+00  3.33333333E+00  0.00000000E+00
  1.11111111E+00  2.66666667E+00  0.00000000E+00
  1.11111111E+00  2.00000000E+00  0.00000000E+00
  1.11111111E+00  1.33333333E+00  0.00000000E+00
  1.11111111E+00  6.66666667E-01  0.00000000E+00
  1.11111111E+00  1.66533454E-15  0.00000000E+00
  2.22222222E+00  1.00000000E+01  0.00000000E+00
  2.22222222E+00  9.33333333E+00  0.00000000E+00
  2.22222222E+00  8.66666667E+00  0.00000000E+00
  2.22222222E+00  8.00000000E+00  0.00000000E+00
  2.22222222E+00  7.33333333E+00  0.00000000E+00
  2.22222222E+00  6.66666667E+00  0.00000000E+00
  2.22222222E+00  6.00000000E+00  0.00000000E+00
  2.22222222E+00  5.33333333E+00  0.00000000E+00
  2.22222222E+00  4.66666667E+00  0.00000000E+00
  2.22222222E+00  4.00000000E+00  0.00000000E+00
  2.22222222E+00  3.33333333E+00  0.00000000E+00
  2.22222222E+00  2.66666667E+00  0.00000000E+00
  2.22222222E+00  2.00000000E+00  0.00000000E+00
  2.22222222E+00  1.33333333E+00  0.00000000E+00
  2.22222222E+00  6.66666667E-01  0.00000000E+00
  2.22222222E+00  1.66533454E-15  0.00000000E+00
  3.33333333E+00  1.00000000E+01  0.00000000E+00
  3.33333333E+00  9.33333333E+00  0.00000000E+00
  3.33333333E+00  8.66666667E+00  0.00000000E+00
  3.33333333E+00  8.00000000E+00  0.00000000E+00
  3.33333333E+00  7.33333333E+00  0.00000000E+00
  3.33333333E+00  6.66666667E+00  0.00000000E+00
  3.33333333E+00  6.00000000E+00  0.00000000E+00
  3.33333333E+00  5.33333333E+00  0.00000000E+00
  3.33333333E+00  4.66666667E+00  0.00000000E+00
  3.33333333E+00  4.00000000E+00  0.00000000E+00
  3.33333333E+00  3.33333333E+00  0.00000000E+00
  3.33333333E+00  2.66666667E+00  0.00000000E+00
  3.33333333E+00  2.00000000E+00  0.00000000E+00
  3.33333333E+00  1.33333333E+00  0.00000000E+00
  3.33333333E+00  6.66666667E-01  0.00000000E+00
  3.33333333E+00  1.66533454E-15  0.00000000E+00
  4.44444444E+00  1.00000000E+01  0.00000000E+00
  4.44444444E+00  9.33333333E+00  0.00000000E+00
  4.44444444E+00  8.66666667E+00  0.00000000E+00
  4.44444444E+00  8.00000000E+00  0.00000000E+00
  4.44444444E+00  7.33333333E+00  0.00000000E+00
  4.44444444E+00  6.66666667E+00  0.00000000E+00
  4.44444444E+00  6.00000000E+00  0.00000000E+00
  4.44444444E+00  5.33333333E+00  0.00000000E+00
  4.44444444E+00  4.66666667E+00  0.00000000E+00
  4.44444444E+00  4.00000000E+00  0.00000000E+00
  4.44444444E+00  3.33333333E+00  0.00000000E+00
  4.44444444E+00  2.66666667E+00  0.00000000E+00
  4.44444444E+00  2.00000000E+00  0.00000000E+00
  4.44444444E+00  1.33333333E+00  0.00000000E+00
  4.44444444E+00  6.66666667E-01  0.00000000E+00
  4.44444444E+00  1.66533454E-15  0.00000000E+00
  5.55555556E+00  1.00000000E+01  0.00000000E+00
  5.55555556E+00  9.33333333E+00  0.00000000E+00
  5.55555556E+00  8.66666667E+00  0.00000000E+00
  5.55555556E+00  8.00000000E+00  0.00000000E+00
  5.55555556E+00  7.33333333E+00  0.00000000E+00
  5.55555556E+00  6.66666667E+00  0.00000000E+00
  5.55555556E+00  6.00000000E+00  0.00000000E+00
  5.55555556E+00  5.33333333E+00  0.00000000E+00
  5.55555556E+00  4.66666667E+00  0.00000000E+00
  5.55555556E+00  4.00000000E+00  0.00000000E+00
  5.55555556E+00  3.33333333E+00  0.00000000E+00
  5.55555556E+00  2.66666667E+00  0.00000000E+00
  5.55555556E+00  2.00000000E+00  0.00000000E+00
  5.55555556E+00  1.33333333E+00  0.00000000E+00
  5.55555556E+00  6.66666667E-01  0.00000000E+00
  5.55555556E+00  1.66533454E-15  0.00000000E+00
  6.66666667E+00  1.00000000E+01  0.00000000E+00
  6.66666667E+00  9.33333333E+00  0.00000000E+00
  6.66666667E+00  8.66666667E+00  0.00000000E+00
  6.66666667E+00  8.00000000E+00  0.00000000E+00
  6.66666667E+00  7.33333333E+00  0.00000000E+00
  6.66666667E+00  6.66666667E+00  0.00000000E+00
  6.66666667E+00  6.00000000E+00  0.00000000E+00
  6.66666667E+00  5.33333333E+00  0.00000000E+00
  6.66666667E+00  4.66666667E+00  0.00000000E+00
  6.66666667E+00  4.00000000E+00  0.00000000E+00
  6.66666667E+00  3.33333333E+00  0.00000000E+00
  6.66666667E+00  2.66666667E+00  0.00000000E+00
  6.66666667E+00  2.00000000E+00  0.00000000E+00
  6.66666667E+00  1.33333333E+00  0.00000000E+00
  6.66666667E+00  6.66666667E-01  0.00000000E+00
  6.66666667E+00  1.66533454E-15  0.00000000E+00
  7.77777778E+00  1.00000000E+01  0.00000000E+00
  7.77777778E+00  9.33333333E+00  0.00000000E+00
  7.77777778E+00  8.66666667E+00  0.00000000E+00
  7.77777778E+00  8.00000000E+00  0.00000000E+00
  7.77777778E+00  7.33333333E+00  0.00000000E+00
  7.77777778E+00  6.66666667E+00  0.00000000E+00
  7.77777778E+00  6.00000000E+00  0.00000000E+00
  7.77777778E+00  5.33333333E+00  0.00000000E+00
  7.77777778E+00  4.66666667E+00  0.00000000E+00
  7.77777778E+00  4.00000000E+00  0.00000000E+00
  7.77777778E+00  3.33333333E+00  0.00000000E+00
  7.77777778E+00  2.66666667E+00  0.00000000E+00
  7.77777778E+00  2.00000000E+00  0.00000000E+00
  7.77777778E+00  1.33333333E+00  0.00000000E+00
  7.77777778E+00  6.66666667E-01  0.00000000E+00
  7.77777778E+00  1.66533454E-15  0.00000000E+00
  8.88888889E+00  1.00000000E+01  0.00000000E+00
  8.88888889E+00  9.33333333E+00  0.00000000E+00
  8.88888889E+00  8.66666667E+00  0.00000000E+00
  8.88888889E+00  8.00000000E+00  0.00000000E+00
  8.88888889E+00  7.33333333E+00  0.00000000E+00
  8.88888889E+00  6.66666667E+00  0.00000000E+00
  8.88888889E+00  6.00000000E+00  0.00000000E+00
  8.88888889E+00  5.33333333E+00  0.00000000E+00
  8.88888889E+00  4.66666667E+00  0.00000000E+00
  8.88888889E+00  4.00000000E+00  0.00000000E+00
  8.88888889E+00  3.33333333E+00  0.00000000E+00
  8.88888889E+00  2.66666667E+00  0.00000000E+00
  8.88888889E+00  2.00000000E+00  0.00000000E+00
  8.88888889E+00  1.33333333E+00  0.00000000E+00
  8.88888889E+00  6.66666667E-01  0.00000000E+00
  8.88888889E+00  1.66533454E-15  0.00000000E+00
  1.00000000E+01  1.00000000E+01  0.00000000E+00
  1.00000000E+01  9.33333333E+00  0.00000000E+00
  1.00000000E+01  8.66666667E+00  0.00000000E+00
  1.00000000E+01  8.00000000E+00  0.00000000E+00
  1.00000000E+01  7.33333333E+00  0.00000000E+00
  1.00000000E+01  6.66666667E+00  0.00000000E+00
  1.00000000E+01  6.00000000E+00  0.00000000E+00
  1.00000000E+01  5.33333333E+00  0.00000000E+00
  1.00000000E+01  4.66666667E+00  0.00000000E+00
  1.00000000E+01  4.00000000E+00  0.00000000E+00
  1.00000000E+01  3.33333333E+00  0.00000000E+00
  1.00000000E+01  2.66666667E+00  0.00000000E+00
  1.00000000E+01  2.00000000E+00  0.00000000E+00
  1.00000000E+01  1.33333333E+00  0.00000000E+00
  1.00000000E+01  6.66666667E-01  0.00000000E+00
  1.00000000E+01  1.66533454E-15  0.00000000E+00
  1.11111111E+01  1.00000000E+01  0.00000000E+00
  1.11111111E+01  9.33333333E+00  0.00000000E+00
  1.11111111E+01  8.66666667E+00  0.00000000E+00
  1.11111111E+01  8.00000000E+00  0.00000000E+00
  1.11111111E+01  7.33333333E+00  0.00000000E+00
  1.11111111E+01  6.66666667E+00  0.00000000E+00
  1.11111111E+01  6.00000000E+00  0.00000000E+00
  1.11111111E+01  5.33333333E+00  0.00000000E+00
  1.11111111E+01  4.66666667E+00  0.00000000E+00
  1.11111111E+01  4.00000000E+00  0.00000000E+00
  1.11111111E+01  3.33333333E+00  0.00000000E+00
  1.11111111E+01  2.66666667E+00  0.00000000E+00
  1.11111111E+01  2.00000000E+00  0.00000000E+00
  1.11111111E+01  1.33333333E+00  0.00000000E+00
  1.11111111E+01  6.66666667E-01  0.00000000E+00
  1.11111111E+01  1.66533454E-15  0.00000000E+00
  1.22222222E+01  1.00000000E+01  0.00000000E+00
  1.22222222E+01  9.33333333E+00  0.00000000E+00
  1.22222222E+01  8.66666667E+00  0.00000000E+00
  1.22222222E+01  8.00000000E+00  0.00000000E+00
  1.22222222E+01  7.33333333E+00  0.00000000E+00
  1.22222222E+01  6.66666667E+00  0.00000000E+00
  1.22222222E+01  6.00000000E+00  0.00000000E+00
  1.22222222E+01  5.33333333E+00  0.00000000E+00
  1.22222222E+01  4.66666667E+00  0.00000000E+00
  1.22222222E+01  4.00000000E+00  0.00000000E+00
  1.22222222E+01  3.33333333E+00  0.00000000E+00
  1.22222222E+01  2.66666667E+00  0.00000000E+00
  1.22222222E+01  2.00000000E+00  0.00000000E+00
  1.22222222E+01  1.33333333E+00  0.00000000E+00
  1.22222222E+01  6.66666667E-01  0.00000000E+00
  1.22222222E+01  1.66533454E-15  0.00000000E+00
  1.33333333E+01  1.00000000E+01  0.00000000E+00
  1.33333333E+01  9.33333333E+00  0.00000000E+00
  1.33333333E+01  8.66666667E+00  0.00000000E+00
  1.33333333E+01  8.00000000E+00  0.00000000E+00
  1.33333333E+01  7.33333333E+00  0.00000000E+00
  1.33333333E+01  6.66666667E+00  0.00000000E+00
  1.33333333E+01  6.00000000E+00  0.00000000E+00
  1.33333333E+01  5.33333333E+00  0.00000000E+00
  1.33333333E+01  4.66666667E+00  0.00000000E+00
  1.33333333E+01  4.00000000E+00  0.00000000E+00
  1.33333333E+01  3.33333333E+00  0.00000000E+00
  1.33333333E+01  2.66666667E+00  0.00000000E+00
  1.33333333E+01  2.00000000E+00  0.00000000E+00
  1.33333333E+01  1.33333333E+00  0.00000000E+00
  1.33333333E+01  6.66666667E-01  0.00000000E+00
  1.33333333E+01  1.66533454E-15  0.00000000E+00
  1.44444444E+01  1.00000000E+01  0.00000000E+00
  1.44444444E+01  9.33333333E+00  0.00000000E+00
  1.44444444E+01  8.66666667E+00  0.00000000E+00
  1.44444444E+01  8.00000000E+00  0.00000000E+00
  1.44444444E+01  7.33333333E+00  0.00000000E+00
  1.44444444E+01  6.66666667E+00  0.00000000E+00
  1.44444444E+01  6.00000000E+00  0.00000000E+00
  1.44444444E+01  5.33333333E+00  0.00000000E+00
  1.44444444E+01  4.66666667E+00  0.00000000E+00
  1.44444444E+01  4.00000000E+00  0.00000000E+00
  1.44444444E+01  3.33333333E+00  0.00000000E+00
  1.44444444E+01  2.66666667E+00  0.00000000E+00
  1.44444444E+01  2.00000000E+00  0.00000000E+00
  1.44444444E+01  1.33333333E+00  0.00000000E+00
  1.44444444E+01  6.66666667E-01  0.00000000E+00
  1.44444444E+01  1.66533454E-15  0.00000000E+00
  1.55555556E+01  1.00000000E+01  0.00000000E+00
  1.55555556E+01  9.33333333E+00  0.00000000E+00
  1.55555556E+01  8.66666667E+00  0.00000000E+00
  1.55555556E+01  8.00000000E+00  0.00000000E+00
  1.55555556E+01  7.33333333E+00  0.00000000E+00
  1.55555556E+01  6.66666667E+00  0.00000000E+00
  1.55555556E+01  6.00000000E+00  0.00000000E+00
  1.55555556E+01  5.33333333E+00  0.00000000E+00
  1.55555556E+01  4.66666667E+00  0.00000000E+00
  1.55555556E+01  4.00000000E+00  0.00000000E+00
  1.55555556E+01  3.33333333E+00  0.00000000E+00
  1.55555556E+01  2.66666667E+00  0.00000000E+00
  1.55555556E+01  2.00000000E+00  0.00000000E+00
  1.55555556E+01  1.33333333E+00  0.00000000E+00
  1.55555556E+01  6.66666667E-01  0.00000000E+00
  1.55555556E+01  1.66533454E-15  0.00000000E+00
  1.66666667E+01  1.00000000E+01  0.00000000E+00
  1.66666667E+01  9.33333333E+00  0.00000000E+00
  1.66666667E+01  8.66666667E+00  0.00000000E+00
  1.66666667E+01  8.00000000E+00  0.00000000E+00
  1.66666667E+01  7.33333333E+00  0.00000000E+00
  1.66666667E+01  6.66666667E+00  0.00000000E+00
  1.66666667E+01  6.00000000E+00  0.00000000E+00
  1.66666667E+01  5.33333333E+00  0.00000000E+00
  1.66666667E+01  4.66666667E+00  0.00000000E+00
  1.66666667E+01  4.00000000E+00  0.00000000E+00
  1.66666667E+01  3.33333333E+00  0.00000000E+00
  1.66666667E+01  2.66666667E+00  0.00000000E+00
  1.66666667E+01  2.00000000E+00  0.00000000E+00
  1.66666667E+01  1.33333333E+00  0.00000000E+00
  1.66666667E+01  6.66666667E-01  0.00000000E+00
  1.66666667E+01  1.66533454E-15  0.00000000E+00
  1.77777778E+01  1.00000000E+01  0.00000000E+00
  1.77777778E+01  9.33333333E+00  0.00000000E+00
  1.77777778E+01  8.66666667E+00  0.00000000E+00
  1.77777778E+01  8.00000000E+00  0.00000000E+00
  1.77777778E+01  7.33333333E+00  0.00000000E+00
  1.77777778E+01  6.66666667E+00  0.00000000E+00
  1.77777778E+01  6.00000000E+00  0.00000000E+00
  1.77777778E+01  5.33333333E+00  0.00000000E+00
  1.77777778E+01  4.66666667E+00  0.00000000E+00
  1.77777778E+01  4.00000000E+00  0.00000000E+00
  1.77777778E+01  3.33333333E+00  0.00000000E+00
  1.77777778E+01  2.66666667E+00  0.00000000E+00
  1.77777778E+01  2.00000000E+00  0.00000000E+00
  1.77777778E+01  1.33333333E+00  0.00000000E+00
  1.77777778E+01  6.66666667E-01  0.00000000E+00
  1.77777778E+01  1.66533454E-15  0.00000000E+00
  1.88888889E+01  1.00000000E+01  0.00000000E+00
  1.88888889E+01  9.33333333E+00  0.00000000E+00
  1.88888889E+01  8.66666667E+00  0.00000000E+00
  1.88888889E+01  8.00000000E+00  0.00000000E+00
  1.88888889E+01  7.33333333E+00  0.00000000E+00
  1.88888889E+01  6.66666667E+00  0.00000000E+00
  1.88888889E+01  6.00000000E+00  0.00000000E+00
  1.88888889E+01  5.33333333E+00  0.00000000E+00
  1.88888889E+01  4.66666667E+00  0.00000000E+00
  1.88888889E+01  4.00000000E+00  0.00000000E+00
  1.88888889E+01  3.33333333E+00  0.00000000E+00
  1.88888889E+01  2.66666667E+00  0.00000000E+00
  1.88888889E+01  2.00000000E+00  0.00000000E+00
  1.88888889E+01  1.33333333E+00  0.00000000E+00
  1.88888889E+01  6.66666667E-01  0.00000000E+00
  1.88888889E+01  1.66533454E-15  0.00000000E+00
  2.00000000E+01  1.00000000E+01  0.00000000E+00
  2.00000000E+01  9.33333333E+00  0.00000000E+00
  2.00000000E+01  8.66666667E+00  0.00000000E+00
  2.00000000E+01  8.00000000E+00  0.00000000E+00
  2.00000000E+01  7.33333333E+00  0.00000000E+00
  2.00000000E+01  6.66666667E+00  0.00000000E+00
  2.00000000E+01  6.00000000E+00  0.00000000E+00
  2.00000000E+01  5.33333333E+00  0.00000000E+00
  2.00000000E+01  4.66666667E+00  0.00000000E+00
  2.00000000E+01  4.00000000E+00  0.00000000E+00
  2.00000000E+01  3.33333333E+00  0.00000000E+00
  2.00000000E+01  2.66666667E+00  0.00000000E+00
  2.00000000E+01  2.00000000E+00  0.00000000E+00
  2.00000000E+01  1.33333333E+00  0.00000000E+00
  2.00000000E+01  6.66666667E-01  0.00000000E+00
  2.00000000E+01  1.66533454E-15  0.00000000E+00
  2.11111111E+01  1.00000000E+01  0.00000000E+00
  2.11111111E+01  9.33333333E+00  0.00000000E+00
  2.11111111E+01  8.66666667E+00  0.00000000E+00
  2.11111111E+01  8.00000000E+00  0.00000000E+00
  2.11111111E+01  7.33333333E+00  0.00000000E+00
  2.11111111E+01  6.66666667E+00  0.00000000E+00
  2.11111111E+01  6.00000000E+00  0.00000000E+00
  2.11111111E+01  5.33333333E+00  0.00000000E+00
  2.11111111E+01  4.66666667E+00  0.00000000E+00
  2.11111111E+01  4.00000000E+00  0.00000000E+00
  2.11111111E+01  3.33333333E+00  0.00000000E+00
  2.11111111E+01  2.66666667E+00  0.00000000E+00
  2.11111111E+01  2.00000000E+00  0.00000000E+00
  2.11111111E+01  1.33333333E+00  0.00000000E+00
  2.11111111E+01  6.66666667E-01  0.00000000E+00
  2.11111111E+01  1.66533454E-15  0.00000000E+00
  2.22222222E+01  1.00000000E+01  0.00000000E+00
  2.22222222E+01  9.33333333E+00  0.00000000E+00
  2.22222222E+01  8.66666667E+00  0.00000000E+00
  2.22222222E+01  8.00000000E+00  0.00000000E+00
  2.22222222E+01  7.33333333E+00  0.00000000E+00
  2.22222222E+01  6.66666667E+00  0.00000000E+00
  2.22222222E+01  6.00000000E+00  0.00000000E+00
  2.22222222E+01  5.33333333E+00  0.00000000E+00
  2.22222222E+01  4.66666667E+00  0.00000000E+00
  2.22222222E+01  4.00000000E+00  0.00000000E+00
  2.22222222E+01  3.33333333E+00  0.00000000E+00
  2.22222222E+01  2.66666667E+00  0.00000000E+00
  2.22222222E+01  2.00000000E+00  0.00000000E+00
  2.22222222E+01  1.33333333E+00  0.00000000E+00
  2.22222222E+01  6.66666667E-01  0.00000000E+00
  2.22222222E+01  1.66533454E-15  0.00000000E+00
  2.33333333E+01  1.00000000E+01  0.00000000E+00
  2.33333333E+01  9.33333333E+00  0.00000000E+00
  2.33333333E+01  8.66666667E+00  0.00000000E+00
  2.33333333E+01  8.00000000E+00  0.00000000E+00
  2.33333333E+01  7.33333333E+00  0.00000000E+00
  2.33333333E+01  6.66666667E+00  0.00000000E+00
  2.33333333E+01  6.00000000E+00  0.00000000E+00
  2.33333333E+01  5.33333333E+00  0.00000000E+00
  2.33333333E+01  4.66666667E+00  0.00000000E+00
  2.33333333E+01  4.00000000E+00  0.00000000E+00
  2.33333333E+01  3.33333333E+00  0.00000000E+00
  2.33333333E+01  2.66666667E+00  0.00000000E+00
  2.33333333E+01  2.00000000E+00  0.00000000E+00
  2.33333333E+01  1.33333333E+00  0.00000000E+00
  2.33333333E+01  6.66666667E-01  0.00000000E+00
  2.33333333E+01  1.66533454E-15  0.00000000E+00
  2.44444444E+01  1.00000000E+01  0.00000000E+00
  2.44444444E+01  9.33333333E+00  0.00000000E+00
  2.44444444E+01  8.66666667E+00  0.00000000E+00
  2.44444444E+01  8.00000000E+00  0.00000000E+00
  2.44444444E+01  7.33333333E+00  0.00000000E+00
  2.44444444E+01  6.66666667E+00  0.00000000E+00
  2.44444444E+01  6.00000000E+00  0.00000000E+00
  2.44444444E+01  5.33333333E+00  0.00000000E+00
  2.44444444E+01  4.66666667E+00  0.00000000E+00
  2.44444444E+01  4.00000000E+00  0.00000000E+00
  2.44444444E+01  3.33333333E+00  0.00000000E+00
  2.44444444E+01  2.66666667E+00  0.00000000E+00
  2.44444444E+01  2.00000000E+00  0.00000000E+00
  2.44444444E+01  1.33333333E+00  0.00000000E+00
  2.44444444E+01  6.66666667E-01  0.00000000E+00
  2.44444444E+01  1.66533454E-15  0.00000000E+00
  2.55555556E+01  1.00000000E+01  0.00000000E+00
  2.55555556E+01  9.33333333E+00  0.00000000E+00
  2.55555556E+01  8.66666667E+00  0.00000000E+00
  2.55555556E+01  8.00000000E+00  0.00000000E+00
  2.55555556E+01  7.33333333E+00  0.00000000E+00
  2.55555556E+01  6.66666667E+00  0.00000000E+00
  2.55555556E+01  6.00000000E+00  0.00000000E+00
  2.55555556E+01  5.33333333E+00  0.00000000E+00
  2.55555556E+01  4.66666667E+00  0.00000000E+00
  2.55555556E+01  4.00000000E+00  0.00000000E+00
  2.55555556E+01  3.33333333E+00  0.00000000E+00
  2.55555556E+01  2.66666667E+00  0.00000000E+00
  2.55555556E+01  2.00000000E+00  0.00000000E+00
  2.55555556E+01  1.33333333E+00  0.00000000E+00
  2.55555556E+01  6.66666667E-01  0.00000000E+00
  2.55555556E+01  1.66533454E-15  0.00000000E+00
  2.66666667E+01  1.00000000E+01  0.00000000E+00
  2.66666667E+01  9.33333333E+00  0.00000000E+00
  2.66666667E+01  8.66666667E+00  0.00000000E+00
  2.66666667E+01  8.00000000E+00  0.00000000E+00
  2.66666667E+01  7.33333333E+00  0.00000000E+00
  2.66666667E+01  6.66666667E+00  0.00000000E+00
  2.66666667E+01  6.00000000E+00  0.00000000E+00
  2.66666667E+01  5.33333333E+00  0.00000000E+00
  2.66666667E+01  4.66666667E+00  0.00000000E+00
  2.66666667E+01  4.00000000E+00  0.00000000E+00
  2.66666667E+01  3.33333333E+00  0.00000000E+00
  2.66666667E+01  2.66666667E+00  0.00000000E+00
  2.66666667E+01  2.00000000E+00  0.00000000E+00
  2.66666667E+01  1.33333333E+00  0.00000000E+00
  2.66666667E+01  6.66666667E-01  0.00000000E+00
  2.66666667E+01  1.66533454E-15  0.00000000E+00
  2.77777778E+01  1.00000000E+01  0.00000000E+00
  2.77777778E+01  9.33333333E+00  0.00000000E+00
  2.77777778E+01  8.66666667E+00  0.00000000E+00
  2.77777778E+01  8.00000000E+00  0.00000000E+00
  2.77777778E+01  7.33333333E+00  0.00000000E+00
  2.77777778E+01  6.66666667E+00  0.00000000E+00
  2.77777778E+01  6.00000000E+00  0.00000000E+00
  2.77777778E+01  5.33333333E+00  0.00000000E+00
  2.77777778E+01  4.66666667E+00  0.00000000E+00
  2.77777778E+01  4.00000000E+00  0.00000000E+00
  2.77777778E+01  3.33333333E+00  0.00000000E+00
  2.77777778E+01  2.66666667E+00  0.00000000E+00
  2.77777778E+01  2.00000000E+00  0.00000000E+00
  2.77777778E+01  1.33333333E+00  0.00000000E+00
  2.77777778E+01  6.66666667E-01  0.00000000E+00
  2.77777778E+01  1.66533454E-15  0.00000000E+00
  2.88888889E+01  1.00000000E+01  0.00000000E+00
  2.88888889E+01  9.33333333E+00  0.00000000E+00
  2.88888889E+01  8.66666667E+00  0.00000000E+00
  2.88888889E+01  8.00000000E+00  0.00000000E+00
  2.88888889E+01  7.33333333E+00  0.00000000E+00
  2.88888889E+01  6.66666667E+00  0.00000000E+00
  2.88888889E+01  6.00000000E+00  0.00000000E+00
  2.88888889E+01  5.33333333E+00  0.00000000E+00
  2.88888889E+01  4.66666667E+00  0.00000000E+00
  2.88888889E+01  4.00000000E+00  0.00000000E+00
  2.88888889E+01  3.33333333E+00  0.00000000E+00
  2.88888889E+01  2.66666667E+00  0.00000000E+00
  2.88888889E+01  2.00000000E+00  0.00000000E+00
  2.88888889E+01  1.33333333E+00  0.00000000E+00
  2.88888889E+01  6.66666667E-01  0.00000000E+00
  2.88888889E+01  1.66533454E-15  0.00000000E+00
  3.00000000E+01  1.00000000E+01  0.00000000E+00
  3.00000000E+01  9.33333333E+00  0.00000000E+00
  3.00000000E+01  8.66666667E+00  0.00000000E+00
  3.00000000E+01  8.00000000E+00  0.00000000E+00
  3.00000000E+01  7.33333333E+00  0.00000000E+00
  3.00000000E+01  6.66666667E+00  0.00000000E+00
  3.00000000E+01  6.00000000E+00  0.00000000E+00
  3.00000000E+01  5.33333333E+00  0.00000000E+00
  3.00000000E+01  4.66666667E+00  0.00000000E+00
  3.00000000E+01  4.00000000E+00  0.00000000E+00
  3.00000000E+01  3.33333333E+00  0.00000000E+00
  3.00000000E+01  2.66666667E+00  0.00000000E+00
  3.00000000E+01  2.00000000E+00  0.00000000E+00
  3.00000000E+01  1.33333333E+00  0.00000000E+00
  3.00000000E+01  6.66666667E-01  0.00000000E+00
  3.00000000E+01  1.66533454E-15  0.00000000E+00
  3.11111111E+01  1.00000000E+01  0.00000000E+00
  3.11111111E+01  9.33333333E+00  0.00000000E+00
  3.11111111E+01  8.66666667E+00  0.00000000E+00
  3.11111111E+01  8.00000000E+00  0.00000000E+00
  3.11111111E+01  7.33333333E+00  0.00000000E+00
  3.11111111E+01  6.66666667E+00  0.00000000E+00
  3.11111111E+01  6.00000000E+00  0.00000000E+00
  3.11111111E+01  5.33333333E+00  0.00000000E+00
  3.11111111E+01  4.66666667E+00  0.00000000E+00
  3.11111111E+01  4.00000000E+00  0.00000000E+00
  3.11111111E+01  3.33333333E+00  0.00000000E+00
  3.11111111E+01  2.66666667E+00  0.00000000E+00
  3.11111111E+01  2.00000000E+00  0.00000000E+00
  3.11111111E+01  1.33333333E+00  0.00000000E+00
  3.11111111E+01  6.66666667E-01  0.00000000E+00
  3.11111111E+01  1.66533454E-15  0.00000000E+00
  3.22222222E+01  1.00000000E+01  0.00000000E+00
  3.22222222E+01  9.33333333E+00  0.00000000E+00
  3.22222222E+01  8.66666667E+00  0.00000000E+00
  3.22222222E+01  8.00000000E+00  0.00000000E+00
  3.22222222E+01  7.33333333E+00  0.00000000E+00
  3.22222222E+01  6.66666667E+00  0.00000000E+00
  3.22222222E+01  6.00000000E+00  0.00000000E+00
  3.22222222E+01  5.33333333E+00  0.00000000E+00
  3.22222222E+01  4.66666667E+00  0.00000000E+00
  3.22222222E+01  4.00000000E+00  0.00000000E+00
  3.22222222E+01  3.33333333E+00  0.00000000E+00
  3.22222222E+01  2.66666667E+00  0.00000000E+00
  3.22222222E+01  2.00000000E+00  0.00000000E+00
  3.22222222E+01  1.33333333E+00  0.00000000E+00
  3.22222222E+01  6.66666667E-01  0.00000000E+00
  3.22222222E+01  1.66533454E-15  0.00000000E+00
  3.33333333E+01  1.00000000E+01  0.00000000E+00
  3.33333333E+01  9.33333333E+00  0.00000000E+00
  3.33333333E+01  8.66666667E+00  0.00000000E+00
  3.33333333E+01  8.00000000E+00  0.00000000E+00
  3.33333333E+01  7.33333333E+00  0.00000000E+00
  3.33333333E+01  6.66666667E+00  0.00000000E+00
  3.33333333E+01  6.00000000E+00  0.00000000E+00
  3.33333333E+01  5.33333333E+00  0.00000000E+00
  3.33333333E+01  4.66666667E+00  0.00000000E+00
  3.33333333E+01  4.00000000E+00  0.00000000E+00
  3.33333333E+01  3.33333333E+00  0.00000000E+00
  3.33333333E+01  2.66666667E+00  0.00000000E+00
  3.33333333E+01  2.00000000E+00  0.00000000E+00
  3.33333333E+01  1.33333333E+00  0.00000000E+00
  3.33333333E+01  6.66666667E-01  0.00000000E+00
  3.33333333E+01  1.66533454E-15  0.00000000E+00
  3.44444444E+01  1.00000000E+01  0.00000000E+00
  3.44444444E+01  9.33333333E+00  0.00000000E+00
  3.44444444E+01  8.66666667E+00  0.00000000E+00
  3.44444444E+01  8.00000000E+00  0.00000000E+00
  3.44444444E+01  7.33333333E+00  0.00000000E+00
  3.44444444E+01  6.66666667E+00  0.00000000E+00
  3.44444444E+01  6.00000000E+00  0.00000000E+00
  3.44444444E+01  5.33333333E+00  0.00000000E+00
  3.44444444E+01  4.66666667E+00  0.00000000E+00
  3.44444444E+01  4.00000000E+00  0.00000000E+00
  3.44444444E+01  3.33333333E+00  0.00000000E+00
  3.44444444E+01  2.66666667E+00  0.00000000E+00
  3.44444444E+01  2.00000000E+00  0.00000000E+00
  3.44444444E+01  1.33333333E+00  0.00000000E+00
  3.44444444E+01  6.66666667E-01  0.00000000E+00
  3.44444444E+01  1.66533454E-15  0.00000000E+00
  3.55555556E+01  1.00000000E+01  0.00000000E+00
  3.55555556E+01  9.33333333E+00  0.00000000E+00
  3.55555556E+01  8.66666667E+00  0.00000000E+00
  3.55555556E+01  8.00000000E+00  0.00000000E+00
  3.55555556E+01  7.33333333E+00  0.00000000E+00
  3.55555556E+01  6.66666667E+00  0.00000000E+00
  3.55555556E+01  6.00000000E+00  0.00000000E+00
  3.55555556E+01  5.33333333E+00  0.00000000E+00
  3.55555556E+01  4.66666667E+00  0.00000000E+00
  3.55555556E+01  4.00000000E+00  0.00000000E+00
  3.55555556E+01  3.33333333E+00  0.00000000E+00
  3.55555556E+01  2.66666667E+00  0.00000000E+00
  3.55555556E+01  2.00000000E+00  0.00000000E+00
  3.55555556E+01  1.33333333E+00  0.00000000E+00
  3.55555556E+01  6.66666667E-01  0.00000000E+00
  3.55555556E+01  1.66533454E-15  0.00000000E+00
  3.66666667E+01  1.00000000E+01  0.00000000E+00
  3.66666667E+01  9.33333333E+00  0.00000000E+00
  3.66666667E+01  8.66666667E+00  0.00000000E+00
  3.66666667E+01  8.00000000E+00  0.00000000E+00
  3.66666667E+01  7.33333333E+00  0.00000000E+00
  3.66666667E+01  6.66666667E+00  0.00000000E+00
  3.66666667E+01  6.00000000E+00  0.00000000E+00
  3.66666667E+01  5.33333333E+00  0.00000000E+00
  3.66666667E+01  4.66666667E+00  0.00000000E+00
  3.66666667E+01  4.00000000E+00  0.00000000E+00
  3.66666667E+01  3.33333333E+00  0.00000000E+00
  3.66666667E+01  2.66666667E+00  0.00000000E+00
  3.66666667E+01  2.00000000E+00  0.00000000E+00
  3.66666667E+01  1.33333333E+00  0.00000000E+00
  3.66666667E+01  6.66666667E-01  0.00000000E+00
  3.66666667E+01  1.66533454E-15  0.00000000E+00
  3.77777778E+01  1.00000000E+01  0.00000000E+00
  3.77777778E+01  9.33333333E+00  0.00000000E+00
  3.77777778E+01  8.66666667E+00  0.00000000E+00
  3.77777778E+01  8.00000000E+00  0.00000000E+00
  3.77777778E+01  7.33333333E+00  0.00000000E+00
  3.77777778E+01  6.66666667E+00  0.00000000E+00
  3.77777778E+01  6.00000000E+00  0.00000000E+00
  3.77777778E+01  5.33333333E+00  0.00000000E+00
  3.77777778E+01  4.66666667E+00  0.00000000E+00
  3.77777778E+01  4.00000000E+00  0.00000000E+00
  3.77777778E+01  3.33333333E+00  0.00000000E+00
  3.77777778E+01  2.66666667E+00  0.00000000E+00
  3.77777778E+01  2.00000000E+00  0.00000000E+00
  3.77777778E+01  1.33333333E+00  0.00000000E+00
  3.77777778E+01  6.66666667E-01  0.00000000E+00
  3.77777778E+01  1.66533454E-15  0.00000000E+00
  3.88888889E+01  1.00000000E+01  0.00000000E+00
  3.88888889E+01  9.33333333E+00  0.00000000E+00
  3.88888889E+01  8.66666667E+00  0.00000000E+00
  3.88888889E+01  8.00000000E+00  0.00000000E+00
  3.88888889E+01  7.33333333E+00  0.00000000E+00
  3.88888889E+01  6.66666667E+00  0.00000000E+00
  3.88888889E+01  6.00000000E+00  0.00000000E+00
  3.88888889E+01  5.33333333E+00  0.00000000E+00
  3.88888889E+01  4.66666667E+00  0.00000000E+00
  3.88888889E+01  4.00000000E+00  0.00000000E+00
  3.88888889E+01  3.33333333E+00  0.00000000E+00
  3.88888889E+01  2.66666667E+00  0.00000000E+00
  3.88888889E+01  2.00000000E+00  0.00000000E+00
  3.88888889E+01  1.33333333E+00  0.00000000E+00
  3.88888889E+01  6.66666667E-01  0.00000000E+00
  3.88888889E+01  1.66533454E-15  0.00000000E+00
  4.00000000E+01  1.00000000E+01  0.00000000E+00
  4.00000000E+01  9.33333333E+00  0.00000000E+00
  4.00000000E+01  8.66666667E+00  0.00000000E+00
  4.00000000E+01  8.00000000E+00  0.00000000E+00
  4.00000000E+01  7.33333333E+00  0.00000000E+00
  4.00000000E+01  6.66666667E+00  0.00000000E+00
  4.00000000E+01  6.00000000E+00  0.00000000E+00
  4.00000000E+01  5.33333333E+00  0.00000000E+00
  4.00000000E+01  4.66666667E+00  0.00000000E+00
  4.00000000E+01  4.00000000E+00  0.00000000E+00
  4.00000000E+01  3.33333333E+00  0.00000000E+00
  4.00000000E+01  2.66666667E+00  0.00000000E+00
  4.00000000E+01  2.00000000E+00  0.00000000E+00
  4.00000000E+01  1.33333333E+00  0.00000000E+00
  4.00000000E+01  6.66666667E-01  0.00000000E+00
  4.00000000E+01  1.66533454E-15  0.00000000E+00
  4.11111111E+01  1.00000000E+01  0.00000000E+00
  4.11111111E+01  9.33333333E+00  0.00000000E+00
  4.11111111E+01  8.66666667E+00  0.00000000E+00
  4.11111111E+01  8.00000000E+00  0.00000000E+00
  4.11111111E+01  7.33333333E+00  0.00000000E+00
  4.11111111E+01  6.66666667E+00  0.00000000E+00
  4.11111111E+01  6.00000000E+00  0.00000000E+00
  4.11111111E+01  5.33333333E+00  0.00000000E+00
  4.11111111E+01  4.66666667E+00  0.00000000E+00
  4.11111111E+01  4.00000000E+00  0.00000000E+00
  4.11111111E+01  3.33333333E+00  0.00000000E+00
  4.11111111E+01  2.66666667E+00  0.00000000E+00
  4.11111111E+01  2.00000000E+00  0.00000000E+00
  4.11111111E+01  1.33333333E+00  0.00000000E+00
  4.11111111E+01  6.66666667E-01  0.00000000E+00
  4.11111111E+01  1.66533454E-15  0.00000000E+00
  4.22222222E+01  1.00000000E+01  0.00000000E+00
  4.22222222E+01  9.33333333E+00  0.00000000E+00
  4.22222222E+01  8.66666667E+00  0.00000000E+00
  4.22222222E+01  8.00000000E+00  0.00000000E+00
  4.22222222E+01  7.33333333E+00  0.00000000E+00
  4.22222222E+01  6.66666667E+00  0.00000000E+00
  4.22222222E+01  6.00000000E+00  0.00000000E+00
  4.22222222E+01  5.33333333E+00  0.00000000E+00
  4.22222222E+01  4.66666667E+00  0.00000000E+00
  4.22222222E+01  4.00000000E+00  0.00000000E+00
  4.22222222E+01  3.33333333E+00  0.00000000E+00
  4.22222222E+01  2.66666667E+00  0.00000000E+00
  4.22222222E+01  2.00000000E+00  0.00000000E+00
  4.22222222E+01  1.33333333E+00  0.00000000E+00
  4.22222222E+01  6.66666667E-01  0.00000000E+00
  4.22222222E+01  1.66533454E-15  0.00000000E+00
  4.33333333E+01  1.00000000E+01  0.00000000E+00
  4.33333333E+01  9.33333333E+00  0.00000000E+00
  4.33333333E+01  8.66666667E+00  0.00000000E+00
  4.33333333E+01  8.00000000E+00  0.00000000E+00
  4.33333333E+01  7.33333333E+00  0.00000000E+00
  4.33333333E+01  6.66666667E+00  0.00000000E+00
  4.33333333E+01  6.00000000E+00  0.00000000E+00
  4.33333333E+01  5.33333333E+00  0.00000000E+00
  4.33333333E+01  4.66666667E+00  0.00000000E+00
  4.33333333E+01  4.00000000E+00  0.00000000E+00
  4.33333333E+01  3.33333333E+00  0.00000000E+00
  4.33333333E+01  2.66666667E+00  0.00000000E+00
  4.33333333E+01  2.00000000E+00  0.00000000E+00
  4.33333333E+01  1.33333333E+00  0.00000000E+00
  4.33333333E+01  6.66666667E-01  0.00000000E+00
  4.33333333E+01  1.66533454E-15  0.00000000E+00
  4.44444444E+01  1.00000000E+01  0.00000000E+00
  4.44444444E+01  9.33333333E+00  0.00000000E+00
  4.44444444E+01  8.66666667E+00  0.00000000E+00
  4.44444444E+01  8.00000000E+00  0.00000000E+00
  4.44444444E+01  7.33333333E+00  0.00000000E+00
  4.44444444E+01  6.66666667E+00  0.00000000E+00
  4.44444444E+01  6.00000000E+00  0.00000000E+00
  4.44444444E+01  5.33333333E+00  0.00000000E+00
  4.44444444E+01  4.66666667E+00  0.00000000E+00
  4.44444444E+01  4.00000000E+00  0.00000000E+00
  4.44444444E+01  3.33333333E+00  0.00000000E+00
  4.44444444E+01  2.66666667E+00  0.00000000E+00
  4.44444444E+01  2.00000000E+00  0.00000000E+00
  4.44444444E+01  1.33333333E+00  0.00000000E+00
  4.44444444E+01  6.66666667E-01  0.00000000E+00
  4.44444444E+01  1.66533454E-15  0.00000000E+00
  4.55555556E+01  1.00000000E+01  0.00000000E+00
  4.55555556E+01  9.33333333E+00  0.00000000E+00
  4.55555556E+01  8.66666667E+00  0.00000000E+00
  4.55555556E+01  8.00000000E+00  0.00000000E+00
  4.55555556E+01  7.33333333E+00  0.00000000E+00
  4.55555556E+01  6.66666667E+00  0.00000000E+00
  4.55555556E+01  6.00000000E+00  0.00000000E+00
  4.55555556E+01  5.33333333E+00  0.00000000E+00
  4.55555556E+01  4.66666667E+00  0.00000000E+00
  4.55555556E+01  4.00000000E+00  0.00000000E+00
  4.55555556E+01  3.33333333E+00  0.00000000E+00
  4.55555556E+01  2.66666667E+00  0.00000000E+00
  4.55555556E+01  2.00000000E+00  0.00000000E+00
  4.55555556E+01  1.33333333E+00  0.00000000E+00
  4.55555556E+01  6.66666667E-01  0.00000000E+00
  4.55555556E+01  1.66533454E-15  0.00000000E+00
  4.66666667E+01  1.00000000E+01  0.00000000E+00
  4.66666667E+01  9.33333333E+00  0.00000000E+00
  4.66666667E+01  8.66666667E+00  0.00000000E+00
  4.66666667E+01  8.00000000E+00  0.00000000E+00
  4.66666667E+01  7.33333333E+00  0.00000000E+00
  4.66666667E+01  6.66666667E+00  0.00000000E+00
  4.66666667E+01  6.00000000E+00  0.00000000E+00
  4.66666667E+01  5.33333333E+00  0.00000000E+00
  4.66666667E+01  4.66666667E+00  0.00000000E+00
  4.66666667E+01  4.00000000E+00  0.00000000E+00
  4.66666667E+01  3.33333333E+00  0.00000000E+00
  4.66666667E+01  2.66666667E+00  0.00000000E+00
  4.66666667E+01  2.00000000E+00  0.00000000E+00
  4.66666667E+01  1.33333333E+00  0.00000000E+00
  4.66666667E+01  6.66666667E-01  0.00000000E+00
  4.66666667E+01  1.66533454E-15  0.00000000E+00
  4.77777778E+01  1.00000000E+01  0.00000000E+00
  4.77777778E+01  9.33333333E+00  0.00000000E+00
  4.77777778E+01  8.66666667E+00  0.00000000E+00
  4.77777778E+01  8.00000000E+00  0.00000000E+00
  4.77777778E+01  7.33333333E+00  0.00000000E+00
  4.77777778E+01  6.66666667E+00  0.00000000E+00
  4.77777778E+01  6.00000000E+00  0.00000000E+00
  4.77777778E+01  5.33333333E+00  0.00000000E+00
  4.77777778E+01  4.66666667E+00  0.00000000E+00
  4.77777778E+01  4.00000000E+00  0.00000000E+00
  4.77777778E+01  3.33333333E+00  0.00000000E+00
  4.77777778E+01  2.66666667E+00  0.00000000E+00
  4.77777778E+01  2.00000000E+00  0.00000000E+00
  4.77777778E+01  1.33333333E+00  0.00000000E+00
  4.77777778E+01  6.66666667E-01  0.00000000E+00
  4.77777778E+01  1.66533454E-15  0.00000000E+00
  4.88888889E+01  1.00000000E+01  0.00000000E+00
  4.88888889E+01  9.33333333E+00  0.00000000E+00
  4.88888889E+01  8.66666667E+00  0.00000000E+00
  4.88888889E+01  8.00000000E+00  0.00000000E+00
  4.88888889E+01  7.33333333E+00  0.00000000E+00
  4.88888889E+01  6.66666667E+00  0.00000000E+00
  4.88888889E+01  6.00000000E+00  0.00000000E+00
  4.88888889E+01  5.33333333E+00  0.00000000E+00
  4.88888889E+01  4.66666667E+00  0.00000000E+00
  4.88888889E+01  4.00000000E+00  0.00000000E+00
  4.88888889E+01  3.33333333E+00  0.00000000E+00
  4.88888889E+01  2.66666667E+00  0.00000000E+00
  4.88888889E+01  2.00000000E+00  0.00000000E+00
  4.88888889E+01  1.33333333E+00  0.00000000E+00
  4.88888889E+01  6.66666667E-01  0.00000000E+00
  4.88888889E+01  1.66533454E-15  0.00000000E+00
  5.00000000E+01  1.00000000E+01  0.00000000E+00
  5.00000000E+01  9.33333333E+00  0.00000000E+00
  5.00000000E+01  8.66666667E+00  0.00000000E+00
  5.00000000E+01  8.00000000E+00  0.00000000E+00
  5.00000000E+01  7.33333333E+00  0.00000000E+00
  5.00000000E+01  6.66666667E+00  0.00000000E+00
  5.00000000E+01  6.00000000E+00  0.00000000E+00
  5.00000000E+01  5.33333333E+00  0.00000000E+00
  5.00000000E+01  4.66666667E+00  0.00000000E+00
  5.00000000E+01  4.00000000E+00  0.00000000E+00
  5.00000000E+01  3.33333333E+00  0.00000000E+00
  5.00000000E+01  2.66666667E+00  0.00000000E+00
  5.00000000E+01  2.00000000E+00  0.00000000E+00
  5.00000000E+01  1.33333333E+00  0.00000000E+00
  5.00000000E+01  6.66666667E-01  0.00000000E+00
  5.00000000E+01  1.66533454E-15  0.00000000E+00
  5.11111111E+01  1.00000000E+01  0.00000000E+00
  5.11111111E+01  9.33333333E+00  0.00000000E+00
  5.11111111E+01  8.66666667E+00  0.00000000E+00
  5.11111111E+01  8.00000000E+00  0.00000000E+00
  5.11111111E+01  7.33333333E+00  0.00000000E+00
  5.11111111E+01  6.66666667E+00  0.00000000E+00
  5.11111111E+01  6.00000000E+00  0.00000000E+00
  5.11111111E+01  5.33333333E+00  0.00000000E+00
  5.11111111E+01  4.66666667E+00  0.00000000E+00
  5.11111111E+01  4.00000000E+00  0.00000000E+00
  5.11111111E+01  3.33333333E+00  0.00000000E+00
  5.11111111E+01  2.66666667E+00  0.00000000E+00
  5.11111111E+01  2.00000000E+00  0.00000000E+00
  5.11111111E+01  1.33333333E+00  0.00000000E+00
  5.11111111E+01  6.66666667E-01  0.00000000E+00
  5.11111111E+01  1.66533454E-15  0.00000000E+00
  5.22222222E+01  1.00000000E+01  0.00000000E+00
  5.22222222E+01  9.33333333E+00  0.00000000E+00
  5.22222222E+01  8.66666667E+00  0.00000000E+00
  5.22222222E+01  8.00000000E+00  0.00000000E+00
  5.22222222E+01  7.33333333E+00  0.00000000E+00
  5.22222222E+01  6.66666667E+00  0.00000000E+00
  5.22222222E+01  6.00000000E+00  0.00000000E+00
  5.22222222E+01  5.33333333E+00  0.00000000E+00
  5.22222222E+01  4.66666667E+00  0.00000000E+00
  5.22222222E+01  4.00000000E+00  0.00000000E+00
  5.22222222E+01  3.33333333E+00  0.00000000E+00
  5.22222222E+01  2.66666667E+00  0.00000000E+00
  5.22222222E+01  2.00000000E+00  0.00000000E+00
  5.22222222E+01  1.33333333E+00  0.00000000E+00
  5.22222222E+01  6.66666667E-01  0.00000000E+00
  5.22222222E+01  1.66533454E-15  0.00000000E+00
  5.33333333E+01  1.00000000E+01  0.00000000E+00
  5.33333333E+01  9.33333333E+00  0.00000000E+00
  5.33333333E+01  8.66666667E+00  0.00000000E+00
  5.33333333E+01  8.00000000E+00  0.00000000E+00
  5.33333333E+01  7.33333333E+00  0.00000000E+00
  5.33333333E+01  6.66666667E+00  0.00000000E+00
  5.33333333E+01  6.00000000E+00  0.00000000E+00
  5.33333333E+01  5.33333333E+00  0.00000000E+00
  5.33333333E+01  4.66666667E+00  0.00000000E+00
  5.33333333E+01  4.00000000E+00  0.00000000E+00
  5.33333333E+01  3.33333333E+00  0.00000000E+00
  5.33333333E+01  2.66666667E+00  0.00000000E+00
  5.33333333E+01  2.00000000E+00  0.00000000E+00
  5.33333333E+01  1.33333333E+00  0.00000000E+00
  5.33333333E+01  6.66666667E-01  0.00000000E+00
  5.33333333E+01  1.66533454E-15  0.00000000E+00
  5.44444444E+01  1.00000000E+01  0.00000000E+00
  5.44444444E+01  9.33333333E+00  0.00000000E+00
  5.44444444E+01  8.66666667E+00  0.00000000E+00
  5.44444444E+01  8.00000000E+00  0.00000000E+00
  5.44444444E+01  7.33333333E+00  0.00000000E+00
  5.44444444E+01  6.66666667E+00  0.00000000E+00
  5.44444444E+01  6.00000000E+00  0.00000000E+00
  5.44444444E+01  5.33333333E+00  0.00000000E+00
  5.44444444E+01  4.66666667E+00  0.00000000E+00
  5.44444444E+01  4.00000000E+00  0.00000000E+00
  5.44444444E+01  3.33333333E+00  0.00000000E+00
  5.44444444E+01  2.66666667E+00  0.00000000E+00
  5.44444444E+01  2.00000000E+00  0.00000000E+00
  5.44444444E+01  1.33333333E+00  0.00000000E+00
  5.44444444E+01  6.66666667E-01  0.00000000E+00
  5.44444444E+01  1.66533454E-15  0.00000000E+00
  5.55555556E+01  1.00000000E+01  0.00000000E+00
  5.55555556E+01  9.33333333E+00  0.00000000E+00
  5.55555556E+01  8.66666667E+00  0.00000000E+00
  5.55555556E+01  8.00000000E+00  0.00000000E+00
  5.55555556E+01  7.33333333E+00  0.00000000E+00
  5.55555556E+01  6.66666667E+00  0.00000000E+00
  5.55555556E+01  6.00000000E+00  0.00000000E+00
  5.55555556E+01  5.33333333E+00  0.00000000E+00
  5.55555556E+01  4.66666667E+00  0.00000000E+00
  5.55555556E+01  4.00000000E+00  0.00000000E+00
  5.55555556E+01  3.33333333E+00  0.00000000E+00
  5.55555556E+01  2.66666667E+00  0.00000000E+00
  5.55555556E+01  2.00000000E+00  0.00000000E+00
  5.55555556E+01  1.33333333E+00  0.00000000E+00
  5.55555556E+01  6.66666667E-01  0.00000000E+00
  5.55555556E+01  1.66533454E-15  0.00000000E+00
  5.66666667E+01  1.00000000E+01  0.00000000E+00
  5.66666667E+01  9.33333333E+00  0.00000000E+00
  5.66666667E+01  8.66666667E+00  0.00000000E+00
  5.66666667E+01  8.00000000E+00  0.00000000E+00
  5.66666667E+01  7.33333333E+00  0.00000000E+00
  5.66666667E+01  6.66666667E+00  0.00000000E+00
  5.66666667E+01  6.00000000E+00  0.00000000E+00
  5.66666667E+01  5.33333333E+00  0.00000000E+00
  5.66666667E+01  4.66666667E+00  0.00000000E+00
  5.66666667E+01  4.00000000E+00  0.00000000E+00
  5.66666667E+01  3.33333333E+00  0.00000000E+00
  5.66666667E+01  2.66666667E+00  0.00000000E+00
  5.66666667E+01  2.00000000E+00  0.00000000E+00
  5.66666667E+01  1.33333333E+00  0.00000000E+00
  5.66666667E+01  6.66666667E-01  0.00000000E+00
  5.66666667E+01  1.66533454E-15  0.00000000E+00
  5.77777778E+01  1.00000000E+01  0.00000000E+00
  5.77777778E+01  9.33333333E+00  0.00000000E+00
  5.77777778E+01  8.66666667E+00  0.00000000E+00
  5.77777778E+01  8.00000000E+00  0.00000000E+00
  5.77777778E+01  7.33333333E+00  0.00000000E+00
  5.77777778E+01  6.66666667E+00  0.00000000E+00
  5.77777778E+01  6.00000000E+00  0.00000000E+00
  5.77777778E+01  5.33333333E+00  0.00000000E+00
  5.77777778E+01  4.66666667E+00  0.00000000E+00
  5.77777778E+01  4.00000000E+00  0.00000000E+00
  5.77777778E+01  3.33333333E+00  0.00000000E+00
  5.77777778E+01  2.66666667E+00  0.00000000E+00
  5.77777778E+01  2.00000000E+00  0.00000000E+00
  5.77777778E+01  1.33333333E+00  0.00000000E+00
  5.77777778E+01  6.66666667E-01  0.00000000E+00
  5.77777778E+01  1.66533454E-15  0.00000000E+00
  5.88888889E+01  1.00000000E+01  0.00000000E+00
  5.88888889E+01  9.33333333E+00  0.00000000E+00
  5.88888889E+01  8.66666667E+00  0.00000000E+00
  5.88888889E+01  8.00000000E+00  0.00000000E+00
  5.88888889E+01  7.33333333E+00  0.00000000E+00
  5.88888889E+01  6.66666667E+00  0.00000000E+00
  5.88888889E+01  6.00000000E+00  0.00000000E+00
  5.88888889E+01  5.33333333E+00  0.00000000E+00
  5.88888889E+01  4.66666667E+00  0.00000000E+00
  5.88888889E+01  4.00000000E+00  0.00000000E+00
  5.88888889E+01  3.33333333E+00  0.00000000E+00
  5.88888889E+01  2.66666667E+00  0.00000000E+00
  5.88888889E+01  2.00000000E+00  0.00000000E+00
  5.88888889E+01  1.33333333E+00  0.00000000E+00
  5.88888889E+01  6.66666667E-01  0.00000000E+00
  5.88888889E+01  1.66533454E-15  0.00000000E+00
  6.00000000E+01  1.00000000E+01  0.00000000E+00
  6.00000000E+01  9.33333333E+00  0.00000000E+00
  6.00000000E+01  8.66666667E+00  0.00000000E+00
  6.00000000E+01  8.00000000E+00  0.00000000E+00
  6.00000000E+01  7.33333333E+00  0.00000000E+00
  6.00000000E+01  6.66666667E+00  0.00000000E+00
  6.00000000E+01  6.00000000E+00  0.00000000E+00
  6.00000000E+01  5.33333333E+00  0.00000000E+00
  6.00000000E+01  4.66666667E+00  0.00000000E+00
  6.00000000E+01  4.00000000E+00  0.00000000E+00
  6.00000000E+01  3.33333333E+00  0.00000000E+00
  6.00000000E+01  2.66666667E+00  0.00000000E+00
  6.00000000E+01  2.00000000E+00  0.00000000E+00
  6.00000000E+01  1.33333333E+00  0.00000000E+00
  6.00000000E+01  6.66666667E-01  0.00000000E+00
  6.00000000E+01  1.66533454E-15  0.00000000E+00
  6.11111111E+01  1.00000000E+01  0.00000000E+00
  6.11111111E+01  9.33333333E+00  0.00000000E+00
  6.11111111E+01  8.66666667E+00  0.00000000E+00
  6.11111111E+01  8.00000000E+00  0.00000000E+00
  6.11111111E+01  7.33333333E+00  0.00000000E+00
  6.11111111E+01  6.66666667E+00  0.00000000E+00
  6.11111111E+01  6.00000000E+00  0.00000000E+00
  6.11111111E+01  5.33333333E+00  0.00000000E+00
  6.11111111E+01  4.66666667E+00  0.00000000E+00
  6.11111111E+01  4.00000000E+00  0.00000000E+00
  6.11111111E+01  3.33333333E+00  0.00000000E+00
  6.11111111E+01  2.66666667E+00  0.00000000E+00
  6.11111111E+01  2.00000000E+00  0.00000000E+00
  6.11111111E+01  1.33333333E+00  0.00000000E+00
  6.11111111E+01  6.66666667E-01  0.00000000E+00
  6.11111111E+01  1.66533454E-15  0.00000000E+00
  6.22222222E+01  1.00000000E+01  0.00000000E+00
  6.22222222E+01  9.33333333E+00  0.00000000E+00
  6.22222222E+01  8.66666667E+00  0.00000000E+00
  6.22222222E+01  8.00000000E+00  0.00000000E+00
  6.22222222E+01  7.33333333E+00  0.00000000E+00
  6.22222222E+01  6.66666667E+00  0.00000000E+00
  6.22222222E+01  6.00000000E+00  0.00000000E+00
  6.22222222E+01  5.33333333E+00  0.00000000E+00
  6.22222222E+01  4.66666667E+00  0.00000000E+00
  6.22222222E+01  4.00000000E+00  0.00000000E+00
  6.22222222E+01  3.33333333E+00  0.00000000E+00
  6.22222222E+01  2.66666667E+00  0.00000000E+00
  6.22222222E+01  2.00000000E+00  0.00000000E+00
  6.22222222E+01  1.33333333E+00  0.00000000E+00
  6.22222222E+01  6.66666667E-01  0.00000000E+00
  6.22222222E+01  1.66533454E-15  0.00000000E+00
  6.33333333E+01  1.00000000E+01  0.00000000E+00
  6.33333333E+01  9.33333333E+00  0.00000000E+00
  6.33333333E+01  8.66666667E+00  0.00000000E+00
  6.33333333E+01  8.00000000E+00  0.00000000E+00
  6.33333333E+01  7.33333333E+00  0.00000000E+00
  6.33333333E+01  6.66666667E+00  0.00000000E+00
  6.33333333E+01  6.00000000E+00  0.00000000E+00
  6.33333333E+01  5.33333333E+00  0.00000000E+00
  6.33333333E+01  4.66666667E+00  0.00000000E+00
  6.33333333E+01  4.00000000E+00  0.00000000E+00
  6.33333333E+01  3.33333333E+00  0.00000000E+00
  6.33333333E+01  2.66666667E+00  0.00000000E+00
  6.33333333E+01  2.00000000E+00  0.00000000E+00
  6.33333333E+01  1.33333333E+00  0.00000000E+00
  6.33333333E+01  6.66666667E-01  0.00000000E+00
  6.33333333E+01  1.66533454E-15  0.00000000E+00
  6.44444444E+01  1.00000000E+01  0.00000000E+00
  6.44444444E+01  9.33333333E+00  0.00000000E+00
  6.44444444E+01  8.66666667E+00  0.00000000E+00
  6.44444444E+01  8.00000000E+00  0.00000000E+00
  6.44444444E+01  7.33333333E+00  0.00000000E+00
  6.44444444E+01  6.66666667E+00  0.00000000E+00
  6.44444444E+01  6.00000000E+00  0.00000000E+00
  6.44444444E+01  5.33333333E+00  0.00000000E+00
  6.44444444E+01  4.66666667E+00  0.00000000E+00
  6.44444444E+01  4.00000000E+00  0.00000000E+00
  6.44444444E+01  3.33333333E+00  0.00000000E+00
  6.44444444E+01  2.66666667E+00  0.00000000E+00
  6.44444444E+01  2.00000000E+00  0.00000000E+00
  6.44444444E+01  1.33333333E+00  0.00000000E+00
  6.44444444E+01  6.66666667E-01  0.00000000E+00
  6.44444444E+01  1.66533454E-15  0.00000000E+00
  6.55555556E+01  1.00000000E+01  0.00000000E+00
  6.55555556E+01  9.33333333E+00  0.00000000E+00
  6.55555556E+01  8.66666667E+00  0.00000000E+00
  6.55555556E+01  8.00000000E+00  0.00000000E+00
  6.55555556E+01  7.33333333E+00  0.00000000E+00
  6.55555556E+01  6.66666667E+00  0.00000000E+00
  6.55555556E+01  6.00000000E+00  0.00000000E+00
  6.55555556E+01  5.33333333E+00  0.00000000E+00
  6.55555556E+01  4.66666667E+00  0.00000000E+00
  6.55555556E+01  4.00000000E+00  0.00000000E+00
  6.55555556E+01  3.33333333E+00  0.00000000E+00
  6.55555556E+01  2.66666667E+00  0.00000000E+00
  6.55555556E+01  2.00000000E+00  0.00000000E+00
  6.55555556E+01  1.33333333E+00  0.00000000E+00
  6.55555556E+01  6.66666667E-01  0.00000000E+00
  6.55555556E+01  1.66533454E-15  0.00000000E+00
  6.66666667E+01  1.00000000E+01  0.00000000E+00
  6.66666667E+01  9.33333333E+00  0.00000000E+00
  6.66666667E+01  8.66666667E+00  0.00000000E+00
  6.66666667E+01  8.00000000E+00  0.00000000E+00
  6.66666667E+01  7.33333333E+00  0.00000000E+00
  6.66666667E+01  6.66666667E+00  0.00000000E+00
  6.66666667E+01  6.00000000E+00  0.00000000E+00
  6.66666667E+01  5.33333333E+00  0.00000000E+00
  6.66666667E+01  4.66666667E+00  0.00000000E+00
  6.66666667E+01  4.00000000E+00  0.00000000E+00
  6.66666667E+01  3.33333333E+00  0.00000000E+00
  6.66666667E+01  2.66666667E+00  0.00000000E+00
  6.66666667E+01  2.00000000E+00  0.00000000E+00
  6.66666667E+01  1.33333333E+00  0.00000000E+00
  6.66666667E+01  6.66666667E-01  0.00000000E+00
  6.66666667E+01  1.66533454E-15  0.00000000E+00
  6.77777778E+01  1.00000000E+01  0.00000000E+00
  6.77777778E+01  9.33333333E+00  0.00000000E+00
  6.77777778E+01  8.66666667E+00  0.00000000E+00
  6.77777778E+01  8.00000000E+00  0.00000000E+00
  6.77777778E+01  7.33333333E+00  0.00000000E+00
  6.77777778E+01  6.66666667E+00  0.00000000E+00
  6.77777778E+01  6.00000000E+00  0.00000000E+00
  6.77777778E+01  5.33333333E+00  0.00000000E+00
  6.77777778E+01  4.66666667E+00  0.00000000E+00
  6.77777778E+01  4.00000000E+00  0.00000000E+00
  6.77777778E+01  3.33333333E+00  0.00000000E+00
  6.77777778E+01  2.66666667E+00  0.00000000E+00
  6.77777778E+01  2.00000000E+00  0.00000000E+00
  6.77777778E+01  1.33333333E+00  0.00000000E+00
  6.77777778E+01  6.66666667E-01  0.00000000E+00
  6.77777778E+01  1.66533454E-15  0.00000000E+00
  6.88888889E+01  1.00000000E+01  0.00000000E+00
  6.88888889E+01  9.33333333E+00  0.00000000E+00
  6.88888889E+01  8.66666667E+00  0.00000000E+00
  6.88888889E+01  8.00000000E+00  0.00000000E+00
  6.88888889E+01  7.33333333E+00  0.00000000E+00
  6.88888889E+01  6.66666667E+00  0.00000000E+00
  6.88888889E+01  6.00000000E+00  0.00000000E+00
  6.88888889E+01  5.33333333E+00  0.00000000E+00
  6.88888889E+01  4.66666667E+00  0.00000000E+00
  6.88888889E+01  4.00000000E+00  0.00000000E+00
  6.88888889E+01  3.33333333E+00  0.00000000E+00
  6.88888889E+01  2.66666667E+00  0.00000000E+00
  6.88888889E+01  2.00000000E+00  0.00000000E+00
  6.88888889E+01  1.33333333E+00  0.00000000E+00
  6.88888889E+01  6.66666667E-01  0.00000000E+00
  6.88888889E+01  1.66533454E-15  0.00000000E+00
  7.00000000E+01  1.00000000E+01  0.00000000E+00
  7.00000000E+01  9.33333333E+00  0.00000000E+00
  7.00000000E+01  8.66666667E+00  0.00000000E+00
  7.00000000E+01  8.00000000E+00  0.00000000E+00
  7.00000000E+01  7.33333333E+00  0.00000000E+00
  7.00000000E+01  6.66666667E+00  0.00000000E+00
  7.00000000E+01  6.00000000E+00  0.00000000E+00
  7.00000000E+01  5.33333333E+00  0.00000000E+00
  7.00000000E+01  4.66666667E+00  0.00000000E+00
  7.00000000E+01  4.00000000E+00  0.00000000E+00
  7.00000000E+01  3.33333333E+00  0.00000000E+00
  7.00000000E+01  2.66666667E+00  0.00000000E+00
  7.00000000E+01  2.00000000E+00  0.00000000E+00
  7.00000000E+01  1.33333333E+00  0.00000000E+00
  7.00000000E+01  6.66666667E-01  0.00000000E+00
  7.00000000E+01  1.66533454E-15  0.00000000E+00
  7.11111111E+01  1.00000000E+01  0.00000000E+00
  7.11111111E+01  9.33333333E+00  0.00000000E+00
  7.11111111E+01  8.66666667E+00  0.00000000E+00
  7.11111111E+01  8.00000000E+00  0.00000000E+00
  7.11111111E+01  7.33333333E+00  0.00000000E+00
  7.11111111E+01  6.66666667E+00  0.00000000E+00
  7.11111111E+01  6.00000000E+00  0.00000000E+00
  7.11111111E+01  5.33333333E+00  0.00000000E+00
  7.11111111E+01  4.66666667E+00  0.00000000E+00
  7.11111111E+01  4.00000000E+00  0.00000000E+00
  7.11111111E+01  3.33333333E+00  0.00000000E+00
  7.11111111E+01  2.66666667E+00  0.00000000E+00
  7.11111111E+01  2.00000000E+00  0.00000000E+00
  7.11111111E+01  1.33333333E+00  0.00000000E+00
  7.11111111E+01  6.66666667E-01  0.00000000E+00
  7.11111111E+01  1.66533454E-15  0.00000000E+00
  7.22222222E+01  1.00000000E+01  0.00000000E+00
  7.22222222E+01  9.33333333E+00  0.00000000E+00
  7.22222222E+01  8.66666667E+00  0.00000000E+00
  7.22222222E+01  8.00000000E+00  0.00000000E+00
  7.22222222E+01  7.33333333E+00  0.00000000E+00
  7.22222222E+01  6.66666667E+00  0.00000000E+00
  7.22222222E+01  6.00000000E+00  0.00000000E+00
  7.22222222E+01  5.33333333E+00  0.00000000E+00
  7.22222222E+01  4.66666667E+00  0.00000000E+00
  7.22222222E+01  4.00000000E+00  0.00000000E+00
  7.22222222E+01  3.33333333E+00  0.00000000E+00
  7.22222222E+01  2.66666667E+00  0.00000000E+00
  7.22222222E+01  2.00000000E+00  0.00000000E+00
  7.22222222E+01  1.33333333E+00  0.00000000E+00
  7.22222222E+01  6.66666667E-01  0.00000000E+00
  7.22222222E+01  1.66533454E-15  0.00000000E+00
  7.33333333E+01  1.00000000E+01  0.00000000E+00
  7.33333333E+01  9.33333333E+00  0.00000000E+00
  7.33333333E+01  8.66666667E+00  0.00000000E+00
  7.33333333E+01  8.00000000E+00  0.00000000E+00
  7.33333333E+01  7.33333333E+00  0.00000000E+00
  7.33333333E+01  6.66666667E+00  0.00000000E+00
  7.33333333E+01  6.00000000E+00  0.00000000E+00
  7.33333333E+01  5.33333333E+00  0.00000000E+00
  7.33333333E+01  4.66666667E+00  0.00000000E+00
  7.33333333E+01  4.00000000E+00  0.00000000E+00
  7.33333333E+01  3.33333333E+00  0.00000000E+00
  7.33333333E+01  2.66666667E+00  0.00000000E+00
  7.33333333E+01  2.00000000E+00  0.00000000E+00
  7.33333333E+01  1.33333333E+00  0.00000000E+00
  7.33333333E+01  6.66666667E-01  0.00000000E+00
  7.33333333E+01  1.66533454E-15  0.00000000E+00
  7.44444444E+01  1.00000000E+01  0.00000000E+00
  7.44444444E+01  9.33333333E+00  0.00000000E+00
  7.44444444E+01  8.66666667E+00  0.00000000E+00
  7.44444444E+01  8.00000000E+00  0.00000000E+00
  7.44444444E+01  7.33333333E+00  0.00000000E+00
  7.44444444E+01  6.66666667E+00  0.00000000E+00
  7.44444444E+01  6.00000000E+00  0.00000000E+00
  7.44444444E+01  5.33333333E+00  0.00000000E+00
  7.44444444E+01  4.66666667E+00  0.00000000E+00
  7.44444444E+01  4.00000000E+00  0.00000000E+00
  7.44444444E+01  3.33333333E+00  0.00000000E+00
  7.44444444E+01  2.66666667E+00  0.00000000E+00
  7.44444444E+01  2.00000000E+00  0.00000000E+00
  7.44444444E+01  1.33333333E+00  0.00000000E+00
  7.44444444E+01  6.66666667E-01  0.00000000E+00
  7.44444444E+01  1.66533454E-15  0.00000000E+00
  7.55555556E+01  1.00000000E+01  0.00000000E+00
  7.55555556E+01  9.33333333E+00  0.00000000E+00
  7.55555556E+01  8.66666667E+00  0.00000000E+00
  7.55555556E+01  8.00000000E+00  0.00000000E+00
  7.55555556E+01  7.33333333E+00  0.00000000E+00
  7.55555556E+01  6.66666667E+00  0.00000000E+00
  7.55555556E+01  6.00000000E+00  0.00000000E+00
  7.55555556E+01  5.33333333E+00  0.00000000E+00
  7.55555556E+01  4.66666667E+00  0.00000000E+00
  7.55555556E+01  4.00000000E+00  0.00000000E+00
  7.55555556E+01  3.33333333E+00  0.00000000E+00
  7.55555556E+01  2.66666667E+00  0.00000000E+00
  7.55555556E+01  2.00000000E+00  0.00000000E+00
  7.55555556E+01  1.33333333E+00  0.00000000E+00
  7.55555556E+01  6.66666667E-01  0.00000000E+00
  7.55555556E+01  1.66533454E-15  0.00000000E+00
  7.66666667E+01  1.00000000E+01  0.00000000E+00
  7.66666667E+01  9.33333333E+00  0.00000000E+00
  7.66666667E+01  8.66666667E+00  0.00000000E+00
  7.66666667E+01  8.00000000E+00  0.00000000E+00
  7.66666667E+01  7.33333333E+00  0.00000000E+00
  7.66666667E+01  6.66666667E+00  0.00000000E+00
  7.66666667E+01  6.00000000E+00  0.00000000E+00
  7.66666667E+01  5.33333333E+00  0.00000000E+00
  7.66666667E+01  4.66666667E+00  0.00000000E+00
  7.66666667E+01  4.00000000E+00  0.00000000E+00
  7.66666667E+01  3.33333333E+00  0.00000000E+00
  7.66666667E+01  2.66666667E+00  0.00000000E+00
  7.66666667E+01  2.00000000E+00  0.00000000E+00
  7.66666667E+01  1.33333333E+00  0.00000000E+00
  7.66666667E+01  6.66666667E-01  0.00000000E+00
  7.66666667E+01  1.66533454E-15  0.00000000E+00
  7.77777778E+01  1.00000000E+01  0.00000000E+00
  7.77777778E+01  9.33333333E+00  0.00000000E+00
  7.77777778E+01  8.66666667E+00  0.00000000E+00
  7.77777778E+01  8.00000000E+00  0.00000000E+00
  7.77777778E+01  7.33333333E+00  0.00000000E+00
  7.77777778E+01  6.66666667E+00  0.00000000E+00
  7.77777778E+01  6.00000000E+00  0.00000000E+00
  7.77777778E+01  5.33333333E+00  0.00000000E+00
  7.77777778E+01  4.66666667E+00  0.00000000E+00
  7.77777778E+01  4.00000000E+00  0.00000000E+00
  7.77777778E+01  3.33333333E+00  0.00000000E+00
  7.77777778E+01  2.66666667E+00  0.00000000E+00
  7.77777778E+01  2.00000000E+00  0.00000000E+00
  7.77777778E+01  1.33333333E+00  0.00000000E+00
  7.77777778E+01  6.66666667E-01  0.00000000E+00
  7.77777778E+01  1.66533454E-15  0.00000000E+00
  7.88888889E+01  1.00000000E+01  0.00000000E+00
  7.88888889E+01  9.33333333E+00  0.00000000E+00
  7.88888889E+01  8.66666667E+00  0.00000000E+00
  7.88888889E+01  8.00000000E+00  0.00000000E+00
  7.88888889E+01  7.33333333E+00  0.00000000E+00
  7.88888889E+01  6.66666667E+00  0.00000000E+00
  7.88888889E+01  6.00000000E+00  0.00000000E+00
  7.88888889E+01  5.33333333E+00  0.00000000E+00
  7.88888889E+01  4.66666667E+00  0.00000000E+00
  7.88888889E+01  4.00000000E+00  0.00000000E+00
  7.88888889E+01  3.33333333E+00  0.00000000E+00
  7.88888889E+01  2.66666667E+00  0.00000000E+00
  7.88888889E+01  2.00000000E+00  0.00000000E+00
  7.88888889E+01  1.33333333E+00  0.00000000E+00
  7.88888889E+01  6.66666667E-01  0.00000000E+00
  7.88888889E+01  1.66533454E-15  0.00000000E+00
  8.00000000E+01  1.00000000E+01  0.00000000E+00
  8.00000000E+01  9.33333333E+00  0.00000000E+00
  8.00000000E+01  8.66666667E+00  0.00000000E+00
  8.00000000E+01  8.00000000E+00  0.00000000E+00
  8.00000000E+01  7.33333333E+00  0.00000000E+00
  8.00000000E+01  6.66666667E+00  0.00000000E+00
  8.00000000E+01  6.00000000E+00  0.00000000E+00
  8.00000000E+01  5.33333333E+00  0.00000000E+00
  8.00000000E+01  4.66666667E+00  0.00000000E+00
  8.00000000E+01  4.00000000E+00  0.00000000E+00
  8.00000000E+01  3.33333333E+00  0.00000000E+00
  8.00000000E+01  2.66666667E+00  0.00000000E+00
  8.00000000E+01  2.00000000E+00  0.00000000E+00
  8.00000000E+01  1.33333333E+00  0.00000000E+00
  8.00000000E+01  6.66666667E-01  0.00000000E+00
  8.00000000E+01  1.66533454E-15  0.00000000E+00
  8.11111111E+01  1.00000000E+01  0.00000000E+00
  8.11111111E+01  9.33333333E+00  0.00000000E+00
  8.11111111E+01  8.66666667E+00  0.00000000E+00
  8.11111111E+01  8.00000000E+00  0.00000000E+00
  8.11111111E+01  7.33333333E+00  0.00000000E+00
  8.11111111E+01  6.66666667E+00  0.00000000E+00
  8.11111111E+01  6.00000000E+00  0.00000000E+00
  8.11111111E+01  5.33333333E+00  0.00000000E+00
  8.11111111E+01  4.66666667E+00  0.00000000E+00
  8.11111111E+01  4.00000000E+00  0.00000000E+00
  8.11111111E+01  3.33333333E+00  0.00000000E+00
  8.11111111E+01  2.66666667E+00  0.00000000E+00
  8.11111111E+01  2.00000000E+00  0.00000000E+00
  8.11111111E+01  1.33333333E+00  0.00000000E+00
  8.11111111E+01  6.66666667E-01  0.00000000E+00
  8.11111111E+01  1.66533454E-15  0.00000000E+00
  8.22222222E+01  1.00000000E+01  0.00000000E+00
  8.22222222E+01  9.33333333E+00  0.00000000E+00
  8.22222222E+01  8.66666667E+00  0.00000000E+00
  8.22222222E+01  8.00000000E+00  0.00000000E+00
  8.22222222E+01  7.33333333E+00  0.00000000E+00
  8.22222222E+01  6.66666667E+00  0.00000000E+00
  8.22222222E+01  6.00000000E+00  0.00000000E+00
  8.22222222E+01  5.33333333E+00  0.00000000E+00
  8.22222222E+01  4.66666667E+00  0.00000000E+00
  8.22222222E+01  4.00000000E+00  0.00000000E+00
  8.22222222E+01  3.33333333E+00  0.00000000E+00
  8.22222222E+01  2.66666667E+00  0.00000000E+00
  8.22222222E+01  2.00000000E+00  0.00000000E+00
  8.22222222E+01  1.33333333E+00  0.00000000E+00
  8.22222222E+01  6.66666667E-01  0.00000000E+00
  8.22222222E+01  1.66533454E-15  0.00000000E+00
  8.33333333E+01  1.00000000E+01  0.00000000E+00
  8.33333333E+01  9.33333333E+00  0.00000000E+00
  8.33333333E+01  8.66666667E+00  0.00000000E+00
  8.33333333E+01  8.00000000E+00  0.00000000E+00
  8.33333333E+01  7.33333333E+00  0.00000000E+00
  8.33333333E+01  6.66666667E+00  0.00000000E+00
  8.33333333E+01  6.00000000E+00  0.00000000E+00
  8.33333333E+01  5.33333333E+00  0.00000000E+00
  8.33333333E+01  4.66666667E+00  0.00000000E+00
  8.33333333E+01  4.00000000E+00  0.00000000E+00
  8.33333333E+01  3.33333333E+00  0.00000000E+00
  8.33333333E+01  2.66666667E+00  0.00000000E+00
  8.33333333E+01  2.00000000E+00  0.00000000E+00
  8.33333333E+01  1.33333333E+00  0.00000000E+00
  8.33333333E+01  6.66666667E-01  0.00000000E+00
  8.33333333E+01  1.66533454E-15  0.00000000E+00
  8.44444444E+01  1.00000000E+01  0.00000000E+00
  8.44444444E+01  9.33333333E+00  0.00000000E+00
  8.44444444E+01  8.66666667E+00  0.00000000E+00
  8.44444444E+01  8.00000000E+00  0.00000000E+00
  8.44444444E+01  7.33333333E+00  0.00000000E+00
  8.44444444E+01  6.66666667E+00  0.00000000E+00
  8.44444444E+01  6.00000000E+00  0.00000000E+00
  8.44444444E+01  5.33333333E+00  0.00000000E+00
  8.44444444E+01  4.66666667E+00  0.00000000E+00
  8.44444444E+01  4.00000000E+00  0.00000000E+00
  8.44444444E+01  3.33333333E+00  0.00000000E+00
  8.44444444E+01  2.66666667E+00  0.00000000E+00
  8.44444444E+01  2.00000000E+00  0.00000000E+00
  8.44444444E+01  1.33333333E+00  0.00000000E+00
  8.44444444E+01  6.66666667E-01  0.00000000E+00
  8.44444444E+01  1.66533454E-15  0.00000000E+00
  8.55555556E+01  1.00000000E+01  0.00000000E+00
  8.55555556E+01  9.33333333E+00  0.00000000E+00
  8.55555556E+01  8.66666667E+00  0.00000000E+00
  8.55555556E+01  8.00000000E+00  0.00000000E+00
  8.55555556E+01  7.33333333E+00  0.00000000E+00
  8.55555556E+01  6.66666667E+00  0.00000000E+00
  8.55555556E+01  6.00000000E+00  0.00000000E+00
  8.55555556E+01  5.33333333E+00  0.00000000E+00
  8.55555556E+01  4.66666667E+00  0.00000000E+00
  8.55555556E+01  4.00000000E+00  0.00000000E+00
  8.55555556E+01  3.33333333E+00  0.00000000E+00
  8.55555556E+01  2.66666667E+00  0.00000000E+00
  8.55555556E+01  2.00000000E+00  0.00000000E+00
  8.55555556E+01  1.33333333E+00  0.00000000E+00
  8.55555556E+01  6.66666667E-01  0.00000000E+00
  8.55555556E+01  1.66533454E-15  0.00000000E+00
  8.66666667E+01  1.00000000E+01  0.00000000E+00
  8.66666667E+01  9.33333333E+00  0.00000000E+00
  8.66666667E+01  8.66666667E+00  0.00000000E+00
  8.66666667E+01  8.00000000E+00  0.00000000E+00
  8.66666667E+01  7.33333333E+00  0.00000000E+00
  8.66666667E+01  6.66666667E+00  0.00000000E+00
  8.66666667E+01  6.00000000E+00  0.00000000E+00
  8.66666667E+01  5.33333333E+00  0.00000000E+00
  8.66666667E+01  4.66666667E+00  0.00000000E+00
  8.66666667E+01  4.00000000E+00  0.00000000E+00
  8.66666667E+01  3.33333333E+00  0.00000000E+00
  8.66666667E+01  2.66666667E+00  0.00000000E+00
  8.66666667E+01  2.00000000E+00  0.00000000E+00
  8.66666667E+01  1.33333333E+00  0.00000000E+00
  8.66666667E+01  6.66666667E-01  0.00000000E+00
  8.66666667E+01  1.66533454E-15  0.00000000E+00
  8.77777778E+01  1.00000000E+01  0.00000000E+00
  8.77777778E+01  9.33333333E+00  0.00000000E+00
  8.77777778E+01  8.66666667E+00  0.00000000E+00
  8.77777778E+01  8.00000000E+00  0.00000000E+00
  8.77777778E+01  7.33333333E+00  0.00000000E+00
  8.77777778E+01  6.66666667E+00  0.00000000E+00
  8.77777778E+01  6.00000000E+00  0.00000000E+00
  8.77777778E+01  5.33333333E+00  0.00000000E+00
  8.77777778E+01  4.66666667E+00  0.00000000E+00
  8.77777778E+01  4.00000000E+00  0.00000000E+00
  8.77777778E+01  3.33333333E+00  0.00000000E+00
  8.77777778E+01  2.66666667E+00  0.00000000E+00
  8.77777778E+01  2.00000000E+00  0.00000000E+00
  8.77777778E+01  1.33333333E+00  0.00000000E+00
  8.77777778E+01  6.66666667E-01  0.00000000E+00
  8.77777778E+01  1.66533454E-15  0.00000000E+00
  8.88888889E+01  1.00000000E+01  0.00000000E+00
  8.88888889E+01  9.33333333E+00  0.00000000E+00
  8.88888889E+01  8.66666667E+00  0.00000000E+00
  8.88888889E+01  8.00000000E+00  0.00000000E+00
  8.88888889E+01  7.33333333E+00  0.00000000E+00
  8.88888889E+01  6.66666667E+00  0.00000000E+00
  8.88888889E+01  6.00000000E+00  0.00000000E+00
  8.88888889E+01  5.33333333E+00  0.00000000E+00
  8.88888889E+01  4.66666667E+00  0.00000000E+00
  8.88888889E+01  4.00000000E+00  0.00000000E+00
  8.88888889E+01  3.33333333E+00  0.00000000E+00
  8.88888889E+01  2.66666667E+00  0.00000000E+00
  8.88888889E+01  2.00000000E+00  0.00000000E+00
  8.88888889E+01  1.33333333E+00  0.00000000E+00
  8.88888889E+01  6.66666667E-01  0.00000000E+00
  8.88888889E+01  1.66533454E-15  0.00000000E+00
  9.00000000E+01  1.00000000E+01  0.00000000E+00
  9.00000000E+01  9.33333333E+00  0.00000000E+00
  9.00000000E+01  8.66666667E+00  0.00000000E+00
  9.00000000E+01  8.00000000E+00  0.00000000E+00
  9.00000000E+01  7.33333333E+00  0.00000000E+00
  9.00000000E+01  6.66666667E+00  0.00000000E+00
  9.00000000E+01  6.00000000E+00  0.00000000E+00
  9.00000000E+01  5.33333333E+00  0.00000000E+00
  9.00000000E+01  4.66666667E+00  0.00000000E+00
  9.00000000E+01  4.00000000E+00  0.00000000E+00
  9.00000000E+01  3.33333333E+00  0.00000000E+00
  9.00000000E+01  2.66666667E+00  0.00000000E+00
  9.00000000E+01  2.00000000E+00  0.00000000E+00
  9.00000000E+01  1.33333333E+00  0.00000000E+00
  9.00000000E+01  6.66666667E-01  0.00000000E+00
  9.00000000E+01  1.66533454E-15  0.00000000E+00
  9.11111111E+01  1.00000000E+01  0.00000000E+00
  9.11111111E+01  9.33333333E+00  0.00000000E+00
  9.11111111E+01  8.66666667E+00  0.00000000E+00
  9.11111111E+01  8.00000000E+00  0.00000000E+00
  9.11111111E+01  7.33333333E+00  0.00000000E+00
  9.11111111E+01  6.66666667E+00  0.00000000E+00
  9.11111111E+01  6.00000000E+00  0.00000000E+00
  9.11111111E+01  5.33333333E+00  0.00000000E+00
  9.11111111E+01  4.66666667E+00  0.00000000E+00
  9.11111111E+01  4.00000000E+00  0.00000000E+00
  9.11111111E+01  3.33333333E+00  0.00000000E+00
  9.11111111E+01  2.66666667E+00  0.00000000E+00
  9.11111111E+01  2.00000000E+00  0.00000000E+00
  9.11111111E+01  1.33333333E+00  0.00000000E+00
  9.11111111E+01  6.66666667E-01  0.00000000E+00
  9.11111111E+01  1.66533454E-15  0.00000000E+00
  9.22222222E+01  1.00000000E+01  0.00000000E+00
  9.22222222E+01  9.33333333E+00  0.00000000E+00
  9.22222222E+01  8.66666667E+00  0.00000000E+00
  9.22222222E+01  8.00000000E+00  0.00000000E+00
  9.22222222E+01  7.33333333E+00  0.00000000E+00
  9.22222222E+01  6.66666667E+00  0.00000000E+00
  9.22222222E+01  6.00000000E+00  0.00000000E+00
  9.22222222E+01  5.33333333E+00  0.00000000E+00
  9.22222222E+01  4.66666667E+00  0.00000000E+00
  9.22222222E+01  4.00000000E+00  0.00000000E+00
  9.22222222E+01  3.33333333E+00  0.00000000E+00
  9.22222222E+01  2.66666667E+00  0.00000000E+00
  9.22222222E+01  2.00000000E+00  0.00000000E+00
  9.22222222E+01  1.33333333E+00  0.00000000E+00
  9.22222222E+01  6.66666667E-01  0.00000000E+00
  9.22222222E+01  1.66533454E-15  0.00000000E+00
  9.33333333E+01  1.00000000E+01  0.00000000E+00
  9.33333333E+01  9.33333333E+00  0.00000000E+00
  9.33333333E+01  8.66666667E+00  0.00000000E+00
  9.33333333E+01  8.00000000E+00  0.00000000E+00
  9.33333333E+01  7.33333333E+00  0.00000000E+00
  9.33333333E+01  6.66666667E+00  0.00000000E+00
  9.33333333E+01  6.00000000E+00  0.00000000E+00
  9.33333333E+01  5.33333333E+00  0.00000000E+00
  9.33333333E+01  4.66666667E+00  0.00000000E+00
  9.33333333E+01  4.00000000E+00  0.00000000E+00
  9.33333333E+01  3.33333333E+00  0.00000000E+00
  9.33333333E+01  2.66666667E+00  0.00000000E+00
  9.33333333E+01  2.00000000E+00  0.00000000E+00
  9.33333333E+01  1.33333333E+00  0.00000000E+00
  9.33333333E+01  6.66666667E-01  0.00000000E+00
  9.33333333E+01  1.66533454E-15  0.00000000E+00
  9.44444444E+01  1.00000000E+01  0.00000000E+00
  9.44444444E+01  9.33333333E+00  0.00000000E+00
  9.44444444E+01  8.66666667E+00  0.00000000E+00
  9.44444444E+01  8.00000000E+00  0.00000000E+00
  9.44444444E+01  7.33333333E+00  0.00000000E+00
  9.44444444E+01  6.66666667E+00  0.00000000E+00
  9.44444444E+01  6.00000000E+00  0.00000000E+00
  9.44444444E+01  5.33333333E+00  0.00000000E+00
  9.44444444E+01  4.66666667E+00  0.00000000E+00
  9.44444444E+01  4.00000000E+00  0.00000000E+00
  9.44444444E+01  3.33333333E+00  0.00000000E+00
  9.44444444E+01  2.66666667E+00  0.00000000E+00
  9.44444444E+01  2.00000000E+00  0.00000000E+00
  9.44444444E+01  1.33333333E+00  0.00000000E+00
  9.44444444E+01  6.66666667E-01  0.00000000E+00
  9.44444444E+01  1.66533454E-15  0.00000000E+00
  9.55555556E+01  1.00000000E+01  0.00000000E+00
  9.55555556E+01  9.33333333E+00  0.00000000E+00
  9.55555556E+01  8.66666667E+00  0.00000000E+00
  9.55555556E+01  8.00000000E+00  0.00000000E+00
  9.55555556E+01  7.33333333E+00  0.00000000E+00
  9.55555556E+01  6.66666667E+00  0.00000000E+00
  9.55555556E+01  6.00000000E+00  0.00000000E+00
  9.55555556E+01  5.33333333E+00  0.00000000E+00
  9.55555556E+01  4.66666667E+00  0.00000000E+00
  9.55555556E+01  4.00000000E+00  0.00000000E+00
  9.55555556E+01  3.33333333E+00  0.00000000E+00
  9.55555556E+01  2.66666667E+00  0.00000000E+00
  9.55555556E+01  2.00000000E+00  0.00000000E+00
  9.55555556E+01  1.33333333E+00  0.00000000E+00
  9.55555556E+01  6.66666667E-01  0.00000000E+00
  9.55555556E+01  1.66533454E-15  0.00000000E+00
  9.66666667E+01  1.00000000E+01  0.00000000E+00
  9.66666667E+01  9.33333333E+00  0.00000000E+00
  9.66666667E+01  8.66666667E+00  0.00000000E+00
  9.66666667E+01  8.00000000E+00  0.00000000E+00
  9.66666667E+01  7.33333333E+00  0.00000000E+00
  9.66666667E+01  6.66666667E+00  0.00000000E+00
  9.66666667E+01  6.00000000E+00  0.00000000E+00
  9.66666667E+01  5.33333333E+00  0.00000000E+00
  9.66666667E+01  4.66666667E+00  0.00000000E+00
  9.66666667E+01  4.00000000E+00  0.00000000E+00
  9.66666667E+01  3.33333333E+00  0.00000000E+00
  9.66666667E+01  2.66666667E+00  0.00000000E+00
  9.66666667E+01  2.00000000E+00  0.00000000E+00
  9.66666667E+01  1.33333333E+00  0.00000000E+00
  9.66666667E+01  6.66666667E-01  0.00000000E+00
  9.66666667E+01  1.66533454E-15  0.00000000E+00
  9.77777778E+01  1.00000000E+01  0.00000000E+00
  9.77777778E+01  9.33333333E+00  0.00000000E+00
  9.77777778E+01  8.66666667E+00  0.00000000E+00
  9.77777778E+01  8.00000000E+00  0.00000000E+00
  9.77777778E+01  7.33333333E+00  0.00000000E+00
  9.77777778E+01  6.66666667E+00  0.00000000E+00
  9.77777778E+01  6.00000000E+00  0.00000000E+00
  9.77777778E+01  5.33333333E+00  0.00000000E+00
  9.77777778E+01  4.66666667E+00  0.00000000E+00
  9.77777778E+01  4.00000000E+00  0.00000000E+00
  9.77777778E+01  3.33333333E+00  0.00000000E+00
  9.77777778E+01  2.66666667E+00  0.00000000E+00
  9.77777778E+01  2.00000000E+00  0.00000000E+00
  9.77777778E+01  1.33333333E+00  0.00000000E+00
  9.77777778E+01  6.66666667E-01  0.00000000E+00
  9.77777778E+01  1.66533454E-15  0.00000000E+00
  9.88888889E+01  1.00000000E+01  0.00000000E+00
  9.88888889E+01  9.33333333E+00  0.00000000E+00
  9.88888889E+01  8.66666667E+00  0.00000000E+00
  9.88888889E+01  8.00000000E+00  0.00000000E+00
  9.88888889E+01  7.33333333E+00  0.00000000E+00
  9.88888889E+01  6.66666667E+00  0.00000000E+00
  9.88888889E+01  6.00000000E+00  0.00000000E+00
  9.88888889E+01  5.33333333E+00  0.00000000E+00
  9.88888889E+01  4.66666667E+00  0.00000000E+00
  9.88888889E+01  4.00000000E+00  0.00000000E+00
  9.88888889E+01  3.33333333E+00  0.00000000E+00
  9.88888889E+01  2.66666667E+00  0.00000000E+00
  9.88888889E+01  2.00000000E+00  0.00000000E+00
  9.88888889E+01  1.33333333E+00  0.00000000E+00
  9.88888889E+01  6.66666667E-01  0.00000000E+00
  9.88888889E+01  1.66533454E-15  0.00000000E+00
  1.00000000E+02  1.00000000E+01  0.00000000E+00
  1.00000000E+02  9.33333333E+00  0.00000000E+00
  1.00000000E+02  8.66666667E+00  0.00000000E+00
  1.00000000E+02  8.00000000E+00  0.00000000E+00
  1.00000000E+02  7.33333333E+00  0.00000000E+00
  1.00000000E+02  6.66666667E+00  0.00000000E+00
  1.00000000E+02  6.00000000E+00  0.00000000E+00
  1.00000000E+02  5.33333333E+00  0.00000000E+00
  1.00000000E+02  4.66666667E+00  0.00000000E+00
  1.00000000E+02  4.00000000E+00  0.00000000E+00
  1.00000000E+02  3.33333333E+00  0.00000000E+00
  1.00000000E+02  2.66666667E+00  0.00000000E+00
  1.00000000E+02  2.00000000E+00  0.00000000E+00
  1.00000000E+02  1.33333333E+00  0.00000000E+00
  1.00000000E+02  6.66666667E-01  0.00000000E+00
  1.00000000E+02  1.66533454E-15  0.00000000E+00
CELLS      1350      6750
         4           0           1          17          16
         4           1           2          18          17
         4           2           3          19          18
         4           3           4          20          19
         4           4           5          21          20
         4           5           6          22          21
         4           6           7          23          22
         4           7           8          24          23
         4           8           9          25          24
         4           9          10          26          25
         4          10          11          27          26
         4          11          12          28          27
         4          12          13          29          28
         4          13          14          30          29
         4          14          15          31          30
         4          16          17          33          32
         4          17          18          34          33
         4          18          19          35          34
         4          19          20          36          35
         4          20          21          37          36
         4          21          22          38          37
         4          22          23          39          38
         4          23          24          40          39
         4          24          25          41          40
         4          25          26          42          41
         4          26          27          43          42
         4          27          28          44          43
         4          28          29          45          44
         4          29          30          46          45
         4          30          31          47          46
         4          32          33          49          48
         4          33          34          50          49
         4          34          35          51          50
         4          35          36          52          51
         4          36          37          53          52
         4          37          38          54          53
         4          38          39          55          54
         4          39          40          56          55
         4          40          41          57          56
         4          41          42          58          57
         4          42          43          59          58
         4          43          44          60          59
         4          44          45          61          60
         4          45          46          62          61
         4          46          47          63          62
         4          48          49          65          64
         4          49          50          66          65
         4          50          51          67          66
         4          51          52          68          67
         4          52          53          69          68
         4          53          54          70          69
         4          54          55          71          70
         4          55          56          72          71
         4          56          57          73          72
         4          57          58          74          73
         4          58          59          75          74
         4          59          60          76          75
         4          60          61          77          76
         4          61          62          78          77
         4          62          63          79          78
         4          64          65          81          80
         4          65          66          82          81
         4          66          67          83          82
         4          67          68          84          83
         4          68          69          85          84
         4          69          70          86          85
         4          70          71          87          86
         4          71          72          88          87
         4          72          73          89          88
         4          73          74          90          89
         4          74          75          91          90
         4          75          76          92          91
         4          76          77          93          92
         4          77          78          94          93
         4          78          79          95          94
         4          80          81          97          96
         4          81          82          98          97
         4          82          83          99          98
         4          83          84         100          99
         4          84          85         101         100
         4          85          86         102         101
         4          86          87         103         102
         4          87          88         104         103
         4          88          89         105         104
         4          89          90         106         105
         4          90          91         107         106
         4          91          92         108         107
         4          92          93         109         108
         4          93          94         110         109
         4          94          95         111         110
         4          96          97         113         112
         4          97          98         114         113
         4          98          99         115         114
         4          99         100         116         115
         4         100         101         117         116
         4         101         102         118         117
         4         102         103         119         118
         4         103         104         120         119
         4         104         105         121         120
         4         105         106         122         121
         4         106         107         123         122
         4         107         108         124         123
         4         108         109         125         124
         4         109         110         126         125
         4         110         111         127         126
         4         112         113         129         128
         4         113         114         130         129
         4         114         115         131         130
         4         115         116         132         131
         4         116         117         133         132
         4         117         118         134         133
         4         118         119         135         134
         4         119         120         136         135
         4         120         121         137         136
         4         121         122         138         137
         4         122         123         139         138
         4         123         124         140         139
         4         124         125         141         140
         4         125         126         142         141
         4         126         127         143         142
         4         128         129         145         144
         4         129         130         146         145
         4         130         131         147         146
         4         131         132         148         147
         4         132         133         149         148
         4         133         134         150         149
         4         134         135         151         150
         4         135         136         152         151
         4         136         137         153         152
         4         137         138         154         153
         4         138         139         155         154
         4         139         140         156         155
         4         140         141         157         156
         4         141         142         158         157
         4         142         143         159         158
         4         144         145         161         160
         4         145         146         162         161
         4         146         147         163         162
         4         147         148         164         163
         4         148         149         165         164
         4         149         150         166         165
         4         150         151         167         166
         4         151         152         168         167
         4         152         153         169         168
         4         153         154         170         169
         4         154         155         171         170
         4         155         156         172         171
         4         156         157         173         172
         4         157         158         174         173
         4         158         159         175         174
         4         160         161         177         176
         4         161         162         178         177
         4         162         163         179         178
         4         163         164         180         179
         4         164         165         181         180
         4         165         166         182         181
         4         166         167         183         182
         4         167         168         184         183
         4         168         169         185         184
         4         169         170         186         185
         4         170         171         187         186
         4         171         172         188         187
         4         172         173         189         188
         4         173         174         190         189
         4         174         175         191         190
         4         176         177         193         192
         4         177         178         194         193
         4         178         179         195         194
         4         179         180         196         195
         4         180         181         197         196
         4         181         182         198         197
         4         182         183         199         198
         4         183         184         200         199
         4         184         185         201         200
         4         185         186         202         201
         4         186         187         203         202
         4         187         188         204         203
         4         188         189         205         204
         4         189         190         206         205
         4         190         191         207         206
         4         192         193         209         208
         4         193         194         210         209
         4         194         195         211         210
         4         195         196         212         211
         4         196         197         213         212
         4         197         198         214         213
         4         198         199         215         214
         4         199         200         216         215
         4         200         201         217         216
         4         201         202         218         217
         4         202         203         219         218
         4         203         204         220         219
         4         204         205         221         220
         4         205         206         222         221
         4         206         207         223         222
         4         208         209         225         224
         4         209         210         226         225
         4         210         211         227         226
         4         211         212         228         227
         4         212         213         229         228
         4         213         214         230         229
         4         214         215         231         230
         4         215         216         232         231
         4         216         217         233         232
         4         217         218         234         233
         4         218         219         235         234
         4         219         220         236         235
         4         220         221         237         236
         4         221         222         238         237
         4         222         223         239         238
         4         224         225         241         240
         4         225         226         242         241
         4         226         227         243         242
         4         227         228         244         243
         4         228         229         245         244
         4         229         230         246         245
         4         230         231         247         246
         4         231         232         248         247
         4         232         233         249         248
         4         233         234         250         249
         4         234         235         251         250
         4         235         236         252         251
         4         236         237         253         252
         4         237         238         254         253
         4         238         239         255         254
         4         240         241         257         256
         4         241         242         258         257
         4         242         243         259         258
         4         243         244         260         259
         4         244         245         261         260
         4         245         246         262         261
         4         246         247         263         262
         4         247         248         264         263
         4         248         249         265         264
         4         249         250         266         265
         4         250         251         267         266
         4         251         252         268         267
         4         252         253         269         268
         4         253         254         270         269
         4         254         255         271         270
         4         256         257         273         272
         4         257         258         274         273
         4         258         259         275         274
         4         259         260         276         275
         4         260         261         277         276
         4         261         262         278         277
         4         262         263         279         278
         4         263         264         280         279
         4         264         265         281         280
         4         265         266         282         281
         4         266         267         283         282
         4         267         268         284         283
         4         268         269         285         284
         4         269         270         286         285
         4         270         271         287         286
         4         272         273         289         288
         4         273         274         290         289
         4         274         275         291         290
         4         275         276         292         291
         4         276         277         293         292
         4         277         278         294         293
         4         278         279         295         294
         4         279         280         296         295
         4         280         281         297         296
         4         281         282         298         297
         4         282         283         299         298
         4         283         284         300         299
         4         284         285         301         300
         4         285         286         302         301
         4         286         287         303         302
         4         288         289         305         304
         4         289         290         306         305
         4         290         291         307         306
         4         291         292         308         307
         4         292         293         309         308
         4         293         294         310         309
         4         294         295         311         310
         4         295         296         312         311
         4         296         297         313         312
         4         297         298         314         313
         4         298         299         315         314
         4         299         300         316         315
         4         300         301         317         316
         4         301         302         318         317
         4         302         303         319         318
         4         304         305         321         320
         4         305         306         322         321
         4         306         307         323         322
         4         307         308         324         323
         4         308         309         325         324
         4         309         310         326         325
         4         310         311         327         326
         4         311         312         328         327
         4         312         313         329         328
         4         313         314         330         329
         4         314         315         331         330
         4         315         316         332         331
         4         316         317         333         332
         4         317         318         334         333
         4         318         319         335         334
         4         320         321         337         336
         4         321         322         338         337
         4         322         323         339         338
         4         323         324         340         339
         4         324         325         341         340
         4         325         326         342         341
         4         326         327         343         342
         4         327         328         344         343
         4         328         329         345         344
         4         329         330         346         345
         4         330         331         347         346
         4         331         332         348         347
         4         332         333         349         348
         4         333         334         350         349
         4         334         335         351         350
         4         336         337         353         352
         4         337         338         354         353
         4         338         339         355         354
         4         339         340         356         355
         4         340         341         357         356
         4         341         342         358         357
         4         342         343         359         358
         4         343         344         360         359
         4         344         345         361         360
         4         345         346         362         361
         4         346         347         363         362
         4         347         348         364         363
         4         348         349         365         364
         4         349         350         366         365
         4         350         351         367         366
         4         352         353         369         368
         4         353         354         370         369
         4         354         355         371         370
         4         355         356         372         371
         4         356         357         373         372
         4         357         358         374         373
         4         358         359         375         374
         4         359         360         376         375
         4         360         361         377         376
         4         361         362         378         377
         4         362         363         379         378
         4         363         364         380         379
         4         364         365         381         380
         4         365         366         382         381
         4         366         367         383         382
         4         368         369         385         384
         4         369         370         386         385
         4         370         371         387         386
         4         371         372         388         387
         4         372         373         389         388
         4         373         374         390         389
         4         374         375         391         390
         4         375         376         392         391
         4         376         377         393         392
         4         377         378         394         393
         4         378         379         395         394
         4         379         380         396         395
         4         380         381         397         396
         4         381         382         398         397
         4         382         383         399         398
         4         384         385         401         400
         4         385         386         402         401
         4         386         387         403         402
         4         387         388         404         403
         4         388         389         405         404
         4         389         390         406         405
         4         390         391         407         406
         4         391         392         408         407
         4         392         393         409         408
         4         393         394         410         409
         4         394         395         411         410
         4         395         396         412         411
         4         396         397         413         412
         4         397         398         414         413
         4         398         399         415         414
         4         400         401         417         416
         4         401         402         418         417
         4         402         403         419         418
         4         403         404         420         419
         4         404         405         421         420
         4         405         406         422         421
         4         406         407         423         422
         4         407         408         424         423
         4         408         409         425         424
         4         409         410         426         425
         4         410         411         427         426
         4         411         412         428         427
         4         412         413         429         428
         4         413         414         430         429
         4         414         415         431         430
         4         416         417         433         432
         4         417         418         434         433
         4         418         419         435         434
         4         419         420         436         435
         4         420         421         437         436
         4         421         422         438         437
         4         422         423         439         438
         4         423         424         440         439
         4         424         425         441         440
         4         425         426         442         441
         4         426         427         443         442
         4         427         428         444         443
         4         428         429         445         444
         4         429         430         446         445
         4         430         431         447         446
         4         432         433         449         448
         4         433         434         450         449
         4         434         435         451         450
         4         435         436         452         451
         4         436         437         453         452
         4         437         438         454         453
         4         438         439         455         454
         4         439         440         456         455
         4         440         441         457         456
         4         441         442         458         457
         4         442         443         459         458
         4         443         444         460         459
         4         444         445         461         460
         4         445         446         462         461
         4         446         447         463         462
         4         448         449         465         464
         4         449         450         466         465
         4         450         451         467         466
         4         451         452         468         467
         4         452         453         469         468
         4         453         454         470         469
         4         454         455         471         470
         4         455         456         472         471
         4         456         457         473         472
         4         457         458         474         473
         4         458         459         475         474
         4         459         460         476         475
         4         460         461         477         476
         4         461         462         478         477
         4         462         463         479         478
         4         464         465         481         480
         4         465         466         482         481
         4         466         467         483         482
         4         467         468         484         483
         4         468         469         485         484
         4         469         470         486         485
         4         470         471         487         486
         4         471         472         488         487
         4         472         473         489         488
         4         473         474         490         489
         4         474         475         491         490
         4         475         476         492         491
         4         476         477         493         492
         4         477         478         494         493
         4         478         479         495         494
         4         480         481         497         496
         4         481         482         498         497
         4         482         483         499         498
         4         483         484         500         499
         4         484         485         501         500
         4         485         486         502         501
         4         486         487         503         502
         4         487         488         504         503
         4         488         489         505         504
         4         489         490         506         505
         4         490         491         507         506
         4         491         492         508         507
         4         492         493         509         508
         4         493         494         510         509
         4         494         495         511         510
         4         496         497         513         512
         4         497         498         514         513
         4         498         499         515         514
         4         499         500         516         515
         4         500         501         517         516
         4         501         502         518         517
         4         502         503         519         518
         4         503         504         520         519
         4         504         505         521         520
         4         505         506         522         521
         4         506         507         523         522
         4         507         508         524         523
         4         508         509         525         524
         4         509         510         526         525
         4         510         511         527         526
         4         512         513         529         528
         4         513         514         530         529
         4         514         515         531         530
         4         515         516         532         531
         4         516         517         533         532
         4         517         518         534         533
         4         518         519         535         534
         4         519         520         536         535
         4         520         521         537         536
         4         521         522         538         537
         4         522         523         539         538
         4         523         524         540         539
         4         524         525         541         540
         4         525         526         542         541
         4         526         527         543         542
         4         528         529         545         544
         4         529         530         546         545
         4         530         531         547         546
         4         531         532         548         547
         4         532         533         549         548
         4         533         534         550         549
         4         534         535         551         550
         4         535         536         552         551
         4         536         537         553         552
         4         537         538         554         553
         4         538         539         555         554
         4         539         540         556         555
         4         540         541         557         556
         4         541         542         558         557
         4         542         543         559         558
         4         544         545         561         560
         4         545         546         562         561
         4         546         547         563         562
         4         547         548         564         563
         4         548         549         565         564
         4         549         550         566         565
         4         550         551         567         566
         4         551         552         568         567
         4         552         553         569         568
         4         553         554         570         569
         4         554         555         571         570
         4         555         556         572         571
         4         556         557         573         572
         4         557         558         574         573
         4         558         559         575         574
         4         560         561         577         576
         4         561         562         578         577
         4         562         563         579         578
         4         563         564         580         579
         4         564         565         581         580
         4         565         566         582         581
         4         566         567         583         582
         4         567         568         584         583
         4         568         569         585         584
         4         569         570         586         585
         4         570         571         587         586
         4         571         572         588         587
         4         572         573         589         588
         4         573         574         590         589
         4         574         575         591         590
         4         576         577         593         592
         4         577         578         594         593
         4         578         579         595         594
         4         579         580         596         595
         4         580         581         597         596
         4         581         582         598         597
         4         582         583         599         598
         4         583         584         600         599
         4         584         585         601         600
         4         585         586         602         601
         4         586         587         603         602
         4         587         588         604         603
         4         588         589         605         604
         4         589         590         606         605
         4         590         591         607         606
         4         592         593         609         608
         4         593         594         610         609
         4         594         595         611         610
         4         595         596         612         611
         4         596         597         613         612
         4         597         598         614         613
         4         598         599         615         614
         4         599         600         616         615
         4         600         601         617         616
         4         601         602         618         617
         4         602         603         619         618
         4         603         604         620         619
         4         604         605         621         620
         4         605         606         622         621
         4         606         607         623         622
         4         608         609         625         624
         4         609         610         626         625
         4         610         611         627         626
         4         611         612         628         627
         4         612         613         629         628
         4         613         614         630         629
         4         614         615         631         630
         4         615         616         632         631
         4         616         617         633         632
         4         617         618         634         633
         4         618         619         635         634
         4         619         620         636         635
         4         620         621         637         636
         4         621         622         638         637
         4         622         623         639         638
         4         624         625         641         640
         4         625         626         642         641
         4         626         627         643         642
         4         627         628         644         643
         4         628         629         645         644
         4         629         630         646         645
         4         630         631         647         646
         4         631         632         648         647
         4         632         633         649         648
         4         633         634         650         649
         4         634         635         651         650
         4         635         636         652         651
         4         636         637         653         652
         4         637         638         654         653
         4         638         639         655         654
         4         640         641         657         656
         4         641         642         658         657
         4         642         643         659         658
         4         643         644         660         659
         4         644         645         661         660
         4         645         646         662         661
         4         646         647         663         662
         4         647         648         664         663
         4         648         649         665         664
         4         649         650         666         665
         4         650         651         667         666
         4         651         652         668         667
         4         652         653         669         668
         4         653         654         670         669
         4         654         655         671         670
         4         656         657         673         672
         4         657         658         674         673
         4         658         659         675         674
         4         659         660         676         675
         4         660         661         677         676
         4         661         662         678         677
         4         662         663         679         678
         4         663         664         680         679
         4         664         665         681         680
         4         665         666         682         681
         4         666         667         683         682
         4         667         668         684         683
         4         668         669         685         684
         4         669         670         686         685
         4         670         671         687         686
         4         672         673         689         688
         4         673         674         690         689
         4         674         675         691         690
         4         675         676         692         691
         4         676         677         693         692
         4         677         678         694         693
         4         678         679         695         694
         4         679         680         696         695
         4         680         681         697         696
         4         681         682         698         697
         4         682         683         699         698
         4         683         684         700         699
         4         684         685         701         700
         4         685         686         702         701
         4         686         687         703         702
         4         688         689         705         704
         4         689         690         706         705
         4         690         691         707         706
         4         691         692         708         707
         4         692         693         709         708
         4         693         694         710         709
         4         694         695         711         710
         4         695         696         712         711
         4         696         697         713         712
         4         697         698         714         713
         4         698         699         715         714
         4         699         700         716         715
         4         700         701         717         716
         4         701         702         718         717
         4         702         703         719         718
         4         704         705         721         720
         4         705         706         722         721
         4         706         707         723         722
         4         707         708         724         723
         4         708         709         725         724
         4         709         710         726         725
         4         710         711         727         726
         4         711         712         728         727
         4         712         713         729         728
         4         713         714         730         729
         4         714         715         731         730
         4         715         716         732         731
         4         716         717         733         732
         4         717         718         734         733
         4         718         719         735         734
         4         720         721         737         736
         4         721         722         738         737
         4         722         723         739         738
         4         723         724         740         739
         4         724         725         741         740
         4         725         726         742         741
         4         726         727         743         742
         4         727         728         744         743
         4         728         729         745         744
         4         729         730         746         745
         4         730         731         747         746
         4         731         732         748         747
         4         732         733         749         748
         4         733         734         750         749
         4         734         735         751         750
         4         736         737         753         752
         4         737         738         754         753
         4         738         739         755         754
         4         739         740         756         755
         4         740         741         757         756
         4         741         742         758         757
         4         742         743         759         758
         4         743         744         760         759
         4         744         745         761         760
         4         745         746         762         761
         4         746         747         763         762
         4         747         748         764         763
         4         748         749         765         764
         4         749         750         766         765
         4         750         751         767         766
         4         752         753         769         768
         4         753         754         770         769
         4         754         755         771         770
         4         755         756         772         771
         4         756         757         773         772
         4         757         758         774         773
         4         758         759         775         774
         4         759         760         776         775
         4         760         761         777         776
         4         761         762         778         777
         4         762         763         779         778
         4         763         764         780         779
         4         764         765         781         780
         4         765         766         782         781
         4         766         767         783         782
         4         768         769         785         784
         4         769         770         786         785
         4         770         771         787         786
         4         771         772         788         787
         4         772         773         789         788
         4         773         774         790         789
         4         774         775         791         790
         4         775         776         792         791
         4         776         777         793         792
         4         777         778         794         793
         4         778         779         795         794
         4         779         780         796         795
         4         780         781         797         796
         4         781         782         798         797
         4         782         783         799         798
         4         784         785         801         800
         4         785         786         802         801
         4         786         787         803         802
         4         787         788         804         803
         4         788         789         805         804
         4         789         790         806         805
         4         790         791         807         806
         4         791         792         808         807
         4         792         793         809         808
         4         793         794         810         809
         4         794         795         811         810
         4         795         796         812         811
         4         796         797         813         812
         4         797         798         814         813
         4         798         799         815         814
         4         800         801         817         816
         4         801         802         818         817
         4         802         803         819         818
         4         803         804         820         819
         4         804         805         821         820
         4         805         806         822         821
         4         806         807         823         822
         4         807         808         824         823
         4         808         809         825         824
         4         809         810         826         825
         4         810         811         827         826
         4         811         812         828         827
         4         812         813         829         828
         4         813         814         830         829
         4         814         815         831         830
         4         816         817         833         832
         4         817         818         834         833
         4         818         819         835         834
         4         819         820         836         835
         4         820         821         837         836
         4         821         822         838         837
         4         822         823         839         838
         4         823         824         840         839
         4         824         825         841         840
         4         825         826         842         841
         4         826         827         843         842
         4         827         828         844         843
         4         828         829         845         844
         4         829         830         846         845
         4         830         831         847         846
         4         832         833         849         848
         4         833         834         850         849
         4         834         835         851         850
         4         835         836         852         851
         4         836         837         853         852
         4         837         838         854         853
         4         838         839         855         854
         4         839         840         856         855
         4         840         841         857         856
         4         841         842         858         857
         4         842         843         859         858
         4         843         844         860         859
         4         844         845         861         860
         4         845         846         862         861
         4         846         847         863         862
         4         848         849         865         864
         4         849         850         866         865
         4         850         851         867         866
         4         851         852         868         867
         4         852         853         869         868
         4         853         854         870         869
         4         854         855         871         870
         4         855         856         872         871
         4         856         857         873         872
         4         857         858         874         873
         4         858         859         875         874
         4         859         860         876         875
         4         860         861         877         876
         4         861         862         878         877
         4         862         863         879         878
         4         864         865         881         880
         4         865         866         882         881
         4         866         867         883         882
         4         867         868         884         883
         4         868         869         885         884
         4         869         870         886         885
         4         870         871         887         886
         4         871         872         888         887
         4         872         873         889         888
         4         873         874         890         889
         4         874         875         891         890
         4         875         876         892         891
         4         876         877         893         892
         4         877         878         894         893
         4         878         879         895         894
         4         880         881         897         896
         4         881         882         898         897
         4         882         883         899         898
         4         883         884         900         899
         4         884         885         901         900
         4         885         886         902         901
         4         886         887         903         902
         4         887         888         904         903
         4         888         889         905         904
         4         889         890         906         905
         4         890         891         907         906
         4         891         892         908         907
         4         892         893         909         908
         4         893         894         910         909
         4         894         895         911         910
         4         896         897         913         912
         4         897         898         914         913
         4         898         899         915         914
         4         899         900         916         915
         4         900         901         917         916
         4         901         902         918         917
         4         902         903         919         918
         4         903         904         920         919
         4         904         905         921         920
         4         905         906         922         921
         4         906         907         923         922
         4         907         908         924         923
         4         908         909         925         924
         4         909         910         926         925
         4         910         911         927         926
         4         912         913         929         928
         4         913         914         930         929
         4         914         915         931         930
         4         915         916         932         931
         4         916         917         933         932
         4         917         918         934         933
         4         918         919         935         934
         4         919         920         936         935
         4         920         921         937         936
         4         921         922         938         937
         4         922         923         939         938
         4         923         924         940         939
         4         924         925         941         940
         4         925         926         942         941
         4         926         927         943         942
         4         928         929         945         944
         4         929         930         946         945
         4         930         931         947         946
         4         931         932         948         947
         4         932         933         949         948
         4         933         934         950         949
         4         934         935         951         950
         4         935         936         952         951
         4         936         937         953         952
         4         937         938         954         953
         4         938         939         955         954
         4         939         940         956         955
         4         940         941         957         956
         4         941         942         958         957
         4         942         943         959         958
         4         944         945         961         960
         4         945         946         962         961
         4         946         947         963         962
         4         947         948         964         963
         4         948         949         965         964
         4         949         950         966         965
         4         950         951         967         966
         4         951         952         968         967
         4         952         953         969         968
         4         953         954         970         969
         4         954         955         971         970
         4         955         956         972         971
         4         956         957         973         972
         4         957         958         974         973
         4         958         959         975         974
         4         960         961         977         976
         4         961         962         978         977
         4         962         963         979         978
         4         963         964         980         979
         4         964         965         981         980
         4         965         966         982         981
         4         966         967         983         982
         4         967         968         984         983
         4         968         969         985         984
         4         969         970         986         985
         4         970         971         987         986
         4         971         972         988         987
         4         972         973         989         988
         4         973         974         990         989
         4         974         975         991         990
         4         976         977         993         992
         4         977         978         994         993
         4         978         979         995         994
         4         979         980         996         995
         4         980         981         997         996
         4         981         982         998         997
         4         982         983         999         998
         4         983         984        1000         999
         4         984         985        1001        1000
         4         985         986        1002        1001
         4         986         987        1003        1002
         4         987         988        1004        1003
         4         988         989        1005        1004
         4         989         990        1006        1005
         4         990         991        1007        1006
         4         992         993        1009        1008
         4         993         994        1010        1009
         4         994         995        1011        1010
         4         995         996        1012        1011
         4         996         997        1013        1012
         4         997         998        1014        1013
         4         998         999        1015        1014
         4         999        1000        1016        1015
         4        1000        1001        1017        1016
         4        1001        1002        1018        1017
         4        1002        1003        1019        1018
         4        1003        1004        1020        1019
         4        1004        1005        1021        1020
         4        1005        1006        1022        1021
         4        1006        1007        1023        1022
         4        1008        1009        1025        1024
         4        1009        1010        1026        1025
         4        1010        1011        1027        1026
         4        1011        1012        1028        1027
         4        1012        1013        1029        1028
         4        1013        1014        1030        1029
         4        1014        1015        1031        1030
         4        1015        1016        1032        1031
         4        1016        1017        1033        1032
         4        1017        1018        1034        1033
         4        1018        1019        1035        1034
         4        1019        1020        1036        1035
         4        1020        1021        1037        1036
         4        1021        1022        1038        1037
         4        1022        1023        1039        1038
         4        1024        1025        1041        1040
         4        1025        1026        1042        1041
         4        1026        1027        1043        1042
         4        1027        1028        1044        1043
         4        1028        1029        1045        1044
         4        1029        1030        1046        1045
         4        1030        1031        1047        1046
         4        1031        1032        1048        1047
         4        1032        1033        1049        1048
         4        1033        1034        1050        1049
         4        1034        1035        1051        1050
         4        1035        1036        1052        1051
         4        1036        1037        1053        1052
         4        1037        1038        1054        1053
         4        1038        1039        1055        1054
         4        1040        1041        1057        1056
         4        1041        1042        1058        1057
         4        1042        1043        1059        1058
         4        1043        1044        1060        1059
         4        1044        1045        1061        1060
         4        1045        1046        1062        1061
         4        1046        1047        1063        1062
         4        1047        1048        1064        1063
         4        1048        1049        1065        1064
         4        1049        1050        1066        1065
         4        1050        1051        1067        1066
         4        1051        1052        1068        1067
         4        1052        1053        1069        1068
         4        1053        1054        1070        1069
         4        1054        1055        1071        1070
         4        1056        1057        1073        1072
         4        1057        1058        1074        1073
         4        1058        1059        1075        1074
         4        1059        1060        1076        1075
         4        1060        1061        1077        1076
         4        1061        1062        1078        1077
         4        1062        1063        1079        1078
         4        1063        1064        1080        1079
         4        1064        1065        1081        1080
         4        1065        1066        1082        1081
         4        1066        1067        1083        1082
         4        1067        1068        1084        1083
         4        1068        1069        1085        1084
         4        1069        1070        1086        1085
         4        1070        1071        1087        1086
         4        1072        1073        1089        1088
         4        1073        1074        1090        1089
         4        1074        1075        1091        1090
         4        1075        1076        1092        1091
         4        1076        1077        1093        1092
         4        1077        1078        1094        1093
         4        1078        1079        1095        1094
         4        1079        1080        1096        1095
         4        1080        1081        1097        1096
         4        1081        1082        1098        1097
         4        1082        1083        1099        1098
         4        1083        1084        1100        1099
         4        1084        1085        1101        1100
         4        1085        1086        1102        1101
         4        1086        1087        1103        1102
         4        1088        1089        1105        1104
         4        1089        1090        1106        1105
         4        1090        1091        1107        1106
         4        1091        1092        1108        1107
         4        1092        1093        1109        1108
         4        1093        1094        1110        1109
         4        1094        1095        1111        1110
         4        1095        1096        1112        1111
         4        1096        1097        1113        1112
         4        1097        1098        1114        1113
         4        1098        1099        1115        1114
         4        1099        1100        1116        1115
         4        1100        1101        1117        1116
         4        1101        1102        1118        1117
         4        1102        1103        1119        1118
         4        1104        1105        1121        1120
         4        1105        1106        1122        1121
         4        1106        1107        1123        1122
         4        1107        1108        1124        1123
         4        1108        1109        1125        1124
         4        1109        1110        1126        1125
         4        1110        1111        1127        1126
         4        1111        1112        1128        1127
         4        1112        1113        1129        1128
         4        1113        1114        1130        1129
         4        1114        1115        1131        1130
         4        1115        1116        1132        1131
         4        1116        1117        1133        1132
         4        1117        1118        1134        1133
         4        1118        1119        1135        1134
         4        1120        1121        1137        1136
         4        1121        1122        1138        1137
         4        1122        1123        1139        1138
         4        1123        1124        1140        1139
         4        1124        1125        1141        1140
         4        1125        1126        1142        1141
         4        1126        1127        1143        1142
         4        1127        1128        1144        1143
         4        1128        1129        1145        1144
         4        1129        1130        1146        1145
         4        1130        1131        1147        1146
         4        1131        1132        1148        1147
         4        1132        1133        1149        1148
         4        1133        1134        1150        1149
         4        1134        1135        1151        1150
         4        1136        1137        1153        1152
         4        1137        1138        1154        1153
         4        1138        1139        1155        1154
         4        1139        1140        1156        1155
         4        1140        1141        1157        1156
         4        1141        1142        1158        1157
         4        1142        1143        1159        1158
         4        1143        1144        1160        1159
         4        1144        1145        1161        1160
         4        1145        1146        1162        1161
         4        1146        1147        1163        1162
         4        1147        1148        1164        1163
         4        1148        1149        1165        1164
         4        1149        1150        1166        1165
         4        1150        1151        1167        1166
         4        1152        1153        1169        1168
         4        1153        1154        1170        1169
         4        1154        1155        1171        1170
         4        1155        1156        1172        1171
         4        1156        1157        1173        1172
         4        1157        1158        1174        1173
         4        1158        1159        1175        1174
         4        1159        1160        1176        1175
         4        1160        1161        1177        1176
         4        1161        1162        1178        1177
         4        1162        1163        1179        1178
         4        1163        1164        1180        1179
         4        1164        1165        1181        1180
         4        1165        1166        1182        1181
         4        1166        1167        1183        1182
         4        1168        1169        1185        1184
         4        1169        1170        1186        1185
         4        1170        1171        1187        1186
         4        1171        1172        1188        1187
         4        1172        1173        1189        1188
         4        1173        1174        1190        1189
         4        1174        1175        1191        1190
         4        1175        1176        1192        1191
         4        1176        1177        1193        1192
         4        1177        1178        1194        1193
         4        1178        1179        1195        1194
         4        1179        1180        1196        1195
         4        1180        1181        1197        1196
         4        1181        1182        1198        1197
         4        1182        1183        1199        1198
         4        1184        1185        1201        1200
         4        1185        1186        1202        1201
         4        1186        1187        1203        1202
         4        1187        1188        1204        1203
         4        1188        1189        1205        1204
         4        1189        1190        1206        1205
         4        1190        1191        1207        1206
         4        1191        1192        1208        1207
         4        1192        1193        1209        1208
         4        1193        1194        1210        1209
         4        1194        1195        1211        1210
         4        1195        1196        1212        1211
         4        1196        1197        1213        1212
         4        1197        1198        1214        1213
         4        1198        1199        1215        1214
         4        1200        1201        1217        1216
         4        1201        1202        1218        1217
         4        1202        1203        1219        1218
         4        1203        1204        1220        1219
         4        1204        1205        1221        1220
         4        1205        1206        1222        1221
         4        1206        1207        1223        1222
         4        1207        1208        1224        1223
         4        1208        1209        1225        1224
         4        1209        1210        1226        1225
         4        1210        1211        1227        1226
         4        1211        1212        1228        1227
         4        1212        1213        1229        1228
         4        1213        1214        1230        1229
         4        1214        1215        1231        1230
         4        1216        1217        1233        1232
         4        1217        1218        1234        1233
         4        1218        1219        1235        1234
         4        1219        1220        1236        1235
         4        1220        1221        1237        1236
         4        1221        1222        1238        1237
         4        1222        1223        1239        1238
         4        1223        1224        1240        1239
         4        1224        1225        1241        1240
         4        1225        1226        1242        1241
         4        1226        1227        1243        1242
         4        1227        1228        1244        1243
         4        1228        1229        1245        1244
         4        1229        1230        1246        1245
         4        1230        1231        1247        1246
         4        1232        1233        1249        1248
         4        1233        1234        1250        1249
         4        1234        1235        1251        1250
         4        1235        1236        1252        1251
         4        1236        1237        1253        1252
         4        1237        1238        1254        1253
         4        1238        1239        1255        1254
         4        1239        1240        1256        1255
         4        1240        1241        1257        1256
         4        1241        1242        1258        1257
         4        1242        1243        1259        1258
         4        1243        1244        1260        1259
         4        1244        1245        1261        1260
         4        1245        1246        1262        1261
         4        1246        1247        1263        1262
         4        1248        1249        1265        1264
         4        1249        1250        1266        1265
         4        1250        1251        1267        1266
         4        1251        1252        1268        1267
         4        1252        1253        1269        1268
         4        1253        1254        1270        1269
         4        1254        1255        1271        1270
         4        1255        1256        1272        1271
         4        1256        1257        1273        1272
         4        1257        1258        1274        1273
         4        1258        1259        1275        1274
         4        1259        1260        1276        1275
         4        1260        1261        1277        1276
         4        1261        1262        1278        1277
         4        1262        1263        1279        1278
         4        1264        1265        1281        1280
         4        1265        1266        1282        1281
         4        1266        1267        1283        1282
         4        1267        1268        1284        1283
         4        1268        1269        1285        1284
         4        1269        1270        1286        1285
         4        1270        1271        1287        1286
         4        1271        1272        1288        1287
         4        1272        1273        1289        1288
         4        1273        1274        1290        1289
         4        1274        1275        1291        1290
         4        1275        1276        1292        1291
         4        1276        1277        1293        1292
         4        1277        1278        1294        1293
         4        1278        1279        1295        1294
         4        1280        1281        1297        1296
         4        1281        1282        1298        1297
         4        1282        1283        1299        1298
         4        1283        1284        1300        1299
         4        1284        1285        1301        1300
         4        1285        1286        1302        1301
         4        1286        1287        1303        1302
         4        1287        1288        1304        1303
         4        1288        1289        1305        1304
         4        1289        1290        1306        1305
         4        1290        1291        1307        1306
         4        1291        1292        1308        1307
         4        1292        1293        1309        1308
         4        1293        1294        1310        1309
         4        1294        1295        1311        1310
         4        1296        1297        1313        1312
         4        1297        1298        1314        1313
         4        1298        1299        1315        1314
         4        1299        1300        1316        1315
         4        1300        1301        1317        1316
         4        1301        1302        1318        1317
         4        1302        1303        1319        1318
         4        1303        1304        1320        1319
         4        1304        1305        1321        1320
         4        1305        1306        1322        1321
         4        1306        1307        1323        1322
         4        1307        1308        1324        1323
         4        1308        1309        1325        1324
         4        1309        1310        1326        1325
         4        1310        1311        1327        1326
         4        1312        1313        1329        1328
         4        1313        1314        1330        1329
         4        1314        1315        1331        1330
         4        1315        1316        1332        1331
         4        1316        1317        1333        1332
         4        1317        1318        1334        1333
         4        1318        1319        1335        1334
         4        1319        1320        1336        1335
         4        1320        1321        1337        1336
         4        1321        1322        1338        1337
         4        1322        1323        1339        1338
         4        1323        1324        1340        1339
         4        1324        1325        1341        1340
         4        1325        1326        1342        1341
         4        1326        1327        1343        1342
         4        1328        1329        1345        1344
         4        1329        1330        1346        1345
         4        1330        1331        1347        1346
         4        1331        1332        1348        1347
         4        1332        1333        1349        1348
         4        1333        1334        1350        1349
         4        1334        1335        1351        1350
         4        1335        1336        1352        1351
         4        1336        1337        1353        1352
         4        1337        1338        1354        1353
         4        1338        1339        1355        1354
         4        1339        1340        1356        1355
         4        1340        1341        1357        1356
         4        1341        1342        1358        1357
         4        1342        1343        1359        1358
         4        1344        1345        1361        1360
         4        1345        1346        1362        1361
         4        1346        1347        1363        1362
         4        1347        1348        1364        1363
         4        1348        1349        1365        1364
         4        1349        1350        1366        1365
         4        1350        1351        1367        1366
         4        1351        1352        1368        1367
         4        1352        1353        1369        1368
         4        1353        1354        1370        1369
         4        1354        1355        1371        1370
         4        1355        1356        1372        1371
         4        1356        1357        1373        1372
         4        1357        1358        1374        1373
         4        1358        1359        1375        1374
         4        1360        1361        1377        1376
         4        1361        1362        1378        1377
         4        1362        1363        1379        1378
         4        1363        1364        1380        1379
         4        1364        1365        1381        1380
         4        1365        1366        1382        1381
         4        1366        1367        1383        1382
         4        1367        1368        1384        1383
         4        1368        1369        1385        1384
         4        1369        1370        1386        1385
         4        1370        1371        1387        1386
         4        1371        1372        1388        1387
         4        1372        1373        1389        1388
         4        1373        1374        1390        1389
         4        1374        1375        1391        1390
         4        1376        1377        1393        1392
         4        1377        1378        1394        1393
         4        1378        1379        1395        1394
         4        1379        1380        1396        1395
         4        1380        1381        1397        1396
         4        1381        1382        1398        1397
         4        1382        1383        1399        1398
         4        1383        1384        1400        1399
         4        1384        1385        1401        1400
         4        1385        1386        1402        1401
         4        1386        1387        1403        1402
         4        1387        1388        1404        1403
         4        1388        1389        1405        1404
         4        1389        1390        1406        1405
         4        1390        1391        1407        1406
         4        1392        1393        1409        1408
         4        1393        1394        1410        1409
         4        1394        1395        1411        1410
         4        1395        1396        1412        1411
         4        1396        1397        1413        1412
         4        1397        1398        1414        1413
         4        1398        1399        1415        1414
         4        1399        1400        1416        1415
         4        1400        1401        1417        1416
         4        1401        1402        1418        1417
         4        1402        1403        1419        1418
         4        1403        1404        1420        1419
         4        1404        1405        1421        1420
         4        1405        1406        1422        1421
         4        1406        1407        1423        1422
         4        1408        1409        1425        1424
         4        1409        1410        1426        1425
         4        1410        1411        1427        1426
         4        1411        1412        1428        1427
         4        1412        1413        1429        1428
         4        1413        1414        1430        1429
         4        1414        1415        1431        1430
         4        1415        1416        1432        1431
         4        1416        1417        1433        1432
         4        1417        1418        1434        1433
         4        1418        1419        1435        1434
         4        1419        1420        1436        1435
         4        1420        1421        1437        1436
         4        1421        1422        1438        1437
         4        1422        1423        1439        1438
         4        1424        1425        1441        1440
         4        1425        1426        1442        1441
         4        1426        1427        1443        1442
         4        1427        1428        1444        1443
         4        1428        1429        1445        1444
         4        1429        1430        1446        1445
         4        1430        1431        1447        1446
         4        1431        1432        1448        1447
         4        1432        1433        1449        1448
         4        1433        1434        1450        1449
         4        1434        1435        1451        1450
         4        1435        1436        1452        1451
         4        1436        1437        1453        1452
         4        1437        1438        1454        1453
         4        1438        1439        1455        1454
CELL_TYPES       1350
9
9
9
9
9
9
9
9
9
9
9
9
9
9
9
9
9
9
9
9
9
9
9
9
9
9
9
9
9
9
9
9
9
9
9
9
9
9
9
9
9
9
9
9
9
9
9
9
9
9
9
9
9
9
9
9
9
9
9
9
9
9
9
9
9
9
9
9
9
9
9
9
9
9
9
9
9
9
9
9
9
9
9
9
9
9
9
9
9
9
9
9
9
9
9
9
9
9
9
9
9
9
9
9
9
9
9
9
9
9
9
9
9
9
9
9
9
9
9
9
9
9
9
9
9
9
9
9
9
9
9
9
9
9
9
9
9
9
9
9
9
9
9
9
9
9
9
9
9
9
9
9
9
9
9
9
9
9
9
9
9
9
9
9
9
9
9
9
9
9
9
9
9
9
9
9
9
9
9
9
9
9
9
9
9
9
9
9
9
9
9
9
9
9
9
9
9
9
9
9
9
9
9
9
9
9
9
9
9
9
9
9
9
9
9
9
9
9
9
9
9
9
9
9
9
9
9
9
9
9
9
9
9
9
9
9
9
9
9
9
9
9
9
9
9
9
9
9
9
9
9
9
9
9
9
9
9
9
9
9
9
9
9
9
9
9
9
9
9
9
9
9
9
9
9
9
9
9
9
9
9
9
9
9
9
9
9
9
9
9
9
9
9
9
9
9
9
9
9
9
9
9
9
9
9
9
9
9
9
9
9
9
9
9
9
9
9
9
9
9
9
9
9
9
9
9
9
9
9
9
9
9
9
9
9
9
9
9
9
9
9
9
9
9
9
9
9
9
9
9
9
9
9
9
9
9
9
9
9
9
9
9
9
9
9
9
9
9
9
9
9
9
9
9
9
9
9
9
9
9
9
9
9
9
9
9
9
9
9
9
9
9
9
9
9
9
9
9
9
9
9
9
9
9
9
9
9
9
9
9
9
9
9
9
9
9
9
9
9
9
9
9
9
9
9
9
9
9
9
9
9
9
9
9
9
9
9
9
9
9
9
9
9
9
9
9
9
9
9
9
9
9
9
9
9
9
9
9
9
9
9
9
9
9
9
9
9
9
9
9
9
9
9
9
9
9
9
9
9
9
9
9
9
9
9
9
9
9
9
9
9
9
9
9
9
9
9
9
9
9
9
9
9
9
9
9
9
9
9
9
9
9
9
9
9
9
9
9
9
9
9
9
9
9
9
9
9
9
9
9
9
9
9
9
9
9
9
9
9
9
9
9
9
9
9
9
9
9
9
9
9
9
9
9
9
9
9
9
9
9
9
9
9
9
9
9
9
9
9
9
9
9
9
9
9
9
9
9
9
9
9
9
9
9
9
9
9
9
9
9
9
9
9
9
9
9
9
9
9
9
9
9
9
9
9
9
9
9
9
9
9
9
9
9
9
9
9
9
9
9
9
9
9
9
9
9
9
9
9
9
9
9
9
9
9
9
9
9
9
9
9
9
9
9
9
9
9
9
9
9
9
9
9
9
9
9
9
9
9
9
9
9
9
9
9
9
9
9
9
9
9
9
9
9
9
9
9
9
9
9
9
9
9
9
9
9
9
9
9
9
9
9
9
9
9
9
9
9
9
9
9
9
9
9
9
9
9
9
9
9
9
9
9
9
9
9
9
9
9
9
9
9
9
9
9
9
9
9
9
9
9
9
9
9
9
9
9
9
9
9
9
9
9
9
9
9
9
9
9
9
9
9
9
9
9
9
9
9
9
9
9
9
9
9
9
9
9
9
9
9
9
9
9
9
9
9
9
9
9
9
9
9
9
9
9
9
9
9
9
9
9
9
9
9
9
9
9
9
9
9
9
9
9
9
9
9
9
9
9
9
9
9
9
9
9
9
9
9
9
9
9
9
9
9
9
9
9
9
9
9
9
9
9
9
9
9
9
9
9
9
9
9
9
9
9
9
9
9
9
9
9
9
9
9
9
9
9
9
9
9
9
9
9
9
9
9
9
9
9
9
9
9
9
9
9
9
9
9
9
9
9
9
9
9
9
9
9
9
9
9
9
9
9
9
9
9
9
9
9
9
9
9
9
9
9
9
9
9
9
9
9
9
9
9
9
9
9
9
9
9
9
9
9
9
9
9
9
9
9
9
9
9
9
9
9
9
9
9
9
9
9
9
9
9
9
9
9
9
9
9
9
9
9
9
9
9
9
9
9
9
9
9
9
9
9
9
9
9
9
9
9
9
9
9
9
9
9
9
9
9
9
9
9
9
9
9
9
9
9
9
9
9
9
9
9
9
9
9
9
9
9
9
9
9
9
9
9
9
9
9
9
9
9
9
9
9
9
9
9
9
9
9
9
9
9
9
9
9
9
9
9
9
9
9
9
9
9
9
9
9
9
9
9
9
9
9
9
9
9
9
9
9
9
9
9
9
9
9
9
9
9
9
9
9
9
9
9
9
9
9
9
9
9
9
9
9
9
9
9
9
9
9
9
9
9
9
9
9
9
9
9
9
9
9
9
9
9
9
9
9
9
9
9
9
9
9
9
9
9
9
9
9
9
9
9
9
9
9
9
9
9
9
9
9
9
9
9
9
9
9
9
9
9
9
9
9
9
9
9
9
9
9
9
9
9
9
9
9
9
9
9
9
9
9
9
9
9
9
9
9
9
9
9
9
9
9
9
9
9
9
9
9
9
9
9
9
9
9
9
9
9
9
9
9
9
9
9
9
9
9
9
9
9
9
9
9
9
9
9
9
9
9
9
9
9
9
9
9
9
9
9
9
9
9
9
9
9
9
9
9
9
9
9
9
9
9
9
9
9
9
9
9
9
9
9
9
9
9
9
9
9
9
9
9
9
9
9
9
9
9
9
9
9
9
9
9
9
9
9
9
9
9
9
9
9
9
9
9
9
9
9
9
9
9
9
9
9
9
9
9
9
9
9
9
9
9
9
9
9
9
9
9
9
9
9
9
9
9
9
9
9
9
9
9
9
9
9
9
9
9
9
9
9
9
9
9
9
9
9
9
9
9
9
9
9
9
9
9
9
9
9
9
9
9
9
9
9
9
9
9
9
9
9
9
9
9
9
9
9
9
POINT_DATA      1456
SCALARS p double 
LOOKUP_TABLE default
   265317.095904758     
   265317.095904757     
   265317.095904757     
   265317.095904757     
   265317.095904757     
   265317.095904757     
   265317.095904757     
   265317.095904757     
   265317.095904757     
   265317.095904757     
   265317.095904757     
   265317.095904757     
   265317.095904757     
   265317.095904757     
   265317.095904757     
   265317.095904757     
   265297.613086213     
   265297.613086213     
   265297.613086213     
   265297.613086213     
   265297.613086213     
   265297.613086213     
   265297.613086213     
   265297.613086213     
   265297.613086213     
   265297.613086213     
   265297.613086213     
   265297.613086213     
   265297.613086213     
   265297.613086213     
   265297.613086213     
   265297.613086213     
   265239.139577880     
   265239.139577880     
   265239.139577880     
   265239.139577880     
   265239.139577879     
   265239.139577879     
   265239.139577879     
   265239.139577879     
   265239.139577879     
   265239.139577879     
   265239.139577879     
   265239.139577879     
   265239.139577879     
   265239.139577879     
   265239.139577879     
   265239.139577879     
   265141.600215925     
   265141.600215925     
   265141.600215925     
   265141.600215925     
   265141.600215924     
   265141.600215924     
   265141.600215924     
   265141.600215924     
   265141.600215924     
   265141.600215924     
   265141.600215924     
   265141.600215925     
   265141.600215924     
   265141.600215924     
   265141.600215924     
   265141.600215924     
   265004.869708334     
   265004.869708333     
   265004.869708333     
   265004.869708333     
   265004.869708333     
   265004.869708333     
   265004.869708333     
   265004.869708333     
   265004.869708333     
   265004.869708333     
   265004.869708333     
   265004.869708333     
   265004.869708333     
   265004.869708333     
   265004.869708333     
   265004.869708333     
   264828.772606938     
   264828.772606938     
   264828.772606938     
   264828.772606938     
   264828.772606938     
   264828.772606938     
   264828.772606938     
   264828.772606938     
   264828.772606938     
   264828.772606938     
   264828.772606938     
   264828.772606938     
   264828.772606938     
   264828.772606938     
   264828.772606938     
   264828.772606938     
   264613.083269210     
   264613.083269210     
   264613.083269210     
   264613.083269210     
   264613.083269210     
   264613.083269210     
   264613.083269210     
   264613.083269209     
   264613.083269210     
   264613.083269210     
   264613.083269209     
   264613.083269209     
   264613.083269209     
   264613.083269210     
   264613.083269210     
   264613.083269210     
   264357.525810756     
   264357.525810756     
   264357.525810757     
   264357.525810756     
   264357.525810756     
   264357.525810757     
   264357.525810757     
   264357.525810757     
   264357.525810756     
   264357.525810756     
   264357.525810756     
   264357.525810756     
   264357.525810756     
   264357.525810757     
   264357.525810757     
   264357.525810757     
   264061.774049777     
   264061.774049777     
   264061.774049777     
   264061.774049777     
   264061.774049777     
   264061.774049777     
   264061.774049777     
   264061.774049777     
   264061.774049777     
   264061.774049777     
   264061.774049777     
   264061.774049777     
   264061.774049777     
   264061.774049777     
   264061.774049777     
   264061.774049777     
   263725.451444973     
   263725.451444973     
   263725.451444973     
   263725.451444973     
   263725.451444973     
   263725.451444973     
   263725.451444973     
   263725.451444973     
   263725.451444973     
   263725.451444973     
   263725.451444973     
   263725.451444972     
   263725.451444972     
   263725.451444972     
   263725.451444972     
   263725.451444972     
   263348.131028743     
   263348.131028743     
   263348.131028743     
   263348.131028743     
   263348.131028743     
   263348.131028743     
   263348.131028743     
   263348.131028743     
   263348.131028743     
   263348.131028743     
   263348.131028743     
   263348.131028743     
   263348.131028743     
   263348.131028743     
   263348.131028743     
   263348.131028743     
   262929.335337780     
   262929.335337780     
   262929.335337780     
   262929.335337780     
   262929.335337780     
   262929.335337780     
   262929.335337780     
   262929.335337780     
   262929.335337780     
   262929.335337780     
   262929.335337780     
   262929.335337780     
   262929.335337780     
   262929.335337780     
   262929.335337780     
   262929.335337780     
   262468.536343486     
   262468.536343486     
   262468.536343486     
   262468.536343486     
   262468.536343486     
   262468.536343486     
   262468.536343486     
   262468.536343486     
   262468.536343486     
   262468.536343486     
   262468.536343486     
   262468.536343486     
   262468.536343486     
   262468.536343486     
   262468.536343486     
   262468.536343486     
   261965.155384975     
   261965.155384975     
   261965.155384975     
   261965.155384975     
   261965.155384975     
   261965.155384975     
   261965.155384975     
   261965.155384975     
   261965.155384975     
   261965.155384975     
   261965.155384975     
   261965.155384975     
   261965.155384975     
   261965.155384975     
   261965.155384975     
   261965.155384975     
   261418.563107748     
   261418.563107748     
   261418.563107748     
   261418.563107748     
   261418.563107748     
   261418.563107748     
   261418.563107748     
   261418.563107748     
   261418.563107748     
   261418.563107748     
   261418.563107748     
   261418.563107748     
   261418.563107748     
   261418.563107748     
   261418.563107748     
   261418.563107748     
   260828.079411486     
   260828.079411486     
   260828.079411486     
   260828.079411486     
   260828.079411486     
   260828.079411486     
   260828.079411486     
   260828.079411486     
   260828.079411486     
   260828.079411486     
   260828.079411486     
   260828.079411486     
   260828.079411486     
   260828.079411486     
   260828.079411486     
   260828.079411486     
   260192.973410766     
   260192.973410766     
   260192.973410767     
   260192.973410767     
   260192.973410767     
   260192.973410767     
   260192.973410767     
   260192.973410767     
   260192.973410767     
   260192.973410766     
   260192.973410767     
   260192.973410766     
   260192.973410766     
   260192.973410766     
   260192.973410766     
   260192.973410766     
   259512.463412911     
   259512.463412911     
   259512.463412911     
   259512.463412911     
   259512.463412911     
   259512.463412911     
   259512.463412911     
   259512.463412911     
   259512.463412911     
   259512.463412911     
   259512.463412911     
   259512.463412911     
   259512.463412911     
   259512.463412911     
   259512.463412911     
   259512.463412911     
   258785.716917550     
   258785.716917550     
   258785.716917550     
   258785.716917550     
   258785.716917550     
   258785.716917550     
   258785.716917550     
   258785.716917550     
   258785.716917549     
   258785.716917549     
   258785.716917549     
   258785.716917550     
   258785.716917550     
   258785.716917549     
   258785.716917550     
   258785.716917550     
   258011.850642929     
   258011.850642929     
   258011.850642929     
   258011.850642929     
   258011.850642929     
   258011.850642929     
   258011.850642929     
   258011.850642929     
   258011.850642929     
   258011.850642929     
   258011.850642929     
   258011.850642929     
   258011.850642929     
   258011.850642929     
   258011.850642929     
   258011.850642929     
   257189.930584429     
   257189.930584429     
   257189.930584429     
   257189.930584429     
   257189.930584429     
   257189.930584429     
   257189.930584428     
   257189.930584428     
   257189.930584428     
   257189.930584428     
   257189.930584428     
   257189.930584428     
   257189.930584428     
   257189.930584428     
   257189.930584428     
   257189.930584428     
   256318.972111213     
   256318.972111213     
   256318.972111213     
   256318.972111213     
   256318.972111212     
   256318.972111212     
   256318.972111212     
   256318.972111212     
   256318.972111212     
   256318.972111212     
   256318.972111212     
   256318.972111212     
   256318.972111212     
   256318.972111212     
   256318.972111212     
   256318.972111212     
   255397.940107432     
   255397.940107432     
   255397.940107432     
   255397.940107432     
   255397.940107432     
   255397.940107432     
   255397.940107431     
   255397.940107431     
   255397.940107431     
   255397.940107431     
   255397.940107431     
   255397.940107431     
   255397.940107431     
   255397.940107431     
   255397.940107431     
   255397.940107431     
   254425.749164912     
   254425.749164912     
   254425.749164912     
   254425.749164912     
   254425.749164912     
   254425.749164912     
   254425.749164912     
   254425.749164912     
   254425.749164912     
   254425.749164912     
   254425.749164912     
   254425.749164912     
   254425.749164912     
   254425.749164912     
   254425.749164912     
   254425.749164912     
   253401.263834795     
   253401.263834795     
   253401.263834795     
   253401.263834796     
   253401.263834795     
   253401.263834795     
   253401.263834795     
   253401.263834795     
   253401.263834795     
   253401.263834795     
   253401.263834795     
   253401.263834795     
   253401.263834795     
   253401.263834795     
   253401.263834795     
   253401.263834795     
   252323.298946156     
   252323.298946157     
   252323.298946156     
   252323.298946157     
   252323.298946157     
   252323.298946157     
   252323.298946157     
   252323.298946156     
   252323.298946156     
   252323.298946156     
   252323.298946156     
   252323.298946156     
   252323.298946156     
   252323.298946156     
   252323.298946156     
   252323.298946156     
   251190.620000233     
   251190.620000233     
   251190.620000233     
   251190.620000233     
   251190.620000233     
   251190.620000233     
   251190.620000232     
   251190.620000232     
   251190.620000232     
   251190.620000232     
   251190.620000232     
   251190.620000232     
   251190.620000232     
   251190.620000232     
   251190.620000232     
   251190.620000232     
   250001.943649492     
   250001.943649492     
   250001.943649492     
   250001.943649492     
   250001.943649491     
   250001.943649491     
   250001.943649491     
   250001.943649491     
   250001.943649491     
   250001.943649491     
   250001.943649491     
   250001.943649491     
   250001.943649491     
   250001.943649491     
   250001.943649491     
   250001.943649491     
   248755.938271426     
   248755.938271426     
   248755.938271426     
   248755.938271426     
   248755.938271426     
   248755.938271426     
   248755.938271426     
   248755.938271425     
   248755.938271425     
   248755.938271425     
   248755.938271425     
   248755.938271425     
   248755.938271425     
   248755.938271425     
   248755.938271425     
   248755.938271425     
   247451.224647629     
   247451.224647629     
   247451.224647629     
   247451.224647629     
   247451.224647629     
   247451.224647629     
   247451.224647628     
   247451.224647628     
   247451.224647628     
   247451.224647628     
   247451.224647628     
   247451.224647628     
   247451.224647628     
   247451.224647628     
   247451.224647628     
   247451.224647628     
   246086.376759399     
   246086.376759399     
   246086.376759399     
   246086.376759399     
   246086.376759399     
   246086.376759399     
   246086.376759399     
   246086.376759399     
   246086.376759399     
   246086.376759399     
   246086.376759399     
   246086.376759399     
   246086.376759399     
   246086.376759399     
   246086.376759399     
   246086.376759399     
   244659.922711852     
   244659.922711852     
   244659.922711852     
   244659.922711852     
   244659.922711852     
   244659.922711852     
   244659.922711852     
   244659.922711852     
   244659.922711852     
   244659.922711852     
   244659.922711852     
   244659.922711852     
   244659.922711852     
   244659.922711852     
   244659.922711852     
   244659.922711852     
   243170.345799251     
   243170.345799251     
   243170.345799251     
   243170.345799251     
   243170.345799251     
   243170.345799251     
   243170.345799251     
   243170.345799251     
   243170.345799251     
   243170.345799251     
   243170.345799251     
   243170.345799251     
   243170.345799251     
   243170.345799251     
   243170.345799251     
   243170.345799251     
   241616.085725055     
   241616.085725055     
   241616.085725055     
   241616.085725055     
   241616.085725055     
   241616.085725055     
   241616.085725055     
   241616.085725054     
   241616.085725054     
   241616.085725054     
   241616.085725054     
   241616.085725054     
   241616.085725054     
   241616.085725054     
   241616.085725054     
   241616.085725054     
   239995.539990948     
   239995.539990948     
   239995.539990948     
   239995.539990948     
   239995.539990948     
   239995.539990948     
   239995.539990948     
   239995.539990948     
   239995.539990948     
   239995.539990948     
   239995.539990948     
   239995.539990948     
   239995.539990948     
   239995.539990948     
   239995.539990948     
   239995.539990948     
   238307.065469941     
   238307.065469942     
   238307.065469942     
   238307.065469942     
   238307.065469942     
   238307.065469942     
   238307.065469941     
   238307.065469941     
   238307.065469941     
   238307.065469941     
   238307.065469941     
   238307.065469941     
   238307.065469941     
   238307.065469941     
   238307.065469941     
   238307.065469941     
   236548.980179420     
   236548.980179420     
   236548.980179420     
   236548.980179420     
   236548.980179420     
   236548.980179420     
   236548.980179420     
   236548.980179420     
   236548.980179420     
   236548.980179420     
   236548.980179419     
   236548.980179419     
   236548.980179419     
   236548.980179419     
   236548.980179419     
   236548.980179419     
   234719.565270859     
   234719.565270859     
   234719.565270859     
   234719.565270859     
   234719.565270859     
   234719.565270859     
   234719.565270859     
   234719.565270859     
   234719.565270859     
   234719.565270858     
   234719.565270858     
   234719.565270858     
   234719.565270858     
   234719.565270858     
   234719.565270858     
   234719.565270858     
   232817.067253729     
   232817.067253729     
   232817.067253729     
   232817.067253729     
   232817.067253729     
   232817.067253728     
   232817.067253728     
   232817.067253728     
   232817.067253728     
   232817.067253728     
   232817.067253728     
   232817.067253728     
   232817.067253728     
   232817.067253728     
   232817.067253728     
   232817.067253728     
   230839.700471918     
   230839.700471918     
   230839.700471918     
   230839.700471918     
   230839.700471918     
   230839.700471918     
   230839.700471918     
   230839.700471918     
   230839.700471917     
   230839.700471918     
   230839.700471917     
   230839.700471917     
   230839.700471918     
   230839.700471918     
   230839.700471918     
   230839.700471918     
   228785.649851796     
   228785.649851796     
   228785.649851796     
   228785.649851796     
   228785.649851796     
   228785.649851796     
   228785.649851796     
   228785.649851796     
   228785.649851796     
   228785.649851796     
   228785.649851796     
   228785.649851796     
   228785.649851796     
   228785.649851796     
   228785.649851796     
   228785.649851796     
   226653.073941786     
   226653.073941786     
   226653.073941786     
   226653.073941786     
   226653.073941786     
   226653.073941786     
   226653.073941786     
   226653.073941786     
   226653.073941786     
   226653.073941786     
   226653.073941786     
   226653.073941786     
   226653.073941786     
   226653.073941786     
   226653.073941786     
   226653.073941786     
   224440.108264025     
   224440.108264025     
   224440.108264025     
   224440.108264025     
   224440.108264025     
   224440.108264025     
   224440.108264025     
   224440.108264026     
   224440.108264026     
   224440.108264026     
   224440.108264026     
   224440.108264026     
   224440.108264026     
   224440.108264026     
   224440.108264026     
   224440.108264026     
   222144.868999345     
   222144.868999345     
   222144.868999345     
   222144.868999345     
   222144.868999345     
   222144.868999345     
   222144.868999345     
   222144.868999345     
   222144.868999345     
   222144.868999345     
   222144.868999345     
   222144.868999345     
   222144.868999345     
   222144.868999345     
   222144.868999345     
   222144.868999345     
   219765.457027347     
   219765.457027347     
   219765.457027347     
   219765.457027347     
   219765.457027347     
   219765.457027347     
   219765.457027348     
   219765.457027348     
   219765.457027348     
   219765.457027347     
   219765.457027348     
   219765.457027348     
   219765.457027348     
   219765.457027348     
   219765.457027348     
   219765.457027348     
   217299.962343846     
   217299.962343846     
   217299.962343846     
   217299.962343846     
   217299.962343846     
   217299.962343846     
   217299.962343847     
   217299.962343846     
   217299.962343846     
   217299.962343847     
   217299.962343846     
   217299.962343846     
   217299.962343846     
   217299.962343846     
   217299.962343847     
   217299.962343847     
   214746.468878234     
   214746.468878235     
   214746.468878234     
   214746.468878235     
   214746.468878235     
   214746.468878235     
   214746.468878235     
   214746.468878235     
   214746.468878235     
   214746.468878235     
   214746.468878235     
   214746.468878235     
   214746.468878235     
   214746.468878235     
   214746.468878235     
   214746.468878235     
   212103.059733542     
   212103.059733542     
   212103.059733543     
   212103.059733543     
   212103.059733543     
   212103.059733543     
   212103.059733543     
   212103.059733543     
   212103.059733543     
   212103.059733543     
   212103.059733543     
   212103.059733542     
   212103.059733542     
   212103.059733542     
   212103.059733543     
   212103.059733543     
   209367.822871916     
   209367.822871916     
   209367.822871916     
   209367.822871916     
   209367.822871916     
   209367.822871916     
   209367.822871916     
   209367.822871916     
   209367.822871916     
   209367.822871916     
   209367.822871916     
   209367.822871916     
   209367.822871916     
   209367.822871916     
   209367.822871916     
   209367.822871916     
   206538.857267998     
   206538.857267998     
   206538.857267998     
   206538.857267998     
   206538.857267998     
   206538.857267998     
   206538.857267997     
   206538.857267997     
   206538.857267997     
   206538.857267998     
   206538.857267998     
   206538.857267997     
   206538.857267997     
   206538.857267997     
   206538.857267997     
   206538.857267997     
   203614.279552173     
   203614.279552173     
   203614.279552173     
   203614.279552173     
   203614.279552173     
   203614.279552173     
   203614.279552173     
   203614.279552173     
   203614.279552173     
   203614.279552173     
   203614.279552173     
   203614.279552173     
   203614.279552173     
   203614.279552173     
   203614.279552173     
   203614.279552173     
   200592.231164797     
   200592.231164797     
   200592.231164797     
   200592.231164797     
   200592.231164797     
   200592.231164797     
   200592.231164797     
   200592.231164797     
   200592.231164797     
   200592.231164797     
   200592.231164797     
   200592.231164797     
   200592.231164797     
   200592.231164797     
   200592.231164797     
   200592.231164797     
   197470.886041298     
   197470.886041298     
   197470.886041298     
   197470.886041298     
   197470.886041298     
   197470.886041298     
   197470.886041298     
   197470.886041298     
   197470.886041298     
   197470.886041298     
   197470.886041298     
   197470.886041298     
   197470.886041298     
   197470.886041298     
   197470.886041298     
   197470.886041298     
   194248.458846398     
   194248.458846398     
   194248.458846398     
   194248.458846398     
   194248.458846398     
   194248.458846398     
   194248.458846398     
   194248.458846398     
   194248.458846398     
   194248.458846398     
   194248.458846398     
   194248.458846398     
   194248.458846398     
   194248.458846398     
   194248.458846398     
   194248.458846398     
   190923.213773538     
   190923.213773538     
   190923.213773538     
   190923.213773538     
   190923.213773538     
   190923.213773538     
   190923.213773538     
   190923.213773538     
   190923.213773538     
   190923.213773538     
   190923.213773538     
   190923.213773538     
   190923.213773538     
   190923.213773538     
   190923.213773538     
   190923.213773538     
   187493.473922851     
   187493.473922851     
   187493.473922851     
   187493.473922851     
   187493.473922851     
   187493.473922851     
   187493.473922851     
   187493.473922851     
   187493.473922851     
   187493.473922851     
   187493.473922851     
   187493.473922851     
   187493.473922851     
   187493.473922851     
   187493.473922851     
   187493.473922851     
   183957.631267649     
   183957.631267649     
   183957.631267649     
   183957.631267649     
   183957.631267650     
   183957.631267650     
   183957.631267650     
   183957.631267650     
   183957.631267650     
   183957.631267650     
   183957.631267650     
   183957.631267650     
   183957.631267650     
   183957.631267650     
   183957.631267650     
   183957.631267650     
   180314.157215247     
   180314.157215247     
   180314.157215247     
   180314.157215247     
   180314.157215248     
   180314.157215248     
   180314.157215248     
   180314.157215248     
   180314.157215248     
   180314.157215248     
   180314.157215248     
   180314.157215248     
   180314.157215248     
   180314.157215248     
   180314.157215248     
   180314.157215248     
   176561.613762982     
   176561.613762982     
   176561.613762982     
   176561.613762983     
   176561.613762983     
   176561.613762983     
   176561.613762983     
   176561.613762983     
   176561.613762983     
   176561.613762983     
   176561.613762983     
   176561.613762983     
   176561.613762983     
   176561.613762983     
   176561.613762983     
   176561.613762983     
   172698.665244389     
   172698.665244389     
   172698.665244389     
   172698.665244389     
   172698.665244389     
   172698.665244389     
   172698.665244389     
   172698.665244389     
   172698.665244389     
   172698.665244389     
   172698.665244390     
   172698.665244390     
   172698.665244389     
   172698.665244389     
   172698.665244389     
   172698.665244389     
   168724.090653538     
   168724.090653538     
   168724.090653538     
   168724.090653538     
   168724.090653538     
   168724.090653538     
   168724.090653538     
   168724.090653539     
   168724.090653539     
   168724.090653539     
   168724.090653539     
   168724.090653539     
   168724.090653539     
   168724.090653539     
   168724.090653539     
   168724.090653539     
   164636.796527474     
   164636.796527474     
   164636.796527474     
   164636.796527474     
   164636.796527474     
   164636.796527474     
   164636.796527474     
   164636.796527474     
   164636.796527474     
   164636.796527474     
   164636.796527474     
   164636.796527474     
   164636.796527474     
   164636.796527474     
   164636.796527474     
   164636.796527474     
   160435.830357326     
   160435.830357326     
   160435.830357326     
   160435.830357326     
   160435.830357326     
   160435.830357326     
   160435.830357326     
   160435.830357326     
   160435.830357326     
   160435.830357326     
   160435.830357326     
   160435.830357326     
   160435.830357326     
   160435.830357326     
   160435.830357326     
   160435.830357326     
   156120.394488001     
   156120.394488001     
   156120.394488001     
   156120.394488001     
   156120.394488001     
   156120.394488001     
   156120.394488001     
   156120.394488001     
   156120.394488001     
   156120.394488001     
   156120.394488001     
   156120.394488001     
   156120.394488001     
   156120.394488001     
   156120.394488001     
   156120.394488001     
   151689.860454167     
   151689.860454167     
   151689.860454167     
   151689.860454167     
   151689.860454167     
   151689.860454167     
   151689.860454167     
   151689.860454167     
   151689.860454167     
   151689.860454167     
   151689.860454167     
   151689.860454167     
   151689.860454167     
   151689.860454167     
   151689.860454167     
   151689.860454167     
   147143.783686565     
   147143.783686565     
   147143.783686565     
   147143.783686565     
   147143.783686565     
   147143.783686565     
   147143.783686565     
   147143.783686565     
   147143.783686565     
   147143.783686565     
   147143.783686565     
   147143.783686565     
   147143.783686565     
   147143.783686565     
   147143.783686565     
   147143.783686565     
   142481.918507340     
   142481.918507340     
   142481.918507340     
   142481.918507340     
   142481.918507340     
   142481.918507340     
   142481.918507340     
   142481.918507340     
   142481.918507340     
   142481.918507340     
   142481.918507339     
   142481.918507339     
   142481.918507339     
   142481.918507339     
   142481.918507340     
   142481.918507339     
   137704.233316083     
   137704.233316083     
   137704.233316083     
   137704.233316083     
   137704.233316083     
   137704.233316083     
   137704.233316083     
   137704.233316083     
   137704.233316083     
   137704.233316083     
   137704.233316083     
   137704.233316083     
   137704.233316083     
   137704.233316083     
   137704.233316083     
   137704.233316083     
   132810.925849616     
   132810.925849616     
   132810.925849616     
   132810.925849616     
   132810.925849617     
   132810.925849617     
   132810.925849617     
   132810.925849616     
   132810.925849616     
   132810.925849616     
   132810.925849616     
   132810.925849616     
   132810.925849616     
   132810.925849616     
   132810.925849616     
   132810.925849616     
   127802.438378204     
   127802.438378204     
   127802.438378204     
   127802.438378204     
   127802.438378204     
   127802.438378204     
   127802.438378204     
   127802.438378204     
   127802.438378204     
   127802.438378204     
   127802.438378204     
   127802.438378204     
   127802.438378204     
   127802.438378204     
   127802.438378204     
   127802.438378204     
   122679.472679039     
   122679.472679039     
   122679.472679039     
   122679.472679039     
   122679.472679039     
   122679.472679039     
   122679.472679039     
   122679.472679039     
   122679.472679039     
   122679.472679039     
   122679.472679039     
   122679.472679039     
   122679.472679040     
   122679.472679040     
   122679.472679040     
   122679.472679040     
   117443.004604602     
   117443.004604602     
   117443.004604602     
   117443.004604602     
   117443.004604602     
   117443.004604602     
   117443.004604602     
   117443.004604602     
   117443.004604602     
   117443.004604602     
   117443.004604602     
   117443.004604602     
   117443.004604602     
   117443.004604603     
   117443.004604603     
   117443.004604603     
   112094.298039171     
   112094.298039171     
   112094.298039171     
   112094.298039171     
   112094.298039171     
   112094.298039171     
   112094.298039171     
   112094.298039171     
   112094.298039171     
   112094.298039171     
   112094.298039171     
   112094.298039171     
   112094.298039171     
   112094.298039171     
   112094.298039171     
   112094.298039171     
   106634.918011785     
   106634.918011785     
   106634.918011785     
   106634.918011785     
   106634.918011785     
   106634.918011785     
   106634.918011785     
   106634.918011785     
   106634.918011785     
   106634.918011785     
   106634.918011785     
   106634.918011785     
   106634.918011785     
   106634.918011785     
   106634.918011785     
   106634.918011785     
   101066.742708839     
   101066.742708839     
   101066.742708839     
   101066.742708839     
   101066.742708839     
   101066.742708839     
   101066.742708839     
   101066.742708839     
   101066.742708839     
   101066.742708839     
   101066.742708839     
   101066.742708839     
   101066.742708839     
   101066.742708839     
   101066.742708839     
   101066.742708839     
   95391.9741050038     
   95391.9741050037     
   95391.9741050038     
   95391.9741050037     
   95391.9741050038     
   95391.9741050038     
   95391.9741050039     
   95391.9741050039     
   95391.9741050039     
   95391.9741050040     
   95391.9741050038     
   95391.9741050038     
   95391.9741050038     
   95391.9741050038     
   95391.9741050038     
   95391.9741050037     
   89613.1469082769     
   89613.1469082769     
   89613.1469082769     
   89613.1469082769     
   89613.1469082770     
   89613.1469082770     
   89613.1469082771     
   89613.1469082770     
   89613.1469082770     
   89613.1469082771     
   89613.1469082770     
   89613.1469082769     
   89613.1469082769     
   89613.1469082769     
   89613.1469082769     
   89613.1469082769     
   83733.1354948796     
   83733.1354948795     
   83733.1354948797     
   83733.1354948797     
   83733.1354948797     
   83733.1354948797     
   83733.1354948797     
   83733.1354948797     
   83733.1354948797     
   83733.1354948796     
   83733.1354948795     
   83733.1354948795     
   83733.1354948795     
   83733.1354948795     
   83733.1354948796     
   83733.1354948795     
   77755.1584939245     
   77755.1584939245     
   77755.1584939245     
   77755.1584939245     
   77755.1584939245     
   77755.1584939244     
   77755.1584939244     
   77755.1584939244     
   77755.1584939244     
   77755.1584939243     
   77755.1584939243     
   77755.1584939243     
   77755.1584939244     
   77755.1584939243     
   77755.1584939243     
   77755.1584939243     
   71682.7806721187     
   71682.7806721188     
   71682.7806721186     
   71682.7806721186     
   71682.7806721187     
   71682.7806721186     
   71682.7806721187     
   71682.7806721186     
   71682.7806721186     
   71682.7806721186     
   71682.7806721186     
   71682.7806721186     
   71682.7806721185     
   71682.7806721185     
   71682.7806721185     
   71682.7806721186     
   65519.9117673517     
   65519.9117673517     
   65519.9117673517     
   65519.9117673516     
   65519.9117673516     
   65519.9117673516     
   65519.9117673515     
   65519.9117673515     
   65519.9117673514     
   65519.9117673516     
   65519.9117673516     
   65519.9117673515     
   65519.9117673514     
   65519.9117673513     
   65519.9117673515     
   65519.9117673515     
   59270.8019293587     
   59270.8019293586     
   59270.8019293585     
   59270.8019293586     
   59270.8019293585     
   59270.8019293585     
   59270.8019293586     
   59270.8019293585     
   59270.8019293585     
   59270.8019293585     
   59270.8019293585     
   59270.8019293585     
   59270.8019293585     
   59270.8019293585     
   59270.8019293584     
   59270.8019293584     
   52940.0334485037     
   52940.0334485037     
   52940.0334485037     
   52940.0334485036     
   52940.0334485036     
   52940.0334485036     
   52940.0334485036     
   52940.0334485036     
   52940.0334485035     
   52940.0334485035     
   52940.0334485035     
   52940.0334485035     
   52940.0334485035     
   52940.0334485036     
   52940.0334485036     
   52940.0334485036     
   46532.5084931139     
   46532.5084931138     
   46532.5084931139     
   46532.5084931139     
   46532.5084931139     
   46532.5084931139     
   46532.5084931137     
   46532.5084931138     
   46532.5084931138     
   46532.5084931138     
   46532.5084931138     
   46532.5084931139     
   46532.5084931138     
   46532.5084931138     
   46532.5084931138     
   46532.5084931138     
   40053.4326348036     
   40053.4326348036     
   40053.4326348036     
   40053.4326348036     
   40053.4326348036     
   40053.4326348036     
   40053.4326348036     
   40053.4326348035     
   40053.4326348035     
   40053.4326348036     
   40053.4326348036     
   40053.4326348036     
   40053.4326348036     
   40053.4326348036     
   40053.4326348036     
   40053.4326348036     
   33508.2940227758     
   33508.2940227759     
   33508.2940227758     
   33508.2940227758     
   33508.2940227759     
   33508.2940227759     
   33508.2940227759     
   33508.2940227759     
   33508.2940227760     
   33508.2940227759     
   33508.2940227759     
   33508.2940227759     
   33508.2940227759     
   33508.2940227760     
   33508.2940227759     
   33508.2940227760     
   26902.8381745303     
   26902.8381745303     
   26902.8381745303     
   26902.8381745303     
   26902.8381745303     
   26902.8381745303     
   26902.8381745303     
   26902.8381745303     
   26902.8381745303     
   26902.8381745303     
   26902.8381745303     
   26902.8381745304     
   26902.8381745304     
   26902.8381745304     
   26902.8381745304     
   26902.8381745304     
   20243.0384829057     
   20243.0384829057     
   20243.0384829057     
   20243.0384829057     
   20243.0384829057     
   20243.0384829057     
   20243.0384829057     
   20243.0384829057     
   20243.0384829057     
   20243.0384829057     
   20243.0384829057     
   20243.0384829057     
   20243.0384829057     
   20243.0384829057     
   20243.0384829058     
   20243.0384829058     
   13535.0626970155     
   13535.0626970155     
   13535.0626970155     
   13535.0626970155     
   13535.0626970155     
   13535.0626970155     
   13535.0626970155     
   13535.0626970155     
   13535.0626970155     
   13535.0626970155     
   13535.0626970155     
   13535.0626970155     
   13535.0626970156     
   13535.0626970156     
   13535.0626970157     
   13535.0626970156     
   6785.23581301093     
   6785.23581301090     
   6785.23581301092     
   6785.23581301090     
   6785.23581301091     
   6785.23581301090     
   6785.23581301091     
   6785.23581301089     
   6785.23581301102     
   6785.23581301091     
   6785.23581301102     
   6785.23581301102     
   6785.23581301105     
   6785.23581301104     
   6785.23581301104     
   6785.23581301105     
  0.000000000000000E+000
  0.000000000000000E+000
  0.000000000000000E+000
  0.000000000000000E+000
  0.000000000000000E+000
  0.000000000000000E+000
  0.000000000000000E+000
  0.000000000000000E+000
  0.000000000000000E+000
  0.000000000000000E+000
  0.000000000000000E+000
  0.000000000000000E+000
  0.000000000000000E+000
  0.000000000000000E+000
  0.000000000000000E+000
  0.000000000000000E+000
VECTORS u double 
    0.00000E+00        -0.34748E-01         0.00000E+00
    0.00000E+00        -0.32432E-01         0.00000E+00
    0.00000E+00        -0.30115E-01         0.00000E+00
    0.00000E+00        -0.27799E-01         0.00000E+00
    0.00000E+00        -0.25482E-01         0.00000E+00
    0.00000E+00        -0.23165E-01         0.00000E+00
    0.00000E+00        -0.20849E-01         0.00000E+00
    0.00000E+00        -0.18532E-01         0.00000E+00
    0.00000E+00        -0.16216E-01         0.00000E+00
    0.00000E+00        -0.13899E-01         0.00000E+00
    0.00000E+00        -0.11583E-01         0.00000E+00
    0.00000E+00        -0.92662E-02         0.00000E+00
    0.00000E+00        -0.69496E-02         0.00000E+00
    0.00000E+00        -0.46331E-02         0.00000E+00
    0.00000E+00        -0.23165E-02         0.00000E+00
    0.00000E+00         0.00000E+00         0.00000E+00
    0.36183E-02        -0.34748E-01         0.00000E+00
    0.36183E-02        -0.32432E-01         0.00000E+00
    0.36183E-02        -0.30115E-01         0.00000E+00
    0.36183E-02        -0.27799E-01         0.00000E+00
    0.36183E-02        -0.25482E-01         0.00000E+00
    0.36183E-02        -0.23165E-01         0.00000E+00
    0.36183E-02        -0.20849E-01         0.00000E+00
    0.36183E-02        -0.18532E-01         0.00000E+00
    0.36183E-02        -0.16216E-01         0.00000E+00
    0.36183E-02        -0.13899E-01         0.00000E+00
    0.36183E-02        -0.11583E-01         0.00000E+00
    0.36183E-02        -0.92662E-02         0.00000E+00
    0.36183E-02        -0.69496E-02         0.00000E+00
    0.36183E-02        -0.46331E-02         0.00000E+00
    0.36183E-02        -0.23165E-02         0.00000E+00
    0.36183E-02         0.00000E+00         0.00000E+00
    0.72362E-02        -0.34748E-01         0.00000E+00
    0.72362E-02        -0.32432E-01         0.00000E+00
    0.72362E-02        -0.30115E-01         0.00000E+00
    0.72362E-02        -0.27799E-01         0.00000E+00
    0.72362E-02        -0.25482E-01         0.00000E+00
    0.72362E-02        -0.23165E-01         0.00000E+00
    0.72362E-02        -0.20849E-01         0.00000E+00
    0.72362E-02        -0.18532E-01         0.00000E+00
    0.72362E-02        -0.16216E-01         0.00000E+00
    0.72362E-02        -0.13899E-01         0.00000E+00
    0.72362E-02        -0.11583E-01         0.00000E+00
    0.72362E-02        -0.92662E-02         0.00000E+00
    0.72362E-02        -0.69496E-02         0.00000E+00
    0.72362E-02        -0.46331E-02         0.00000E+00
    0.72362E-02        -0.23165E-02         0.00000E+00
    0.72362E-02         0.00000E+00         0.00000E+00
    0.10853E-01        -0.34748E-01         0.00000E+00
    0.10853E-01        -0.32432E-01         0.00000E+00
    0.10853E-01        -0.30115E-01         0.00000E+00
    0.10853E-01        -0.27799E-01         0.00000E+00
    0.10853E-01        -0.25482E-01         0.00000E+00
    0.10853E-01        -0.23165E-01         0.00000E+00
    0.10853E-01        -0.20849E-01         0.00000E+00
    0.10853E-01        -0.18532E-01         0.00000E+00
    0.10853E-01        -0.16216E-01         0.00000E+00
    0.10853E-01        -0.13899E-01         0.00000E+00
    0.10853E-01        -0.11583E-01         0.00000E+00
    0.10853E-01        -0.92662E-02         0.00000E+00
    0.10853E-01        -0.69496E-02         0.00000E+00
    0.10853E-01        -0.46331E-02         0.00000E+00
    0.10853E-01        -0.23165E-02         0.00000E+00
    0.10853E-01         0.00000E+00         0.00000E+00
    0.14469E-01        -0.34748E-01         0.00000E+00
    0.14469E-01        -0.32432E-01         0.00000E+00
    0.14469E-01        -0.30115E-01         0.00000E+00
    0.14469E-01        -0.27799E-01         0.00000E+00
    0.14469E-01        -0.25482E-01         0.00000E+00
    0.14469E-01        -0.23165E-01         0.00000E+00
    0.14469E-01        -0.20849E-01         0.00000E+00
    0.14469E-01        -0.18532E-01         0.00000E+00
    0.14469E-01        -0.16216E-01         0.00000E+00
    0.14469E-01        -0.13899E-01         0.00000E+00
    0.14469E-01        -0.11583E-01         0.00000E+00
    0.14469E-01        -0.92662E-02         0.00000E+00
    0.14469E-01        -0.69496E-02         0.00000E+00
    0.14469E-01        -0.46331E-02         0.00000E+00
    0.14469E-01        -0.23165E-02         0.00000E+00
    0.14469E-01         0.00000E+00         0.00000E+00
    0.18084E-01        -0.34748E-01         0.00000E+00
    0.18084E-01        -0.32432E-01         0.00000E+00
    0.18084E-01        -0.30115E-01         0.00000E+00
    0.18084E-01        -0.27799E-01         0.00000E+00
    0.18084E-01        -0.25482E-01         0.00000E+00
    0.18084E-01        -0.23165E-01         0.00000E+00
    0.18084E-01        -0.20849E-01         0.00000E+00
    0.18084E-01        -0.18532E-01         0.00000E+00
    0.18084E-01        -0.16216E-01         0.00000E+00
    0.18084E-01        -0.13899E-01         0.00000E+00
    0.18084E-01        -0.11583E-01         0.00000E+00
    0.18084E-01        -0.92662E-02         0.00000E+00
    0.18084E-01        -0.69496E-02         0.00000E+00
    0.18084E-01        -0.46331E-02         0.00000E+00
    0.18084E-01        -0.23165E-02         0.00000E+00
    0.18084E-01         0.00000E+00         0.00000E+00
    0.21696E-01        -0.34748E-01         0.00000E+00
    0.21696E-01        -0.32432E-01         0.00000E+00
    0.21696E-01        -0.30115E-01         0.00000E+00
    0.21696E-01        -0.27799E-01         0.00000E+00
    0.21696E-01        -0.25482E-01         0.00000E+00
    0.21696E-01        -0.23165E-01         0.00000E+00
    0.21696E-01        -0.20849E-01         0.00000E+00
    0.21696E-01        -0.18532E-01         0.00000E+00
    0.21696E-01        -0.16216E-01         0.00000E+00
    0.21696E-01        -0.13899E-01         0.00000E+00
    0.21696E-01        -0.11583E-01         0.00000E+00
    0.21696E-01        -0.92662E-02         0.00000E+00
    0.21696E-01        -0.69496E-02         0.00000E+00
    0.21696E-01        -0.46331E-02         0.00000E+00
    0.21696E-01        -0.23165E-02         0.00000E+00
    0.21696E-01         0.00000E+00         0.00000E+00
    0.25306E-01        -0.34748E-01         0.00000E+00
    0.25306E-01        -0.32432E-01         0.00000E+00
    0.25306E-01        -0.30115E-01         0.00000E+00
    0.25306E-01        -0.27799E-01         0.00000E+00
    0.25306E-01        -0.25482E-01         0.00000E+00
    0.25306E-01        -0.23165E-01         0.00000E+00
    0.25306E-01        -0.20849E-01         0.00000E+00
    0.25306E-01        -0.18532E-01         0.00000E+00
    0.25306E-01        -0.16216E-01         0.00000E+00
    0.25306E-01        -0.13899E-01         0.00000E+00
    0.25306E-01        -0.11583E-01         0.00000E+00
    0.25306E-01        -0.92662E-02         0.00000E+00
    0.25306E-01        -0.69496E-02         0.00000E+00
    0.25306E-01        -0.46331E-02         0.00000E+00
    0.25306E-01        -0.23165E-02         0.00000E+00
    0.25306E-01         0.00000E+00         0.00000E+00
    0.28914E-01        -0.34748E-01         0.00000E+00
    0.28914E-01        -0.32432E-01         0.00000E+00
    0.28914E-01        -0.30115E-01         0.00000E+00
    0.28914E-01        -0.27799E-01         0.00000E+00
    0.28914E-01        -0.25482E-01         0.00000E+00
    0.28914E-01        -0.23165E-01         0.00000E+00
    0.28914E-01        -0.20849E-01         0.00000E+00
    0.28914E-01        -0.18532E-01         0.00000E+00
    0.28914E-01        -0.16216E-01         0.00000E+00
    0.28914E-01        -0.13899E-01         0.00000E+00
    0.28914E-01        -0.11583E-01         0.00000E+00
    0.28914E-01        -0.92662E-02         0.00000E+00
    0.28914E-01        -0.69496E-02         0.00000E+00
    0.28914E-01        -0.46331E-02         0.00000E+00
    0.28914E-01        -0.23165E-02         0.00000E+00
    0.28914E-01         0.00000E+00         0.00000E+00
    0.32518E-01        -0.34748E-01         0.00000E+00
    0.32518E-01        -0.32432E-01         0.00000E+00
    0.32518E-01        -0.30115E-01         0.00000E+00
    0.32518E-01        -0.27799E-01         0.00000E+00
    0.32518E-01        -0.25482E-01         0.00000E+00
    0.32518E-01        -0.23165E-01         0.00000E+00
    0.32518E-01        -0.20849E-01         0.00000E+00
    0.32518E-01        -0.18532E-01         0.00000E+00
    0.32518E-01        -0.16216E-01         0.00000E+00
    0.32518E-01        -0.13899E-01         0.00000E+00
    0.32518E-01        -0.11583E-01         0.00000E+00
    0.32518E-01        -0.92662E-02         0.00000E+00
    0.32518E-01        -0.69496E-02         0.00000E+00
    0.32518E-01        -0.46331E-02         0.00000E+00
    0.32518E-01        -0.23165E-02         0.00000E+00
    0.32518E-01         0.00000E+00         0.00000E+00
    0.36118E-01        -0.34748E-01         0.00000E+00
    0.36118E-01        -0.32432E-01         0.00000E+00
    0.36118E-01        -0.30115E-01         0.00000E+00
    0.36118E-01        -0.27799E-01         0.00000E+00
    0.36118E-01        -0.25482E-01         0.00000E+00
    0.36118E-01        -0.23165E-01         0.00000E+00
    0.36118E-01        -0.20849E-01         0.00000E+00
    0.36118E-01        -0.18532E-01         0.00000E+00
    0.36118E-01        -0.16216E-01         0.00000E+00
    0.36118E-01        -0.13899E-01         0.00000E+00
    0.36118E-01        -0.11583E-01         0.00000E+00
    0.36118E-01        -0.92662E-02         0.00000E+00
    0.36118E-01        -0.69496E-02         0.00000E+00
    0.36118E-01        -0.46331E-02         0.00000E+00
    0.36118E-01        -0.23165E-02         0.00000E+00
    0.36118E-01         0.00000E+00         0.00000E+00
    0.39715E-01        -0.34748E-01         0.00000E+00
    0.39715E-01        -0.32432E-01         0.00000E+00
    0.39715E-01        -0.30115E-01         0.00000E+00
    0.39715E-01        -0.27799E-01         0.00000E+00
    0.39715E-01        -0.25482E-01         0.00000E+00
    0.39715E-01        -0.23165E-01         0.00000E+00
    0.39715E-01        -0.20849E-01         0.00000E+00
    0.39715E-01        -0.18532E-01         0.00000E+00
    0.39715E-01        -0.16216E-01         0.00000E+00
    0.39715E-01        -0.13899E-01         0.00000E+00
    0.39715E-01        -0.11583E-01         0.00000E+00
    0.39715E-01        -0.92662E-02         0.00000E+00
    0.39715E-01        -0.69496E-02         0.00000E+00
    0.39715E-01        -0.46331E-02         0.00000E+00
    0.39715E-01        -0.23165E-02         0.00000E+00
    0.39715E-01         0.00000E+00         0.00000E+00
    0.43307E-01        -0.34748E-01         0.00000E+00
    0.43307E-01        -0.32432E-01         0.00000E+00
    0.43307E-01        -0.30115E-01         0.00000E+00
    0.43307E-01        -0.27799E-01         0.00000E+00
    0.43307E-01        -0.25482E-01         0.00000E+00
    0.43307E-01        -0.23165E-01         0.00000E+00
    0.43307E-01        -0.20849E-01         0.00000E+00
    0.43307E-01        -0.18532E-01         0.00000E+00
    0.43307E-01        -0.16216E-01         0.00000E+00
    0.43307E-01        -0.13899E-01         0.00000E+00
    0.43307E-01        -0.11583E-01         0.00000E+00
    0.43307E-01        -0.92662E-02         0.00000E+00
    0.43307E-01        -0.69496E-02         0.00000E+00
    0.43307E-01        -0.46331E-02         0.00000E+00
    0.43307E-01        -0.23165E-02         0.00000E+00
    0.43307E-01         0.00000E+00         0.00000E+00
    0.46895E-01        -0.34748E-01         0.00000E+00
    0.46895E-01        -0.32432E-01         0.00000E+00
    0.46895E-01        -0.30115E-01         0.00000E+00
    0.46895E-01        -0.27799E-01         0.00000E+00
    0.46895E-01        -0.25482E-01         0.00000E+00
    0.46895E-01        -0.23165E-01         0.00000E+00
    0.46895E-01        -0.20849E-01         0.00000E+00
    0.46895E-01        -0.18532E-01         0.00000E+00
    0.46895E-01        -0.16216E-01         0.00000E+00
    0.46895E-01        -0.13899E-01         0.00000E+00
    0.46895E-01        -0.11583E-01         0.00000E+00
    0.46895E-01        -0.92662E-02         0.00000E+00
    0.46895E-01        -0.69496E-02         0.00000E+00
    0.46895E-01        -0.46331E-02         0.00000E+00
    0.46895E-01        -0.23165E-02         0.00000E+00
    0.46895E-01         0.00000E+00         0.00000E+00
    0.50477E-01        -0.34748E-01         0.00000E+00
    0.50477E-01        -0.32432E-01         0.00000E+00
    0.50477E-01        -0.30115E-01         0.00000E+00
    0.50477E-01        -0.27799E-01         0.00000E+00
    0.50477E-01        -0.25482E-01         0.00000E+00
    0.50477E-01        -0.23165E-01         0.00000E+00
    0.50477E-01        -0.20849E-01         0.00000E+00
    0.50477E-01        -0.18532E-01         0.00000E+00
    0.50477E-01        -0.16216E-01         0.00000E+00
    0.50477E-01        -0.13899E-01         0.00000E+00
    0.50477E-01        -0.11583E-01         0.00000E+00
    0.50477E-01        -0.92662E-02         0.00000E+00
    0.50477E-01        -0.69496E-02         0.00000E+00
    0.50477E-01        -0.46331E-02         0.00000E+00
    0.50477E-01        -0.23165E-02         0.00000E+00
    0.50477E-01         0.00000E+00         0.00000E+00
    0.54053E-01        -0.34748E-01         0.00000E+00
    0.54053E-01        -0.32432E-01         0.00000E+00
    0.54053E-01        -0.30115E-01         0.00000E+00
    0.54053E-01        -0.27799E-01         0.00000E+00
    0.54053E-01        -0.25482E-01         0.00000E+00
    0.54053E-01        -0.23165E-01         0.00000E+00
    0.54053E-01        -0.20849E-01         0.00000E+00
    0.54053E-01        -0.18532E-01         0.00000E+00
    0.54053E-01        -0.16216E-01         0.00000E+00
    0.54053E-01        -0.13899E-01         0.00000E+00
    0.54053E-01        -0.11583E-01         0.00000E+00
    0.54053E-01        -0.92662E-02         0.00000E+00
    0.54053E-01        -0.69496E-02         0.00000E+00
    0.54053E-01        -0.46331E-02         0.00000E+00
    0.54053E-01        -0.23165E-02         0.00000E+00
    0.54053E-01         0.00000E+00         0.00000E+00
    0.57623E-01        -0.34748E-01         0.00000E+00
    0.57623E-01        -0.32432E-01         0.00000E+00
    0.57623E-01        -0.30115E-01         0.00000E+00
    0.57623E-01        -0.27799E-01         0.00000E+00
    0.57623E-01        -0.25482E-01         0.00000E+00
    0.57623E-01        -0.23165E-01         0.00000E+00
    0.57623E-01        -0.20849E-01         0.00000E+00
    0.57623E-01        -0.18532E-01         0.00000E+00
    0.57623E-01        -0.16216E-01         0.00000E+00
    0.57623E-01        -0.13899E-01         0.00000E+00
    0.57623E-01        -0.11583E-01         0.00000E+00
    0.57623E-01        -0.92662E-02         0.00000E+00
    0.57623E-01        -0.69496E-02         0.00000E+00
    0.57623E-01        -0.46331E-02         0.00000E+00
    0.57623E-01        -0.23165E-02         0.00000E+00
    0.57623E-01         0.00000E+00         0.00000E+00
    0.61187E-01        -0.34748E-01         0.00000E+00
    0.61187E-01        -0.32432E-01         0.00000E+00
    0.61187E-01        -0.30115E-01         0.00000E+00
    0.61187E-01        -0.27799E-01         0.00000E+00
    0.61187E-01        -0.25482E-01         0.00000E+00
    0.61187E-01        -0.23165E-01         0.00000E+00
    0.61187E-01        -0.20849E-01         0.00000E+00
    0.61187E-01        -0.18532E-01         0.00000E+00
    0.61187E-01        -0.16216E-01         0.00000E+00
    0.61187E-01        -0.13899E-01         0.00000E+00
    0.61187E-01        -0.11583E-01         0.00000E+00
    0.61187E-01        -0.92662E-02         0.00000E+00
    0.61187E-01        -0.69496E-02         0.00000E+00
    0.61187E-01        -0.46331E-02         0.00000E+00
    0.61187E-01        -0.23165E-02         0.00000E+00
    0.61187E-01         0.00000E+00         0.00000E+00
    0.64744E-01        -0.34748E-01         0.00000E+00
    0.64744E-01        -0.32432E-01         0.00000E+00
    0.64744E-01        -0.30115E-01         0.00000E+00
    0.64744E-01        -0.27799E-01         0.00000E+00
    0.64744E-01        -0.25482E-01         0.00000E+00
    0.64744E-01        -0.23165E-01         0.00000E+00
    0.64744E-01        -0.20849E-01         0.00000E+00
    0.64744E-01        -0.18532E-01         0.00000E+00
    0.64744E-01        -0.16216E-01         0.00000E+00
    0.64744E-01        -0.13899E-01         0.00000E+00
    0.64744E-01        -0.11583E-01         0.00000E+00
    0.64744E-01        -0.92662E-02         0.00000E+00
    0.64744E-01        -0.69496E-02         0.00000E+00
    0.64744E-01        -0.46331E-02         0.00000E+00
    0.64744E-01        -0.23165E-02         0.00000E+00
    0.64744E-01         0.00000E+00         0.00000E+00
    0.68293E-01        -0.34748E-01         0.00000E+00
    0.68293E-01        -0.32432E-01         0.00000E+00
    0.68293E-01        -0.30115E-01         0.00000E+00
    0.68293E-01        -0.27799E-01         0.00000E+00
    0.68293E-01        -0.25482E-01         0.00000E+00
    0.68293E-01        -0.23165E-01         0.00000E+00
    0.68293E-01        -0.20849E-01         0.00000E+00
    0.68293E-01        -0.18532E-01         0.00000E+00
    0.68293E-01        -0.16216E-01         0.00000E+00
    0.68293E-01        -0.13899E-01         0.00000E+00
    0.68293E-01        -0.11583E-01         0.00000E+00
    0.68293E-01        -0.92662E-02         0.00000E+00
    0.68293E-01        -0.69496E-02         0.00000E+00
    0.68293E-01        -0.46331E-02         0.00000E+00
    0.68293E-01        -0.23165E-02         0.00000E+00
    0.68293E-01         0.00000E+00         0.00000E+00
    0.71834E-01        -0.34748E-01         0.00000E+00
    0.71834E-01        -0.32432E-01         0.00000E+00
    0.71834E-01        -0.30115E-01         0.00000E+00
    0.71834E-01        -0.27799E-01         0.00000E+00
    0.71834E-01        -0.25482E-01         0.00000E+00
    0.71834E-01        -0.23165E-01         0.00000E+00
    0.71834E-01        -0.20849E-01         0.00000E+00
    0.71834E-01        -0.18532E-01         0.00000E+00
    0.71834E-01        -0.16216E-01         0.00000E+00
    0.71834E-01        -0.13899E-01         0.00000E+00
    0.71834E-01        -0.11583E-01         0.00000E+00
    0.71834E-01        -0.92662E-02         0.00000E+00
    0.71834E-01        -0.69496E-02         0.00000E+00
    0.71834E-01        -0.46331E-02         0.00000E+00
    0.71834E-01        -0.23165E-02         0.00000E+00
    0.71834E-01         0.00000E+00         0.00000E+00
    0.75367E-01        -0.34748E-01         0.00000E+00
    0.75367E-01        -0.32432E-01         0.00000E+00
    0.75367E-01        -0.30115E-01         0.00000E+00
    0.75367E-01        -0.27799E-01         0.00000E+00
    0.75367E-01        -0.25482E-01         0.00000E+00
    0.75367E-01        -0.23165E-01         0.00000E+00
    0.75367E-01        -0.20849E-01         0.00000E+00
    0.75367E-01        -0.18532E-01         0.00000E+00
    0.75367E-01        -0.16216E-01         0.00000E+00
    0.75367E-01        -0.13899E-01         0.00000E+00
    0.75367E-01        -0.11583E-01         0.00000E+00
    0.75367E-01        -0.92662E-02         0.00000E+00
    0.75367E-01        -0.69496E-02         0.00000E+00
    0.75367E-01        -0.46331E-02         0.00000E+00
    0.75367E-01        -0.23165E-02         0.00000E+00
    0.75367E-01         0.00000E+00         0.00000E+00
    0.78891E-01        -0.34748E-01         0.00000E+00
    0.78891E-01        -0.32432E-01         0.00000E+00
    0.78891E-01        -0.30115E-01         0.00000E+00
    0.78891E-01        -0.27799E-01         0.00000E+00
    0.78891E-01        -0.25482E-01         0.00000E+00
    0.78891E-01        -0.23165E-01         0.00000E+00
    0.78891E-01        -0.20849E-01         0.00000E+00
    0.78891E-01        -0.18532E-01         0.00000E+00
    0.78891E-01        -0.16216E-01         0.00000E+00
    0.78891E-01        -0.13899E-01         0.00000E+00
    0.78891E-01        -0.11583E-01         0.00000E+00
    0.78891E-01        -0.92662E-02         0.00000E+00
    0.78891E-01        -0.69496E-02         0.00000E+00
    0.78891E-01        -0.46331E-02         0.00000E+00
    0.78891E-01        -0.23165E-02         0.00000E+00
    0.78891E-01         0.00000E+00         0.00000E+00
    0.82405E-01        -0.34748E-01         0.00000E+00
    0.82405E-01        -0.32432E-01         0.00000E+00
    0.82405E-01        -0.30115E-01         0.00000E+00
    0.82405E-01        -0.27799E-01         0.00000E+00
    0.82405E-01        -0.25482E-01         0.00000E+00
    0.82405E-01        -0.23165E-01         0.00000E+00
    0.82405E-01        -0.20849E-01         0.00000E+00
    0.82405E-01        -0.18532E-01         0.00000E+00
    0.82405E-01        -0.16216E-01         0.00000E+00
    0.82405E-01        -0.13899E-01         0.00000E+00
    0.82405E-01        -0.11583E-01         0.00000E+00
    0.82405E-01        -0.92662E-02         0.00000E+00
    0.82405E-01        -0.69496E-02         0.00000E+00
    0.82405E-01        -0.46331E-02         0.00000E+00
    0.82405E-01        -0.23165E-02         0.00000E+00
    0.82405E-01         0.00000E+00         0.00000E+00
    0.85910E-01        -0.34748E-01         0.00000E+00
    0.85910E-01        -0.32432E-01         0.00000E+00
    0.85910E-01        -0.30115E-01         0.00000E+00
    0.85910E-01        -0.27799E-01         0.00000E+00
    0.85910E-01        -0.25482E-01         0.00000E+00
    0.85910E-01        -0.23165E-01         0.00000E+00
    0.85910E-01        -0.20849E-01         0.00000E+00
    0.85910E-01        -0.18532E-01         0.00000E+00
    0.85910E-01        -0.16216E-01         0.00000E+00
    0.85910E-01        -0.13899E-01         0.00000E+00
    0.85910E-01        -0.11583E-01         0.00000E+00
    0.85910E-01        -0.92662E-02         0.00000E+00
    0.85910E-01        -0.69496E-02         0.00000E+00
    0.85910E-01        -0.46331E-02         0.00000E+00
    0.85910E-01        -0.23165E-02         0.00000E+00
    0.85910E-01         0.00000E+00         0.00000E+00
    0.89404E-01        -0.34748E-01         0.00000E+00
    0.89404E-01        -0.32432E-01         0.00000E+00
    0.89404E-01        -0.30115E-01         0.00000E+00
    0.89404E-01        -0.27799E-01         0.00000E+00
    0.89404E-01        -0.25482E-01         0.00000E+00
    0.89404E-01        -0.23165E-01         0.00000E+00
    0.89404E-01        -0.20849E-01         0.00000E+00
    0.89404E-01        -0.18532E-01         0.00000E+00
    0.89404E-01        -0.16216E-01         0.00000E+00
    0.89404E-01        -0.13899E-01         0.00000E+00
    0.89404E-01        -0.11583E-01         0.00000E+00
    0.89404E-01        -0.92662E-02         0.00000E+00
    0.89404E-01        -0.69496E-02         0.00000E+00
    0.89404E-01        -0.46331E-02         0.00000E+00
    0.89404E-01        -0.23165E-02         0.00000E+00
    0.89404E-01         0.00000E+00         0.00000E+00
    0.92886E-01        -0.34748E-01         0.00000E+00
    0.92886E-01        -0.32432E-01         0.00000E+00
    0.92886E-01        -0.30115E-01         0.00000E+00
    0.92886E-01        -0.27799E-01         0.00000E+00
    0.92886E-01        -0.25482E-01         0.00000E+00
    0.92886E-01        -0.23165E-01         0.00000E+00
    0.92886E-01        -0.20849E-01         0.00000E+00
    0.92886E-01        -0.18532E-01         0.00000E+00
    0.92886E-01        -0.16216E-01         0.00000E+00
    0.92886E-01        -0.13899E-01         0.00000E+00
    0.92886E-01        -0.11583E-01         0.00000E+00
    0.92886E-01        -0.92662E-02         0.00000E+00
    0.92886E-01        -0.69496E-02         0.00000E+00
    0.92886E-01        -0.46331E-02         0.00000E+00
    0.92886E-01        -0.23165E-02         0.00000E+00
    0.92886E-01         0.00000E+00         0.00000E+00
    0.96357E-01        -0.34748E-01         0.00000E+00
    0.96357E-01        -0.32432E-01         0.00000E+00
    0.96357E-01        -0.30115E-01         0.00000E+00
    0.96357E-01        -0.27799E-01         0.00000E+00
    0.96357E-01        -0.25482E-01         0.00000E+00
    0.96357E-01        -0.23165E-01         0.00000E+00
    0.96357E-01        -0.20849E-01         0.00000E+00
    0.96357E-01        -0.18532E-01         0.00000E+00
    0.96357E-01        -0.16216E-01         0.00000E+00
    0.96357E-01        -0.13899E-01         0.00000E+00
    0.96357E-01        -0.11583E-01         0.00000E+00
    0.96357E-01        -0.92662E-02         0.00000E+00
    0.96357E-01        -0.69496E-02         0.00000E+00
    0.96357E-01        -0.46331E-02         0.00000E+00
    0.96357E-01        -0.23165E-02         0.00000E+00
    0.96357E-01         0.00000E+00         0.00000E+00
    0.99817E-01        -0.34748E-01         0.00000E+00
    0.99817E-01        -0.32432E-01         0.00000E+00
    0.99817E-01        -0.30115E-01         0.00000E+00
    0.99817E-01        -0.27799E-01         0.00000E+00
    0.99817E-01        -0.25482E-01         0.00000E+00
    0.99817E-01        -0.23165E-01         0.00000E+00
    0.99817E-01        -0.20849E-01         0.00000E+00
    0.99817E-01        -0.18532E-01         0.00000E+00
    0.99817E-01        -0.16216E-01         0.00000E+00
    0.99817E-01        -0.13899E-01         0.00000E+00
    0.99817E-01        -0.11583E-01         0.00000E+00
    0.99817E-01        -0.92662E-02         0.00000E+00
    0.99817E-01        -0.69496E-02         0.00000E+00
    0.99817E-01        -0.46331E-02         0.00000E+00
    0.99817E-01        -0.23165E-02         0.00000E+00
    0.99817E-01         0.00000E+00         0.00000E+00
    0.10326E+00        -0.34748E-01         0.00000E+00
    0.10326E+00        -0.32432E-01         0.00000E+00
    0.10326E+00        -0.30115E-01         0.00000E+00
    0.10326E+00        -0.27799E-01         0.00000E+00
    0.10326E+00        -0.25482E-01         0.00000E+00
    0.10326E+00        -0.23165E-01         0.00000E+00
    0.10326E+00        -0.20849E-01         0.00000E+00
    0.10326E+00        -0.18532E-01         0.00000E+00
    0.10326E+00        -0.16216E-01         0.00000E+00
    0.10326E+00        -0.13899E-01         0.00000E+00
    0.10326E+00        -0.11583E-01         0.00000E+00
    0.10326E+00        -0.92662E-02         0.00000E+00
    0.10326E+00        -0.69496E-02         0.00000E+00
    0.10326E+00        -0.46331E-02         0.00000E+00
    0.10326E+00        -0.23165E-02         0.00000E+00
    0.10326E+00         0.00000E+00         0.00000E+00
    0.10670E+00        -0.34748E-01         0.00000E+00
    0.10670E+00        -0.32432E-01         0.00000E+00
    0.10670E+00        -0.30115E-01         0.00000E+00
    0.10670E+00        -0.27799E-01         0.00000E+00
    0.10670E+00        -0.25482E-01         0.00000E+00
    0.10670E+00        -0.23165E-01         0.00000E+00
    0.10670E+00        -0.20849E-01         0.00000E+00
    0.10670E+00        -0.18532E-01         0.00000E+00
    0.10670E+00        -0.16216E-01         0.00000E+00
    0.10670E+00        -0.13899E-01         0.00000E+00
    0.10670E+00        -0.11583E-01         0.00000E+00
    0.10670E+00        -0.92662E-02         0.00000E+00
    0.10670E+00        -0.69496E-02         0.00000E+00
    0.10670E+00        -0.46331E-02         0.00000E+00
    0.10670E+00        -0.23165E-02         0.00000E+00
    0.10670E+00         0.00000E+00         0.00000E+00
    0.11011E+00        -0.34748E-01         0.00000E+00
    0.11011E+00        -0.32432E-01         0.00000E+00
    0.11011E+00        -0.30115E-01         0.00000E+00
    0.11011E+00        -0.27799E-01         0.00000E+00
    0.11011E+00        -0.25482E-01         0.00000E+00
    0.11011E+00        -0.23165E-01         0.00000E+00
    0.11011E+00        -0.20849E-01         0.00000E+00
    0.11011E+00        -0.18532E-01         0.00000E+00
    0.11011E+00        -0.16216E-01         0.00000E+00
    0.11011E+00        -0.13899E-01         0.00000E+00
    0.11011E+00        -0.11583E-01         0.00000E+00
    0.11011E+00        -0.92662E-02         0.00000E+00
    0.11011E+00        -0.69496E-02         0.00000E+00
    0.11011E+00        -0.46331E-02         0.00000E+00
    0.11011E+00        -0.23165E-02         0.00000E+00
    0.11011E+00         0.00000E+00         0.00000E+00
    0.11352E+00        -0.34748E-01         0.00000E+00
    0.11352E+00        -0.32432E-01         0.00000E+00
    0.11352E+00        -0.30115E-01         0.00000E+00
    0.11352E+00        -0.27799E-01         0.00000E+00
    0.11352E+00        -0.25482E-01         0.00000E+00
    0.11352E+00        -0.23165E-01         0.00000E+00
    0.11352E+00        -0.20849E-01         0.00000E+00
    0.11352E+00        -0.18532E-01         0.00000E+00
    0.11352E+00        -0.16216E-01         0.00000E+00
    0.11352E+00        -0.13899E-01         0.00000E+00
    0.11352E+00        -0.11583E-01         0.00000E+00
    0.11352E+00        -0.92662E-02         0.00000E+00
    0.11352E+00        -0.69496E-02         0.00000E+00
    0.11352E+00        -0.46331E-02         0.00000E+00
    0.11352E+00        -0.23165E-02         0.00000E+00
    0.11352E+00         0.00000E+00         0.00000E+00
    0.11691E+00        -0.34748E-01         0.00000E+00
    0.11691E+00        -0.32432E-01         0.00000E+00
    0.11691E+00        -0.30115E-01         0.00000E+00
    0.11691E+00        -0.27799E-01         0.00000E+00
    0.11691E+00        -0.25482E-01         0.00000E+00
    0.11691E+00        -0.23165E-01         0.00000E+00
    0.11691E+00        -0.20849E-01         0.00000E+00
    0.11691E+00        -0.18532E-01         0.00000E+00
    0.11691E+00        -0.16216E-01         0.00000E+00
    0.11691E+00        -0.13899E-01         0.00000E+00
    0.11691E+00        -0.11583E-01         0.00000E+00
    0.11691E+00        -0.92662E-02         0.00000E+00
    0.11691E+00        -0.69496E-02         0.00000E+00
    0.11691E+00        -0.46331E-02         0.00000E+00
    0.11691E+00        -0.23165E-02         0.00000E+00
    0.11691E+00         0.00000E+00         0.00000E+00
    0.12028E+00        -0.34748E-01         0.00000E+00
    0.12028E+00        -0.32432E-01         0.00000E+00
    0.12028E+00        -0.30115E-01         0.00000E+00
    0.12028E+00        -0.27799E-01         0.00000E+00
    0.12028E+00        -0.25482E-01         0.00000E+00
    0.12028E+00        -0.23165E-01         0.00000E+00
    0.12028E+00        -0.20849E-01         0.00000E+00
    0.12028E+00        -0.18532E-01         0.00000E+00
    0.12028E+00        -0.16216E-01         0.00000E+00
    0.12028E+00        -0.13899E-01         0.00000E+00
    0.12028E+00        -0.11583E-01         0.00000E+00
    0.12028E+00        -0.92662E-02         0.00000E+00
    0.12028E+00        -0.69496E-02         0.00000E+00
    0.12028E+00        -0.46331E-02         0.00000E+00
    0.12028E+00        -0.23165E-02         0.00000E+00
    0.12028E+00         0.00000E+00         0.00000E+00
    0.12364E+00        -0.34748E-01         0.00000E+00
    0.12364E+00        -0.32432E-01         0.00000E+00
    0.12364E+00        -0.30115E-01         0.00000E+00
    0.12364E+00        -0.27799E-01         0.00000E+00
    0.12364E+00        -0.25482E-01         0.00000E+00
    0.12364E+00        -0.23165E-01         0.00000E+00
    0.12364E+00        -0.20849E-01         0.00000E+00
    0.12364E+00        -0.18532E-01         0.00000E+00
    0.12364E+00        -0.16216E-01         0.00000E+00
    0.12364E+00        -0.13899E-01         0.00000E+00
    0.12364E+00        -0.11583E-01         0.00000E+00
    0.12364E+00        -0.92662E-02         0.00000E+00
    0.12364E+00        -0.69496E-02         0.00000E+00
    0.12364E+00        -0.46331E-02         0.00000E+00
    0.12364E+00        -0.23165E-02         0.00000E+00
    0.12364E+00         0.00000E+00         0.00000E+00
    0.12698E+00        -0.34748E-01         0.00000E+00
    0.12698E+00        -0.32432E-01         0.00000E+00
    0.12698E+00        -0.30115E-01         0.00000E+00
    0.12698E+00        -0.27799E-01         0.00000E+00
    0.12698E+00        -0.25482E-01         0.00000E+00
    0.12698E+00        -0.23165E-01         0.00000E+00
    0.12698E+00        -0.20849E-01         0.00000E+00
    0.12698E+00        -0.18532E-01         0.00000E+00
    0.12698E+00        -0.16216E-01         0.00000E+00
    0.12698E+00        -0.13899E-01         0.00000E+00
    0.12698E+00        -0.11583E-01         0.00000E+00
    0.12698E+00        -0.92662E-02         0.00000E+00
    0.12698E+00        -0.69496E-02         0.00000E+00
    0.12698E+00        -0.46331E-02         0.00000E+00
    0.12698E+00        -0.23165E-02         0.00000E+00
    0.12698E+00         0.00000E+00         0.00000E+00
    0.13030E+00        -0.34748E-01         0.00000E+00
    0.13030E+00        -0.32432E-01         0.00000E+00
    0.13030E+00        -0.30115E-01         0.00000E+00
    0.13030E+00        -0.27799E-01         0.00000E+00
    0.13030E+00        -0.25482E-01         0.00000E+00
    0.13030E+00        -0.23165E-01         0.00000E+00
    0.13030E+00        -0.20849E-01         0.00000E+00
    0.13030E+00        -0.18532E-01         0.00000E+00
    0.13030E+00        -0.16216E-01         0.00000E+00
    0.13030E+00        -0.13899E-01         0.00000E+00
    0.13030E+00        -0.11583E-01         0.00000E+00
    0.13030E+00        -0.92662E-02         0.00000E+00
    0.13030E+00        -0.69496E-02         0.00000E+00
    0.13030E+00        -0.46331E-02         0.00000E+00
    0.13030E+00        -0.23165E-02         0.00000E+00
    0.13030E+00         0.00000E+00         0.00000E+00
    0.13360E+00        -0.34748E-01         0.00000E+00
    0.13360E+00        -0.32432E-01         0.00000E+00
    0.13360E+00        -0.30115E-01         0.00000E+00
    0.13360E+00        -0.27799E-01         0.00000E+00
    0.13360E+00        -0.25482E-01         0.00000E+00
    0.13360E+00        -0.23165E-01         0.00000E+00
    0.13360E+00        -0.20849E-01         0.00000E+00
    0.13360E+00        -0.18532E-01         0.00000E+00
    0.13360E+00        -0.16216E-01         0.00000E+00
    0.13360E+00        -0.13899E-01         0.00000E+00
    0.13360E+00        -0.11583E-01         0.00000E+00
    0.13360E+00        -0.92662E-02         0.00000E+00
    0.13360E+00        -0.69496E-02         0.00000E+00
    0.13360E+00        -0.46331E-02         0.00000E+00
    0.13360E+00        -0.23165E-02         0.00000E+00
    0.13360E+00         0.00000E+00         0.00000E+00
    0.13689E+00        -0.34748E-01         0.00000E+00
    0.13689E+00        -0.32432E-01         0.00000E+00
    0.13689E+00        -0.30115E-01         0.00000E+00
    0.13689E+00        -0.27799E-01         0.00000E+00
    0.13689E+00        -0.25482E-01         0.00000E+00
    0.13689E+00        -0.23165E-01         0.00000E+00
    0.13689E+00        -0.20849E-01         0.00000E+00
    0.13689E+00        -0.18532E-01         0.00000E+00
    0.13689E+00        -0.16216E-01         0.00000E+00
    0.13689E+00        -0.13899E-01         0.00000E+00
    0.13689E+00        -0.11583E-01         0.00000E+00
    0.13689E+00        -0.92662E-02         0.00000E+00
    0.13689E+00        -0.69496E-02         0.00000E+00
    0.13689E+00        -0.46331E-02         0.00000E+00
    0.13689E+00        -0.23165E-02         0.00000E+00
    0.13689E+00         0.00000E+00         0.00000E+00
    0.14015E+00        -0.34748E-01         0.00000E+00
    0.14015E+00        -0.32432E-01         0.00000E+00
    0.14015E+00        -0.30115E-01         0.00000E+00
    0.14015E+00        -0.27799E-01         0.00000E+00
    0.14015E+00        -0.25482E-01         0.00000E+00
    0.14015E+00        -0.23165E-01         0.00000E+00
    0.14015E+00        -0.20849E-01         0.00000E+00
    0.14015E+00        -0.18532E-01         0.00000E+00
    0.14015E+00        -0.16216E-01         0.00000E+00
    0.14015E+00        -0.13899E-01         0.00000E+00
    0.14015E+00        -0.11583E-01         0.00000E+00
    0.14015E+00        -0.92662E-02         0.00000E+00
    0.14015E+00        -0.69496E-02         0.00000E+00
    0.14015E+00        -0.46331E-02         0.00000E+00
    0.14015E+00        -0.23165E-02         0.00000E+00
    0.14015E+00         0.00000E+00         0.00000E+00
    0.14339E+00        -0.34748E-01         0.00000E+00
    0.14339E+00        -0.32432E-01         0.00000E+00
    0.14339E+00        -0.30115E-01         0.00000E+00
    0.14339E+00        -0.27799E-01         0.00000E+00
    0.14339E+00        -0.25482E-01         0.00000E+00
    0.14339E+00        -0.23165E-01         0.00000E+00
    0.14339E+00        -0.20849E-01         0.00000E+00
    0.14339E+00        -0.18532E-01         0.00000E+00
    0.14339E+00        -0.16216E-01         0.00000E+00
    0.14339E+00        -0.13899E-01         0.00000E+00
    0.14339E+00        -0.11583E-01         0.00000E+00
    0.14339E+00        -0.92662E-02         0.00000E+00
    0.14339E+00        -0.69496E-02         0.00000E+00
    0.14339E+00        -0.46331E-02         0.00000E+00
    0.14339E+00        -0.23165E-02         0.00000E+00
    0.14339E+00         0.00000E+00         0.00000E+00
    0.14661E+00        -0.34748E-01         0.00000E+00
    0.14661E+00        -0.32432E-01         0.00000E+00
    0.14661E+00        -0.30115E-01         0.00000E+00
    0.14661E+00        -0.27799E-01         0.00000E+00
    0.14661E+00        -0.25482E-01         0.00000E+00
    0.14661E+00        -0.23165E-01         0.00000E+00
    0.14661E+00        -0.20849E-01         0.00000E+00
    0.14661E+00        -0.18532E-01         0.00000E+00
    0.14661E+00        -0.16216E-01         0.00000E+00
    0.14661E+00        -0.13899E-01         0.00000E+00
    0.14661E+00        -0.11583E-01         0.00000E+00
    0.14661E+00        -0.92662E-02         0.00000E+00
    0.14661E+00        -0.69496E-02         0.00000E+00
    0.14661E+00        -0.46331E-02         0.00000E+00
    0.14661E+00        -0.23165E-02         0.00000E+00
    0.14661E+00         0.00000E+00         0.00000E+00
    0.14981E+00        -0.34748E-01         0.00000E+00
    0.14981E+00        -0.32432E-01         0.00000E+00
    0.14981E+00        -0.30115E-01         0.00000E+00
    0.14981E+00        -0.27799E-01         0.00000E+00
    0.14981E+00        -0.25482E-01         0.00000E+00
    0.14981E+00        -0.23165E-01         0.00000E+00
    0.14981E+00        -0.20849E-01         0.00000E+00
    0.14981E+00        -0.18532E-01         0.00000E+00
    0.14981E+00        -0.16216E-01         0.00000E+00
    0.14981E+00        -0.13899E-01         0.00000E+00
    0.14981E+00        -0.11583E-01         0.00000E+00
    0.14981E+00        -0.92662E-02         0.00000E+00
    0.14981E+00        -0.69496E-02         0.00000E+00
    0.14981E+00        -0.46331E-02         0.00000E+00
    0.14981E+00        -0.23165E-02         0.00000E+00
    0.14981E+00         0.00000E+00         0.00000E+00
    0.15299E+00        -0.34748E-01         0.00000E+00
    0.15299E+00        -0.32432E-01         0.00000E+00
    0.15299E+00        -0.30115E-01         0.00000E+00
    0.15299E+00        -0.27799E-01         0.00000E+00
    0.15299E+00        -0.25482E-01         0.00000E+00
    0.15299E+00        -0.23165E-01         0.00000E+00
    0.15299E+00        -0.20849E-01         0.00000E+00
    0.15299E+00        -0.18532E-01         0.00000E+00
    0.15299E+00        -0.16216E-01         0.00000E+00
    0.15299E+00        -0.13899E-01         0.00000E+00
    0.15299E+00        -0.11583E-01         0.00000E+00
    0.15299E+00        -0.92662E-02         0.00000E+00
    0.15299E+00        -0.69496E-02         0.00000E+00
    0.15299E+00        -0.46331E-02         0.00000E+00
    0.15299E+00        -0.23165E-02         0.00000E+00
    0.15299E+00         0.00000E+00         0.00000E+00
    0.15614E+00        -0.34748E-01         0.00000E+00
    0.15614E+00        -0.32432E-01         0.00000E+00
    0.15614E+00        -0.30115E-01         0.00000E+00
    0.15614E+00        -0.27799E-01         0.00000E+00
    0.15614E+00        -0.25482E-01         0.00000E+00
    0.15614E+00        -0.23165E-01         0.00000E+00
    0.15614E+00        -0.20849E-01         0.00000E+00
    0.15614E+00        -0.18532E-01         0.00000E+00
    0.15614E+00        -0.16216E-01         0.00000E+00
    0.15614E+00        -0.13899E-01         0.00000E+00
    0.15614E+00        -0.11583E-01         0.00000E+00
    0.15614E+00        -0.92662E-02         0.00000E+00
    0.15614E+00        -0.69496E-02         0.00000E+00
    0.15614E+00        -0.46331E-02         0.00000E+00
    0.15614E+00        -0.23165E-02         0.00000E+00
    0.15614E+00         0.00000E+00         0.00000E+00
    0.15926E+00        -0.34748E-01         0.00000E+00
    0.15926E+00        -0.32432E-01         0.00000E+00
    0.15926E+00        -0.30115E-01         0.00000E+00
    0.15926E+00        -0.27799E-01         0.00000E+00
    0.15926E+00        -0.25482E-01         0.00000E+00
    0.15926E+00        -0.23165E-01         0.00000E+00
    0.15926E+00        -0.20849E-01         0.00000E+00
    0.15926E+00        -0.18532E-01         0.00000E+00
    0.15926E+00        -0.16216E-01         0.00000E+00
    0.15926E+00        -0.13899E-01         0.00000E+00
    0.15926E+00        -0.11583E-01         0.00000E+00
    0.15926E+00        -0.92662E-02         0.00000E+00
    0.15926E+00        -0.69496E-02         0.00000E+00
    0.15926E+00        -0.46331E-02         0.00000E+00
    0.15926E+00        -0.23165E-02         0.00000E+00
    0.15926E+00         0.00000E+00         0.00000E+00
    0.16236E+00        -0.34748E-01         0.00000E+00
    0.16236E+00        -0.32432E-01         0.00000E+00
    0.16236E+00        -0.30115E-01         0.00000E+00
    0.16236E+00        -0.27799E-01         0.00000E+00
    0.16236E+00        -0.25482E-01         0.00000E+00
    0.16236E+00        -0.23165E-01         0.00000E+00
    0.16236E+00        -0.20849E-01         0.00000E+00
    0.16236E+00        -0.18532E-01         0.00000E+00
    0.16236E+00        -0.16216E-01         0.00000E+00
    0.16236E+00        -0.13899E-01         0.00000E+00
    0.16236E+00        -0.11583E-01         0.00000E+00
    0.16236E+00        -0.92662E-02         0.00000E+00
    0.16236E+00        -0.69496E-02         0.00000E+00
    0.16236E+00        -0.46331E-02         0.00000E+00
    0.16236E+00        -0.23165E-02         0.00000E+00
    0.16236E+00         0.00000E+00         0.00000E+00
    0.16543E+00        -0.34748E-01         0.00000E+00
    0.16543E+00        -0.32432E-01         0.00000E+00
    0.16543E+00        -0.30115E-01         0.00000E+00
    0.16543E+00        -0.27799E-01         0.00000E+00
    0.16543E+00        -0.25482E-01         0.00000E+00
    0.16543E+00        -0.23165E-01         0.00000E+00
    0.16543E+00        -0.20849E-01         0.00000E+00
    0.16543E+00        -0.18532E-01         0.00000E+00
    0.16543E+00        -0.16216E-01         0.00000E+00
    0.16543E+00        -0.13899E-01         0.00000E+00
    0.16543E+00        -0.11583E-01         0.00000E+00
    0.16543E+00        -0.92662E-02         0.00000E+00
    0.16543E+00        -0.69496E-02         0.00000E+00
    0.16543E+00        -0.46331E-02         0.00000E+00
    0.16543E+00        -0.23165E-02         0.00000E+00
    0.16543E+00         0.00000E+00         0.00000E+00
    0.16848E+00        -0.34748E-01         0.00000E+00
    0.16848E+00        -0.32432E-01         0.00000E+00
    0.16848E+00        -0.30115E-01         0.00000E+00
    0.16848E+00        -0.27799E-01         0.00000E+00
    0.16848E+00        -0.25482E-01         0.00000E+00
    0.16848E+00        -0.23165E-01         0.00000E+00
    0.16848E+00        -0.20849E-01         0.00000E+00
    0.16848E+00        -0.18532E-01         0.00000E+00
    0.16848E+00        -0.16216E-01         0.00000E+00
    0.16848E+00        -0.13899E-01         0.00000E+00
    0.16848E+00        -0.11583E-01         0.00000E+00
    0.16848E+00        -0.92662E-02         0.00000E+00
    0.16848E+00        -0.69496E-02         0.00000E+00
    0.16848E+00        -0.46331E-02         0.00000E+00
    0.16848E+00        -0.23165E-02         0.00000E+00
    0.16848E+00         0.00000E+00         0.00000E+00
    0.17149E+00        -0.34748E-01         0.00000E+00
    0.17149E+00        -0.32432E-01         0.00000E+00
    0.17149E+00        -0.30115E-01         0.00000E+00
    0.17149E+00        -0.27799E-01         0.00000E+00
    0.17149E+00        -0.25482E-01         0.00000E+00
    0.17149E+00        -0.23165E-01         0.00000E+00
    0.17149E+00        -0.20849E-01         0.00000E+00
    0.17149E+00        -0.18532E-01         0.00000E+00
    0.17149E+00        -0.16216E-01         0.00000E+00
    0.17149E+00        -0.13899E-01         0.00000E+00
    0.17149E+00        -0.11583E-01         0.00000E+00
    0.17149E+00        -0.92662E-02         0.00000E+00
    0.17149E+00        -0.69496E-02         0.00000E+00
    0.17149E+00        -0.46331E-02         0.00000E+00
    0.17149E+00        -0.23165E-02         0.00000E+00
    0.17149E+00         0.00000E+00         0.00000E+00
    0.17448E+00        -0.34748E-01         0.00000E+00
    0.17448E+00        -0.32432E-01         0.00000E+00
    0.17448E+00        -0.30115E-01         0.00000E+00
    0.17448E+00        -0.27799E-01         0.00000E+00
    0.17448E+00        -0.25482E-01         0.00000E+00
    0.17448E+00        -0.23165E-01         0.00000E+00
    0.17448E+00        -0.20849E-01         0.00000E+00
    0.17448E+00        -0.18532E-01         0.00000E+00
    0.17448E+00        -0.16216E-01         0.00000E+00
    0.17448E+00        -0.13899E-01         0.00000E+00
    0.17448E+00        -0.11583E-01         0.00000E+00
    0.17448E+00        -0.92662E-02         0.00000E+00
    0.17448E+00        -0.69496E-02         0.00000E+00
    0.17448E+00        -0.46331E-02         0.00000E+00
    0.17448E+00        -0.23165E-02         0.00000E+00
    0.17448E+00         0.00000E+00         0.00000E+00
    0.17744E+00        -0.34748E-01         0.00000E+00
    0.17744E+00        -0.32432E-01         0.00000E+00
    0.17744E+00        -0.30115E-01         0.00000E+00
    0.17744E+00        -0.27799E-01         0.00000E+00
    0.17744E+00        -0.25482E-01         0.00000E+00
    0.17744E+00        -0.23165E-01         0.00000E+00
    0.17744E+00        -0.20849E-01         0.00000E+00
    0.17744E+00        -0.18532E-01         0.00000E+00
    0.17744E+00        -0.16216E-01         0.00000E+00
    0.17744E+00        -0.13899E-01         0.00000E+00
    0.17744E+00        -0.11583E-01         0.00000E+00
    0.17744E+00        -0.92662E-02         0.00000E+00
    0.17744E+00        -0.69496E-02         0.00000E+00
    0.17744E+00        -0.46331E-02         0.00000E+00
    0.17744E+00        -0.23165E-02         0.00000E+00
    0.17744E+00         0.00000E+00         0.00000E+00
    0.18036E+00        -0.34748E-01         0.00000E+00
    0.18036E+00        -0.32432E-01         0.00000E+00
    0.18036E+00        -0.30115E-01         0.00000E+00
    0.18036E+00        -0.27799E-01         0.00000E+00
    0.18036E+00        -0.25482E-01         0.00000E+00
    0.18036E+00        -0.23165E-01         0.00000E+00
    0.18036E+00        -0.20849E-01         0.00000E+00
    0.18036E+00        -0.18532E-01         0.00000E+00
    0.18036E+00        -0.16216E-01         0.00000E+00
    0.18036E+00        -0.13899E-01         0.00000E+00
    0.18036E+00        -0.11583E-01         0.00000E+00
    0.18036E+00        -0.92662E-02         0.00000E+00
    0.18036E+00        -0.69496E-02         0.00000E+00
    0.18036E+00        -0.46331E-02         0.00000E+00
    0.18036E+00        -0.23165E-02         0.00000E+00
    0.18036E+00         0.00000E+00         0.00000E+00
    0.18325E+00        -0.34748E-01         0.00000E+00
    0.18325E+00        -0.32432E-01         0.00000E+00
    0.18325E+00        -0.30115E-01         0.00000E+00
    0.18325E+00        -0.27799E-01         0.00000E+00
    0.18325E+00        -0.25482E-01         0.00000E+00
    0.18325E+00        -0.23165E-01         0.00000E+00
    0.18325E+00        -0.20849E-01         0.00000E+00
    0.18325E+00        -0.18532E-01         0.00000E+00
    0.18325E+00        -0.16216E-01         0.00000E+00
    0.18325E+00        -0.13899E-01         0.00000E+00
    0.18325E+00        -0.11583E-01         0.00000E+00
    0.18325E+00        -0.92662E-02         0.00000E+00
    0.18325E+00        -0.69496E-02         0.00000E+00
    0.18325E+00        -0.46331E-02         0.00000E+00
    0.18325E+00        -0.23165E-02         0.00000E+00
    0.18325E+00         0.00000E+00         0.00000E+00
    0.18611E+00        -0.34748E-01         0.00000E+00
    0.18611E+00        -0.32432E-01         0.00000E+00
    0.18611E+00        -0.30115E-01         0.00000E+00
    0.18611E+00        -0.27799E-01         0.00000E+00
    0.18611E+00        -0.25482E-01         0.00000E+00
    0.18611E+00        -0.23165E-01         0.00000E+00
    0.18611E+00        -0.20849E-01         0.00000E+00
    0.18611E+00        -0.18532E-01         0.00000E+00
    0.18611E+00        -0.16216E-01         0.00000E+00
    0.18611E+00        -0.13899E-01         0.00000E+00
    0.18611E+00        -0.11583E-01         0.00000E+00
    0.18611E+00        -0.92662E-02         0.00000E+00
    0.18611E+00        -0.69496E-02         0.00000E+00
    0.18611E+00        -0.46331E-02         0.00000E+00
    0.18611E+00        -0.23165E-02         0.00000E+00
    0.18611E+00         0.00000E+00         0.00000E+00
    0.18893E+00        -0.34748E-01         0.00000E+00
    0.18893E+00        -0.32432E-01         0.00000E+00
    0.18893E+00        -0.30115E-01         0.00000E+00
    0.18893E+00        -0.27799E-01         0.00000E+00
    0.18893E+00        -0.25482E-01         0.00000E+00
    0.18893E+00        -0.23165E-01         0.00000E+00
    0.18893E+00        -0.20849E-01         0.00000E+00
    0.18893E+00        -0.18532E-01         0.00000E+00
    0.18893E+00        -0.16216E-01         0.00000E+00
    0.18893E+00        -0.13899E-01         0.00000E+00
    0.18893E+00        -0.11583E-01         0.00000E+00
    0.18893E+00        -0.92662E-02         0.00000E+00
    0.18893E+00        -0.69496E-02         0.00000E+00
    0.18893E+00        -0.46331E-02         0.00000E+00
    0.18893E+00        -0.23165E-02         0.00000E+00
    0.18893E+00         0.00000E+00         0.00000E+00
    0.19172E+00        -0.34748E-01         0.00000E+00
    0.19172E+00        -0.32432E-01         0.00000E+00
    0.19172E+00        -0.30115E-01         0.00000E+00
    0.19172E+00        -0.27799E-01         0.00000E+00
    0.19172E+00        -0.25482E-01         0.00000E+00
    0.19172E+00        -0.23165E-01         0.00000E+00
    0.19172E+00        -0.20849E-01         0.00000E+00
    0.19172E+00        -0.18532E-01         0.00000E+00
    0.19172E+00        -0.16216E-01         0.00000E+00
    0.19172E+00        -0.13899E-01         0.00000E+00
    0.19172E+00        -0.11583E-01         0.00000E+00
    0.19172E+00        -0.92662E-02         0.00000E+00
    0.19172E+00        -0.69496E-02         0.00000E+00
    0.19172E+00        -0.46331E-02         0.00000E+00
    0.19172E+00        -0.23165E-02         0.00000E+00
    0.19172E+00         0.00000E+00         0.00000E+00
    0.19447E+00        -0.34748E-01         0.00000E+00
    0.19447E+00        -0.32432E-01         0.00000E+00
    0.19447E+00        -0.30115E-01         0.00000E+00
    0.19447E+00        -0.27799E-01         0.00000E+00
    0.19447E+00        -0.25482E-01         0.00000E+00
    0.19447E+00        -0.23165E-01         0.00000E+00
    0.19447E+00        -0.20849E-01         0.00000E+00
    0.19447E+00        -0.18532E-01         0.00000E+00
    0.19447E+00        -0.16216E-01         0.00000E+00
    0.19447E+00        -0.13899E-01         0.00000E+00
    0.19447E+00        -0.11583E-01         0.00000E+00
    0.19447E+00        -0.92662E-02         0.00000E+00
    0.19447E+00        -0.69496E-02         0.00000E+00
    0.19447E+00        -0.46331E-02         0.00000E+00
    0.19447E+00        -0.23165E-02         0.00000E+00
    0.19447E+00         0.00000E+00         0.00000E+00
    0.19718E+00        -0.34748E-01         0.00000E+00
    0.19718E+00        -0.32432E-01         0.00000E+00
    0.19718E+00        -0.30115E-01         0.00000E+00
    0.19718E+00        -0.27799E-01         0.00000E+00
    0.19718E+00        -0.25482E-01         0.00000E+00
    0.19718E+00        -0.23165E-01         0.00000E+00
    0.19718E+00        -0.20849E-01         0.00000E+00
    0.19718E+00        -0.18532E-01         0.00000E+00
    0.19718E+00        -0.16216E-01         0.00000E+00
    0.19718E+00        -0.13899E-01         0.00000E+00
    0.19718E+00        -0.11583E-01         0.00000E+00
    0.19718E+00        -0.92662E-02         0.00000E+00
    0.19718E+00        -0.69496E-02         0.00000E+00
    0.19718E+00        -0.46331E-02         0.00000E+00
    0.19718E+00        -0.23165E-02         0.00000E+00
    0.19718E+00         0.00000E+00         0.00000E+00
    0.19985E+00        -0.34748E-01         0.00000E+00
    0.19985E+00        -0.32432E-01         0.00000E+00
    0.19985E+00        -0.30115E-01         0.00000E+00
    0.19985E+00        -0.27799E-01         0.00000E+00
    0.19985E+00        -0.25482E-01         0.00000E+00
    0.19985E+00        -0.23165E-01         0.00000E+00
    0.19985E+00        -0.20849E-01         0.00000E+00
    0.19985E+00        -0.18532E-01         0.00000E+00
    0.19985E+00        -0.16216E-01         0.00000E+00
    0.19985E+00        -0.13899E-01         0.00000E+00
    0.19985E+00        -0.11583E-01         0.00000E+00
    0.19985E+00        -0.92662E-02         0.00000E+00
    0.19985E+00        -0.69496E-02         0.00000E+00
    0.19985E+00        -0.46331E-02         0.00000E+00
    0.19985E+00        -0.23165E-02         0.00000E+00
    0.19985E+00         0.00000E+00         0.00000E+00
    0.20248E+00        -0.34748E-01         0.00000E+00
    0.20248E+00        -0.32432E-01         0.00000E+00
    0.20248E+00        -0.30115E-01         0.00000E+00
    0.20248E+00        -0.27799E-01         0.00000E+00
    0.20248E+00        -0.25482E-01         0.00000E+00
    0.20248E+00        -0.23165E-01         0.00000E+00
    0.20248E+00        -0.20849E-01         0.00000E+00
    0.20248E+00        -0.18532E-01         0.00000E+00
    0.20248E+00        -0.16216E-01         0.00000E+00
    0.20248E+00        -0.13899E-01         0.00000E+00
    0.20248E+00        -0.11583E-01         0.00000E+00
    0.20248E+00        -0.92662E-02         0.00000E+00
    0.20248E+00        -0.69496E-02         0.00000E+00
    0.20248E+00        -0.46331E-02         0.00000E+00
    0.20248E+00        -0.23165E-02         0.00000E+00
    0.20248E+00         0.00000E+00         0.00000E+00
    0.20507E+00        -0.34748E-01         0.00000E+00
    0.20507E+00        -0.32432E-01         0.00000E+00
    0.20507E+00        -0.30115E-01         0.00000E+00
    0.20507E+00        -0.27799E-01         0.00000E+00
    0.20507E+00        -0.25482E-01         0.00000E+00
    0.20507E+00        -0.23165E-01         0.00000E+00
    0.20507E+00        -0.20849E-01         0.00000E+00
    0.20507E+00        -0.18532E-01         0.00000E+00
    0.20507E+00        -0.16216E-01         0.00000E+00
    0.20507E+00        -0.13899E-01         0.00000E+00
    0.20507E+00        -0.11583E-01         0.00000E+00
    0.20507E+00        -0.92662E-02         0.00000E+00
    0.20507E+00        -0.69496E-02         0.00000E+00
    0.20507E+00        -0.46331E-02         0.00000E+00
    0.20507E+00        -0.23165E-02         0.00000E+00
    0.20507E+00         0.00000E+00         0.00000E+00
    0.20762E+00        -0.34748E-01         0.00000E+00
    0.20762E+00        -0.32432E-01         0.00000E+00
    0.20762E+00        -0.30115E-01         0.00000E+00
    0.20762E+00        -0.27799E-01         0.00000E+00
    0.20762E+00        -0.25482E-01         0.00000E+00
    0.20762E+00        -0.23165E-01         0.00000E+00
    0.20762E+00        -0.20849E-01         0.00000E+00
    0.20762E+00        -0.18532E-01         0.00000E+00
    0.20762E+00        -0.16216E-01         0.00000E+00
    0.20762E+00        -0.13899E-01         0.00000E+00
    0.20762E+00        -0.11583E-01         0.00000E+00
    0.20762E+00        -0.92662E-02         0.00000E+00
    0.20762E+00        -0.69496E-02         0.00000E+00
    0.20762E+00        -0.46331E-02         0.00000E+00
    0.20762E+00        -0.23165E-02         0.00000E+00
    0.20762E+00         0.00000E+00         0.00000E+00
    0.21013E+00        -0.34748E-01         0.00000E+00
    0.21013E+00        -0.32432E-01         0.00000E+00
    0.21013E+00        -0.30115E-01         0.00000E+00
    0.21013E+00        -0.27799E-01         0.00000E+00
    0.21013E+00        -0.25482E-01         0.00000E+00
    0.21013E+00        -0.23165E-01         0.00000E+00
    0.21013E+00        -0.20849E-01         0.00000E+00
    0.21013E+00        -0.18532E-01         0.00000E+00
    0.21013E+00        -0.16216E-01         0.00000E+00
    0.21013E+00        -0.13899E-01         0.00000E+00
    0.21013E+00        -0.11583E-01         0.00000E+00
    0.21013E+00        -0.92662E-02         0.00000E+00
    0.21013E+00        -0.69496E-02         0.00000E+00
    0.21013E+00        -0.46331E-02         0.00000E+00
    0.21013E+00        -0.23165E-02         0.00000E+00
    0.21013E+00         0.00000E+00         0.00000E+00
    0.21258E+00        -0.34748E-01         0.00000E+00
    0.21258E+00        -0.32432E-01         0.00000E+00
    0.21258E+00        -0.30115E-01         0.00000E+00
    0.21258E+00        -0.27799E-01         0.00000E+00
    0.21258E+00        -0.25482E-01         0.00000E+00
    0.21258E+00        -0.23165E-01         0.00000E+00
    0.21258E+00        -0.20849E-01         0.00000E+00
    0.21258E+00        -0.18532E-01         0.00000E+00
    0.21258E+00        -0.16216E-01         0.00000E+00
    0.21258E+00        -0.13899E-01         0.00000E+00
    0.21258E+00        -0.11583E-01         0.00000E+00
    0.21258E+00        -0.92662E-02         0.00000E+00
    0.21258E+00        -0.69496E-02         0.00000E+00
    0.21258E+00        -0.46331E-02         0.00000E+00
    0.21258E+00        -0.23165E-02         0.00000E+00
    0.21258E+00         0.00000E+00         0.00000E+00
    0.21500E+00        -0.34748E-01         0.00000E+00
    0.21500E+00        -0.32432E-01         0.00000E+00
    0.21500E+00        -0.30115E-01         0.00000E+00
    0.21500E+00        -0.27799E-01         0.00000E+00
    0.21500E+00        -0.25482E-01         0.00000E+00
    0.21500E+00        -0.23165E-01         0.00000E+00
    0.21500E+00        -0.20849E-01         0.00000E+00
    0.21500E+00        -0.18532E-01         0.00000E+00
    0.21500E+00        -0.16216E-01         0.00000E+00
    0.21500E+00        -0.13899E-01         0.00000E+00
    0.21500E+00        -0.11583E-01         0.00000E+00
    0.21500E+00        -0.92662E-02         0.00000E+00
    0.21500E+00        -0.69496E-02         0.00000E+00
    0.21500E+00        -0.46331E-02         0.00000E+00
    0.21500E+00        -0.23165E-02         0.00000E+00
    0.21500E+00         0.00000E+00         0.00000E+00
    0.21736E+00        -0.34748E-01         0.00000E+00
    0.21736E+00        -0.32432E-01         0.00000E+00
    0.21736E+00        -0.30115E-01         0.00000E+00
    0.21736E+00        -0.27799E-01         0.00000E+00
    0.21736E+00        -0.25482E-01         0.00000E+00
    0.21736E+00        -0.23165E-01         0.00000E+00
    0.21736E+00        -0.20849E-01         0.00000E+00
    0.21736E+00        -0.18532E-01         0.00000E+00
    0.21736E+00        -0.16216E-01         0.00000E+00
    0.21736E+00        -0.13899E-01         0.00000E+00
    0.21736E+00        -0.11583E-01         0.00000E+00
    0.21736E+00        -0.92662E-02         0.00000E+00
    0.21736E+00        -0.69496E-02         0.00000E+00
    0.21736E+00        -0.46331E-02         0.00000E+00
    0.21736E+00        -0.23165E-02         0.00000E+00
    0.21736E+00         0.00000E+00         0.00000E+00
    0.21968E+00        -0.34748E-01         0.00000E+00
    0.21968E+00        -0.32432E-01         0.00000E+00
    0.21968E+00        -0.30115E-01         0.00000E+00
    0.21968E+00        -0.27799E-01         0.00000E+00
    0.21968E+00        -0.25482E-01         0.00000E+00
    0.21968E+00        -0.23165E-01         0.00000E+00
    0.21968E+00        -0.20849E-01         0.00000E+00
    0.21968E+00        -0.18532E-01         0.00000E+00
    0.21968E+00        -0.16216E-01         0.00000E+00
    0.21968E+00        -0.13899E-01         0.00000E+00
    0.21968E+00        -0.11583E-01         0.00000E+00
    0.21968E+00        -0.92662E-02         0.00000E+00
    0.21968E+00        -0.69496E-02         0.00000E+00
    0.21968E+00        -0.46331E-02         0.00000E+00
    0.21968E+00        -0.23165E-02         0.00000E+00
    0.21968E+00         0.00000E+00         0.00000E+00
    0.22195E+00        -0.34748E-01         0.00000E+00
    0.22195E+00        -0.32432E-01         0.00000E+00
    0.22195E+00        -0.30115E-01         0.00000E+00
    0.22195E+00        -0.27799E-01         0.00000E+00
    0.22195E+00        -0.25482E-01         0.00000E+00
    0.22195E+00        -0.23165E-01         0.00000E+00
    0.22195E+00        -0.20849E-01         0.00000E+00
    0.22195E+00        -0.18532E-01         0.00000E+00
    0.22195E+00        -0.16216E-01         0.00000E+00
    0.22195E+00        -0.13899E-01         0.00000E+00
    0.22195E+00        -0.11583E-01         0.00000E+00
    0.22195E+00        -0.92662E-02         0.00000E+00
    0.22195E+00        -0.69496E-02         0.00000E+00
    0.22195E+00        -0.46331E-02         0.00000E+00
    0.22195E+00        -0.23165E-02         0.00000E+00
    0.22195E+00         0.00000E+00         0.00000E+00
    0.22417E+00        -0.34748E-01         0.00000E+00
    0.22417E+00        -0.32432E-01         0.00000E+00
    0.22417E+00        -0.30115E-01         0.00000E+00
    0.22417E+00        -0.27799E-01         0.00000E+00
    0.22417E+00        -0.25482E-01         0.00000E+00
    0.22417E+00        -0.23165E-01         0.00000E+00
    0.22417E+00        -0.20849E-01         0.00000E+00
    0.22417E+00        -0.18532E-01         0.00000E+00
    0.22417E+00        -0.16216E-01         0.00000E+00
    0.22417E+00        -0.13899E-01         0.00000E+00
    0.22417E+00        -0.11583E-01         0.00000E+00
    0.22417E+00        -0.92662E-02         0.00000E+00
    0.22417E+00        -0.69496E-02         0.00000E+00
    0.22417E+00        -0.46331E-02         0.00000E+00
    0.22417E+00        -0.23165E-02         0.00000E+00
    0.22417E+00         0.00000E+00         0.00000E+00
    0.22633E+00        -0.34748E-01         0.00000E+00
    0.22633E+00        -0.32432E-01         0.00000E+00
    0.22633E+00        -0.30115E-01         0.00000E+00
    0.22633E+00        -0.27799E-01         0.00000E+00
    0.22633E+00        -0.25482E-01         0.00000E+00
    0.22633E+00        -0.23165E-01         0.00000E+00
    0.22633E+00        -0.20849E-01         0.00000E+00
    0.22633E+00        -0.18532E-01         0.00000E+00
    0.22633E+00        -0.16216E-01         0.00000E+00
    0.22633E+00        -0.13899E-01         0.00000E+00
    0.22633E+00        -0.11583E-01         0.00000E+00
    0.22633E+00        -0.92662E-02         0.00000E+00
    0.22633E+00        -0.69496E-02         0.00000E+00
    0.22633E+00        -0.46331E-02         0.00000E+00
    0.22633E+00        -0.23165E-02         0.00000E+00
    0.22633E+00         0.00000E+00         0.00000E+00
    0.22845E+00        -0.34748E-01         0.00000E+00
    0.22845E+00        -0.32432E-01         0.00000E+00
    0.22845E+00        -0.30115E-01         0.00000E+00
    0.22845E+00        -0.27799E-01         0.00000E+00
    0.22845E+00        -0.25482E-01         0.00000E+00
    0.22845E+00        -0.23165E-01         0.00000E+00
    0.22845E+00        -0.20849E-01         0.00000E+00
    0.22845E+00        -0.18532E-01         0.00000E+00
    0.22845E+00        -0.16216E-01         0.00000E+00
    0.22845E+00        -0.13899E-01         0.00000E+00
    0.22845E+00        -0.11583E-01         0.00000E+00
    0.22845E+00        -0.92662E-02         0.00000E+00
    0.22845E+00        -0.69496E-02         0.00000E+00
    0.22845E+00        -0.46331E-02         0.00000E+00
    0.22845E+00        -0.23165E-02         0.00000E+00
    0.22845E+00         0.00000E+00         0.00000E+00
    0.23051E+00        -0.34748E-01         0.00000E+00
    0.23051E+00        -0.32432E-01         0.00000E+00
    0.23051E+00        -0.30115E-01         0.00000E+00
    0.23051E+00        -0.27799E-01         0.00000E+00
    0.23051E+00        -0.25482E-01         0.00000E+00
    0.23051E+00        -0.23165E-01         0.00000E+00
    0.23051E+00        -0.20849E-01         0.00000E+00
    0.23051E+00        -0.18532E-01         0.00000E+00
    0.23051E+00        -0.16216E-01         0.00000E+00
    0.23051E+00        -0.13899E-01         0.00000E+00
    0.23051E+00        -0.11583E-01         0.00000E+00
    0.23051E+00        -0.92662E-02         0.00000E+00
    0.23051E+00        -0.69496E-02         0.00000E+00
    0.23051E+00        -0.46331E-02         0.00000E+00
    0.23051E+00        -0.23165E-02         0.00000E+00
    0.23051E+00         0.00000E+00         0.00000E+00
    0.23251E+00        -0.34748E-01         0.00000E+00
    0.23251E+00        -0.32432E-01         0.00000E+00
    0.23251E+00        -0.30115E-01         0.00000E+00
    0.23251E+00        -0.27799E-01         0.00000E+00
    0.23251E+00        -0.25482E-01         0.00000E+00
    0.23251E+00        -0.23165E-01         0.00000E+00
    0.23251E+00        -0.20849E-01         0.00000E+00
    0.23251E+00        -0.18532E-01         0.00000E+00
    0.23251E+00        -0.16216E-01         0.00000E+00
    0.23251E+00        -0.13899E-01         0.00000E+00
    0.23251E+00        -0.11583E-01         0.00000E+00
    0.23251E+00        -0.92662E-02         0.00000E+00
    0.23251E+00        -0.69496E-02         0.00000E+00
    0.23251E+00        -0.46331E-02         0.00000E+00
    0.23251E+00        -0.23165E-02         0.00000E+00
    0.23251E+00         0.00000E+00         0.00000E+00
    0.23446E+00        -0.34748E-01         0.00000E+00
    0.23446E+00        -0.32432E-01         0.00000E+00
    0.23446E+00        -0.30115E-01         0.00000E+00
    0.23446E+00        -0.27799E-01         0.00000E+00
    0.23446E+00        -0.25482E-01         0.00000E+00
    0.23446E+00        -0.23165E-01         0.00000E+00
    0.23446E+00        -0.20849E-01         0.00000E+00
    0.23446E+00        -0.18532E-01         0.00000E+00
    0.23446E+00        -0.16216E-01         0.00000E+00
    0.23446E+00        -0.13899E-01         0.00000E+00
    0.23446E+00        -0.11583E-01         0.00000E+00
    0.23446E+00        -0.92662E-02         0.00000E+00
    0.23446E+00        -0.69496E-02         0.00000E+00
    0.23446E+00        -0.46331E-02         0.00000E+00
    0.23446E+00        -0.23165E-02         0.00000E+00
    0.23446E+00         0.00000E+00         0.00000E+00
    0.23635E+00        -0.34748E-01         0.00000E+00
    0.23635E+00        -0.32432E-01         0.00000E+00
    0.23635E+00        -0.30115E-01         0.00000E+00
    0.23635E+00        -0.27799E-01         0.00000E+00
    0.23635E+00        -0.25482E-01         0.00000E+00
    0.23635E+00        -0.23165E-01         0.00000E+00
    0.23635E+00        -0.20849E-01         0.00000E+00
    0.23635E+00        -0.18532E-01         0.00000E+00
    0.23635E+00        -0.16216E-01         0.00000E+00
    0.23635E+00        -0.13899E-01         0.00000E+00
    0.23635E+00        -0.11583E-01         0.00000E+00
    0.23635E+00        -0.92662E-02         0.00000E+00
    0.23635E+00        -0.69496E-02         0.00000E+00
    0.23635E+00        -0.46331E-02         0.00000E+00
    0.23635E+00        -0.23165E-02         0.00000E+00
    0.23635E+00         0.00000E+00         0.00000E+00
    0.23818E+00        -0.34748E-01         0.00000E+00
    0.23818E+00        -0.32432E-01         0.00000E+00
    0.23818E+00        -0.30115E-01         0.00000E+00
    0.23818E+00        -0.27799E-01         0.00000E+00
    0.23818E+00        -0.25482E-01         0.00000E+00
    0.23818E+00        -0.23165E-01         0.00000E+00
    0.23818E+00        -0.20849E-01         0.00000E+00
    0.23818E+00        -0.18532E-01         0.00000E+00
    0.23818E+00        -0.16216E-01         0.00000E+00
    0.23818E+00        -0.13899E-01         0.00000E+00
    0.23818E+00        -0.11583E-01         0.00000E+00
    0.23818E+00        -0.92662E-02         0.00000E+00
    0.23818E+00        -0.69496E-02         0.00000E+00
    0.23818E+00        -0.46331E-02         0.00000E+00
    0.23818E+00        -0.23165E-02         0.00000E+00
    0.23818E+00         0.00000E+00         0.00000E+00
    0.23995E+00        -0.34748E-01         0.00000E+00
    0.23995E+00        -0.32432E-01         0.00000E+00
    0.23995E+00        -0.30115E-01         0.00000E+00
    0.23995E+00        -0.27799E-01         0.00000E+00
    0.23995E+00        -0.25482E-01         0.00000E+00
    0.23995E+00        -0.23165E-01         0.00000E+00
    0.23995E+00        -0.20849E-01         0.00000E+00
    0.23995E+00        -0.18532E-01         0.00000E+00
    0.23995E+00        -0.16216E-01         0.00000E+00
    0.23995E+00        -0.13899E-01         0.00000E+00
    0.23995E+00        -0.11583E-01         0.00000E+00
    0.23995E+00        -0.92662E-02         0.00000E+00
    0.23995E+00        -0.69496E-02         0.00000E+00
    0.23995E+00        -0.46331E-02         0.00000E+00
    0.23995E+00        -0.23165E-02         0.00000E+00
    0.23995E+00         0.00000E+00         0.00000E+00
    0.24166E+00        -0.34748E-01         0.00000E+00
    0.24166E+00        -0.32432E-01         0.00000E+00
    0.24166E+00        -0.30115E-01         0.00000E+00
    0.24166E+00        -0.27799E-01         0.00000E+00
    0.24166E+00        -0.25482E-01         0.00000E+00
    0.24166E+00        -0.23165E-01         0.00000E+00
    0.24166E+00        -0.20849E-01         0.00000E+00
    0.24166E+00        -0.18532E-01         0.00000E+00
    0.24166E+00        -0.16216E-01         0.00000E+00
    0.24166E+00        -0.13899E-01         0.00000E+00
    0.24166E+00        -0.11583E-01         0.00000E+00
    0.24166E+00        -0.92662E-02         0.00000E+00
    0.24166E+00        -0.69496E-02         0.00000E+00
    0.24166E+00        -0.46331E-02         0.00000E+00
    0.24166E+00        -0.23165E-02         0.00000E+00
    0.24166E+00         0.00000E+00         0.00000E+00
    0.24332E+00        -0.34748E-01         0.00000E+00
    0.24332E+00        -0.32432E-01         0.00000E+00
    0.24332E+00        -0.30115E-01         0.00000E+00
    0.24332E+00        -0.27799E-01         0.00000E+00
    0.24332E+00        -0.25482E-01         0.00000E+00
    0.24332E+00        -0.23165E-01         0.00000E+00
    0.24332E+00        -0.20849E-01         0.00000E+00
    0.24332E+00        -0.18532E-01         0.00000E+00
    0.24332E+00        -0.16216E-01         0.00000E+00
    0.24332E+00        -0.13899E-01         0.00000E+00
    0.24332E+00        -0.11583E-01         0.00000E+00
    0.24332E+00        -0.92662E-02         0.00000E+00
    0.24332E+00        -0.69496E-02         0.00000E+00
    0.24332E+00        -0.46331E-02         0.00000E+00
    0.24332E+00        -0.23165E-02         0.00000E+00
    0.24332E+00         0.00000E+00         0.00000E+00
    0.24490E+00        -0.34748E-01         0.00000E+00
    0.24490E+00        -0.32432E-01         0.00000E+00
    0.24490E+00        -0.30115E-01         0.00000E+00
    0.24490E+00        -0.27799E-01         0.00000E+00
    0.24490E+00        -0.25482E-01         0.00000E+00
    0.24490E+00        -0.23165E-01         0.00000E+00
    0.24490E+00        -0.20849E-01         0.00000E+00
    0.24490E+00        -0.18532E-01         0.00000E+00
    0.24490E+00        -0.16216E-01         0.00000E+00
    0.24490E+00        -0.13899E-01         0.00000E+00
    0.24490E+00        -0.11583E-01         0.00000E+00
    0.24490E+00        -0.92662E-02         0.00000E+00
    0.24490E+00        -0.69496E-02         0.00000E+00
    0.24490E+00        -0.46331E-02         0.00000E+00
    0.24490E+00        -0.23165E-02         0.00000E+00
    0.24490E+00         0.00000E+00         0.00000E+00
    0.24643E+00        -0.34748E-01         0.00000E+00
    0.24643E+00        -0.32432E-01         0.00000E+00
    0.24643E+00        -0.30115E-01         0.00000E+00
    0.24643E+00        -0.27799E-01         0.00000E+00
    0.24643E+00        -0.25482E-01         0.00000E+00
    0.24643E+00        -0.23165E-01         0.00000E+00
    0.24643E+00        -0.20849E-01         0.00000E+00
    0.24643E+00        -0.18532E-01         0.00000E+00
    0.24643E+00        -0.16216E-01         0.00000E+00
    0.24643E+00        -0.13899E-01         0.00000E+00
    0.24643E+00        -0.11583E-01         0.00000E+00
    0.24643E+00        -0.92662E-02         0.00000E+00
    0.24643E+00        -0.69496E-02         0.00000E+00
    0.24643E+00        -0.46331E-02         0.00000E+00
    0.24643E+00        -0.23165E-02         0.00000E+00
    0.24643E+00         0.00000E+00         0.00000E+00
    0.24789E+00        -0.34748E-01         0.00000E+00
    0.24789E+00        -0.32432E-01         0.00000E+00
    0.24789E+00        -0.30115E-01         0.00000E+00
    0.24789E+00        -0.27799E-01         0.00000E+00
    0.24789E+00        -0.25482E-01         0.00000E+00
    0.24789E+00        -0.23165E-01         0.00000E+00
    0.24789E+00        -0.20849E-01         0.00000E+00
    0.24789E+00        -0.18532E-01         0.00000E+00
    0.24789E+00        -0.16216E-01         0.00000E+00
    0.24789E+00        -0.13899E-01         0.00000E+00
    0.24789E+00        -0.11583E-01         0.00000E+00
    0.24789E+00        -0.92662E-02         0.00000E+00
    0.24789E+00        -0.69496E-02         0.00000E+00
    0.24789E+00        -0.46331E-02         0.00000E+00
    0.24789E+00        -0.23165E-02         0.00000E+00
    0.24789E+00         0.00000E+00         0.00000E+00
    0.24929E+00        -0.34748E-01         0.00000E+00
    0.24929E+00        -0.32432E-01         0.00000E+00
    0.24929E+00        -0.30115E-01         0.00000E+00
    0.24929E+00        -0.27799E-01         0.00000E+00
    0.24929E+00        -0.25482E-01         0.00000E+00
    0.24929E+00        -0.23165E-01         0.00000E+00
    0.24929E+00        -0.20849E-01         0.00000E+00
    0.24929E+00        -0.18532E-01         0.00000E+00
    0.24929E+00        -0.16216E-01         0.00000E+00
    0.24929E+00        -0.13899E-01         0.00000E+00
    0.24929E+00        -0.11583E-01         0.00000E+00
    0.24929E+00        -0.92662E-02         0.00000E+00
    0.24929E+00        -0.69496E-02         0.00000E+00
    0.24929E+00        -0.46331E-02         0.00000E+00
    0.24929E+00        -0.23165E-02         0.00000E+00
    0.24929E+00         0.00000E+00         0.00000E+00
    0.25062E+00        -0.34748E-01         0.00000E+00
    0.25062E+00        -0.32432E-01         0.00000E+00
    0.25062E+00        -0.30115E-01         0.00000E+00
    0.25062E+00        -0.27799E-01         0.00000E+00
    0.25062E+00        -0.25482E-01         0.00000E+00
    0.25062E+00        -0.23165E-01         0.00000E+00
    0.25062E+00        -0.20849E-01         0.00000E+00
    0.25062E+00        -0.18532E-01         0.00000E+00
    0.25062E+00        -0.16216E-01         0.00000E+00
    0.25062E+00        -0.13899E-01         0.00000E+00
    0.25062E+00        -0.11583E-01         0.00000E+00
    0.25062E+00        -0.92662E-02         0.00000E+00
    0.25062E+00        -0.69496E-02         0.00000E+00
    0.25062E+00        -0.46331E-02         0.00000E+00
    0.25062E+00        -0.23165E-02         0.00000E+00
    0.25062E+00         0.00000E+00         0.00000E+00
    0.25189E+00        -0.34748E-01         0.00000E+00
    0.25189E+00        -0.32432E-01         0.00000E+00
    0.25189E+00        -0.30115E-01         0.00000E+00
    0.25189E+00        -0.27799E-01         0.00000E+00
    0.25189E+00        -0.25482E-01         0.00000E+00
    0.25189E+00        -0.23165E-01         0.00000E+00
    0.25189E+00        -0.20849E-01         0.00000E+00
    0.25189E+00        -0.18532E-01         0.00000E+00
    0.25189E+00        -0.16216E-01         0.00000E+00
    0.25189E+00        -0.13899E-01         0.00000E+00
    0.25189E+00        -0.11583E-01         0.00000E+00
    0.25189E+00        -0.92662E-02         0.00000E+00
    0.25189E+00        -0.69496E-02         0.00000E+00
    0.25189E+00        -0.46331E-02         0.00000E+00
    0.25189E+00        -0.23165E-02         0.00000E+00
    0.25189E+00         0.00000E+00         0.00000E+00
    0.25309E+00        -0.34748E-01         0.00000E+00
    0.25309E+00        -0.32432E-01         0.00000E+00
    0.25309E+00        -0.30115E-01         0.00000E+00
    0.25309E+00        -0.27799E-01         0.00000E+00
    0.25309E+00        -0.25482E-01         0.00000E+00
    0.25309E+00        -0.23165E-01         0.00000E+00
    0.25309E+00        -0.20849E-01         0.00000E+00
    0.25309E+00        -0.18532E-01         0.00000E+00
    0.25309E+00        -0.16216E-01         0.00000E+00
    0.25309E+00        -0.13899E-01         0.00000E+00
    0.25309E+00        -0.11583E-01         0.00000E+00
    0.25309E+00        -0.92662E-02         0.00000E+00
    0.25309E+00        -0.69496E-02         0.00000E+00
    0.25309E+00        -0.46331E-02         0.00000E+00
    0.25309E+00        -0.23165E-02         0.00000E+00
    0.25309E+00         0.00000E+00         0.00000E+00
    0.25423E+00        -0.34748E-01         0.00000E+00
    0.25423E+00        -0.32432E-01         0.00000E+00
    0.25423E+00        -0.30115E-01         0.00000E+00
    0.25423E+00        -0.27799E-01         0.00000E+00
    0.25423E+00        -0.25482E-01         0.00000E+00
    0.25423E+00        -0.23165E-01         0.00000E+00
    0.25423E+00        -0.20849E-01         0.00000E+00
    0.25423E+00        -0.18532E-01         0.00000E+00
    0.25423E+00        -0.16216E-01         0.00000E+00
    0.25423E+00        -0.13899E-01         0.00000E+00
    0.25423E+00        -0.11583E-01         0.00000E+00
    0.25423E+00        -0.92662E-02         0.00000E+00
    0.25423E+00        -0.69496E-02         0.00000E+00
    0.25423E+00        -0.46331E-02         0.00000E+00
    0.25423E+00        -0.23165E-02         0.00000E+00
    0.25423E+00         0.00000E+00         0.00000E+00
    0.25529E+00        -0.34748E-01         0.00000E+00
    0.25529E+00        -0.32432E-01         0.00000E+00
    0.25529E+00        -0.30115E-01         0.00000E+00
    0.25529E+00        -0.27799E-01         0.00000E+00
    0.25529E+00        -0.25482E-01         0.00000E+00
    0.25529E+00        -0.23165E-01         0.00000E+00
    0.25529E+00        -0.20849E-01         0.00000E+00
    0.25529E+00        -0.18532E-01         0.00000E+00
    0.25529E+00        -0.16216E-01         0.00000E+00
    0.25529E+00        -0.13899E-01         0.00000E+00
    0.25529E+00        -0.11583E-01         0.00000E+00
    0.25529E+00        -0.92662E-02         0.00000E+00
    0.25529E+00        -0.69496E-02         0.00000E+00
    0.25529E+00        -0.46331E-02         0.00000E+00
    0.25529E+00        -0.23165E-02         0.00000E+00
    0.25529E+00         0.00000E+00         0.00000E+00
    0.25629E+00        -0.34748E-01         0.00000E+00
    0.25629E+00        -0.32432E-01         0.00000E+00
    0.25629E+00        -0.30115E-01         0.00000E+00
    0.25629E+00        -0.27799E-01         0.00000E+00
    0.25629E+00        -0.25482E-01         0.00000E+00
    0.25629E+00        -0.23165E-01         0.00000E+00
    0.25629E+00        -0.20849E-01         0.00000E+00
    0.25629E+00        -0.18532E-01         0.00000E+00
    0.25629E+00        -0.16216E-01         0.00000E+00
    0.25629E+00        -0.13899E-01         0.00000E+00
    0.25629E+00        -0.11583E-01         0.00000E+00
    0.25629E+00        -0.92662E-02         0.00000E+00
    0.25629E+00        -0.69496E-02         0.00000E+00
    0.25629E+00        -0.46331E-02         0.00000E+00
    0.25629E+00        -0.23165E-02         0.00000E+00
    0.25629E+00         0.00000E+00         0.00000E+00
CELL_DATA       1350
VECTORS vDarcy double 
    0.17535E-08         0.14552E-20         0.00000E+00
    0.17535E-08        -0.17462E-19         0.00000E+00
    0.17535E-08        -0.29104E-20         0.00000E+00
    0.17535E-08         0.00000E+00         0.00000E+00
    0.17535E-08        -0.50932E-20         0.00000E+00
    0.17535E-08        -0.14552E-19         0.00000E+00
    0.17535E-08        -0.10186E-19         0.00000E+00
    0.17535E-08        -0.29104E-20         0.00000E+00
    0.17535E-08         0.00000E+00         0.00000E+00
    0.17535E-08        -0.58208E-20         0.00000E+00
    0.17535E-08        -0.72760E-20         0.00000E+00
    0.17535E-08         0.10186E-19         0.00000E+00
    0.17535E-08         0.29104E-20         0.00000E+00
    0.17535E-08         0.10186E-19         0.00000E+00
    0.17535E-08         0.00000E+00         0.00000E+00
    0.52626E-08         0.29104E-20         0.00000E+00
    0.52626E-08        -0.18190E-19         0.00000E+00
    0.52626E-08         0.00000E+00         0.00000E+00
    0.52626E-08        -0.72760E-20         0.00000E+00
    0.52626E-08        -0.19645E-19         0.00000E+00
    0.52626E-08        -0.72760E-20         0.00000E+00
    0.52626E-08        -0.36380E-20         0.00000E+00
    0.52626E-08         0.00000E+00         0.00000E+00
    0.52626E-08        -0.36380E-20         0.00000E+00
    0.52626E-08        -0.15280E-19         0.00000E+00
    0.52626E-08         0.21828E-20         0.00000E+00
    0.52626E-08         0.18917E-19         0.00000E+00
    0.52626E-08         0.00000E+00         0.00000E+00
    0.52626E-08        -0.14552E-20         0.00000E+00
    0.52626E-08         0.72760E-20         0.00000E+00
    0.87785E-08        -0.50932E-20         0.00000E+00
    0.87785E-08         0.43656E-20         0.00000E+00
    0.87785E-08        -0.43656E-20         0.00000E+00
    0.87785E-08        -0.20373E-19         0.00000E+00
    0.87785E-08        -0.22555E-19         0.00000E+00
    0.87785E-08        -0.87311E-20         0.00000E+00
    0.87785E-08         0.72760E-21         0.00000E+00
    0.87785E-08        -0.43656E-20         0.00000E+00
    0.87785E-08         0.72760E-20         0.00000E+00
    0.87785E-08         0.29104E-20         0.00000E+00
    0.87785E-08         0.15280E-19         0.00000E+00
    0.87785E-08        -0.80036E-20         0.00000E+00
    0.87785E-08         0.65484E-20         0.00000E+00
    0.87785E-08        -0.58208E-20         0.00000E+00
    0.87785E-08         0.21828E-20         0.00000E+00
    0.12306E-07        -0.11278E-19         0.00000E+00
    0.12306E-07         0.54570E-20         0.00000E+00
    0.12306E-07        -0.76398E-20         0.00000E+00
    0.12306E-07        -0.17462E-19         0.00000E+00
    0.12306E-07        -0.50932E-20         0.00000E+00
    0.12306E-07         0.00000E+00         0.00000E+00
    0.12306E-07        -0.24738E-19         0.00000E+00
    0.12306E-07        -0.29104E-20         0.00000E+00
    0.12306E-07         0.87311E-20         0.00000E+00
    0.12306E-07         0.22555E-19         0.00000E+00
    0.12306E-07         0.72760E-20         0.00000E+00
    0.12306E-07        -0.13097E-19         0.00000E+00
    0.12306E-07         0.20373E-19         0.00000E+00
    0.12306E-07        -0.43656E-20         0.00000E+00
    0.12306E-07        -0.14552E-20         0.00000E+00
    0.15849E-07         0.80036E-20         0.00000E+00
    0.15849E-07        -0.13824E-19         0.00000E+00
    0.15849E-07        -0.94587E-20         0.00000E+00
    0.15849E-07        -0.43656E-20         0.00000E+00
    0.15849E-07         0.10186E-19         0.00000E+00
    0.15849E-07         0.00000E+00         0.00000E+00
    0.15849E-07        -0.21100E-19         0.00000E+00
    0.15849E-07        -0.17462E-19         0.00000E+00
    0.15849E-07         0.36380E-20         0.00000E+00
    0.15849E-07         0.72760E-20         0.00000E+00
    0.15849E-07         0.29104E-20         0.00000E+00
    0.15849E-07        -0.29104E-20         0.00000E+00
    0.15849E-07         0.21828E-19         0.00000E+00
    0.15849E-07        -0.50781E-36         0.00000E+00
    0.15849E-07         0.72760E-21         0.00000E+00
    0.19412E-07         0.58208E-20         0.00000E+00
    0.19412E-07        -0.58208E-20         0.00000E+00
    0.19412E-07        -0.87311E-20         0.00000E+00
    0.19412E-07         0.13824E-19         0.00000E+00
    0.19412E-07         0.11642E-19         0.00000E+00
    0.19412E-07        -0.36380E-20         0.00000E+00
    0.19412E-07        -0.16735E-19         0.00000E+00
    0.19412E-07        -0.10550E-19         0.00000E+00
    0.19412E-07         0.21828E-20         0.00000E+00
    0.19412E-07        -0.65484E-20         0.00000E+00
    0.19412E-07        -0.14552E-20         0.00000E+00
    0.19412E-07         0.00000E+00         0.00000E+00
    0.19412E-07         0.17826E-19         0.00000E+00
    0.19412E-07         0.50932E-20         0.00000E+00
    0.19412E-07        -0.72760E-20         0.00000E+00
    0.23000E-07        -0.58208E-20         0.00000E+00
    0.23000E-07         0.10914E-19         0.00000E+00
    0.23000E-07        -0.90949E-20         0.00000E+00
    0.23000E-07         0.65484E-20         0.00000E+00
    0.23000E-07         0.65484E-20         0.00000E+00
    0.23000E-07        -0.29104E-20         0.00000E+00
    0.23000E-07        -0.13097E-19         0.00000E+00
    0.23000E-07         0.14552E-20         0.00000E+00
    0.23000E-07        -0.61846E-20         0.00000E+00
    0.23000E-07        -0.29104E-20         0.00000E+00
    0.23000E-07        -0.11642E-19         0.00000E+00
    0.23000E-07         0.14552E-19         0.00000E+00
    0.23000E-07         0.11642E-19         0.00000E+00
    0.23000E-07         0.87311E-20         0.00000E+00
    0.23000E-07        -0.87311E-20         0.00000E+00
    0.26618E-07         0.14552E-20         0.00000E+00
    0.26618E-07         0.72760E-20         0.00000E+00
    0.26618E-07        -0.87311E-20         0.00000E+00
    0.26618E-07         0.00000E+00         0.00000E+00
    0.26618E-07         0.58208E-20         0.00000E+00
    0.26618E-07         0.36380E-20         0.00000E+00
    0.26618E-07         0.10914E-19         0.00000E+00
    0.26618E-07        -0.72760E-21         0.00000E+00
    0.26618E-07        -0.87311E-20         0.00000E+00
    0.26618E-07        -0.50932E-20         0.00000E+00
    0.26618E-07        -0.21464E-19         0.00000E+00
    0.26618E-07        -0.18190E-20         0.00000E+00
    0.26618E-07         0.15280E-19         0.00000E+00
    0.26618E-07        -0.94587E-20         0.00000E+00
    0.26618E-07         0.94587E-20         0.00000E+00
    0.30269E-07         0.72760E-21         0.00000E+00
    0.30269E-07         0.00000E+00         0.00000E+00
    0.30269E-07        -0.16007E-19         0.00000E+00
    0.30269E-07         0.00000E+00         0.00000E+00
    0.30269E-07         0.80036E-20         0.00000E+00
    0.30269E-07         0.10186E-19         0.00000E+00
    0.30269E-07         0.43656E-20         0.00000E+00
    0.30269E-07         0.65484E-20         0.00000E+00
    0.30269E-07        -0.12369E-19         0.00000E+00
    0.30269E-07        -0.10914E-19         0.00000E+00
    0.30269E-07        -0.26193E-19         0.00000E+00
    0.30269E-07        -0.17462E-19         0.00000E+00
    0.30269E-07         0.16007E-19         0.00000E+00
    0.30269E-07        -0.11642E-19         0.00000E+00
    0.30269E-07         0.15280E-19         0.00000E+00
    0.33959E-07         0.72760E-21         0.00000E+00
    0.33959E-07         0.00000E+00         0.00000E+00
    0.33959E-07        -0.83674E-20         0.00000E+00
    0.33959E-07         0.36380E-20         0.00000E+00
    0.33959E-07         0.40625E-35         0.00000E+00
    0.33959E-07        -0.72760E-21         0.00000E+00
    0.33959E-07        -0.12369E-19         0.00000E+00
    0.33959E-07         0.36380E-20         0.00000E+00
    0.33959E-07        -0.11642E-19         0.00000E+00
    0.33959E-07        -0.87311E-20         0.00000E+00
    0.33959E-07        -0.15280E-19         0.00000E+00
    0.33959E-07        -0.87311E-20         0.00000E+00
    0.33959E-07         0.15280E-19         0.00000E+00
    0.33959E-07        -0.72760E-20         0.00000E+00
    0.33959E-07         0.65484E-20         0.00000E+00
    0.37692E-07        -0.72760E-20         0.00000E+00
    0.37692E-07         0.00000E+00         0.00000E+00
    0.37692E-07         0.94587E-20         0.00000E+00
    0.37692E-07         0.87311E-20         0.00000E+00
    0.37692E-07         0.61846E-20         0.00000E+00
    0.37692E-07        -0.20373E-19         0.00000E+00
    0.37692E-07         0.80036E-20         0.00000E+00
    0.37692E-07        -0.10914E-19         0.00000E+00
    0.37692E-07        -0.80036E-20         0.00000E+00
    0.37692E-07        -0.72760E-20         0.00000E+00
    0.37692E-07         0.29104E-20         0.00000E+00
    0.37692E-07         0.14552E-20         0.00000E+00
    0.37692E-07         0.21828E-19         0.00000E+00
    0.37692E-07        -0.72760E-20         0.00000E+00
    0.37692E-07        -0.10156E-35         0.00000E+00
    0.41472E-07        -0.65484E-20         0.00000E+00
    0.41472E-07        -0.29104E-20         0.00000E+00
    0.41472E-07         0.11642E-19         0.00000E+00
    0.41472E-07         0.13824E-19         0.00000E+00
    0.41472E-07         0.15280E-19         0.00000E+00
    0.41472E-07        -0.29104E-20         0.00000E+00
    0.41472E-07         0.36380E-20         0.00000E+00
    0.41472E-07        -0.21828E-20         0.00000E+00
    0.41472E-07         0.43656E-20         0.00000E+00
    0.41472E-07        -0.14552E-20         0.00000E+00
    0.41472E-07        -0.11278E-19         0.00000E+00
    0.41472E-07        -0.17773E-35         0.00000E+00
    0.41472E-07         0.14552E-20         0.00000E+00
    0.41472E-07        -0.72760E-20         0.00000E+00
    0.41472E-07        -0.36380E-20         0.00000E+00
    0.45304E-07         0.21828E-20         0.00000E+00
    0.45304E-07         0.50932E-20         0.00000E+00
    0.45304E-07         0.22555E-19         0.00000E+00
    0.45304E-07         0.16007E-19         0.00000E+00
    0.45304E-07        -0.72760E-21         0.00000E+00
    0.45304E-07         0.18917E-19         0.00000E+00
    0.45304E-07        -0.81250E-35         0.00000E+00
    0.45304E-07         0.36380E-20         0.00000E+00
    0.45304E-07        -0.36380E-20         0.00000E+00
    0.45304E-07         0.11642E-19         0.00000E+00
    0.45304E-07        -0.24738E-19         0.00000E+00
    0.45304E-07        -0.13097E-19         0.00000E+00
    0.45304E-07        -0.15280E-19         0.00000E+00
    0.45304E-07        -0.22555E-19         0.00000E+00
    0.45304E-07         0.29104E-20         0.00000E+00
    0.49193E-07         0.69122E-20         0.00000E+00
    0.49193E-07         0.65484E-20         0.00000E+00
    0.49193E-07         0.25830E-19         0.00000E+00
    0.49193E-07         0.29104E-20         0.00000E+00
    0.49193E-07         0.72760E-21         0.00000E+00
    0.49193E-07         0.43656E-20         0.00000E+00
    0.49193E-07         0.58208E-20         0.00000E+00
    0.49193E-07         0.36380E-20         0.00000E+00
    0.49193E-07        -0.21828E-20         0.00000E+00
    0.49193E-07        -0.50932E-20         0.00000E+00
    0.49193E-07        -0.21828E-20         0.00000E+00
    0.49193E-07        -0.29104E-20         0.00000E+00
    0.49193E-07        -0.15280E-19         0.00000E+00
    0.49193E-07        -0.28376E-19         0.00000E+00
    0.49193E-07        -0.14552E-20         0.00000E+00
    0.53144E-07         0.43656E-20         0.00000E+00
    0.53144E-07         0.80036E-20         0.00000E+00
    0.53144E-07         0.80036E-20         0.00000E+00
    0.53144E-07         0.43656E-20         0.00000E+00
    0.53144E-07         0.10186E-19         0.00000E+00
    0.53144E-07         0.43656E-20         0.00000E+00
    0.53144E-07        -0.43656E-20         0.00000E+00
    0.53144E-07        -0.29104E-20         0.00000E+00
    0.53144E-07        -0.21828E-20         0.00000E+00
    0.53144E-07        -0.16007E-19         0.00000E+00
    0.53144E-07        -0.25466E-20         0.00000E+00
    0.53144E-07         0.12005E-19         0.00000E+00
    0.53144E-07        -0.16007E-19         0.00000E+00
    0.53144E-07        -0.94587E-20         0.00000E+00
    0.53144E-07        -0.87311E-20         0.00000E+00
    0.57160E-07         0.58208E-20         0.00000E+00
    0.57160E-07         0.16735E-19         0.00000E+00
    0.57160E-07         0.72760E-21         0.00000E+00
    0.57160E-07         0.21828E-20         0.00000E+00
    0.57160E-07         0.50932E-20         0.00000E+00
    0.57160E-07         0.12369E-19         0.00000E+00
    0.57160E-07         0.72760E-21         0.00000E+00
    0.57160E-07        -0.12369E-19         0.00000E+00
    0.57160E-07        -0.15280E-19         0.00000E+00
    0.57160E-07        -0.43656E-20         0.00000E+00
    0.57160E-07        -0.65484E-20         0.00000E+00
    0.57160E-07         0.36380E-21         0.00000E+00
    0.57160E-07        -0.29104E-20         0.00000E+00
    0.57160E-07         0.72760E-21         0.00000E+00
    0.57160E-07        -0.36380E-20         0.00000E+00
    0.61246E-07         0.69122E-20         0.00000E+00
    0.61246E-07         0.36380E-20         0.00000E+00
    0.61246E-07         0.17462E-19         0.00000E+00
    0.61246E-07        -0.36380E-20         0.00000E+00
    0.61246E-07        -0.29104E-20         0.00000E+00
    0.61246E-07         0.14552E-19         0.00000E+00
    0.61246E-07         0.10914E-19         0.00000E+00
    0.61246E-07        -0.80036E-20         0.00000E+00
    0.61246E-07        -0.14552E-19         0.00000E+00
    0.61246E-07         0.18190E-20         0.00000E+00
    0.61246E-07        -0.13824E-19         0.00000E+00
    0.61246E-07         0.50932E-20         0.00000E+00
    0.61246E-07         0.36380E-21         0.00000E+00
    0.61246E-07         0.54570E-20         0.00000E+00
    0.61246E-07        -0.36380E-20         0.00000E+00
    0.65407E-07        -0.14552E-20         0.00000E+00
    0.65407E-07        -0.25466E-20         0.00000E+00
    0.65407E-07         0.18917E-19         0.00000E+00
    0.65407E-07        -0.10186E-19         0.00000E+00
    0.65407E-07         0.10186E-19         0.00000E+00
    0.65407E-07         0.80036E-20         0.00000E+00
    0.65407E-07        -0.14552E-20         0.00000E+00
    0.65407E-07        -0.16735E-19         0.00000E+00
    0.65407E-07        -0.29104E-20         0.00000E+00
    0.65407E-07         0.36380E-20         0.00000E+00
    0.65407E-07        -0.72760E-20         0.00000E+00
    0.65407E-07         0.58208E-20         0.00000E+00
    0.65407E-07        -0.14552E-20         0.00000E+00
    0.65407E-07         0.10186E-19         0.00000E+00
    0.65407E-07         0.72760E-21         0.00000E+00
    0.69648E-07         0.36380E-21         0.00000E+00
    0.69648E-07        -0.36380E-20         0.00000E+00
    0.69648E-07        -0.13097E-19         0.00000E+00
    0.69648E-07         0.43656E-20         0.00000E+00
    0.69648E-07        -0.58208E-20         0.00000E+00
    0.69648E-07         0.36380E-20         0.00000E+00
    0.69648E-07        -0.50932E-20         0.00000E+00
    0.69648E-07        -0.16007E-19         0.00000E+00
    0.69648E-07        -0.36380E-20         0.00000E+00
    0.69648E-07         0.65484E-20         0.00000E+00
    0.69648E-07         0.50932E-20         0.00000E+00
    0.69648E-07         0.36380E-21         0.00000E+00
    0.69648E-07        -0.58208E-20         0.00000E+00
    0.69648E-07         0.29104E-20         0.00000E+00
    0.69648E-07         0.36380E-20         0.00000E+00
    0.73973E-07        -0.14552E-20         0.00000E+00
    0.73973E-07        -0.29104E-20         0.00000E+00
    0.73973E-07        -0.14552E-20         0.00000E+00
    0.73973E-07         0.13097E-19         0.00000E+00
    0.73973E-07        -0.19281E-19         0.00000E+00
    0.73973E-07        -0.87311E-20         0.00000E+00
    0.73973E-07        -0.11642E-19         0.00000E+00
    0.73973E-07         0.72760E-21         0.00000E+00
    0.73973E-07        -0.14552E-19         0.00000E+00
    0.73973E-07        -0.72760E-21         0.00000E+00
    0.73973E-07        -0.10186E-19         0.00000E+00
    0.73973E-07        -0.47294E-20         0.00000E+00
    0.73973E-07         0.76398E-20         0.00000E+00
    0.73973E-07         0.65484E-20         0.00000E+00
    0.73973E-07         0.00000E+00         0.00000E+00
    0.78386E-07         0.29104E-20         0.00000E+00
    0.78386E-07         0.72760E-21         0.00000E+00
    0.78386E-07        -0.14552E-20         0.00000E+00
    0.78386E-07        -0.72760E-20         0.00000E+00
    0.78386E-07        -0.13097E-19         0.00000E+00
    0.78386E-07        -0.32742E-19         0.00000E+00
    0.78386E-07        -0.17462E-19         0.00000E+00
    0.78386E-07         0.54570E-20         0.00000E+00
    0.78386E-07        -0.87311E-20         0.00000E+00
    0.78386E-07        -0.10914E-19         0.00000E+00
    0.78386E-07        -0.28376E-19         0.00000E+00
    0.78386E-07         0.21828E-20         0.00000E+00
    0.78386E-07         0.16007E-19         0.00000E+00
    0.78386E-07         0.80036E-20         0.00000E+00
    0.78386E-07         0.65484E-20         0.00000E+00
    0.82893E-07         0.72760E-21         0.00000E+00
    0.82893E-07         0.21828E-20         0.00000E+00
    0.82893E-07        -0.14552E-20         0.00000E+00
    0.82893E-07        -0.12369E-19         0.00000E+00
    0.82893E-07        -0.13824E-19         0.00000E+00
    0.82893E-07        -0.25466E-19         0.00000E+00
    0.82893E-07        -0.29468E-19         0.00000E+00
    0.82893E-07        -0.65484E-20         0.00000E+00
    0.82893E-07        -0.43656E-20         0.00000E+00
    0.82893E-07        -0.18917E-19         0.00000E+00
    0.82893E-07        -0.13824E-19         0.00000E+00
    0.82893E-07        -0.36380E-20         0.00000E+00
    0.82893E-07         0.36380E-20         0.00000E+00
    0.82893E-07        -0.54570E-20         0.00000E+00
    0.82893E-07         0.10186E-19         0.00000E+00
    0.87497E-07        -0.25466E-20         0.00000E+00
    0.87497E-07         0.11642E-19         0.00000E+00
    0.87497E-07        -0.50932E-20         0.00000E+00
    0.87497E-07         0.43656E-20         0.00000E+00
    0.87497E-07        -0.43656E-20         0.00000E+00
    0.87497E-07        -0.16007E-19         0.00000E+00
    0.87497E-07        -0.28376E-19         0.00000E+00
    0.87497E-07        -0.14552E-19         0.00000E+00
    0.87497E-07         0.21828E-20         0.00000E+00
    0.87497E-07        -0.12733E-19         0.00000E+00
    0.87497E-07        -0.87311E-20         0.00000E+00
    0.87497E-07        -0.15280E-19         0.00000E+00
    0.87497E-07        -0.12369E-19         0.00000E+00
    0.87497E-07         0.25466E-20         0.00000E+00
    0.87497E-07        -0.32742E-20         0.00000E+00
    0.92204E-07         0.98225E-20         0.00000E+00
    0.92204E-07         0.11642E-19         0.00000E+00
    0.92204E-07        -0.87311E-20         0.00000E+00
    0.92204E-07        -0.58208E-20         0.00000E+00
    0.92204E-07         0.87311E-20         0.00000E+00
    0.92204E-07        -0.58208E-20         0.00000E+00
    0.92204E-07        -0.80036E-20         0.00000E+00
    0.92204E-07        -0.18917E-19         0.00000E+00
    0.92204E-07         0.72760E-21         0.00000E+00
    0.92204E-07        -0.18190E-19         0.00000E+00
    0.92204E-07        -0.24738E-19         0.00000E+00
    0.92204E-07        -0.17462E-19         0.00000E+00
    0.92204E-07        -0.61846E-20         0.00000E+00
    0.92204E-07        -0.80036E-20         0.00000E+00
    0.92204E-07        -0.54570E-20         0.00000E+00
    0.97017E-07         0.11642E-19         0.00000E+00
    0.97017E-07         0.71094E-35         0.00000E+00
    0.97017E-07         0.94587E-20         0.00000E+00
    0.97017E-07        -0.13097E-19         0.00000E+00
    0.97017E-07         0.72760E-21         0.00000E+00
    0.97017E-07         0.00000E+00         0.00000E+00
    0.97017E-07        -0.14552E-19         0.00000E+00
    0.97017E-07        -0.12733E-19         0.00000E+00
    0.97017E-07        -0.31287E-19         0.00000E+00
    0.97017E-07        -0.20009E-19         0.00000E+00
    0.97017E-07        -0.34197E-19         0.00000E+00
    0.97017E-07         0.36380E-20         0.00000E+00
    0.97017E-07         0.14552E-20         0.00000E+00
    0.97017E-07        -0.50932E-20         0.00000E+00
    0.97017E-07        -0.80036E-20         0.00000E+00
    0.10194E-06         0.10186E-19         0.00000E+00
    0.10194E-06        -0.21828E-20         0.00000E+00
    0.10194E-06        -0.80036E-20         0.00000E+00
    0.10194E-06         0.36380E-21         0.00000E+00
    0.10194E-06        -0.11642E-19         0.00000E+00
    0.10194E-06        -0.72760E-20         0.00000E+00
    0.10194E-06        -0.17462E-19         0.00000E+00
    0.10194E-06        -0.16735E-19         0.00000E+00
    0.10194E-06        -0.18917E-19         0.00000E+00
    0.10194E-06        -0.94587E-20         0.00000E+00
    0.10194E-06        -0.25466E-19         0.00000E+00
    0.10194E-06         0.94587E-20         0.00000E+00
    0.10194E-06        -0.72760E-20         0.00000E+00
    0.10194E-06        -0.10914E-20         0.00000E+00
    0.10194E-06        -0.98225E-20         0.00000E+00
    0.10698E-06        -0.18190E-20         0.00000E+00
    0.10698E-06        -0.47294E-20         0.00000E+00
    0.10698E-06        -0.87311E-20         0.00000E+00
    0.10698E-06        -0.69122E-20         0.00000E+00
    0.10698E-06        -0.13824E-19         0.00000E+00
    0.10698E-06        -0.20373E-19         0.00000E+00
    0.10698E-06        -0.17099E-19         0.00000E+00
    0.10698E-06        -0.13824E-19         0.00000E+00
    0.10698E-06        -0.10914E-19         0.00000E+00
    0.10698E-06        -0.14916E-19         0.00000E+00
    0.10698E-06        -0.10186E-19         0.00000E+00
    0.10698E-06         0.32742E-20         0.00000E+00
    0.10698E-06         0.43656E-20         0.00000E+00
    0.10698E-06        -0.43656E-20         0.00000E+00
    0.10698E-06         0.29104E-20         0.00000E+00
    0.11214E-06        -0.94587E-20         0.00000E+00
    0.11214E-06        -0.43656E-20         0.00000E+00
    0.11214E-06         0.13097E-19         0.00000E+00
    0.11214E-06        -0.13097E-19         0.00000E+00
    0.11214E-06        -0.16735E-19         0.00000E+00
    0.11214E-06        -0.12369E-19         0.00000E+00
    0.11214E-06        -0.23283E-19         0.00000E+00
    0.11214E-06        -0.19645E-19         0.00000E+00
    0.11214E-06        -0.18917E-19         0.00000E+00
    0.11214E-06        -0.12369E-19         0.00000E+00
    0.11214E-06         0.65484E-20         0.00000E+00
    0.11214E-06         0.40018E-20         0.00000E+00
    0.11214E-06         0.25466E-20         0.00000E+00
    0.11214E-06         0.22555E-19         0.00000E+00
    0.11214E-06        -0.54570E-20         0.00000E+00
    0.11742E-06        -0.25466E-20         0.00000E+00
    0.11742E-06        -0.12005E-19         0.00000E+00
    0.11742E-06         0.54570E-20         0.00000E+00
    0.11742E-06        -0.61846E-20         0.00000E+00
    0.11742E-06        -0.23283E-19         0.00000E+00
    0.11742E-06        -0.24011E-19         0.00000E+00
    0.11742E-06        -0.12369E-19         0.00000E+00
    0.11742E-06        -0.25466E-19         0.00000E+00
    0.11742E-06        -0.17462E-19         0.00000E+00
    0.11742E-06        -0.14552E-19         0.00000E+00
    0.11742E-06         0.10186E-19         0.00000E+00
    0.11742E-06        -0.72760E-21         0.00000E+00
    0.11742E-06         0.12005E-19         0.00000E+00
    0.11742E-06         0.17462E-19         0.00000E+00
    0.11742E-06         0.43656E-20         0.00000E+00
    0.12284E-06         0.72760E-21         0.00000E+00
    0.12284E-06        -0.19645E-19         0.00000E+00
    0.12284E-06         0.72760E-21         0.00000E+00
    0.12284E-06        -0.12369E-19         0.00000E+00
    0.12284E-06        -0.15280E-19         0.00000E+00
    0.12284E-06        -0.16735E-19         0.00000E+00
    0.12284E-06        -0.26193E-19         0.00000E+00
    0.12284E-06        -0.20373E-19         0.00000E+00
    0.12284E-06        -0.10186E-19         0.00000E+00
    0.12284E-06         0.29104E-20         0.00000E+00
    0.12284E-06         0.61846E-20         0.00000E+00
    0.12284E-06         0.58208E-20         0.00000E+00
    0.12284E-06         0.21100E-19         0.00000E+00
    0.12284E-06         0.72760E-21         0.00000E+00
    0.12284E-06         0.14188E-19         0.00000E+00
    0.12838E-06        -0.29104E-20         0.00000E+00
    0.12838E-06        -0.94587E-20         0.00000E+00
    0.12838E-06         0.72760E-20         0.00000E+00
    0.12838E-06        -0.21828E-19         0.00000E+00
    0.12838E-06        -0.10186E-19         0.00000E+00
    0.12838E-06        -0.14552E-19         0.00000E+00
    0.12838E-06        -0.30923E-19         0.00000E+00
    0.12838E-06        -0.15280E-19         0.00000E+00
    0.12838E-06         0.00000E+00         0.00000E+00
    0.12838E-06         0.94587E-20         0.00000E+00
    0.12838E-06         0.80036E-20         0.00000E+00
    0.12838E-06         0.15280E-19         0.00000E+00
    0.12838E-06         0.12369E-19         0.00000E+00
    0.12838E-06         0.14552E-19         0.00000E+00
    0.12838E-06         0.50932E-20         0.00000E+00
    0.13406E-06        -0.29104E-20         0.00000E+00
    0.13406E-06        -0.29104E-20         0.00000E+00
    0.13406E-06        -0.13461E-19         0.00000E+00
    0.13406E-06        -0.50932E-20         0.00000E+00
    0.13406E-06        -0.87311E-20         0.00000E+00
    0.13406E-06        -0.14916E-19         0.00000E+00
    0.13406E-06        -0.19645E-19         0.00000E+00
    0.13406E-06        -0.72760E-20         0.00000E+00
    0.13406E-06         0.18190E-20         0.00000E+00
    0.13406E-06         0.29104E-20         0.00000E+00
    0.13406E-06         0.40018E-20         0.00000E+00
    0.13406E-06         0.10186E-19         0.00000E+00
    0.13406E-06         0.69122E-20         0.00000E+00
    0.13406E-06         0.25466E-20         0.00000E+00
    0.13406E-06         0.47294E-20         0.00000E+00
    0.13988E-06         0.72760E-21         0.00000E+00
    0.13988E-06         0.72760E-20         0.00000E+00
    0.13988E-06        -0.72760E-20         0.00000E+00
    0.13988E-06         0.87311E-20         0.00000E+00
    0.13988E-06        -0.10914E-19         0.00000E+00
    0.13988E-06        -0.36380E-20         0.00000E+00
    0.13988E-06        -0.16735E-19         0.00000E+00
    0.13988E-06        -0.11278E-19         0.00000E+00
    0.13988E-06        -0.58208E-20         0.00000E+00
    0.13988E-06        -0.72760E-21         0.00000E+00
    0.13988E-06         0.10186E-19         0.00000E+00
    0.13988E-06        -0.40018E-20         0.00000E+00
    0.13988E-06         0.14552E-20         0.00000E+00
    0.13988E-06        -0.69122E-20         0.00000E+00
    0.13988E-06         0.14552E-20         0.00000E+00
    0.14585E-06         0.00000E+00         0.00000E+00
    0.14585E-06         0.13824E-19         0.00000E+00
    0.14585E-06         0.20373E-19         0.00000E+00
    0.14585E-06        -0.43656E-20         0.00000E+00
    0.14585E-06        -0.16007E-19         0.00000E+00
    0.14585E-06        -0.65484E-20         0.00000E+00
    0.14585E-06        -0.18917E-19         0.00000E+00
    0.14585E-06        -0.12733E-19         0.00000E+00
    0.14585E-06        -0.98225E-20         0.00000E+00
    0.14585E-06        -0.80036E-20         0.00000E+00
    0.14585E-06        -0.29104E-20         0.00000E+00
    0.14585E-06        -0.94587E-20         0.00000E+00
    0.14585E-06         0.47294E-20         0.00000E+00
    0.14585E-06        -0.87311E-20         0.00000E+00
    0.14585E-06        -0.76398E-20         0.00000E+00
    0.15196E-06         0.36380E-20         0.00000E+00
    0.15196E-06         0.23283E-19         0.00000E+00
    0.15196E-06         0.36380E-20         0.00000E+00
    0.15196E-06        -0.10914E-19         0.00000E+00
    0.15196E-06        -0.13097E-19         0.00000E+00
    0.15196E-06        -0.17462E-19         0.00000E+00
    0.15196E-06        -0.58208E-20         0.00000E+00
    0.15196E-06         0.18190E-20         0.00000E+00
    0.15196E-06        -0.18917E-19         0.00000E+00
    0.15196E-06        -0.21100E-19         0.00000E+00
    0.15196E-06        -0.18190E-19         0.00000E+00
    0.15196E-06        -0.10186E-19         0.00000E+00
    0.15196E-06        -0.43656E-20         0.00000E+00
    0.15196E-06        -0.12369E-19         0.00000E+00
    0.15196E-06        -0.43656E-20         0.00000E+00
    0.15823E-06         0.10186E-19         0.00000E+00
    0.15823E-06         0.54570E-20         0.00000E+00
    0.15823E-06        -0.43656E-20         0.00000E+00
    0.15823E-06        -0.43656E-20         0.00000E+00
    0.15823E-06        -0.23283E-19         0.00000E+00
    0.15823E-06        -0.18917E-19         0.00000E+00
    0.15823E-06        -0.76398E-20         0.00000E+00
    0.15823E-06        -0.47294E-20         0.00000E+00
    0.15823E-06        -0.94587E-20         0.00000E+00
    0.15823E-06        -0.22555E-19         0.00000E+00
    0.15823E-06        -0.24011E-19         0.00000E+00
    0.15823E-06        -0.12369E-19         0.00000E+00
    0.15823E-06        -0.98225E-20         0.00000E+00
    0.15823E-06        -0.72760E-20         0.00000E+00
    0.15823E-06        -0.21828E-20         0.00000E+00
    0.16465E-06         0.14552E-20         0.00000E+00
    0.16465E-06        -0.36380E-21         0.00000E+00
    0.16465E-06         0.21828E-20         0.00000E+00
    0.16465E-06        -0.29104E-20         0.00000E+00
    0.16465E-06        -0.21828E-19         0.00000E+00
    0.16465E-06        -0.13824E-19         0.00000E+00
    0.16465E-06        -0.76398E-20         0.00000E+00
    0.16465E-06        -0.16735E-19         0.00000E+00
    0.16465E-06        -0.18917E-19         0.00000E+00
    0.16465E-06        -0.76398E-20         0.00000E+00
    0.16465E-06        -0.16735E-19         0.00000E+00
    0.16465E-06        -0.16735E-19         0.00000E+00
    0.16465E-06        -0.13097E-19         0.00000E+00
    0.16465E-06        -0.29104E-20         0.00000E+00
    0.16465E-06         0.58208E-20         0.00000E+00
    0.17122E-06        -0.90949E-20         0.00000E+00
    0.17122E-06         0.87311E-20         0.00000E+00
    0.17122E-06        -0.10914E-19         0.00000E+00
    0.17122E-06        -0.36380E-20         0.00000E+00
    0.17122E-06        -0.94587E-20         0.00000E+00
    0.17122E-06        -0.58208E-20         0.00000E+00
    0.17122E-06        -0.10914E-19         0.00000E+00
    0.17122E-06        -0.13097E-19         0.00000E+00
    0.17122E-06        -0.22192E-19         0.00000E+00
    0.17122E-06        -0.94587E-20         0.00000E+00
    0.17122E-06         0.58208E-20         0.00000E+00
    0.17122E-06        -0.19281E-19         0.00000E+00
    0.17122E-06        -0.25466E-20         0.00000E+00
    0.17122E-06        -0.14552E-20         0.00000E+00
    0.17122E-06         0.29104E-20         0.00000E+00
    0.17796E-06        -0.21828E-20         0.00000E+00
    0.17796E-06         0.36380E-20         0.00000E+00
    0.17796E-06         0.50932E-20         0.00000E+00
    0.17796E-06        -0.94587E-20         0.00000E+00
    0.17796E-06        -0.29104E-20         0.00000E+00
    0.17796E-06        -0.11278E-19         0.00000E+00
    0.17796E-06        -0.80036E-20         0.00000E+00
    0.17796E-06        -0.10914E-19         0.00000E+00
    0.17796E-06         0.14552E-20         0.00000E+00
    0.17796E-06        -0.65484E-20         0.00000E+00
    0.17796E-06         0.21828E-20         0.00000E+00
    0.17796E-06        -0.72760E-20         0.00000E+00
    0.17796E-06         0.50932E-20         0.00000E+00
    0.17796E-06         0.80036E-20         0.00000E+00
    0.17796E-06        -0.13824E-19         0.00000E+00
    0.18486E-06         0.00000E+00         0.00000E+00
    0.18486E-06         0.10186E-19         0.00000E+00
    0.18486E-06         0.12369E-19         0.00000E+00
    0.18486E-06        -0.36380E-20         0.00000E+00
    0.18486E-06        -0.40018E-20         0.00000E+00
    0.18486E-06        -0.29104E-20         0.00000E+00
    0.18486E-06         0.72760E-21         0.00000E+00
    0.18486E-06        -0.14552E-20         0.00000E+00
    0.18486E-06         0.58208E-20         0.00000E+00
    0.18486E-06         0.14552E-20         0.00000E+00
    0.18486E-06         0.00000E+00         0.00000E+00
    0.18486E-06         0.43656E-20         0.00000E+00
    0.18486E-06         0.10914E-19         0.00000E+00
    0.18486E-06         0.13097E-19         0.00000E+00
    0.18486E-06        -0.14552E-19         0.00000E+00
    0.19193E-06         0.00000E+00         0.00000E+00
    0.19193E-06         0.15280E-19         0.00000E+00
    0.19193E-06         0.72760E-21         0.00000E+00
    0.19193E-06         0.50932E-20         0.00000E+00
    0.19193E-06        -0.80036E-20         0.00000E+00
    0.19193E-06         0.29104E-20         0.00000E+00
    0.19193E-06         0.10914E-19         0.00000E+00
    0.19193E-06         0.11278E-19         0.00000E+00
    0.19193E-06        -0.29104E-20         0.00000E+00
    0.19193E-06         0.80036E-20         0.00000E+00
    0.19193E-06         0.36380E-20         0.00000E+00
    0.19193E-06         0.61846E-20         0.00000E+00
    0.19193E-06         0.13097E-19         0.00000E+00
    0.19193E-06         0.21828E-20         0.00000E+00
    0.19193E-06         0.43656E-20         0.00000E+00
    0.19917E-06         0.00000E+00         0.00000E+00
    0.19917E-06         0.43656E-20         0.00000E+00
    0.19917E-06        -0.14552E-20         0.00000E+00
    0.19917E-06         0.25466E-20         0.00000E+00
    0.19917E-06         0.14552E-20         0.00000E+00
    0.19917E-06         0.72760E-20         0.00000E+00
    0.19917E-06         0.13824E-19         0.00000E+00
    0.19917E-06         0.10914E-19         0.00000E+00
    0.19917E-06         0.10186E-19         0.00000E+00
    0.19917E-06         0.10186E-19         0.00000E+00
    0.19917E-06         0.72760E-20         0.00000E+00
    0.19917E-06         0.10186E-19         0.00000E+00
    0.19917E-06         0.10914E-19         0.00000E+00
    0.19917E-06         0.90949E-20         0.00000E+00
    0.19917E-06         0.72760E-20         0.00000E+00
    0.20657E-06         0.10914E-19         0.00000E+00
    0.20657E-06         0.29104E-20         0.00000E+00
    0.20657E-06        -0.43656E-20         0.00000E+00
    0.20657E-06         0.00000E+00         0.00000E+00
    0.20657E-06         0.00000E+00         0.00000E+00
    0.20657E-06        -0.50932E-20         0.00000E+00
    0.20657E-06         0.26193E-19         0.00000E+00
    0.20657E-06         0.65484E-20         0.00000E+00
    0.20657E-06         0.18917E-19         0.00000E+00
    0.20657E-06        -0.43656E-20         0.00000E+00
    0.20657E-06         0.15643E-19         0.00000E+00
    0.20657E-06         0.72760E-21         0.00000E+00
    0.20657E-06         0.15643E-19         0.00000E+00
    0.20657E-06         0.13097E-19         0.00000E+00
    0.20657E-06         0.21828E-20         0.00000E+00
    0.21415E-06         0.50932E-20         0.00000E+00
    0.21415E-06         0.90949E-20         0.00000E+00
    0.21415E-06         0.21828E-20         0.00000E+00
    0.21415E-06        -0.21828E-20         0.00000E+00
    0.21415E-06         0.80036E-20         0.00000E+00
    0.21415E-06        -0.29104E-20         0.00000E+00
    0.21415E-06         0.11642E-19         0.00000E+00
    0.21415E-06         0.58208E-20         0.00000E+00
    0.21415E-06         0.36380E-20         0.00000E+00
    0.21415E-06        -0.25466E-20         0.00000E+00
    0.21415E-06         0.61846E-20         0.00000E+00
    0.21415E-06         0.32742E-20         0.00000E+00
    0.21415E-06         0.80036E-20         0.00000E+00
    0.21415E-06         0.43656E-20         0.00000E+00
    0.21415E-06         0.11642E-19         0.00000E+00
    0.22189E-06        -0.10914E-20         0.00000E+00
    0.22189E-06         0.98225E-20         0.00000E+00
    0.22189E-06         0.43656E-20         0.00000E+00
    0.22189E-06         0.43656E-20         0.00000E+00
    0.22189E-06         0.76398E-20         0.00000E+00
    0.22189E-06         0.16735E-19         0.00000E+00
    0.22189E-06        -0.29104E-20         0.00000E+00
    0.22189E-06        -0.14552E-20         0.00000E+00
    0.22189E-06        -0.14552E-20         0.00000E+00
    0.22189E-06         0.36380E-20         0.00000E+00
    0.22189E-06        -0.87311E-20         0.00000E+00
    0.22189E-06        -0.72760E-21         0.00000E+00
    0.22189E-06         0.11642E-19         0.00000E+00
    0.22189E-06         0.43656E-20         0.00000E+00
    0.22189E-06         0.50932E-20         0.00000E+00
    0.22981E-06         0.40018E-20         0.00000E+00
    0.22981E-06        -0.69122E-20         0.00000E+00
    0.22981E-06         0.61846E-20         0.00000E+00
    0.22981E-06         0.10550E-19         0.00000E+00
    0.22981E-06         0.29104E-20         0.00000E+00
    0.22981E-06         0.10186E-19         0.00000E+00
    0.22981E-06        -0.76398E-20         0.00000E+00
    0.22981E-06         0.80036E-20         0.00000E+00
    0.22981E-06         0.00000E+00         0.00000E+00
    0.22981E-06        -0.11278E-19         0.00000E+00
    0.22981E-06        -0.14552E-19         0.00000E+00
    0.22981E-06         0.61846E-20         0.00000E+00
    0.22981E-06         0.16371E-19         0.00000E+00
    0.22981E-06         0.94587E-20         0.00000E+00
    0.22981E-06         0.61846E-20         0.00000E+00
    0.23791E-06        -0.29104E-20         0.00000E+00
    0.23791E-06         0.69122E-20         0.00000E+00
    0.23791E-06         0.15280E-19         0.00000E+00
    0.23791E-06         0.58208E-20         0.00000E+00
    0.23791E-06        -0.36380E-20         0.00000E+00
    0.23791E-06         0.10186E-19         0.00000E+00
    0.23791E-06         0.00000E+00         0.00000E+00
    0.23791E-06         0.29104E-20         0.00000E+00
    0.23791E-06        -0.80036E-20         0.00000E+00
    0.23791E-06        -0.14188E-19         0.00000E+00
    0.23791E-06        -0.11278E-19         0.00000E+00
    0.23791E-06         0.47294E-20         0.00000E+00
    0.23791E-06         0.94587E-20         0.00000E+00
    0.23791E-06         0.65484E-20         0.00000E+00
    0.23791E-06         0.54570E-20         0.00000E+00
    0.24617E-06        -0.14552E-20         0.00000E+00
    0.24617E-06         0.10186E-19         0.00000E+00
    0.24617E-06         0.19645E-19         0.00000E+00
    0.24617E-06        -0.10914E-19         0.00000E+00
    0.24617E-06        -0.58208E-20         0.00000E+00
    0.24617E-06         0.14552E-19         0.00000E+00
    0.24617E-06        -0.25466E-20         0.00000E+00
    0.24617E-06        -0.58208E-20         0.00000E+00
    0.24617E-06        -0.10186E-19         0.00000E+00
    0.24617E-06        -0.10914E-19         0.00000E+00
    0.24617E-06        -0.50932E-20         0.00000E+00
    0.24617E-06         0.21828E-20         0.00000E+00
    0.24617E-06         0.00000E+00         0.00000E+00
    0.24617E-06         0.10186E-19         0.00000E+00
    0.24617E-06         0.72760E-21         0.00000E+00
    0.25461E-06         0.50932E-20         0.00000E+00
    0.25461E-06        -0.21828E-20         0.00000E+00
    0.25461E-06         0.10186E-19         0.00000E+00
    0.25461E-06        -0.10186E-19         0.00000E+00
    0.25461E-06        -0.40018E-20         0.00000E+00
    0.25461E-06        -0.90949E-20         0.00000E+00
    0.25461E-06         0.10914E-20         0.00000E+00
    0.25461E-06         0.18190E-20         0.00000E+00
    0.25461E-06         0.18190E-20         0.00000E+00
    0.25461E-06        -0.43656E-20         0.00000E+00
    0.25461E-06        -0.10186E-19         0.00000E+00
    0.25461E-06         0.25466E-20         0.00000E+00
    0.25461E-06         0.18190E-20         0.00000E+00
    0.25461E-06         0.40018E-20         0.00000E+00
    0.25461E-06        -0.10186E-19         0.00000E+00
    0.26321E-06        -0.10914E-20         0.00000E+00
    0.26321E-06        -0.83674E-20         0.00000E+00
    0.26321E-06        -0.21828E-20         0.00000E+00
    0.26321E-06         0.40018E-20         0.00000E+00
    0.26321E-06        -0.10186E-19         0.00000E+00
    0.26321E-06        -0.17826E-19         0.00000E+00
    0.26321E-06         0.10914E-20         0.00000E+00
    0.26321E-06        -0.83674E-20         0.00000E+00
    0.26321E-06         0.98225E-20         0.00000E+00
    0.26321E-06        -0.14552E-20         0.00000E+00
    0.26321E-06        -0.11642E-19         0.00000E+00
    0.26321E-06        -0.36380E-21         0.00000E+00
    0.26321E-06        -0.29104E-20         0.00000E+00
    0.26321E-06         0.21828E-20         0.00000E+00
    0.26321E-06        -0.50932E-20         0.00000E+00
    0.27198E-06        -0.23647E-20         0.00000E+00
    0.27198E-06        -0.36380E-21         0.00000E+00
    0.27198E-06        -0.52751E-20         0.00000E+00
    0.27198E-06         0.25466E-20         0.00000E+00
    0.27198E-06        -0.14552E-20         0.00000E+00
    0.27198E-06         0.90949E-21         0.00000E+00
    0.27198E-06        -0.60027E-20         0.00000E+00
    0.27198E-06        -0.83674E-20         0.00000E+00
    0.27198E-06        -0.10186E-19         0.00000E+00
    0.27198E-06        -0.47294E-20         0.00000E+00
    0.27198E-06         0.14916E-19         0.00000E+00
    0.27198E-06         0.21828E-20         0.00000E+00
    0.27198E-06        -0.54570E-20         0.00000E+00
    0.27198E-06        -0.36380E-20         0.00000E+00
    0.27198E-06         0.32742E-20         0.00000E+00
    0.28092E-06        -0.14552E-20         0.00000E+00
    0.28092E-06         0.29104E-20         0.00000E+00
    0.28092E-06         0.00000E+00         0.00000E+00
    0.28092E-06        -0.50932E-20         0.00000E+00
    0.28092E-06         0.14916E-19         0.00000E+00
    0.28092E-06        -0.10914E-20         0.00000E+00
    0.28092E-06        -0.10186E-19         0.00000E+00
    0.28092E-06        -0.11278E-19         0.00000E+00
    0.28092E-06        -0.80036E-20         0.00000E+00
    0.28092E-06         0.85493E-20         0.00000E+00
    0.28092E-06         0.11823E-19         0.00000E+00
    0.28092E-06        -0.72760E-21         0.00000E+00
    0.28092E-06        -0.27285E-20         0.00000E+00
    0.28092E-06        -0.21828E-20         0.00000E+00
    0.28092E-06        -0.41837E-20         0.00000E+00
    0.29002E-06         0.40018E-20         0.00000E+00
    0.29002E-06        -0.61846E-20         0.00000E+00
    0.29002E-06         0.80036E-20         0.00000E+00
    0.29002E-06        -0.43656E-20         0.00000E+00
    0.29002E-06         0.40018E-20         0.00000E+00
    0.29002E-06        -0.50932E-20         0.00000E+00
    0.29002E-06        -0.15825E-19         0.00000E+00
    0.29002E-06        -0.61846E-20         0.00000E+00
    0.29002E-06        -0.10914E-20         0.00000E+00
    0.29002E-06         0.16917E-19         0.00000E+00
    0.29002E-06         0.50932E-20         0.00000E+00
    0.29002E-06         0.90949E-21         0.00000E+00
    0.29002E-06         0.23647E-20         0.00000E+00
    0.29002E-06        -0.58208E-20         0.00000E+00
    0.29002E-06        -0.38199E-20         0.00000E+00
    0.29927E-06         0.61846E-20         0.00000E+00
    0.29927E-06        -0.32742E-20         0.00000E+00
    0.29927E-06         0.25466E-20         0.00000E+00
    0.29927E-06        -0.18190E-20         0.00000E+00
    0.29927E-06        -0.32742E-20         0.00000E+00
    0.29927E-06         0.27285E-20         0.00000E+00
    0.29927E-06        -0.13824E-19         0.00000E+00
    0.29927E-06         0.38199E-20         0.00000E+00
    0.29927E-06        -0.25466E-20         0.00000E+00
    0.29927E-06         0.12551E-19         0.00000E+00
    0.29927E-06         0.98225E-20         0.00000E+00
    0.29927E-06         0.15643E-19         0.00000E+00
    0.29927E-06         0.36380E-20         0.00000E+00
    0.29927E-06        -0.13097E-19         0.00000E+00
    0.29927E-06         0.14552E-20         0.00000E+00
    0.30868E-06         0.54570E-21         0.00000E+00
    0.30868E-06        -0.32742E-20         0.00000E+00
    0.30868E-06         0.36380E-21         0.00000E+00
    0.30868E-06        -0.80036E-20         0.00000E+00
    0.30868E-06         0.69122E-20         0.00000E+00
    0.30868E-06         0.41837E-20         0.00000E+00
    0.30868E-06         0.30923E-20         0.00000E+00
    0.30868E-06        -0.18190E-20         0.00000E+00
    0.30868E-06         0.83674E-20         0.00000E+00
    0.30868E-06        -0.18190E-21         0.00000E+00
    0.30868E-06         0.13824E-19         0.00000E+00
    0.30868E-06         0.13097E-19         0.00000E+00
    0.30868E-06         0.45475E-20         0.00000E+00
    0.30868E-06        -0.72760E-21         0.00000E+00
    0.30868E-06        -0.20009E-20         0.00000E+00
    0.31823E-06        -0.40018E-20         0.00000E+00
    0.31823E-06         0.21828E-20         0.00000E+00
    0.31823E-06         0.10550E-19         0.00000E+00
    0.31823E-06        -0.36380E-21         0.00000E+00
    0.31823E-06         0.54570E-20         0.00000E+00
    0.31823E-06         0.21828E-20         0.00000E+00
    0.31823E-06         0.65484E-20         0.00000E+00
    0.31823E-06         0.36380E-21         0.00000E+00
    0.31823E-06         0.65484E-20         0.00000E+00
    0.31823E-06         0.23647E-20         0.00000E+00
    0.31823E-06         0.11642E-19         0.00000E+00
    0.31823E-06         0.10914E-20         0.00000E+00
    0.31823E-06         0.14916E-19         0.00000E+00
    0.31823E-06         0.12187E-19         0.00000E+00
    0.31823E-06         0.14552E-20         0.00000E+00
    0.32791E-06        -0.18190E-20         0.00000E+00
    0.32791E-06         0.80036E-20         0.00000E+00
    0.32791E-06         0.21828E-19         0.00000E+00
    0.32791E-06         0.13642E-19         0.00000E+00
    0.32791E-06        -0.63665E-20         0.00000E+00
    0.32791E-06         0.29104E-20         0.00000E+00
    0.32791E-06         0.61846E-20         0.00000E+00
    0.32791E-06         0.61846E-20         0.00000E+00
    0.32791E-06         0.96406E-20         0.00000E+00
    0.32791E-06         0.30923E-20         0.00000E+00
    0.32791E-06        -0.36380E-20         0.00000E+00
    0.32791E-06         0.90949E-20         0.00000E+00
    0.32791E-06         0.10004E-19         0.00000E+00
    0.32791E-06         0.10550E-19         0.00000E+00
    0.32791E-06         0.72760E-21         0.00000E+00
    0.33773E-06        -0.29104E-20         0.00000E+00
    0.33773E-06         0.80036E-20         0.00000E+00
    0.33773E-06         0.18917E-19         0.00000E+00
    0.33773E-06         0.12915E-19         0.00000E+00
    0.33773E-06        -0.16007E-19         0.00000E+00
    0.33773E-06         0.54570E-20         0.00000E+00
    0.33773E-06         0.21828E-19         0.00000E+00
    0.33773E-06         0.56389E-20         0.00000E+00
    0.33773E-06         0.69122E-20         0.00000E+00
    0.33773E-06         0.11426E-35         0.00000E+00
    0.33773E-06        -0.43656E-20         0.00000E+00
    0.33773E-06         0.81855E-20         0.00000E+00
    0.33773E-06         0.21828E-20         0.00000E+00
    0.33773E-06         0.72760E-20         0.00000E+00
    0.33773E-06        -0.90949E-20         0.00000E+00
    0.34767E-06        -0.14552E-20         0.00000E+00
    0.34767E-06         0.69122E-20         0.00000E+00
    0.34767E-06         0.11278E-19         0.00000E+00
    0.34767E-06         0.13097E-19         0.00000E+00
    0.34767E-06        -0.94587E-20         0.00000E+00
    0.34767E-06         0.10550E-19         0.00000E+00
    0.34767E-06         0.19645E-19         0.00000E+00
    0.34767E-06         0.36380E-20         0.00000E+00
    0.34767E-06         0.74579E-20         0.00000E+00
    0.34767E-06         0.69122E-20         0.00000E+00
    0.34767E-06         0.00000E+00         0.00000E+00
    0.34767E-06        -0.32742E-20         0.00000E+00
    0.34767E-06        -0.54570E-21         0.00000E+00
    0.34767E-06        -0.43656E-20         0.00000E+00
    0.34767E-06        -0.14552E-20         0.00000E+00
    0.35771E-06        -0.25466E-20         0.00000E+00
    0.35771E-06         0.69122E-20         0.00000E+00
    0.35771E-06         0.34561E-20         0.00000E+00
    0.35771E-06         0.65484E-20         0.00000E+00
    0.35771E-06        -0.23647E-20         0.00000E+00
    0.35771E-06         0.69122E-20         0.00000E+00
    0.35771E-06         0.14916E-19         0.00000E+00
    0.35771E-06         0.76398E-20         0.00000E+00
    0.35771E-06         0.15461E-19         0.00000E+00
    0.35771E-06        -0.47294E-20         0.00000E+00
    0.35771E-06         0.72760E-20         0.00000E+00
    0.35771E-06        -0.14552E-20         0.00000E+00
    0.35771E-06         0.36380E-21         0.00000E+00
    0.35771E-06        -0.72760E-21         0.00000E+00
    0.35771E-06        -0.72760E-21         0.00000E+00
    0.36786E-06         0.21828E-20         0.00000E+00
    0.36786E-06         0.76398E-20         0.00000E+00
    0.36786E-06        -0.10550E-19         0.00000E+00
    0.36786E-06         0.25466E-20         0.00000E+00
    0.36786E-06        -0.72760E-21         0.00000E+00
    0.36786E-06         0.54570E-20         0.00000E+00
    0.36786E-06         0.10186E-19         0.00000E+00
    0.36786E-06         0.47294E-20         0.00000E+00
    0.36786E-06         0.69122E-20         0.00000E+00
    0.36786E-06         0.21828E-20         0.00000E+00
    0.36786E-06         0.80036E-20         0.00000E+00
    0.36786E-06         0.40018E-20         0.00000E+00
    0.36786E-06        -0.36380E-20         0.00000E+00
    0.36786E-06         0.18190E-21         0.00000E+00
    0.36786E-06        -0.80036E-20         0.00000E+00
    0.37809E-06         0.83674E-20         0.00000E+00
    0.37809E-06         0.47294E-20         0.00000E+00
    0.37809E-06        -0.10550E-19         0.00000E+00
    0.37809E-06        -0.72760E-21         0.00000E+00
    0.37809E-06         0.72760E-20         0.00000E+00
    0.37809E-06        -0.47294E-20         0.00000E+00
    0.37809E-06         0.10732E-19         0.00000E+00
    0.37809E-06         0.29104E-20         0.00000E+00
    0.37809E-06         0.72760E-21         0.00000E+00
    0.37809E-06         0.15643E-19         0.00000E+00
    0.37809E-06         0.96406E-20         0.00000E+00
    0.37809E-06        -0.47294E-20         0.00000E+00
    0.37809E-06        -0.14552E-20         0.00000E+00
    0.37809E-06        -0.80036E-20         0.00000E+00
    0.37809E-06        -0.72760E-21         0.00000E+00
    0.38839E-06         0.30923E-20         0.00000E+00
    0.38839E-06         0.41837E-20         0.00000E+00
    0.38839E-06         0.72760E-21         0.00000E+00
    0.38839E-06         0.25466E-20         0.00000E+00
    0.38839E-06         0.13097E-19         0.00000E+00
    0.38839E-06        -0.14552E-20         0.00000E+00
    0.38839E-06        -0.21828E-20         0.00000E+00
    0.38839E-06         0.80036E-20         0.00000E+00
    0.38839E-06         0.18190E-20         0.00000E+00
    0.38839E-06        -0.18190E-21         0.00000E+00
    0.38839E-06         0.11096E-19         0.00000E+00
    0.38839E-06         0.36380E-20         0.00000E+00
    0.38839E-06         0.00000E+00         0.00000E+00
    0.38839E-06        -0.50932E-20         0.00000E+00
    0.38839E-06        -0.49113E-20         0.00000E+00
    0.39875E-06        -0.50932E-20         0.00000E+00
    0.39875E-06         0.10914E-20         0.00000E+00
    0.39875E-06         0.13097E-19         0.00000E+00
    0.39875E-06         0.87311E-20         0.00000E+00
    0.39875E-06         0.38199E-20         0.00000E+00
    0.39875E-06         0.00000E+00         0.00000E+00
    0.39875E-06        -0.50932E-20         0.00000E+00
    0.39875E-06        -0.41837E-20         0.00000E+00
    0.39875E-06         0.36380E-21         0.00000E+00
    0.39875E-06        -0.40018E-20         0.00000E+00
    0.39875E-06         0.72760E-20         0.00000E+00
    0.39875E-06         0.45475E-20         0.00000E+00
    0.39875E-06         0.18190E-20         0.00000E+00
    0.39875E-06         0.69122E-20         0.00000E+00
    0.39875E-06         0.18190E-21         0.00000E+00
    0.40915E-06         0.12733E-20         0.00000E+00
    0.40915E-06        -0.72760E-21         0.00000E+00
    0.40915E-06         0.11278E-19         0.00000E+00
    0.40915E-06         0.54570E-21         0.00000E+00
    0.40915E-06        -0.43656E-20         0.00000E+00
    0.40915E-06        -0.21828E-20         0.00000E+00
    0.40915E-06        -0.98225E-20         0.00000E+00
    0.40915E-06        -0.18372E-19         0.00000E+00
    0.40915E-06         0.14552E-20         0.00000E+00
    0.40915E-06         0.58208E-20         0.00000E+00
    0.40915E-06        -0.47294E-20         0.00000E+00
    0.40915E-06        -0.43656E-20         0.00000E+00
    0.40915E-06         0.32742E-20         0.00000E+00
    0.40915E-06         0.94587E-20         0.00000E+00
    0.40915E-06         0.14370E-19         0.00000E+00
    0.41957E-06         0.47294E-20         0.00000E+00
    0.41957E-06         0.30923E-20         0.00000E+00
    0.41957E-06        -0.10914E-20         0.00000E+00
    0.41957E-06         0.00000E+00         0.00000E+00
    0.41957E-06        -0.87311E-20         0.00000E+00
    0.41957E-06        -0.32742E-20         0.00000E+00
    0.41957E-06        -0.10914E-19         0.00000E+00
    0.41957E-06        -0.10914E-19         0.00000E+00
    0.41957E-06        -0.72760E-20         0.00000E+00
    0.41957E-06         0.72760E-21         0.00000E+00
    0.41957E-06        -0.94587E-20         0.00000E+00
    0.41957E-06         0.00000E+00         0.00000E+00
    0.41957E-06         0.32742E-20         0.00000E+00
    0.41957E-06         0.83674E-20         0.00000E+00
    0.41957E-06         0.12005E-19         0.00000E+00
    0.42999E-06         0.13461E-19         0.00000E+00
    0.42999E-06         0.41895E-35         0.00000E+00
    0.42999E-06         0.36380E-21         0.00000E+00
    0.42999E-06        -0.58208E-20         0.00000E+00
    0.42999E-06        -0.36380E-20         0.00000E+00
    0.42999E-06        -0.34561E-20         0.00000E+00
    0.42999E-06        -0.32742E-20         0.00000E+00
    0.42999E-06        -0.25466E-20         0.00000E+00
    0.42999E-06        -0.90949E-20         0.00000E+00
    0.42999E-06        -0.50932E-20         0.00000E+00
    0.42999E-06        -0.61846E-20         0.00000E+00
    0.42999E-06        -0.54570E-20         0.00000E+00
    0.42999E-06         0.72760E-20         0.00000E+00
    0.42999E-06        -0.72760E-21         0.00000E+00
    0.42999E-06        -0.29104E-20         0.00000E+00
    0.44040E-06         0.40018E-20         0.00000E+00
    0.44040E-06         0.54570E-20         0.00000E+00
    0.44040E-06         0.36380E-21         0.00000E+00
    0.44040E-06         0.14552E-20         0.00000E+00
    0.44040E-06         0.29104E-20         0.00000E+00
    0.44040E-06        -0.65484E-20         0.00000E+00
    0.44040E-06        -0.50932E-20         0.00000E+00
    0.44040E-06        -0.83674E-20         0.00000E+00
    0.44040E-06         0.25466E-20         0.00000E+00
    0.44040E-06        -0.18190E-20         0.00000E+00
    0.44040E-06        -0.98225E-20         0.00000E+00
    0.44040E-06        -0.25466E-20         0.00000E+00
    0.44040E-06        -0.72760E-21         0.00000E+00
    0.44040E-06        -0.43656E-20         0.00000E+00
    0.44040E-06        -0.18190E-20         0.00000E+00
    0.45076E-06         0.65484E-20         0.00000E+00
    0.45076E-06         0.47294E-20         0.00000E+00
    0.45076E-06        -0.36380E-21         0.00000E+00
    0.45076E-06         0.50932E-20         0.00000E+00
    0.45076E-06         0.18190E-20         0.00000E+00
    0.45076E-06        -0.21828E-20         0.00000E+00
    0.45076E-06        -0.29104E-20         0.00000E+00
    0.45076E-06        -0.11642E-19         0.00000E+00
    0.45076E-06         0.43656E-20         0.00000E+00
    0.45076E-06        -0.14552E-20         0.00000E+00
    0.45076E-06         0.50932E-20         0.00000E+00
    0.45076E-06         0.14552E-20         0.00000E+00
    0.45076E-06        -0.43164E-35         0.00000E+00
    0.45076E-06        -0.11823E-19         0.00000E+00
    0.45076E-06        -0.50932E-20         0.00000E+00
    0.46107E-06         0.12551E-19         0.00000E+00
    0.46107E-06         0.92768E-20         0.00000E+00
    0.46107E-06        -0.14552E-20         0.00000E+00
    0.46107E-06        -0.25466E-20         0.00000E+00
    0.46107E-06         0.32742E-20         0.00000E+00
    0.46107E-06         0.43656E-20         0.00000E+00
    0.46107E-06         0.18190E-20         0.00000E+00
    0.46107E-06        -0.72760E-20         0.00000E+00
    0.46107E-06        -0.18190E-20         0.00000E+00
    0.46107E-06         0.21828E-20         0.00000E+00
    0.46107E-06         0.92768E-20         0.00000E+00
    0.46107E-06         0.11642E-19         0.00000E+00
    0.46107E-06        -0.10914E-20         0.00000E+00
    0.46107E-06        -0.12369E-19         0.00000E+00
    0.46107E-06        -0.50932E-20         0.00000E+00
    0.47128E-06         0.90949E-21         0.00000E+00
    0.47128E-06         0.10550E-19         0.00000E+00
    0.47128E-06        -0.36380E-21         0.00000E+00
    0.47128E-06         0.10914E-20         0.00000E+00
    0.47128E-06         0.69122E-20         0.00000E+00
    0.47128E-06         0.29104E-20         0.00000E+00
    0.47128E-06         0.50932E-20         0.00000E+00
    0.47128E-06         0.18190E-20         0.00000E+00
    0.47128E-06         0.25466E-20         0.00000E+00
    0.47128E-06         0.14552E-20         0.00000E+00
    0.47128E-06         0.54570E-20         0.00000E+00
    0.47128E-06         0.65484E-20         0.00000E+00
    0.47128E-06         0.30469E-35         0.00000E+00
    0.47128E-06         0.36380E-21         0.00000E+00
    0.47128E-06        -0.49113E-20         0.00000E+00
    0.48138E-06        -0.72760E-21         0.00000E+00
    0.48138E-06         0.20009E-20         0.00000E+00
    0.48138E-06        -0.18190E-20         0.00000E+00
    0.48138E-06        -0.30923E-20         0.00000E+00
    0.48138E-06         0.76398E-20         0.00000E+00
    0.48138E-06         0.43656E-20         0.00000E+00
    0.48138E-06         0.76398E-20         0.00000E+00
    0.48138E-06         0.14552E-20         0.00000E+00
    0.48138E-06         0.61846E-20         0.00000E+00
    0.48138E-06        -0.23647E-20         0.00000E+00
    0.48138E-06         0.58208E-20         0.00000E+00
    0.48138E-06        -0.21828E-20         0.00000E+00
    0.48138E-06         0.36380E-20         0.00000E+00
    0.48138E-06        -0.12695E-36         0.00000E+00
    0.48138E-06         0.40018E-20         0.00000E+00
    0.49134E-06         0.36380E-20         0.00000E+00
    0.49134E-06         0.18190E-20         0.00000E+00
    0.49134E-06        -0.65484E-20         0.00000E+00
    0.49134E-06        -0.76398E-20         0.00000E+00
    0.49134E-06         0.65484E-20         0.00000E+00
    0.49134E-06         0.11642E-19         0.00000E+00
    0.49134E-06         0.58208E-20         0.00000E+00
    0.49134E-06        -0.72760E-21         0.00000E+00
    0.49134E-06         0.21828E-20         0.00000E+00
    0.49134E-06         0.36380E-20         0.00000E+00
    0.49134E-06         0.36380E-20         0.00000E+00
    0.49134E-06         0.61846E-20         0.00000E+00
    0.49134E-06        -0.58208E-20         0.00000E+00
    0.49134E-06         0.72760E-21         0.00000E+00
    0.49134E-06         0.18190E-20         0.00000E+00
    0.50114E-06         0.45475E-20         0.00000E+00
    0.50114E-06        -0.37289E-20         0.00000E+00
    0.50114E-06        -0.78217E-20         0.00000E+00
    0.50114E-06        -0.10914E-20         0.00000E+00
    0.50114E-06         0.25466E-20         0.00000E+00
    0.50114E-06         0.67303E-20         0.00000E+00
    0.50114E-06         0.56389E-20         0.00000E+00
    0.50114E-06         0.50932E-20         0.00000E+00
    0.50114E-06         0.30013E-20         0.00000E+00
    0.50114E-06         0.36380E-20         0.00000E+00
    0.50114E-06        -0.27285E-20         0.00000E+00
    0.50114E-06         0.00000E+00         0.00000E+00
    0.50114E-06        -0.10004E-20         0.00000E+00
    0.50114E-06        -0.25466E-20         0.00000E+00
    0.50114E-06        -0.20009E-20         0.00000E+00
    0.51073E-06         0.16371E-20         0.00000E+00
    0.51073E-06        -0.20918E-20         0.00000E+00
    0.51073E-06        -0.18190E-20         0.00000E+00
    0.51073E-06         0.40018E-20         0.00000E+00
    0.51073E-06        -0.54570E-21         0.00000E+00
    0.51073E-06         0.65484E-20         0.00000E+00
    0.51073E-06         0.49113E-20         0.00000E+00
    0.51073E-06         0.61846E-20         0.00000E+00
    0.51073E-06        -0.31832E-20         0.00000E+00
    0.51073E-06        -0.28194E-20         0.00000E+00
    0.51073E-06        -0.36380E-20         0.00000E+00
    0.51073E-06        -0.35470E-20         0.00000E+00
    0.51073E-06        -0.14552E-20         0.00000E+00
    0.51073E-06        -0.16371E-20         0.00000E+00
    0.51073E-06        -0.36380E-21         0.00000E+00
    0.52009E-06        -0.36380E-21         0.00000E+00
    0.52009E-06         0.21828E-20         0.00000E+00
    0.52009E-06        -0.45475E-21         0.00000E+00
    0.52009E-06         0.83674E-20         0.00000E+00
    0.52009E-06         0.25466E-20         0.00000E+00
    0.52009E-06         0.67303E-20         0.00000E+00
    0.52009E-06         0.36380E-21         0.00000E+00
    0.52009E-06        -0.34561E-20         0.00000E+00
    0.52009E-06        -0.21828E-20         0.00000E+00
    0.52009E-06        -0.43656E-20         0.00000E+00
    0.52009E-06        -0.38199E-20         0.00000E+00
    0.52009E-06        -0.56389E-20         0.00000E+00
    0.52009E-06         0.21828E-20         0.00000E+00
    0.52009E-06        -0.12733E-20         0.00000E+00
    0.52009E-06         0.54570E-21         0.00000E+00
    0.52920E-06         0.37289E-20         0.00000E+00
    0.52920E-06         0.25466E-20         0.00000E+00
    0.52920E-06         0.67303E-20         0.00000E+00
    0.52920E-06        -0.61846E-20         0.00000E+00
    0.52920E-06         0.40927E-20         0.00000E+00
    0.52920E-06         0.31832E-20         0.00000E+00
    0.52920E-06        -0.12733E-20         0.00000E+00
    0.52920E-06        -0.30013E-20         0.00000E+00
    0.52920E-06        -0.34561E-20         0.00000E+00
    0.52920E-06        -0.87311E-20         0.00000E+00
    0.52920E-06        -0.60027E-20         0.00000E+00
    0.52920E-06        -0.20009E-20         0.00000E+00
    0.52920E-06         0.50932E-20         0.00000E+00
    0.52920E-06         0.36380E-21         0.00000E+00
    0.52920E-06        -0.81855E-21         0.00000E+00
    0.53802E-06        -0.14552E-20         0.00000E+00
    0.53802E-06         0.51841E-20         0.00000E+00
    0.53802E-06         0.30923E-20         0.00000E+00
    0.53802E-06        -0.10550E-19         0.00000E+00
    0.53802E-06        -0.10914E-20         0.00000E+00
    0.53802E-06         0.27285E-21         0.00000E+00
    0.53802E-06        -0.25466E-20         0.00000E+00
    0.53802E-06        -0.81855E-21         0.00000E+00
    0.53802E-06        -0.83674E-20         0.00000E+00
    0.53802E-06        -0.48203E-20         0.00000E+00
    0.53802E-06        -0.27285E-20         0.00000E+00
    0.53802E-06         0.16371E-20         0.00000E+00
    0.53802E-06         0.18190E-20         0.00000E+00
    0.53802E-06         0.90949E-21         0.00000E+00
    0.53802E-06        -0.63665E-21         0.00000E+00
    0.54651E-06        -0.15461E-20         0.00000E+00
    0.54651E-06        -0.28194E-20         0.00000E+00
    0.54651E-06         0.72760E-21         0.00000E+00
    0.54651E-06        -0.78217E-20         0.00000E+00
    0.54651E-06        -0.40927E-20         0.00000E+00
    0.54651E-06        -0.36380E-21         0.00000E+00
    0.54651E-06        -0.20009E-20         0.00000E+00
    0.54651E-06        -0.66393E-20         0.00000E+00
    0.54651E-06        -0.67303E-20         0.00000E+00
    0.54651E-06        -0.18190E-21         0.00000E+00
    0.54651E-06        -0.54570E-21         0.00000E+00
    0.54651E-06        -0.48203E-20         0.00000E+00
    0.54651E-06        -0.30923E-20         0.00000E+00
    0.54651E-06        -0.10914E-20         0.00000E+00
    0.54651E-06         0.63665E-20         0.00000E+00
    0.55466E-06         0.10914E-20         0.00000E+00
    0.55466E-06        -0.65484E-20         0.00000E+00
    0.55466E-06        -0.34561E-20         0.00000E+00
    0.55466E-06        -0.14552E-20         0.00000E+00
    0.55466E-06        -0.45475E-20         0.00000E+00
    0.55466E-06        -0.54570E-21         0.00000E+00
    0.55466E-06        -0.45475E-20         0.00000E+00
    0.55466E-06        -0.49113E-20         0.00000E+00
    0.55466E-06        -0.12733E-20         0.00000E+00
    0.55466E-06        -0.54570E-21         0.00000E+00
    0.55466E-06        -0.90949E-21         0.00000E+00
    0.55466E-06        -0.61846E-20         0.00000E+00
    0.55466E-06        -0.40018E-20         0.00000E+00
    0.55466E-06         0.12733E-20         0.00000E+00
    0.55466E-06         0.34561E-20         0.00000E+00
    0.56242E-06        -0.90949E-21         0.00000E+00
    0.56242E-06        -0.32742E-20         0.00000E+00
    0.56242E-06        -0.68212E-20         0.00000E+00
    0.56242E-06        -0.58208E-20         0.00000E+00
    0.56242E-06         0.18190E-21         0.00000E+00
    0.56242E-06        -0.13642E-20         0.00000E+00
    0.56242E-06        -0.47294E-20         0.00000E+00
    0.56242E-06        -0.49113E-20         0.00000E+00
    0.56242E-06         0.14552E-20         0.00000E+00
    0.56242E-06         0.72760E-21         0.00000E+00
    0.56242E-06        -0.22737E-20         0.00000E+00
    0.56242E-06        -0.32742E-20         0.00000E+00
    0.56242E-06        -0.34561E-20         0.00000E+00
    0.56242E-06        -0.21828E-20         0.00000E+00
    0.56242E-06        -0.23647E-20         0.00000E+00
    0.56977E-06         0.16371E-20         0.00000E+00
    0.56977E-06        -0.64574E-20         0.00000E+00
    0.56977E-06        -0.28194E-20         0.00000E+00
    0.56977E-06        -0.60027E-20         0.00000E+00
    0.56977E-06        -0.29104E-20         0.00000E+00
    0.56977E-06         0.10914E-20         0.00000E+00
    0.56977E-06        -0.50932E-20         0.00000E+00
    0.56977E-06        -0.58208E-20         0.00000E+00
    0.56977E-06        -0.16371E-20         0.00000E+00
    0.56977E-06         0.23647E-20         0.00000E+00
    0.56977E-06         0.00000E+00         0.00000E+00
    0.56977E-06        -0.27285E-20         0.00000E+00
    0.56977E-06         0.45475E-21         0.00000E+00
    0.56977E-06        -0.40018E-20         0.00000E+00
    0.56977E-06        -0.21828E-20         0.00000E+00
    0.57668E-06         0.90949E-22         0.00000E+00
    0.57668E-06        -0.13642E-20         0.00000E+00
    0.57668E-06        -0.47294E-20         0.00000E+00
    0.57668E-06        -0.19099E-20         0.00000E+00
    0.57668E-06        -0.22737E-20         0.00000E+00
    0.57668E-06        -0.54570E-20         0.00000E+00
    0.57668E-06        -0.52751E-20         0.00000E+00
    0.57668E-06        -0.42292E-20         0.00000E+00
    0.57668E-06        -0.18190E-20         0.00000E+00
    0.57668E-06         0.21828E-20         0.00000E+00
    0.57668E-06         0.26375E-20         0.00000E+00
    0.57668E-06         0.22737E-20         0.00000E+00
    0.57668E-06        -0.36380E-21         0.00000E+00
    0.57668E-06        -0.11823E-20         0.00000E+00
    0.57668E-06        -0.77307E-21         0.00000E+00
    0.58312E-06        -0.63665E-21         0.00000E+00
    0.58312E-06        -0.10459E-20         0.00000E+00
    0.58312E-06        -0.68212E-21         0.00000E+00
    0.58312E-06        -0.22283E-20         0.00000E+00
    0.58312E-06        -0.19099E-20         0.00000E+00
    0.58312E-06        -0.65484E-20         0.00000E+00
    0.58312E-06        -0.21373E-20         0.00000E+00
    0.58312E-06        -0.22283E-20         0.00000E+00
    0.58312E-06         0.13642E-20         0.00000E+00
    0.58312E-06         0.22737E-20         0.00000E+00
    0.58312E-06         0.40018E-20         0.00000E+00
    0.58312E-06         0.21373E-20         0.00000E+00
    0.58312E-06        -0.16371E-20         0.00000E+00
    0.58312E-06        -0.27285E-21         0.00000E+00
    0.58312E-06         0.90949E-22         0.00000E+00
    0.58906E-06         0.90949E-21         0.00000E+00
    0.58906E-06        -0.45475E-21         0.00000E+00
    0.58906E-06         0.16371E-20         0.00000E+00
    0.58906E-06        -0.63665E-21         0.00000E+00
    0.58906E-06        -0.45475E-21         0.00000E+00
    0.58906E-06        -0.81855E-21         0.00000E+00
    0.58906E-06        -0.72760E-21         0.00000E+00
    0.58906E-06        -0.26375E-20         0.00000E+00
    0.58906E-06         0.31832E-20         0.00000E+00
    0.58906E-06         0.35470E-20         0.00000E+00
    0.58906E-06        -0.10914E-20         0.00000E+00
    0.58906E-06         0.20918E-20         0.00000E+00
    0.58906E-06        -0.19099E-20         0.00000E+00
    0.58906E-06        -0.11823E-20         0.00000E+00
    0.58906E-06         0.63665E-21         0.00000E+00
    0.59449E-06        -0.17735E-20         0.00000E+00
    0.59449E-06         0.15916E-20         0.00000E+00
    0.59449E-06        -0.81855E-21         0.00000E+00
    0.59449E-06         0.90949E-21         0.00000E+00
    0.59449E-06         0.37289E-20         0.00000E+00
    0.59449E-06         0.12733E-20         0.00000E+00
    0.59449E-06         0.63665E-21         0.00000E+00
    0.59449E-06        -0.27285E-21         0.00000E+00
    0.59449E-06        -0.10459E-20         0.00000E+00
    0.59449E-06         0.13642E-21         0.00000E+00
    0.59449E-06         0.19099E-20         0.00000E+00
    0.59449E-06         0.20918E-20         0.00000E+00
    0.59449E-06         0.20009E-20         0.00000E+00
    0.59449E-06        -0.72760E-21         0.00000E+00
    0.59449E-06         0.45475E-21         0.00000E+00
    0.59938E-06        -0.72760E-21         0.00000E+00
    0.59938E-06        -0.90949E-21         0.00000E+00
    0.59938E-06         0.72760E-21         0.00000E+00
    0.59938E-06         0.72760E-21         0.00000E+00
    0.59938E-06         0.19099E-20         0.00000E+00
    0.59938E-06         0.25921E-20         0.00000E+00
    0.59938E-06         0.13642E-21         0.00000E+00
    0.59938E-06         0.18190E-21         0.00000E+00
    0.59938E-06        -0.31832E-21         0.00000E+00
    0.59938E-06        -0.14097E-20         0.00000E+00
    0.59938E-06         0.31150E-20         0.00000E+00
    0.59938E-06         0.19554E-20         0.00000E+00
    0.59938E-06         0.35016E-20         0.00000E+00
    0.59938E-06         0.31832E-21         0.00000E+00
    0.59938E-06         0.17508E-20         0.00000E+00
    0.60372E-06         0.86402E-21         0.00000E+00
    0.60372E-06         0.22737E-21         0.00000E+00
    0.60372E-06         0.19099E-20         0.00000E+00
    0.60372E-06         0.11823E-20         0.00000E+00
    0.60372E-06        -0.63665E-21         0.00000E+00
    0.60372E-06         0.54570E-21         0.00000E+00
    0.60372E-06         0.12278E-20         0.00000E+00
    0.60372E-06         0.81855E-21         0.00000E+00
    0.60372E-06        -0.68212E-22         0.00000E+00
    0.60372E-06        -0.31832E-21         0.00000E+00
    0.60372E-06         0.15007E-20         0.00000E+00
    0.60372E-06         0.18190E-21         0.00000E+00
    0.60372E-06         0.24556E-20         0.00000E+00
    0.60372E-06         0.27285E-20         0.00000E+00
    0.60372E-06         0.10459E-20         0.00000E+00
    0.60748E-06        -0.19327E-20         0.00000E+00
    0.60748E-06         0.10687E-20         0.00000E+00
    0.60748E-06        -0.68212E-22         0.00000E+00
    0.60748E-06         0.16826E-20         0.00000E+00
    0.60748E-06        -0.16144E-20         0.00000E+00
    0.60748E-06         0.10004E-20         0.00000E+00
    0.60748E-06        -0.56843E-21         0.00000E+00
    0.60748E-06         0.17053E-20         0.00000E+00
    0.60748E-06         0.62528E-21         0.00000E+00
    0.60748E-06         0.19327E-21         0.00000E+00
    0.60748E-06         0.81855E-21         0.00000E+00
    0.60748E-06         0.21600E-20         0.00000E+00
    0.60748E-06         0.22737E-22         0.00000E+00
    0.60748E-06         0.20464E-20         0.00000E+00
    0.60748E-06        -0.79581E-22         0.00000E+00
    0.61067E-06         0.61277E-20         0.00000E+00
    0.61067E-06        -0.15450E-19         0.00000E+00
    0.61067E-06         0.68212E-20         0.00000E+00
    0.61067E-06         0.13188E-20         0.00000E+00
    0.61067E-06         0.68212E-20         0.00000E+00
    0.61067E-06        -0.14961E-19         0.00000E+00
    0.61067E-06         0.61391E-20         0.00000E+00
    0.61067E-06        -0.45361E-20         0.00000E+00
    0.61067E-06        -0.16826E-20         0.00000E+00
    0.61067E-06         0.97316E-20         0.00000E+00
    0.61067E-06         0.25011E-21         0.00000E+00
    0.61067E-06        -0.65370E-20         0.00000E+00
    0.61067E-06         0.76284E-20         0.00000E+00
    0.61067E-06        -0.22737E-21         0.00000E+00
    0.61067E-06         0.13188E-20         0.00000E+00
POINT_DATA       1456
VECTORS vDarcyNodal double 
    0.17535E-08        -0.58208E-20         0.00000E+00
    0.17535E-08        -0.87311E-20         0.00000E+00
    0.17535E-08        -0.11642E-19         0.00000E+00
    0.17535E-08        -0.58208E-20         0.00000E+00
    0.17535E-08         0.29104E-20         0.00000E+00
    0.17535E-08        -0.11642E-19         0.00000E+00
    0.17535E-08        -0.17462E-19         0.00000E+00
    0.17535E-08        -0.87311E-20         0.00000E+00
    0.17535E-08        -0.58208E-20         0.00000E+00
    0.17535E-08         0.00000E+00         0.00000E+00
    0.17535E-08        -0.58208E-20         0.00000E+00
    0.17535E-08        -0.58208E-20         0.00000E+00
    0.17535E-08         0.58208E-20         0.00000E+00
    0.17535E-08         0.87311E-20         0.00000E+00
    0.17535E-08         0.29104E-20         0.00000E+00
    0.17535E-08         0.00000E+00         0.00000E+00
    0.35080E-08         0.11642E-19         0.00000E+00
    0.35080E-08        -0.87311E-20         0.00000E+00
    0.35080E-08        -0.14552E-19         0.00000E+00
    0.35080E-08         0.00000E+00         0.00000E+00
    0.35080E-08        -0.87311E-20         0.00000E+00
    0.35080E-08        -0.87311E-20         0.00000E+00
    0.35080E-08        -0.87311E-20         0.00000E+00
    0.35080E-08        -0.87311E-20         0.00000E+00
    0.35080E-08         0.00000E+00         0.00000E+00
    0.35080E-08        -0.23779E-20         0.00000E+00
    0.35080E-08        -0.81986E-20         0.00000E+00
    0.35080E-08         0.23779E-20         0.00000E+00
    0.35080E-08         0.81986E-20         0.00000E+00
    0.35080E-08         0.87311E-20         0.00000E+00
    0.35080E-08         0.87311E-20         0.00000E+00
    0.35080E-08         0.00000E+00         0.00000E+00
    0.70206E-08         0.00000E+00         0.00000E+00
    0.70206E-08        -0.29104E-20         0.00000E+00
    0.70206E-08        -0.29104E-20         0.00000E+00
    0.70206E-08        -0.29104E-20         0.00000E+00
    0.70206E-08        -0.11642E-19         0.00000E+00
    0.70206E-08        -0.17462E-19         0.00000E+00
    0.70206E-08         0.00000E+00         0.00000E+00
    0.70206E-08         0.87311E-20         0.00000E+00
    0.70206E-08        -0.29104E-20         0.00000E+00
    0.70206E-08        -0.10578E-19         0.00000E+00
    0.70206E-08        -0.18468E-20         0.00000E+00
    0.70206E-08         0.19309E-19         0.00000E+00
    0.70206E-08         0.76676E-20         0.00000E+00
    0.70206E-08        -0.87311E-20         0.00000E+00
    0.70206E-08         0.00000E+00         0.00000E+00
    0.70206E-08         0.17462E-19         0.00000E+00
    0.10542E-07        -0.12429E-19         0.00000E+00
    0.10542E-07         0.29104E-20         0.00000E+00
    0.10542E-07         0.58208E-20         0.00000E+00
    0.10542E-07        -0.14552E-19         0.00000E+00
    0.10542E-07        -0.19979E-19         0.00000E+00
    0.10542E-07        -0.87311E-20         0.00000E+00
    0.10542E-07        -0.91248E-20         0.00000E+00
    0.10542E-07        -0.14946E-19         0.00000E+00
    0.10542E-07         0.62144E-20         0.00000E+00
    0.10542E-07         0.20766E-19         0.00000E+00
    0.10542E-07         0.18130E-19         0.00000E+00
    0.10542E-07        -0.18489E-20         0.00000E+00
    0.10542E-07        -0.54271E-20         0.00000E+00
    0.10542E-07         0.58208E-20         0.00000E+00
    0.10542E-07        -0.29104E-20         0.00000E+00
    0.10542E-07        -0.58208E-20         0.00000E+00
    0.14077E-07        -0.17462E-19         0.00000E+00
    0.14077E-07        -0.11642E-19         0.00000E+00
    0.14077E-07        -0.87311E-20         0.00000E+00
    0.14077E-07        -0.11642E-19         0.00000E+00
    0.14077E-07         0.00000E+00         0.00000E+00
    0.14077E-07         0.58208E-20         0.00000E+00
    0.14077E-07        -0.17462E-19         0.00000E+00
    0.14077E-07        -0.17462E-19         0.00000E+00
    0.14077E-07        -0.58208E-20         0.00000E+00
    0.14077E-07         0.79385E-20         0.00000E+00
    0.14077E-07         0.12304E-19         0.00000E+00
    0.14077E-07        -0.66256E-21         0.00000E+00
    0.14077E-07         0.10979E-19         0.00000E+00
    0.14077E-07         0.58208E-20         0.00000E+00
    0.14077E-07         0.00000E+00         0.00000E+00
    0.14077E-07         0.11642E-19         0.00000E+00
    0.17630E-07         0.29104E-19         0.00000E+00
    0.17630E-07         0.58208E-20         0.00000E+00
    0.17630E-07        -0.14552E-19         0.00000E+00
    0.17630E-07        -0.22543E-20         0.00000E+00
    0.17630E-07         0.66199E-20         0.00000E+00
    0.17630E-07         0.45086E-20         0.00000E+00
    0.17630E-07        -0.29104E-20         0.00000E+00
    0.17630E-07        -0.20516E-19         0.00000E+00
    0.17630E-07        -0.95303E-20         0.00000E+00
    0.17630E-07         0.51647E-20         0.00000E+00
    0.17630E-07         0.21113E-20         0.00000E+00
    0.17630E-07         0.00000E+00         0.00000E+00
    0.17630E-07         0.29104E-20         0.00000E+00
    0.17630E-07         0.14552E-19         0.00000E+00
    0.17630E-07        -0.65609E-21         0.00000E+00
    0.17630E-07        -0.58208E-20         0.00000E+00
    0.21206E-07        -0.16165E-19         0.00000E+00
    0.21206E-07        -0.58208E-20         0.00000E+00
    0.21206E-07        -0.29104E-20         0.00000E+00
    0.21206E-07         0.29104E-20         0.00000E+00
    0.21206E-07         0.10993E-19         0.00000E+00
    0.21206E-07        -0.29104E-20         0.00000E+00
    0.21206E-07        -0.18269E-19         0.00000E+00
    0.21206E-07        -0.22620E-20         0.00000E+00
    0.21206E-07         0.22620E-20         0.00000E+00
    0.21206E-07        -0.10835E-19         0.00000E+00
    0.21206E-07        -0.88895E-20         0.00000E+00
    0.21206E-07        -0.80676E-21         0.00000E+00
    0.21206E-07         0.10993E-19         0.00000E+00
    0.21206E-07         0.14552E-19         0.00000E+00
    0.21206E-07         0.00000E+00         0.00000E+00
    0.21206E-07        -0.11642E-19         0.00000E+00
    0.24809E-07         0.12791E-20         0.00000E+00
    0.24809E-07         0.87311E-20         0.00000E+00
    0.24809E-07        -0.63956E-21         0.00000E+00
    0.24809E-07        -0.87311E-20         0.00000E+00
    0.24809E-07         0.58208E-20         0.00000E+00
    0.24809E-07         0.58208E-20         0.00000E+00
    0.24809E-07         0.00000E+00         0.00000E+00
    0.24809E-07        -0.29104E-20         0.00000E+00
    0.24809E-07        -0.22708E-20         0.00000E+00
    0.24809E-07         0.63956E-21         0.00000E+00
    0.24809E-07        -0.93707E-20         0.00000E+00
    0.24809E-07         0.00000E+00         0.00000E+00
    0.24809E-07         0.15191E-19         0.00000E+00
    0.24809E-07         0.95468E-20         0.00000E+00
    0.24809E-07         0.14552E-20         0.00000E+00
    0.24809E-07        -0.74520E-20         0.00000E+00
    0.28443E-07         0.00000E+00         0.00000E+00
    0.28443E-07         0.00000E+00         0.00000E+00
    0.28443E-07         0.00000E+00         0.00000E+00
    0.28443E-07         0.00000E+00         0.00000E+00
    0.28443E-07         0.00000E+00         0.00000E+00
    0.28443E-07         0.29104E-20         0.00000E+00
    0.28443E-07         0.11642E-19         0.00000E+00
    0.28443E-07         0.14552E-19         0.00000E+00
    0.28443E-07        -0.29104E-20         0.00000E+00
    0.28443E-07        -0.11838E-19         0.00000E+00
    0.28443E-07        -0.16203E-19         0.00000E+00
    0.28443E-07        -0.20176E-19         0.00000E+00
    0.28443E-07         0.19623E-21         0.00000E+00
    0.28443E-07         0.00000E+00         0.00000E+00
    0.28443E-07         0.00000E+00         0.00000E+00
    0.28443E-07         0.17462E-19         0.00000E+00
    0.32114E-07         0.43770E-21         0.00000E+00
    0.32114E-07         0.21885E-21         0.00000E+00
    0.32114E-07        -0.17681E-19         0.00000E+00
    0.32114E-07        -0.17681E-19         0.00000E+00
    0.32114E-07         0.87311E-20         0.00000E+00
    0.32114E-07         0.17462E-19         0.00000E+00
    0.32114E-07         0.00000E+00         0.00000E+00
    0.32114E-07        -0.58208E-20         0.00000E+00
    0.32114E-07         0.00000E+00         0.00000E+00
    0.32114E-07        -0.11642E-19         0.00000E+00
    0.32114E-07        -0.20373E-19         0.00000E+00
    0.32114E-07        -0.17462E-19         0.00000E+00
    0.32114E-07        -0.29104E-20         0.00000E+00
    0.32114E-07         0.29104E-20         0.00000E+00
    0.32114E-07         0.29104E-20         0.00000E+00
    0.32114E-07         0.58208E-20         0.00000E+00
    0.35825E-07         0.00000E+00         0.00000E+00
    0.35825E-07         0.00000E+00         0.00000E+00
    0.35825E-07         0.58208E-20         0.00000E+00
    0.35825E-07         0.99424E-20         0.00000E+00
    0.35825E-07         0.24396E-21         0.00000E+00
    0.35825E-07        -0.67880E-20         0.00000E+00
    0.35825E-07        -0.87311E-20         0.00000E+00
    0.35825E-07        -0.10674E-19         0.00000E+00
    0.35825E-07        -0.11885E-19         0.00000E+00
    0.35825E-07        -0.84872E-20         0.00000E+00
    0.35825E-07        -0.24396E-21         0.00000E+00
    0.35825E-07        -0.29104E-20         0.00000E+00
    0.35825E-07         0.87311E-20         0.00000E+00
    0.35825E-07         0.29104E-20         0.00000E+00
    0.35825E-07        -0.26664E-20         0.00000E+00
    0.35825E-07         0.11642E-19         0.00000E+00
    0.39582E-07        -0.17462E-19         0.00000E+00
    0.39582E-07        -0.87311E-20         0.00000E+00
    0.39582E-07         0.58208E-20         0.00000E+00
    0.39582E-07         0.87311E-20         0.00000E+00
    0.39582E-07         0.11642E-19         0.00000E+00
    0.39582E-07        -0.58208E-20         0.00000E+00
    0.39582E-07        -0.58208E-20         0.00000E+00
    0.39582E-07         0.58208E-20         0.00000E+00
    0.39582E-07        -0.29104E-20         0.00000E+00
    0.39582E-07        -0.87311E-20         0.00000E+00
    0.39582E-07        -0.29104E-20         0.00000E+00
    0.39582E-07         0.87311E-20         0.00000E+00
    0.39582E-07         0.11642E-19         0.00000E+00
    0.39582E-07         0.90027E-20         0.00000E+00
    0.39582E-07        -0.29104E-20         0.00000E+00
    0.39582E-07        -0.92743E-20         0.00000E+00
    0.43388E-07        -0.60352E-21         0.00000E+00
    0.43388E-07        -0.29104E-20         0.00000E+00
    0.43388E-07         0.58208E-20         0.00000E+00
    0.43388E-07         0.17462E-19         0.00000E+00
    0.43388E-07         0.11943E-19         0.00000E+00
    0.43388E-07         0.14552E-19         0.00000E+00
    0.43388E-07         0.26086E-20         0.00000E+00
    0.43388E-07        -0.32121E-20         0.00000E+00
    0.43388E-07         0.10488E-19         0.00000E+00
    0.43388E-07         0.11943E-19         0.00000E+00
    0.43388E-07        -0.10790E-19         0.00000E+00
    0.43388E-07        -0.23585E-19         0.00000E+00
    0.43388E-07        -0.11340E-19         0.00000E+00
    0.43388E-07        -0.17462E-19         0.00000E+00
    0.43388E-07        -0.87311E-20         0.00000E+00
    0.43388E-07         0.00000E+00         0.00000E+00
    0.47249E-07        -0.66906E-21         0.00000E+00
    0.47249E-07         0.98518E-20         0.00000E+00
    0.47249E-07         0.22162E-19         0.00000E+00
    0.47249E-07         0.20707E-19         0.00000E+00
    0.47249E-07         0.29104E-20         0.00000E+00
    0.47249E-07         0.54862E-20         0.00000E+00
    0.47249E-07         0.11307E-19         0.00000E+00
    0.47249E-07         0.29104E-20         0.00000E+00
    0.47249E-07        -0.58208E-20         0.00000E+00
    0.47249E-07        -0.29104E-20         0.00000E+00
    0.47249E-07         0.00000E+00         0.00000E+00
    0.47249E-07        -0.14552E-19         0.00000E+00
    0.47249E-07        -0.14217E-19         0.00000E+00
    0.47249E-07        -0.17462E-19         0.00000E+00
    0.47249E-07        -0.13431E-19         0.00000E+00
    0.47249E-07         0.58208E-20         0.00000E+00
    0.51168E-07         0.79913E-20         0.00000E+00
    0.51168E-07         0.58208E-20         0.00000E+00
    0.51168E-07         0.91011E-20         0.00000E+00
    0.51168E-07         0.87311E-20         0.00000E+00
    0.51168E-07         0.29104E-20         0.00000E+00
    0.51168E-07        -0.29104E-20         0.00000E+00
    0.51168E-07        -0.58208E-20         0.00000E+00
    0.51168E-07         0.58208E-20         0.00000E+00
    0.51168E-07         0.98164E-20         0.00000E+00
    0.51168E-07        -0.32803E-20         0.00000E+00
    0.51168E-07        -0.83612E-20         0.00000E+00
    0.51168E-07         0.87311E-20         0.00000E+00
    0.51168E-07        -0.61907E-20         0.00000E+00
    0.51168E-07        -0.25824E-19         0.00000E+00
    0.51168E-07        -0.14552E-19         0.00000E+00
    0.51168E-07        -0.65606E-20         0.00000E+00
    0.55152E-07         0.16320E-20         0.00000E+00
    0.55152E-07         0.66368E-20         0.00000E+00
    0.55152E-07         0.29104E-20         0.00000E+00
    0.55152E-07         0.00000E+00         0.00000E+00
    0.55152E-07         0.87311E-20         0.00000E+00
    0.55152E-07         0.14552E-19         0.00000E+00
    0.55152E-07         0.29104E-20         0.00000E+00
    0.55152E-07        -0.15368E-19         0.00000E+00
    0.55152E-07        -0.12458E-19         0.00000E+00
    0.55152E-07        -0.11642E-19         0.00000E+00
    0.55152E-07        -0.87311E-20         0.00000E+00
    0.55152E-07         0.29104E-20         0.00000E+00
    0.55152E-07         0.00000E+00         0.00000E+00
    0.55152E-07         0.00000E+00         0.00000E+00
    0.55152E-07         0.81601E-21         0.00000E+00
    0.55152E-07        -0.41887E-20         0.00000E+00
    0.59203E-07         0.11642E-19         0.00000E+00
    0.59203E-07         0.14552E-19         0.00000E+00
    0.59203E-07         0.87311E-20         0.00000E+00
    0.59203E-07        -0.29104E-20         0.00000E+00
    0.59203E-07        -0.58208E-20         0.00000E+00
    0.59203E-07         0.29104E-20         0.00000E+00
    0.59203E-07         0.58208E-20         0.00000E+00
    0.59203E-07        -0.29104E-20         0.00000E+00
    0.59203E-07        -0.14552E-19         0.00000E+00
    0.59203E-07        -0.11084E-19         0.00000E+00
    0.59203E-07         0.20128E-20         0.00000E+00
    0.59203E-07        -0.34680E-20         0.00000E+00
    0.59203E-07        -0.55758E-21         0.00000E+00
    0.59203E-07         0.00000E+00         0.00000E+00
    0.59203E-07        -0.29104E-20         0.00000E+00
    0.59203E-07         0.00000E+00         0.00000E+00
    0.63327E-07        -0.48799E-20         0.00000E+00
    0.63327E-07        -0.58208E-20         0.00000E+00
    0.63327E-07         0.97159E-20         0.00000E+00
    0.63327E-07         0.87311E-20         0.00000E+00
    0.63327E-07        -0.58208E-20         0.00000E+00
    0.63327E-07         0.77464E-20         0.00000E+00
    0.63327E-07         0.16478E-19         0.00000E+00
    0.63327E-07         0.00000E+00         0.00000E+00
    0.63327E-07        -0.87311E-20         0.00000E+00
    0.63327E-07         0.00000E+00         0.00000E+00
    0.63327E-07        -0.11642E-19         0.00000E+00
    0.63327E-07        -0.87311E-20         0.00000E+00
    0.63327E-07         0.38951E-20         0.00000E+00
    0.63327E-07         0.87311E-20         0.00000E+00
    0.63327E-07         0.48360E-20         0.00000E+00
    0.63327E-07        -0.58208E-20         0.00000E+00
    0.67528E-07        -0.36657E-20         0.00000E+00
    0.67528E-07        -0.47432E-20         0.00000E+00
    0.67528E-07        -0.25327E-20         0.00000E+00
    0.67528E-07        -0.83535E-20         0.00000E+00
    0.67528E-07         0.00000E+00         0.00000E+00
    0.67528E-07         0.87311E-20         0.00000E+00
    0.67528E-07        -0.87311E-20         0.00000E+00
    0.67528E-07        -0.17462E-19         0.00000E+00
    0.67528E-07        -0.87311E-20         0.00000E+00
    0.67528E-07         0.58208E-20         0.00000E+00
    0.67528E-07         0.87311E-20         0.00000E+00
    0.67528E-07         0.29104E-20         0.00000E+00
    0.67528E-07        -0.58208E-20         0.00000E+00
    0.67528E-07        -0.29104E-20         0.00000E+00
    0.67528E-07         0.87311E-20         0.00000E+00
    0.67528E-07         0.11642E-19         0.00000E+00
    0.71810E-07        -0.23522E-20         0.00000E+00
    0.71810E-07        -0.43656E-20         0.00000E+00
    0.71810E-07        -0.10465E-19         0.00000E+00
    0.71810E-07         0.00000E+00         0.00000E+00
    0.71810E-07        -0.58208E-20         0.00000E+00
    0.71810E-07        -0.11642E-19         0.00000E+00
    0.71810E-07         0.58208E-20         0.00000E+00
    0.71810E-07        -0.58208E-20         0.00000E+00
    0.71810E-07        -0.11642E-19         0.00000E+00
    0.71810E-07         0.00000E+00         0.00000E+00
    0.71810E-07         0.00000E+00         0.00000E+00
    0.71810E-07        -0.67178E-20         0.00000E+00
    0.71810E-07        -0.69969E-20         0.00000E+00
    0.71810E-07         0.11761E-20         0.00000E+00
    0.71810E-07         0.29104E-20         0.00000E+00
    0.71810E-07         0.58208E-20         0.00000E+00
    0.76180E-07         0.58208E-20         0.00000E+00
    0.76180E-07        -0.29104E-20         0.00000E+00
    0.76180E-07         0.00000E+00         0.00000E+00
    0.76180E-07         0.74506E-20         0.00000E+00
    0.76180E-07        -0.45402E-20         0.00000E+00
    0.76180E-07        -0.20722E-19         0.00000E+00
    0.76180E-07        -0.23283E-19         0.00000E+00
    0.76180E-07        -0.54714E-20         0.00000E+00
    0.76180E-07         0.16299E-20         0.00000E+00
    0.76180E-07        -0.13271E-19         0.00000E+00
    0.76180E-07        -0.17288E-19         0.00000E+00
    0.76180E-07        -0.14552E-19         0.00000E+00
    0.76180E-07         0.58208E-20         0.00000E+00
    0.76180E-07         0.14552E-19         0.00000E+00
    0.76180E-07         0.85565E-20         0.00000E+00
    0.76180E-07         0.00000E+00         0.00000E+00
    0.80640E-07        -0.58208E-20         0.00000E+00
    0.80640E-07         0.29104E-20         0.00000E+00
    0.80640E-07        -0.29104E-20         0.00000E+00
    0.80640E-07        -0.17462E-19         0.00000E+00
    0.80640E-07        -0.14552E-19         0.00000E+00
    0.80640E-07        -0.23283E-19         0.00000E+00
    0.80640E-07        -0.24674E-19         0.00000E+00
    0.80640E-07        -0.13032E-19         0.00000E+00
    0.80640E-07        -0.73402E-20         0.00000E+00
    0.80640E-07        -0.10251E-19         0.00000E+00
    0.80640E-07        -0.24674E-19         0.00000E+00
    0.80640E-07        -0.18853E-19         0.00000E+00
    0.80640E-07         0.11642E-19         0.00000E+00
    0.80640E-07         0.87311E-20         0.00000E+00
    0.80640E-07         0.29104E-20         0.00000E+00
    0.80640E-07         0.11642E-19         0.00000E+00
    0.85195E-07         0.58208E-20         0.00000E+00
    0.85195E-07         0.00000E+00         0.00000E+00
    0.85195E-07         0.29104E-20         0.00000E+00
    0.85195E-07         0.00000E+00         0.00000E+00
    0.85195E-07        -0.17462E-19         0.00000E+00
    0.85195E-07        -0.20373E-19         0.00000E+00
    0.85195E-07        -0.32014E-19         0.00000E+00
    0.85195E-07        -0.26193E-19         0.00000E+00
    0.85195E-07        -0.87311E-20         0.00000E+00
    0.85195E-07        -0.14552E-19         0.00000E+00
    0.85195E-07        -0.58208E-20         0.00000E+00
    0.85195E-07         0.00000E+00         0.00000E+00
    0.85195E-07        -0.11642E-19         0.00000E+00
    0.85195E-07        -0.86788E-20         0.00000E+00
    0.85195E-07         0.29104E-20         0.00000E+00
    0.85195E-07         0.28057E-20         0.00000E+00
    0.89850E-07        -0.25600E-20         0.00000E+00
    0.89850E-07         0.87311E-20         0.00000E+00
    0.89850E-07         0.12800E-20         0.00000E+00
    0.89850E-07         0.00000E+00         0.00000E+00
    0.89850E-07         0.11642E-19         0.00000E+00
    0.89850E-07         0.00000E+00         0.00000E+00
    0.89850E-07        -0.11642E-19         0.00000E+00
    0.89850E-07        -0.23283E-19         0.00000E+00
    0.89850E-07        -0.87311E-20         0.00000E+00
    0.89850E-07         0.00000E+00         0.00000E+00
    0.89850E-07        -0.12922E-19         0.00000E+00
    0.89850E-07        -0.24738E-19         0.00000E+00
    0.89850E-07        -0.22003E-19         0.00000E+00
    0.89850E-07        -0.29104E-20         0.00000E+00
    0.89850E-07        -0.29104E-20         0.00000E+00
    0.89850E-07        -0.11642E-19         0.00000E+00
    0.94610E-07         0.13943E-19         0.00000E+00
    0.94610E-07         0.13097E-19         0.00000E+00
    0.94610E-07         0.17596E-20         0.00000E+00
    0.94610E-07        -0.11642E-19         0.00000E+00
    0.94610E-07        -0.11642E-19         0.00000E+00
    0.94610E-07         0.00000E+00         0.00000E+00
    0.94610E-07         0.29104E-20         0.00000E+00
    0.94610E-07        -0.29104E-20         0.00000E+00
    0.94610E-07        -0.14552E-19         0.00000E+00
    0.94610E-07        -0.23283E-19         0.00000E+00
    0.94610E-07        -0.35229E-19         0.00000E+00
    0.94610E-07        -0.19222E-19         0.00000E+00
    0.94610E-07         0.17596E-20         0.00000E+00
    0.94610E-07        -0.69715E-20         0.00000E+00
    0.94610E-07        -0.10491E-19         0.00000E+00
    0.94610E-07        -0.64296E-20         0.00000E+00
    0.99479E-07         0.00000E+00         0.00000E+00
    0.99479E-07        -0.29104E-20         0.00000E+00
    0.99479E-07        -0.44024E-21         0.00000E+00
    0.99479E-07         0.72760E-20         0.00000E+00
    0.99479E-07         0.18954E-20         0.00000E+00
    0.99479E-07         0.00000E+00         0.00000E+00
    0.99479E-07        -0.14552E-19         0.00000E+00
    0.99479E-07        -0.20373E-19         0.00000E+00
    0.99479E-07        -0.28529E-19         0.00000E+00
    0.99479E-07        -0.25178E-19         0.00000E+00
    0.99479E-07        -0.15567E-19         0.00000E+00
    0.99479E-07        -0.11201E-19         0.00000E+00
    0.99479E-07        -0.14552E-20         0.00000E+00
    0.99479E-07        -0.18954E-20         0.00000E+00
    0.99479E-07         0.00000E+00         0.00000E+00
    0.99479E-07        -0.58208E-20         0.00000E+00
    0.10446E-06         0.11642E-19         0.00000E+00
    0.10446E-06         0.52380E-20         0.00000E+00
    0.10446E-06        -0.11642E-19         0.00000E+00
    0.10446E-06        -0.14552E-19         0.00000E+00
    0.10446E-06        -0.14552E-19         0.00000E+00
    0.10446E-06        -0.20373E-19         0.00000E+00
    0.10446E-06        -0.11642E-19         0.00000E+00
    0.10446E-06        -0.78587E-20         0.00000E+00
    0.10446E-06        -0.69863E-20         0.00000E+00
    0.10446E-06        -0.11931E-19         0.00000E+00
    0.10446E-06        -0.22118E-19         0.00000E+00
    0.10446E-06        -0.69863E-20         0.00000E+00
    0.10446E-06         0.52380E-20         0.00000E+00
    0.10446E-06        -0.10186E-19         0.00000E+00
    0.10446E-06        -0.10186E-19         0.00000E+00
    0.10446E-06         0.11655E-20         0.00000E+00
    0.10956E-06        -0.30568E-19         0.00000E+00
    0.10956E-06        -0.15284E-19         0.00000E+00
    0.10956E-06         0.00000E+00         0.00000E+00
    0.10956E-06        -0.50886E-20         0.00000E+00
    0.10956E-06        -0.79990E-20         0.00000E+00
    0.10956E-06        -0.12374E-19         0.00000E+00
    0.10956E-06        -0.23283E-19         0.00000E+00
    0.10956E-06        -0.19641E-19         0.00000E+00
    0.10956E-06        -0.14552E-19         0.00000E+00
    0.10956E-06        -0.14561E-19         0.00000E+00
    0.10956E-06        -0.50977E-20         0.00000E+00
    0.10956E-06        -0.29104E-20         0.00000E+00
    0.10956E-06         0.00000E+00         0.00000E+00
    0.10956E-06         0.94633E-20         0.00000E+00
    0.10956E-06         0.58208E-20         0.00000E+00
    0.10956E-06         0.00000E+00         0.00000E+00
    0.11478E-06        -0.17772E-20         0.00000E+00
    0.11478E-06        -0.34770E-20         0.00000E+00
    0.11478E-06         0.52542E-20         0.00000E+00
    0.11478E-06         0.34770E-20         0.00000E+00
    0.11478E-06        -0.17462E-19         0.00000E+00
    0.11478E-06        -0.19806E-19         0.00000E+00
    0.11478E-06        -0.16574E-19         0.00000E+00
    0.11478E-06        -0.26193E-19         0.00000E+00
    0.11478E-06        -0.19240E-19         0.00000E+00
    0.11478E-06        -0.14552E-19         0.00000E+00
    0.11478E-06        -0.58208E-20         0.00000E+00
    0.11478E-06         0.87311E-20         0.00000E+00
    0.11478E-06         0.67094E-20         0.00000E+00
    0.11478E-06         0.11642E-19         0.00000E+00
    0.11478E-06         0.11642E-19         0.00000E+00
    0.11478E-06         0.17772E-20         0.00000E+00
    0.12013E-06        -0.16117E-20         0.00000E+00
    0.12013E-06        -0.87311E-20         0.00000E+00
    0.12013E-06        -0.10836E-19         0.00000E+00
    0.12013E-06        -0.80586E-21         0.00000E+00
    0.12013E-06        -0.12447E-19         0.00000E+00
    0.12013E-06        -0.28298E-19         0.00000E+00
    0.12013E-06        -0.17462E-19         0.00000E+00
    0.12013E-06        -0.13097E-19         0.00000E+00
    0.12013E-06        -0.19567E-19         0.00000E+00
    0.12013E-06        -0.14552E-19         0.00000E+00
    0.12013E-06         0.00000E+00         0.00000E+00
    0.12013E-06         0.00000E+00         0.00000E+00
    0.12013E-06         0.66266E-20         0.00000E+00
    0.12013E-06         0.14552E-19         0.00000E+00
    0.12013E-06         0.85746E-20         0.00000E+00
    0.12013E-06         0.10030E-19         0.00000E+00
    0.12561E-06         0.00000E+00         0.00000E+00
    0.12561E-06        -0.29104E-20         0.00000E+00
    0.12561E-06         0.00000E+00         0.00000E+00
    0.12561E-06        -0.87311E-20         0.00000E+00
    0.12561E-06        -0.14552E-19         0.00000E+00
    0.12561E-06        -0.29104E-20         0.00000E+00
    0.12561E-06        -0.26193E-19         0.00000E+00
    0.12561E-06        -0.34925E-19         0.00000E+00
    0.12561E-06        -0.87311E-20         0.00000E+00
    0.12561E-06         0.87311E-20         0.00000E+00
    0.12561E-06         0.87311E-20         0.00000E+00
    0.12561E-06         0.11642E-19         0.00000E+00
    0.12561E-06         0.20373E-19         0.00000E+00
    0.12561E-06         0.87311E-20         0.00000E+00
    0.12561E-06         0.97226E-20         0.00000E+00
    0.12561E-06         0.19445E-19         0.00000E+00
    0.13122E-06        -0.58208E-20         0.00000E+00
    0.13122E-06        -0.58208E-20         0.00000E+00
    0.13122E-06         0.29104E-20         0.00000E+00
    0.13122E-06        -0.29104E-20         0.00000E+00
    0.13122E-06        -0.17462E-19         0.00000E+00
    0.13122E-06        -0.23283E-19         0.00000E+00
    0.13122E-06        -0.21934E-19         0.00000E+00
    0.13122E-06        -0.11642E-19         0.00000E+00
    0.13122E-06        -0.57142E-20         0.00000E+00
    0.13122E-06         0.29104E-20         0.00000E+00
    0.13122E-06         0.11642E-19         0.00000E+00
    0.13122E-06         0.14552E-19         0.00000E+00
    0.13122E-06         0.87311E-20         0.00000E+00
    0.13122E-06         0.17462E-19         0.00000E+00
    0.13122E-06         0.71694E-20         0.00000E+00
    0.13122E-06        -0.14765E-19         0.00000E+00
    0.13697E-06         0.00000E+00         0.00000E+00
    0.13697E-06         0.00000E+00         0.00000E+00
    0.13697E-06        -0.11375E-19         0.00000E+00
    0.13697E-06        -0.72760E-20         0.00000E+00
    0.13697E-06         0.26442E-20         0.00000E+00
    0.13697E-06        -0.58208E-20         0.00000E+00
    0.13697E-06        -0.11642E-19         0.00000E+00
    0.13697E-06        -0.89973E-20         0.00000E+00
    0.13697E-06         0.00000E+00         0.00000E+00
    0.13697E-06         0.26615E-21         0.00000E+00
    0.13697E-06        -0.31765E-20         0.00000E+00
    0.13697E-06         0.29104E-20         0.00000E+00
    0.13697E-06         0.89973E-20         0.00000E+00
    0.13697E-06        -0.60869E-20         0.00000E+00
    0.13697E-06         0.29104E-20         0.00000E+00
    0.13697E-06         0.20905E-19         0.00000E+00
    0.14287E-06         0.58208E-20         0.00000E+00
    0.14287E-06         0.87311E-20         0.00000E+00
    0.14287E-06         0.11642E-19         0.00000E+00
    0.14287E-06         0.87311E-20         0.00000E+00
    0.14287E-06        -0.58208E-20         0.00000E+00
    0.14287E-06        -0.11642E-19         0.00000E+00
    0.14287E-06        -0.11642E-19         0.00000E+00
    0.14287E-06        -0.18117E-19         0.00000E+00
    0.14287E-06        -0.13097E-19         0.00000E+00
    0.14287E-06        -0.58208E-20         0.00000E+00
    0.14287E-06         0.95316E-20         0.00000E+00
    0.14287E-06         0.29104E-20         0.00000E+00
    0.14287E-06        -0.95316E-20         0.00000E+00
    0.14287E-06         0.29104E-20         0.00000E+00
    0.14287E-06        -0.29104E-20         0.00000E+00
    0.14287E-06        -0.16153E-19         0.00000E+00
    0.14891E-06         0.00000E+00         0.00000E+00
    0.14891E-06         0.87311E-20         0.00000E+00
    0.14891E-06         0.23283E-19         0.00000E+00
    0.14891E-06         0.58208E-20         0.00000E+00
    0.14891E-06        -0.14552E-19         0.00000E+00
    0.14891E-06        -0.87311E-20         0.00000E+00
    0.14891E-06        -0.87311E-20         0.00000E+00
    0.14891E-06        -0.58208E-20         0.00000E+00
    0.14891E-06        -0.11642E-19         0.00000E+00
    0.14891E-06        -0.17462E-19         0.00000E+00
    0.14891E-06        -0.17462E-19         0.00000E+00
    0.14891E-06        -0.14552E-19         0.00000E+00
    0.14891E-06         0.29104E-20         0.00000E+00
    0.14891E-06        -0.29104E-20         0.00000E+00
    0.14891E-06        -0.83356E-20         0.00000E+00
    0.14891E-06         0.66118E-20         0.00000E+00
    0.15510E-06         0.11642E-19         0.00000E+00
    0.15510E-06         0.17462E-19         0.00000E+00
    0.15510E-06         0.29104E-20         0.00000E+00
    0.15510E-06        -0.87311E-20         0.00000E+00
    0.15510E-06        -0.58208E-20         0.00000E+00
    0.15510E-06        -0.20373E-19         0.00000E+00
    0.15510E-06        -0.14552E-19         0.00000E+00
    0.15510E-06         0.43395E-20         0.00000E+00
    0.15510E-06        -0.58208E-20         0.00000E+00
    0.15510E-06        -0.26193E-19         0.00000E+00
    0.15510E-06        -0.21854E-19         0.00000E+00
    0.15510E-06        -0.11642E-19         0.00000E+00
    0.15510E-06        -0.14552E-19         0.00000E+00
    0.15510E-06        -0.13071E-19         0.00000E+00
    0.15510E-06        -0.87311E-20         0.00000E+00
    0.15510E-06        -0.87833E-20         0.00000E+00
    0.16144E-06         0.11642E-19         0.00000E+00
    0.16144E-06        -0.99039E-21         0.00000E+00
    0.16144E-06        -0.99039E-21         0.00000E+00
    0.16144E-06         0.00000E+00         0.00000E+00
    0.16144E-06        -0.17462E-19         0.00000E+00
    0.16144E-06        -0.20373E-19         0.00000E+00
    0.16144E-06        -0.15017E-19         0.00000E+00
    0.16144E-06        -0.15017E-19         0.00000E+00
    0.16144E-06        -0.97215E-20         0.00000E+00
    0.16144E-06        -0.14552E-20         0.00000E+00
    0.16144E-06        -0.20837E-19         0.00000E+00
    0.16144E-06        -0.25729E-19         0.00000E+00
    0.16144E-06        -0.87311E-20         0.00000E+00
    0.16144E-06        -0.52952E-20         0.00000E+00
    0.16144E-06         0.10532E-34         0.00000E+00
    0.16144E-06         0.38400E-20         0.00000E+00
    0.16794E-06        -0.17462E-19         0.00000E+00
    0.16794E-06         0.00000E+00         0.00000E+00
    0.16794E-06         0.29104E-20         0.00000E+00
    0.16794E-06        -0.58208E-20         0.00000E+00
    0.16794E-06        -0.87311E-20         0.00000E+00
    0.16794E-06        -0.11642E-19         0.00000E+00
    0.16794E-06        -0.87311E-20         0.00000E+00
    0.16794E-06        -0.14552E-19         0.00000E+00
    0.16794E-06        -0.26193E-19         0.00000E+00
    0.16794E-06        -0.23283E-19         0.00000E+00
    0.16794E-06        -0.29104E-20         0.00000E+00
    0.16794E-06        -0.52866E-20         0.00000E+00
    0.16794E-06        -0.20373E-19         0.00000E+00
    0.16794E-06        -0.63549E-20         0.00000E+00
    0.16794E-06         0.87311E-20         0.00000E+00
    0.16794E-06         0.58208E-20         0.00000E+00
    0.17459E-06        -0.30303E-20         0.00000E+00
    0.17459E-06        -0.59969E-22         0.00000E+00
    0.17459E-06        -0.57608E-20         0.00000E+00
    0.17459E-06        -0.10126E-19         0.00000E+00
    0.17459E-06        -0.58208E-20         0.00000E+00
    0.17459E-06        -0.58807E-20         0.00000E+00
    0.17459E-06        -0.11642E-19         0.00000E+00
    0.17459E-06        -0.10126E-19         0.00000E+00
    0.17459E-06        -0.14552E-19         0.00000E+00
    0.17459E-06        -0.11642E-19         0.00000E+00
    0.17459E-06         0.00000E+00         0.00000E+00
    0.17459E-06        -0.87311E-20         0.00000E+00
    0.17459E-06        -0.29104E-20         0.00000E+00
    0.17459E-06         0.58208E-20         0.00000E+00
    0.17459E-06        -0.29104E-20         0.00000E+00
    0.17459E-06         0.00000E+00         0.00000E+00
    0.18141E-06         0.00000E+00         0.00000E+00
    0.18141E-06         0.58208E-20         0.00000E+00
    0.18141E-06         0.14985E-19         0.00000E+00
    0.18141E-06         0.29104E-20         0.00000E+00
    0.18141E-06        -0.62534E-20         0.00000E+00
    0.18141E-06        -0.29104E-20         0.00000E+00
    0.18141E-06        -0.87311E-20         0.00000E+00
    0.18141E-06        -0.14552E-19         0.00000E+00
    0.18141E-06         0.00000E+00         0.00000E+00
    0.18141E-06         0.58208E-20         0.00000E+00
    0.18141E-06        -0.58208E-20         0.00000E+00
    0.18141E-06         0.58208E-20         0.00000E+00
    0.18141E-06         0.29104E-20         0.00000E+00
    0.18141E-06         0.58208E-20         0.00000E+00
    0.18141E-06        -0.43261E-21         0.00000E+00
    0.18141E-06        -0.24148E-19         0.00000E+00
    0.18840E-06         0.00000E+00         0.00000E+00
    0.18840E-06         0.87311E-20         0.00000E+00
    0.18840E-06         0.87311E-20         0.00000E+00
    0.18840E-06         0.51117E-21         0.00000E+00
    0.18840E-06        -0.58208E-20         0.00000E+00
    0.18840E-06        -0.51117E-21         0.00000E+00
    0.18840E-06         0.87311E-20         0.00000E+00
    0.18840E-06         0.11642E-19         0.00000E+00
    0.18840E-06        -0.29104E-20         0.00000E+00
    0.18840E-06        -0.43656E-20         0.00000E+00
    0.18840E-06         0.43656E-20         0.00000E+00
    0.18840E-06        -0.43656E-20         0.00000E+00
    0.18840E-06         0.87311E-20         0.00000E+00
    0.18840E-06         0.13608E-19         0.00000E+00
    0.18840E-06        -0.23992E-20         0.00000E+00
    0.18840E-06        -0.11642E-19         0.00000E+00
    0.19555E-06         0.00000E+00         0.00000E+00
    0.19555E-06         0.29104E-20         0.00000E+00
    0.19555E-06         0.58208E-20         0.00000E+00
    0.19555E-06         0.87311E-20         0.00000E+00
    0.19555E-06         0.87311E-20         0.00000E+00
    0.19555E-06         0.58208E-20         0.00000E+00
    0.19555E-06         0.87311E-20         0.00000E+00
    0.19555E-06         0.10167E-19         0.00000E+00
    0.19555E-06         0.72564E-20         0.00000E+00
    0.19555E-06         0.87311E-20         0.00000E+00
    0.19555E-06         0.87311E-20         0.00000E+00
    0.19555E-06         0.11642E-19         0.00000E+00
    0.19555E-06         0.87311E-20         0.00000E+00
    0.19555E-06         0.00000E+00         0.00000E+00
    0.19555E-06         0.87311E-20         0.00000E+00
    0.19555E-06         0.17462E-19         0.00000E+00
    0.20287E-06         0.00000E+00         0.00000E+00
    0.20287E-06         0.37956E-20         0.00000E+00
    0.20287E-06        -0.34803E-20         0.00000E+00
    0.20287E-06        -0.37956E-20         0.00000E+00
    0.20287E-06         0.00000E+00         0.00000E+00
    0.20287E-06         0.37956E-20         0.00000E+00
    0.20287E-06         0.17462E-19         0.00000E+00
    0.20287E-06         0.17462E-19         0.00000E+00
    0.20287E-06         0.14552E-19         0.00000E+00
    0.20287E-06         0.11642E-19         0.00000E+00
    0.20287E-06         0.10186E-19         0.00000E+00
    0.20287E-06         0.72760E-20         0.00000E+00
    0.20287E-06         0.11642E-19         0.00000E+00
    0.20287E-06         0.16577E-19         0.00000E+00
    0.20287E-06         0.29104E-20         0.00000E+00
    0.20287E-06        -0.69606E-20         0.00000E+00
    0.21036E-06         0.17462E-19         0.00000E+00
    0.21036E-06         0.55061E-20         0.00000E+00
    0.21036E-06        -0.28927E-33         0.00000E+00
    0.21036E-06         0.32250E-20         0.00000E+00
    0.21036E-06         0.00000E+00         0.00000E+00
    0.21036E-06        -0.87311E-20         0.00000E+00
    0.21036E-06         0.29104E-20         0.00000E+00
    0.21036E-06         0.17462E-19         0.00000E+00
    0.21036E-06         0.11642E-19         0.00000E+00
    0.21036E-06         0.00000E+00         0.00000E+00
    0.21036E-06         0.25957E-20         0.00000E+00
    0.21036E-06         0.87311E-20         0.00000E+00
    0.21036E-06         0.32250E-20         0.00000E+00
    0.21036E-06         0.12782E-19         0.00000E+00
    0.21036E-06         0.18917E-19         0.00000E+00
    0.21036E-06         0.12271E-19         0.00000E+00
    0.21802E-06        -0.58208E-20         0.00000E+00
    0.21802E-06         0.87311E-20         0.00000E+00
    0.21802E-06         0.11642E-19         0.00000E+00
    0.21802E-06        -0.29104E-20         0.00000E+00
    0.21802E-06         0.58208E-20         0.00000E+00
    0.21802E-06         0.17462E-19         0.00000E+00
    0.21802E-06         0.87311E-20         0.00000E+00
    0.21802E-06         0.00000E+00         0.00000E+00
    0.21802E-06        -0.29104E-20         0.00000E+00
    0.21802E-06         0.00000E+00         0.00000E+00
    0.21802E-06         0.29104E-20         0.00000E+00
    0.21802E-06         0.00000E+00         0.00000E+00
    0.21802E-06         0.29104E-20         0.00000E+00
    0.21802E-06        -0.31870E-20         0.00000E+00
    0.21802E-06        -0.29104E-20         0.00000E+00
    0.21802E-06         0.63739E-20         0.00000E+00
    0.22585E-06         0.17779E-20         0.00000E+00
    0.22585E-06         0.20214E-20         0.00000E+00
    0.22585E-06         0.49318E-20         0.00000E+00
    0.22585E-06         0.81649E-20         0.00000E+00
    0.22585E-06         0.52545E-20         0.00000E+00
    0.22585E-06         0.10753E-19         0.00000E+00
    0.22585E-06         0.78422E-20         0.00000E+00
    0.22585E-06        -0.72760E-20         0.00000E+00
    0.22585E-06         0.20214E-20         0.00000E+00
    0.22585E-06         0.88894E-21         0.00000E+00
    0.22585E-06        -0.12208E-19         0.00000E+00
    0.22585E-06        -0.81649E-20         0.00000E+00
    0.22585E-06         0.58208E-20         0.00000E+00
    0.22585E-06         0.15441E-19         0.00000E+00
    0.22585E-06         0.11642E-19         0.00000E+00
    0.22585E-06         0.58208E-20         0.00000E+00
    0.23386E-06         0.11642E-19         0.00000E+00
    0.23386E-06        -0.67656E-22         0.00000E+00
    0.23386E-06        -0.43656E-20         0.00000E+00
    0.23386E-06         0.87311E-20         0.00000E+00
    0.23386E-06         0.87311E-20         0.00000E+00
    0.23386E-06         0.72760E-20         0.00000E+00
    0.23386E-06         0.00000E+00         0.00000E+00
    0.23386E-06         0.72760E-20         0.00000E+00
    0.23386E-06         0.57531E-20         0.00000E+00
    0.23386E-06        -0.87311E-20         0.00000E+00
    0.23386E-06        -0.11574E-19         0.00000E+00
    0.23386E-06         0.00000E+00         0.00000E+00
    0.23386E-06         0.15939E-19         0.00000E+00
    0.23386E-06         0.73436E-20         0.00000E+00
    0.23386E-06         0.58208E-20         0.00000E+00
    0.23386E-06         0.11506E-19         0.00000E+00
    0.24204E-06        -0.17462E-19         0.00000E+00
    0.24204E-06         0.50972E-20         0.00000E+00
    0.24204E-06         0.24738E-19         0.00000E+00
    0.24204E-06         0.94547E-20         0.00000E+00
    0.24204E-06        -0.29104E-20         0.00000E+00
    0.24204E-06         0.29104E-20         0.00000E+00
    0.24204E-06         0.80076E-20         0.00000E+00
    0.24204E-06        -0.58208E-20         0.00000E+00
    0.24204E-06        -0.87311E-20         0.00000E+00
    0.24204E-06        -0.79995E-20         0.00000E+00
    0.24204E-06        -0.11642E-19         0.00000E+00
    0.24204E-06        -0.80076E-20         0.00000E+00
    0.24204E-06        -0.73160E-21         0.00000E+00
    0.24204E-06         0.72840E-20         0.00000E+00
    0.24204E-06         0.80076E-20         0.00000E+00
    0.24204E-06         0.14472E-20         0.00000E+00
    0.25039E-06         0.11642E-19         0.00000E+00
    0.25039E-06         0.00000E+00         0.00000E+00
    0.25039E-06         0.58208E-20         0.00000E+00
    0.25039E-06         0.00000E+00         0.00000E+00
    0.25039E-06        -0.11642E-19         0.00000E+00
    0.25039E-06         0.87843E-20         0.00000E+00
    0.25039E-06         0.58208E-20         0.00000E+00
    0.25039E-06         0.14020E-20         0.00000E+00
    0.25039E-06        -0.58208E-20         0.00000E+00
    0.25039E-06        -0.14552E-19         0.00000E+00
    0.25039E-06        -0.58208E-20         0.00000E+00
    0.25039E-06        -0.14020E-20         0.00000E+00
    0.25039E-06        -0.14020E-20         0.00000E+00
    0.25039E-06         0.00000E+00         0.00000E+00
    0.25039E-06         0.00000E+00         0.00000E+00
    0.25039E-06         0.00000E+00         0.00000E+00
    0.25891E-06        -0.16141E-20         0.00000E+00
    0.25891E-06         0.00000E+00         0.00000E+00
    0.25891E-06         0.80705E-21         0.00000E+00
    0.25891E-06         0.00000E+00         0.00000E+00
    0.25891E-06        -0.29104E-20         0.00000E+00
    0.25891E-06        -0.20373E-19         0.00000E+00
    0.25891E-06        -0.11642E-19         0.00000E+00
    0.25891E-06         0.29104E-20         0.00000E+00
    0.25891E-06         0.58208E-20         0.00000E+00
    0.25891E-06         0.87311E-20         0.00000E+00
    0.25891E-06        -0.87311E-20         0.00000E+00
    0.25891E-06        -0.87311E-20         0.00000E+00
    0.25891E-06         0.21033E-20         0.00000E+00
    0.25891E-06         0.21033E-20         0.00000E+00
    0.25891E-06        -0.50137E-20         0.00000E+00
    0.25891E-06        -0.15848E-19         0.00000E+00
    0.26760E-06         0.30751E-20         0.00000E+00
    0.26760E-06        -0.10269E-19         0.00000E+00
    0.26760E-06        -0.14634E-19         0.00000E+00
    0.26760E-06         0.59031E-20         0.00000E+00
    0.26760E-06        -0.82336E-22         0.00000E+00
    0.26760E-06        -0.11724E-19         0.00000E+00
    0.26760E-06        -0.58208E-20         0.00000E+00
    0.26760E-06        -0.56561E-20         0.00000E+00
    0.26760E-06        -0.29104E-20         0.00000E+00
    0.26760E-06        -0.14552E-20         0.00000E+00
    0.26760E-06        -0.12905E-20         0.00000E+00
    0.26760E-06        -0.29104E-20         0.00000E+00
    0.26760E-06        -0.59031E-20         0.00000E+00
    0.26760E-06        -0.59031E-20         0.00000E+00
    0.26760E-06         0.00000E+00         0.00000E+00
    0.26760E-06         0.58208E-20         0.00000E+00
    0.27645E-06        -0.58208E-20         0.00000E+00
    0.27645E-06         0.50318E-20         0.00000E+00
    0.27645E-06         0.58208E-20         0.00000E+00
    0.27645E-06        -0.35766E-20         0.00000E+00
    0.27645E-06         0.29104E-20         0.00000E+00
    0.27645E-06         0.50318E-20         0.00000E+00
    0.27645E-06        -0.62066E-34         0.00000E+00
    0.27645E-06        -0.79421E-20         0.00000E+00
    0.27645E-06        -0.13763E-19         0.00000E+00
    0.27645E-06        -0.10186E-19         0.00000E+00
    0.27645E-06         0.10853E-19         0.00000E+00
    0.27645E-06         0.17462E-19         0.00000E+00
    0.27645E-06        -0.21214E-20         0.00000E+00
    0.27645E-06        -0.87311E-20         0.00000E+00
    0.27645E-06        -0.36994E-20         0.00000E+00
    0.27645E-06         0.29104E-20         0.00000E+00
    0.28547E-06         0.00000E+00         0.00000E+00
    0.28547E-06        -0.29266E-20         0.00000E+00
    0.28547E-06        -0.14552E-20         0.00000E+00
    0.28547E-06        -0.14390E-20         0.00000E+00
    0.28547E-06         0.29104E-20         0.00000E+00
    0.28547E-06         0.72597E-20         0.00000E+00
    0.28547E-06        -0.11642E-19         0.00000E+00
    0.28547E-06        -0.11609E-19         0.00000E+00
    0.28547E-06        -0.28941E-20         0.00000E+00
    0.28547E-06         0.11625E-19         0.00000E+00
    0.28547E-06         0.87311E-20         0.00000E+00
    0.28547E-06        -0.87149E-20         0.00000E+00
    0.28547E-06        -0.58208E-20         0.00000E+00
    0.28547E-06         0.28941E-20         0.00000E+00
    0.28547E-06        -0.58208E-20         0.00000E+00
    0.28547E-06        -0.11609E-19         0.00000E+00
    0.29465E-06         0.58208E-20         0.00000E+00
    0.29465E-06         0.00000E+00         0.00000E+00
    0.29465E-06         0.67401E-21         0.00000E+00
    0.29465E-06         0.43656E-20         0.00000E+00
    0.29465E-06        -0.58208E-20         0.00000E+00
    0.29465E-06        -0.10186E-19         0.00000E+00
    0.29465E-06        -0.94052E-20         0.00000E+00
    0.29465E-06        -0.10968E-19         0.00000E+00
    0.29465E-06        -0.44727E-20         0.00000E+00
    0.29465E-06         0.95123E-20         0.00000E+00
    0.29465E-06         0.10968E-19         0.00000E+00
    0.29465E-06         0.10186E-19         0.00000E+00
    0.29465E-06         0.58208E-20         0.00000E+00
    0.29465E-06        -0.36916E-20         0.00000E+00
    0.29465E-06        -0.29104E-20         0.00000E+00
    0.29465E-06         0.58208E-20         0.00000E+00
    0.30397E-06         0.00000E+00         0.00000E+00
    0.30397E-06         0.00000E+00         0.00000E+00
    0.30397E-06        -0.29104E-20         0.00000E+00
    0.30397E-06        -0.56723E-20         0.00000E+00
    0.30397E-06         0.14552E-20         0.00000E+00
    0.30397E-06         0.72760E-20         0.00000E+00
    0.30397E-06        -0.66956E-34         0.00000E+00
    0.30397E-06        -0.14847E-21         0.00000E+00
    0.30397E-06         0.56723E-20         0.00000E+00
    0.30397E-06         0.29104E-20         0.00000E+00
    0.30397E-06         0.88796E-20         0.00000E+00
    0.30397E-06         0.17462E-19         0.00000E+00
    0.30397E-06         0.10186E-19         0.00000E+00
    0.30397E-06        -0.72760E-20         0.00000E+00
    0.30397E-06        -0.72760E-20         0.00000E+00
    0.30397E-06         0.00000E+00         0.00000E+00
    0.31345E-06        -0.96487E-20         0.00000E+00
    0.31345E-06        -0.62796E-20         0.00000E+00
    0.31345E-06        -0.29104E-20         0.00000E+00
    0.31345E-06        -0.29104E-20         0.00000E+00
    0.31345E-06         0.19140E-20         0.00000E+00
    0.31345E-06         0.19140E-20         0.00000E+00
    0.31345E-06         0.58208E-20         0.00000E+00
    0.31345E-06        -0.45880E-21         0.00000E+00
    0.31345E-06         0.24516E-20         0.00000E+00
    0.31345E-06         0.67384E-20         0.00000E+00
    0.31345E-06         0.67384E-20         0.00000E+00
    0.31345E-06         0.11183E-19         0.00000E+00
    0.31345E-06         0.68172E-20         0.00000E+00
    0.31345E-06         0.11642E-19         0.00000E+00
    0.31345E-06         0.29104E-20         0.00000E+00
    0.31345E-06        -0.58208E-20         0.00000E+00
    0.32307E-06         0.00000E+00         0.00000E+00
    0.32307E-06         0.58208E-20         0.00000E+00
    0.32307E-06         0.14552E-19         0.00000E+00
    0.32307E-06         0.14552E-19         0.00000E+00
    0.32307E-06         0.58208E-20         0.00000E+00
    0.32307E-06         0.29104E-20         0.00000E+00
    0.32307E-06         0.29104E-20         0.00000E+00
    0.32307E-06         0.58208E-20         0.00000E+00
    0.32307E-06         0.29104E-20         0.00000E+00
    0.32307E-06         0.00000E+00         0.00000E+00
    0.32307E-06         0.29104E-20         0.00000E+00
    0.32307E-06         0.00000E+00         0.00000E+00
    0.32307E-06         0.87311E-20         0.00000E+00
    0.32307E-06         0.15592E-19         0.00000E+00
    0.32307E-06         0.10186E-19         0.00000E+00
    0.32307E-06         0.37403E-20         0.00000E+00
    0.33282E-06         0.00000E+00         0.00000E+00
    0.33282E-06         0.58208E-20         0.00000E+00
    0.33282E-06         0.17322E-19         0.00000E+00
    0.33282E-06         0.20513E-19         0.00000E+00
    0.33282E-06         0.45059E-20         0.00000E+00
    0.33282E-06        -0.88715E-20         0.00000E+00
    0.33282E-06         0.87311E-20         0.00000E+00
    0.33282E-06         0.10327E-19         0.00000E+00
    0.33282E-06         0.88715E-20         0.00000E+00
    0.33282E-06         0.56804E-20         0.00000E+00
    0.33282E-06        -0.59611E-20         0.00000E+00
    0.33282E-06         0.58208E-20         0.00000E+00
    0.33282E-06         0.85908E-20         0.00000E+00
    0.33282E-06         0.14552E-20         0.00000E+00
    0.33282E-06         0.45059E-20         0.00000E+00
    0.33282E-06         0.00000E+00         0.00000E+00
    0.34270E-06         0.00000E+00         0.00000E+00
    0.34270E-06         0.29104E-20         0.00000E+00
    0.34270E-06         0.11642E-19         0.00000E+00
    0.34270E-06         0.87311E-20         0.00000E+00
    0.34270E-06        -0.29104E-20         0.00000E+00
    0.34270E-06         0.29104E-20         0.00000E+00
    0.34270E-06         0.17462E-19         0.00000E+00
    0.34270E-06         0.14552E-19         0.00000E+00
    0.34270E-06         0.27936E-20         0.00000E+00
    0.34270E-06         0.27936E-20         0.00000E+00
    0.34270E-06         0.29104E-20         0.00000E+00
    0.34270E-06        -0.42488E-20         0.00000E+00
    0.34270E-06        -0.27936E-20         0.00000E+00
    0.34270E-06         0.58208E-20         0.00000E+00
    0.34270E-06        -0.58208E-20         0.00000E+00
    0.34270E-06        -0.17462E-19         0.00000E+00
    0.35269E-06        -0.32298E-20         0.00000E+00
    0.35269E-06         0.42059E-20         0.00000E+00
    0.35269E-06         0.74357E-20         0.00000E+00
    0.35269E-06         0.13097E-19         0.00000E+00
    0.35269E-06         0.72760E-20         0.00000E+00
    0.35269E-06        -0.11379E-33         0.00000E+00
    0.35269E-06         0.11642E-19         0.00000E+00
    0.35269E-06         0.74357E-20         0.00000E+00
    0.35269E-06         0.11642E-19         0.00000E+00
    0.35269E-06         0.16007E-19         0.00000E+00
    0.35269E-06         0.43656E-20         0.00000E+00
    0.35269E-06        -0.14552E-20         0.00000E+00
    0.35269E-06        -0.29104E-20         0.00000E+00
    0.35269E-06        -0.88909E-20         0.00000E+00
    0.35269E-06        -0.88730E-21         0.00000E+00
    0.35269E-06         0.14552E-19         0.00000E+00
    0.36278E-06         0.00000E+00         0.00000E+00
    0.36278E-06         0.43656E-20         0.00000E+00
    0.36278E-06         0.14552E-20         0.00000E+00
    0.36278E-06        -0.43656E-20         0.00000E+00
    0.36278E-06        -0.43656E-20         0.00000E+00
    0.36278E-06         0.29104E-20         0.00000E+00
    0.36278E-06         0.10186E-19         0.00000E+00
    0.36278E-06         0.13097E-19         0.00000E+00
    0.36278E-06         0.13097E-19         0.00000E+00
    0.36278E-06        -0.43656E-20         0.00000E+00
    0.36278E-06        -0.14552E-20         0.00000E+00
    0.36278E-06         0.72760E-20         0.00000E+00
    0.36278E-06         0.29104E-20         0.00000E+00
    0.36278E-06         0.47477E-20         0.00000E+00
    0.36278E-06        -0.36380E-20         0.00000E+00
    0.36278E-06        -0.13861E-19         0.00000E+00
    0.37297E-06         0.29104E-20         0.00000E+00
    0.37297E-06         0.29104E-20         0.00000E+00
    0.37297E-06        -0.72760E-20         0.00000E+00
    0.37297E-06        -0.43656E-20         0.00000E+00
    0.37297E-06         0.58208E-20         0.00000E+00
    0.37297E-06         0.00000E+00         0.00000E+00
    0.37297E-06         0.58208E-20         0.00000E+00
    0.37297E-06         0.29104E-20         0.00000E+00
    0.37297E-06         0.00000E+00         0.00000E+00
    0.37297E-06         0.16007E-19         0.00000E+00
    0.37297E-06         0.14552E-19         0.00000E+00
    0.37297E-06         0.72760E-20         0.00000E+00
    0.37297E-06         0.00000E+00         0.00000E+00
    0.37297E-06        -0.87311E-20         0.00000E+00
    0.37297E-06        -0.29104E-20         0.00000E+00
    0.37297E-06         0.29104E-20         0.00000E+00
    0.38324E-06         0.87311E-20         0.00000E+00
    0.38324E-06         0.72760E-20         0.00000E+00
    0.38324E-06         0.00000E+00         0.00000E+00
    0.38324E-06        -0.72760E-20         0.00000E+00
    0.38324E-06         0.29104E-20         0.00000E+00
    0.38324E-06         0.43656E-20         0.00000E+00
    0.38324E-06         0.00000E+00         0.00000E+00
    0.38324E-06         0.87311E-20         0.00000E+00
    0.38324E-06         0.43656E-20         0.00000E+00
    0.38324E-06         0.29104E-20         0.00000E+00
    0.38324E-06         0.14487E-19         0.00000E+00
    0.38324E-06         0.21183E-20         0.00000E+00
    0.38324E-06        -0.86667E-20         0.00000E+00
    0.38324E-06        -0.43011E-20         0.00000E+00
    0.38324E-06        -0.58208E-20         0.00000E+00
    0.38324E-06        -0.29104E-20         0.00000E+00
    0.39357E-06        -0.10173E-19         0.00000E+00
    0.39357E-06         0.14552E-20         0.00000E+00
    0.39357E-06         0.65417E-20         0.00000E+00
    0.39357E-06         0.87311E-20         0.00000E+00
    0.39357E-06         0.13097E-19         0.00000E+00
    0.39357E-06         0.72760E-20         0.00000E+00
    0.39357E-06        -0.43656E-20         0.00000E+00
    0.39357E-06        -0.14552E-20         0.00000E+00
    0.39357E-06         0.21894E-20         0.00000E+00
    0.39357E-06        -0.14552E-20         0.00000E+00
    0.39357E-06        -0.13279E-22         0.00000E+00
    0.39357E-06         0.10186E-19         0.00000E+00
    0.39357E-06         0.94654E-20         0.00000E+00
    0.39357E-06         0.21761E-20         0.00000E+00
    0.39357E-06        -0.14552E-20         0.00000E+00
    0.39357E-06        -0.10173E-19         0.00000E+00
    0.40395E-06         0.43571E-20         0.00000E+00
    0.40395E-06        -0.29104E-20         0.00000E+00
    0.40395E-06         0.10186E-19         0.00000E+00
    0.40395E-06         0.13097E-19         0.00000E+00
    0.40395E-06        -0.14552E-20         0.00000E+00
    0.40395E-06         0.72337E-21         0.00000E+00
    0.40395E-06        -0.29104E-20         0.00000E+00
    0.40395E-06        -0.10186E-19         0.00000E+00
    0.40395E-06        -0.43656E-20         0.00000E+00
    0.40395E-06         0.14552E-20         0.00000E+00
    0.40395E-06         0.14552E-20         0.00000E+00
    0.40395E-06         0.00000E+00         0.00000E+00
    0.40395E-06        -0.14552E-20         0.00000E+00
    0.40395E-06         0.58208E-20         0.00000E+00
    0.40395E-06         0.65526E-20         0.00000E+00
    0.40395E-06         0.43740E-20         0.00000E+00
    0.41436E-06        -0.29104E-20         0.00000E+00
    0.41436E-06         0.29104E-20         0.00000E+00
    0.41436E-06         0.14552E-20         0.00000E+00
    0.41436E-06        -0.29104E-20         0.00000E+00
    0.41436E-06        -0.43656E-20         0.00000E+00
    0.41436E-06        -0.58208E-20         0.00000E+00
    0.41436E-06        -0.87311E-20         0.00000E+00
    0.41436E-06        -0.17462E-19         0.00000E+00
    0.41436E-06        -0.10186E-19         0.00000E+00
    0.41436E-06         0.58208E-20         0.00000E+00
    0.41436E-06        -0.29104E-20         0.00000E+00
    0.41436E-06        -0.87311E-20         0.00000E+00
    0.41436E-06         0.29104E-20         0.00000E+00
    0.41436E-06         0.72760E-20         0.00000E+00
    0.41436E-06         0.17462E-19         0.00000E+00
    0.41436E-06         0.26193E-19         0.00000E+00
    0.42478E-06         0.12765E-19         0.00000E+00
    0.42478E-06         0.72760E-20         0.00000E+00
    0.42478E-06        -0.18620E-33         0.00000E+00
    0.42478E-06        -0.89361E-21         0.00000E+00
    0.42478E-06        -0.72760E-20         0.00000E+00
    0.42478E-06        -0.10186E-19         0.00000E+00
    0.42478E-06        -0.58208E-20         0.00000E+00
    0.42478E-06        -0.29104E-20         0.00000E+00
    0.42478E-06        -0.58208E-20         0.00000E+00
    0.42478E-06        -0.10186E-19         0.00000E+00
    0.42478E-06        -0.72760E-20         0.00000E+00
    0.42478E-06        -0.29104E-20         0.00000E+00
    0.42478E-06         0.29104E-20         0.00000E+00
    0.42478E-06         0.72760E-20         0.00000E+00
    0.42478E-06         0.38040E-20         0.00000E+00
    0.42478E-06         0.17872E-20         0.00000E+00
    0.43519E-06         0.87311E-20         0.00000E+00
    0.43519E-06         0.72760E-20         0.00000E+00
    0.43519E-06         0.00000E+00         0.00000E+00
    0.43519E-06        -0.87311E-20         0.00000E+00
    0.43519E-06        -0.43656E-20         0.00000E+00
    0.43519E-06         0.00000E+00         0.00000E+00
    0.43519E-06        -0.43656E-20         0.00000E+00
    0.43519E-06        -0.58208E-20         0.00000E+00
    0.43519E-06        -0.58208E-20         0.00000E+00
    0.43519E-06        -0.29104E-20         0.00000E+00
    0.43519E-06        -0.43656E-20         0.00000E+00
    0.43519E-06        -0.87311E-20         0.00000E+00
    0.43519E-06         0.00000E+00         0.00000E+00
    0.43519E-06         0.00000E+00         0.00000E+00
    0.43519E-06        -0.43656E-20         0.00000E+00
    0.43519E-06         0.00000E+00         0.00000E+00
    0.44558E-06        -0.58208E-20         0.00000E+00
    0.44558E-06         0.14552E-20         0.00000E+00
    0.44558E-06         0.72760E-20         0.00000E+00
    0.44558E-06         0.10186E-19         0.00000E+00
    0.44558E-06         0.72760E-20         0.00000E+00
    0.44558E-06        -0.43656E-20         0.00000E+00
    0.44558E-06        -0.87311E-20         0.00000E+00
    0.44558E-06        -0.87311E-20         0.00000E+00
    0.44558E-06         0.00000E+00         0.00000E+00
    0.44558E-06         0.29104E-20         0.00000E+00
    0.44558E-06        -0.58208E-20         0.00000E+00
    0.44558E-06        -0.29104E-20         0.00000E+00
    0.44558E-06        -0.29104E-20         0.00000E+00
    0.44558E-06        -0.43656E-20         0.00000E+00
    0.44558E-06        -0.14552E-20         0.00000E+00
    0.44558E-06        -0.29104E-20         0.00000E+00
    0.45592E-06         0.20373E-19         0.00000E+00
    0.45592E-06         0.13097E-19         0.00000E+00
    0.45592E-06         0.14552E-20         0.00000E+00
    0.45592E-06        -0.43656E-20         0.00000E+00
    0.45592E-06        -0.29104E-20         0.00000E+00
    0.45592E-06         0.29104E-20         0.00000E+00
    0.45592E-06         0.29104E-20         0.00000E+00
    0.45592E-06        -0.58208E-20         0.00000E+00
    0.45592E-06        -0.58208E-20         0.00000E+00
    0.45592E-06         0.00000E+00         0.00000E+00
    0.45592E-06         0.12273E-19         0.00000E+00
    0.45592E-06         0.10818E-19         0.00000E+00
    0.45592E-06         0.82377E-21         0.00000E+00
    0.45592E-06        -0.72760E-20         0.00000E+00
    0.45592E-06        -0.12465E-19         0.00000E+00
    0.45592E-06        -0.58208E-20         0.00000E+00
    0.46617E-06         0.52153E-20         0.00000E+00
    0.46617E-06         0.10186E-19         0.00000E+00
    0.46617E-06         0.61235E-20         0.00000E+00
    0.46617E-06         0.11525E-20         0.00000E+00
    0.46617E-06         0.11525E-20         0.00000E+00
    0.46617E-06         0.32131E-20         0.00000E+00
    0.46617E-06         0.32131E-20         0.00000E+00
    0.46617E-06         0.14552E-20         0.00000E+00
    0.46617E-06        -0.14552E-20         0.00000E+00
    0.46617E-06         0.14552E-20         0.00000E+00
    0.46617E-06         0.29104E-20         0.00000E+00
    0.46617E-06         0.13097E-19         0.00000E+00
    0.46617E-06         0.72760E-20         0.00000E+00
    0.46617E-06        -0.55181E-20         0.00000E+00
    0.46617E-06        -0.29104E-20         0.00000E+00
    0.46617E-06        -0.93366E-20         0.00000E+00
    0.47633E-06        -0.29104E-20         0.00000E+00
    0.47633E-06        -0.14552E-20         0.00000E+00
    0.47633E-06        -0.14552E-20         0.00000E+00
    0.47633E-06        -0.37178E-20         0.00000E+00
    0.47633E-06         0.35582E-20         0.00000E+00
    0.47633E-06         0.66282E-20         0.00000E+00
    0.47633E-06         0.51730E-20         0.00000E+00
    0.47633E-06         0.58208E-20         0.00000E+00
    0.47633E-06         0.58208E-20         0.00000E+00
    0.47633E-06         0.64777E-21         0.00000E+00
    0.47633E-06         0.14552E-20         0.00000E+00
    0.47633E-06        -0.14552E-20         0.00000E+00
    0.47633E-06        -0.79829E-22         0.00000E+00
    0.47633E-06         0.94587E-20         0.00000E+00
    0.47633E-06         0.00000E+00         0.00000E+00
    0.47633E-06        -0.58208E-20         0.00000E+00
    0.48636E-06         0.33347E-20         0.00000E+00
    0.48636E-06         0.29104E-20         0.00000E+00
    0.48636E-06        -0.16673E-20         0.00000E+00
    0.48636E-06        -0.58208E-20         0.00000E+00
    0.48636E-06        -0.29104E-20         0.00000E+00
    0.48636E-06         0.87311E-20         0.00000E+00
    0.48636E-06         0.87311E-20         0.00000E+00
    0.48636E-06         0.14552E-20         0.00000E+00
    0.48636E-06         0.14552E-20         0.00000E+00
    0.48636E-06         0.00000E+00         0.00000E+00
    0.48636E-06         0.21828E-20         0.00000E+00
    0.48636E-06         0.58208E-20         0.00000E+00
    0.48636E-06         0.00000E+00         0.00000E+00
    0.48636E-06        -0.26982E-20         0.00000E+00
    0.48636E-06         0.45777E-20         0.00000E+00
    0.48636E-06         0.11642E-19         0.00000E+00
    0.49624E-06         0.00000E+00         0.00000E+00
    0.49624E-06         0.10032E-20         0.00000E+00
    0.49624E-06        -0.33623E-20         0.00000E+00
    0.49624E-06        -0.72760E-20         0.00000E+00
    0.49624E-06         0.14552E-20         0.00000E+00
    0.49624E-06         0.72760E-20         0.00000E+00
    0.49624E-06         0.58208E-20         0.00000E+00
    0.49624E-06         0.14552E-20         0.00000E+00
    0.49624E-06         0.19071E-20         0.00000E+00
    0.49624E-06         0.77279E-20         0.00000E+00
    0.49624E-06         0.43656E-20         0.00000E+00
    0.49624E-06        -0.45194E-21         0.00000E+00
    0.49624E-06        -0.10344E-34         0.00000E+00
    0.49624E-06         0.45194E-21         0.00000E+00
    0.49624E-06        -0.43656E-20         0.00000E+00
    0.49624E-06        -0.87311E-20         0.00000E+00
    0.50593E-06         0.87311E-20         0.00000E+00
    0.50593E-06         0.00000E+00         0.00000E+00
    0.50593E-06        -0.72760E-20         0.00000E+00
    0.50593E-06        -0.14552E-20         0.00000E+00
    0.50593E-06         0.00000E+00         0.00000E+00
    0.50593E-06         0.29104E-20         0.00000E+00
    0.50593E-06         0.72760E-20         0.00000E+00
    0.50593E-06         0.10099E-19         0.00000E+00
    0.50593E-06         0.50062E-20         0.00000E+00
    0.50593E-06        -0.14552E-20         0.00000E+00
    0.50593E-06        -0.29104E-20         0.00000E+00
    0.50593E-06        -0.28234E-20         0.00000E+00
    0.50593E-06        -0.15505E-34         0.00000E+00
    0.50593E-06        -0.36380E-20         0.00000E+00
    0.50593E-06        -0.72760E-21         0.00000E+00
    0.50593E-06         0.41916E-20         0.00000E+00
    0.51541E-06        -0.29104E-20         0.00000E+00
    0.51541E-06         0.00000E+00         0.00000E+00
    0.51541E-06        -0.77938E-21         0.00000E+00
    0.51541E-06         0.43656E-20         0.00000E+00
    0.51541E-06         0.66001E-20         0.00000E+00
    0.51541E-06         0.58208E-20         0.00000E+00
    0.51541E-06         0.58208E-20         0.00000E+00
    0.51541E-06         0.00000E+00         0.00000E+00
    0.51541E-06        -0.67582E-21         0.00000E+00
    0.51541E-06        -0.43656E-20         0.00000E+00
    0.51541E-06        -0.51450E-20         0.00000E+00
    0.51541E-06        -0.29104E-20         0.00000E+00
    0.51541E-06        -0.43656E-20         0.00000E+00
    0.51541E-06         0.14552E-20         0.00000E+00
    0.51541E-06         0.00000E+00         0.00000E+00
    0.51541E-06        -0.58208E-20         0.00000E+00
    0.52465E-06         0.17178E-19         0.00000E+00
    0.52465E-06         0.78615E-20         0.00000E+00
    0.52465E-06         0.14552E-20         0.00000E+00
    0.52465E-06        -0.27684E-20         0.00000E+00
    0.52465E-06        -0.27684E-20         0.00000E+00
    0.52465E-06         0.11500E-19         0.00000E+00
    0.52465E-06         0.85891E-20         0.00000E+00
    0.52465E-06        -0.29104E-20         0.00000E+00
    0.52465E-06        -0.84471E-20         0.00000E+00
    0.52465E-06        -0.21828E-20         0.00000E+00
    0.52465E-06        -0.45076E-20         0.00000E+00
    0.52465E-06        -0.58208E-20         0.00000E+00
    0.52465E-06         0.14552E-20         0.00000E+00
    0.52465E-06        -0.56788E-20         0.00000E+00
    0.52465E-06         0.00000E+00         0.00000E+00
    0.52465E-06         0.58208E-20         0.00000E+00
    0.53361E-06        -0.18257E-20         0.00000E+00
    0.53361E-06         0.43656E-20         0.00000E+00
    0.53361E-06         0.96440E-20         0.00000E+00
    0.53361E-06        -0.78183E-20         0.00000E+00
    0.53361E-06        -0.65484E-20         0.00000E+00
    0.53361E-06         0.72760E-21         0.00000E+00
    0.53361E-06        -0.72760E-21         0.00000E+00
    0.53361E-06         0.00000E+00         0.00000E+00
    0.53361E-06        -0.14552E-20         0.00000E+00
    0.53361E-06        -0.94587E-20         0.00000E+00
    0.53361E-06        -0.10914E-19         0.00000E+00
    0.53361E-06         0.27251E-20         0.00000E+00
    0.53361E-06        -0.54233E-21         0.00000E+00
    0.53361E-06         0.58208E-20         0.00000E+00
    0.53361E-06         0.52662E-35         0.00000E+00
    0.53361E-06        -0.15637E-19         0.00000E+00
    0.54227E-06         0.00000E+00         0.00000E+00
    0.54227E-06         0.49099E-20         0.00000E+00
    0.54227E-06         0.00000E+00         0.00000E+00
    0.54227E-06        -0.92755E-20         0.00000E+00
    0.54227E-06        -0.16384E-20         0.00000E+00
    0.54227E-06        -0.21828E-20         0.00000E+00
    0.54227E-06        -0.70927E-20         0.00000E+00
    0.54227E-06        -0.43656E-20         0.00000E+00
    0.54227E-06        -0.72760E-20         0.00000E+00
    0.54227E-06        -0.43656E-20         0.00000E+00
    0.54227E-06         0.21828E-20         0.00000E+00
    0.54227E-06         0.21828E-20         0.00000E+00
    0.54227E-06        -0.14552E-20         0.00000E+00
    0.54227E-06        -0.43656E-20         0.00000E+00
    0.54227E-06         0.00000E+00         0.00000E+00
    0.54227E-06         0.43656E-20         0.00000E+00
    0.55059E-06         0.10032E-20         0.00000E+00
    0.55059E-06        -0.29104E-20         0.00000E+00
    0.55059E-06        -0.34120E-20         0.00000E+00
    0.55059E-06        -0.13174E-20         0.00000E+00
    0.55059E-06        -0.43656E-20         0.00000E+00
    0.55059E-06        -0.25466E-20         0.00000E+00
    0.55059E-06        -0.14552E-20         0.00000E+00
    0.55059E-06        -0.43656E-20         0.00000E+00
    0.55059E-06        -0.38640E-20         0.00000E+00
    0.55059E-06        -0.29104E-20         0.00000E+00
    0.55059E-06        -0.21828E-20         0.00000E+00
    0.55059E-06        -0.58208E-20         0.00000E+00
    0.55059E-06        -0.65484E-20         0.00000E+00
    0.55059E-06        -0.72760E-21         0.00000E+00
    0.55059E-06         0.50932E-20         0.00000E+00
    0.55059E-06         0.87311E-20         0.00000E+00
    0.55854E-06         0.00000E+00         0.00000E+00
    0.55854E-06        -0.17680E-20         0.00000E+00
    0.55854E-06        -0.72760E-20         0.00000E+00
    0.55854E-06        -0.55080E-20         0.00000E+00
    0.55854E-06        -0.31279E-21         0.00000E+00
    0.55854E-06        -0.36380E-20         0.00000E+00
    0.55854E-06        -0.44166E-20         0.00000E+00
    0.55854E-06        -0.50932E-20         0.00000E+00
    0.55854E-06        -0.17680E-20         0.00000E+00
    0.55854E-06         0.25976E-20         0.00000E+00
    0.55854E-06        -0.11424E-20         0.00000E+00
    0.55854E-06        -0.29614E-20         0.00000E+00
    0.55854E-06        -0.55080E-20         0.00000E+00
    0.55854E-06        -0.28594E-20         0.00000E+00
    0.55854E-06         0.15572E-20         0.00000E+00
    0.55854E-06        -0.14552E-20         0.00000E+00
    0.56609E-06        -0.29104E-20         0.00000E+00
    0.56609E-06        -0.42906E-20         0.00000E+00
    0.56609E-06        -0.25466E-20         0.00000E+00
    0.56609E-06        -0.61846E-20         0.00000E+00
    0.56609E-06        -0.58208E-20         0.00000E+00
    0.56609E-06         0.24716E-20         0.00000E+00
    0.56609E-06         0.00000E+00         0.00000E+00
    0.56609E-06        -0.43656E-20         0.00000E+00
    0.56609E-06        -0.43656E-20         0.00000E+00
    0.56609E-06        -0.14552E-20         0.00000E+00
    0.56609E-06         0.00000E+00         0.00000E+00
    0.56609E-06        -0.21828E-20         0.00000E+00
    0.56609E-06        -0.72760E-21         0.00000E+00
    0.56609E-06        -0.21828E-20         0.00000E+00
    0.56609E-06        -0.50932E-20         0.00000E+00
    0.56609E-06        -0.29104E-20         0.00000E+00
    0.57322E-06         0.43656E-20         0.00000E+00
    0.57322E-06        -0.72760E-21         0.00000E+00
    0.57322E-06        -0.58208E-20         0.00000E+00
    0.57322E-06        -0.21828E-20         0.00000E+00
    0.57322E-06        -0.29104E-20         0.00000E+00
    0.57322E-06        -0.36380E-20         0.00000E+00
    0.57322E-06        -0.29104E-20         0.00000E+00
    0.57322E-06        -0.65484E-20         0.00000E+00
    0.57322E-06        -0.43656E-20         0.00000E+00
    0.57322E-06         0.14552E-20         0.00000E+00
    0.57322E-06         0.21828E-20         0.00000E+00
    0.57322E-06        -0.14552E-20         0.00000E+00
    0.57322E-06        -0.60151E-21         0.00000E+00
    0.57322E-06         0.15813E-20         0.00000E+00
    0.57322E-06        -0.14552E-20         0.00000E+00
    0.57322E-06        -0.29104E-20         0.00000E+00
    0.57990E-06        -0.42236E-20         0.00000E+00
    0.57990E-06         0.00000E+00         0.00000E+00
    0.57990E-06        -0.71007E-22         0.00000E+00
    0.57990E-06        -0.43656E-20         0.00000E+00
    0.57990E-06        -0.72760E-21         0.00000E+00
    0.57990E-06        -0.39308E-20         0.00000E+00
    0.57990E-06        -0.72760E-20         0.00000E+00
    0.57990E-06        -0.26176E-20         0.00000E+00
    0.57990E-06        -0.14552E-20         0.00000E+00
    0.57990E-06        -0.72760E-21         0.00000E+00
    0.57990E-06         0.46584E-20         0.00000E+00
    0.57990E-06         0.61846E-20         0.00000E+00
    0.57990E-06        -0.29279E-21         0.00000E+00
    0.57990E-06        -0.29104E-20         0.00000E+00
    0.57990E-06        -0.72760E-21         0.00000E+00
    0.57990E-06         0.14552E-20         0.00000E+00
    0.58609E-06         0.29104E-20         0.00000E+00
    0.58609E-06        -0.63024E-20         0.00000E+00
    0.58609E-06        -0.66662E-20         0.00000E+00
    0.58609E-06         0.55748E-20         0.00000E+00
    0.58609E-06        -0.32742E-20         0.00000E+00
    0.58609E-06        -0.84852E-20         0.00000E+00
    0.58609E-06        -0.18190E-20         0.00000E+00
    0.58609E-06        -0.21828E-20         0.00000E+00
    0.58609E-06         0.10914E-20         0.00000E+00
    0.58609E-06         0.43656E-20         0.00000E+00
    0.58609E-06         0.10914E-20         0.00000E+00
    0.58609E-06         0.00000E+00         0.00000E+00
    0.58609E-06         0.10914E-20         0.00000E+00
    0.58609E-06         0.50292E-20         0.00000E+00
    0.58609E-06         0.72760E-21         0.00000E+00
    0.58609E-06        -0.89669E-20         0.00000E+00
    0.59178E-06         0.25230E-20         0.00000E+00
    0.59178E-06         0.36380E-21         0.00000E+00
    0.59178E-06        -0.53391E-21         0.00000E+00
    0.59178E-06         0.14552E-20         0.00000E+00
    0.59178E-06         0.21828E-20         0.00000E+00
    0.59178E-06         0.36380E-21         0.00000E+00
    0.59178E-06        -0.72760E-21         0.00000E+00
    0.59178E-06         0.17012E-21         0.00000E+00
    0.59178E-06        -0.10914E-20         0.00000E+00
    0.59178E-06        -0.17012E-21         0.00000E+00
    0.59178E-06         0.10914E-20         0.00000E+00
    0.59178E-06         0.18190E-20         0.00000E+00
    0.59178E-06         0.18072E-20         0.00000E+00
    0.59178E-06        -0.16371E-20         0.00000E+00
    0.59178E-06        -0.10914E-20         0.00000E+00
    0.59178E-06         0.14316E-20         0.00000E+00
    0.59694E-06        -0.15871E-19         0.00000E+00
    0.59694E-06        -0.10914E-20         0.00000E+00
    0.59694E-06         0.57525E-20         0.00000E+00
    0.59694E-06        -0.14552E-20         0.00000E+00
    0.59694E-06         0.21828E-20         0.00000E+00
    0.59694E-06         0.40018E-20         0.00000E+00
    0.59694E-06         0.25466E-20         0.00000E+00
    0.59694E-06         0.00000E+00         0.00000E+00
    0.59694E-06        -0.36380E-21         0.00000E+00
    0.59694E-06        -0.72760E-21         0.00000E+00
    0.59694E-06        -0.35697E-20         0.00000E+00
    0.59694E-06        -0.19326E-20         0.00000E+00
    0.59694E-06         0.23647E-20         0.00000E+00
    0.59694E-06         0.30923E-20         0.00000E+00
    0.59694E-06         0.10914E-20         0.00000E+00
    0.59694E-06        -0.72760E-21         0.00000E+00
    0.60155E-06         0.18190E-20         0.00000E+00
    0.60155E-06        -0.54227E-20         0.00000E+00
    0.60155E-06         0.45475E-21         0.00000E+00
    0.60155E-06         0.76965E-20         0.00000E+00
    0.60155E-06         0.36380E-21         0.00000E+00
    0.60155E-06         0.72760E-21         0.00000E+00
    0.60155E-06         0.72760E-21         0.00000E+00
    0.60155E-06         0.54570E-21         0.00000E+00
    0.60155E-06         0.36380E-21         0.00000E+00
    0.60155E-06        -0.10914E-20         0.00000E+00
    0.60155E-06        -0.61503E-20         0.00000E+00
    0.60155E-06         0.54570E-21         0.00000E+00
    0.60155E-06         0.81512E-20         0.00000E+00
    0.60155E-06        -0.39676E-20         0.00000E+00
    0.60155E-06        -0.36038E-20         0.00000E+00
    0.60155E-06         0.43656E-20         0.00000E+00
    0.60560E-06         0.36380E-21         0.00000E+00
    0.60560E-06         0.36380E-21         0.00000E+00
    0.60560E-06         0.14552E-20         0.00000E+00
    0.60560E-06         0.18190E-20         0.00000E+00
    0.60560E-06         0.36380E-21         0.00000E+00
    0.60560E-06        -0.54570E-21         0.00000E+00
    0.60560E-06         0.12733E-20         0.00000E+00
    0.60560E-06         0.16371E-20         0.00000E+00
    0.60560E-06         0.54570E-21         0.00000E+00
    0.60560E-06         0.72760E-21         0.00000E+00
    0.60560E-06         0.72760E-21         0.00000E+00
    0.60560E-06         0.10914E-20         0.00000E+00
    0.60560E-06         0.10914E-20         0.00000E+00
    0.60560E-06         0.28905E-20         0.00000E+00
    0.60560E-06         0.10004E-20         0.00000E+00
    0.60560E-06        -0.25068E-20         0.00000E+00
    0.60908E-06        -0.41837E-20         0.00000E+00
    0.60908E-06        -0.12733E-20         0.00000E+00
    0.60908E-06        -0.54570E-21         0.00000E+00
    0.60908E-06         0.00000E+00         0.00000E+00
    0.60908E-06         0.00000E+00         0.00000E+00
    0.60908E-06         0.00000E+00         0.00000E+00
    0.60908E-06        -0.72760E-21         0.00000E+00
    0.60908E-06         0.15007E-20         0.00000E+00
    0.60908E-06         0.19554E-20         0.00000E+00
    0.60908E-06         0.00000E+00         0.00000E+00
    0.60908E-06         0.19099E-20         0.00000E+00
    0.60908E-06         0.19099E-20         0.00000E+00
    0.60908E-06         0.10914E-20         0.00000E+00
    0.60908E-06        -0.90949E-21         0.00000E+00
    0.60908E-06         0.10004E-20         0.00000E+00
    0.60908E-06         0.27285E-20         0.00000E+00
    0.61067E-06         0.13017E-19         0.00000E+00
    0.61067E-06        -0.65086E-20         0.00000E+00
    0.61067E-06        -0.65086E-20         0.00000E+00
    0.61067E-06         0.65086E-20         0.00000E+00
    0.61067E-06         0.65086E-20         0.00000E+00
    0.61067E-06        -0.65086E-20         0.00000E+00
    0.61067E-06        -0.65086E-20         0.00000E+00
    0.61067E-06        -0.10532E-34         0.00000E+00
    0.61067E-06        -0.65086E-20         0.00000E+00
    0.61067E-06         0.65086E-20         0.00000E+00
    0.61067E-06         0.65086E-20         0.00000E+00
    0.61067E-06        -0.65086E-20         0.00000E+00
    0.61067E-06        -0.75232E-35         0.00000E+00
    0.61067E-06         0.65086E-20         0.00000E+00
    0.61067E-06         0.00000E+00         0.00000E+00
    0.61067E-06         0.00000E+00         0.00000E+00
CELL_DATA       1350
TENSORS stressef double 
    0.41932E+08        -0.16353E-08         0.00000E+00
   -0.16353E-08         0.15595E+09         0.00000E+00
    0.00000E+00         0.00000E+00         0.39577E+08
 
    0.26531E+06        -0.26021E-08         0.00000E+00
   -0.26021E-08        -0.10712E+08         0.00000E+00
    0.00000E+00         0.00000E+00        -0.20894E+07
 
    0.26531E+06         0.26021E-08         0.00000E+00
    0.26021E-08        -0.10712E+08         0.00000E+00
    0.00000E+00         0.00000E+00        -0.20894E+07
 
    0.26531E+06         0.23130E-08         0.00000E+00
    0.23130E-08        -0.10712E+08         0.00000E+00
    0.00000E+00         0.00000E+00        -0.20894E+07
 
    0.26531E+06        -0.11565E-08         0.00000E+00
   -0.11565E-08        -0.10712E+08         0.00000E+00
    0.00000E+00         0.00000E+00        -0.20894E+07
 
    0.26531E+06         0.10119E-08         0.00000E+00
    0.10119E-08        -0.10712E+08         0.00000E+00
    0.00000E+00         0.00000E+00        -0.20894E+07
 
    0.26531E+06        -0.72280E-09         0.00000E+00
   -0.72280E-09        -0.10712E+08         0.00000E+00
    0.00000E+00         0.00000E+00        -0.20894E+07
 
    0.26531E+06        -0.57824E-09         0.00000E+00
   -0.57824E-09        -0.10712E+08         0.00000E+00
    0.00000E+00         0.00000E+00        -0.20894E+07
 
    0.26531E+06        -0.36140E-09         0.00000E+00
   -0.36140E-09        -0.10712E+08         0.00000E+00
    0.00000E+00         0.00000E+00        -0.20894E+07
 
    0.26531E+06        -0.86736E-09         0.00000E+00
   -0.86736E-09        -0.10712E+08         0.00000E+00
    0.00000E+00         0.00000E+00        -0.20894E+07
 
    0.26531E+06        -0.11565E-08         0.00000E+00
   -0.11565E-08        -0.10712E+08         0.00000E+00
    0.00000E+00         0.00000E+00        -0.20894E+07
 
    0.26531E+06         0.00000E+00         0.00000E+00
    0.00000E+00        -0.10712E+08         0.00000E+00
    0.00000E+00         0.00000E+00        -0.20894E+07
 
    0.26531E+06         0.43368E-09         0.00000E+00
    0.43368E-09        -0.10712E+08         0.00000E+00
    0.00000E+00         0.00000E+00        -0.20894E+07
 
    0.26531E+06         0.39754E-09         0.00000E+00
    0.39754E-09        -0.10712E+08         0.00000E+00
    0.00000E+00         0.00000E+00        -0.20894E+07
 
    0.26531E+06         0.39754E-09         0.00000E+00
    0.39754E-09        -0.10712E+08         0.00000E+00
    0.00000E+00         0.00000E+00        -0.20894E+07
 
    0.41932E+08        -0.79508E-09         0.00000E+00
   -0.79508E-09         0.15595E+09         0.00000E+00
    0.00000E+00         0.00000E+00         0.39577E+08
 
    0.26527E+06        -0.44814E-08         0.00000E+00
   -0.44814E-08        -0.10712E+08         0.00000E+00
    0.00000E+00         0.00000E+00        -0.20894E+07
 
    0.26527E+06         0.00000E+00         0.00000E+00
    0.00000E+00        -0.10712E+08         0.00000E+00
    0.00000E+00         0.00000E+00        -0.20894E+07
 
    0.26527E+06        -0.31803E-08         0.00000E+00
   -0.31803E-08        -0.10712E+08         0.00000E+00
    0.00000E+00         0.00000E+00        -0.20894E+07
 
    0.26527E+06        -0.47705E-08         0.00000E+00
   -0.47705E-08        -0.10712E+08         0.00000E+00
    0.00000E+00         0.00000E+00        -0.20894E+07
 
    0.26527E+06        -0.57824E-09         0.00000E+00
   -0.57824E-09        -0.10712E+08         0.00000E+00
    0.00000E+00         0.00000E+00        -0.20894E+07
 
    0.26527E+06        -0.43368E-09         0.00000E+00
   -0.43368E-09        -0.10712E+08         0.00000E+00
    0.00000E+00         0.00000E+00        -0.20894E+07
 
    0.26527E+06         0.17347E-08         0.00000E+00
    0.17347E-08        -0.10712E+08         0.00000E+00
    0.00000E+00         0.00000E+00        -0.20894E+07
 
    0.26527E+06         0.26021E-08         0.00000E+00
    0.26021E-08        -0.10712E+08         0.00000E+00
    0.00000E+00         0.00000E+00        -0.20894E+07
 
    0.26527E+06         0.21684E-08         0.00000E+00
    0.21684E-08        -0.10712E+08         0.00000E+00
    0.00000E+00         0.00000E+00        -0.20894E+07
 
    0.26527E+06         0.86736E-09         0.00000E+00
    0.86736E-09        -0.10712E+08         0.00000E+00
    0.00000E+00         0.00000E+00        -0.20894E+07
 
    0.26527E+06         0.21684E-09         0.00000E+00
    0.21684E-09        -0.10712E+08         0.00000E+00
    0.00000E+00         0.00000E+00        -0.20894E+07
 
    0.26527E+06         0.10119E-08         0.00000E+00
    0.10119E-08        -0.10712E+08         0.00000E+00
    0.00000E+00         0.00000E+00        -0.20894E+07
 
    0.26527E+06         0.25298E-09         0.00000E+00
    0.25298E-09        -0.10712E+08         0.00000E+00
    0.00000E+00         0.00000E+00        -0.20894E+07
 
    0.26527E+06         0.72280E-10         0.00000E+00
    0.72280E-10        -0.10712E+08         0.00000E+00
    0.00000E+00         0.00000E+00        -0.20894E+07
 
    0.41932E+08        -0.36501E-08         0.00000E+00
   -0.36501E-08         0.15595E+09         0.00000E+00
    0.00000E+00         0.00000E+00         0.39577E+08
 
    0.26519E+06        -0.13010E-08         0.00000E+00
   -0.13010E-08        -0.10712E+08         0.00000E+00
    0.00000E+00         0.00000E+00        -0.20894E+07
 
    0.26519E+06        -0.10119E-08         0.00000E+00
   -0.10119E-08        -0.10712E+08         0.00000E+00
    0.00000E+00         0.00000E+00        -0.20894E+07
 
    0.26519E+06        -0.86736E-09         0.00000E+00
   -0.86736E-09        -0.10712E+08         0.00000E+00
    0.00000E+00         0.00000E+00        -0.20894E+07
 
    0.26519E+06         0.18793E-08         0.00000E+00
    0.18793E-08        -0.10712E+08         0.00000E+00
    0.00000E+00         0.00000E+00        -0.20894E+07
 
    0.26519E+06        -0.13010E-08         0.00000E+00
   -0.13010E-08        -0.10712E+08         0.00000E+00
    0.00000E+00         0.00000E+00        -0.20894E+07
 
    0.26519E+06        -0.72280E-09         0.00000E+00
   -0.72280E-09        -0.10712E+08         0.00000E+00
    0.00000E+00         0.00000E+00        -0.20894E+07
 
    0.26519E+06         0.23130E-08         0.00000E+00
    0.23130E-08        -0.10712E+08         0.00000E+00
    0.00000E+00         0.00000E+00        -0.20894E+07
 
    0.26519E+06        -0.14456E-09         0.00000E+00
   -0.14456E-09        -0.10712E+08         0.00000E+00
    0.00000E+00         0.00000E+00        -0.20894E+07
 
    0.26519E+06         0.11565E-08         0.00000E+00
    0.11565E-08        -0.10712E+08         0.00000E+00
    0.00000E+00         0.00000E+00        -0.20894E+07
 
    0.26519E+06         0.36140E-09         0.00000E+00
    0.36140E-09        -0.10712E+08         0.00000E+00
    0.00000E+00         0.00000E+00        -0.20894E+07
 
    0.26519E+06         0.86736E-09         0.00000E+00
    0.86736E-09        -0.10712E+08         0.00000E+00
    0.00000E+00         0.00000E+00        -0.20894E+07
 
    0.26519E+06        -0.50596E-09         0.00000E+00
   -0.50596E-09        -0.10712E+08         0.00000E+00
    0.00000E+00         0.00000E+00        -0.20894E+07
 
    0.26519E+06        -0.83122E-09         0.00000E+00
   -0.83122E-09        -0.10712E+08         0.00000E+00
    0.00000E+00         0.00000E+00        -0.20894E+07
 
    0.26519E+06         0.10842E-09         0.00000E+00
    0.10842E-09        -0.10712E+08         0.00000E+00
    0.00000E+00         0.00000E+00        -0.20894E+07
 
    0.41932E+08         0.48175E-07         0.00000E+00
    0.48175E-07         0.15595E+09         0.00000E+00
    0.00000E+00         0.00000E+00         0.39577E+08
 
    0.26507E+06        -0.43368E-08         0.00000E+00
   -0.43368E-08        -0.10712E+08         0.00000E+00
    0.00000E+00         0.00000E+00        -0.20895E+07
 
    0.26507E+06        -0.23130E-08         0.00000E+00
   -0.23130E-08        -0.10712E+08         0.00000E+00
    0.00000E+00         0.00000E+00        -0.20895E+07
 
    0.26507E+06        -0.14456E-08         0.00000E+00
   -0.14456E-08        -0.10712E+08         0.00000E+00
    0.00000E+00         0.00000E+00        -0.20895E+07
 
    0.26507E+06        -0.57824E-08         0.00000E+00
   -0.57824E-08        -0.10712E+08         0.00000E+00
    0.00000E+00         0.00000E+00        -0.20895E+07
 
    0.26507E+06        -0.23130E-08         0.00000E+00
   -0.23130E-08        -0.10712E+08         0.00000E+00
    0.00000E+00         0.00000E+00        -0.20895E+07
 
    0.26507E+06        -0.14456E-09         0.00000E+00
   -0.14456E-09        -0.10712E+08         0.00000E+00
    0.00000E+00         0.00000E+00        -0.20895E+07
 
    0.26507E+06        -0.46259E-08         0.00000E+00
   -0.46259E-08        -0.10712E+08         0.00000E+00
    0.00000E+00         0.00000E+00        -0.20895E+07
 
    0.26507E+06        -0.24575E-08         0.00000E+00
   -0.24575E-08        -0.10712E+08         0.00000E+00
    0.00000E+00         0.00000E+00        -0.20895E+07
 
    0.26507E+06        -0.36140E-09         0.00000E+00
   -0.36140E-09        -0.10712E+08         0.00000E+00
    0.00000E+00         0.00000E+00        -0.20895E+07
 
    0.26507E+06        -0.17347E-08         0.00000E+00
   -0.17347E-08        -0.10712E+08         0.00000E+00
    0.00000E+00         0.00000E+00        -0.20895E+07
 
    0.26507E+06        -0.14456E-09         0.00000E+00
   -0.14456E-09        -0.10712E+08         0.00000E+00
    0.00000E+00         0.00000E+00        -0.20895E+07
 
    0.26507E+06        -0.10119E-08         0.00000E+00
   -0.10119E-08        -0.10712E+08         0.00000E+00
    0.00000E+00         0.00000E+00        -0.20895E+07
 
    0.26507E+06        -0.36140E-10         0.00000E+00
   -0.36140E-10        -0.10712E+08         0.00000E+00
    0.00000E+00         0.00000E+00        -0.20895E+07
 
    0.26507E+06        -0.72280E-10         0.00000E+00
   -0.72280E-10        -0.10712E+08         0.00000E+00
    0.00000E+00         0.00000E+00        -0.20895E+07
 
    0.41932E+08        -0.91254E-07         0.00000E+00
   -0.91254E-07         0.15595E+09         0.00000E+00
    0.00000E+00         0.00000E+00         0.39577E+08
 
    0.26492E+06        -0.54933E-08         0.00000E+00
   -0.54933E-08        -0.10712E+08         0.00000E+00
    0.00000E+00         0.00000E+00        -0.20895E+07
 
    0.26492E+06        -0.36140E-08         0.00000E+00
   -0.36140E-08        -0.10712E+08         0.00000E+00
    0.00000E+00         0.00000E+00        -0.20895E+07
 
    0.26492E+06        -0.49150E-08         0.00000E+00
   -0.49150E-08        -0.10712E+08         0.00000E+00
    0.00000E+00         0.00000E+00        -0.20895E+07
 
    0.26492E+06        -0.13010E-08         0.00000E+00
   -0.13010E-08        -0.10712E+08         0.00000E+00
    0.00000E+00         0.00000E+00        -0.20895E+07
 
    0.26492E+06        -0.39031E-08         0.00000E+00
   -0.39031E-08        -0.10712E+08         0.00000E+00
    0.00000E+00         0.00000E+00        -0.20895E+07
 
    0.26492E+06        -0.33249E-08         0.00000E+00
   -0.33249E-08        -0.10712E+08         0.00000E+00
    0.00000E+00         0.00000E+00        -0.20895E+07
 
    0.26492E+06        -0.10842E-08         0.00000E+00
   -0.10842E-08        -0.10712E+08         0.00000E+00
    0.00000E+00         0.00000E+00        -0.20895E+07
 
    0.26492E+06        -0.12288E-08         0.00000E+00
   -0.12288E-08        -0.10712E+08         0.00000E+00
    0.00000E+00         0.00000E+00        -0.20895E+07
 
    0.26492E+06        -0.57824E-09         0.00000E+00
   -0.57824E-09        -0.10712E+08         0.00000E+00
    0.00000E+00         0.00000E+00        -0.20895E+07
 
    0.26492E+06         0.00000E+00         0.00000E+00
    0.00000E+00        -0.10712E+08         0.00000E+00
    0.00000E+00         0.00000E+00        -0.20895E+07
 
    0.26492E+06        -0.22407E-08         0.00000E+00
   -0.22407E-08        -0.10712E+08         0.00000E+00
    0.00000E+00         0.00000E+00        -0.20895E+07
 
    0.26492E+06         0.50596E-09         0.00000E+00
    0.50596E-09        -0.10712E+08         0.00000E+00
    0.00000E+00         0.00000E+00        -0.20895E+07
 
    0.26492E+06         0.32526E-09         0.00000E+00
    0.32526E-09        -0.10712E+08         0.00000E+00
    0.00000E+00         0.00000E+00        -0.20895E+07
 
    0.26492E+06        -0.10842E-08         0.00000E+00
   -0.10842E-08        -0.10712E+08         0.00000E+00
    0.00000E+00         0.00000E+00        -0.20895E+07
 
    0.41931E+08         0.45898E-07         0.00000E+00
    0.45898E-07         0.15595E+09         0.00000E+00
    0.00000E+00         0.00000E+00         0.39577E+08
 
    0.26472E+06        -0.43368E-09         0.00000E+00
   -0.43368E-09        -0.10712E+08         0.00000E+00
    0.00000E+00         0.00000E+00        -0.20895E+07
 
    0.26472E+06         0.43368E-08         0.00000E+00
    0.43368E-08        -0.10712E+08         0.00000E+00
    0.00000E+00         0.00000E+00        -0.20895E+07
 
    0.26472E+06        -0.37586E-08         0.00000E+00
   -0.37586E-08        -0.10712E+08         0.00000E+00
    0.00000E+00         0.00000E+00        -0.20895E+07
 
    0.26472E+06        -0.17347E-08         0.00000E+00
   -0.17347E-08        -0.10712E+08         0.00000E+00
    0.00000E+00         0.00000E+00        -0.20895E+07
 
    0.26472E+06        -0.11565E-08         0.00000E+00
   -0.11565E-08        -0.10712E+08         0.00000E+00
    0.00000E+00         0.00000E+00        -0.20895E+07
 
    0.26472E+06         0.86736E-09         0.00000E+00
    0.86736E-09        -0.10712E+08         0.00000E+00
    0.00000E+00         0.00000E+00        -0.20895E+07
 
    0.26472E+06        -0.25298E-08         0.00000E+00
   -0.25298E-08        -0.10712E+08         0.00000E+00
    0.00000E+00         0.00000E+00        -0.20895E+07
 
    0.26472E+06         0.36140E-09         0.00000E+00
    0.36140E-09        -0.10712E+08         0.00000E+00
    0.00000E+00         0.00000E+00        -0.20895E+07
 
    0.26472E+06         0.10119E-08         0.00000E+00
    0.10119E-08        -0.10712E+08         0.00000E+00
    0.00000E+00         0.00000E+00        -0.20895E+07
 
    0.26472E+06         0.28912E-08         0.00000E+00
    0.28912E-08        -0.10712E+08         0.00000E+00
    0.00000E+00         0.00000E+00        -0.20895E+07
 
    0.26472E+06         0.10842E-08         0.00000E+00
    0.10842E-08        -0.10712E+08         0.00000E+00
    0.00000E+00         0.00000E+00        -0.20895E+07
 
    0.26472E+06         0.50596E-09         0.00000E+00
    0.50596E-09        -0.10712E+08         0.00000E+00
    0.00000E+00         0.00000E+00        -0.20895E+07
 
    0.26472E+06         0.72280E-10         0.00000E+00
    0.72280E-10        -0.10712E+08         0.00000E+00
    0.00000E+00         0.00000E+00        -0.20895E+07
 
    0.26472E+06        -0.12288E-08         0.00000E+00
   -0.12288E-08        -0.10712E+08         0.00000E+00
    0.00000E+00         0.00000E+00        -0.20895E+07
 
    0.41931E+08         0.45536E-07         0.00000E+00
    0.45536E-07         0.15595E+09         0.00000E+00
    0.00000E+00         0.00000E+00         0.39577E+08
 
    0.26449E+06        -0.86736E-08         0.00000E+00
   -0.86736E-08        -0.10713E+08         0.00000E+00
    0.00000E+00         0.00000E+00        -0.20896E+07
 
    0.26449E+06        -0.86736E-09         0.00000E+00
   -0.86736E-09        -0.10713E+08         0.00000E+00
    0.00000E+00         0.00000E+00        -0.20896E+07
 
    0.26449E+06         0.00000E+00         0.00000E+00
    0.00000E+00        -0.10713E+08         0.00000E+00
    0.00000E+00         0.00000E+00        -0.20896E+07
 
    0.26449E+06        -0.34694E-08         0.00000E+00
   -0.34694E-08        -0.10713E+08         0.00000E+00
    0.00000E+00         0.00000E+00        -0.20896E+07
 
    0.26449E+06         0.00000E+00         0.00000E+00
    0.00000E+00        -0.10713E+08         0.00000E+00
    0.00000E+00         0.00000E+00        -0.20896E+07
 
    0.26449E+06         0.57824E-09         0.00000E+00
    0.57824E-09        -0.10713E+08         0.00000E+00
    0.00000E+00         0.00000E+00        -0.20896E+07
 
    0.26449E+06         0.52042E-08         0.00000E+00
    0.52042E-08        -0.10713E+08         0.00000E+00
    0.00000E+00         0.00000E+00        -0.20896E+07
 
    0.26449E+06         0.43368E-09         0.00000E+00
    0.43368E-09        -0.10713E+08         0.00000E+00
    0.00000E+00         0.00000E+00        -0.20896E+07
 
    0.26449E+06         0.13010E-08         0.00000E+00
    0.13010E-08        -0.10713E+08         0.00000E+00
    0.00000E+00         0.00000E+00        -0.20896E+07
 
    0.26449E+06         0.14456E-09         0.00000E+00
    0.14456E-09        -0.10713E+08         0.00000E+00
    0.00000E+00         0.00000E+00        -0.20896E+07
 
    0.26449E+06        -0.22407E-08         0.00000E+00
   -0.22407E-08        -0.10713E+08         0.00000E+00
    0.00000E+00         0.00000E+00        -0.20896E+07
 
    0.26449E+06         0.14456E-09         0.00000E+00
    0.14456E-09        -0.10713E+08         0.00000E+00
    0.00000E+00         0.00000E+00        -0.20896E+07
 
    0.26449E+06         0.57824E-09         0.00000E+00
    0.57824E-09        -0.10713E+08         0.00000E+00
    0.00000E+00         0.00000E+00        -0.20896E+07
 
    0.26449E+06         0.14456E-08         0.00000E+00
    0.14456E-08        -0.10713E+08         0.00000E+00
    0.00000E+00         0.00000E+00        -0.20896E+07
 
    0.41931E+08        -0.50452E-07         0.00000E+00
   -0.50452E-07         0.15595E+09         0.00000E+00
    0.00000E+00         0.00000E+00         0.39577E+08
 
    0.26421E+06         0.65052E-08         0.00000E+00
    0.65052E-08        -0.10713E+08         0.00000E+00
    0.00000E+00         0.00000E+00        -0.20897E+07
 
    0.26421E+06         0.15902E-08         0.00000E+00
    0.15902E-08        -0.10713E+08         0.00000E+00
    0.00000E+00         0.00000E+00        -0.20897E+07
 
    0.26421E+06         0.20238E-08         0.00000E+00
    0.20238E-08        -0.10713E+08         0.00000E+00
    0.00000E+00         0.00000E+00        -0.20897E+07
 
    0.26421E+06         0.72280E-09         0.00000E+00
    0.72280E-09        -0.10713E+08         0.00000E+00
    0.00000E+00         0.00000E+00        -0.20897E+07
 
    0.26421E+06        -0.18793E-08         0.00000E+00
   -0.18793E-08        -0.10713E+08         0.00000E+00
    0.00000E+00         0.00000E+00        -0.20897E+07
 
    0.26421E+06        -0.14456E-09         0.00000E+00
   -0.14456E-09        -0.10713E+08         0.00000E+00
    0.00000E+00         0.00000E+00        -0.20897E+07
 
    0.26421E+06         0.20238E-08         0.00000E+00
    0.20238E-08        -0.10713E+08         0.00000E+00
    0.00000E+00         0.00000E+00        -0.20897E+07
 
    0.26421E+06        -0.33249E-08         0.00000E+00
   -0.33249E-08        -0.10713E+08         0.00000E+00
    0.00000E+00         0.00000E+00        -0.20897E+07
 
    0.26421E+06         0.20238E-08         0.00000E+00
    0.20238E-08        -0.10713E+08         0.00000E+00
    0.00000E+00         0.00000E+00        -0.20897E+07
 
    0.26421E+06         0.24575E-08         0.00000E+00
    0.24575E-08        -0.10713E+08         0.00000E+00
    0.00000E+00         0.00000E+00        -0.20897E+07
 
    0.26421E+06        -0.16624E-08         0.00000E+00
   -0.16624E-08        -0.10713E+08         0.00000E+00
    0.00000E+00         0.00000E+00        -0.20897E+07
 
    0.26421E+06         0.15902E-08         0.00000E+00
    0.15902E-08        -0.10713E+08         0.00000E+00
    0.00000E+00         0.00000E+00        -0.20897E+07
 
    0.26421E+06        -0.19516E-08         0.00000E+00
   -0.19516E-08        -0.10713E+08         0.00000E+00
    0.00000E+00         0.00000E+00        -0.20897E+07
 
    0.26421E+06         0.41922E-08         0.00000E+00
    0.41922E-08        -0.10713E+08         0.00000E+00
    0.00000E+00         0.00000E+00        -0.20897E+07
 
    0.41931E+08        -0.84857E-07         0.00000E+00
   -0.84857E-07         0.15595E+09         0.00000E+00
    0.00000E+00         0.00000E+00         0.39577E+08
 
    0.26389E+06         0.70835E-08         0.00000E+00
    0.70835E-08        -0.10713E+08         0.00000E+00
    0.00000E+00         0.00000E+00        -0.20898E+07
 
    0.26389E+06        -0.10119E-08         0.00000E+00
   -0.10119E-08        -0.10713E+08         0.00000E+00
    0.00000E+00         0.00000E+00        -0.20898E+07
 
    0.26389E+06        -0.44814E-08         0.00000E+00
   -0.44814E-08        -0.10713E+08         0.00000E+00
    0.00000E+00         0.00000E+00        -0.20898E+07
 
    0.26389E+06        -0.23130E-08         0.00000E+00
   -0.23130E-08        -0.10713E+08         0.00000E+00
    0.00000E+00         0.00000E+00        -0.20898E+07
 
    0.26389E+06        -0.14456E-09         0.00000E+00
   -0.14456E-09        -0.10713E+08         0.00000E+00
    0.00000E+00         0.00000E+00        -0.20898E+07
 
    0.26389E+06        -0.36140E-08         0.00000E+00
   -0.36140E-08        -0.10713E+08         0.00000E+00
    0.00000E+00         0.00000E+00        -0.20898E+07
 
    0.26389E+06         0.24575E-08         0.00000E+00
    0.24575E-08        -0.10713E+08         0.00000E+00
    0.00000E+00         0.00000E+00        -0.20898E+07
 
    0.26389E+06        -0.27466E-08         0.00000E+00
   -0.27466E-08        -0.10713E+08         0.00000E+00
    0.00000E+00         0.00000E+00        -0.20898E+07
 
    0.26389E+06        -0.27466E-08         0.00000E+00
   -0.27466E-08        -0.10713E+08         0.00000E+00
    0.00000E+00         0.00000E+00        -0.20898E+07
 
    0.26389E+06         0.86736E-09         0.00000E+00
    0.86736E-09        -0.10713E+08         0.00000E+00
    0.00000E+00         0.00000E+00        -0.20898E+07
 
    0.26389E+06        -0.10842E-08         0.00000E+00
   -0.10842E-08        -0.10713E+08         0.00000E+00
    0.00000E+00         0.00000E+00        -0.20898E+07
 
    0.26389E+06         0.86736E-09         0.00000E+00
    0.86736E-09        -0.10713E+08         0.00000E+00
    0.00000E+00         0.00000E+00        -0.20898E+07
 
    0.26389E+06        -0.28912E-08         0.00000E+00
   -0.28912E-08        -0.10713E+08         0.00000E+00
    0.00000E+00         0.00000E+00        -0.20898E+07
 
    0.26389E+06         0.13733E-08         0.00000E+00
    0.13733E-08        -0.10713E+08         0.00000E+00
    0.00000E+00         0.00000E+00        -0.20898E+07
 
    0.41930E+08         0.14022E-06         0.00000E+00
    0.14022E-06         0.15595E+09         0.00000E+00
    0.00000E+00         0.00000E+00         0.39577E+08
 
    0.26354E+06        -0.10119E-07         0.00000E+00
   -0.10119E-07        -0.10713E+08         0.00000E+00
    0.00000E+00         0.00000E+00        -0.20898E+07
 
    0.26354E+06        -0.66498E-08         0.00000E+00
   -0.66498E-08        -0.10713E+08         0.00000E+00
    0.00000E+00         0.00000E+00        -0.20898E+07
 
    0.26354E+06        -0.63607E-08         0.00000E+00
   -0.63607E-08        -0.10713E+08         0.00000E+00
    0.00000E+00         0.00000E+00        -0.20898E+07
 
    0.26354E+06        -0.86736E-09         0.00000E+00
   -0.86736E-09        -0.10713E+08         0.00000E+00
    0.00000E+00         0.00000E+00        -0.20898E+07
 
    0.26354E+06         0.13010E-08         0.00000E+00
    0.13010E-08        -0.10713E+08         0.00000E+00
    0.00000E+00         0.00000E+00        -0.20898E+07
 
    0.26354E+06         0.21684E-08         0.00000E+00
    0.21684E-08        -0.10713E+08         0.00000E+00
    0.00000E+00         0.00000E+00        -0.20898E+07
 
    0.26354E+06        -0.18793E-08         0.00000E+00
   -0.18793E-08        -0.10713E+08         0.00000E+00
    0.00000E+00         0.00000E+00        -0.20898E+07
 
    0.26354E+06         0.14456E-09         0.00000E+00
    0.14456E-09        -0.10713E+08         0.00000E+00
    0.00000E+00         0.00000E+00        -0.20898E+07
 
    0.26354E+06         0.10119E-08         0.00000E+00
    0.10119E-08        -0.10713E+08         0.00000E+00
    0.00000E+00         0.00000E+00        -0.20898E+07
 
    0.26354E+06        -0.14456E-08         0.00000E+00
   -0.14456E-08        -0.10713E+08         0.00000E+00
    0.00000E+00         0.00000E+00        -0.20898E+07
 
    0.26354E+06         0.72280E-09         0.00000E+00
    0.72280E-09        -0.10713E+08         0.00000E+00
    0.00000E+00         0.00000E+00        -0.20898E+07
 
    0.26354E+06        -0.50596E-09         0.00000E+00
   -0.50596E-09        -0.10713E+08         0.00000E+00
    0.00000E+00         0.00000E+00        -0.20898E+07
 
    0.26354E+06         0.24575E-08         0.00000E+00
    0.24575E-08        -0.10713E+08         0.00000E+00
    0.00000E+00         0.00000E+00        -0.20898E+07
 
    0.26354E+06         0.36140E-09         0.00000E+00
    0.36140E-09        -0.10713E+08         0.00000E+00
    0.00000E+00         0.00000E+00        -0.20898E+07
 
    0.41930E+08         0.92519E-08         0.00000E+00
    0.92519E-08         0.15595E+09         0.00000E+00
    0.00000E+00         0.00000E+00         0.39577E+08
 
    0.26314E+06         0.75171E-08         0.00000E+00
    0.75171E-08        -0.10713E+08         0.00000E+00
    0.00000E+00         0.00000E+00        -0.20899E+07
 
    0.26314E+06         0.57824E-09         0.00000E+00
    0.57824E-09        -0.10713E+08         0.00000E+00
    0.00000E+00         0.00000E+00        -0.20899E+07
 
    0.26314E+06         0.23130E-08         0.00000E+00
    0.23130E-08        -0.10713E+08         0.00000E+00
    0.00000E+00         0.00000E+00        -0.20899E+07
 
    0.26314E+06        -0.50596E-08         0.00000E+00
   -0.50596E-08        -0.10713E+08         0.00000E+00
    0.00000E+00         0.00000E+00        -0.20899E+07
 
    0.26314E+06        -0.14456E-09         0.00000E+00
   -0.14456E-09        -0.10713E+08         0.00000E+00
    0.00000E+00         0.00000E+00        -0.20899E+07
 
    0.26314E+06        -0.24575E-08         0.00000E+00
   -0.24575E-08        -0.10713E+08         0.00000E+00
    0.00000E+00         0.00000E+00        -0.20899E+07
 
    0.26314E+06        -0.15902E-08         0.00000E+00
   -0.15902E-08        -0.10713E+08         0.00000E+00
    0.00000E+00         0.00000E+00        -0.20899E+07
 
    0.26314E+06        -0.15902E-08         0.00000E+00
   -0.15902E-08        -0.10713E+08         0.00000E+00
    0.00000E+00         0.00000E+00        -0.20899E+07
 
    0.26314E+06        -0.17347E-08         0.00000E+00
   -0.17347E-08        -0.10713E+08         0.00000E+00
    0.00000E+00         0.00000E+00        -0.20899E+07
 
    0.26314E+06        -0.28912E-08         0.00000E+00
   -0.28912E-08        -0.10713E+08         0.00000E+00
    0.00000E+00         0.00000E+00        -0.20899E+07
 
    0.26314E+06         0.29635E-08         0.00000E+00
    0.29635E-08        -0.10713E+08         0.00000E+00
    0.00000E+00         0.00000E+00        -0.20899E+07
 
    0.26314E+06         0.57824E-09         0.00000E+00
    0.57824E-09        -0.10713E+08         0.00000E+00
    0.00000E+00         0.00000E+00        -0.20899E+07
 
    0.26314E+06        -0.14456E-09         0.00000E+00
   -0.14456E-09        -0.10713E+08         0.00000E+00
    0.00000E+00         0.00000E+00        -0.20899E+07
 
    0.26314E+06         0.43368E-09         0.00000E+00
    0.43368E-09        -0.10713E+08         0.00000E+00
    0.00000E+00         0.00000E+00        -0.20899E+07
 
    0.41929E+08        -0.10249E-06         0.00000E+00
   -0.10249E-06         0.15595E+09         0.00000E+00
    0.00000E+00         0.00000E+00         0.39577E+08
 
    0.26270E+06         0.59270E-08         0.00000E+00
    0.59270E-08        -0.10713E+08         0.00000E+00
    0.00000E+00         0.00000E+00        -0.20901E+07
 
    0.26270E+06         0.37586E-08         0.00000E+00
    0.37586E-08        -0.10713E+08         0.00000E+00
    0.00000E+00         0.00000E+00        -0.20901E+07
 
    0.26270E+06         0.10119E-08         0.00000E+00
    0.10119E-08        -0.10713E+08         0.00000E+00
    0.00000E+00         0.00000E+00        -0.20901E+07
 
    0.26270E+06        -0.36140E-08         0.00000E+00
   -0.36140E-08        -0.10713E+08         0.00000E+00
    0.00000E+00         0.00000E+00        -0.20901E+07
 
    0.26270E+06        -0.14456E-09         0.00000E+00
   -0.14456E-09        -0.10713E+08         0.00000E+00
    0.00000E+00         0.00000E+00        -0.20901E+07
 
    0.26270E+06        -0.28912E-08         0.00000E+00
   -0.28912E-08        -0.10713E+08         0.00000E+00
    0.00000E+00         0.00000E+00        -0.20901E+07
 
    0.26270E+06         0.23130E-08         0.00000E+00
    0.23130E-08        -0.10713E+08         0.00000E+00
    0.00000E+00         0.00000E+00        -0.20901E+07
 
    0.26270E+06         0.34694E-08         0.00000E+00
    0.34694E-08        -0.10713E+08         0.00000E+00
    0.00000E+00         0.00000E+00        -0.20901E+07
 
    0.26270E+06        -0.72280E-09         0.00000E+00
   -0.72280E-09        -0.10713E+08         0.00000E+00
    0.00000E+00         0.00000E+00        -0.20901E+07
 
    0.26270E+06        -0.26021E-08         0.00000E+00
   -0.26021E-08        -0.10713E+08         0.00000E+00
    0.00000E+00         0.00000E+00        -0.20901E+07
 
    0.26270E+06         0.23130E-08         0.00000E+00
    0.23130E-08        -0.10713E+08         0.00000E+00
    0.00000E+00         0.00000E+00        -0.20901E+07
 
    0.26270E+06        -0.18793E-08         0.00000E+00
   -0.18793E-08        -0.10713E+08         0.00000E+00
    0.00000E+00         0.00000E+00        -0.20901E+07
 
    0.26270E+06         0.86736E-09         0.00000E+00
    0.86736E-09        -0.10713E+08         0.00000E+00
    0.00000E+00         0.00000E+00        -0.20901E+07
 
    0.26270E+06         0.31803E-08         0.00000E+00
    0.31803E-08        -0.10713E+08         0.00000E+00
    0.00000E+00         0.00000E+00        -0.20901E+07
 
    0.41929E+08         0.45826E-07         0.00000E+00
    0.45826E-07         0.15595E+09         0.00000E+00
    0.00000E+00         0.00000E+00         0.39576E+08
 
    0.26222E+06        -0.34694E-08         0.00000E+00
   -0.34694E-08        -0.10713E+08         0.00000E+00
    0.00000E+00         0.00000E+00        -0.20902E+07
 
    0.26222E+06         0.00000E+00         0.00000E+00
    0.00000E+00        -0.10713E+08         0.00000E+00
    0.00000E+00         0.00000E+00        -0.20902E+07
 
    0.26222E+06        -0.43368E-08         0.00000E+00
   -0.43368E-08        -0.10713E+08         0.00000E+00
    0.00000E+00         0.00000E+00        -0.20902E+07
 
    0.26222E+06        -0.43368E-08         0.00000E+00
   -0.43368E-08        -0.10713E+08         0.00000E+00
    0.00000E+00         0.00000E+00        -0.20902E+07
 
    0.26222E+06        -0.11565E-08         0.00000E+00
   -0.11565E-08        -0.10713E+08         0.00000E+00
    0.00000E+00         0.00000E+00        -0.20902E+07
 
    0.26222E+06        -0.17347E-08         0.00000E+00
   -0.17347E-08        -0.10713E+08         0.00000E+00
    0.00000E+00         0.00000E+00        -0.20902E+07
 
    0.26222E+06        -0.24575E-08         0.00000E+00
   -0.24575E-08        -0.10713E+08         0.00000E+00
    0.00000E+00         0.00000E+00        -0.20902E+07
 
    0.26222E+06        -0.26021E-08         0.00000E+00
   -0.26021E-08        -0.10713E+08         0.00000E+00
    0.00000E+00         0.00000E+00        -0.20902E+07
 
    0.26222E+06        -0.23130E-08         0.00000E+00
   -0.23130E-08        -0.10713E+08         0.00000E+00
    0.00000E+00         0.00000E+00        -0.20902E+07
 
    0.26222E+06         0.14456E-08         0.00000E+00
    0.14456E-08        -0.10713E+08         0.00000E+00
    0.00000E+00         0.00000E+00        -0.20902E+07
 
    0.26222E+06         0.86736E-09         0.00000E+00
    0.86736E-09        -0.10713E+08         0.00000E+00
    0.00000E+00         0.00000E+00        -0.20902E+07
 
    0.26222E+06        -0.17347E-08         0.00000E+00
   -0.17347E-08        -0.10713E+08         0.00000E+00
    0.00000E+00         0.00000E+00        -0.20902E+07
 
    0.26222E+06        -0.57824E-09         0.00000E+00
   -0.57824E-09        -0.10713E+08         0.00000E+00
    0.00000E+00         0.00000E+00        -0.20902E+07
 
    0.26222E+06         0.57824E-09         0.00000E+00
    0.57824E-09        -0.10713E+08         0.00000E+00
    0.00000E+00         0.00000E+00        -0.20902E+07
 
    0.41928E+08         0.62161E-08         0.00000E+00
    0.62161E-08         0.15595E+09         0.00000E+00
    0.00000E+00         0.00000E+00         0.39576E+08
 
    0.26169E+06         0.12721E-07         0.00000E+00
    0.12721E-07        -0.10713E+08         0.00000E+00
    0.00000E+00         0.00000E+00        -0.20903E+07
 
    0.26169E+06         0.40477E-08         0.00000E+00
    0.40477E-08        -0.10713E+08         0.00000E+00
    0.00000E+00         0.00000E+00        -0.20903E+07
 
    0.26169E+06        -0.23130E-08         0.00000E+00
   -0.23130E-08        -0.10713E+08         0.00000E+00
    0.00000E+00         0.00000E+00        -0.20903E+07
 
    0.26169E+06         0.26021E-08         0.00000E+00
    0.26021E-08        -0.10713E+08         0.00000E+00
    0.00000E+00         0.00000E+00        -0.20903E+07
 
    0.26169E+06         0.28912E-08         0.00000E+00
    0.28912E-08        -0.10713E+08         0.00000E+00
    0.00000E+00         0.00000E+00        -0.20903E+07
 
    0.26169E+06        -0.24575E-08         0.00000E+00
   -0.24575E-08        -0.10713E+08         0.00000E+00
    0.00000E+00         0.00000E+00        -0.20903E+07
 
    0.26169E+06         0.10119E-08         0.00000E+00
    0.10119E-08        -0.10713E+08         0.00000E+00
    0.00000E+00         0.00000E+00        -0.20903E+07
 
    0.26169E+06        -0.49150E-08         0.00000E+00
   -0.49150E-08        -0.10713E+08         0.00000E+00
    0.00000E+00         0.00000E+00        -0.20903E+07
 
    0.26169E+06        -0.11565E-08         0.00000E+00
   -0.11565E-08        -0.10713E+08         0.00000E+00
    0.00000E+00         0.00000E+00        -0.20903E+07
 
    0.26169E+06         0.10119E-08         0.00000E+00
    0.10119E-08        -0.10713E+08         0.00000E+00
    0.00000E+00         0.00000E+00        -0.20903E+07
 
    0.26169E+06        -0.86736E-09         0.00000E+00
   -0.86736E-09        -0.10713E+08         0.00000E+00
    0.00000E+00         0.00000E+00        -0.20903E+07
 
    0.26169E+06        -0.57824E-09         0.00000E+00
   -0.57824E-09        -0.10713E+08         0.00000E+00
    0.00000E+00         0.00000E+00        -0.20903E+07
 
    0.26169E+06         0.43368E-09         0.00000E+00
    0.43368E-09        -0.10713E+08         0.00000E+00
    0.00000E+00         0.00000E+00        -0.20903E+07
 
    0.26169E+06        -0.43368E-09         0.00000E+00
   -0.43368E-09        -0.10713E+08         0.00000E+00
    0.00000E+00         0.00000E+00        -0.20903E+07
 
    0.41928E+08        -0.23130E-08         0.00000E+00
   -0.23130E-08         0.15595E+09         0.00000E+00
    0.00000E+00         0.00000E+00         0.39576E+08
 
    0.26112E+06        -0.86736E-08         0.00000E+00
   -0.86736E-08        -0.10713E+08         0.00000E+00
    0.00000E+00         0.00000E+00        -0.20904E+07
 
    0.26112E+06        -0.75171E-08         0.00000E+00
   -0.75171E-08        -0.10713E+08         0.00000E+00
    0.00000E+00         0.00000E+00        -0.20904E+07
 
    0.26112E+06        -0.69389E-08         0.00000E+00
   -0.69389E-08        -0.10713E+08         0.00000E+00
    0.00000E+00         0.00000E+00        -0.20904E+07
 
    0.26112E+06        -0.28912E-09         0.00000E+00
   -0.28912E-09        -0.10713E+08         0.00000E+00
    0.00000E+00         0.00000E+00        -0.20904E+07
 
    0.26112E+06        -0.31803E-08         0.00000E+00
   -0.31803E-08        -0.10713E+08         0.00000E+00
    0.00000E+00         0.00000E+00        -0.20904E+07
 
    0.26112E+06         0.13010E-08         0.00000E+00
    0.13010E-08        -0.10713E+08         0.00000E+00
    0.00000E+00         0.00000E+00        -0.20904E+07
 
    0.26112E+06        -0.15902E-08         0.00000E+00
   -0.15902E-08        -0.10713E+08         0.00000E+00
    0.00000E+00         0.00000E+00        -0.20904E+07
 
    0.26112E+06        -0.11565E-08         0.00000E+00
   -0.11565E-08        -0.10713E+08         0.00000E+00
    0.00000E+00         0.00000E+00        -0.20904E+07
 
    0.26112E+06        -0.31803E-08         0.00000E+00
   -0.31803E-08        -0.10713E+08         0.00000E+00
    0.00000E+00         0.00000E+00        -0.20904E+07
 
    0.26112E+06        -0.28912E-09         0.00000E+00
   -0.28912E-09        -0.10713E+08         0.00000E+00
    0.00000E+00         0.00000E+00        -0.20904E+07
 
    0.26112E+06        -0.11565E-08         0.00000E+00
   -0.11565E-08        -0.10713E+08         0.00000E+00
    0.00000E+00         0.00000E+00        -0.20904E+07
 
    0.26112E+06         0.00000E+00         0.00000E+00
    0.00000E+00        -0.10713E+08         0.00000E+00
    0.00000E+00         0.00000E+00        -0.20904E+07
 
    0.26112E+06        -0.10119E-08         0.00000E+00
   -0.10119E-08        -0.10713E+08         0.00000E+00
    0.00000E+00         0.00000E+00        -0.20904E+07
 
    0.26112E+06         0.17347E-08         0.00000E+00
    0.17347E-08        -0.10713E+08         0.00000E+00
    0.00000E+00         0.00000E+00        -0.20904E+07
 
    0.41927E+08         0.49150E-08         0.00000E+00
    0.49150E-08         0.15595E+09         0.00000E+00
    0.00000E+00         0.00000E+00         0.39576E+08
 
    0.26051E+06         0.78063E-08         0.00000E+00
    0.78063E-08        -0.10713E+08         0.00000E+00
    0.00000E+00         0.00000E+00        -0.20906E+07
 
    0.26051E+06         0.14456E-08         0.00000E+00
    0.14456E-08        -0.10713E+08         0.00000E+00
    0.00000E+00         0.00000E+00        -0.20906E+07
 
    0.26051E+06         0.11565E-08         0.00000E+00
    0.11565E-08        -0.10713E+08         0.00000E+00
    0.00000E+00         0.00000E+00        -0.20906E+07
 
    0.26051E+06         0.20238E-08         0.00000E+00
    0.20238E-08        -0.10713E+08         0.00000E+00
    0.00000E+00         0.00000E+00        -0.20906E+07
 
    0.26051E+06         0.28912E-09         0.00000E+00
    0.28912E-09        -0.10713E+08         0.00000E+00
    0.00000E+00         0.00000E+00        -0.20906E+07
 
    0.26051E+06         0.37586E-08         0.00000E+00
    0.37586E-08        -0.10713E+08         0.00000E+00
    0.00000E+00         0.00000E+00        -0.20906E+07
 
    0.26051E+06         0.21684E-08         0.00000E+00
    0.21684E-08        -0.10713E+08         0.00000E+00
    0.00000E+00         0.00000E+00        -0.20906E+07
 
    0.26051E+06         0.11565E-08         0.00000E+00
    0.11565E-08        -0.10713E+08         0.00000E+00
    0.00000E+00         0.00000E+00        -0.20906E+07
 
    0.26051E+06        -0.14456E-09         0.00000E+00
   -0.14456E-09        -0.10713E+08         0.00000E+00
    0.00000E+00         0.00000E+00        -0.20906E+07
 
    0.26051E+06        -0.17347E-08         0.00000E+00
   -0.17347E-08        -0.10713E+08         0.00000E+00
    0.00000E+00         0.00000E+00        -0.20906E+07
 
    0.26051E+06         0.00000E+00         0.00000E+00
    0.00000E+00        -0.10713E+08         0.00000E+00
    0.00000E+00         0.00000E+00        -0.20906E+07
 
    0.26051E+06        -0.14456E-09         0.00000E+00
   -0.14456E-09        -0.10713E+08         0.00000E+00
    0.00000E+00         0.00000E+00        -0.20906E+07
 
    0.26051E+06         0.57824E-09         0.00000E+00
    0.57824E-09        -0.10713E+08         0.00000E+00
    0.00000E+00         0.00000E+00        -0.20906E+07
 
    0.26051E+06         0.86736E-09         0.00000E+00
    0.86736E-09        -0.10713E+08         0.00000E+00
    0.00000E+00         0.00000E+00        -0.20906E+07
 
    0.41927E+08        -0.80954E-08         0.00000E+00
   -0.80954E-08         0.15595E+09         0.00000E+00
    0.00000E+00         0.00000E+00         0.39576E+08
 
    0.25985E+06        -0.86736E-09         0.00000E+00
   -0.86736E-09        -0.10714E+08         0.00000E+00
    0.00000E+00         0.00000E+00        -0.20908E+07
 
    0.25985E+06         0.14456E-08         0.00000E+00
    0.14456E-08        -0.10714E+08         0.00000E+00
    0.00000E+00         0.00000E+00        -0.20908E+07
 
    0.25985E+06         0.14456E-08         0.00000E+00
    0.14456E-08        -0.10714E+08         0.00000E+00
    0.00000E+00         0.00000E+00        -0.20908E+07
 
    0.25985E+06         0.86736E-09         0.00000E+00
    0.86736E-09        -0.10714E+08         0.00000E+00
    0.00000E+00         0.00000E+00        -0.20908E+07
 
    0.25985E+06        -0.28912E-08         0.00000E+00
   -0.28912E-08        -0.10714E+08         0.00000E+00
    0.00000E+00         0.00000E+00        -0.20908E+07
 
    0.25985E+06         0.14456E-09         0.00000E+00
    0.14456E-09        -0.10714E+08         0.00000E+00
    0.00000E+00         0.00000E+00        -0.20908E+07
 
    0.25985E+06         0.11565E-08         0.00000E+00
    0.11565E-08        -0.10714E+08         0.00000E+00
    0.00000E+00         0.00000E+00        -0.20908E+07
 
    0.25985E+06         0.40477E-08         0.00000E+00
    0.40477E-08        -0.10714E+08         0.00000E+00
    0.00000E+00         0.00000E+00        -0.20908E+07
 
    0.25985E+06         0.40477E-08         0.00000E+00
    0.40477E-08        -0.10714E+08         0.00000E+00
    0.00000E+00         0.00000E+00        -0.20908E+07
 
    0.25985E+06        -0.43368E-09         0.00000E+00
   -0.43368E-09        -0.10714E+08         0.00000E+00
    0.00000E+00         0.00000E+00        -0.20908E+07
 
    0.25985E+06        -0.30358E-08         0.00000E+00
   -0.30358E-08        -0.10714E+08         0.00000E+00
    0.00000E+00         0.00000E+00        -0.20908E+07
 
    0.25985E+06         0.26021E-08         0.00000E+00
    0.26021E-08        -0.10714E+08         0.00000E+00
    0.00000E+00         0.00000E+00        -0.20908E+07
 
    0.25985E+06        -0.65052E-08         0.00000E+00
   -0.65052E-08        -0.10714E+08         0.00000E+00
    0.00000E+00         0.00000E+00        -0.20908E+07
 
    0.25985E+06         0.43368E-09         0.00000E+00
    0.43368E-09        -0.10714E+08         0.00000E+00
    0.00000E+00         0.00000E+00        -0.20908E+07
 
    0.41926E+08         0.54644E-07         0.00000E+00
    0.54644E-07         0.15595E+09         0.00000E+00
    0.00000E+00         0.00000E+00         0.39576E+08
 
    0.25915E+06         0.40477E-08         0.00000E+00
    0.40477E-08        -0.10714E+08         0.00000E+00
    0.00000E+00         0.00000E+00        -0.20909E+07
 
    0.25915E+06        -0.37586E-08         0.00000E+00
   -0.37586E-08        -0.10714E+08         0.00000E+00
    0.00000E+00         0.00000E+00        -0.20909E+07
 
    0.25915E+06        -0.43368E-08         0.00000E+00
   -0.43368E-08        -0.10714E+08         0.00000E+00
    0.00000E+00         0.00000E+00        -0.20909E+07
 
    0.25915E+06        -0.43368E-08         0.00000E+00
   -0.43368E-08        -0.10714E+08         0.00000E+00
    0.00000E+00         0.00000E+00        -0.20909E+07
 
    0.25915E+06        -0.17347E-08         0.00000E+00
   -0.17347E-08        -0.10714E+08         0.00000E+00
    0.00000E+00         0.00000E+00        -0.20909E+07
 
    0.25915E+06        -0.13010E-08         0.00000E+00
   -0.13010E-08        -0.10714E+08         0.00000E+00
    0.00000E+00         0.00000E+00        -0.20909E+07
 
    0.25915E+06        -0.14456E-08         0.00000E+00
   -0.14456E-08        -0.10714E+08         0.00000E+00
    0.00000E+00         0.00000E+00        -0.20909E+07
 
    0.25915E+06         0.43368E-09         0.00000E+00
    0.43368E-09        -0.10714E+08         0.00000E+00
    0.00000E+00         0.00000E+00        -0.20909E+07
 
    0.25915E+06        -0.39031E-08         0.00000E+00
   -0.39031E-08        -0.10714E+08         0.00000E+00
    0.00000E+00         0.00000E+00        -0.20909E+07
 
    0.25915E+06        -0.34694E-08         0.00000E+00
   -0.34694E-08        -0.10714E+08         0.00000E+00
    0.00000E+00         0.00000E+00        -0.20909E+07
 
    0.25915E+06         0.17347E-08         0.00000E+00
    0.17347E-08        -0.10714E+08         0.00000E+00
    0.00000E+00         0.00000E+00        -0.20909E+07
 
    0.25915E+06         0.00000E+00         0.00000E+00
    0.00000E+00        -0.10714E+08         0.00000E+00
    0.00000E+00         0.00000E+00        -0.20909E+07
 
    0.25915E+06         0.20238E-08         0.00000E+00
    0.20238E-08        -0.10714E+08         0.00000E+00
    0.00000E+00         0.00000E+00        -0.20909E+07
 
    0.25915E+06        -0.54933E-08         0.00000E+00
   -0.54933E-08        -0.10714E+08         0.00000E+00
    0.00000E+00         0.00000E+00        -0.20909E+07
 
    0.41925E+08        -0.52042E-07         0.00000E+00
   -0.52042E-07         0.15595E+09         0.00000E+00
    0.00000E+00         0.00000E+00         0.39576E+08
 
    0.25840E+06        -0.34694E-08         0.00000E+00
   -0.34694E-08        -0.10714E+08         0.00000E+00
    0.00000E+00         0.00000E+00        -0.20911E+07
 
    0.25840E+06        -0.23130E-08         0.00000E+00
   -0.23130E-08        -0.10714E+08         0.00000E+00
    0.00000E+00         0.00000E+00        -0.20911E+07
 
    0.25840E+06         0.00000E+00         0.00000E+00
    0.00000E+00        -0.10714E+08         0.00000E+00
    0.00000E+00         0.00000E+00        -0.20911E+07
 
    0.25840E+06        -0.34694E-08         0.00000E+00
   -0.34694E-08        -0.10714E+08         0.00000E+00
    0.00000E+00         0.00000E+00        -0.20911E+07
 
    0.25840E+06         0.86736E-09         0.00000E+00
    0.86736E-09        -0.10714E+08         0.00000E+00
    0.00000E+00         0.00000E+00        -0.20911E+07
 
    0.25840E+06        -0.10119E-08         0.00000E+00
   -0.10119E-08        -0.10714E+08         0.00000E+00
    0.00000E+00         0.00000E+00        -0.20911E+07
 
    0.25840E+06        -0.57824E-09         0.00000E+00
   -0.57824E-09        -0.10714E+08         0.00000E+00
    0.00000E+00         0.00000E+00        -0.20911E+07
 
    0.25840E+06         0.15902E-08         0.00000E+00
    0.15902E-08        -0.10714E+08         0.00000E+00
    0.00000E+00         0.00000E+00        -0.20911E+07
 
    0.25840E+06        -0.11565E-08         0.00000E+00
   -0.11565E-08        -0.10714E+08         0.00000E+00
    0.00000E+00         0.00000E+00        -0.20911E+07
 
    0.25840E+06         0.10119E-08         0.00000E+00
    0.10119E-08        -0.10714E+08         0.00000E+00
    0.00000E+00         0.00000E+00        -0.20911E+07
 
    0.25840E+06        -0.34694E-08         0.00000E+00
   -0.34694E-08        -0.10714E+08         0.00000E+00
    0.00000E+00         0.00000E+00        -0.20911E+07
 
    0.25840E+06        -0.86736E-09         0.00000E+00
   -0.86736E-09        -0.10714E+08         0.00000E+00
    0.00000E+00         0.00000E+00        -0.20911E+07
 
    0.25840E+06         0.36140E-08         0.00000E+00
    0.36140E-08        -0.10714E+08         0.00000E+00
    0.00000E+00         0.00000E+00        -0.20911E+07
 
    0.25840E+06        -0.54933E-08         0.00000E+00
   -0.54933E-08        -0.10714E+08         0.00000E+00
    0.00000E+00         0.00000E+00        -0.20911E+07
 
    0.41924E+08         0.58113E-07         0.00000E+00
    0.58113E-07         0.15595E+09         0.00000E+00
    0.00000E+00         0.00000E+00         0.39575E+08
 
    0.25760E+06         0.00000E+00         0.00000E+00
    0.00000E+00        -0.10714E+08         0.00000E+00
    0.00000E+00         0.00000E+00        -0.20913E+07
 
    0.25760E+06        -0.57824E-09         0.00000E+00
   -0.57824E-09        -0.10714E+08         0.00000E+00
    0.00000E+00         0.00000E+00        -0.20913E+07
 
    0.25760E+06         0.31803E-08         0.00000E+00
    0.31803E-08        -0.10714E+08         0.00000E+00
    0.00000E+00         0.00000E+00        -0.20913E+07
 
    0.25760E+06         0.14456E-08         0.00000E+00
    0.14456E-08        -0.10714E+08         0.00000E+00
    0.00000E+00         0.00000E+00        -0.20913E+07
 
    0.25760E+06        -0.86736E-09         0.00000E+00
   -0.86736E-09        -0.10714E+08         0.00000E+00
    0.00000E+00         0.00000E+00        -0.20913E+07
 
    0.25760E+06        -0.23130E-08         0.00000E+00
   -0.23130E-08        -0.10714E+08         0.00000E+00
    0.00000E+00         0.00000E+00        -0.20913E+07
 
    0.25760E+06        -0.17347E-08         0.00000E+00
   -0.17347E-08        -0.10714E+08         0.00000E+00
    0.00000E+00         0.00000E+00        -0.20913E+07
 
    0.25760E+06         0.30358E-08         0.00000E+00
    0.30358E-08        -0.10714E+08         0.00000E+00
    0.00000E+00         0.00000E+00        -0.20913E+07
 
    0.25760E+06        -0.14456E-08         0.00000E+00
   -0.14456E-08        -0.10714E+08         0.00000E+00
    0.00000E+00         0.00000E+00        -0.20913E+07
 
    0.25760E+06        -0.40477E-08         0.00000E+00
   -0.40477E-08        -0.10714E+08         0.00000E+00
    0.00000E+00         0.00000E+00        -0.20913E+07
 
    0.25760E+06         0.11565E-08         0.00000E+00
    0.11565E-08        -0.10714E+08         0.00000E+00
    0.00000E+00         0.00000E+00        -0.20913E+07
 
    0.25760E+06        -0.52042E-08         0.00000E+00
   -0.52042E-08        -0.10714E+08         0.00000E+00
    0.00000E+00         0.00000E+00        -0.20913E+07
 
    0.25760E+06         0.17347E-08         0.00000E+00
    0.17347E-08        -0.10714E+08         0.00000E+00
    0.00000E+00         0.00000E+00        -0.20913E+07
 
    0.25760E+06        -0.26021E-08         0.00000E+00
   -0.26021E-08        -0.10714E+08         0.00000E+00
    0.00000E+00         0.00000E+00        -0.20913E+07
 
    0.41923E+08        -0.50885E-07         0.00000E+00
   -0.50885E-07         0.15595E+09         0.00000E+00
    0.00000E+00         0.00000E+00         0.39575E+08
 
    0.25675E+06         0.83845E-08         0.00000E+00
    0.83845E-08        -0.10714E+08         0.00000E+00
    0.00000E+00         0.00000E+00        -0.20915E+07
 
    0.25675E+06         0.26021E-08         0.00000E+00
    0.26021E-08        -0.10714E+08         0.00000E+00
    0.00000E+00         0.00000E+00        -0.20915E+07
 
    0.25675E+06         0.89627E-08         0.00000E+00
    0.89627E-08        -0.10714E+08         0.00000E+00
    0.00000E+00         0.00000E+00        -0.20915E+07
 
    0.25675E+06         0.49150E-08         0.00000E+00
    0.49150E-08        -0.10714E+08         0.00000E+00
    0.00000E+00         0.00000E+00        -0.20915E+07
 
    0.25675E+06         0.23130E-08         0.00000E+00
    0.23130E-08        -0.10714E+08         0.00000E+00
    0.00000E+00         0.00000E+00        -0.20915E+07
 
    0.25675E+06         0.24575E-08         0.00000E+00
    0.24575E-08        -0.10714E+08         0.00000E+00
    0.00000E+00         0.00000E+00        -0.20915E+07
 
    0.25675E+06         0.54933E-08         0.00000E+00
    0.54933E-08        -0.10714E+08         0.00000E+00
    0.00000E+00         0.00000E+00        -0.20915E+07
 
    0.25675E+06         0.50596E-08         0.00000E+00
    0.50596E-08        -0.10714E+08         0.00000E+00
    0.00000E+00         0.00000E+00        -0.20915E+07
 
    0.25675E+06        -0.23130E-08         0.00000E+00
   -0.23130E-08        -0.10714E+08         0.00000E+00
    0.00000E+00         0.00000E+00        -0.20915E+07
 
    0.25675E+06         0.57824E-09         0.00000E+00
    0.57824E-09        -0.10714E+08         0.00000E+00
    0.00000E+00         0.00000E+00        -0.20915E+07
 
    0.25675E+06         0.17347E-08         0.00000E+00
    0.17347E-08        -0.10714E+08         0.00000E+00
    0.00000E+00         0.00000E+00        -0.20915E+07
 
    0.25675E+06         0.40477E-08         0.00000E+00
    0.40477E-08        -0.10714E+08         0.00000E+00
    0.00000E+00         0.00000E+00        -0.20915E+07
 
    0.25675E+06        -0.18793E-08         0.00000E+00
   -0.18793E-08        -0.10714E+08         0.00000E+00
    0.00000E+00         0.00000E+00        -0.20915E+07
 
    0.25675E+06         0.57824E-09         0.00000E+00
    0.57824E-09        -0.10714E+08         0.00000E+00
    0.00000E+00         0.00000E+00        -0.20915E+07
 
    0.41923E+08         0.57824E-09         0.00000E+00
    0.57824E-09         0.15595E+09         0.00000E+00
    0.00000E+00         0.00000E+00         0.39575E+08
 
    0.25586E+06        -0.28912E-09         0.00000E+00
   -0.28912E-09        -0.10715E+08         0.00000E+00
    0.00000E+00         0.00000E+00        -0.20918E+07
 
    0.25586E+06        -0.28912E-08         0.00000E+00
   -0.28912E-08        -0.10715E+08         0.00000E+00
    0.00000E+00         0.00000E+00        -0.20918E+07
 
    0.25586E+06        -0.37586E-08         0.00000E+00
   -0.37586E-08        -0.10715E+08         0.00000E+00
    0.00000E+00         0.00000E+00        -0.20918E+07
 
    0.25586E+06         0.00000E+00         0.00000E+00
    0.00000E+00        -0.10715E+08         0.00000E+00
    0.00000E+00         0.00000E+00        -0.20918E+07
 
    0.25586E+06         0.37586E-08         0.00000E+00
    0.37586E-08        -0.10715E+08         0.00000E+00
    0.00000E+00         0.00000E+00        -0.20918E+07
 
    0.25586E+06         0.36140E-08         0.00000E+00
    0.36140E-08        -0.10715E+08         0.00000E+00
    0.00000E+00         0.00000E+00        -0.20918E+07
 
    0.25586E+06         0.31803E-08         0.00000E+00
    0.31803E-08        -0.10715E+08         0.00000E+00
    0.00000E+00         0.00000E+00        -0.20918E+07
 
    0.25586E+06         0.54933E-08         0.00000E+00
    0.54933E-08        -0.10715E+08         0.00000E+00
    0.00000E+00         0.00000E+00        -0.20918E+07
 
    0.25586E+06         0.34694E-08         0.00000E+00
    0.34694E-08        -0.10715E+08         0.00000E+00
    0.00000E+00         0.00000E+00        -0.20918E+07
 
    0.25586E+06         0.40477E-08         0.00000E+00
    0.40477E-08        -0.10715E+08         0.00000E+00
    0.00000E+00         0.00000E+00        -0.20918E+07
 
    0.25586E+06         0.11565E-08         0.00000E+00
    0.11565E-08        -0.10715E+08         0.00000E+00
    0.00000E+00         0.00000E+00        -0.20918E+07
 
    0.25586E+06         0.11565E-08         0.00000E+00
    0.11565E-08        -0.10715E+08         0.00000E+00
    0.00000E+00         0.00000E+00        -0.20918E+07
 
    0.25586E+06         0.56379E-08         0.00000E+00
    0.56379E-08        -0.10715E+08         0.00000E+00
    0.00000E+00         0.00000E+00        -0.20918E+07
 
    0.25586E+06        -0.46259E-08         0.00000E+00
   -0.46259E-08        -0.10715E+08         0.00000E+00
    0.00000E+00         0.00000E+00        -0.20918E+07
 
    0.41922E+08         0.46259E-08         0.00000E+00
    0.46259E-08         0.15595E+09         0.00000E+00
    0.00000E+00         0.00000E+00         0.39575E+08
 
    0.25491E+06        -0.28912E-09         0.00000E+00
   -0.28912E-09        -0.10715E+08         0.00000E+00
    0.00000E+00         0.00000E+00        -0.20920E+07
 
    0.25491E+06         0.31803E-08         0.00000E+00
    0.31803E-08        -0.10715E+08         0.00000E+00
    0.00000E+00         0.00000E+00        -0.20920E+07
 
    0.25491E+06        -0.43368E-08         0.00000E+00
   -0.43368E-08        -0.10715E+08         0.00000E+00
    0.00000E+00         0.00000E+00        -0.20920E+07
 
    0.25491E+06         0.57824E-09         0.00000E+00
    0.57824E-09        -0.10715E+08         0.00000E+00
    0.00000E+00         0.00000E+00        -0.20920E+07
 
    0.25491E+06        -0.28912E-08         0.00000E+00
   -0.28912E-08        -0.10715E+08         0.00000E+00
    0.00000E+00         0.00000E+00        -0.20920E+07
 
    0.25491E+06        -0.14456E-08         0.00000E+00
   -0.14456E-08        -0.10715E+08         0.00000E+00
    0.00000E+00         0.00000E+00        -0.20920E+07
 
    0.25491E+06        -0.18793E-08         0.00000E+00
   -0.18793E-08        -0.10715E+08         0.00000E+00
    0.00000E+00         0.00000E+00        -0.20920E+07
 
    0.25491E+06        -0.11565E-08         0.00000E+00
   -0.11565E-08        -0.10715E+08         0.00000E+00
    0.00000E+00         0.00000E+00        -0.20920E+07
 
    0.25491E+06        -0.17347E-08         0.00000E+00
   -0.17347E-08        -0.10715E+08         0.00000E+00
    0.00000E+00         0.00000E+00        -0.20920E+07
 
    0.25491E+06         0.54933E-08         0.00000E+00
    0.54933E-08        -0.10715E+08         0.00000E+00
    0.00000E+00         0.00000E+00        -0.20920E+07
 
    0.25491E+06        -0.17347E-08         0.00000E+00
   -0.17347E-08        -0.10715E+08         0.00000E+00
    0.00000E+00         0.00000E+00        -0.20920E+07
 
    0.25491E+06        -0.46259E-08         0.00000E+00
   -0.46259E-08        -0.10715E+08         0.00000E+00
    0.00000E+00         0.00000E+00        -0.20920E+07
 
    0.25491E+06        -0.40477E-08         0.00000E+00
   -0.40477E-08        -0.10715E+08         0.00000E+00
    0.00000E+00         0.00000E+00        -0.20920E+07
 
    0.25491E+06         0.20238E-08         0.00000E+00
    0.20238E-08        -0.10715E+08         0.00000E+00
    0.00000E+00         0.00000E+00        -0.20920E+07
 
    0.41921E+08         0.52620E-07         0.00000E+00
    0.52620E-07         0.15595E+09         0.00000E+00
    0.00000E+00         0.00000E+00         0.39574E+08
 
    0.25391E+06         0.72280E-08         0.00000E+00
    0.72280E-08        -0.10715E+08         0.00000E+00
    0.00000E+00         0.00000E+00        -0.20922E+07
 
    0.25391E+06         0.69389E-08         0.00000E+00
    0.69389E-08        -0.10715E+08         0.00000E+00
    0.00000E+00         0.00000E+00        -0.20922E+07
 
    0.25391E+06         0.57824E-09         0.00000E+00
    0.57824E-09        -0.10715E+08         0.00000E+00
    0.00000E+00         0.00000E+00        -0.20922E+07
 
    0.25391E+06         0.28912E-09         0.00000E+00
    0.28912E-09        -0.10715E+08         0.00000E+00
    0.00000E+00         0.00000E+00        -0.20922E+07
 
    0.25391E+06         0.34694E-08         0.00000E+00
    0.34694E-08        -0.10715E+08         0.00000E+00
    0.00000E+00         0.00000E+00        -0.20922E+07
 
    0.25391E+06         0.72280E-09         0.00000E+00
    0.72280E-09        -0.10715E+08         0.00000E+00
    0.00000E+00         0.00000E+00        -0.20922E+07
 
    0.25391E+06        -0.14456E-08         0.00000E+00
   -0.14456E-08        -0.10715E+08         0.00000E+00
    0.00000E+00         0.00000E+00        -0.20922E+07
 
    0.25391E+06         0.28912E-09         0.00000E+00
    0.28912E-09        -0.10715E+08         0.00000E+00
    0.00000E+00         0.00000E+00        -0.20922E+07
 
    0.25391E+06         0.31803E-08         0.00000E+00
    0.31803E-08        -0.10715E+08         0.00000E+00
    0.00000E+00         0.00000E+00        -0.20922E+07
 
    0.25391E+06         0.14456E-08         0.00000E+00
    0.14456E-08        -0.10715E+08         0.00000E+00
    0.00000E+00         0.00000E+00        -0.20922E+07
 
    0.25391E+06         0.26021E-08         0.00000E+00
    0.26021E-08        -0.10715E+08         0.00000E+00
    0.00000E+00         0.00000E+00        -0.20922E+07
 
    0.25391E+06         0.00000E+00         0.00000E+00
    0.00000E+00        -0.10715E+08         0.00000E+00
    0.00000E+00         0.00000E+00        -0.20922E+07
 
    0.25391E+06         0.11565E-08         0.00000E+00
    0.11565E-08        -0.10715E+08         0.00000E+00
    0.00000E+00         0.00000E+00        -0.20922E+07
 
    0.25391E+06        -0.28912E-09         0.00000E+00
   -0.28912E-09        -0.10715E+08         0.00000E+00
    0.00000E+00         0.00000E+00        -0.20922E+07
 
    0.41920E+08         0.52042E-08         0.00000E+00
    0.52042E-08         0.15595E+09         0.00000E+00
    0.00000E+00         0.00000E+00         0.39574E+08
 
    0.25286E+06        -0.12143E-07         0.00000E+00
   -0.12143E-07        -0.10715E+08         0.00000E+00
    0.00000E+00         0.00000E+00        -0.20925E+07
 
    0.25286E+06         0.37586E-08         0.00000E+00
    0.37586E-08        -0.10715E+08         0.00000E+00
    0.00000E+00         0.00000E+00        -0.20925E+07
 
    0.25286E+06        -0.17347E-08         0.00000E+00
   -0.17347E-08        -0.10715E+08         0.00000E+00
    0.00000E+00         0.00000E+00        -0.20925E+07
 
    0.25286E+06        -0.28912E-08         0.00000E+00
   -0.28912E-08        -0.10715E+08         0.00000E+00
    0.00000E+00         0.00000E+00        -0.20925E+07
 
    0.25286E+06        -0.23130E-08         0.00000E+00
   -0.23130E-08        -0.10715E+08         0.00000E+00
    0.00000E+00         0.00000E+00        -0.20925E+07
 
    0.25286E+06        -0.34694E-08         0.00000E+00
   -0.34694E-08        -0.10715E+08         0.00000E+00
    0.00000E+00         0.00000E+00        -0.20925E+07
 
    0.25286E+06        -0.23130E-08         0.00000E+00
   -0.23130E-08        -0.10715E+08         0.00000E+00
    0.00000E+00         0.00000E+00        -0.20925E+07
 
    0.25286E+06        -0.20238E-08         0.00000E+00
   -0.20238E-08        -0.10715E+08         0.00000E+00
    0.00000E+00         0.00000E+00        -0.20925E+07
 
    0.25286E+06         0.54933E-08         0.00000E+00
    0.54933E-08        -0.10715E+08         0.00000E+00
    0.00000E+00         0.00000E+00        -0.20925E+07
 
    0.25286E+06         0.11565E-08         0.00000E+00
    0.11565E-08        -0.10715E+08         0.00000E+00
    0.00000E+00         0.00000E+00        -0.20925E+07
 
    0.25286E+06         0.31803E-08         0.00000E+00
    0.31803E-08        -0.10715E+08         0.00000E+00
    0.00000E+00         0.00000E+00        -0.20925E+07
 
    0.25286E+06         0.28912E-08         0.00000E+00
    0.28912E-08        -0.10715E+08         0.00000E+00
    0.00000E+00         0.00000E+00        -0.20925E+07
 
    0.25286E+06         0.28912E-08         0.00000E+00
    0.28912E-08        -0.10715E+08         0.00000E+00
    0.00000E+00         0.00000E+00        -0.20925E+07
 
    0.25286E+06         0.52042E-08         0.00000E+00
    0.52042E-08        -0.10715E+08         0.00000E+00
    0.00000E+00         0.00000E+00        -0.20925E+07
 
    0.41918E+08        -0.51174E-07         0.00000E+00
   -0.51174E-07         0.15595E+09         0.00000E+00
    0.00000E+00         0.00000E+00         0.39574E+08
 
    0.25176E+06        -0.31803E-08         0.00000E+00
   -0.31803E-08        -0.10716E+08         0.00000E+00
    0.00000E+00         0.00000E+00        -0.20928E+07
 
    0.25176E+06         0.69389E-08         0.00000E+00
    0.69389E-08        -0.10716E+08         0.00000E+00
    0.00000E+00         0.00000E+00        -0.20928E+07
 
    0.25176E+06        -0.72280E-08         0.00000E+00
   -0.72280E-08        -0.10716E+08         0.00000E+00
    0.00000E+00         0.00000E+00        -0.20928E+07
 
    0.25176E+06         0.83845E-08         0.00000E+00
    0.83845E-08        -0.10716E+08         0.00000E+00
    0.00000E+00         0.00000E+00        -0.20928E+07
 
    0.25176E+06         0.11565E-08         0.00000E+00
    0.11565E-08        -0.10716E+08         0.00000E+00
    0.00000E+00         0.00000E+00        -0.20928E+07
 
    0.25176E+06         0.92519E-08         0.00000E+00
    0.92519E-08        -0.10716E+08         0.00000E+00
    0.00000E+00         0.00000E+00        -0.20928E+07
 
    0.25176E+06         0.28912E-08         0.00000E+00
    0.28912E-08        -0.10716E+08         0.00000E+00
    0.00000E+00         0.00000E+00        -0.20928E+07
 
    0.25176E+06         0.34694E-08         0.00000E+00
    0.34694E-08        -0.10716E+08         0.00000E+00
    0.00000E+00         0.00000E+00        -0.20928E+07
 
    0.25176E+06        -0.57824E-08         0.00000E+00
   -0.57824E-08        -0.10716E+08         0.00000E+00
    0.00000E+00         0.00000E+00        -0.20928E+07
 
    0.25176E+06        -0.37586E-08         0.00000E+00
   -0.37586E-08        -0.10716E+08         0.00000E+00
    0.00000E+00         0.00000E+00        -0.20928E+07
 
    0.25176E+06         0.43368E-08         0.00000E+00
    0.43368E-08        -0.10716E+08         0.00000E+00
    0.00000E+00         0.00000E+00        -0.20928E+07
 
    0.25176E+06         0.69389E-08         0.00000E+00
    0.69389E-08        -0.10716E+08         0.00000E+00
    0.00000E+00         0.00000E+00        -0.20928E+07
 
    0.25176E+06        -0.34694E-08         0.00000E+00
   -0.34694E-08        -0.10716E+08         0.00000E+00
    0.00000E+00         0.00000E+00        -0.20928E+07
 
    0.25176E+06         0.49150E-08         0.00000E+00
    0.49150E-08        -0.10716E+08         0.00000E+00
    0.00000E+00         0.00000E+00        -0.20928E+07
 
    0.41917E+08         0.57824E-09         0.00000E+00
    0.57824E-09         0.15595E+09         0.00000E+00
    0.00000E+00         0.00000E+00         0.39574E+08
 
    0.25060E+06         0.69389E-08         0.00000E+00
    0.69389E-08        -0.10716E+08         0.00000E+00
    0.00000E+00         0.00000E+00        -0.20931E+07
 
    0.25060E+06         0.28912E-08         0.00000E+00
    0.28912E-08        -0.10716E+08         0.00000E+00
    0.00000E+00         0.00000E+00        -0.20931E+07
 
    0.25060E+06         0.54933E-08         0.00000E+00
    0.54933E-08        -0.10716E+08         0.00000E+00
    0.00000E+00         0.00000E+00        -0.20931E+07
 
    0.25060E+06        -0.28912E-09         0.00000E+00
   -0.28912E-09        -0.10716E+08         0.00000E+00
    0.00000E+00         0.00000E+00        -0.20931E+07
 
    0.25060E+06        -0.57824E-09         0.00000E+00
   -0.57824E-09        -0.10716E+08         0.00000E+00
    0.00000E+00         0.00000E+00        -0.20931E+07
 
    0.25060E+06         0.69389E-08         0.00000E+00
    0.69389E-08        -0.10716E+08         0.00000E+00
    0.00000E+00         0.00000E+00        -0.20931E+07
 
    0.25060E+06         0.34694E-08         0.00000E+00
    0.34694E-08        -0.10716E+08         0.00000E+00
    0.00000E+00         0.00000E+00        -0.20931E+07
 
    0.25060E+06         0.57824E-08         0.00000E+00
    0.57824E-08        -0.10716E+08         0.00000E+00
    0.00000E+00         0.00000E+00        -0.20931E+07
 
    0.25060E+06         0.40477E-08         0.00000E+00
    0.40477E-08        -0.10716E+08         0.00000E+00
    0.00000E+00         0.00000E+00        -0.20931E+07
 
    0.25060E+06         0.23130E-08         0.00000E+00
    0.23130E-08        -0.10716E+08         0.00000E+00
    0.00000E+00         0.00000E+00        -0.20931E+07
 
    0.25060E+06        -0.14456E-08         0.00000E+00
   -0.14456E-08        -0.10716E+08         0.00000E+00
    0.00000E+00         0.00000E+00        -0.20931E+07
 
    0.25060E+06         0.40477E-08         0.00000E+00
    0.40477E-08        -0.10716E+08         0.00000E+00
    0.00000E+00         0.00000E+00        -0.20931E+07
 
    0.25060E+06        -0.63607E-08         0.00000E+00
   -0.63607E-08        -0.10716E+08         0.00000E+00
    0.00000E+00         0.00000E+00        -0.20931E+07
 
    0.25060E+06        -0.57824E-09         0.00000E+00
   -0.57824E-09        -0.10716E+08         0.00000E+00
    0.00000E+00         0.00000E+00        -0.20931E+07
 
    0.41916E+08         0.48572E-07         0.00000E+00
    0.48572E-07         0.15595E+09         0.00000E+00
    0.00000E+00         0.00000E+00         0.39573E+08
 
    0.24938E+06        -0.49150E-08         0.00000E+00
   -0.49150E-08        -0.10716E+08         0.00000E+00
    0.00000E+00         0.00000E+00        -0.20934E+07
 
    0.24938E+06         0.37586E-08         0.00000E+00
    0.37586E-08        -0.10716E+08         0.00000E+00
    0.00000E+00         0.00000E+00        -0.20934E+07
 
    0.24938E+06        -0.17347E-08         0.00000E+00
   -0.17347E-08        -0.10716E+08         0.00000E+00
    0.00000E+00         0.00000E+00        -0.20934E+07
 
    0.24938E+06         0.28912E-08         0.00000E+00
    0.28912E-08        -0.10716E+08         0.00000E+00
    0.00000E+00         0.00000E+00        -0.20934E+07
 
    0.24938E+06        -0.23130E-08         0.00000E+00
   -0.23130E-08        -0.10716E+08         0.00000E+00
    0.00000E+00         0.00000E+00        -0.20934E+07
 
    0.24938E+06        -0.92519E-08         0.00000E+00
   -0.92519E-08        -0.10716E+08         0.00000E+00
    0.00000E+00         0.00000E+00        -0.20934E+07
 
    0.24938E+06         0.34694E-08         0.00000E+00
    0.34694E-08        -0.10716E+08         0.00000E+00
    0.00000E+00         0.00000E+00        -0.20934E+07
 
    0.24938E+06        -0.75171E-08         0.00000E+00
   -0.75171E-08        -0.10716E+08         0.00000E+00
    0.00000E+00         0.00000E+00        -0.20934E+07
 
    0.24938E+06         0.14167E-07         0.00000E+00
    0.14167E-07        -0.10716E+08         0.00000E+00
    0.00000E+00         0.00000E+00        -0.20934E+07
 
    0.24938E+06        -0.86736E-09         0.00000E+00
   -0.86736E-09        -0.10716E+08         0.00000E+00
    0.00000E+00         0.00000E+00        -0.20934E+07
 
    0.24938E+06         0.80954E-08         0.00000E+00
    0.80954E-08        -0.10716E+08         0.00000E+00
    0.00000E+00         0.00000E+00        -0.20934E+07
 
    0.24938E+06         0.92519E-08         0.00000E+00
    0.92519E-08        -0.10716E+08         0.00000E+00
    0.00000E+00         0.00000E+00        -0.20934E+07
 
    0.24938E+06        -0.57824E-08         0.00000E+00
   -0.57824E-08        -0.10716E+08         0.00000E+00
    0.00000E+00         0.00000E+00        -0.20934E+07
 
    0.24938E+06         0.52042E-08         0.00000E+00
    0.52042E-08        -0.10716E+08         0.00000E+00
    0.00000E+00         0.00000E+00        -0.20934E+07
 
    0.41915E+08        -0.47416E-07         0.00000E+00
   -0.47416E-07         0.15595E+09         0.00000E+00
    0.00000E+00         0.00000E+00         0.39573E+08
 
    0.24810E+06        -0.86736E-08         0.00000E+00
   -0.86736E-08        -0.10717E+08         0.00000E+00
    0.00000E+00         0.00000E+00        -0.20937E+07
 
    0.24810E+06        -0.26021E-08         0.00000E+00
   -0.26021E-08        -0.10717E+08         0.00000E+00
    0.00000E+00         0.00000E+00        -0.20937E+07
 
    0.24810E+06         0.52042E-08         0.00000E+00
    0.52042E-08        -0.10717E+08         0.00000E+00
    0.00000E+00         0.00000E+00        -0.20937E+07
 
    0.24810E+06         0.89627E-08         0.00000E+00
    0.89627E-08        -0.10717E+08         0.00000E+00
    0.00000E+00         0.00000E+00        -0.20937E+07
 
    0.24810E+06        -0.28912E-09         0.00000E+00
   -0.28912E-09        -0.10717E+08         0.00000E+00
    0.00000E+00         0.00000E+00        -0.20937E+07
 
    0.24810E+06         0.40477E-08         0.00000E+00
    0.40477E-08        -0.10717E+08         0.00000E+00
    0.00000E+00         0.00000E+00        -0.20937E+07
 
    0.24810E+06        -0.57824E-09         0.00000E+00
   -0.57824E-09        -0.10717E+08         0.00000E+00
    0.00000E+00         0.00000E+00        -0.20937E+07
 
    0.24810E+06        -0.26021E-08         0.00000E+00
   -0.26021E-08        -0.10717E+08         0.00000E+00
    0.00000E+00         0.00000E+00        -0.20937E+07
 
    0.24810E+06        -0.57824E-09         0.00000E+00
   -0.57824E-09        -0.10717E+08         0.00000E+00
    0.00000E+00         0.00000E+00        -0.20937E+07
 
    0.24810E+06         0.37586E-08         0.00000E+00
    0.37586E-08        -0.10717E+08         0.00000E+00
    0.00000E+00         0.00000E+00        -0.20937E+07
 
    0.24810E+06        -0.40477E-08         0.00000E+00
   -0.40477E-08        -0.10717E+08         0.00000E+00
    0.00000E+00         0.00000E+00        -0.20937E+07
 
    0.24810E+06         0.57824E-09         0.00000E+00
    0.57824E-09        -0.10717E+08         0.00000E+00
    0.00000E+00         0.00000E+00        -0.20937E+07
 
    0.24810E+06         0.11565E-08         0.00000E+00
    0.11565E-08        -0.10717E+08         0.00000E+00
    0.00000E+00         0.00000E+00        -0.20937E+07
 
    0.24810E+06         0.28912E-08         0.00000E+00
    0.28912E-08        -0.10717E+08         0.00000E+00
    0.00000E+00         0.00000E+00        -0.20937E+07
 
    0.41913E+08         0.36429E-07         0.00000E+00
    0.36429E-07         0.15595E+09         0.00000E+00
    0.00000E+00         0.00000E+00         0.39573E+08
 
    0.24677E+06        -0.52042E-08         0.00000E+00
   -0.52042E-08        -0.10717E+08         0.00000E+00
    0.00000E+00         0.00000E+00        -0.20940E+07
 
    0.24677E+06        -0.69389E-08         0.00000E+00
   -0.69389E-08        -0.10717E+08         0.00000E+00
    0.00000E+00         0.00000E+00        -0.20940E+07
 
    0.24677E+06         0.57824E-09         0.00000E+00
    0.57824E-09        -0.10717E+08         0.00000E+00
    0.00000E+00         0.00000E+00        -0.20940E+07
 
    0.24677E+06        -0.17347E-08         0.00000E+00
   -0.17347E-08        -0.10717E+08         0.00000E+00
    0.00000E+00         0.00000E+00        -0.20940E+07
 
    0.24677E+06         0.14456E-08         0.00000E+00
    0.14456E-08        -0.10717E+08         0.00000E+00
    0.00000E+00         0.00000E+00        -0.20940E+07
 
    0.24677E+06        -0.57824E-08         0.00000E+00
   -0.57824E-08        -0.10717E+08         0.00000E+00
    0.00000E+00         0.00000E+00        -0.20940E+07
 
    0.24677E+06        -0.46259E-08         0.00000E+00
   -0.46259E-08        -0.10717E+08         0.00000E+00
    0.00000E+00         0.00000E+00        -0.20940E+07
 
    0.24677E+06        -0.17347E-08         0.00000E+00
   -0.17347E-08        -0.10717E+08         0.00000E+00
    0.00000E+00         0.00000E+00        -0.20940E+07
 
    0.24677E+06         0.00000E+00         0.00000E+00
    0.00000E+00        -0.10717E+08         0.00000E+00
    0.00000E+00         0.00000E+00        -0.20940E+07
 
    0.24677E+06         0.14456E-08         0.00000E+00
    0.14456E-08        -0.10717E+08         0.00000E+00
    0.00000E+00         0.00000E+00        -0.20940E+07
 
    0.24677E+06         0.34694E-08         0.00000E+00
    0.34694E-08        -0.10717E+08         0.00000E+00
    0.00000E+00         0.00000E+00        -0.20940E+07
 
    0.24677E+06        -0.17347E-08         0.00000E+00
   -0.17347E-08        -0.10717E+08         0.00000E+00
    0.00000E+00         0.00000E+00        -0.20940E+07
 
    0.24677E+06        -0.72280E-08         0.00000E+00
   -0.72280E-08        -0.10717E+08         0.00000E+00
    0.00000E+00         0.00000E+00        -0.20940E+07
 
    0.24677E+06         0.63607E-08         0.00000E+00
    0.63607E-08        -0.10717E+08         0.00000E+00
    0.00000E+00         0.00000E+00        -0.20940E+07
 
    0.41912E+08        -0.44525E-07         0.00000E+00
   -0.44525E-07         0.15595E+09         0.00000E+00
    0.00000E+00         0.00000E+00         0.39572E+08
 
    0.24537E+06         0.28912E-09         0.00000E+00
    0.28912E-09        -0.10717E+08         0.00000E+00
    0.00000E+00         0.00000E+00        -0.20944E+07
 
    0.24537E+06         0.20238E-08         0.00000E+00
    0.20238E-08        -0.10717E+08         0.00000E+00
    0.00000E+00         0.00000E+00        -0.20944E+07
 
    0.24537E+06         0.89627E-08         0.00000E+00
    0.89627E-08        -0.10717E+08         0.00000E+00
    0.00000E+00         0.00000E+00        -0.20944E+07
 
    0.24537E+06        -0.92519E-08         0.00000E+00
   -0.92519E-08        -0.10717E+08         0.00000E+00
    0.00000E+00         0.00000E+00        -0.20944E+07
 
    0.24537E+06         0.60715E-08         0.00000E+00
    0.60715E-08        -0.10717E+08         0.00000E+00
    0.00000E+00         0.00000E+00        -0.20944E+07
 
    0.24537E+06         0.14456E-08         0.00000E+00
    0.14456E-08        -0.10717E+08         0.00000E+00
    0.00000E+00         0.00000E+00        -0.20944E+07
 
    0.24537E+06        -0.34694E-08         0.00000E+00
   -0.34694E-08        -0.10717E+08         0.00000E+00
    0.00000E+00         0.00000E+00        -0.20944E+07
 
    0.24537E+06        -0.17347E-08         0.00000E+00
   -0.17347E-08        -0.10717E+08         0.00000E+00
    0.00000E+00         0.00000E+00        -0.20944E+07
 
    0.24537E+06         0.28912E-08         0.00000E+00
    0.28912E-08        -0.10717E+08         0.00000E+00
    0.00000E+00         0.00000E+00        -0.20944E+07
 
    0.24537E+06        -0.26021E-08         0.00000E+00
   -0.26021E-08        -0.10717E+08         0.00000E+00
    0.00000E+00         0.00000E+00        -0.20944E+07
 
    0.24537E+06         0.28912E-09         0.00000E+00
    0.28912E-09        -0.10717E+08         0.00000E+00
    0.00000E+00         0.00000E+00        -0.20944E+07
 
    0.24537E+06         0.31803E-08         0.00000E+00
    0.31803E-08        -0.10717E+08         0.00000E+00
    0.00000E+00         0.00000E+00        -0.20944E+07
 
    0.24537E+06        -0.20238E-08         0.00000E+00
   -0.20238E-08        -0.10717E+08         0.00000E+00
    0.00000E+00         0.00000E+00        -0.20944E+07
 
    0.24537E+06        -0.17347E-08         0.00000E+00
   -0.17347E-08        -0.10717E+08         0.00000E+00
    0.00000E+00         0.00000E+00        -0.20944E+07
 
    0.41911E+08         0.53776E-07         0.00000E+00
    0.53776E-07         0.15595E+09         0.00000E+00
    0.00000E+00         0.00000E+00         0.39572E+08
 
    0.24392E+06         0.57824E-09         0.00000E+00
    0.57824E-09        -0.10718E+08         0.00000E+00
    0.00000E+00         0.00000E+00        -0.20947E+07
 
    0.24392E+06        -0.11565E-08         0.00000E+00
   -0.11565E-08        -0.10718E+08         0.00000E+00
    0.00000E+00         0.00000E+00        -0.20947E+07
 
    0.24392E+06         0.34694E-08         0.00000E+00
    0.34694E-08        -0.10718E+08         0.00000E+00
    0.00000E+00         0.00000E+00        -0.20947E+07
 
    0.24392E+06         0.11565E-08         0.00000E+00
    0.11565E-08        -0.10718E+08         0.00000E+00
    0.00000E+00         0.00000E+00        -0.20947E+07
 
    0.24392E+06         0.37586E-08         0.00000E+00
    0.37586E-08        -0.10718E+08         0.00000E+00
    0.00000E+00         0.00000E+00        -0.20947E+07
 
    0.24392E+06         0.28912E-09         0.00000E+00
    0.28912E-09        -0.10718E+08         0.00000E+00
    0.00000E+00         0.00000E+00        -0.20947E+07
 
    0.24392E+06        -0.28912E-08         0.00000E+00
   -0.28912E-08        -0.10718E+08         0.00000E+00
    0.00000E+00         0.00000E+00        -0.20947E+07
 
    0.24392E+06        -0.52042E-08         0.00000E+00
   -0.52042E-08        -0.10718E+08         0.00000E+00
    0.00000E+00         0.00000E+00        -0.20947E+07
 
    0.24392E+06        -0.57824E-09         0.00000E+00
   -0.57824E-09        -0.10718E+08         0.00000E+00
    0.00000E+00         0.00000E+00        -0.20947E+07
 
    0.24392E+06         0.31803E-08         0.00000E+00
    0.31803E-08        -0.10718E+08         0.00000E+00
    0.00000E+00         0.00000E+00        -0.20947E+07
 
    0.24392E+06        -0.37586E-08         0.00000E+00
   -0.37586E-08        -0.10718E+08         0.00000E+00
    0.00000E+00         0.00000E+00        -0.20947E+07
 
    0.24392E+06         0.92519E-08         0.00000E+00
    0.92519E-08        -0.10718E+08         0.00000E+00
    0.00000E+00         0.00000E+00        -0.20947E+07
 
    0.24392E+06        -0.11565E-08         0.00000E+00
   -0.11565E-08        -0.10718E+08         0.00000E+00
    0.00000E+00         0.00000E+00        -0.20947E+07
 
    0.24392E+06         0.75171E-08         0.00000E+00
    0.75171E-08        -0.10718E+08         0.00000E+00
    0.00000E+00         0.00000E+00        -0.20947E+07
 
    0.41909E+08        -0.56089E-07         0.00000E+00
   -0.56089E-07         0.15595E+09         0.00000E+00
    0.00000E+00         0.00000E+00         0.39572E+08
 
    0.24239E+06        -0.20238E-08         0.00000E+00
   -0.20238E-08        -0.10718E+08         0.00000E+00
    0.00000E+00         0.00000E+00        -0.20951E+07
 
    0.24239E+06        -0.14167E-07         0.00000E+00
   -0.14167E-07        -0.10718E+08         0.00000E+00
    0.00000E+00         0.00000E+00        -0.20951E+07
 
    0.24239E+06        -0.14456E-08         0.00000E+00
   -0.14456E-08        -0.10718E+08         0.00000E+00
    0.00000E+00         0.00000E+00        -0.20951E+07
 
    0.24239E+06        -0.26021E-08         0.00000E+00
   -0.26021E-08        -0.10718E+08         0.00000E+00
    0.00000E+00         0.00000E+00        -0.20951E+07
 
    0.24239E+06        -0.60715E-08         0.00000E+00
   -0.60715E-08        -0.10718E+08         0.00000E+00
    0.00000E+00         0.00000E+00        -0.20951E+07
 
    0.24239E+06         0.23130E-08         0.00000E+00
    0.23130E-08        -0.10718E+08         0.00000E+00
    0.00000E+00         0.00000E+00        -0.20951E+07
 
    0.24239E+06        -0.17636E-07         0.00000E+00
   -0.17636E-07        -0.10718E+08         0.00000E+00
    0.00000E+00         0.00000E+00        -0.20951E+07
 
    0.24239E+06         0.52042E-08         0.00000E+00
    0.52042E-08        -0.10718E+08         0.00000E+00
    0.00000E+00         0.00000E+00        -0.20951E+07
 
    0.24239E+06        -0.12143E-07         0.00000E+00
   -0.12143E-07        -0.10718E+08         0.00000E+00
    0.00000E+00         0.00000E+00        -0.20951E+07
 
    0.24239E+06        -0.95410E-08         0.00000E+00
   -0.95410E-08        -0.10718E+08         0.00000E+00
    0.00000E+00         0.00000E+00        -0.20951E+07
 
    0.24239E+06         0.80954E-08         0.00000E+00
    0.80954E-08        -0.10718E+08         0.00000E+00
    0.00000E+00         0.00000E+00        -0.20951E+07
 
    0.24239E+06         0.57824E-09         0.00000E+00
    0.57824E-09        -0.10718E+08         0.00000E+00
    0.00000E+00         0.00000E+00        -0.20951E+07
 
    0.24239E+06        -0.13300E-07         0.00000E+00
   -0.13300E-07        -0.10718E+08         0.00000E+00
    0.00000E+00         0.00000E+00        -0.20951E+07
 
    0.24239E+06         0.46259E-08         0.00000E+00
    0.46259E-08        -0.10718E+08         0.00000E+00
    0.00000E+00         0.00000E+00        -0.20951E+07
 
    0.41907E+08         0.57246E-07         0.00000E+00
    0.57246E-07         0.15595E+09         0.00000E+00
    0.00000E+00         0.00000E+00         0.39571E+08
 
    0.24081E+06         0.17347E-08         0.00000E+00
    0.17347E-08        -0.10718E+08         0.00000E+00
    0.00000E+00         0.00000E+00        -0.20955E+07
 
    0.24081E+06         0.80954E-08         0.00000E+00
    0.80954E-08        -0.10718E+08         0.00000E+00
    0.00000E+00         0.00000E+00        -0.20955E+07
 
    0.24081E+06         0.66498E-08         0.00000E+00
    0.66498E-08        -0.10718E+08         0.00000E+00
    0.00000E+00         0.00000E+00        -0.20955E+07
 
    0.24081E+06        -0.80954E-08         0.00000E+00
   -0.80954E-08        -0.10718E+08         0.00000E+00
    0.00000E+00         0.00000E+00        -0.20955E+07
 
    0.24081E+06         0.57824E-08         0.00000E+00
    0.57824E-08        -0.10718E+08         0.00000E+00
    0.00000E+00         0.00000E+00        -0.20955E+07
 
    0.24081E+06         0.10987E-07         0.00000E+00
    0.10987E-07        -0.10718E+08         0.00000E+00
    0.00000E+00         0.00000E+00        -0.20955E+07
 
    0.24081E+06         0.57824E-09         0.00000E+00
    0.57824E-09        -0.10718E+08         0.00000E+00
    0.00000E+00         0.00000E+00        -0.20955E+07
 
    0.24081E+06         0.40477E-08         0.00000E+00
    0.40477E-08        -0.10718E+08         0.00000E+00
    0.00000E+00         0.00000E+00        -0.20955E+07
 
    0.24081E+06        -0.46259E-08         0.00000E+00
   -0.46259E-08        -0.10718E+08         0.00000E+00
    0.00000E+00         0.00000E+00        -0.20955E+07
 
    0.24081E+06         0.20238E-08         0.00000E+00
    0.20238E-08        -0.10718E+08         0.00000E+00
    0.00000E+00         0.00000E+00        -0.20955E+07
 
    0.24081E+06        -0.11565E-08         0.00000E+00
   -0.11565E-08        -0.10718E+08         0.00000E+00
    0.00000E+00         0.00000E+00        -0.20955E+07
 
    0.24081E+06        -0.23130E-08         0.00000E+00
   -0.23130E-08        -0.10718E+08         0.00000E+00
    0.00000E+00         0.00000E+00        -0.20955E+07
 
    0.24081E+06         0.57824E-08         0.00000E+00
    0.57824E-08        -0.10718E+08         0.00000E+00
    0.00000E+00         0.00000E+00        -0.20955E+07
 
    0.24081E+06         0.75171E-08         0.00000E+00
    0.75171E-08        -0.10718E+08         0.00000E+00
    0.00000E+00         0.00000E+00        -0.20955E+07
 
    0.41906E+08        -0.57246E-07         0.00000E+00
   -0.57246E-07         0.15595E+09         0.00000E+00
    0.00000E+00         0.00000E+00         0.39571E+08
 
    0.23915E+06        -0.34694E-08         0.00000E+00
   -0.34694E-08        -0.10719E+08         0.00000E+00
    0.00000E+00         0.00000E+00        -0.20959E+07
 
    0.23915E+06        -0.20238E-08         0.00000E+00
   -0.20238E-08        -0.10719E+08         0.00000E+00
    0.00000E+00         0.00000E+00        -0.20959E+07
 
    0.23915E+06         0.43368E-08         0.00000E+00
    0.43368E-08        -0.10719E+08         0.00000E+00
    0.00000E+00         0.00000E+00        -0.20959E+07
 
    0.23915E+06        -0.80954E-08         0.00000E+00
   -0.80954E-08        -0.10719E+08         0.00000E+00
    0.00000E+00         0.00000E+00        -0.20959E+07
 
    0.23915E+06         0.46259E-08         0.00000E+00
    0.46259E-08        -0.10719E+08         0.00000E+00
    0.00000E+00         0.00000E+00        -0.20959E+07
 
    0.23915E+06        -0.11565E-07         0.00000E+00
   -0.11565E-07        -0.10719E+08         0.00000E+00
    0.00000E+00         0.00000E+00        -0.20959E+07
 
    0.23915E+06         0.49150E-08         0.00000E+00
    0.49150E-08        -0.10719E+08         0.00000E+00
    0.00000E+00         0.00000E+00        -0.20959E+07
 
    0.23915E+06        -0.17347E-08         0.00000E+00
   -0.17347E-08        -0.10719E+08         0.00000E+00
    0.00000E+00         0.00000E+00        -0.20959E+07
 
    0.23915E+06         0.28912E-08         0.00000E+00
    0.28912E-08        -0.10719E+08         0.00000E+00
    0.00000E+00         0.00000E+00        -0.20959E+07
 
    0.23915E+06         0.00000E+00         0.00000E+00
    0.00000E+00        -0.10719E+08         0.00000E+00
    0.00000E+00         0.00000E+00        -0.20959E+07
 
    0.23915E+06         0.49150E-08         0.00000E+00
    0.49150E-08        -0.10719E+08         0.00000E+00
    0.00000E+00         0.00000E+00        -0.20959E+07
 
    0.23915E+06         0.11565E-08         0.00000E+00
    0.11565E-08        -0.10719E+08         0.00000E+00
    0.00000E+00         0.00000E+00        -0.20959E+07
 
    0.23915E+06        -0.11565E-08         0.00000E+00
   -0.11565E-08        -0.10719E+08         0.00000E+00
    0.00000E+00         0.00000E+00        -0.20959E+07
 
    0.23915E+06         0.34694E-08         0.00000E+00
    0.34694E-08        -0.10719E+08         0.00000E+00
    0.00000E+00         0.00000E+00        -0.20959E+07
 
    0.41904E+08        -0.57824E-08         0.00000E+00
   -0.57824E-08         0.15595E+09         0.00000E+00
    0.00000E+00         0.00000E+00         0.39570E+08
 
    0.23743E+06         0.66498E-08         0.00000E+00
    0.66498E-08        -0.10719E+08         0.00000E+00
    0.00000E+00         0.00000E+00        -0.20964E+07
 
    0.23743E+06         0.11565E-08         0.00000E+00
    0.11565E-08        -0.10719E+08         0.00000E+00
    0.00000E+00         0.00000E+00        -0.20964E+07
 
    0.23743E+06         0.37586E-08         0.00000E+00
    0.37586E-08        -0.10719E+08         0.00000E+00
    0.00000E+00         0.00000E+00        -0.20964E+07
 
    0.23743E+06         0.40477E-08         0.00000E+00
    0.40477E-08        -0.10719E+08         0.00000E+00
    0.00000E+00         0.00000E+00        -0.20964E+07
 
    0.23743E+06        -0.14456E-08         0.00000E+00
   -0.14456E-08        -0.10719E+08         0.00000E+00
    0.00000E+00         0.00000E+00        -0.20964E+07
 
    0.23743E+06        -0.17347E-08         0.00000E+00
   -0.17347E-08        -0.10719E+08         0.00000E+00
    0.00000E+00         0.00000E+00        -0.20964E+07
 
    0.23743E+06         0.34694E-08         0.00000E+00
    0.34694E-08        -0.10719E+08         0.00000E+00
    0.00000E+00         0.00000E+00        -0.20964E+07
 
    0.23743E+06         0.28912E-08         0.00000E+00
    0.28912E-08        -0.10719E+08         0.00000E+00
    0.00000E+00         0.00000E+00        -0.20964E+07
 
    0.23743E+06        -0.69389E-08         0.00000E+00
   -0.69389E-08        -0.10719E+08         0.00000E+00
    0.00000E+00         0.00000E+00        -0.20964E+07
 
    0.23743E+06        -0.31803E-08         0.00000E+00
   -0.31803E-08        -0.10719E+08         0.00000E+00
    0.00000E+00         0.00000E+00        -0.20964E+07
 
    0.23743E+06        -0.11565E-08         0.00000E+00
   -0.11565E-08        -0.10719E+08         0.00000E+00
    0.00000E+00         0.00000E+00        -0.20964E+07
 
    0.23743E+06        -0.26021E-08         0.00000E+00
   -0.26021E-08        -0.10719E+08         0.00000E+00
    0.00000E+00         0.00000E+00        -0.20964E+07
 
    0.23743E+06        -0.57824E-08         0.00000E+00
   -0.57824E-08        -0.10719E+08         0.00000E+00
    0.00000E+00         0.00000E+00        -0.20964E+07
 
    0.23743E+06         0.28912E-08         0.00000E+00
    0.28912E-08        -0.10719E+08         0.00000E+00
    0.00000E+00         0.00000E+00        -0.20964E+07
 
    0.41902E+08         0.40477E-08         0.00000E+00
    0.40477E-08         0.15595E+09         0.00000E+00
    0.00000E+00         0.00000E+00         0.39570E+08
 
    0.23563E+06        -0.12721E-07         0.00000E+00
   -0.12721E-07        -0.10720E+08         0.00000E+00
    0.00000E+00         0.00000E+00        -0.20968E+07
 
    0.23563E+06        -0.63607E-08         0.00000E+00
   -0.63607E-08        -0.10720E+08         0.00000E+00
    0.00000E+00         0.00000E+00        -0.20968E+07
 
    0.23563E+06         0.37586E-08         0.00000E+00
    0.37586E-08        -0.10720E+08         0.00000E+00
    0.00000E+00         0.00000E+00        -0.20968E+07
 
    0.23563E+06        -0.54933E-08         0.00000E+00
   -0.54933E-08        -0.10720E+08         0.00000E+00
    0.00000E+00         0.00000E+00        -0.20968E+07
 
    0.23563E+06         0.66498E-08         0.00000E+00
    0.66498E-08        -0.10720E+08         0.00000E+00
    0.00000E+00         0.00000E+00        -0.20968E+07
 
    0.23563E+06        -0.57824E-09         0.00000E+00
   -0.57824E-09        -0.10720E+08         0.00000E+00
    0.00000E+00         0.00000E+00        -0.20968E+07
 
    0.23563E+06         0.17347E-08         0.00000E+00
    0.17347E-08        -0.10720E+08         0.00000E+00
    0.00000E+00         0.00000E+00        -0.20968E+07
 
    0.23563E+06         0.52042E-08         0.00000E+00
    0.52042E-08        -0.10720E+08         0.00000E+00
    0.00000E+00         0.00000E+00        -0.20968E+07
 
    0.23563E+06        -0.57824E-08         0.00000E+00
   -0.57824E-08        -0.10720E+08         0.00000E+00
    0.00000E+00         0.00000E+00        -0.20968E+07
 
    0.23563E+06        -0.28912E-09         0.00000E+00
   -0.28912E-09        -0.10720E+08         0.00000E+00
    0.00000E+00         0.00000E+00        -0.20968E+07
 
    0.23563E+06        -0.89627E-08         0.00000E+00
   -0.89627E-08        -0.10720E+08         0.00000E+00
    0.00000E+00         0.00000E+00        -0.20968E+07
 
    0.23563E+06         0.52042E-08         0.00000E+00
    0.52042E-08        -0.10720E+08         0.00000E+00
    0.00000E+00         0.00000E+00        -0.20968E+07
 
    0.23563E+06         0.10408E-07         0.00000E+00
    0.10408E-07        -0.10720E+08         0.00000E+00
    0.00000E+00         0.00000E+00        -0.20968E+07
 
    0.23563E+06         0.34694E-08         0.00000E+00
    0.34694E-08        -0.10720E+08         0.00000E+00
    0.00000E+00         0.00000E+00        -0.20968E+07
 
    0.41900E+08         0.50307E-07         0.00000E+00
    0.50307E-07         0.15595E+09         0.00000E+00
    0.00000E+00         0.00000E+00         0.39569E+08
 
    0.23377E+06        -0.86736E-09         0.00000E+00
   -0.86736E-09        -0.10720E+08         0.00000E+00
    0.00000E+00         0.00000E+00        -0.20973E+07
 
    0.23377E+06        -0.14456E-07         0.00000E+00
   -0.14456E-07        -0.10720E+08         0.00000E+00
    0.00000E+00         0.00000E+00        -0.20973E+07
 
    0.23377E+06         0.11565E-08         0.00000E+00
    0.11565E-08        -0.10720E+08         0.00000E+00
    0.00000E+00         0.00000E+00        -0.20973E+07
 
    0.23377E+06        -0.34694E-08         0.00000E+00
   -0.34694E-08        -0.10720E+08         0.00000E+00
    0.00000E+00         0.00000E+00        -0.20973E+07
 
    0.23377E+06         0.14167E-07         0.00000E+00
    0.14167E-07        -0.10720E+08         0.00000E+00
    0.00000E+00         0.00000E+00        -0.20973E+07
 
    0.23377E+06        -0.17925E-07         0.00000E+00
   -0.17925E-07        -0.10720E+08         0.00000E+00
    0.00000E+00         0.00000E+00        -0.20973E+07
 
    0.23377E+06         0.11565E-08         0.00000E+00
    0.11565E-08        -0.10720E+08         0.00000E+00
    0.00000E+00         0.00000E+00        -0.20973E+07
 
    0.23377E+06        -0.34694E-08         0.00000E+00
   -0.34694E-08        -0.10720E+08         0.00000E+00
    0.00000E+00         0.00000E+00        -0.20973E+07
 
    0.23377E+06        -0.18504E-07         0.00000E+00
   -0.18504E-07        -0.10720E+08         0.00000E+00
    0.00000E+00         0.00000E+00        -0.20973E+07
 
    0.23377E+06         0.86736E-09         0.00000E+00
    0.86736E-09        -0.10720E+08         0.00000E+00
    0.00000E+00         0.00000E+00        -0.20973E+07
 
    0.23377E+06        -0.49150E-08         0.00000E+00
   -0.49150E-08        -0.10720E+08         0.00000E+00
    0.00000E+00         0.00000E+00        -0.20973E+07
 
    0.23377E+06        -0.57824E-08         0.00000E+00
   -0.57824E-08        -0.10720E+08         0.00000E+00
    0.00000E+00         0.00000E+00        -0.20973E+07
 
    0.23377E+06         0.23130E-08         0.00000E+00
    0.23130E-08        -0.10720E+08         0.00000E+00
    0.00000E+00         0.00000E+00        -0.20973E+07
 
    0.23377E+06         0.57824E-09         0.00000E+00
    0.57824E-09        -0.10720E+08         0.00000E+00
    0.00000E+00         0.00000E+00        -0.20973E+07
 
    0.41898E+08        -0.46259E-08         0.00000E+00
   -0.46259E-08         0.15595E+09         0.00000E+00
    0.00000E+00         0.00000E+00         0.39569E+08
 
    0.23183E+06         0.12721E-07         0.00000E+00
    0.12721E-07        -0.10721E+08         0.00000E+00
    0.00000E+00         0.00000E+00        -0.20978E+07
 
    0.23183E+06         0.46259E-08         0.00000E+00
    0.46259E-08        -0.10721E+08         0.00000E+00
    0.00000E+00         0.00000E+00        -0.20978E+07
 
    0.23183E+06        -0.37586E-08         0.00000E+00
   -0.37586E-08        -0.10721E+08         0.00000E+00
    0.00000E+00         0.00000E+00        -0.20978E+07
 
    0.23183E+06         0.80954E-08         0.00000E+00
    0.80954E-08        -0.10721E+08         0.00000E+00
    0.00000E+00         0.00000E+00        -0.20978E+07
 
    0.23183E+06         0.92519E-08         0.00000E+00
    0.92519E-08        -0.10721E+08         0.00000E+00
    0.00000E+00         0.00000E+00        -0.20978E+07
 
    0.23183E+06        -0.11565E-07         0.00000E+00
   -0.11565E-07        -0.10721E+08         0.00000E+00
    0.00000E+00         0.00000E+00        -0.20978E+07
 
    0.23183E+06         0.92519E-08         0.00000E+00
    0.92519E-08        -0.10721E+08         0.00000E+00
    0.00000E+00         0.00000E+00        -0.20978E+07
 
    0.23183E+06         0.34694E-08         0.00000E+00
    0.34694E-08        -0.10721E+08         0.00000E+00
    0.00000E+00         0.00000E+00        -0.20978E+07
 
    0.23183E+06        -0.11565E-08         0.00000E+00
   -0.11565E-08        -0.10721E+08         0.00000E+00
    0.00000E+00         0.00000E+00        -0.20978E+07
 
    0.23183E+06        -0.23130E-08         0.00000E+00
   -0.23130E-08        -0.10721E+08         0.00000E+00
    0.00000E+00         0.00000E+00        -0.20978E+07
 
    0.23183E+06         0.54933E-08         0.00000E+00
    0.54933E-08        -0.10721E+08         0.00000E+00
    0.00000E+00         0.00000E+00        -0.20978E+07
 
    0.23183E+06         0.11565E-08         0.00000E+00
    0.11565E-08        -0.10721E+08         0.00000E+00
    0.00000E+00         0.00000E+00        -0.20978E+07
 
    0.23183E+06         0.23130E-08         0.00000E+00
    0.23130E-08        -0.10721E+08         0.00000E+00
    0.00000E+00         0.00000E+00        -0.20978E+07
 
    0.23183E+06         0.28912E-08         0.00000E+00
    0.28912E-08        -0.10721E+08         0.00000E+00
    0.00000E+00         0.00000E+00        -0.20978E+07
 
    0.41896E+08        -0.57246E-07         0.00000E+00
   -0.57246E-07         0.15595E+09         0.00000E+00
    0.00000E+00         0.00000E+00         0.39568E+08
 
    0.22981E+06         0.17347E-07         0.00000E+00
    0.17347E-07        -0.10721E+08         0.00000E+00
    0.00000E+00         0.00000E+00        -0.20983E+07
 
    0.22981E+06         0.86736E-08         0.00000E+00
    0.86736E-08        -0.10721E+08         0.00000E+00
    0.00000E+00         0.00000E+00        -0.20983E+07
 
    0.22981E+06        -0.31803E-08         0.00000E+00
   -0.31803E-08        -0.10721E+08         0.00000E+00
    0.00000E+00         0.00000E+00        -0.20983E+07
 
    0.22981E+06         0.34694E-08         0.00000E+00
    0.34694E-08        -0.10721E+08         0.00000E+00
    0.00000E+00         0.00000E+00        -0.20983E+07
 
    0.22981E+06        -0.11565E-08         0.00000E+00
   -0.11565E-08        -0.10721E+08         0.00000E+00
    0.00000E+00         0.00000E+00        -0.20983E+07
 
    0.22981E+06         0.46259E-08         0.00000E+00
    0.46259E-08        -0.10721E+08         0.00000E+00
    0.00000E+00         0.00000E+00        -0.20983E+07
 
    0.22981E+06         0.17347E-08         0.00000E+00
    0.17347E-08        -0.10721E+08         0.00000E+00
    0.00000E+00         0.00000E+00        -0.20983E+07
 
    0.22981E+06         0.00000E+00         0.00000E+00
    0.00000E+00        -0.10721E+08         0.00000E+00
    0.00000E+00         0.00000E+00        -0.20983E+07
 
    0.22981E+06        -0.11565E-08         0.00000E+00
   -0.11565E-08        -0.10721E+08         0.00000E+00
    0.00000E+00         0.00000E+00        -0.20983E+07
 
    0.22981E+06         0.28912E-09         0.00000E+00
    0.28912E-09        -0.10721E+08         0.00000E+00
    0.00000E+00         0.00000E+00        -0.20983E+07
 
    0.22981E+06        -0.28912E-09         0.00000E+00
   -0.28912E-09        -0.10721E+08         0.00000E+00
    0.00000E+00         0.00000E+00        -0.20983E+07
 
    0.22981E+06        -0.52042E-08         0.00000E+00
   -0.52042E-08        -0.10721E+08         0.00000E+00
    0.00000E+00         0.00000E+00        -0.20983E+07
 
    0.22981E+06        -0.23130E-08         0.00000E+00
   -0.23130E-08        -0.10721E+08         0.00000E+00
    0.00000E+00         0.00000E+00        -0.20983E+07
 
    0.22981E+06        -0.17347E-08         0.00000E+00
   -0.17347E-08        -0.10721E+08         0.00000E+00
    0.00000E+00         0.00000E+00        -0.20983E+07
 
    0.41894E+08         0.44525E-07         0.00000E+00
    0.44525E-07         0.15594E+09         0.00000E+00
    0.00000E+00         0.00000E+00         0.39568E+08
 
    0.22772E+06        -0.17347E-08         0.00000E+00
   -0.17347E-08        -0.10722E+08         0.00000E+00
    0.00000E+00         0.00000E+00        -0.20988E+07
 
    0.22772E+06        -0.57824E-08         0.00000E+00
   -0.57824E-08        -0.10722E+08         0.00000E+00
    0.00000E+00         0.00000E+00        -0.20988E+07
 
    0.22772E+06        -0.23130E-08         0.00000E+00
   -0.23130E-08        -0.10722E+08         0.00000E+00
    0.00000E+00         0.00000E+00        -0.20988E+07
 
    0.22772E+06         0.40477E-08         0.00000E+00
    0.40477E-08        -0.10722E+08         0.00000E+00
    0.00000E+00         0.00000E+00        -0.20988E+07
 
    0.22772E+06        -0.57824E-08         0.00000E+00
   -0.57824E-08        -0.10722E+08         0.00000E+00
    0.00000E+00         0.00000E+00        -0.20988E+07
 
    0.22772E+06        -0.52042E-08         0.00000E+00
   -0.52042E-08        -0.10722E+08         0.00000E+00
    0.00000E+00         0.00000E+00        -0.20988E+07
 
    0.22772E+06        -0.57824E-09         0.00000E+00
   -0.57824E-09        -0.10722E+08         0.00000E+00
    0.00000E+00         0.00000E+00        -0.20988E+07
 
    0.22772E+06         0.28912E-08         0.00000E+00
    0.28912E-08        -0.10722E+08         0.00000E+00
    0.00000E+00         0.00000E+00        -0.20988E+07
 
    0.22772E+06        -0.46259E-08         0.00000E+00
   -0.46259E-08        -0.10722E+08         0.00000E+00
    0.00000E+00         0.00000E+00        -0.20988E+07
 
    0.22772E+06         0.86736E-09         0.00000E+00
    0.86736E-09        -0.10722E+08         0.00000E+00
    0.00000E+00         0.00000E+00        -0.20988E+07
 
    0.22772E+06         0.83845E-08         0.00000E+00
    0.83845E-08        -0.10722E+08         0.00000E+00
    0.00000E+00         0.00000E+00        -0.20988E+07
 
    0.22772E+06         0.34694E-08         0.00000E+00
    0.34694E-08        -0.10722E+08         0.00000E+00
    0.00000E+00         0.00000E+00        -0.20988E+07
 
    0.22772E+06        -0.10408E-07         0.00000E+00
   -0.10408E-07        -0.10722E+08         0.00000E+00
    0.00000E+00         0.00000E+00        -0.20988E+07
 
    0.22772E+06         0.23130E-08         0.00000E+00
    0.23130E-08        -0.10722E+08         0.00000E+00
    0.00000E+00         0.00000E+00        -0.20988E+07
 
    0.41892E+08        -0.65919E-07         0.00000E+00
   -0.65919E-07         0.15594E+09         0.00000E+00
    0.00000E+00         0.00000E+00         0.39567E+08
 
    0.22555E+06         0.60715E-08         0.00000E+00
    0.60715E-08        -0.10722E+08         0.00000E+00
    0.00000E+00         0.00000E+00        -0.20993E+07
 
    0.22555E+06        -0.10408E-07         0.00000E+00
   -0.10408E-07        -0.10722E+08         0.00000E+00
    0.00000E+00         0.00000E+00        -0.20993E+07
 
    0.22555E+06         0.34694E-08         0.00000E+00
    0.34694E-08        -0.10722E+08         0.00000E+00
    0.00000E+00         0.00000E+00        -0.20993E+07
 
    0.22555E+06        -0.80954E-08         0.00000E+00
   -0.80954E-08        -0.10722E+08         0.00000E+00
    0.00000E+00         0.00000E+00        -0.20993E+07
 
    0.22555E+06         0.23130E-08         0.00000E+00
    0.23130E-08        -0.10722E+08         0.00000E+00
    0.00000E+00         0.00000E+00        -0.20993E+07
 
    0.22555E+06         0.69389E-08         0.00000E+00
    0.69389E-08        -0.10722E+08         0.00000E+00
    0.00000E+00         0.00000E+00        -0.20993E+07
 
    0.22555E+06         0.92519E-08         0.00000E+00
    0.92519E-08        -0.10722E+08         0.00000E+00
    0.00000E+00         0.00000E+00        -0.20993E+07
 
    0.22555E+06         0.28912E-08         0.00000E+00
    0.28912E-08        -0.10722E+08         0.00000E+00
    0.00000E+00         0.00000E+00        -0.20993E+07
 
    0.22555E+06        -0.69389E-08         0.00000E+00
   -0.69389E-08        -0.10722E+08         0.00000E+00
    0.00000E+00         0.00000E+00        -0.20993E+07
 
    0.22555E+06        -0.40477E-08         0.00000E+00
   -0.40477E-08        -0.10722E+08         0.00000E+00
    0.00000E+00         0.00000E+00        -0.20993E+07
 
    0.22555E+06         0.10119E-07         0.00000E+00
    0.10119E-07        -0.10722E+08         0.00000E+00
    0.00000E+00         0.00000E+00        -0.20993E+07
 
    0.22555E+06         0.15034E-07         0.00000E+00
    0.15034E-07        -0.10722E+08         0.00000E+00
    0.00000E+00         0.00000E+00        -0.20993E+07
 
    0.22555E+06        -0.63607E-08         0.00000E+00
   -0.63607E-08        -0.10722E+08         0.00000E+00
    0.00000E+00         0.00000E+00        -0.20993E+07
 
    0.22555E+06         0.00000E+00         0.00000E+00
    0.00000E+00        -0.10722E+08         0.00000E+00
    0.00000E+00         0.00000E+00        -0.20993E+07
 
    0.41890E+08         0.44525E-07         0.00000E+00
    0.44525E-07         0.15594E+09         0.00000E+00
    0.00000E+00         0.00000E+00         0.39567E+08
 
    0.22329E+06         0.72280E-08         0.00000E+00
    0.72280E-08        -0.10723E+08         0.00000E+00
    0.00000E+00         0.00000E+00        -0.20999E+07
 
    0.22329E+06        -0.98301E-08         0.00000E+00
   -0.98301E-08        -0.10723E+08         0.00000E+00
    0.00000E+00         0.00000E+00        -0.20999E+07
 
    0.22329E+06         0.00000E+00         0.00000E+00
    0.00000E+00        -0.10723E+08         0.00000E+00
    0.00000E+00         0.00000E+00        -0.20999E+07
 
    0.22329E+06        -0.80954E-08         0.00000E+00
   -0.80954E-08        -0.10723E+08         0.00000E+00
    0.00000E+00         0.00000E+00        -0.20999E+07
 
    0.22329E+06         0.75171E-08         0.00000E+00
    0.75171E-08        -0.10723E+08         0.00000E+00
    0.00000E+00         0.00000E+00        -0.20999E+07
 
    0.22329E+06         0.00000E+00         0.00000E+00
    0.00000E+00        -0.10723E+08         0.00000E+00
    0.00000E+00         0.00000E+00        -0.20999E+07
 
    0.22329E+06         0.40477E-08         0.00000E+00
    0.40477E-08        -0.10723E+08         0.00000E+00
    0.00000E+00         0.00000E+00        -0.20999E+07
 
    0.22329E+06         0.11565E-08         0.00000E+00
    0.11565E-08        -0.10723E+08         0.00000E+00
    0.00000E+00         0.00000E+00        -0.20999E+07
 
    0.22329E+06         0.28912E-08         0.00000E+00
    0.28912E-08        -0.10723E+08         0.00000E+00
    0.00000E+00         0.00000E+00        -0.20999E+07
 
    0.22329E+06        -0.86736E-08         0.00000E+00
   -0.86736E-08        -0.10723E+08         0.00000E+00
    0.00000E+00         0.00000E+00        -0.20999E+07
 
    0.22329E+06        -0.23130E-08         0.00000E+00
   -0.23130E-08        -0.10723E+08         0.00000E+00
    0.00000E+00         0.00000E+00        -0.20999E+07
 
    0.22329E+06         0.34694E-08         0.00000E+00
    0.34694E-08        -0.10723E+08         0.00000E+00
    0.00000E+00         0.00000E+00        -0.20999E+07
 
    0.22329E+06         0.11565E-08         0.00000E+00
    0.11565E-08        -0.10723E+08         0.00000E+00
    0.00000E+00         0.00000E+00        -0.20999E+07
 
    0.22329E+06         0.17347E-08         0.00000E+00
    0.17347E-08        -0.10723E+08         0.00000E+00
    0.00000E+00         0.00000E+00        -0.20999E+07
 
    0.41888E+08        -0.86736E-08         0.00000E+00
   -0.86736E-08         0.15594E+09         0.00000E+00
    0.00000E+00         0.00000E+00         0.39566E+08
 
    0.22096E+06        -0.46259E-08         0.00000E+00
   -0.46259E-08        -0.10723E+08         0.00000E+00
    0.00000E+00         0.00000E+00        -0.21005E+07
 
    0.22096E+06        -0.17347E-08         0.00000E+00
   -0.17347E-08        -0.10723E+08         0.00000E+00
    0.00000E+00         0.00000E+00        -0.21005E+07
 
    0.22096E+06        -0.52042E-08         0.00000E+00
   -0.52042E-08        -0.10723E+08         0.00000E+00
    0.00000E+00         0.00000E+00        -0.21005E+07
 
    0.22096E+06         0.34694E-08         0.00000E+00
    0.34694E-08        -0.10723E+08         0.00000E+00
    0.00000E+00         0.00000E+00        -0.21005E+07
 
    0.22096E+06         0.23130E-08         0.00000E+00
    0.23130E-08        -0.10723E+08         0.00000E+00
    0.00000E+00         0.00000E+00        -0.21005E+07
 
    0.22096E+06         0.46259E-08         0.00000E+00
    0.46259E-08        -0.10723E+08         0.00000E+00
    0.00000E+00         0.00000E+00        -0.21005E+07
 
    0.22096E+06        -0.11565E-08         0.00000E+00
   -0.11565E-08        -0.10723E+08         0.00000E+00
    0.00000E+00         0.00000E+00        -0.21005E+07
 
    0.22096E+06         0.57824E-09         0.00000E+00
    0.57824E-09        -0.10723E+08         0.00000E+00
    0.00000E+00         0.00000E+00        -0.21005E+07
 
    0.22096E+06        -0.17347E-08         0.00000E+00
   -0.17347E-08        -0.10723E+08         0.00000E+00
    0.00000E+00         0.00000E+00        -0.21005E+07
 
    0.22096E+06         0.86736E-09         0.00000E+00
    0.86736E-09        -0.10723E+08         0.00000E+00
    0.00000E+00         0.00000E+00        -0.21005E+07
 
    0.22096E+06        -0.57824E-09         0.00000E+00
   -0.57824E-09        -0.10723E+08         0.00000E+00
    0.00000E+00         0.00000E+00        -0.21005E+07
 
    0.22096E+06        -0.57824E-08         0.00000E+00
   -0.57824E-08        -0.10723E+08         0.00000E+00
    0.00000E+00         0.00000E+00        -0.21005E+07
 
    0.22096E+06         0.11565E-08         0.00000E+00
    0.11565E-08        -0.10723E+08         0.00000E+00
    0.00000E+00         0.00000E+00        -0.21005E+07
 
    0.22096E+06        -0.23130E-08         0.00000E+00
   -0.23130E-08        -0.10723E+08         0.00000E+00
    0.00000E+00         0.00000E+00        -0.21005E+07
 
    0.41885E+08        -0.57824E-09         0.00000E+00
   -0.57824E-09         0.15594E+09         0.00000E+00
    0.00000E+00         0.00000E+00         0.39566E+08
 
    0.21853E+06         0.92519E-08         0.00000E+00
    0.92519E-08        -0.10724E+08         0.00000E+00
    0.00000E+00         0.00000E+00        -0.21011E+07
 
    0.21853E+06         0.46259E-08         0.00000E+00
    0.46259E-08        -0.10724E+08         0.00000E+00
    0.00000E+00         0.00000E+00        -0.21011E+07
 
    0.21853E+06         0.46259E-08         0.00000E+00
    0.46259E-08        -0.10724E+08         0.00000E+00
    0.00000E+00         0.00000E+00        -0.21011E+07
 
    0.21853E+06         0.57824E-08         0.00000E+00
    0.57824E-08        -0.10724E+08         0.00000E+00
    0.00000E+00         0.00000E+00        -0.21011E+07
 
    0.21853E+06        -0.23130E-08         0.00000E+00
   -0.23130E-08        -0.10724E+08         0.00000E+00
    0.00000E+00         0.00000E+00        -0.21011E+07
 
    0.21853E+06        -0.28912E-08         0.00000E+00
   -0.28912E-08        -0.10724E+08         0.00000E+00
    0.00000E+00         0.00000E+00        -0.21011E+07
 
    0.21853E+06         0.52042E-08         0.00000E+00
    0.52042E-08        -0.10724E+08         0.00000E+00
    0.00000E+00         0.00000E+00        -0.21011E+07
 
    0.21853E+06        -0.75171E-08         0.00000E+00
   -0.75171E-08        -0.10724E+08         0.00000E+00
    0.00000E+00         0.00000E+00        -0.21011E+07
 
    0.21853E+06         0.11565E-08         0.00000E+00
    0.11565E-08        -0.10724E+08         0.00000E+00
    0.00000E+00         0.00000E+00        -0.21011E+07
 
    0.21853E+06        -0.46259E-08         0.00000E+00
   -0.46259E-08        -0.10724E+08         0.00000E+00
    0.00000E+00         0.00000E+00        -0.21011E+07
 
    0.21853E+06         0.14456E-08         0.00000E+00
    0.14456E-08        -0.10724E+08         0.00000E+00
    0.00000E+00         0.00000E+00        -0.21011E+07
 
    0.21853E+06         0.34694E-08         0.00000E+00
    0.34694E-08        -0.10724E+08         0.00000E+00
    0.00000E+00         0.00000E+00        -0.21011E+07
 
    0.21853E+06         0.00000E+00         0.00000E+00
    0.00000E+00        -0.10724E+08         0.00000E+00
    0.00000E+00         0.00000E+00        -0.21011E+07
 
    0.21853E+06         0.17347E-08         0.00000E+00
    0.17347E-08        -0.10724E+08         0.00000E+00
    0.00000E+00         0.00000E+00        -0.21011E+07
 
    0.41883E+08        -0.50885E-07         0.00000E+00
   -0.50885E-07         0.15594E+09         0.00000E+00
    0.00000E+00         0.00000E+00         0.39565E+08
 
    0.21602E+06        -0.17347E-08         0.00000E+00
   -0.17347E-08        -0.10725E+08         0.00000E+00
    0.00000E+00         0.00000E+00        -0.21017E+07
 
    0.21602E+06         0.69389E-08         0.00000E+00
    0.69389E-08        -0.10725E+08         0.00000E+00
    0.00000E+00         0.00000E+00        -0.21017E+07
 
    0.21602E+06        -0.63607E-08         0.00000E+00
   -0.63607E-08        -0.10725E+08         0.00000E+00
    0.00000E+00         0.00000E+00        -0.21017E+07
 
    0.21602E+06         0.28912E-08         0.00000E+00
    0.28912E-08        -0.10725E+08         0.00000E+00
    0.00000E+00         0.00000E+00        -0.21017E+07
 
    0.21602E+06        -0.28912E-08         0.00000E+00
   -0.28912E-08        -0.10725E+08         0.00000E+00
    0.00000E+00         0.00000E+00        -0.21017E+07
 
    0.21602E+06         0.75171E-08         0.00000E+00
    0.75171E-08        -0.10725E+08         0.00000E+00
    0.00000E+00         0.00000E+00        -0.21017E+07
 
    0.21602E+06         0.80954E-08         0.00000E+00
    0.80954E-08        -0.10725E+08         0.00000E+00
    0.00000E+00         0.00000E+00        -0.21017E+07
 
    0.21602E+06        -0.23130E-08         0.00000E+00
   -0.23130E-08        -0.10725E+08         0.00000E+00
    0.00000E+00         0.00000E+00        -0.21017E+07
 
    0.21602E+06         0.52042E-08         0.00000E+00
    0.52042E-08        -0.10725E+08         0.00000E+00
    0.00000E+00         0.00000E+00        -0.21017E+07
 
    0.21602E+06        -0.10987E-07         0.00000E+00
   -0.10987E-07        -0.10725E+08         0.00000E+00
    0.00000E+00         0.00000E+00        -0.21017E+07
 
    0.21602E+06         0.63607E-08         0.00000E+00
    0.63607E-08        -0.10725E+08         0.00000E+00
    0.00000E+00         0.00000E+00        -0.21017E+07
 
    0.21602E+06        -0.46259E-08         0.00000E+00
   -0.46259E-08        -0.10725E+08         0.00000E+00
    0.00000E+00         0.00000E+00        -0.21017E+07
 
    0.21602E+06        -0.98301E-08         0.00000E+00
   -0.98301E-08        -0.10725E+08         0.00000E+00
    0.00000E+00         0.00000E+00        -0.21017E+07
 
    0.21602E+06         0.34694E-08         0.00000E+00
    0.34694E-08        -0.10725E+08         0.00000E+00
    0.00000E+00         0.00000E+00        -0.21017E+07
 
    0.41880E+08        -0.11565E-08         0.00000E+00
   -0.11565E-08         0.15594E+09         0.00000E+00
    0.00000E+00         0.00000E+00         0.39564E+08
 
    0.21342E+06        -0.86736E-08         0.00000E+00
   -0.86736E-08        -0.10725E+08         0.00000E+00
    0.00000E+00         0.00000E+00        -0.21024E+07
 
    0.21342E+06         0.63607E-08         0.00000E+00
    0.63607E-08        -0.10725E+08         0.00000E+00
    0.00000E+00         0.00000E+00        -0.21024E+07
 
    0.21342E+06         0.34694E-08         0.00000E+00
    0.34694E-08        -0.10725E+08         0.00000E+00
    0.00000E+00         0.00000E+00        -0.21024E+07
 
    0.21342E+06        -0.57824E-09         0.00000E+00
   -0.57824E-09        -0.10725E+08         0.00000E+00
    0.00000E+00         0.00000E+00        -0.21024E+07
 
    0.21342E+06        -0.52042E-08         0.00000E+00
   -0.52042E-08        -0.10725E+08         0.00000E+00
    0.00000E+00         0.00000E+00        -0.21024E+07
 
    0.21342E+06         0.11565E-07         0.00000E+00
    0.11565E-07        -0.10725E+08         0.00000E+00
    0.00000E+00         0.00000E+00        -0.21024E+07
 
    0.21342E+06         0.52042E-08         0.00000E+00
    0.52042E-08        -0.10725E+08         0.00000E+00
    0.00000E+00         0.00000E+00        -0.21024E+07
 
    0.21342E+06         0.17925E-07         0.00000E+00
    0.17925E-07        -0.10725E+08         0.00000E+00
    0.00000E+00         0.00000E+00        -0.21024E+07
 
    0.21342E+06         0.23130E-08         0.00000E+00
    0.23130E-08        -0.10725E+08         0.00000E+00
    0.00000E+00         0.00000E+00        -0.21024E+07
 
    0.21342E+06         0.14456E-08         0.00000E+00
    0.14456E-08        -0.10725E+08         0.00000E+00
    0.00000E+00         0.00000E+00        -0.21024E+07
 
    0.21342E+06        -0.34694E-08         0.00000E+00
   -0.34694E-08        -0.10725E+08         0.00000E+00
    0.00000E+00         0.00000E+00        -0.21024E+07
 
    0.21342E+06        -0.34694E-08         0.00000E+00
   -0.34694E-08        -0.10725E+08         0.00000E+00
    0.00000E+00         0.00000E+00        -0.21024E+07
 
    0.21342E+06        -0.63607E-08         0.00000E+00
   -0.63607E-08        -0.10725E+08         0.00000E+00
    0.00000E+00         0.00000E+00        -0.21024E+07
 
    0.21342E+06         0.63607E-08         0.00000E+00
    0.63607E-08        -0.10725E+08         0.00000E+00
    0.00000E+00         0.00000E+00        -0.21024E+07
 
    0.41877E+08         0.44525E-07         0.00000E+00
    0.44525E-07         0.15594E+09         0.00000E+00
    0.00000E+00         0.00000E+00         0.39564E+08
 
    0.21074E+06        -0.69389E-08         0.00000E+00
   -0.69389E-08        -0.10726E+08         0.00000E+00
    0.00000E+00         0.00000E+00        -0.21030E+07
 
    0.21074E+06         0.00000E+00         0.00000E+00
    0.00000E+00        -0.10726E+08         0.00000E+00
    0.00000E+00         0.00000E+00        -0.21030E+07
 
    0.21074E+06        -0.17347E-08         0.00000E+00
   -0.17347E-08        -0.10726E+08         0.00000E+00
    0.00000E+00         0.00000E+00        -0.21030E+07
 
    0.21074E+06         0.40477E-08         0.00000E+00
    0.40477E-08        -0.10726E+08         0.00000E+00
    0.00000E+00         0.00000E+00        -0.21030E+07
 
    0.21074E+06         0.57824E-08         0.00000E+00
    0.57824E-08        -0.10726E+08         0.00000E+00
    0.00000E+00         0.00000E+00        -0.21030E+07
 
    0.21074E+06         0.80954E-08         0.00000E+00
    0.80954E-08        -0.10726E+08         0.00000E+00
    0.00000E+00         0.00000E+00        -0.21030E+07
 
    0.21074E+06         0.13300E-07         0.00000E+00
    0.13300E-07        -0.10726E+08         0.00000E+00
    0.00000E+00         0.00000E+00        -0.21030E+07
 
    0.21074E+06        -0.46259E-08         0.00000E+00
   -0.46259E-08        -0.10726E+08         0.00000E+00
    0.00000E+00         0.00000E+00        -0.21030E+07
 
    0.21074E+06         0.57824E-08         0.00000E+00
    0.57824E-08        -0.10726E+08         0.00000E+00
    0.00000E+00         0.00000E+00        -0.21030E+07
 
    0.21074E+06         0.75171E-08         0.00000E+00
    0.75171E-08        -0.10726E+08         0.00000E+00
    0.00000E+00         0.00000E+00        -0.21030E+07
 
    0.21074E+06         0.80954E-08         0.00000E+00
    0.80954E-08        -0.10726E+08         0.00000E+00
    0.00000E+00         0.00000E+00        -0.21030E+07
 
    0.21074E+06         0.69389E-08         0.00000E+00
    0.69389E-08        -0.10726E+08         0.00000E+00
    0.00000E+00         0.00000E+00        -0.21030E+07
 
    0.21074E+06         0.63607E-08         0.00000E+00
    0.63607E-08        -0.10726E+08         0.00000E+00
    0.00000E+00         0.00000E+00        -0.21030E+07
 
    0.21074E+06         0.17347E-08         0.00000E+00
    0.17347E-08        -0.10726E+08         0.00000E+00
    0.00000E+00         0.00000E+00        -0.21030E+07
 
    0.41875E+08        -0.63028E-07         0.00000E+00
   -0.63028E-07         0.15594E+09         0.00000E+00
    0.00000E+00         0.00000E+00         0.39563E+08
 
    0.20795E+06        -0.63607E-08         0.00000E+00
   -0.63607E-08        -0.10727E+08         0.00000E+00
    0.00000E+00         0.00000E+00        -0.21037E+07
 
    0.20795E+06         0.28912E-08         0.00000E+00
    0.28912E-08        -0.10727E+08         0.00000E+00
    0.00000E+00         0.00000E+00        -0.21037E+07
 
    0.20795E+06        -0.28912E-08         0.00000E+00
   -0.28912E-08        -0.10727E+08         0.00000E+00
    0.00000E+00         0.00000E+00        -0.21037E+07
 
    0.20795E+06         0.63607E-08         0.00000E+00
    0.63607E-08        -0.10727E+08         0.00000E+00
    0.00000E+00         0.00000E+00        -0.21037E+07
 
    0.20795E+06        -0.57824E-09         0.00000E+00
   -0.57824E-09        -0.10727E+08         0.00000E+00
    0.00000E+00         0.00000E+00        -0.21037E+07
 
    0.20795E+06        -0.75171E-08         0.00000E+00
   -0.75171E-08        -0.10727E+08         0.00000E+00
    0.00000E+00         0.00000E+00        -0.21037E+07
 
    0.20795E+06        -0.40477E-08         0.00000E+00
   -0.40477E-08        -0.10727E+08         0.00000E+00
    0.00000E+00         0.00000E+00        -0.21037E+07
 
    0.20795E+06        -0.23130E-08         0.00000E+00
   -0.23130E-08        -0.10727E+08         0.00000E+00
    0.00000E+00         0.00000E+00        -0.21037E+07
 
    0.20795E+06        -0.75171E-08         0.00000E+00
   -0.75171E-08        -0.10727E+08         0.00000E+00
    0.00000E+00         0.00000E+00        -0.21037E+07
 
    0.20795E+06         0.43368E-08         0.00000E+00
    0.43368E-08        -0.10727E+08         0.00000E+00
    0.00000E+00         0.00000E+00        -0.21037E+07
 
    0.20795E+06         0.21973E-07         0.00000E+00
    0.21973E-07        -0.10727E+08         0.00000E+00
    0.00000E+00         0.00000E+00        -0.21037E+07
 
    0.20795E+06         0.63607E-08         0.00000E+00
    0.63607E-08        -0.10727E+08         0.00000E+00
    0.00000E+00         0.00000E+00        -0.21037E+07
 
    0.20795E+06        -0.23130E-08         0.00000E+00
   -0.23130E-08        -0.10727E+08         0.00000E+00
    0.00000E+00         0.00000E+00        -0.21037E+07
 
    0.20795E+06         0.57824E-09         0.00000E+00
    0.57824E-09        -0.10727E+08         0.00000E+00
    0.00000E+00         0.00000E+00        -0.21037E+07
 
    0.41872E+08         0.41633E-07         0.00000E+00
    0.41633E-07         0.15594E+09         0.00000E+00
    0.00000E+00         0.00000E+00         0.39562E+08
 
    0.20508E+06         0.23130E-08         0.00000E+00
    0.23130E-08        -0.10727E+08         0.00000E+00
    0.00000E+00         0.00000E+00        -0.21045E+07
 
    0.20508E+06         0.86736E-08         0.00000E+00
    0.86736E-08        -0.10727E+08         0.00000E+00
    0.00000E+00         0.00000E+00        -0.21045E+07
 
    0.20508E+06        -0.16769E-07         0.00000E+00
   -0.16769E-07        -0.10727E+08         0.00000E+00
    0.00000E+00         0.00000E+00        -0.21045E+07
 
    0.20508E+06        -0.57824E-09         0.00000E+00
   -0.57824E-09        -0.10727E+08         0.00000E+00
    0.00000E+00         0.00000E+00        -0.21045E+07
 
    0.20508E+06        -0.57824E-08         0.00000E+00
   -0.57824E-08        -0.10727E+08         0.00000E+00
    0.00000E+00         0.00000E+00        -0.21045E+07
 
    0.20508E+06         0.57824E-08         0.00000E+00
    0.57824E-08        -0.10727E+08         0.00000E+00
    0.00000E+00         0.00000E+00        -0.21045E+07
 
    0.20508E+06        -0.14456E-07         0.00000E+00
   -0.14456E-07        -0.10727E+08         0.00000E+00
    0.00000E+00         0.00000E+00        -0.21045E+07
 
    0.20508E+06         0.11565E-08         0.00000E+00
    0.11565E-08        -0.10727E+08         0.00000E+00
    0.00000E+00         0.00000E+00        -0.21045E+07
 
    0.20508E+06         0.17347E-08         0.00000E+00
    0.17347E-08        -0.10727E+08         0.00000E+00
    0.00000E+00         0.00000E+00        -0.21045E+07
 
    0.20508E+06        -0.83845E-08         0.00000E+00
   -0.83845E-08        -0.10727E+08         0.00000E+00
    0.00000E+00         0.00000E+00        -0.21045E+07
 
    0.20508E+06        -0.40477E-08         0.00000E+00
   -0.40477E-08        -0.10727E+08         0.00000E+00
    0.00000E+00         0.00000E+00        -0.21045E+07
 
    0.20508E+06         0.17347E-08         0.00000E+00
    0.17347E-08        -0.10727E+08         0.00000E+00
    0.00000E+00         0.00000E+00        -0.21045E+07
 
    0.20508E+06         0.17347E-08         0.00000E+00
    0.17347E-08        -0.10727E+08         0.00000E+00
    0.00000E+00         0.00000E+00        -0.21045E+07
 
    0.20508E+06        -0.11565E-08         0.00000E+00
   -0.11565E-08        -0.10727E+08         0.00000E+00
    0.00000E+00         0.00000E+00        -0.21045E+07
 
    0.41869E+08         0.17347E-07         0.00000E+00
    0.17347E-07         0.15594E+09         0.00000E+00
    0.00000E+00         0.00000E+00         0.39561E+08
 
    0.20210E+06         0.75171E-08         0.00000E+00
    0.75171E-08        -0.10728E+08         0.00000E+00
    0.00000E+00         0.00000E+00        -0.21052E+07
 
    0.20210E+06         0.57824E-08         0.00000E+00
    0.57824E-08        -0.10728E+08         0.00000E+00
    0.00000E+00         0.00000E+00        -0.21052E+07
 
    0.20210E+06        -0.13878E-07         0.00000E+00
   -0.13878E-07        -0.10728E+08         0.00000E+00
    0.00000E+00         0.00000E+00        -0.21052E+07
 
    0.20210E+06         0.16769E-07         0.00000E+00
    0.16769E-07        -0.10728E+08         0.00000E+00
    0.00000E+00         0.00000E+00        -0.21052E+07
 
    0.20210E+06        -0.57824E-08         0.00000E+00
   -0.57824E-08        -0.10728E+08         0.00000E+00
    0.00000E+00         0.00000E+00        -0.21052E+07
 
    0.20210E+06         0.15613E-07         0.00000E+00
    0.15613E-07        -0.10728E+08         0.00000E+00
    0.00000E+00         0.00000E+00        -0.21052E+07
 
    0.20210E+06        -0.12143E-07         0.00000E+00
   -0.12143E-07        -0.10728E+08         0.00000E+00
    0.00000E+00         0.00000E+00        -0.21052E+07
 
    0.20210E+06        -0.28912E-08         0.00000E+00
   -0.28912E-08        -0.10728E+08         0.00000E+00
    0.00000E+00         0.00000E+00        -0.21052E+07
 
    0.20210E+06         0.75171E-08         0.00000E+00
    0.75171E-08        -0.10728E+08         0.00000E+00
    0.00000E+00         0.00000E+00        -0.21052E+07
 
    0.20210E+06        -0.28912E-08         0.00000E+00
   -0.28912E-08        -0.10728E+08         0.00000E+00
    0.00000E+00         0.00000E+00        -0.21052E+07
 
    0.20210E+06        -0.11565E-08         0.00000E+00
   -0.11565E-08        -0.10728E+08         0.00000E+00
    0.00000E+00         0.00000E+00        -0.21052E+07
 
    0.20210E+06         0.00000E+00         0.00000E+00
    0.00000E+00        -0.10728E+08         0.00000E+00
    0.00000E+00         0.00000E+00        -0.21052E+07
 
    0.20210E+06        -0.46259E-08         0.00000E+00
   -0.46259E-08        -0.10728E+08         0.00000E+00
    0.00000E+00         0.00000E+00        -0.21052E+07
 
    0.20210E+06        -0.11565E-08         0.00000E+00
   -0.11565E-08        -0.10728E+08         0.00000E+00
    0.00000E+00         0.00000E+00        -0.21052E+07
 
    0.41866E+08        -0.61872E-07         0.00000E+00
   -0.61872E-07         0.15594E+09         0.00000E+00
    0.00000E+00         0.00000E+00         0.39561E+08
 
    0.19903E+06        -0.34694E-08         0.00000E+00
   -0.34694E-08        -0.10729E+08         0.00000E+00
    0.00000E+00         0.00000E+00        -0.21060E+07
 
    0.19903E+06        -0.34694E-08         0.00000E+00
   -0.34694E-08        -0.10729E+08         0.00000E+00
    0.00000E+00         0.00000E+00        -0.21060E+07
 
    0.19903E+06        -0.11565E-08         0.00000E+00
   -0.11565E-08        -0.10729E+08         0.00000E+00
    0.00000E+00         0.00000E+00        -0.21060E+07
 
    0.19903E+06        -0.17347E-08         0.00000E+00
   -0.17347E-08        -0.10729E+08         0.00000E+00
    0.00000E+00         0.00000E+00        -0.21060E+07
 
    0.19903E+06         0.28912E-08         0.00000E+00
    0.28912E-08        -0.10729E+08         0.00000E+00
    0.00000E+00         0.00000E+00        -0.21060E+07
 
    0.19903E+06         0.34694E-08         0.00000E+00
    0.34694E-08        -0.10729E+08         0.00000E+00
    0.00000E+00         0.00000E+00        -0.21060E+07
 
    0.19903E+06         0.75171E-08         0.00000E+00
    0.75171E-08        -0.10729E+08         0.00000E+00
    0.00000E+00         0.00000E+00        -0.21060E+07
 
    0.19903E+06        -0.57824E-09         0.00000E+00
   -0.57824E-09        -0.10729E+08         0.00000E+00
    0.00000E+00         0.00000E+00        -0.21060E+07
 
    0.19903E+06        -0.11565E-08         0.00000E+00
   -0.11565E-08        -0.10729E+08         0.00000E+00
    0.00000E+00         0.00000E+00        -0.21060E+07
 
    0.19903E+06         0.17347E-08         0.00000E+00
    0.17347E-08        -0.10729E+08         0.00000E+00
    0.00000E+00         0.00000E+00        -0.21060E+07
 
    0.19903E+06        -0.52042E-08         0.00000E+00
   -0.52042E-08        -0.10729E+08         0.00000E+00
    0.00000E+00         0.00000E+00        -0.21060E+07
 
    0.19903E+06        -0.17347E-08         0.00000E+00
   -0.17347E-08        -0.10729E+08         0.00000E+00
    0.00000E+00         0.00000E+00        -0.21060E+07
 
    0.19903E+06        -0.17347E-08         0.00000E+00
   -0.17347E-08        -0.10729E+08         0.00000E+00
    0.00000E+00         0.00000E+00        -0.21060E+07
 
    0.19903E+06         0.57824E-08         0.00000E+00
    0.57824E-08        -0.10729E+08         0.00000E+00
    0.00000E+00         0.00000E+00        -0.21060E+07
 
    0.41863E+08        -0.57824E-09         0.00000E+00
   -0.57824E-09         0.15594E+09         0.00000E+00
    0.00000E+00         0.00000E+00         0.39560E+08
 
    0.19586E+06         0.11565E-07         0.00000E+00
    0.11565E-07        -0.10730E+08         0.00000E+00
    0.00000E+00         0.00000E+00        -0.21068E+07
 
    0.19586E+06        -0.92519E-08         0.00000E+00
   -0.92519E-08        -0.10730E+08         0.00000E+00
    0.00000E+00         0.00000E+00        -0.21068E+07
 
    0.19586E+06         0.11565E-08         0.00000E+00
    0.11565E-08        -0.10730E+08         0.00000E+00
    0.00000E+00         0.00000E+00        -0.21068E+07
 
    0.19586E+06        -0.92519E-08         0.00000E+00
   -0.92519E-08        -0.10730E+08         0.00000E+00
    0.00000E+00         0.00000E+00        -0.21068E+07
 
    0.19586E+06        -0.52042E-08         0.00000E+00
   -0.52042E-08        -0.10730E+08         0.00000E+00
    0.00000E+00         0.00000E+00        -0.21068E+07
 
    0.19586E+06         0.52042E-08         0.00000E+00
    0.52042E-08        -0.10730E+08         0.00000E+00
    0.00000E+00         0.00000E+00        -0.21068E+07
 
    0.19586E+06         0.52042E-08         0.00000E+00
    0.52042E-08        -0.10730E+08         0.00000E+00
    0.00000E+00         0.00000E+00        -0.21068E+07
 
    0.19586E+06         0.34694E-08         0.00000E+00
    0.34694E-08        -0.10730E+08         0.00000E+00
    0.00000E+00         0.00000E+00        -0.21068E+07
 
    0.19586E+06        -0.13878E-07         0.00000E+00
   -0.13878E-07        -0.10730E+08         0.00000E+00
    0.00000E+00         0.00000E+00        -0.21068E+07
 
    0.19586E+06         0.80954E-08         0.00000E+00
    0.80954E-08        -0.10730E+08         0.00000E+00
    0.00000E+00         0.00000E+00        -0.21068E+07
 
    0.19586E+06        -0.34694E-08         0.00000E+00
   -0.34694E-08        -0.10730E+08         0.00000E+00
    0.00000E+00         0.00000E+00        -0.21068E+07
 
    0.19586E+06        -0.28912E-08         0.00000E+00
   -0.28912E-08        -0.10730E+08         0.00000E+00
    0.00000E+00         0.00000E+00        -0.21068E+07
 
    0.19586E+06        -0.80954E-08         0.00000E+00
   -0.80954E-08        -0.10730E+08         0.00000E+00
    0.00000E+00         0.00000E+00        -0.21068E+07
 
    0.19586E+06        -0.17347E-08         0.00000E+00
   -0.17347E-08        -0.10730E+08         0.00000E+00
    0.00000E+00         0.00000E+00        -0.21068E+07
 
    0.41859E+08         0.46259E-08         0.00000E+00
    0.46259E-08         0.15594E+09         0.00000E+00
    0.00000E+00         0.00000E+00         0.39559E+08
 
    0.19259E+06         0.12721E-07         0.00000E+00
    0.12721E-07        -0.10730E+08         0.00000E+00
    0.00000E+00         0.00000E+00        -0.21076E+07
 
    0.19259E+06         0.00000E+00         0.00000E+00
    0.00000E+00        -0.10730E+08         0.00000E+00
    0.00000E+00         0.00000E+00        -0.21076E+07
 
    0.19259E+06         0.80954E-08         0.00000E+00
    0.80954E-08        -0.10730E+08         0.00000E+00
    0.00000E+00         0.00000E+00        -0.21076E+07
 
    0.19259E+06         0.16191E-07         0.00000E+00
    0.16191E-07        -0.10730E+08         0.00000E+00
    0.00000E+00         0.00000E+00        -0.21076E+07
 
    0.19259E+06        -0.10987E-07         0.00000E+00
   -0.10987E-07        -0.10730E+08         0.00000E+00
    0.00000E+00         0.00000E+00        -0.21076E+07
 
    0.19259E+06        -0.80954E-08         0.00000E+00
   -0.80954E-08        -0.10730E+08         0.00000E+00
    0.00000E+00         0.00000E+00        -0.21076E+07
 
    0.19259E+06        -0.57824E-08         0.00000E+00
   -0.57824E-08        -0.10730E+08         0.00000E+00
    0.00000E+00         0.00000E+00        -0.21076E+07
 
    0.19259E+06         0.63607E-08         0.00000E+00
    0.63607E-08        -0.10730E+08         0.00000E+00
    0.00000E+00         0.00000E+00        -0.21076E+07
 
    0.19259E+06         0.57824E-08         0.00000E+00
    0.57824E-08        -0.10730E+08         0.00000E+00
    0.00000E+00         0.00000E+00        -0.21076E+07
 
    0.19259E+06         0.57824E-09         0.00000E+00
    0.57824E-09        -0.10730E+08         0.00000E+00
    0.00000E+00         0.00000E+00        -0.21076E+07
 
    0.19259E+06         0.11565E-08         0.00000E+00
    0.11565E-08        -0.10730E+08         0.00000E+00
    0.00000E+00         0.00000E+00        -0.21076E+07
 
    0.19259E+06        -0.23130E-08         0.00000E+00
   -0.23130E-08        -0.10730E+08         0.00000E+00
    0.00000E+00         0.00000E+00        -0.21076E+07
 
    0.19259E+06        -0.40477E-08         0.00000E+00
   -0.40477E-08        -0.10730E+08         0.00000E+00
    0.00000E+00         0.00000E+00        -0.21076E+07
 
    0.19259E+06         0.00000E+00         0.00000E+00
    0.00000E+00        -0.10730E+08         0.00000E+00
    0.00000E+00         0.00000E+00        -0.21076E+07
 
    0.41856E+08         0.52042E-07         0.00000E+00
    0.52042E-07         0.15594E+09         0.00000E+00
    0.00000E+00         0.00000E+00         0.39558E+08
 
    0.18921E+06        -0.69389E-08         0.00000E+00
   -0.69389E-08        -0.10731E+08         0.00000E+00
    0.00000E+00         0.00000E+00        -0.21084E+07
 
    0.18921E+06        -0.11565E-08         0.00000E+00
   -0.11565E-08        -0.10731E+08         0.00000E+00
    0.00000E+00         0.00000E+00        -0.21084E+07
 
    0.18921E+06        -0.63607E-08         0.00000E+00
   -0.63607E-08        -0.10731E+08         0.00000E+00
    0.00000E+00         0.00000E+00        -0.21084E+07
 
    0.18921E+06         0.63607E-08         0.00000E+00
    0.63607E-08        -0.10731E+08         0.00000E+00
    0.00000E+00         0.00000E+00        -0.21084E+07
 
    0.18921E+06        -0.52042E-08         0.00000E+00
   -0.52042E-08        -0.10731E+08         0.00000E+00
    0.00000E+00         0.00000E+00        -0.21084E+07
 
    0.18921E+06        -0.28912E-08         0.00000E+00
   -0.28912E-08        -0.10731E+08         0.00000E+00
    0.00000E+00         0.00000E+00        -0.21084E+07
 
    0.18921E+06        -0.63607E-08         0.00000E+00
   -0.63607E-08        -0.10731E+08         0.00000E+00
    0.00000E+00         0.00000E+00        -0.21084E+07
 
    0.18921E+06        -0.17347E-08         0.00000E+00
   -0.17347E-08        -0.10731E+08         0.00000E+00
    0.00000E+00         0.00000E+00        -0.21084E+07
 
    0.18921E+06        -0.52042E-08         0.00000E+00
   -0.52042E-08        -0.10731E+08         0.00000E+00
    0.00000E+00         0.00000E+00        -0.21084E+07
 
    0.18921E+06        -0.57824E-08         0.00000E+00
   -0.57824E-08        -0.10731E+08         0.00000E+00
    0.00000E+00         0.00000E+00        -0.21084E+07
 
    0.18921E+06        -0.98301E-08         0.00000E+00
   -0.98301E-08        -0.10731E+08         0.00000E+00
    0.00000E+00         0.00000E+00        -0.21084E+07
 
    0.18921E+06        -0.34694E-08         0.00000E+00
   -0.34694E-08        -0.10731E+08         0.00000E+00
    0.00000E+00         0.00000E+00        -0.21084E+07
 
    0.18921E+06        -0.11565E-08         0.00000E+00
   -0.11565E-08        -0.10731E+08         0.00000E+00
    0.00000E+00         0.00000E+00        -0.21084E+07
 
    0.18921E+06         0.11565E-08         0.00000E+00
    0.11565E-08        -0.10731E+08         0.00000E+00
    0.00000E+00         0.00000E+00        -0.21084E+07
 
    0.41852E+08        -0.41633E-07         0.00000E+00
   -0.41633E-07         0.15593E+09         0.00000E+00
    0.00000E+00         0.00000E+00         0.39557E+08
 
    0.18573E+06         0.80954E-08         0.00000E+00
    0.80954E-08        -0.10732E+08         0.00000E+00
    0.00000E+00         0.00000E+00        -0.21093E+07
 
    0.18573E+06         0.13878E-07         0.00000E+00
    0.13878E-07        -0.10732E+08         0.00000E+00
    0.00000E+00         0.00000E+00        -0.21093E+07
 
    0.18573E+06         0.34694E-08         0.00000E+00
    0.34694E-08        -0.10732E+08         0.00000E+00
    0.00000E+00         0.00000E+00        -0.21093E+07
 
    0.18573E+06         0.40477E-08         0.00000E+00
    0.40477E-08        -0.10732E+08         0.00000E+00
    0.00000E+00         0.00000E+00        -0.21093E+07
 
    0.18573E+06         0.13878E-07         0.00000E+00
    0.13878E-07        -0.10732E+08         0.00000E+00
    0.00000E+00         0.00000E+00        -0.21093E+07
 
    0.18573E+06        -0.17347E-08         0.00000E+00
   -0.17347E-08        -0.10732E+08         0.00000E+00
    0.00000E+00         0.00000E+00        -0.21093E+07
 
    0.18573E+06        -0.63607E-08         0.00000E+00
   -0.63607E-08        -0.10732E+08         0.00000E+00
    0.00000E+00         0.00000E+00        -0.21093E+07
 
    0.18573E+06        -0.57824E-08         0.00000E+00
   -0.57824E-08        -0.10732E+08         0.00000E+00
    0.00000E+00         0.00000E+00        -0.21093E+07
 
    0.18573E+06        -0.98301E-08         0.00000E+00
   -0.98301E-08        -0.10732E+08         0.00000E+00
    0.00000E+00         0.00000E+00        -0.21093E+07
 
    0.18573E+06        -0.28912E-08         0.00000E+00
   -0.28912E-08        -0.10732E+08         0.00000E+00
    0.00000E+00         0.00000E+00        -0.21093E+07
 
    0.18573E+06         0.63607E-08         0.00000E+00
    0.63607E-08        -0.10732E+08         0.00000E+00
    0.00000E+00         0.00000E+00        -0.21093E+07
 
    0.18573E+06        -0.46259E-08         0.00000E+00
   -0.46259E-08        -0.10732E+08         0.00000E+00
    0.00000E+00         0.00000E+00        -0.21093E+07
 
    0.18573E+06         0.11565E-08         0.00000E+00
    0.11565E-08        -0.10732E+08         0.00000E+00
    0.00000E+00         0.00000E+00        -0.21093E+07
 
    0.18573E+06        -0.69389E-08         0.00000E+00
   -0.69389E-08        -0.10732E+08         0.00000E+00
    0.00000E+00         0.00000E+00        -0.21093E+07
 
    0.41849E+08         0.67076E-07         0.00000E+00
    0.67076E-07         0.15593E+09         0.00000E+00
    0.00000E+00         0.00000E+00         0.39556E+08
 
    0.18214E+06         0.57824E-08         0.00000E+00
    0.57824E-08        -0.10733E+08         0.00000E+00
    0.00000E+00         0.00000E+00        -0.21102E+07
 
    0.18214E+06         0.82718E-24         0.00000E+00
    0.82718E-24        -0.10733E+08         0.00000E+00
    0.00000E+00         0.00000E+00        -0.21102E+07
 
    0.18214E+06         0.15034E-07         0.00000E+00
    0.15034E-07        -0.10733E+08         0.00000E+00
    0.00000E+00         0.00000E+00        -0.21102E+07
 
    0.18214E+06        -0.52042E-08         0.00000E+00
   -0.52042E-08        -0.10733E+08         0.00000E+00
    0.00000E+00         0.00000E+00        -0.21102E+07
 
    0.18214E+06        -0.57824E-08         0.00000E+00
   -0.57824E-08        -0.10733E+08         0.00000E+00
    0.00000E+00         0.00000E+00        -0.21102E+07
 
    0.18214E+06        -0.46259E-08         0.00000E+00
   -0.46259E-08        -0.10733E+08         0.00000E+00
    0.00000E+00         0.00000E+00        -0.21102E+07
 
    0.18214E+06        -0.11565E-08         0.00000E+00
   -0.11565E-08        -0.10733E+08         0.00000E+00
    0.00000E+00         0.00000E+00        -0.21102E+07
 
    0.18214E+06         0.11565E-08         0.00000E+00
    0.11565E-08        -0.10733E+08         0.00000E+00
    0.00000E+00         0.00000E+00        -0.21102E+07
 
    0.18214E+06        -0.10408E-07         0.00000E+00
   -0.10408E-07        -0.10733E+08         0.00000E+00
    0.00000E+00         0.00000E+00        -0.21102E+07
 
    0.18214E+06        -0.17347E-08         0.00000E+00
   -0.17347E-08        -0.10733E+08         0.00000E+00
    0.00000E+00         0.00000E+00        -0.21102E+07
 
    0.18214E+06         0.10408E-07         0.00000E+00
    0.10408E-07        -0.10733E+08         0.00000E+00
    0.00000E+00         0.00000E+00        -0.21102E+07
 
    0.18214E+06        -0.80954E-08         0.00000E+00
   -0.80954E-08        -0.10733E+08         0.00000E+00
    0.00000E+00         0.00000E+00        -0.21102E+07
 
    0.18214E+06        -0.69389E-08         0.00000E+00
   -0.69389E-08        -0.10733E+08         0.00000E+00
    0.00000E+00         0.00000E+00        -0.21102E+07
 
    0.18214E+06         0.80954E-08         0.00000E+00
    0.80954E-08        -0.10733E+08         0.00000E+00
    0.00000E+00         0.00000E+00        -0.21102E+07
 
    0.41845E+08        -0.61294E-07         0.00000E+00
   -0.61294E-07         0.15593E+09         0.00000E+00
    0.00000E+00         0.00000E+00         0.39556E+08
 
    0.17844E+06         0.69389E-08         0.00000E+00
    0.69389E-08        -0.10734E+08         0.00000E+00
    0.00000E+00         0.00000E+00        -0.21111E+07
 
    0.17844E+06        -0.17925E-07         0.00000E+00
   -0.17925E-07        -0.10734E+08         0.00000E+00
    0.00000E+00         0.00000E+00        -0.21111E+07
 
    0.17844E+06        -0.15613E-07         0.00000E+00
   -0.15613E-07        -0.10734E+08         0.00000E+00
    0.00000E+00         0.00000E+00        -0.21111E+07
 
    0.17844E+06        -0.46259E-08         0.00000E+00
   -0.46259E-08        -0.10734E+08         0.00000E+00
    0.00000E+00         0.00000E+00        -0.21111E+07
 
    0.17844E+06        -0.10987E-07         0.00000E+00
   -0.10987E-07        -0.10734E+08         0.00000E+00
    0.00000E+00         0.00000E+00        -0.21111E+07
 
    0.17844E+06        -0.40477E-08         0.00000E+00
   -0.40477E-08        -0.10734E+08         0.00000E+00
    0.00000E+00         0.00000E+00        -0.21111E+07
 
    0.17844E+06        -0.11565E-08         0.00000E+00
   -0.11565E-08        -0.10734E+08         0.00000E+00
    0.00000E+00         0.00000E+00        -0.21111E+07
 
    0.17844E+06        -0.11565E-08         0.00000E+00
   -0.11565E-08        -0.10734E+08         0.00000E+00
    0.00000E+00         0.00000E+00        -0.21111E+07
 
    0.17844E+06        -0.52042E-08         0.00000E+00
   -0.52042E-08        -0.10734E+08         0.00000E+00
    0.00000E+00         0.00000E+00        -0.21111E+07
 
    0.17844E+06        -0.63607E-08         0.00000E+00
   -0.63607E-08        -0.10734E+08         0.00000E+00
    0.00000E+00         0.00000E+00        -0.21111E+07
 
    0.17844E+06        -0.15034E-07         0.00000E+00
   -0.15034E-07        -0.10734E+08         0.00000E+00
    0.00000E+00         0.00000E+00        -0.21111E+07
 
    0.17844E+06        -0.80954E-08         0.00000E+00
   -0.80954E-08        -0.10734E+08         0.00000E+00
    0.00000E+00         0.00000E+00        -0.21111E+07
 
    0.17844E+06        -0.11565E-08         0.00000E+00
   -0.11565E-08        -0.10734E+08         0.00000E+00
    0.00000E+00         0.00000E+00        -0.21111E+07
 
    0.17844E+06         0.11565E-07         0.00000E+00
    0.11565E-07        -0.10734E+08         0.00000E+00
    0.00000E+00         0.00000E+00        -0.21111E+07
 
    0.41841E+08         0.53198E-07         0.00000E+00
    0.53198E-07         0.15593E+09         0.00000E+00
    0.00000E+00         0.00000E+00         0.39555E+08
 
    0.17463E+06        -0.63607E-08         0.00000E+00
   -0.63607E-08        -0.10735E+08         0.00000E+00
    0.00000E+00         0.00000E+00        -0.21121E+07
 
    0.17463E+06         0.16191E-07         0.00000E+00
    0.16191E-07        -0.10735E+08         0.00000E+00
    0.00000E+00         0.00000E+00        -0.21121E+07
 
    0.17463E+06        -0.23130E-08         0.00000E+00
   -0.23130E-08        -0.10735E+08         0.00000E+00
    0.00000E+00         0.00000E+00        -0.21121E+07
 
    0.17463E+06         0.18504E-07         0.00000E+00
    0.18504E-07        -0.10735E+08         0.00000E+00
    0.00000E+00         0.00000E+00        -0.21121E+07
 
    0.17463E+06        -0.34694E-08         0.00000E+00
   -0.34694E-08        -0.10735E+08         0.00000E+00
    0.00000E+00         0.00000E+00        -0.21121E+07
 
    0.17463E+06         0.12143E-07         0.00000E+00
    0.12143E-07        -0.10735E+08         0.00000E+00
    0.00000E+00         0.00000E+00        -0.21121E+07
 
    0.17463E+06        -0.63607E-08         0.00000E+00
   -0.63607E-08        -0.10735E+08         0.00000E+00
    0.00000E+00         0.00000E+00        -0.21121E+07
 
    0.17463E+06        -0.13878E-07         0.00000E+00
   -0.13878E-07        -0.10735E+08         0.00000E+00
    0.00000E+00         0.00000E+00        -0.21121E+07
 
    0.17463E+06        -0.17347E-08         0.00000E+00
   -0.17347E-08        -0.10735E+08         0.00000E+00
    0.00000E+00         0.00000E+00        -0.21121E+07
 
    0.17463E+06         0.10408E-07         0.00000E+00
    0.10408E-07        -0.10735E+08         0.00000E+00
    0.00000E+00         0.00000E+00        -0.21121E+07
 
    0.17463E+06        -0.23130E-08         0.00000E+00
   -0.23130E-08        -0.10735E+08         0.00000E+00
    0.00000E+00         0.00000E+00        -0.21121E+07
 
    0.17463E+06         0.63607E-08         0.00000E+00
    0.63607E-08        -0.10735E+08         0.00000E+00
    0.00000E+00         0.00000E+00        -0.21121E+07
 
    0.17463E+06        -0.23130E-08         0.00000E+00
   -0.23130E-08        -0.10735E+08         0.00000E+00
    0.00000E+00         0.00000E+00        -0.21121E+07
 
    0.17463E+06         0.11565E-08         0.00000E+00
    0.11565E-08        -0.10735E+08         0.00000E+00
    0.00000E+00         0.00000E+00        -0.21121E+07
 
    0.41837E+08        -0.47416E-07         0.00000E+00
   -0.47416E-07         0.15593E+09         0.00000E+00
    0.00000E+00         0.00000E+00         0.39554E+08
 
    0.17071E+06         0.12721E-07         0.00000E+00
    0.12721E-07        -0.10736E+08         0.00000E+00
    0.00000E+00         0.00000E+00        -0.21130E+07
 
    0.17071E+06         0.34694E-08         0.00000E+00
    0.34694E-08        -0.10736E+08         0.00000E+00
    0.00000E+00         0.00000E+00        -0.21130E+07
 
    0.17071E+06         0.11565E-08         0.00000E+00
    0.11565E-08        -0.10736E+08         0.00000E+00
    0.00000E+00         0.00000E+00        -0.21130E+07
 
    0.17071E+06         0.11565E-08         0.00000E+00
    0.11565E-08        -0.10736E+08         0.00000E+00
    0.00000E+00         0.00000E+00        -0.21130E+07
 
    0.17071E+06        -0.40477E-08         0.00000E+00
   -0.40477E-08        -0.10736E+08         0.00000E+00
    0.00000E+00         0.00000E+00        -0.21130E+07
 
    0.17071E+06         0.86736E-08         0.00000E+00
    0.86736E-08        -0.10736E+08         0.00000E+00
    0.00000E+00         0.00000E+00        -0.21130E+07
 
    0.17071E+06         0.46259E-08         0.00000E+00
    0.46259E-08        -0.10736E+08         0.00000E+00
    0.00000E+00         0.00000E+00        -0.21130E+07
 
    0.17071E+06         0.10408E-07         0.00000E+00
    0.10408E-07        -0.10736E+08         0.00000E+00
    0.00000E+00         0.00000E+00        -0.21130E+07
 
    0.17071E+06         0.00000E+00         0.00000E+00
    0.00000E+00        -0.10736E+08         0.00000E+00
    0.00000E+00         0.00000E+00        -0.21130E+07
 
    0.17071E+06        -0.46259E-08         0.00000E+00
   -0.46259E-08        -0.10736E+08         0.00000E+00
    0.00000E+00         0.00000E+00        -0.21130E+07
 
    0.17071E+06        -0.75171E-08         0.00000E+00
   -0.75171E-08        -0.10736E+08         0.00000E+00
    0.00000E+00         0.00000E+00        -0.21130E+07
 
    0.17071E+06         0.34694E-08         0.00000E+00
    0.34694E-08        -0.10736E+08         0.00000E+00
    0.00000E+00         0.00000E+00        -0.21130E+07
 
    0.17071E+06         0.15613E-07         0.00000E+00
    0.15613E-07        -0.10736E+08         0.00000E+00
    0.00000E+00         0.00000E+00        -0.21130E+07
 
    0.17071E+06        -0.69389E-08         0.00000E+00
   -0.69389E-08        -0.10736E+08         0.00000E+00
    0.00000E+00         0.00000E+00        -0.21130E+07
 
    0.41833E+08         0.48572E-07         0.00000E+00
    0.48572E-07         0.15593E+09         0.00000E+00
    0.00000E+00         0.00000E+00         0.39553E+08
 
    0.16668E+06         0.69389E-08         0.00000E+00
    0.69389E-08        -0.10737E+08         0.00000E+00
    0.00000E+00         0.00000E+00        -0.21141E+07
 
    0.16668E+06        -0.40477E-08         0.00000E+00
   -0.40477E-08        -0.10737E+08         0.00000E+00
    0.00000E+00         0.00000E+00        -0.21141E+07
 
    0.16668E+06         0.13878E-07         0.00000E+00
    0.13878E-07        -0.10737E+08         0.00000E+00
    0.00000E+00         0.00000E+00        -0.21141E+07
 
    0.16668E+06         0.46259E-08         0.00000E+00
    0.46259E-08        -0.10737E+08         0.00000E+00
    0.00000E+00         0.00000E+00        -0.21141E+07
 
    0.16668E+06        -0.17347E-08         0.00000E+00
   -0.17347E-08        -0.10737E+08         0.00000E+00
    0.00000E+00         0.00000E+00        -0.21141E+07
 
    0.16668E+06        -0.28912E-08         0.00000E+00
   -0.28912E-08        -0.10737E+08         0.00000E+00
    0.00000E+00         0.00000E+00        -0.21141E+07
 
    0.16668E+06        -0.17347E-08         0.00000E+00
   -0.17347E-08        -0.10737E+08         0.00000E+00
    0.00000E+00         0.00000E+00        -0.21141E+07
 
    0.16668E+06         0.34694E-08         0.00000E+00
    0.34694E-08        -0.10737E+08         0.00000E+00
    0.00000E+00         0.00000E+00        -0.21141E+07
 
    0.16668E+06        -0.11565E-08         0.00000E+00
   -0.11565E-08        -0.10737E+08         0.00000E+00
    0.00000E+00         0.00000E+00        -0.21141E+07
 
    0.16668E+06        -0.80954E-08         0.00000E+00
   -0.80954E-08        -0.10737E+08         0.00000E+00
    0.00000E+00         0.00000E+00        -0.21141E+07
 
    0.16668E+06         0.40477E-08         0.00000E+00
    0.40477E-08        -0.10737E+08         0.00000E+00
    0.00000E+00         0.00000E+00        -0.21141E+07
 
    0.16668E+06         0.13878E-07         0.00000E+00
    0.13878E-07        -0.10737E+08         0.00000E+00
    0.00000E+00         0.00000E+00        -0.21141E+07
 
    0.16668E+06        -0.69389E-08         0.00000E+00
   -0.69389E-08        -0.10737E+08         0.00000E+00
    0.00000E+00         0.00000E+00        -0.21141E+07
 
    0.16668E+06         0.80954E-08         0.00000E+00
    0.80954E-08        -0.10737E+08         0.00000E+00
    0.00000E+00         0.00000E+00        -0.21141E+07
 
    0.41829E+08        -0.45103E-07         0.00000E+00
   -0.45103E-07         0.15593E+09         0.00000E+00
    0.00000E+00         0.00000E+00         0.39552E+08
 
    0.16254E+06         0.11565E-07         0.00000E+00
    0.11565E-07        -0.10738E+08         0.00000E+00
    0.00000E+00         0.00000E+00        -0.21151E+07
 
    0.16254E+06         0.34694E-08         0.00000E+00
    0.34694E-08        -0.10738E+08         0.00000E+00
    0.00000E+00         0.00000E+00        -0.21151E+07
 
    0.16254E+06        -0.10408E-07         0.00000E+00
   -0.10408E-07        -0.10738E+08         0.00000E+00
    0.00000E+00         0.00000E+00        -0.21151E+07
 
    0.16254E+06         0.12143E-07         0.00000E+00
    0.12143E-07        -0.10738E+08         0.00000E+00
    0.00000E+00         0.00000E+00        -0.21151E+07
 
    0.16254E+06        -0.17347E-08         0.00000E+00
   -0.17347E-08        -0.10738E+08         0.00000E+00
    0.00000E+00         0.00000E+00        -0.21151E+07
 
    0.16254E+06        -0.17347E-08         0.00000E+00
   -0.17347E-08        -0.10738E+08         0.00000E+00
    0.00000E+00         0.00000E+00        -0.21151E+07
 
    0.16254E+06        -0.52042E-08         0.00000E+00
   -0.52042E-08        -0.10738E+08         0.00000E+00
    0.00000E+00         0.00000E+00        -0.21151E+07
 
    0.16254E+06         0.69389E-08         0.00000E+00
    0.69389E-08        -0.10738E+08         0.00000E+00
    0.00000E+00         0.00000E+00        -0.21151E+07
 
    0.16254E+06        -0.63607E-08         0.00000E+00
   -0.63607E-08        -0.10738E+08         0.00000E+00
    0.00000E+00         0.00000E+00        -0.21151E+07
 
    0.16254E+06        -0.92519E-08         0.00000E+00
   -0.92519E-08        -0.10738E+08         0.00000E+00
    0.00000E+00         0.00000E+00        -0.21151E+07
 
    0.16254E+06         0.11565E-08         0.00000E+00
    0.11565E-08        -0.10738E+08         0.00000E+00
    0.00000E+00         0.00000E+00        -0.21151E+07
 
    0.16254E+06        -0.92519E-08         0.00000E+00
   -0.92519E-08        -0.10738E+08         0.00000E+00
    0.00000E+00         0.00000E+00        -0.21151E+07
 
    0.16254E+06        -0.80954E-08         0.00000E+00
   -0.80954E-08        -0.10738E+08         0.00000E+00
    0.00000E+00         0.00000E+00        -0.21151E+07
 
    0.16254E+06         0.24286E-07         0.00000E+00
    0.24286E-07        -0.10738E+08         0.00000E+00
    0.00000E+00         0.00000E+00        -0.21151E+07
 
    0.41825E+08         0.23130E-08         0.00000E+00
    0.23130E-08         0.15593E+09         0.00000E+00
    0.00000E+00         0.00000E+00         0.39551E+08
 
    0.15828E+06        -0.46259E-08         0.00000E+00
   -0.46259E-08        -0.10739E+08         0.00000E+00
    0.00000E+00         0.00000E+00        -0.21162E+07
 
    0.15828E+06         0.23130E-08         0.00000E+00
    0.23130E-08        -0.10739E+08         0.00000E+00
    0.00000E+00         0.00000E+00        -0.21162E+07
 
    0.15828E+06        -0.16191E-07         0.00000E+00
   -0.16191E-07        -0.10739E+08         0.00000E+00
    0.00000E+00         0.00000E+00        -0.21162E+07
 
    0.15828E+06         0.57824E-09         0.00000E+00
    0.57824E-09        -0.10739E+08         0.00000E+00
    0.00000E+00         0.00000E+00        -0.21162E+07
 
    0.15828E+06        -0.11565E-08         0.00000E+00
   -0.11565E-08        -0.10739E+08         0.00000E+00
    0.00000E+00         0.00000E+00        -0.21162E+07
 
    0.15828E+06        -0.92519E-08         0.00000E+00
   -0.92519E-08        -0.10739E+08         0.00000E+00
    0.00000E+00         0.00000E+00        -0.21162E+07
 
    0.15828E+06        -0.63607E-08         0.00000E+00
   -0.63607E-08        -0.10739E+08         0.00000E+00
    0.00000E+00         0.00000E+00        -0.21162E+07
 
    0.15828E+06         0.46259E-08         0.00000E+00
    0.46259E-08        -0.10739E+08         0.00000E+00
    0.00000E+00         0.00000E+00        -0.21162E+07
 
    0.15828E+06        -0.11565E-08         0.00000E+00
   -0.11565E-08        -0.10739E+08         0.00000E+00
    0.00000E+00         0.00000E+00        -0.21162E+07
 
    0.15828E+06         0.57824E-08         0.00000E+00
    0.57824E-08        -0.10739E+08         0.00000E+00
    0.00000E+00         0.00000E+00        -0.21162E+07
 
    0.15828E+06        -0.11565E-07         0.00000E+00
   -0.11565E-07        -0.10739E+08         0.00000E+00
    0.00000E+00         0.00000E+00        -0.21162E+07
 
    0.15828E+06        -0.10408E-07         0.00000E+00
   -0.10408E-07        -0.10739E+08         0.00000E+00
    0.00000E+00         0.00000E+00        -0.21162E+07
 
    0.15828E+06         0.46259E-08         0.00000E+00
    0.46259E-08        -0.10739E+08         0.00000E+00
    0.00000E+00         0.00000E+00        -0.21162E+07
 
    0.15828E+06        -0.34694E-08         0.00000E+00
   -0.34694E-08        -0.10739E+08         0.00000E+00
    0.00000E+00         0.00000E+00        -0.21162E+07
 
    0.41821E+08         0.48572E-07         0.00000E+00
    0.48572E-07         0.15593E+09         0.00000E+00
    0.00000E+00         0.00000E+00         0.39549E+08
 
    0.15391E+06        -0.98301E-08         0.00000E+00
   -0.98301E-08        -0.10740E+08         0.00000E+00
    0.00000E+00         0.00000E+00        -0.21172E+07
 
    0.15391E+06         0.15034E-07         0.00000E+00
    0.15034E-07        -0.10740E+08         0.00000E+00
    0.00000E+00         0.00000E+00        -0.21172E+07
 
    0.15391E+06        -0.80954E-08         0.00000E+00
   -0.80954E-08        -0.10740E+08         0.00000E+00
    0.00000E+00         0.00000E+00        -0.21172E+07
 
    0.15391E+06         0.80954E-08         0.00000E+00
    0.80954E-08        -0.10740E+08         0.00000E+00
    0.00000E+00         0.00000E+00        -0.21172E+07
 
    0.15391E+06        -0.10408E-07         0.00000E+00
   -0.10408E-07        -0.10740E+08         0.00000E+00
    0.00000E+00         0.00000E+00        -0.21172E+07
 
    0.15391E+06         0.11565E-08         0.00000E+00
    0.11565E-08        -0.10740E+08         0.00000E+00
    0.00000E+00         0.00000E+00        -0.21172E+07
 
    0.15391E+06        -0.75171E-08         0.00000E+00
   -0.75171E-08        -0.10740E+08         0.00000E+00
    0.00000E+00         0.00000E+00        -0.21172E+07
 
    0.15391E+06         0.28912E-08         0.00000E+00
    0.28912E-08        -0.10740E+08         0.00000E+00
    0.00000E+00         0.00000E+00        -0.21172E+07
 
    0.15391E+06         0.00000E+00         0.00000E+00
    0.00000E+00        -0.10740E+08         0.00000E+00
    0.00000E+00         0.00000E+00        -0.21172E+07
 
    0.15391E+06         0.46259E-08         0.00000E+00
    0.46259E-08        -0.10740E+08         0.00000E+00
    0.00000E+00         0.00000E+00        -0.21172E+07
 
    0.15391E+06         0.00000E+00         0.00000E+00
    0.00000E+00        -0.10740E+08         0.00000E+00
    0.00000E+00         0.00000E+00        -0.21172E+07
 
    0.15391E+06        -0.57824E-09         0.00000E+00
   -0.57824E-09        -0.10740E+08         0.00000E+00
    0.00000E+00         0.00000E+00        -0.21172E+07
 
    0.15391E+06        -0.57824E-08         0.00000E+00
   -0.57824E-08        -0.10740E+08         0.00000E+00
    0.00000E+00         0.00000E+00        -0.21172E+07
 
    0.15391E+06        -0.23130E-08         0.00000E+00
   -0.23130E-08        -0.10740E+08         0.00000E+00
    0.00000E+00         0.00000E+00        -0.21172E+07
 
    0.41816E+08        -0.11565E-08         0.00000E+00
   -0.11565E-08         0.15593E+09         0.00000E+00
    0.00000E+00         0.00000E+00         0.39548E+08
 
    0.14942E+06         0.57824E-08         0.00000E+00
    0.57824E-08        -0.10741E+08         0.00000E+00
    0.00000E+00         0.00000E+00        -0.21184E+07
 
    0.14942E+06         0.57824E-08         0.00000E+00
    0.57824E-08        -0.10741E+08         0.00000E+00
    0.00000E+00         0.00000E+00        -0.21184E+07
 
    0.14942E+06         0.80954E-08         0.00000E+00
    0.80954E-08        -0.10741E+08         0.00000E+00
    0.00000E+00         0.00000E+00        -0.21184E+07
 
    0.14942E+06         0.86736E-08         0.00000E+00
    0.86736E-08        -0.10741E+08         0.00000E+00
    0.00000E+00         0.00000E+00        -0.21184E+07
 
    0.14942E+06         0.75171E-08         0.00000E+00
    0.75171E-08        -0.10741E+08         0.00000E+00
    0.00000E+00         0.00000E+00        -0.21184E+07
 
    0.14942E+06        -0.57824E-09         0.00000E+00
   -0.57824E-09        -0.10741E+08         0.00000E+00
    0.00000E+00         0.00000E+00        -0.21184E+07
 
    0.14942E+06        -0.57824E-09         0.00000E+00
   -0.57824E-09        -0.10741E+08         0.00000E+00
    0.00000E+00         0.00000E+00        -0.21184E+07
 
    0.14942E+06         0.92519E-08         0.00000E+00
    0.92519E-08        -0.10741E+08         0.00000E+00
    0.00000E+00         0.00000E+00        -0.21184E+07
 
    0.14942E+06        -0.10987E-07         0.00000E+00
   -0.10987E-07        -0.10741E+08         0.00000E+00
    0.00000E+00         0.00000E+00        -0.21184E+07
 
    0.14942E+06         0.11565E-08         0.00000E+00
    0.11565E-08        -0.10741E+08         0.00000E+00
    0.00000E+00         0.00000E+00        -0.21184E+07
 
    0.14942E+06        -0.46259E-08         0.00000E+00
   -0.46259E-08        -0.10741E+08         0.00000E+00
    0.00000E+00         0.00000E+00        -0.21184E+07
 
    0.14942E+06         0.98301E-08         0.00000E+00
    0.98301E-08        -0.10741E+08         0.00000E+00
    0.00000E+00         0.00000E+00        -0.21184E+07
 
    0.14942E+06        -0.92519E-08         0.00000E+00
   -0.92519E-08        -0.10741E+08         0.00000E+00
    0.00000E+00         0.00000E+00        -0.21184E+07
 
    0.14942E+06         0.00000E+00         0.00000E+00
    0.00000E+00        -0.10741E+08         0.00000E+00
    0.00000E+00         0.00000E+00        -0.21184E+07
 
    0.41811E+08        -0.63607E-07         0.00000E+00
   -0.63607E-07         0.15592E+09         0.00000E+00
    0.00000E+00         0.00000E+00         0.39547E+08
 
    0.14481E+06         0.12721E-07         0.00000E+00
    0.12721E-07        -0.10742E+08         0.00000E+00
    0.00000E+00         0.00000E+00        -0.21195E+07
 
    0.14481E+06         0.12721E-07         0.00000E+00
    0.12721E-07        -0.10742E+08         0.00000E+00
    0.00000E+00         0.00000E+00        -0.21195E+07
 
    0.14481E+06         0.17347E-08         0.00000E+00
    0.17347E-08        -0.10742E+08         0.00000E+00
    0.00000E+00         0.00000E+00        -0.21195E+07
 
    0.14481E+06         0.34694E-08         0.00000E+00
    0.34694E-08        -0.10742E+08         0.00000E+00
    0.00000E+00         0.00000E+00        -0.21195E+07
 
    0.14481E+06        -0.13300E-07         0.00000E+00
   -0.13300E-07        -0.10742E+08         0.00000E+00
    0.00000E+00         0.00000E+00        -0.21195E+07
 
    0.14481E+06         0.63607E-08         0.00000E+00
    0.63607E-08        -0.10742E+08         0.00000E+00
    0.00000E+00         0.00000E+00        -0.21195E+07
 
    0.14481E+06        -0.11565E-08         0.00000E+00
   -0.11565E-08        -0.10742E+08         0.00000E+00
    0.00000E+00         0.00000E+00        -0.21195E+07
 
    0.14481E+06         0.75171E-08         0.00000E+00
    0.75171E-08        -0.10742E+08         0.00000E+00
    0.00000E+00         0.00000E+00        -0.21195E+07
 
    0.14481E+06         0.52042E-08         0.00000E+00
    0.52042E-08        -0.10742E+08         0.00000E+00
    0.00000E+00         0.00000E+00        -0.21195E+07
 
    0.14481E+06         0.13878E-07         0.00000E+00
    0.13878E-07        -0.10742E+08         0.00000E+00
    0.00000E+00         0.00000E+00        -0.21195E+07
 
    0.14481E+06        -0.11565E-08         0.00000E+00
   -0.11565E-08        -0.10742E+08         0.00000E+00
    0.00000E+00         0.00000E+00        -0.21195E+07
 
    0.14481E+06        -0.11565E-07         0.00000E+00
   -0.11565E-07        -0.10742E+08         0.00000E+00
    0.00000E+00         0.00000E+00        -0.21195E+07
 
    0.14481E+06         0.00000E+00         0.00000E+00
    0.00000E+00        -0.10742E+08         0.00000E+00
    0.00000E+00         0.00000E+00        -0.21195E+07
 
    0.14481E+06         0.23130E-08         0.00000E+00
    0.23130E-08        -0.10742E+08         0.00000E+00
    0.00000E+00         0.00000E+00        -0.21195E+07
 
    0.41807E+08        -0.24286E-07         0.00000E+00
   -0.24286E-07         0.15592E+09         0.00000E+00
    0.00000E+00         0.00000E+00         0.39546E+08
 
    0.14009E+06         0.24864E-07         0.00000E+00
    0.24864E-07        -0.10744E+08         0.00000E+00
    0.00000E+00         0.00000E+00        -0.21207E+07
 
    0.14009E+06         0.57824E-09         0.00000E+00
    0.57824E-09        -0.10744E+08         0.00000E+00
    0.00000E+00         0.00000E+00        -0.21207E+07
 
    0.14009E+06         0.00000E+00         0.00000E+00
    0.00000E+00        -0.10744E+08         0.00000E+00
    0.00000E+00         0.00000E+00        -0.21207E+07
 
    0.14009E+06         0.23130E-08         0.00000E+00
    0.23130E-08        -0.10744E+08         0.00000E+00
    0.00000E+00         0.00000E+00        -0.21207E+07
 
    0.14009E+06        -0.40477E-08         0.00000E+00
   -0.40477E-08        -0.10744E+08         0.00000E+00
    0.00000E+00         0.00000E+00        -0.21207E+07
 
    0.14009E+06         0.00000E+00         0.00000E+00
    0.00000E+00        -0.10744E+08         0.00000E+00
    0.00000E+00         0.00000E+00        -0.21207E+07
 
    0.14009E+06         0.23130E-08         0.00000E+00
    0.23130E-08        -0.10744E+08         0.00000E+00
    0.00000E+00         0.00000E+00        -0.21207E+07
 
    0.14009E+06         0.57824E-08         0.00000E+00
    0.57824E-08        -0.10744E+08         0.00000E+00
    0.00000E+00         0.00000E+00        -0.21207E+07
 
    0.14009E+06        -0.17347E-08         0.00000E+00
   -0.17347E-08        -0.10744E+08         0.00000E+00
    0.00000E+00         0.00000E+00        -0.21207E+07
 
    0.14009E+06         0.92519E-08         0.00000E+00
    0.92519E-08        -0.10744E+08         0.00000E+00
    0.00000E+00         0.00000E+00        -0.21207E+07
 
    0.14009E+06         0.34694E-08         0.00000E+00
    0.34694E-08        -0.10744E+08         0.00000E+00
    0.00000E+00         0.00000E+00        -0.21207E+07
 
    0.14009E+06        -0.80954E-08         0.00000E+00
   -0.80954E-08        -0.10744E+08         0.00000E+00
    0.00000E+00         0.00000E+00        -0.21207E+07
 
    0.14009E+06        -0.12721E-07         0.00000E+00
   -0.12721E-07        -0.10744E+08         0.00000E+00
    0.00000E+00         0.00000E+00        -0.21207E+07
 
    0.14009E+06         0.20817E-07         0.00000E+00
    0.20817E-07        -0.10744E+08         0.00000E+00
    0.00000E+00         0.00000E+00        -0.21207E+07
 
    0.41802E+08        -0.25443E-07         0.00000E+00
   -0.25443E-07         0.15592E+09         0.00000E+00
    0.00000E+00         0.00000E+00         0.39545E+08
 
    0.13526E+06         0.16769E-07         0.00000E+00
    0.16769E-07        -0.10745E+08         0.00000E+00
    0.00000E+00         0.00000E+00        -0.21219E+07
 
    0.13526E+06        -0.86736E-08         0.00000E+00
   -0.86736E-08        -0.10745E+08         0.00000E+00
    0.00000E+00         0.00000E+00        -0.21219E+07
 
    0.13526E+06        -0.23130E-08         0.00000E+00
   -0.23130E-08        -0.10745E+08         0.00000E+00
    0.00000E+00         0.00000E+00        -0.21219E+07
 
    0.13526E+06         0.11565E-08         0.00000E+00
    0.11565E-08        -0.10745E+08         0.00000E+00
    0.00000E+00         0.00000E+00        -0.21219E+07
 
    0.13526E+06         0.57824E-09         0.00000E+00
    0.57824E-09        -0.10745E+08         0.00000E+00
    0.00000E+00         0.00000E+00        -0.21219E+07
 
    0.13526E+06        -0.75171E-08         0.00000E+00
   -0.75171E-08        -0.10745E+08         0.00000E+00
    0.00000E+00         0.00000E+00        -0.21219E+07
 
    0.13526E+06         0.00000E+00         0.00000E+00
    0.00000E+00        -0.10745E+08         0.00000E+00
    0.00000E+00         0.00000E+00        -0.21219E+07
 
    0.13526E+06        -0.57824E-08         0.00000E+00
   -0.57824E-08        -0.10745E+08         0.00000E+00
    0.00000E+00         0.00000E+00        -0.21219E+07
 
    0.13526E+06        -0.63607E-08         0.00000E+00
   -0.63607E-08        -0.10745E+08         0.00000E+00
    0.00000E+00         0.00000E+00        -0.21219E+07
 
    0.13526E+06         0.23130E-08         0.00000E+00
    0.23130E-08        -0.10745E+08         0.00000E+00
    0.00000E+00         0.00000E+00        -0.21219E+07
 
    0.13526E+06         0.11565E-08         0.00000E+00
    0.11565E-08        -0.10745E+08         0.00000E+00
    0.00000E+00         0.00000E+00        -0.21219E+07
 
    0.13526E+06         0.11565E-08         0.00000E+00
    0.11565E-08        -0.10745E+08         0.00000E+00
    0.00000E+00         0.00000E+00        -0.21219E+07
 
    0.13526E+06        -0.12721E-07         0.00000E+00
   -0.12721E-07        -0.10745E+08         0.00000E+00
    0.00000E+00         0.00000E+00        -0.21219E+07
 
    0.13526E+06         0.10408E-07         0.00000E+00
    0.10408E-07        -0.10745E+08         0.00000E+00
    0.00000E+00         0.00000E+00        -0.21219E+07
 
    0.41797E+08         0.41633E-07         0.00000E+00
    0.41633E-07         0.15592E+09         0.00000E+00
    0.00000E+00         0.00000E+00         0.39544E+08
 
    0.13031E+06         0.57824E-09         0.00000E+00
    0.57824E-09        -0.10746E+08         0.00000E+00
    0.00000E+00         0.00000E+00        -0.21231E+07
 
    0.13031E+06        -0.11565E-08         0.00000E+00
   -0.11565E-08        -0.10746E+08         0.00000E+00
    0.00000E+00         0.00000E+00        -0.21231E+07
 
    0.13031E+06        -0.46259E-08         0.00000E+00
   -0.46259E-08        -0.10746E+08         0.00000E+00
    0.00000E+00         0.00000E+00        -0.21231E+07
 
    0.13031E+06        -0.46259E-08         0.00000E+00
   -0.46259E-08        -0.10746E+08         0.00000E+00
    0.00000E+00         0.00000E+00        -0.21231E+07
 
    0.13031E+06        -0.57824E-08         0.00000E+00
   -0.57824E-08        -0.10746E+08         0.00000E+00
    0.00000E+00         0.00000E+00        -0.21231E+07
 
    0.13031E+06        -0.34694E-08         0.00000E+00
   -0.34694E-08        -0.10746E+08         0.00000E+00
    0.00000E+00         0.00000E+00        -0.21231E+07
 
    0.13031E+06        -0.63607E-08         0.00000E+00
   -0.63607E-08        -0.10746E+08         0.00000E+00
    0.00000E+00         0.00000E+00        -0.21231E+07
 
    0.13031E+06        -0.57824E-08         0.00000E+00
   -0.57824E-08        -0.10746E+08         0.00000E+00
    0.00000E+00         0.00000E+00        -0.21231E+07
 
    0.13031E+06        -0.11565E-08         0.00000E+00
   -0.11565E-08        -0.10746E+08         0.00000E+00
    0.00000E+00         0.00000E+00        -0.21231E+07
 
    0.13031E+06        -0.52042E-08         0.00000E+00
   -0.52042E-08        -0.10746E+08         0.00000E+00
    0.00000E+00         0.00000E+00        -0.21231E+07
 
    0.13031E+06        -0.11565E-08         0.00000E+00
   -0.11565E-08        -0.10746E+08         0.00000E+00
    0.00000E+00         0.00000E+00        -0.21231E+07
 
    0.13031E+06        -0.92519E-08         0.00000E+00
   -0.92519E-08        -0.10746E+08         0.00000E+00
    0.00000E+00         0.00000E+00        -0.21231E+07
 
    0.13031E+06         0.00000E+00         0.00000E+00
    0.00000E+00        -0.10746E+08         0.00000E+00
    0.00000E+00         0.00000E+00        -0.21231E+07
 
    0.13031E+06         0.10408E-07         0.00000E+00
    0.10408E-07        -0.10746E+08         0.00000E+00
    0.00000E+00         0.00000E+00        -0.21231E+07
 
    0.41792E+08        -0.82110E-07         0.00000E+00
   -0.82110E-07         0.15592E+09         0.00000E+00
    0.00000E+00         0.00000E+00         0.39542E+08
 
    0.12524E+06         0.13878E-07         0.00000E+00
    0.13878E-07        -0.10747E+08         0.00000E+00
    0.00000E+00         0.00000E+00        -0.21244E+07
 
    0.12524E+06        -0.46259E-08         0.00000E+00
   -0.46259E-08        -0.10747E+08         0.00000E+00
    0.00000E+00         0.00000E+00        -0.21244E+07
 
    0.12524E+06        -0.24286E-07         0.00000E+00
   -0.24286E-07        -0.10747E+08         0.00000E+00
    0.00000E+00         0.00000E+00        -0.21244E+07
 
    0.12524E+06         0.10408E-07         0.00000E+00
    0.10408E-07        -0.10747E+08         0.00000E+00
    0.00000E+00         0.00000E+00        -0.21244E+07
 
    0.12524E+06        -0.63607E-08         0.00000E+00
   -0.63607E-08        -0.10747E+08         0.00000E+00
    0.00000E+00         0.00000E+00        -0.21244E+07
 
    0.12524E+06        -0.23130E-08         0.00000E+00
   -0.23130E-08        -0.10747E+08         0.00000E+00
    0.00000E+00         0.00000E+00        -0.21244E+07
 
    0.12524E+06         0.00000E+00         0.00000E+00
    0.00000E+00        -0.10747E+08         0.00000E+00
    0.00000E+00         0.00000E+00        -0.21244E+07
 
    0.12524E+06         0.57824E-09         0.00000E+00
    0.57824E-09        -0.10747E+08         0.00000E+00
    0.00000E+00         0.00000E+00        -0.21244E+07
 
    0.12524E+06         0.40477E-08         0.00000E+00
    0.40477E-08        -0.10747E+08         0.00000E+00
    0.00000E+00         0.00000E+00        -0.21244E+07
 
    0.12524E+06        -0.57824E-08         0.00000E+00
   -0.57824E-08        -0.10747E+08         0.00000E+00
    0.00000E+00         0.00000E+00        -0.21244E+07
 
    0.12524E+06        -0.28912E-08         0.00000E+00
   -0.28912E-08        -0.10747E+08         0.00000E+00
    0.00000E+00         0.00000E+00        -0.21244E+07
 
    0.12524E+06         0.69389E-08         0.00000E+00
    0.69389E-08        -0.10747E+08         0.00000E+00
    0.00000E+00         0.00000E+00        -0.21244E+07
 
    0.12524E+06         0.92519E-08         0.00000E+00
    0.92519E-08        -0.10747E+08         0.00000E+00
    0.00000E+00         0.00000E+00        -0.21244E+07
 
    0.12524E+06         0.13878E-07         0.00000E+00
    0.13878E-07        -0.10747E+08         0.00000E+00
    0.00000E+00         0.00000E+00        -0.21244E+07
 
    0.41787E+08         0.45103E-07         0.00000E+00
    0.45103E-07         0.15592E+09         0.00000E+00
    0.00000E+00         0.00000E+00         0.39541E+08
 
    0.12006E+06        -0.20817E-07         0.00000E+00
   -0.20817E-07        -0.10749E+08         0.00000E+00
    0.00000E+00         0.00000E+00        -0.21257E+07
 
    0.12006E+06         0.57824E-08         0.00000E+00
    0.57824E-08        -0.10749E+08         0.00000E+00
    0.00000E+00         0.00000E+00        -0.21257E+07
 
    0.12006E+06         0.15034E-07         0.00000E+00
    0.15034E-07        -0.10749E+08         0.00000E+00
    0.00000E+00         0.00000E+00        -0.21257E+07
 
    0.12006E+06         0.18504E-07         0.00000E+00
    0.18504E-07        -0.10749E+08         0.00000E+00
    0.00000E+00         0.00000E+00        -0.21257E+07
 
    0.12006E+06         0.24864E-07         0.00000E+00
    0.24864E-07        -0.10749E+08         0.00000E+00
    0.00000E+00         0.00000E+00        -0.21257E+07
 
    0.12006E+06         0.69389E-08         0.00000E+00
    0.69389E-08        -0.10749E+08         0.00000E+00
    0.00000E+00         0.00000E+00        -0.21257E+07
 
    0.12006E+06         0.15613E-07         0.00000E+00
    0.15613E-07        -0.10749E+08         0.00000E+00
    0.00000E+00         0.00000E+00        -0.21257E+07
 
    0.12006E+06        -0.18504E-07         0.00000E+00
   -0.18504E-07        -0.10749E+08         0.00000E+00
    0.00000E+00         0.00000E+00        -0.21257E+07
 
    0.12006E+06         0.12721E-07         0.00000E+00
    0.12721E-07        -0.10749E+08         0.00000E+00
    0.00000E+00         0.00000E+00        -0.21257E+07
 
    0.12006E+06        -0.80954E-08         0.00000E+00
   -0.80954E-08        -0.10749E+08         0.00000E+00
    0.00000E+00         0.00000E+00        -0.21257E+07
 
    0.12006E+06         0.11565E-07         0.00000E+00
    0.11565E-07        -0.10749E+08         0.00000E+00
    0.00000E+00         0.00000E+00        -0.21257E+07
 
    0.12006E+06         0.11565E-07         0.00000E+00
    0.11565E-07        -0.10749E+08         0.00000E+00
    0.00000E+00         0.00000E+00        -0.21257E+07
 
    0.12006E+06         0.23130E-08         0.00000E+00
    0.23130E-08        -0.10749E+08         0.00000E+00
    0.00000E+00         0.00000E+00        -0.21257E+07
 
    0.12006E+06         0.57824E-08         0.00000E+00
    0.57824E-08        -0.10749E+08         0.00000E+00
    0.00000E+00         0.00000E+00        -0.21257E+07
 
    0.41781E+08        -0.83267E-07         0.00000E+00
   -0.83267E-07         0.15592E+09         0.00000E+00
    0.00000E+00         0.00000E+00         0.39540E+08
 
    0.11477E+06        -0.17347E-07         0.00000E+00
   -0.17347E-07        -0.10750E+08         0.00000E+00
    0.00000E+00         0.00000E+00        -0.21270E+07
 
    0.11477E+06         0.10408E-07         0.00000E+00
    0.10408E-07        -0.10750E+08         0.00000E+00
    0.00000E+00         0.00000E+00        -0.21270E+07
 
    0.11477E+06         0.34694E-08         0.00000E+00
    0.34694E-08        -0.10750E+08         0.00000E+00
    0.00000E+00         0.00000E+00        -0.21270E+07
 
    0.11477E+06        -0.34694E-08         0.00000E+00
   -0.34694E-08        -0.10750E+08         0.00000E+00
    0.00000E+00         0.00000E+00        -0.21270E+07
 
    0.11477E+06        -0.34694E-08         0.00000E+00
   -0.34694E-08        -0.10750E+08         0.00000E+00
    0.00000E+00         0.00000E+00        -0.21270E+07
 
    0.11477E+06        -0.23708E-07         0.00000E+00
   -0.23708E-07        -0.10750E+08         0.00000E+00
    0.00000E+00         0.00000E+00        -0.21270E+07
 
    0.11477E+06         0.16769E-07         0.00000E+00
    0.16769E-07        -0.10750E+08         0.00000E+00
    0.00000E+00         0.00000E+00        -0.21270E+07
 
    0.11477E+06        -0.20238E-07         0.00000E+00
   -0.20238E-07        -0.10750E+08         0.00000E+00
    0.00000E+00         0.00000E+00        -0.21270E+07
 
    0.11477E+06         0.10987E-07         0.00000E+00
    0.10987E-07        -0.10750E+08         0.00000E+00
    0.00000E+00         0.00000E+00        -0.21270E+07
 
    0.11477E+06        -0.23130E-08         0.00000E+00
   -0.23130E-08        -0.10750E+08         0.00000E+00
    0.00000E+00         0.00000E+00        -0.21270E+07
 
    0.11477E+06         0.92519E-08         0.00000E+00
    0.92519E-08        -0.10750E+08         0.00000E+00
    0.00000E+00         0.00000E+00        -0.21270E+07
 
    0.11477E+06         0.69389E-08         0.00000E+00
    0.69389E-08        -0.10750E+08         0.00000E+00
    0.00000E+00         0.00000E+00        -0.21270E+07
 
    0.11477E+06         0.34694E-08         0.00000E+00
    0.34694E-08        -0.10750E+08         0.00000E+00
    0.00000E+00         0.00000E+00        -0.21270E+07
 
    0.11477E+06        -0.34694E-08         0.00000E+00
   -0.34694E-08        -0.10750E+08         0.00000E+00
    0.00000E+00         0.00000E+00        -0.21270E+07
 
    0.41776E+08         0.37007E-07         0.00000E+00
    0.37007E-07         0.15592E+09         0.00000E+00
    0.00000E+00         0.00000E+00         0.39538E+08
 
    0.10936E+06        -0.11565E-08         0.00000E+00
   -0.11565E-08        -0.10751E+08         0.00000E+00
    0.00000E+00         0.00000E+00        -0.21284E+07
 
    0.10936E+06         0.69389E-08         0.00000E+00
    0.69389E-08        -0.10751E+08         0.00000E+00
    0.00000E+00         0.00000E+00        -0.21284E+07
 
    0.10936E+06         0.34694E-08         0.00000E+00
    0.34694E-08        -0.10751E+08         0.00000E+00
    0.00000E+00         0.00000E+00        -0.21284E+07
 
    0.10936E+06         0.92519E-08         0.00000E+00
    0.92519E-08        -0.10751E+08         0.00000E+00
    0.00000E+00         0.00000E+00        -0.21284E+07
 
    0.10936E+06         0.23130E-08         0.00000E+00
    0.23130E-08        -0.10751E+08         0.00000E+00
    0.00000E+00         0.00000E+00        -0.21284E+07
 
    0.10936E+06         0.12143E-07         0.00000E+00
    0.12143E-07        -0.10751E+08         0.00000E+00
    0.00000E+00         0.00000E+00        -0.21284E+07
 
    0.10936E+06        -0.18504E-07         0.00000E+00
   -0.18504E-07        -0.10751E+08         0.00000E+00
    0.00000E+00         0.00000E+00        -0.21284E+07
 
    0.10936E+06         0.23130E-07         0.00000E+00
    0.23130E-07        -0.10751E+08         0.00000E+00
    0.00000E+00         0.00000E+00        -0.21284E+07
 
    0.10936E+06        -0.16191E-07         0.00000E+00
   -0.16191E-07        -0.10751E+08         0.00000E+00
    0.00000E+00         0.00000E+00        -0.21284E+07
 
    0.10936E+06         0.14456E-07         0.00000E+00
    0.14456E-07        -0.10751E+08         0.00000E+00
    0.00000E+00         0.00000E+00        -0.21284E+07
 
    0.10936E+06        -0.11565E-07         0.00000E+00
   -0.11565E-07        -0.10751E+08         0.00000E+00
    0.00000E+00         0.00000E+00        -0.21284E+07
 
    0.10936E+06        -0.57824E-08         0.00000E+00
   -0.57824E-08        -0.10751E+08         0.00000E+00
    0.00000E+00         0.00000E+00        -0.21284E+07
 
    0.10936E+06         0.00000E+00         0.00000E+00
    0.00000E+00        -0.10751E+08         0.00000E+00
    0.00000E+00         0.00000E+00        -0.21284E+07
 
    0.10936E+06        -0.10408E-07         0.00000E+00
   -0.10408E-07        -0.10751E+08         0.00000E+00
    0.00000E+00         0.00000E+00        -0.21284E+07
 
    0.41771E+08        -0.69389E-08         0.00000E+00
   -0.69389E-08         0.15591E+09         0.00000E+00
    0.00000E+00         0.00000E+00         0.39537E+08
 
    0.10385E+06         0.34694E-08         0.00000E+00
    0.34694E-08        -0.10753E+08         0.00000E+00
    0.00000E+00         0.00000E+00        -0.21298E+07
 
    0.10385E+06        -0.46259E-08         0.00000E+00
   -0.46259E-08        -0.10753E+08         0.00000E+00
    0.00000E+00         0.00000E+00        -0.21298E+07
 
    0.10385E+06        -0.20817E-07         0.00000E+00
   -0.20817E-07        -0.10753E+08         0.00000E+00
    0.00000E+00         0.00000E+00        -0.21298E+07
 
    0.10385E+06         0.24286E-07         0.00000E+00
    0.24286E-07        -0.10753E+08         0.00000E+00
    0.00000E+00         0.00000E+00        -0.21298E+07
 
    0.10385E+06        -0.33538E-07         0.00000E+00
   -0.33538E-07        -0.10753E+08         0.00000E+00
    0.00000E+00         0.00000E+00        -0.21298E+07
 
    0.10385E+06         0.92519E-08         0.00000E+00
    0.92519E-08        -0.10753E+08         0.00000E+00
    0.00000E+00         0.00000E+00        -0.21298E+07
 
    0.10385E+06        -0.57824E-08         0.00000E+00
   -0.57824E-08        -0.10753E+08         0.00000E+00
    0.00000E+00         0.00000E+00        -0.21298E+07
 
    0.10385E+06         0.80954E-08         0.00000E+00
    0.80954E-08        -0.10753E+08         0.00000E+00
    0.00000E+00         0.00000E+00        -0.21298E+07
 
    0.10385E+06        -0.12143E-07         0.00000E+00
   -0.12143E-07        -0.10753E+08         0.00000E+00
    0.00000E+00         0.00000E+00        -0.21298E+07
 
    0.10385E+06         0.80954E-08         0.00000E+00
    0.80954E-08        -0.10753E+08         0.00000E+00
    0.00000E+00         0.00000E+00        -0.21298E+07
 
    0.10385E+06        -0.57824E-08         0.00000E+00
   -0.57824E-08        -0.10753E+08         0.00000E+00
    0.00000E+00         0.00000E+00        -0.21298E+07
 
    0.10385E+06         0.34694E-08         0.00000E+00
    0.34694E-08        -0.10753E+08         0.00000E+00
    0.00000E+00         0.00000E+00        -0.21298E+07
 
    0.10385E+06         0.11565E-08         0.00000E+00
    0.11565E-08        -0.10753E+08         0.00000E+00
    0.00000E+00         0.00000E+00        -0.21298E+07
 
    0.10385E+06        -0.23130E-08         0.00000E+00
   -0.23130E-08        -0.10753E+08         0.00000E+00
    0.00000E+00         0.00000E+00        -0.21298E+07
 
    0.41765E+08        -0.10408E-07         0.00000E+00
   -0.10408E-07         0.15591E+09         0.00000E+00
    0.00000E+00         0.00000E+00         0.39535E+08
 
    0.98229E+05         0.80954E-08         0.00000E+00
    0.80954E-08        -0.10754E+08         0.00000E+00
    0.00000E+00         0.00000E+00        -0.21312E+07
 
    0.98229E+05         0.23130E-08         0.00000E+00
    0.23130E-08        -0.10754E+08         0.00000E+00
    0.00000E+00         0.00000E+00        -0.21312E+07
 
    0.98229E+05        -0.69389E-08         0.00000E+00
   -0.69389E-08        -0.10754E+08         0.00000E+00
    0.00000E+00         0.00000E+00        -0.21312E+07
 
    0.98229E+05         0.80954E-08         0.00000E+00
    0.80954E-08        -0.10754E+08         0.00000E+00
    0.00000E+00         0.00000E+00        -0.21312E+07
 
    0.98229E+05        -0.16769E-07         0.00000E+00
   -0.16769E-07        -0.10754E+08         0.00000E+00
    0.00000E+00         0.00000E+00        -0.21312E+07
 
    0.98229E+05         0.63607E-08         0.00000E+00
    0.63607E-08        -0.10754E+08         0.00000E+00
    0.00000E+00         0.00000E+00        -0.21312E+07
 
    0.98229E+05        -0.23130E-08         0.00000E+00
   -0.23130E-08        -0.10754E+08         0.00000E+00
    0.00000E+00         0.00000E+00        -0.21312E+07
 
    0.98229E+05         0.86736E-08         0.00000E+00
    0.86736E-08        -0.10754E+08         0.00000E+00
    0.00000E+00         0.00000E+00        -0.21312E+07
 
    0.98229E+05        -0.17347E-08         0.00000E+00
   -0.17347E-08        -0.10754E+08         0.00000E+00
    0.00000E+00         0.00000E+00        -0.21312E+07
 
    0.98229E+05         0.40477E-08         0.00000E+00
    0.40477E-08        -0.10754E+08         0.00000E+00
    0.00000E+00         0.00000E+00        -0.21312E+07
 
    0.98229E+05         0.11565E-08         0.00000E+00
    0.11565E-08        -0.10754E+08         0.00000E+00
    0.00000E+00         0.00000E+00        -0.21312E+07
 
    0.98229E+05        -0.10408E-07         0.00000E+00
   -0.10408E-07        -0.10754E+08         0.00000E+00
    0.00000E+00         0.00000E+00        -0.21312E+07
 
    0.98229E+05         0.12721E-07         0.00000E+00
    0.12721E-07        -0.10754E+08         0.00000E+00
    0.00000E+00         0.00000E+00        -0.21312E+07
 
    0.98229E+05        -0.34694E-08         0.00000E+00
   -0.34694E-08        -0.10754E+08         0.00000E+00
    0.00000E+00         0.00000E+00        -0.21312E+07
 
    0.41759E+08        -0.92519E-08         0.00000E+00
   -0.92519E-08         0.15591E+09         0.00000E+00
    0.00000E+00         0.00000E+00         0.39534E+08
 
    0.92503E+05         0.80954E-08         0.00000E+00
    0.80954E-08        -0.10756E+08         0.00000E+00
    0.00000E+00         0.00000E+00        -0.21326E+07
 
    0.92503E+05         0.57824E-08         0.00000E+00
    0.57824E-08        -0.10756E+08         0.00000E+00
    0.00000E+00         0.00000E+00        -0.21326E+07
 
    0.92503E+05        -0.10408E-07         0.00000E+00
   -0.10408E-07        -0.10756E+08         0.00000E+00
    0.00000E+00         0.00000E+00        -0.21326E+07
 
    0.92503E+05         0.92519E-08         0.00000E+00
    0.92519E-08        -0.10756E+08         0.00000E+00
    0.00000E+00         0.00000E+00        -0.21326E+07
 
    0.92503E+05         0.52042E-08         0.00000E+00
    0.52042E-08        -0.10756E+08         0.00000E+00
    0.00000E+00         0.00000E+00        -0.21326E+07
 
    0.92503E+05         0.63607E-08         0.00000E+00
    0.63607E-08        -0.10756E+08         0.00000E+00
    0.00000E+00         0.00000E+00        -0.21326E+07
 
    0.92503E+05         0.11565E-07         0.00000E+00
    0.11565E-07        -0.10756E+08         0.00000E+00
    0.00000E+00         0.00000E+00        -0.21326E+07
 
    0.92503E+05         0.11565E-08         0.00000E+00
    0.11565E-08        -0.10756E+08         0.00000E+00
    0.00000E+00         0.00000E+00        -0.21326E+07
 
    0.92503E+05        -0.57824E-09         0.00000E+00
   -0.57824E-09        -0.10756E+08         0.00000E+00
    0.00000E+00         0.00000E+00        -0.21326E+07
 
    0.92503E+05        -0.17347E-08         0.00000E+00
   -0.17347E-08        -0.10756E+08         0.00000E+00
    0.00000E+00         0.00000E+00        -0.21326E+07
 
    0.92503E+05         0.69389E-08         0.00000E+00
    0.69389E-08        -0.10756E+08         0.00000E+00
    0.00000E+00         0.00000E+00        -0.21326E+07
 
    0.92503E+05         0.11565E-08         0.00000E+00
    0.11565E-08        -0.10756E+08         0.00000E+00
    0.00000E+00         0.00000E+00        -0.21326E+07
 
    0.92503E+05        -0.13878E-07         0.00000E+00
   -0.13878E-07        -0.10756E+08         0.00000E+00
    0.00000E+00         0.00000E+00        -0.21326E+07
 
    0.92503E+05         0.23130E-08         0.00000E+00
    0.23130E-08        -0.10756E+08         0.00000E+00
    0.00000E+00         0.00000E+00        -0.21326E+07
 
    0.41753E+08        -0.10408E-07         0.00000E+00
   -0.10408E-07         0.15591E+09         0.00000E+00
    0.00000E+00         0.00000E+00         0.39533E+08
 
    0.86673E+05         0.15034E-07         0.00000E+00
    0.15034E-07        -0.10757E+08         0.00000E+00
    0.00000E+00         0.00000E+00        -0.21341E+07
 
    0.86673E+05         0.12721E-07         0.00000E+00
    0.12721E-07        -0.10757E+08         0.00000E+00
    0.00000E+00         0.00000E+00        -0.21341E+07
 
    0.86673E+05        -0.80954E-08         0.00000E+00
   -0.80954E-08        -0.10757E+08         0.00000E+00
    0.00000E+00         0.00000E+00        -0.21341E+07
 
    0.86673E+05         0.19660E-07         0.00000E+00
    0.19660E-07        -0.10757E+08         0.00000E+00
    0.00000E+00         0.00000E+00        -0.21341E+07
 
    0.86673E+05        -0.52042E-08         0.00000E+00
   -0.52042E-08        -0.10757E+08         0.00000E+00
    0.00000E+00         0.00000E+00        -0.21341E+07
 
    0.86673E+05         0.10408E-07         0.00000E+00
    0.10408E-07        -0.10757E+08         0.00000E+00
    0.00000E+00         0.00000E+00        -0.21341E+07
 
    0.86673E+05         0.75171E-08         0.00000E+00
    0.75171E-08        -0.10757E+08         0.00000E+00
    0.00000E+00         0.00000E+00        -0.21341E+07
 
    0.86673E+05        -0.98301E-08         0.00000E+00
   -0.98301E-08        -0.10757E+08         0.00000E+00
    0.00000E+00         0.00000E+00        -0.21341E+07
 
    0.86673E+05         0.69389E-08         0.00000E+00
    0.69389E-08        -0.10757E+08         0.00000E+00
    0.00000E+00         0.00000E+00        -0.21341E+07
 
    0.86673E+05         0.11565E-08         0.00000E+00
    0.11565E-08        -0.10757E+08         0.00000E+00
    0.00000E+00         0.00000E+00        -0.21341E+07
 
    0.86673E+05         0.18504E-07         0.00000E+00
    0.18504E-07        -0.10757E+08         0.00000E+00
    0.00000E+00         0.00000E+00        -0.21341E+07
 
    0.86673E+05         0.46259E-08         0.00000E+00
    0.46259E-08        -0.10757E+08         0.00000E+00
    0.00000E+00         0.00000E+00        -0.21341E+07
 
    0.86673E+05        -0.16191E-07         0.00000E+00
   -0.16191E-07        -0.10757E+08         0.00000E+00
    0.00000E+00         0.00000E+00        -0.21341E+07
 
    0.86673E+05         0.80954E-08         0.00000E+00
    0.80954E-08        -0.10757E+08         0.00000E+00
    0.00000E+00         0.00000E+00        -0.21341E+07
 
    0.41747E+08         0.52042E-07         0.00000E+00
    0.52042E-07         0.15591E+09         0.00000E+00
    0.00000E+00         0.00000E+00         0.39531E+08
 
    0.80744E+05         0.46259E-08         0.00000E+00
    0.46259E-08        -0.10758E+08         0.00000E+00
    0.00000E+00         0.00000E+00        -0.21355E+07
 
    0.80744E+05         0.34694E-08         0.00000E+00
    0.34694E-08        -0.10758E+08         0.00000E+00
    0.00000E+00         0.00000E+00        -0.21355E+07
 
    0.80744E+05         0.12721E-07         0.00000E+00
    0.12721E-07        -0.10758E+08         0.00000E+00
    0.00000E+00         0.00000E+00        -0.21355E+07
 
    0.80744E+05         0.32382E-07         0.00000E+00
    0.32382E-07        -0.10758E+08         0.00000E+00
    0.00000E+00         0.00000E+00        -0.21355E+07
 
    0.80744E+05        -0.24864E-07         0.00000E+00
   -0.24864E-07        -0.10758E+08         0.00000E+00
    0.00000E+00         0.00000E+00        -0.21355E+07
 
    0.80744E+05         0.12143E-07         0.00000E+00
    0.12143E-07        -0.10758E+08         0.00000E+00
    0.00000E+00         0.00000E+00        -0.21355E+07
 
    0.80744E+05        -0.17347E-08         0.00000E+00
   -0.17347E-08        -0.10758E+08         0.00000E+00
    0.00000E+00         0.00000E+00        -0.21355E+07
 
    0.80744E+05        -0.14456E-07         0.00000E+00
   -0.14456E-07        -0.10758E+08         0.00000E+00
    0.00000E+00         0.00000E+00        -0.21355E+07
 
    0.80744E+05         0.57824E-09         0.00000E+00
    0.57824E-09        -0.10758E+08         0.00000E+00
    0.00000E+00         0.00000E+00        -0.21355E+07
 
    0.80744E+05         0.00000E+00         0.00000E+00
    0.00000E+00        -0.10758E+08         0.00000E+00
    0.00000E+00         0.00000E+00        -0.21355E+07
 
    0.80744E+05         0.10408E-07         0.00000E+00
    0.10408E-07        -0.10758E+08         0.00000E+00
    0.00000E+00         0.00000E+00        -0.21355E+07
 
    0.80744E+05         0.34694E-08         0.00000E+00
    0.34694E-08        -0.10758E+08         0.00000E+00
    0.00000E+00         0.00000E+00        -0.21355E+07
 
    0.80744E+05        -0.23130E-08         0.00000E+00
   -0.23130E-08        -0.10758E+08         0.00000E+00
    0.00000E+00         0.00000E+00        -0.21355E+07
 
    0.80744E+05         0.00000E+00         0.00000E+00
    0.00000E+00        -0.10758E+08         0.00000E+00
    0.00000E+00         0.00000E+00        -0.21355E+07
 
    0.41741E+08        -0.47416E-07         0.00000E+00
   -0.47416E-07         0.15591E+09         0.00000E+00
    0.00000E+00         0.00000E+00         0.39530E+08
 
    0.74719E+05        -0.24286E-07         0.00000E+00
   -0.24286E-07        -0.10760E+08         0.00000E+00
    0.00000E+00         0.00000E+00        -0.21370E+07
 
    0.74719E+05        -0.30069E-07         0.00000E+00
   -0.30069E-07        -0.10760E+08         0.00000E+00
    0.00000E+00         0.00000E+00        -0.21370E+07
 
    0.74719E+05         0.11565E-08         0.00000E+00
    0.11565E-08        -0.10760E+08         0.00000E+00
    0.00000E+00         0.00000E+00        -0.21370E+07
 
    0.74719E+05         0.34694E-08         0.00000E+00
    0.34694E-08        -0.10760E+08         0.00000E+00
    0.00000E+00         0.00000E+00        -0.21370E+07
 
    0.74719E+05        -0.52042E-08         0.00000E+00
   -0.52042E-08        -0.10760E+08         0.00000E+00
    0.00000E+00         0.00000E+00        -0.21370E+07
 
    0.74719E+05        -0.12143E-07         0.00000E+00
   -0.12143E-07        -0.10760E+08         0.00000E+00
    0.00000E+00         0.00000E+00        -0.21370E+07
 
    0.74719E+05         0.34694E-08         0.00000E+00
    0.34694E-08        -0.10760E+08         0.00000E+00
    0.00000E+00         0.00000E+00        -0.21370E+07
 
    0.74719E+05        -0.14456E-07         0.00000E+00
   -0.14456E-07        -0.10760E+08         0.00000E+00
    0.00000E+00         0.00000E+00        -0.21370E+07
 
    0.74719E+05        -0.28912E-08         0.00000E+00
   -0.28912E-08        -0.10760E+08         0.00000E+00
    0.00000E+00         0.00000E+00        -0.21370E+07
 
    0.74719E+05        -0.80954E-08         0.00000E+00
   -0.80954E-08        -0.10760E+08         0.00000E+00
    0.00000E+00         0.00000E+00        -0.21370E+07
 
    0.74719E+05        -0.23130E-08         0.00000E+00
   -0.23130E-08        -0.10760E+08         0.00000E+00
    0.00000E+00         0.00000E+00        -0.21370E+07
 
    0.74719E+05        -0.11565E-08         0.00000E+00
   -0.11565E-08        -0.10760E+08         0.00000E+00
    0.00000E+00         0.00000E+00        -0.21370E+07
 
    0.74719E+05        -0.11565E-08         0.00000E+00
   -0.11565E-08        -0.10760E+08         0.00000E+00
    0.00000E+00         0.00000E+00        -0.21370E+07
 
    0.74719E+05        -0.23130E-08         0.00000E+00
   -0.23130E-08        -0.10760E+08         0.00000E+00
    0.00000E+00         0.00000E+00        -0.21370E+07
 
    0.41735E+08        -0.45103E-07         0.00000E+00
   -0.45103E-07         0.15591E+09         0.00000E+00
    0.00000E+00         0.00000E+00         0.39528E+08
 
    0.68601E+05         0.46259E-08         0.00000E+00
    0.46259E-08        -0.10761E+08         0.00000E+00
    0.00000E+00         0.00000E+00        -0.21386E+07
 
    0.68601E+05        -0.10408E-07         0.00000E+00
   -0.10408E-07        -0.10761E+08         0.00000E+00
    0.00000E+00         0.00000E+00        -0.21386E+07
 
    0.68601E+05        -0.15034E-07         0.00000E+00
   -0.15034E-07        -0.10761E+08         0.00000E+00
    0.00000E+00         0.00000E+00        -0.21386E+07
 
    0.68601E+05        -0.92519E-08         0.00000E+00
   -0.92519E-08        -0.10761E+08         0.00000E+00
    0.00000E+00         0.00000E+00        -0.21386E+07
 
    0.68601E+05        -0.17347E-08         0.00000E+00
   -0.17347E-08        -0.10761E+08         0.00000E+00
    0.00000E+00         0.00000E+00        -0.21386E+07
 
    0.68601E+05         0.63607E-08         0.00000E+00
    0.63607E-08        -0.10761E+08         0.00000E+00
    0.00000E+00         0.00000E+00        -0.21386E+07
 
    0.68601E+05        -0.12721E-07         0.00000E+00
   -0.12721E-07        -0.10761E+08         0.00000E+00
    0.00000E+00         0.00000E+00        -0.21386E+07
 
    0.68601E+05        -0.57824E-08         0.00000E+00
   -0.57824E-08        -0.10761E+08         0.00000E+00
    0.00000E+00         0.00000E+00        -0.21386E+07
 
    0.68601E+05        -0.34694E-08         0.00000E+00
   -0.34694E-08        -0.10761E+08         0.00000E+00
    0.00000E+00         0.00000E+00        -0.21386E+07
 
    0.68601E+05        -0.23130E-08         0.00000E+00
   -0.23130E-08        -0.10761E+08         0.00000E+00
    0.00000E+00         0.00000E+00        -0.21386E+07
 
    0.68601E+05         0.17347E-07         0.00000E+00
    0.17347E-07        -0.10761E+08         0.00000E+00
    0.00000E+00         0.00000E+00        -0.21386E+07
 
    0.68601E+05        -0.80954E-08         0.00000E+00
   -0.80954E-08        -0.10761E+08         0.00000E+00
    0.00000E+00         0.00000E+00        -0.21386E+07
 
    0.68601E+05        -0.19660E-07         0.00000E+00
   -0.19660E-07        -0.10761E+08         0.00000E+00
    0.00000E+00         0.00000E+00        -0.21386E+07
 
    0.68601E+05         0.11565E-08         0.00000E+00
    0.11565E-08        -0.10761E+08         0.00000E+00
    0.00000E+00         0.00000E+00        -0.21386E+07
 
    0.41729E+08         0.10293E-06         0.00000E+00
    0.10293E-06         0.15590E+09         0.00000E+00
    0.00000E+00         0.00000E+00         0.39527E+08
 
    0.62395E+05        -0.27756E-07         0.00000E+00
   -0.27756E-07        -0.10763E+08         0.00000E+00
    0.00000E+00         0.00000E+00        -0.21401E+07
 
    0.62395E+05         0.12721E-07         0.00000E+00
    0.12721E-07        -0.10763E+08         0.00000E+00
    0.00000E+00         0.00000E+00        -0.21401E+07
 
    0.62395E+05         0.34694E-08         0.00000E+00
    0.34694E-08        -0.10763E+08         0.00000E+00
    0.00000E+00         0.00000E+00        -0.21401E+07
 
    0.62395E+05         0.46259E-08         0.00000E+00
    0.46259E-08        -0.10763E+08         0.00000E+00
    0.00000E+00         0.00000E+00        -0.21401E+07
 
    0.62395E+05         0.40477E-08         0.00000E+00
    0.40477E-08        -0.10763E+08         0.00000E+00
    0.00000E+00         0.00000E+00        -0.21401E+07
 
    0.62395E+05         0.14456E-07         0.00000E+00
    0.14456E-07        -0.10763E+08         0.00000E+00
    0.00000E+00         0.00000E+00        -0.21401E+07
 
    0.62395E+05         0.10408E-07         0.00000E+00
    0.10408E-07        -0.10763E+08         0.00000E+00
    0.00000E+00         0.00000E+00        -0.21401E+07
 
    0.62395E+05        -0.12143E-07         0.00000E+00
   -0.12143E-07        -0.10763E+08         0.00000E+00
    0.00000E+00         0.00000E+00        -0.21401E+07
 
    0.62395E+05        -0.34694E-08         0.00000E+00
   -0.34694E-08        -0.10763E+08         0.00000E+00
    0.00000E+00         0.00000E+00        -0.21401E+07
 
    0.62395E+05         0.34694E-08         0.00000E+00
    0.34694E-08        -0.10763E+08         0.00000E+00
    0.00000E+00         0.00000E+00        -0.21401E+07
 
    0.62395E+05         0.00000E+00         0.00000E+00
    0.00000E+00        -0.10763E+08         0.00000E+00
    0.00000E+00         0.00000E+00        -0.21401E+07
 
    0.62395E+05         0.11565E-08         0.00000E+00
    0.11565E-08        -0.10763E+08         0.00000E+00
    0.00000E+00         0.00000E+00        -0.21401E+07
 
    0.62395E+05        -0.15034E-07         0.00000E+00
   -0.15034E-07        -0.10763E+08         0.00000E+00
    0.00000E+00         0.00000E+00        -0.21401E+07
 
    0.62395E+05         0.24286E-07         0.00000E+00
    0.24286E-07        -0.10763E+08         0.00000E+00
    0.00000E+00         0.00000E+00        -0.21401E+07
 
    0.41723E+08         0.15034E-07         0.00000E+00
    0.15034E-07         0.15590E+09         0.00000E+00
    0.00000E+00         0.00000E+00         0.39525E+08
 
    0.56105E+05        -0.12721E-07         0.00000E+00
   -0.12721E-07        -0.10765E+08         0.00000E+00
    0.00000E+00         0.00000E+00        -0.21417E+07
 
    0.56105E+05         0.10408E-07         0.00000E+00
    0.10408E-07        -0.10765E+08         0.00000E+00
    0.00000E+00         0.00000E+00        -0.21417E+07
 
    0.56105E+05         0.15034E-07         0.00000E+00
    0.15034E-07        -0.10765E+08         0.00000E+00
    0.00000E+00         0.00000E+00        -0.21417E+07
 
    0.56105E+05        -0.23130E-08         0.00000E+00
   -0.23130E-08        -0.10765E+08         0.00000E+00
    0.00000E+00         0.00000E+00        -0.21417E+07
 
    0.56105E+05        -0.10987E-07         0.00000E+00
   -0.10987E-07        -0.10765E+08         0.00000E+00
    0.00000E+00         0.00000E+00        -0.21417E+07
 
    0.56105E+05         0.20817E-07         0.00000E+00
    0.20817E-07        -0.10765E+08         0.00000E+00
    0.00000E+00         0.00000E+00        -0.21417E+07
 
    0.56105E+05         0.11565E-08         0.00000E+00
    0.11565E-08        -0.10765E+08         0.00000E+00
    0.00000E+00         0.00000E+00        -0.21417E+07
 
    0.56105E+05        -0.15613E-07         0.00000E+00
   -0.15613E-07        -0.10765E+08         0.00000E+00
    0.00000E+00         0.00000E+00        -0.21417E+07
 
    0.56105E+05         0.11565E-08         0.00000E+00
    0.11565E-08        -0.10765E+08         0.00000E+00
    0.00000E+00         0.00000E+00        -0.21417E+07
 
    0.56105E+05         0.11565E-08         0.00000E+00
    0.11565E-08        -0.10765E+08         0.00000E+00
    0.00000E+00         0.00000E+00        -0.21417E+07
 
    0.56105E+05         0.34694E-08         0.00000E+00
    0.34694E-08        -0.10765E+08         0.00000E+00
    0.00000E+00         0.00000E+00        -0.21417E+07
 
    0.56105E+05         0.17347E-07         0.00000E+00
    0.17347E-07        -0.10765E+08         0.00000E+00
    0.00000E+00         0.00000E+00        -0.21417E+07
 
    0.56105E+05        -0.33538E-07         0.00000E+00
   -0.33538E-07        -0.10765E+08         0.00000E+00
    0.00000E+00         0.00000E+00        -0.21417E+07
 
    0.56105E+05         0.10408E-07         0.00000E+00
    0.10408E-07        -0.10765E+08         0.00000E+00
    0.00000E+00         0.00000E+00        -0.21417E+07
 
    0.41716E+08        -0.41633E-07         0.00000E+00
   -0.41633E-07         0.15590E+09         0.00000E+00
    0.00000E+00         0.00000E+00         0.39523E+08
 
    0.49736E+05         0.92519E-08         0.00000E+00
    0.92519E-08        -0.10766E+08         0.00000E+00
    0.00000E+00         0.00000E+00        -0.21433E+07
 
    0.49736E+05        -0.34694E-08         0.00000E+00
   -0.34694E-08        -0.10766E+08         0.00000E+00
    0.00000E+00         0.00000E+00        -0.21433E+07
 
    0.49736E+05         0.13878E-07         0.00000E+00
    0.13878E-07        -0.10766E+08         0.00000E+00
    0.00000E+00         0.00000E+00        -0.21433E+07
 
    0.49736E+05        -0.11565E-08         0.00000E+00
   -0.11565E-08        -0.10766E+08         0.00000E+00
    0.00000E+00         0.00000E+00        -0.21433E+07
 
    0.49736E+05        -0.86736E-08         0.00000E+00
   -0.86736E-08        -0.10766E+08         0.00000E+00
    0.00000E+00         0.00000E+00        -0.21433E+07
 
    0.49736E+05         0.69389E-08         0.00000E+00
    0.69389E-08        -0.10766E+08         0.00000E+00
    0.00000E+00         0.00000E+00        -0.21433E+07
 
    0.49736E+05         0.69389E-08         0.00000E+00
    0.69389E-08        -0.10766E+08         0.00000E+00
    0.00000E+00         0.00000E+00        -0.21433E+07
 
    0.49736E+05        -0.11565E-08         0.00000E+00
   -0.11565E-08        -0.10766E+08         0.00000E+00
    0.00000E+00         0.00000E+00        -0.21433E+07
 
    0.49736E+05         0.00000E+00         0.00000E+00
    0.00000E+00        -0.10766E+08         0.00000E+00
    0.00000E+00         0.00000E+00        -0.21433E+07
 
    0.49736E+05        -0.11565E-07         0.00000E+00
   -0.11565E-07        -0.10766E+08         0.00000E+00
    0.00000E+00         0.00000E+00        -0.21433E+07
 
    0.49736E+05         0.13878E-07         0.00000E+00
    0.13878E-07        -0.10766E+08         0.00000E+00
    0.00000E+00         0.00000E+00        -0.21433E+07
 
    0.49736E+05         0.34694E-08         0.00000E+00
    0.34694E-08        -0.10766E+08         0.00000E+00
    0.00000E+00         0.00000E+00        -0.21433E+07
 
    0.49736E+05        -0.23130E-08         0.00000E+00
   -0.23130E-08        -0.10766E+08         0.00000E+00
    0.00000E+00         0.00000E+00        -0.21433E+07
 
    0.49736E+05        -0.23130E-08         0.00000E+00
   -0.23130E-08        -0.10766E+08         0.00000E+00
    0.00000E+00         0.00000E+00        -0.21433E+07
 
    0.41710E+08         0.12721E-07         0.00000E+00
    0.12721E-07         0.15590E+09         0.00000E+00
    0.00000E+00         0.00000E+00         0.39522E+08
 
    0.43293E+05        -0.24286E-07         0.00000E+00
   -0.24286E-07        -0.10768E+08         0.00000E+00
    0.00000E+00         0.00000E+00        -0.21449E+07
 
    0.43293E+05        -0.18504E-07         0.00000E+00
   -0.18504E-07        -0.10768E+08         0.00000E+00
    0.00000E+00         0.00000E+00        -0.21449E+07
 
    0.43293E+05         0.13878E-07         0.00000E+00
    0.13878E-07        -0.10768E+08         0.00000E+00
    0.00000E+00         0.00000E+00        -0.21449E+07
 
    0.43293E+05        -0.17347E-07         0.00000E+00
   -0.17347E-07        -0.10768E+08         0.00000E+00
    0.00000E+00         0.00000E+00        -0.21449E+07
 
    0.43293E+05         0.13300E-07         0.00000E+00
    0.13300E-07        -0.10768E+08         0.00000E+00
    0.00000E+00         0.00000E+00        -0.21449E+07
 
    0.43293E+05         0.23130E-08         0.00000E+00
    0.23130E-08        -0.10768E+08         0.00000E+00
    0.00000E+00         0.00000E+00        -0.21449E+07
 
    0.43293E+05         0.57824E-08         0.00000E+00
    0.57824E-08        -0.10768E+08         0.00000E+00
    0.00000E+00         0.00000E+00        -0.21449E+07
 
    0.43293E+05         0.69389E-08         0.00000E+00
    0.69389E-08        -0.10768E+08         0.00000E+00
    0.00000E+00         0.00000E+00        -0.21449E+07
 
    0.43293E+05        -0.11565E-08         0.00000E+00
   -0.11565E-08        -0.10768E+08         0.00000E+00
    0.00000E+00         0.00000E+00        -0.21449E+07
 
    0.43293E+05         0.23130E-08         0.00000E+00
    0.23130E-08        -0.10768E+08         0.00000E+00
    0.00000E+00         0.00000E+00        -0.21449E+07
 
    0.43293E+05         0.80954E-08         0.00000E+00
    0.80954E-08        -0.10768E+08         0.00000E+00
    0.00000E+00         0.00000E+00        -0.21449E+07
 
    0.43293E+05         0.80954E-08         0.00000E+00
    0.80954E-08        -0.10768E+08         0.00000E+00
    0.00000E+00         0.00000E+00        -0.21449E+07
 
    0.43293E+05        -0.57824E-08         0.00000E+00
   -0.57824E-08        -0.10768E+08         0.00000E+00
    0.00000E+00         0.00000E+00        -0.21449E+07
 
    0.43293E+05         0.57824E-08         0.00000E+00
    0.57824E-08        -0.10768E+08         0.00000E+00
    0.00000E+00         0.00000E+00        -0.21449E+07
 
    0.41703E+08         0.69389E-07         0.00000E+00
    0.69389E-07         0.15590E+09         0.00000E+00
    0.00000E+00         0.00000E+00         0.39520E+08
 
    0.36781E+05         0.57824E-08         0.00000E+00
    0.57824E-08        -0.10769E+08         0.00000E+00
    0.00000E+00         0.00000E+00        -0.21465E+07
 
    0.36781E+05         0.35851E-07         0.00000E+00
    0.35851E-07        -0.10769E+08         0.00000E+00
    0.00000E+00         0.00000E+00        -0.21465E+07
 
    0.36781E+05         0.28912E-07         0.00000E+00
    0.28912E-07        -0.10769E+08         0.00000E+00
    0.00000E+00         0.00000E+00        -0.21465E+07
 
    0.36781E+05        -0.13878E-07         0.00000E+00
   -0.13878E-07        -0.10769E+08         0.00000E+00
    0.00000E+00         0.00000E+00        -0.21465E+07
 
    0.36781E+05         0.98301E-08         0.00000E+00
    0.98301E-08        -0.10769E+08         0.00000E+00
    0.00000E+00         0.00000E+00        -0.21465E+07
 
    0.36781E+05        -0.98301E-08         0.00000E+00
   -0.98301E-08        -0.10769E+08         0.00000E+00
    0.00000E+00         0.00000E+00        -0.21465E+07
 
    0.36781E+05         0.34694E-08         0.00000E+00
    0.34694E-08        -0.10769E+08         0.00000E+00
    0.00000E+00         0.00000E+00        -0.21465E+07
 
    0.36781E+05         0.11565E-08         0.00000E+00
    0.11565E-08        -0.10769E+08         0.00000E+00
    0.00000E+00         0.00000E+00        -0.21465E+07
 
    0.36781E+05         0.18504E-07         0.00000E+00
    0.18504E-07        -0.10769E+08         0.00000E+00
    0.00000E+00         0.00000E+00        -0.21465E+07
 
    0.36781E+05         0.23130E-08         0.00000E+00
    0.23130E-08        -0.10769E+08         0.00000E+00
    0.00000E+00         0.00000E+00        -0.21465E+07
 
    0.36781E+05        -0.34694E-08         0.00000E+00
   -0.34694E-08        -0.10769E+08         0.00000E+00
    0.00000E+00         0.00000E+00        -0.21465E+07
 
    0.36781E+05        -0.34694E-08         0.00000E+00
   -0.34694E-08        -0.10769E+08         0.00000E+00
    0.00000E+00         0.00000E+00        -0.21465E+07
 
    0.36781E+05        -0.12721E-07         0.00000E+00
   -0.12721E-07        -0.10769E+08         0.00000E+00
    0.00000E+00         0.00000E+00        -0.21465E+07
 
    0.36781E+05         0.34694E-08         0.00000E+00
    0.34694E-08        -0.10769E+08         0.00000E+00
    0.00000E+00         0.00000E+00        -0.21465E+07
 
    0.41697E+08        -0.11565E-07         0.00000E+00
   -0.11565E-07         0.15590E+09         0.00000E+00
    0.00000E+00         0.00000E+00         0.39518E+08
 
    0.30206E+05        -0.15034E-07         0.00000E+00
   -0.15034E-07        -0.10771E+08         0.00000E+00
    0.00000E+00         0.00000E+00        -0.21482E+07
 
    0.30206E+05         0.12721E-07         0.00000E+00
    0.12721E-07        -0.10771E+08         0.00000E+00
    0.00000E+00         0.00000E+00        -0.21482E+07
 
    0.30206E+05        -0.57824E-08         0.00000E+00
   -0.57824E-08        -0.10771E+08         0.00000E+00
    0.00000E+00         0.00000E+00        -0.21482E+07
 
    0.30206E+05         0.15034E-07         0.00000E+00
    0.15034E-07        -0.10771E+08         0.00000E+00
    0.00000E+00         0.00000E+00        -0.21482E+07
 
    0.30206E+05         0.69389E-08         0.00000E+00
    0.69389E-08        -0.10771E+08         0.00000E+00
    0.00000E+00         0.00000E+00        -0.21482E+07
 
    0.30206E+05         0.11565E-08         0.00000E+00
    0.11565E-08        -0.10771E+08         0.00000E+00
    0.00000E+00         0.00000E+00        -0.21482E+07
 
    0.30206E+05        -0.34694E-08         0.00000E+00
   -0.34694E-08        -0.10771E+08         0.00000E+00
    0.00000E+00         0.00000E+00        -0.21482E+07
 
    0.30206E+05         0.10987E-07         0.00000E+00
    0.10987E-07        -0.10771E+08         0.00000E+00
    0.00000E+00         0.00000E+00        -0.21482E+07
 
    0.30206E+05         0.25443E-07         0.00000E+00
    0.25443E-07        -0.10771E+08         0.00000E+00
    0.00000E+00         0.00000E+00        -0.21482E+07
 
    0.30206E+05         0.17347E-07         0.00000E+00
    0.17347E-07        -0.10771E+08         0.00000E+00
    0.00000E+00         0.00000E+00        -0.21482E+07
 
    0.30206E+05         0.10408E-07         0.00000E+00
    0.10408E-07        -0.10771E+08         0.00000E+00
    0.00000E+00         0.00000E+00        -0.21482E+07
 
    0.30206E+05        -0.57824E-08         0.00000E+00
   -0.57824E-08        -0.10771E+08         0.00000E+00
    0.00000E+00         0.00000E+00        -0.21482E+07
 
    0.30206E+05         0.19660E-07         0.00000E+00
    0.19660E-07        -0.10771E+08         0.00000E+00
    0.00000E+00         0.00000E+00        -0.21482E+07
 
    0.30206E+05        -0.19660E-07         0.00000E+00
   -0.19660E-07        -0.10771E+08         0.00000E+00
    0.00000E+00         0.00000E+00        -0.21482E+07
 
    0.41690E+08        -0.23130E-07         0.00000E+00
   -0.23130E-07         0.15589E+09         0.00000E+00
    0.00000E+00         0.00000E+00         0.39517E+08
 
    0.23573E+05         0.00000E+00         0.00000E+00
    0.00000E+00        -0.10773E+08         0.00000E+00
    0.00000E+00         0.00000E+00        -0.21498E+07
 
    0.23573E+05        -0.57824E-08         0.00000E+00
   -0.57824E-08        -0.10773E+08         0.00000E+00
    0.00000E+00         0.00000E+00        -0.21498E+07
 
    0.23573E+05         0.80954E-08         0.00000E+00
    0.80954E-08        -0.10773E+08         0.00000E+00
    0.00000E+00         0.00000E+00        -0.21498E+07
 
    0.23573E+05         0.38164E-07         0.00000E+00
    0.38164E-07        -0.10773E+08         0.00000E+00
    0.00000E+00         0.00000E+00        -0.21498E+07
 
    0.23573E+05        -0.57824E-09         0.00000E+00
   -0.57824E-09        -0.10773E+08         0.00000E+00
    0.00000E+00         0.00000E+00        -0.21498E+07
 
    0.23573E+05         0.34694E-08         0.00000E+00
    0.34694E-08        -0.10773E+08         0.00000E+00
    0.00000E+00         0.00000E+00        -0.21498E+07
 
    0.23573E+05         0.12721E-07         0.00000E+00
    0.12721E-07        -0.10773E+08         0.00000E+00
    0.00000E+00         0.00000E+00        -0.21498E+07
 
    0.23573E+05         0.00000E+00         0.00000E+00
    0.00000E+00        -0.10773E+08         0.00000E+00
    0.00000E+00         0.00000E+00        -0.21498E+07
 
    0.23573E+05         0.69389E-08         0.00000E+00
    0.69389E-08        -0.10773E+08         0.00000E+00
    0.00000E+00         0.00000E+00        -0.21498E+07
 
    0.23573E+05         0.11565E-08         0.00000E+00
    0.11565E-08        -0.10773E+08         0.00000E+00
    0.00000E+00         0.00000E+00        -0.21498E+07
 
    0.23573E+05        -0.46259E-08         0.00000E+00
   -0.46259E-08        -0.10773E+08         0.00000E+00
    0.00000E+00         0.00000E+00        -0.21498E+07
 
    0.23573E+05        -0.12721E-07         0.00000E+00
   -0.12721E-07        -0.10773E+08         0.00000E+00
    0.00000E+00         0.00000E+00        -0.21498E+07
 
    0.23573E+05        -0.12721E-07         0.00000E+00
   -0.12721E-07        -0.10773E+08         0.00000E+00
    0.00000E+00         0.00000E+00        -0.21498E+07
 
    0.23573E+05        -0.57824E-08         0.00000E+00
   -0.57824E-08        -0.10773E+08         0.00000E+00
    0.00000E+00         0.00000E+00        -0.21498E+07
 
    0.41684E+08         0.12721E-07         0.00000E+00
    0.12721E-07         0.15589E+09         0.00000E+00
    0.00000E+00         0.00000E+00         0.39515E+08
 
    0.16889E+05         0.92519E-08         0.00000E+00
    0.92519E-08        -0.10774E+08         0.00000E+00
    0.00000E+00         0.00000E+00        -0.21515E+07
 
    0.16889E+05        -0.23130E-08         0.00000E+00
   -0.23130E-08        -0.10774E+08         0.00000E+00
    0.00000E+00         0.00000E+00        -0.21515E+07
 
    0.16889E+05        -0.92519E-08         0.00000E+00
   -0.92519E-08        -0.10774E+08         0.00000E+00
    0.00000E+00         0.00000E+00        -0.21515E+07
 
    0.16889E+05         0.16191E-07         0.00000E+00
    0.16191E-07        -0.10774E+08         0.00000E+00
    0.00000E+00         0.00000E+00        -0.21515E+07
 
    0.16889E+05         0.10987E-07         0.00000E+00
    0.10987E-07        -0.10774E+08         0.00000E+00
    0.00000E+00         0.00000E+00        -0.21515E+07
 
    0.16889E+05        -0.57824E-09         0.00000E+00
   -0.57824E-09        -0.10774E+08         0.00000E+00
    0.00000E+00         0.00000E+00        -0.21515E+07
 
    0.16889E+05        -0.52042E-08         0.00000E+00
   -0.52042E-08        -0.10774E+08         0.00000E+00
    0.00000E+00         0.00000E+00        -0.21515E+07
 
    0.16889E+05        -0.34694E-08         0.00000E+00
   -0.34694E-08        -0.10774E+08         0.00000E+00
    0.00000E+00         0.00000E+00        -0.21515E+07
 
    0.16889E+05        -0.16191E-07         0.00000E+00
   -0.16191E-07        -0.10774E+08         0.00000E+00
    0.00000E+00         0.00000E+00        -0.21515E+07
 
    0.16889E+05        -0.18504E-07         0.00000E+00
   -0.18504E-07        -0.10774E+08         0.00000E+00
    0.00000E+00         0.00000E+00        -0.21515E+07
 
    0.16889E+05        -0.12721E-07         0.00000E+00
   -0.12721E-07        -0.10774E+08         0.00000E+00
    0.00000E+00         0.00000E+00        -0.21515E+07
 
    0.16889E+05        -0.10408E-07         0.00000E+00
   -0.10408E-07        -0.10774E+08         0.00000E+00
    0.00000E+00         0.00000E+00        -0.21515E+07
 
    0.16889E+05        -0.80954E-08         0.00000E+00
   -0.80954E-08        -0.10774E+08         0.00000E+00
    0.00000E+00         0.00000E+00        -0.21515E+07
 
    0.16889E+05        -0.11565E-07         0.00000E+00
   -0.11565E-07        -0.10774E+08         0.00000E+00
    0.00000E+00         0.00000E+00        -0.21515E+07
 
    0.41677E+08         0.28912E-07         0.00000E+00
    0.28912E-07         0.15589E+09         0.00000E+00
    0.00000E+00         0.00000E+00         0.39513E+08
 
    0.10160E+05         0.10408E-07         0.00000E+00
    0.10408E-07        -0.10776E+08         0.00000E+00
    0.00000E+00         0.00000E+00        -0.21532E+07
 
    0.10160E+05         0.11565E-07         0.00000E+00
    0.11565E-07        -0.10776E+08         0.00000E+00
    0.00000E+00         0.00000E+00        -0.21532E+07
 
    0.10160E+05        -0.21973E-07         0.00000E+00
   -0.21973E-07        -0.10776E+08         0.00000E+00
    0.00000E+00         0.00000E+00        -0.21532E+07
 
    0.10160E+05        -0.92519E-08         0.00000E+00
   -0.92519E-08        -0.10776E+08         0.00000E+00
    0.00000E+00         0.00000E+00        -0.21532E+07
 
    0.10160E+05         0.69389E-08         0.00000E+00
    0.69389E-08        -0.10776E+08         0.00000E+00
    0.00000E+00         0.00000E+00        -0.21532E+07
 
    0.10160E+05        -0.57824E-09         0.00000E+00
   -0.57824E-09        -0.10776E+08         0.00000E+00
    0.00000E+00         0.00000E+00        -0.21532E+07
 
    0.10160E+05         0.21973E-07         0.00000E+00
    0.21973E-07        -0.10776E+08         0.00000E+00
    0.00000E+00         0.00000E+00        -0.21532E+07
 
    0.10160E+05        -0.28912E-07         0.00000E+00
   -0.28912E-07        -0.10776E+08         0.00000E+00
    0.00000E+00         0.00000E+00        -0.21532E+07
 
    0.10160E+05        -0.46259E-08         0.00000E+00
   -0.46259E-08        -0.10776E+08         0.00000E+00
    0.00000E+00         0.00000E+00        -0.21532E+07
 
    0.10160E+05         0.00000E+00         0.00000E+00
    0.00000E+00        -0.10776E+08         0.00000E+00
    0.00000E+00         0.00000E+00        -0.21532E+07
 
    0.10160E+05         0.11565E-08         0.00000E+00
    0.11565E-08        -0.10776E+08         0.00000E+00
    0.00000E+00         0.00000E+00        -0.21532E+07
 
    0.10160E+05        -0.46259E-08         0.00000E+00
   -0.46259E-08        -0.10776E+08         0.00000E+00
    0.00000E+00         0.00000E+00        -0.21532E+07
 
    0.10160E+05        -0.92519E-08         0.00000E+00
   -0.92519E-08        -0.10776E+08         0.00000E+00
    0.00000E+00         0.00000E+00        -0.21532E+07
 
    0.10160E+05        -0.92519E-08         0.00000E+00
   -0.92519E-08        -0.10776E+08         0.00000E+00
    0.00000E+00         0.00000E+00        -0.21532E+07
 
    0.41670E+08         0.34694E-08         0.00000E+00
    0.34694E-08         0.15589E+09         0.00000E+00
    0.00000E+00         0.00000E+00         0.39512E+08
 
    0.33926E+04        -0.46259E-07         0.00000E+00
   -0.46259E-07        -0.10778E+08         0.00000E+00
    0.00000E+00         0.00000E+00        -0.21549E+07
 
    0.33926E+04         0.20817E-07         0.00000E+00
    0.20817E-07        -0.10778E+08         0.00000E+00
    0.00000E+00         0.00000E+00        -0.21549E+07
 
    0.33926E+04        -0.12721E-07         0.00000E+00
   -0.12721E-07        -0.10778E+08         0.00000E+00
    0.00000E+00         0.00000E+00        -0.21549E+07
 
    0.33926E+04        -0.23130E-07         0.00000E+00
   -0.23130E-07        -0.10778E+08         0.00000E+00
    0.00000E+00         0.00000E+00        -0.21549E+07
 
    0.33926E+04        -0.29490E-07         0.00000E+00
   -0.29490E-07        -0.10778E+08         0.00000E+00
    0.00000E+00         0.00000E+00        -0.21549E+07
 
    0.33926E+04        -0.28334E-07         0.00000E+00
   -0.28334E-07        -0.10778E+08         0.00000E+00
    0.00000E+00         0.00000E+00        -0.21549E+07
 
    0.33926E+04        -0.30647E-07         0.00000E+00
   -0.30647E-07        -0.10778E+08         0.00000E+00
    0.00000E+00         0.00000E+00        -0.21549E+07
 
    0.33926E+04        -0.11565E-08         0.00000E+00
   -0.11565E-08        -0.10778E+08         0.00000E+00
    0.00000E+00         0.00000E+00        -0.21549E+07
 
    0.33926E+04         0.11565E-07         0.00000E+00
    0.11565E-07        -0.10778E+08         0.00000E+00
    0.00000E+00         0.00000E+00        -0.21549E+07
 
    0.33926E+04         0.46259E-08         0.00000E+00
    0.46259E-08        -0.10778E+08         0.00000E+00
    0.00000E+00         0.00000E+00        -0.21549E+07
 
    0.33926E+04        -0.69389E-08         0.00000E+00
   -0.69389E-08        -0.10778E+08         0.00000E+00
    0.00000E+00         0.00000E+00        -0.21549E+07
 
    0.33926E+04         0.30069E-07         0.00000E+00
    0.30069E-07        -0.10778E+08         0.00000E+00
    0.00000E+00         0.00000E+00        -0.21549E+07
 
    0.33926E+04         0.15034E-07         0.00000E+00
    0.15034E-07        -0.10778E+08         0.00000E+00
    0.00000E+00         0.00000E+00        -0.21549E+07
 
    0.33926E+04         0.11565E-07         0.00000E+00
    0.11565E-07        -0.10778E+08         0.00000E+00
    0.00000E+00         0.00000E+00        -0.21549E+07
 
TENSORS stresstot double 
    0.41667E+08        -0.16353E-08         0.00000E+00
   -0.16353E-08         0.15569E+09         0.00000E+00
    0.00000E+00         0.00000E+00         0.39312E+08
 
   -0.40600E-08        -0.26021E-08         0.00000E+00
   -0.26021E-08        -0.10978E+08         0.00000E+00
    0.00000E+00         0.00000E+00        -0.23547E+07
 
   -0.65775E-08         0.26021E-08         0.00000E+00
    0.26021E-08        -0.10978E+08         0.00000E+00
    0.00000E+00         0.00000E+00        -0.23547E+07
 
   -0.64465E-08         0.23130E-08         0.00000E+00
    0.23130E-08        -0.10978E+08         0.00000E+00
    0.00000E+00         0.00000E+00        -0.23547E+07
 
    0.12660E-08        -0.11565E-08         0.00000E+00
   -0.11565E-08        -0.10978E+08         0.00000E+00
    0.00000E+00         0.00000E+00        -0.23547E+07
 
   -0.44965E-08         0.10119E-08         0.00000E+00
    0.10119E-08        -0.10978E+08         0.00000E+00
    0.00000E+00         0.00000E+00        -0.23547E+07
 
   -0.17171E-08        -0.72280E-09         0.00000E+00
   -0.72280E-09        -0.10978E+08         0.00000E+00
    0.00000E+00         0.00000E+00        -0.23547E+07
 
    0.33469E-09        -0.57824E-09         0.00000E+00
   -0.57824E-09        -0.10978E+08         0.00000E+00
    0.00000E+00         0.00000E+00        -0.23547E+07
 
   -0.34925E-09        -0.36140E-09         0.00000E+00
   -0.36140E-09        -0.10978E+08         0.00000E+00
    0.00000E+00         0.00000E+00        -0.23547E+07
 
    0.00000E+00        -0.86736E-09         0.00000E+00
   -0.86736E-09        -0.10978E+08         0.00000E+00
    0.00000E+00         0.00000E+00        -0.23547E+07
 
    0.37835E-09        -0.11565E-08         0.00000E+00
   -0.11565E-08        -0.10978E+08         0.00000E+00
    0.00000E+00         0.00000E+00        -0.23547E+07
 
    0.17899E-08         0.00000E+00         0.00000E+00
    0.00000E+00        -0.10978E+08         0.00000E+00
    0.00000E+00         0.00000E+00        -0.23547E+07
 
    0.48021E-09         0.43368E-09         0.00000E+00
    0.43368E-09        -0.10978E+08         0.00000E+00
    0.00000E+00         0.00000E+00        -0.23547E+07
 
    0.14406E-08         0.39754E-09         0.00000E+00
    0.39754E-09        -0.10978E+08         0.00000E+00
    0.00000E+00         0.00000E+00        -0.23547E+07
 
    0.96043E-09         0.39754E-09         0.00000E+00
    0.39754E-09        -0.10978E+08         0.00000E+00
    0.00000E+00         0.00000E+00        -0.23547E+07
 
    0.41667E+08        -0.79508E-09         0.00000E+00
   -0.79508E-09         0.15569E+09         0.00000E+00
    0.00000E+00         0.00000E+00         0.39312E+08
 
   -0.73487E-08        -0.44814E-08         0.00000E+00
   -0.44814E-08        -0.10978E+08         0.00000E+00
    0.00000E+00         0.00000E+00        -0.23547E+07
 
   -0.43656E-08         0.00000E+00         0.00000E+00
    0.00000E+00        -0.10978E+08         0.00000E+00
    0.00000E+00         0.00000E+00        -0.23547E+07
 
   -0.21537E-08        -0.31803E-08         0.00000E+00
   -0.31803E-08        -0.10978E+08         0.00000E+00
    0.00000E+00         0.00000E+00        -0.23547E+07
 
   -0.26630E-08        -0.47705E-08         0.00000E+00
   -0.47705E-08        -0.10978E+08         0.00000E+00
    0.00000E+00         0.00000E+00        -0.23547E+07
 
   -0.27067E-08        -0.57824E-09         0.00000E+00
   -0.57824E-09        -0.10978E+08         0.00000E+00
    0.00000E+00         0.00000E+00        -0.23547E+07
 
   -0.27940E-08        -0.43368E-09         0.00000E+00
   -0.43368E-09        -0.10978E+08         0.00000E+00
    0.00000E+00         0.00000E+00        -0.23547E+07
 
    0.71304E-09         0.17347E-08         0.00000E+00
    0.17347E-08        -0.10978E+08         0.00000E+00
    0.00000E+00         0.00000E+00        -0.23547E+07
 
   -0.18190E-08         0.26021E-08         0.00000E+00
    0.26021E-08        -0.10978E+08         0.00000E+00
    0.00000E+00         0.00000E+00        -0.23547E+07
 
   -0.16735E-08         0.21684E-08         0.00000E+00
    0.21684E-08        -0.10978E+08         0.00000E+00
    0.00000E+00         0.00000E+00        -0.23547E+07
 
   -0.13097E-09         0.86736E-09         0.00000E+00
    0.86736E-09        -0.10978E+08         0.00000E+00
    0.00000E+00         0.00000E+00        -0.23547E+07
 
    0.97498E-09         0.21684E-09         0.00000E+00
    0.21684E-09        -0.10978E+08         0.00000E+00
    0.00000E+00         0.00000E+00        -0.23547E+07
 
   -0.26193E-09         0.10119E-08         0.00000E+00
    0.10119E-08        -0.10978E+08         0.00000E+00
    0.00000E+00         0.00000E+00        -0.23547E+07
 
    0.90222E-09         0.25298E-09         0.00000E+00
    0.25298E-09        -0.10978E+08         0.00000E+00
    0.00000E+00         0.00000E+00        -0.23547E+07
 
    0.16880E-08         0.72280E-10         0.00000E+00
    0.72280E-10        -0.10978E+08         0.00000E+00
    0.00000E+00         0.00000E+00        -0.23547E+07
 
    0.41667E+08        -0.36501E-08         0.00000E+00
   -0.36501E-08         0.15569E+09         0.00000E+00
    0.00000E+00         0.00000E+00         0.39312E+08
 
   -0.21682E-08        -0.13010E-08         0.00000E+00
   -0.13010E-08        -0.10978E+08         0.00000E+00
    0.00000E+00         0.00000E+00        -0.23546E+07
 
   -0.26048E-08        -0.10119E-08         0.00000E+00
   -0.10119E-08        -0.10978E+08         0.00000E+00
    0.00000E+00         0.00000E+00        -0.23546E+07
 
   -0.26776E-08        -0.86736E-09         0.00000E+00
   -0.86736E-09        -0.10978E+08         0.00000E+00
    0.00000E+00         0.00000E+00        -0.23546E+07
 
   -0.24447E-08         0.18793E-08         0.00000E+00
    0.18793E-08        -0.10978E+08         0.00000E+00
    0.00000E+00         0.00000E+00        -0.23546E+07
 
   -0.12951E-08        -0.13010E-08         0.00000E+00
   -0.13010E-08        -0.10978E+08         0.00000E+00
    0.00000E+00         0.00000E+00        -0.23546E+07
 
   -0.19645E-08        -0.72280E-09         0.00000E+00
   -0.72280E-09        -0.10978E+08         0.00000E+00
    0.00000E+00         0.00000E+00        -0.23546E+07
 
   -0.10186E-09         0.23130E-08         0.00000E+00
    0.23130E-08        -0.10978E+08         0.00000E+00
    0.00000E+00         0.00000E+00        -0.23546E+07
 
    0.00000E+00        -0.14456E-09         0.00000E+00
   -0.14456E-09        -0.10978E+08         0.00000E+00
    0.00000E+00         0.00000E+00        -0.23546E+07
 
   -0.82946E-09         0.11565E-08         0.00000E+00
    0.11565E-08        -0.10978E+08         0.00000E+00
    0.00000E+00         0.00000E+00        -0.23546E+07
 
    0.23720E-08         0.36140E-09         0.00000E+00
    0.36140E-09        -0.10978E+08         0.00000E+00
    0.00000E+00         0.00000E+00        -0.23546E+07
 
   -0.48021E-09         0.86736E-09         0.00000E+00
    0.86736E-09        -0.10978E+08         0.00000E+00
    0.00000E+00         0.00000E+00        -0.23546E+07
 
   -0.11787E-08        -0.50596E-09         0.00000E+00
   -0.50596E-09        -0.10978E+08         0.00000E+00
    0.00000E+00         0.00000E+00        -0.23546E+07
 
   -0.24738E-09        -0.83122E-09         0.00000E+00
   -0.83122E-09        -0.10978E+08         0.00000E+00
    0.00000E+00         0.00000E+00        -0.23546E+07
 
   -0.91677E-09         0.10842E-09         0.00000E+00
    0.10842E-09        -0.10978E+08         0.00000E+00
    0.00000E+00         0.00000E+00        -0.23546E+07
 
    0.41667E+08         0.48175E-07         0.00000E+00
    0.48175E-07         0.15569E+09         0.00000E+00
    0.00000E+00         0.00000E+00         0.39312E+08
 
    0.75088E-08        -0.43368E-08         0.00000E+00
   -0.43368E-08        -0.10977E+08         0.00000E+00
    0.00000E+00         0.00000E+00        -0.23545E+07
 
   -0.14406E-08        -0.23130E-08         0.00000E+00
   -0.23130E-08        -0.10977E+08         0.00000E+00
    0.00000E+00         0.00000E+00        -0.23545E+07
 
    0.72760E-09        -0.14456E-08         0.00000E+00
   -0.14456E-08        -0.10977E+08         0.00000E+00
    0.00000E+00         0.00000E+00        -0.23545E+07
 
    0.13824E-08        -0.57824E-08         0.00000E+00
   -0.57824E-08        -0.10977E+08         0.00000E+00
    0.00000E+00         0.00000E+00        -0.23545E+07
 
   -0.20955E-08        -0.23130E-08         0.00000E+00
   -0.23130E-08        -0.10977E+08         0.00000E+00
    0.00000E+00         0.00000E+00        -0.23545E+07
 
   -0.22264E-08        -0.14456E-09         0.00000E+00
   -0.14456E-09        -0.10977E+08         0.00000E+00
    0.00000E+00         0.00000E+00        -0.23545E+07
 
    0.40454E-08        -0.46259E-08         0.00000E+00
   -0.46259E-08        -0.10977E+08         0.00000E+00
    0.00000E+00         0.00000E+00        -0.23545E+07
 
    0.21682E-08        -0.24575E-08         0.00000E+00
   -0.24575E-08        -0.10977E+08         0.00000E+00
    0.00000E+00         0.00000E+00        -0.23545E+07
 
   -0.43656E-10        -0.36140E-09         0.00000E+00
   -0.36140E-09        -0.10977E+08         0.00000E+00
    0.00000E+00         0.00000E+00        -0.23545E+07
 
    0.32014E-09        -0.17347E-08         0.00000E+00
   -0.17347E-08        -0.10977E+08         0.00000E+00
    0.00000E+00         0.00000E+00        -0.23545E+07
 
    0.23429E-08        -0.14456E-09         0.00000E+00
   -0.14456E-09        -0.10977E+08         0.00000E+00
    0.00000E+00         0.00000E+00        -0.23545E+07
 
    0.12660E-08        -0.10119E-08         0.00000E+00
   -0.10119E-08        -0.10977E+08         0.00000E+00
    0.00000E+00         0.00000E+00        -0.23545E+07
 
    0.14552E-08        -0.36140E-10         0.00000E+00
   -0.36140E-10        -0.10977E+08         0.00000E+00
    0.00000E+00         0.00000E+00        -0.23545E+07
 
    0.17026E-08        -0.72280E-10         0.00000E+00
   -0.72280E-10        -0.10977E+08         0.00000E+00
    0.00000E+00         0.00000E+00        -0.23545E+07
 
    0.41667E+08        -0.91254E-07         0.00000E+00
   -0.91254E-07         0.15569E+09         0.00000E+00
    0.00000E+00         0.00000E+00         0.39312E+08
 
    0.40891E-08        -0.54933E-08         0.00000E+00
   -0.54933E-08        -0.10977E+08         0.00000E+00
    0.00000E+00         0.00000E+00        -0.23544E+07
 
   -0.44674E-08        -0.36140E-08         0.00000E+00
   -0.36140E-08        -0.10977E+08         0.00000E+00
    0.00000E+00         0.00000E+00        -0.23544E+07
 
    0.26484E-08        -0.49150E-08         0.00000E+00
   -0.49150E-08        -0.10977E+08         0.00000E+00
    0.00000E+00         0.00000E+00        -0.23544E+07
 
    0.35652E-08        -0.13010E-08         0.00000E+00
   -0.13010E-08        -0.10977E+08         0.00000E+00
    0.00000E+00         0.00000E+00        -0.23544E+07
 
   -0.18335E-08        -0.39031E-08         0.00000E+00
   -0.39031E-08        -0.10977E+08         0.00000E+00
    0.00000E+00         0.00000E+00        -0.23544E+07
 
   -0.11496E-08        -0.33249E-08         0.00000E+00
   -0.33249E-08        -0.10977E+08         0.00000E+00
    0.00000E+00         0.00000E+00        -0.23544E+07
 
    0.11496E-08        -0.10842E-08         0.00000E+00
   -0.10842E-08        -0.10977E+08         0.00000E+00
    0.00000E+00         0.00000E+00        -0.23544E+07
 
   -0.64028E-09        -0.12288E-08         0.00000E+00
   -0.12288E-08        -0.10977E+08         0.00000E+00
    0.00000E+00         0.00000E+00        -0.23544E+07
 
    0.26921E-08        -0.57824E-09         0.00000E+00
   -0.57824E-09        -0.10977E+08         0.00000E+00
    0.00000E+00         0.00000E+00        -0.23544E+07
 
   -0.96043E-09         0.00000E+00         0.00000E+00
    0.00000E+00        -0.10977E+08         0.00000E+00
    0.00000E+00         0.00000E+00        -0.23544E+07
 
    0.15862E-08        -0.22407E-08         0.00000E+00
   -0.22407E-08        -0.10977E+08         0.00000E+00
    0.00000E+00         0.00000E+00        -0.23544E+07
 
   -0.72760E-10         0.50596E-09         0.00000E+00
    0.50596E-09        -0.10977E+08         0.00000E+00
    0.00000E+00         0.00000E+00        -0.23544E+07
 
    0.30559E-09         0.32526E-09         0.00000E+00
    0.32526E-09        -0.10977E+08         0.00000E+00
    0.00000E+00         0.00000E+00        -0.23544E+07
 
   -0.39290E-09        -0.10842E-08         0.00000E+00
   -0.10842E-08        -0.10977E+08         0.00000E+00
    0.00000E+00         0.00000E+00        -0.23544E+07
 
    0.41667E+08         0.45898E-07         0.00000E+00
    0.45898E-07         0.15569E+09         0.00000E+00
    0.00000E+00         0.00000E+00         0.39312E+08
 
    0.30268E-08        -0.43368E-09         0.00000E+00
   -0.43368E-09        -0.10977E+08         0.00000E+00
    0.00000E+00         0.00000E+00        -0.23543E+07
 
   -0.16007E-08         0.43368E-08         0.00000E+00
    0.43368E-08        -0.10977E+08         0.00000E+00
    0.00000E+00         0.00000E+00        -0.23543E+07
 
   -0.78580E-09        -0.37586E-08         0.00000E+00
   -0.37586E-08        -0.10977E+08         0.00000E+00
    0.00000E+00         0.00000E+00        -0.23543E+07
 
    0.52969E-08        -0.17347E-08         0.00000E+00
   -0.17347E-08        -0.10977E+08         0.00000E+00
    0.00000E+00         0.00000E+00        -0.23543E+07
 
    0.10041E-08        -0.11565E-08         0.00000E+00
   -0.11565E-08        -0.10977E+08         0.00000E+00
    0.00000E+00         0.00000E+00        -0.23543E+07
 
   -0.36380E-09         0.86736E-09         0.00000E+00
    0.86736E-09        -0.10977E+08         0.00000E+00
    0.00000E+00         0.00000E+00        -0.23543E+07
 
    0.16007E-08        -0.25298E-08         0.00000E+00
   -0.25298E-08        -0.10977E+08         0.00000E+00
    0.00000E+00         0.00000E+00        -0.23543E+07
 
    0.91677E-09         0.36140E-09         0.00000E+00
    0.36140E-09        -0.10977E+08         0.00000E+00
    0.00000E+00         0.00000E+00        -0.23543E+07
 
    0.13970E-08         0.10119E-08         0.00000E+00
    0.10119E-08        -0.10977E+08         0.00000E+00
    0.00000E+00         0.00000E+00        -0.23543E+07
 
   -0.53842E-09         0.28912E-08         0.00000E+00
    0.28912E-08        -0.10977E+08         0.00000E+00
    0.00000E+00         0.00000E+00        -0.23543E+07
 
    0.17753E-08         0.10842E-08         0.00000E+00
    0.10842E-08        -0.10977E+08         0.00000E+00
    0.00000E+00         0.00000E+00        -0.23543E+07
 
    0.19645E-08         0.50596E-09         0.00000E+00
    0.50596E-09        -0.10977E+08         0.00000E+00
    0.00000E+00         0.00000E+00        -0.23543E+07
 
    0.30414E-08         0.72280E-10         0.00000E+00
    0.72280E-10        -0.10977E+08         0.00000E+00
    0.00000E+00         0.00000E+00        -0.23543E+07
 
    0.13970E-08        -0.12288E-08         0.00000E+00
   -0.12288E-08        -0.10977E+08         0.00000E+00
    0.00000E+00         0.00000E+00        -0.23543E+07
 
    0.41667E+08         0.45536E-07         0.00000E+00
    0.45536E-07         0.15569E+09         0.00000E+00
    0.00000E+00         0.00000E+00         0.39313E+08
 
   -0.19936E-08        -0.86736E-08         0.00000E+00
   -0.86736E-08        -0.10977E+08         0.00000E+00
    0.00000E+00         0.00000E+00        -0.23541E+07
 
    0.72032E-08        -0.86736E-09         0.00000E+00
   -0.86736E-09        -0.10977E+08         0.00000E+00
    0.00000E+00         0.00000E+00        -0.23541E+07
 
    0.44238E-08         0.00000E+00         0.00000E+00
    0.00000E+00        -0.10977E+08         0.00000E+00
    0.00000E+00         0.00000E+00        -0.23541E+07
 
   -0.18044E-08        -0.34694E-08         0.00000E+00
   -0.34694E-08        -0.10977E+08         0.00000E+00
    0.00000E+00         0.00000E+00        -0.23541E+07
 
    0.21391E-08         0.00000E+00         0.00000E+00
    0.00000E+00        -0.10977E+08         0.00000E+00
    0.00000E+00         0.00000E+00        -0.23541E+07
 
   -0.18626E-08         0.57824E-09         0.00000E+00
    0.57824E-09        -0.10977E+08         0.00000E+00
    0.00000E+00         0.00000E+00        -0.23541E+07
 
    0.34197E-08         0.52042E-08         0.00000E+00
    0.52042E-08        -0.10977E+08         0.00000E+00
    0.00000E+00         0.00000E+00        -0.23541E+07
 
    0.24738E-09         0.43368E-09         0.00000E+00
    0.43368E-09        -0.10977E+08         0.00000E+00
    0.00000E+00         0.00000E+00        -0.23541E+07
 
    0.29104E-09         0.13010E-08         0.00000E+00
    0.13010E-08        -0.10977E+08         0.00000E+00
    0.00000E+00         0.00000E+00        -0.23541E+07
 
   -0.18917E-08         0.14456E-09         0.00000E+00
    0.14456E-09        -0.10977E+08         0.00000E+00
    0.00000E+00         0.00000E+00        -0.23541E+07
 
   -0.24738E-09        -0.22407E-08         0.00000E+00
   -0.22407E-08        -0.10977E+08         0.00000E+00
    0.00000E+00         0.00000E+00        -0.23541E+07
 
    0.14552E-09         0.14456E-09         0.00000E+00
    0.14456E-09        -0.10977E+08         0.00000E+00
    0.00000E+00         0.00000E+00        -0.23541E+07
 
   -0.39290E-09         0.57824E-09         0.00000E+00
    0.57824E-09        -0.10977E+08         0.00000E+00
    0.00000E+00         0.00000E+00        -0.23541E+07
 
    0.13533E-08         0.14456E-08         0.00000E+00
    0.14456E-08        -0.10977E+08         0.00000E+00
    0.00000E+00         0.00000E+00        -0.23541E+07
 
    0.41667E+08        -0.50452E-07         0.00000E+00
   -0.50452E-07         0.15569E+09         0.00000E+00
    0.00000E+00         0.00000E+00         0.39313E+08
 
    0.29831E-08         0.65052E-08         0.00000E+00
    0.65052E-08        -0.10977E+08         0.00000E+00
    0.00000E+00         0.00000E+00        -0.23539E+07
 
    0.12515E-08         0.15902E-08         0.00000E+00
    0.15902E-08        -0.10977E+08         0.00000E+00
    0.00000E+00         0.00000E+00        -0.23539E+07
 
    0.87457E-08         0.20238E-08         0.00000E+00
    0.20238E-08        -0.10977E+08         0.00000E+00
    0.00000E+00         0.00000E+00        -0.23539E+07
 
    0.48749E-08         0.72280E-09         0.00000E+00
    0.72280E-09        -0.10977E+08         0.00000E+00
    0.00000E+00         0.00000E+00        -0.23539E+07
 
    0.61409E-08        -0.18793E-08         0.00000E+00
   -0.18793E-08        -0.10977E+08         0.00000E+00
    0.00000E+00         0.00000E+00        -0.23539E+07
 
    0.44529E-08        -0.14456E-09         0.00000E+00
   -0.14456E-09        -0.10977E+08         0.00000E+00
    0.00000E+00         0.00000E+00        -0.23539E+07
 
    0.17608E-08         0.20238E-08         0.00000E+00
    0.20238E-08        -0.10977E+08         0.00000E+00
    0.00000E+00         0.00000E+00        -0.23539E+07
 
    0.74215E-09        -0.33249E-08         0.00000E+00
   -0.33249E-08        -0.10977E+08         0.00000E+00
    0.00000E+00         0.00000E+00        -0.23539E+07
 
    0.42928E-08         0.20238E-08         0.00000E+00
    0.20238E-08        -0.10977E+08         0.00000E+00
    0.00000E+00         0.00000E+00        -0.23539E+07
 
    0.70286E-08         0.24575E-08         0.00000E+00
    0.24575E-08        -0.10977E+08         0.00000E+00
    0.00000E+00         0.00000E+00        -0.23539E+07
 
    0.47876E-08        -0.16624E-08         0.00000E+00
   -0.16624E-08        -0.10977E+08         0.00000E+00
    0.00000E+00         0.00000E+00        -0.23539E+07
 
    0.27503E-08         0.15902E-08         0.00000E+00
    0.15902E-08        -0.10977E+08         0.00000E+00
    0.00000E+00         0.00000E+00        -0.23539E+07
 
    0.24884E-08        -0.19516E-08         0.00000E+00
   -0.19516E-08        -0.10977E+08         0.00000E+00
    0.00000E+00         0.00000E+00        -0.23539E+07
 
    0.36525E-08         0.41922E-08         0.00000E+00
    0.41922E-08        -0.10977E+08         0.00000E+00
    0.00000E+00         0.00000E+00        -0.23539E+07
 
    0.41667E+08        -0.84857E-07         0.00000E+00
   -0.84857E-07         0.15569E+09         0.00000E+00
    0.00000E+00         0.00000E+00         0.39313E+08
 
    0.93132E-08         0.70835E-08         0.00000E+00
    0.70835E-08        -0.10977E+08         0.00000E+00
    0.00000E+00         0.00000E+00        -0.23536E+07
 
   -0.45984E-08        -0.10119E-08         0.00000E+00
   -0.10119E-08        -0.10977E+08         0.00000E+00
    0.00000E+00         0.00000E+00        -0.23536E+07
 
   -0.71159E-08        -0.44814E-08         0.00000E+00
   -0.44814E-08        -0.10977E+08         0.00000E+00
    0.00000E+00         0.00000E+00        -0.23536E+07
 
   -0.13242E-08        -0.23130E-08         0.00000E+00
   -0.23130E-08        -0.10977E+08         0.00000E+00
    0.00000E+00         0.00000E+00        -0.23536E+07
 
   -0.27940E-08        -0.14456E-09         0.00000E+00
   -0.14456E-09        -0.10977E+08         0.00000E+00
    0.00000E+00         0.00000E+00        -0.23536E+07
 
   -0.71304E-09        -0.36140E-08         0.00000E+00
   -0.36140E-08        -0.10977E+08         0.00000E+00
    0.00000E+00         0.00000E+00        -0.23536E+07
 
   -0.45839E-08         0.24575E-08         0.00000E+00
    0.24575E-08        -0.10977E+08         0.00000E+00
    0.00000E+00         0.00000E+00        -0.23536E+07
 
   -0.15425E-08        -0.27466E-08         0.00000E+00
   -0.27466E-08        -0.10977E+08         0.00000E+00
    0.00000E+00         0.00000E+00        -0.23536E+07
 
   -0.34488E-08        -0.27466E-08         0.00000E+00
   -0.27466E-08        -0.10977E+08         0.00000E+00
    0.00000E+00         0.00000E+00        -0.23536E+07
 
   -0.86875E-08         0.86736E-09         0.00000E+00
    0.86736E-09        -0.10977E+08         0.00000E+00
    0.00000E+00         0.00000E+00        -0.23536E+07
 
   -0.46857E-08        -0.10842E-08         0.00000E+00
   -0.10842E-08        -0.10977E+08         0.00000E+00
    0.00000E+00         0.00000E+00        -0.23536E+07
 
   -0.59663E-09         0.86736E-09         0.00000E+00
    0.86736E-09        -0.10977E+08         0.00000E+00
    0.00000E+00         0.00000E+00        -0.23536E+07
 
   -0.64028E-09        -0.28912E-08         0.00000E+00
   -0.28912E-08        -0.10977E+08         0.00000E+00
    0.00000E+00         0.00000E+00        -0.23536E+07
 
   -0.53114E-08         0.13733E-08         0.00000E+00
    0.13733E-08        -0.10977E+08         0.00000E+00
    0.00000E+00         0.00000E+00        -0.23536E+07
 
    0.41667E+08         0.14022E-06         0.00000E+00
    0.14022E-06         0.15569E+09         0.00000E+00
    0.00000E+00         0.00000E+00         0.39313E+08
 
    0.37253E-08        -0.10119E-07         0.00000E+00
   -0.10119E-07        -0.10976E+08         0.00000E+00
    0.00000E+00         0.00000E+00        -0.23534E+07
 
    0.21537E-08        -0.66498E-08         0.00000E+00
   -0.66498E-08        -0.10976E+08         0.00000E+00
    0.00000E+00         0.00000E+00        -0.23534E+07
 
    0.61118E-08        -0.63607E-08         0.00000E+00
   -0.63607E-08        -0.10976E+08         0.00000E+00
    0.00000E+00         0.00000E+00        -0.23534E+07
 
    0.28376E-08        -0.86736E-09         0.00000E+00
   -0.86736E-09        -0.10976E+08         0.00000E+00
    0.00000E+00         0.00000E+00        -0.23534E+07
 
    0.18772E-08         0.13010E-08         0.00000E+00
    0.13010E-08        -0.10976E+08         0.00000E+00
    0.00000E+00         0.00000E+00        -0.23534E+07
 
    0.40745E-09         0.21684E-08         0.00000E+00
    0.21684E-08        -0.10976E+08         0.00000E+00
    0.00000E+00         0.00000E+00        -0.23534E+07
 
    0.29977E-08        -0.18793E-08         0.00000E+00
   -0.18793E-08        -0.10976E+08         0.00000E+00
    0.00000E+00         0.00000E+00        -0.23534E+07
 
    0.45693E-08         0.14456E-09         0.00000E+00
    0.14456E-09        -0.10976E+08         0.00000E+00
    0.00000E+00         0.00000E+00        -0.23534E+07
 
    0.29977E-08         0.10119E-08         0.00000E+00
    0.10119E-08        -0.10976E+08         0.00000E+00
    0.00000E+00         0.00000E+00        -0.23534E+07
 
    0.15571E-08        -0.14456E-08         0.00000E+00
   -0.14456E-08        -0.10976E+08         0.00000E+00
    0.00000E+00         0.00000E+00        -0.23534E+07
 
    0.36089E-08         0.72280E-09         0.00000E+00
    0.72280E-09        -0.10976E+08         0.00000E+00
    0.00000E+00         0.00000E+00        -0.23534E+07
 
    0.10186E-08        -0.50596E-09         0.00000E+00
   -0.50596E-09        -0.10976E+08         0.00000E+00
    0.00000E+00         0.00000E+00        -0.23534E+07
 
    0.21682E-08         0.24575E-08         0.00000E+00
    0.24575E-08        -0.10976E+08         0.00000E+00
    0.00000E+00         0.00000E+00        -0.23534E+07
 
    0.34343E-08         0.36140E-09         0.00000E+00
    0.36140E-09        -0.10976E+08         0.00000E+00
    0.00000E+00         0.00000E+00        -0.23534E+07
 
    0.41667E+08         0.92519E-08         0.00000E+00
    0.92519E-08         0.15569E+09         0.00000E+00
    0.00000E+00         0.00000E+00         0.39314E+08
 
    0.11016E-07         0.75171E-08         0.00000E+00
    0.75171E-08        -0.10976E+08         0.00000E+00
    0.00000E+00         0.00000E+00        -0.23531E+07
 
    0.77271E-08         0.57824E-09         0.00000E+00
    0.57824E-09        -0.10976E+08         0.00000E+00
    0.00000E+00         0.00000E+00        -0.23531E+07
 
    0.41618E-08         0.23130E-08         0.00000E+00
    0.23130E-08        -0.10976E+08         0.00000E+00
    0.00000E+00         0.00000E+00        -0.23531E+07
 
    0.18190E-08        -0.50596E-08         0.00000E+00
   -0.50596E-08        -0.10976E+08         0.00000E+00
    0.00000E+00         0.00000E+00        -0.23531E+07
 
    0.32014E-09        -0.14456E-09         0.00000E+00
   -0.14456E-09        -0.10976E+08         0.00000E+00
    0.00000E+00         0.00000E+00        -0.23531E+07
 
    0.45693E-08        -0.24575E-08         0.00000E+00
   -0.24575E-08        -0.10976E+08         0.00000E+00
    0.00000E+00         0.00000E+00        -0.23531E+07
 
    0.34051E-08        -0.15902E-08         0.00000E+00
   -0.15902E-08        -0.10976E+08         0.00000E+00
    0.00000E+00         0.00000E+00        -0.23531E+07
 
   -0.26921E-08        -0.15902E-08         0.00000E+00
   -0.15902E-08        -0.10976E+08         0.00000E+00
    0.00000E+00         0.00000E+00        -0.23531E+07
 
   -0.26339E-08        -0.17347E-08         0.00000E+00
   -0.17347E-08        -0.10976E+08         0.00000E+00
    0.00000E+00         0.00000E+00        -0.23531E+07
 
   -0.75670E-09        -0.28912E-08         0.00000E+00
   -0.28912E-08        -0.10976E+08         0.00000E+00
    0.00000E+00         0.00000E+00        -0.23531E+07
 
    0.75670E-09         0.29635E-08         0.00000E+00
    0.29635E-08        -0.10976E+08         0.00000E+00
    0.00000E+00         0.00000E+00        -0.23531E+07
 
   -0.28085E-08         0.57824E-09         0.00000E+00
    0.57824E-09        -0.10976E+08         0.00000E+00
    0.00000E+00         0.00000E+00        -0.23531E+07
 
    0.51514E-08        -0.14456E-09         0.00000E+00
   -0.14456E-09        -0.10976E+08         0.00000E+00
    0.00000E+00         0.00000E+00        -0.23531E+07
 
    0.53842E-09         0.43368E-09         0.00000E+00
    0.43368E-09        -0.10976E+08         0.00000E+00
    0.00000E+00         0.00000E+00        -0.23531E+07
 
    0.41667E+08        -0.10249E-06         0.00000E+00
   -0.10249E-06         0.15569E+09         0.00000E+00
    0.00000E+00         0.00000E+00         0.39314E+08
 
    0.13824E-08         0.59270E-08         0.00000E+00
    0.59270E-08        -0.10976E+08         0.00000E+00
    0.00000E+00         0.00000E+00        -0.23527E+07
 
   -0.35361E-08         0.37586E-08         0.00000E+00
    0.37586E-08        -0.10976E+08         0.00000E+00
    0.00000E+00         0.00000E+00        -0.23527E+07
 
    0.17171E-08         0.10119E-08         0.00000E+00
    0.10119E-08        -0.10976E+08         0.00000E+00
    0.00000E+00         0.00000E+00        -0.23527E+07
 
   -0.33469E-09        -0.36140E-08         0.00000E+00
   -0.36140E-08        -0.10976E+08         0.00000E+00
    0.00000E+00         0.00000E+00        -0.23527E+07
 
    0.46275E-08        -0.14456E-09         0.00000E+00
   -0.14456E-09        -0.10976E+08         0.00000E+00
    0.00000E+00         0.00000E+00        -0.23527E+07
 
    0.18626E-08        -0.28912E-08         0.00000E+00
   -0.28912E-08        -0.10976E+08         0.00000E+00
    0.00000E+00         0.00000E+00        -0.23527E+07
 
   -0.19791E-08         0.23130E-08         0.00000E+00
    0.23130E-08        -0.10976E+08         0.00000E+00
    0.00000E+00         0.00000E+00        -0.23527E+07
 
    0.66939E-09         0.34694E-08         0.00000E+00
    0.34694E-08        -0.10976E+08         0.00000E+00
    0.00000E+00         0.00000E+00        -0.23527E+07
 
    0.14843E-08        -0.72280E-09         0.00000E+00
   -0.72280E-09        -0.10976E+08         0.00000E+00
    0.00000E+00         0.00000E+00        -0.23527E+07
 
    0.32887E-08        -0.26021E-08         0.00000E+00
   -0.26021E-08        -0.10976E+08         0.00000E+00
    0.00000E+00         0.00000E+00        -0.23527E+07
 
    0.18044E-08         0.23130E-08         0.00000E+00
    0.23130E-08        -0.10976E+08         0.00000E+00
    0.00000E+00         0.00000E+00        -0.23527E+07
 
    0.22701E-08        -0.18793E-08         0.00000E+00
   -0.18793E-08        -0.10976E+08         0.00000E+00
    0.00000E+00         0.00000E+00        -0.23527E+07
 
   -0.10768E-08         0.86736E-09         0.00000E+00
    0.86736E-09        -0.10976E+08         0.00000E+00
    0.00000E+00         0.00000E+00        -0.23527E+07
 
    0.27067E-08         0.31803E-08         0.00000E+00
    0.31803E-08        -0.10976E+08         0.00000E+00
    0.00000E+00         0.00000E+00        -0.23527E+07
 
    0.41667E+08         0.45826E-07         0.00000E+00
    0.45826E-07         0.15569E+09         0.00000E+00
    0.00000E+00         0.00000E+00         0.39314E+08
 
    0.10332E-08        -0.34694E-08         0.00000E+00
   -0.34694E-08        -0.10975E+08         0.00000E+00
    0.00000E+00         0.00000E+00        -0.23524E+07
 
    0.38417E-08         0.00000E+00         0.00000E+00
    0.00000E+00        -0.10975E+08         0.00000E+00
    0.00000E+00         0.00000E+00        -0.23524E+07
 
    0.30486E-08        -0.43368E-08         0.00000E+00
   -0.43368E-08        -0.10975E+08         0.00000E+00
    0.00000E+00         0.00000E+00        -0.23524E+07
 
    0.75524E-08        -0.43368E-08         0.00000E+00
   -0.43368E-08        -0.10975E+08         0.00000E+00
    0.00000E+00         0.00000E+00        -0.23524E+07
 
    0.33833E-08        -0.11565E-08         0.00000E+00
   -0.11565E-08        -0.10975E+08         0.00000E+00
    0.00000E+00         0.00000E+00        -0.23524E+07
 
   -0.40018E-08        -0.17347E-08         0.00000E+00
   -0.17347E-08        -0.10975E+08         0.00000E+00
    0.00000E+00         0.00000E+00        -0.23524E+07
 
   -0.27649E-09        -0.24575E-08         0.00000E+00
   -0.24575E-08        -0.10975E+08         0.00000E+00
    0.00000E+00         0.00000E+00        -0.23524E+07
 
    0.42419E-08        -0.26021E-08         0.00000E+00
   -0.26021E-08        -0.10975E+08         0.00000E+00
    0.00000E+00         0.00000E+00        -0.23524E+07
 
    0.96043E-09        -0.23130E-08         0.00000E+00
   -0.23130E-08        -0.10975E+08         0.00000E+00
    0.00000E+00         0.00000E+00        -0.23524E+07
 
    0.18335E-08         0.14456E-08         0.00000E+00
    0.14456E-08        -0.10975E+08         0.00000E+00
    0.00000E+00         0.00000E+00        -0.23524E+07
 
   -0.17681E-08         0.86736E-09         0.00000E+00
    0.86736E-09        -0.10975E+08         0.00000E+00
    0.00000E+00         0.00000E+00        -0.23524E+07
 
    0.12296E-08        -0.17347E-08         0.00000E+00
   -0.17347E-08        -0.10975E+08         0.00000E+00
    0.00000E+00         0.00000E+00        -0.23524E+07
 
   -0.59663E-08        -0.57824E-09         0.00000E+00
   -0.57824E-09        -0.10975E+08         0.00000E+00
    0.00000E+00         0.00000E+00        -0.23524E+07
 
   -0.49622E-08         0.57824E-09         0.00000E+00
    0.57824E-09        -0.10975E+08         0.00000E+00
    0.00000E+00         0.00000E+00        -0.23524E+07
 
    0.41667E+08         0.62161E-08         0.00000E+00
    0.62161E-08         0.15569E+09         0.00000E+00
    0.00000E+00         0.00000E+00         0.39315E+08
 
   -0.12878E-08         0.12721E-07         0.00000E+00
    0.12721E-07        -0.10975E+08         0.00000E+00
    0.00000E+00         0.00000E+00        -0.23520E+07
 
    0.26848E-08         0.40477E-08         0.00000E+00
    0.40477E-08        -0.10975E+08         0.00000E+00
    0.00000E+00         0.00000E+00        -0.23520E+07
 
    0.50568E-08        -0.23130E-08         0.00000E+00
   -0.23130E-08        -0.10975E+08         0.00000E+00
    0.00000E+00         0.00000E+00        -0.23520E+07
 
    0.37835E-09         0.26021E-08         0.00000E+00
    0.26021E-08        -0.10975E+08         0.00000E+00
    0.00000E+00         0.00000E+00        -0.23520E+07
 
   -0.10186E-09         0.28912E-08         0.00000E+00
    0.28912E-08        -0.10975E+08         0.00000E+00
    0.00000E+00         0.00000E+00        -0.23520E+07
 
    0.42855E-08        -0.24575E-08         0.00000E+00
   -0.24575E-08        -0.10975E+08         0.00000E+00
    0.00000E+00         0.00000E+00        -0.23520E+07
 
    0.70504E-08         0.10119E-08         0.00000E+00
    0.10119E-08        -0.10975E+08         0.00000E+00
    0.00000E+00         0.00000E+00        -0.23520E+07
 
   -0.18044E-08        -0.49150E-08         0.00000E+00
   -0.49150E-08        -0.10975E+08         0.00000E+00
    0.00000E+00         0.00000E+00        -0.23520E+07
 
    0.90222E-09        -0.11565E-08         0.00000E+00
   -0.11565E-08        -0.10975E+08         0.00000E+00
    0.00000E+00         0.00000E+00        -0.23520E+07
 
    0.10477E-08         0.10119E-08         0.00000E+00
    0.10119E-08        -0.10975E+08         0.00000E+00
    0.00000E+00         0.00000E+00        -0.23520E+07
 
   -0.92405E-09        -0.86736E-09         0.00000E+00
   -0.86736E-09        -0.10975E+08         0.00000E+00
    0.00000E+00         0.00000E+00        -0.23520E+07
 
   -0.50932E-09        -0.57824E-09         0.00000E+00
   -0.57824E-09        -0.10975E+08         0.00000E+00
    0.00000E+00         0.00000E+00        -0.23520E+07
 
   -0.82218E-09         0.43368E-09         0.00000E+00
    0.43368E-09        -0.10975E+08         0.00000E+00
    0.00000E+00         0.00000E+00        -0.23520E+07
 
    0.10186E-09        -0.43368E-09         0.00000E+00
   -0.43368E-09        -0.10975E+08         0.00000E+00
    0.00000E+00         0.00000E+00        -0.23520E+07
 
    0.41667E+08        -0.23130E-08         0.00000E+00
   -0.23130E-08         0.15569E+09         0.00000E+00
    0.00000E+00         0.00000E+00         0.39315E+08
 
    0.37180E-08        -0.86736E-08         0.00000E+00
   -0.86736E-08        -0.10974E+08         0.00000E+00
    0.00000E+00         0.00000E+00        -0.23516E+07
 
   -0.65484E-09        -0.75171E-08         0.00000E+00
   -0.75171E-08        -0.10974E+08         0.00000E+00
    0.00000E+00         0.00000E+00        -0.23516E+07
 
    0.37107E-09        -0.69389E-08         0.00000E+00
   -0.69389E-08        -0.10974E+08         0.00000E+00
    0.00000E+00         0.00000E+00        -0.23516E+07
 
    0.90949E-09        -0.28912E-09         0.00000E+00
   -0.28912E-09        -0.10974E+08         0.00000E+00
    0.00000E+00         0.00000E+00        -0.23516E+07
 
    0.10987E-08        -0.31803E-08         0.00000E+00
   -0.31803E-08        -0.10974E+08         0.00000E+00
    0.00000E+00         0.00000E+00        -0.23516E+07
 
   -0.53187E-08         0.13010E-08         0.00000E+00
    0.13010E-08        -0.10974E+08         0.00000E+00
    0.00000E+00         0.00000E+00        -0.23516E+07
 
    0.20518E-08        -0.15902E-08         0.00000E+00
   -0.15902E-08        -0.10974E+08         0.00000E+00
    0.00000E+00         0.00000E+00        -0.23516E+07
 
    0.12587E-08        -0.11565E-08         0.00000E+00
   -0.11565E-08        -0.10974E+08         0.00000E+00
    0.00000E+00         0.00000E+00        -0.23516E+07
 
    0.10768E-08        -0.31803E-08         0.00000E+00
   -0.31803E-08        -0.10974E+08         0.00000E+00
    0.00000E+00         0.00000E+00        -0.23516E+07
 
   -0.46784E-08        -0.28912E-09         0.00000E+00
   -0.28912E-09        -0.10974E+08         0.00000E+00
    0.00000E+00         0.00000E+00        -0.23516E+07
 
   -0.54060E-08        -0.11565E-08         0.00000E+00
   -0.11565E-08        -0.10974E+08         0.00000E+00
    0.00000E+00         0.00000E+00        -0.23516E+07
 
    0.21828E-08         0.00000E+00         0.00000E+00
    0.00000E+00        -0.10974E+08         0.00000E+00
    0.00000E+00         0.00000E+00        -0.23516E+07
 
    0.56389E-08        -0.10119E-08         0.00000E+00
   -0.10119E-08        -0.10974E+08         0.00000E+00
    0.00000E+00         0.00000E+00        -0.23516E+07
 
    0.92987E-08         0.17347E-08         0.00000E+00
    0.17347E-08        -0.10974E+08         0.00000E+00
    0.00000E+00         0.00000E+00        -0.23516E+07
 
    0.41667E+08         0.49150E-08         0.00000E+00
    0.49150E-08         0.15569E+09         0.00000E+00
    0.00000E+00         0.00000E+00         0.39316E+08
 
    0.48312E-08         0.78063E-08         0.00000E+00
    0.78063E-08        -0.10974E+08         0.00000E+00
    0.00000E+00         0.00000E+00        -0.23511E+07
 
   -0.81491E-09         0.14456E-08         0.00000E+00
    0.14456E-08        -0.10974E+08         0.00000E+00
    0.00000E+00         0.00000E+00        -0.23511E+07
 
   -0.50131E-08         0.11565E-08         0.00000E+00
    0.11565E-08        -0.10974E+08         0.00000E+00
    0.00000E+00         0.00000E+00        -0.23511E+07
 
   -0.78362E-08         0.20238E-08         0.00000E+00
    0.20238E-08        -0.10974E+08         0.00000E+00
    0.00000E+00         0.00000E+00        -0.23511E+07
 
   -0.60172E-08         0.28912E-09         0.00000E+00
    0.28912E-09        -0.10974E+08         0.00000E+00
    0.00000E+00         0.00000E+00        -0.23511E+07
 
   -0.33688E-08         0.37586E-08         0.00000E+00
    0.37586E-08        -0.10974E+08         0.00000E+00
    0.00000E+00         0.00000E+00        -0.23511E+07
 
    0.98953E-09         0.21684E-08         0.00000E+00
    0.21684E-08        -0.10974E+08         0.00000E+00
    0.00000E+00         0.00000E+00        -0.23511E+07
 
    0.96770E-09         0.11565E-08         0.00000E+00
    0.11565E-08        -0.10974E+08         0.00000E+00
    0.00000E+00         0.00000E+00        -0.23511E+07
 
   -0.31723E-08        -0.14456E-09         0.00000E+00
   -0.14456E-09        -0.10974E+08         0.00000E+00
    0.00000E+00         0.00000E+00        -0.23511E+07
 
   -0.30122E-08        -0.17347E-08         0.00000E+00
   -0.17347E-08        -0.10974E+08         0.00000E+00
    0.00000E+00         0.00000E+00        -0.23511E+07
 
   -0.33469E-08         0.00000E+00         0.00000E+00
    0.00000E+00        -0.10974E+08         0.00000E+00
    0.00000E+00         0.00000E+00        -0.23511E+07
 
   -0.42783E-08        -0.14456E-09         0.00000E+00
   -0.14456E-09        -0.10974E+08         0.00000E+00
    0.00000E+00         0.00000E+00        -0.23511E+07
 
    0.35216E-08         0.57824E-09         0.00000E+00
    0.57824E-09        -0.10974E+08         0.00000E+00
    0.00000E+00         0.00000E+00        -0.23511E+07
 
    0.93423E-08         0.86736E-09         0.00000E+00
    0.86736E-09        -0.10974E+08         0.00000E+00
    0.00000E+00         0.00000E+00        -0.23511E+07
 
    0.41667E+08        -0.80954E-08         0.00000E+00
   -0.80954E-08         0.15569E+09         0.00000E+00
    0.00000E+00         0.00000E+00         0.39316E+08
 
   -0.67157E-08        -0.86736E-09         0.00000E+00
   -0.86736E-09        -0.10974E+08         0.00000E+00
    0.00000E+00         0.00000E+00        -0.23506E+07
 
    0.12369E-08         0.14456E-08         0.00000E+00
    0.14456E-08        -0.10974E+08         0.00000E+00
    0.00000E+00         0.00000E+00        -0.23506E+07
 
    0.87603E-08         0.14456E-08         0.00000E+00
    0.14456E-08        -0.10974E+08         0.00000E+00
    0.00000E+00         0.00000E+00        -0.23506E+07
 
    0.97352E-08         0.86736E-09         0.00000E+00
    0.86736E-09        -0.10974E+08         0.00000E+00
    0.00000E+00         0.00000E+00        -0.23506E+07
 
    0.11685E-07        -0.28912E-08         0.00000E+00
   -0.28912E-08        -0.10974E+08         0.00000E+00
    0.00000E+00         0.00000E+00        -0.23506E+07
 
    0.98735E-08         0.14456E-09         0.00000E+00
    0.14456E-09        -0.10974E+08         0.00000E+00
    0.00000E+00         0.00000E+00        -0.23506E+07
 
    0.84692E-08         0.11565E-08         0.00000E+00
    0.11565E-08        -0.10974E+08         0.00000E+00
    0.00000E+00         0.00000E+00        -0.23506E+07
 
    0.90222E-08         0.40477E-08         0.00000E+00
    0.40477E-08        -0.10974E+08         0.00000E+00
    0.00000E+00         0.00000E+00        -0.23506E+07
 
    0.11729E-07         0.40477E-08         0.00000E+00
    0.40477E-08        -0.10974E+08         0.00000E+00
    0.00000E+00         0.00000E+00        -0.23506E+07
 
    0.52460E-08        -0.43368E-09         0.00000E+00
   -0.43368E-09        -0.10974E+08         0.00000E+00
    0.00000E+00         0.00000E+00        -0.23506E+07
 
    0.73778E-08        -0.30358E-08         0.00000E+00
   -0.30358E-08        -0.10974E+08         0.00000E+00
    0.00000E+00         0.00000E+00        -0.23506E+07
 
    0.11314E-07         0.26021E-08         0.00000E+00
    0.26021E-08        -0.10974E+08         0.00000E+00
    0.00000E+00         0.00000E+00        -0.23506E+07
 
    0.34197E-09        -0.65052E-08         0.00000E+00
   -0.65052E-08        -0.10974E+08         0.00000E+00
    0.00000E+00         0.00000E+00        -0.23506E+07
 
   -0.43074E-08         0.43368E-09         0.00000E+00
    0.43368E-09        -0.10974E+08         0.00000E+00
    0.00000E+00         0.00000E+00        -0.23506E+07
 
    0.41667E+08         0.54644E-07         0.00000E+00
    0.54644E-07         0.15569E+09         0.00000E+00
    0.00000E+00         0.00000E+00         0.39317E+08
 
   -0.29613E-08         0.40477E-08         0.00000E+00
    0.40477E-08        -0.10973E+08         0.00000E+00
    0.00000E+00         0.00000E+00        -0.23501E+07
 
   -0.54424E-08        -0.37586E-08         0.00000E+00
   -0.37586E-08        -0.10973E+08         0.00000E+00
    0.00000E+00         0.00000E+00        -0.23501E+07
 
   -0.45111E-09        -0.43368E-08         0.00000E+00
   -0.43368E-08        -0.10973E+08         0.00000E+00
    0.00000E+00         0.00000E+00        -0.23501E+07
 
    0.42273E-08        -0.43368E-08         0.00000E+00
   -0.43368E-08        -0.10973E+08         0.00000E+00
    0.00000E+00         0.00000E+00        -0.23501E+07
 
    0.70795E-08        -0.17347E-08         0.00000E+00
   -0.17347E-08        -0.10973E+08         0.00000E+00
    0.00000E+00         0.00000E+00        -0.23501E+07
 
    0.40236E-08        -0.13010E-08         0.00000E+00
   -0.13010E-08        -0.10973E+08         0.00000E+00
    0.00000E+00         0.00000E+00        -0.23501E+07
 
    0.52387E-08        -0.14456E-08         0.00000E+00
   -0.14456E-08        -0.10973E+08         0.00000E+00
    0.00000E+00         0.00000E+00        -0.23501E+07
 
   -0.98225E-09         0.43368E-09         0.00000E+00
    0.43368E-09        -0.10973E+08         0.00000E+00
    0.00000E+00         0.00000E+00        -0.23501E+07
 
   -0.79672E-08        -0.39031E-08         0.00000E+00
   -0.39031E-08        -0.10973E+08         0.00000E+00
    0.00000E+00         0.00000E+00        -0.23501E+07
 
   -0.51805E-08        -0.34694E-08         0.00000E+00
   -0.34694E-08        -0.10973E+08         0.00000E+00
    0.00000E+00         0.00000E+00        -0.23501E+07
 
   -0.60900E-08         0.17347E-08         0.00000E+00
    0.17347E-08        -0.10973E+08         0.00000E+00
    0.00000E+00         0.00000E+00        -0.23501E+07
 
   -0.15716E-08         0.00000E+00         0.00000E+00
    0.00000E+00        -0.10973E+08         0.00000E+00
    0.00000E+00         0.00000E+00        -0.23501E+07
 
   -0.11350E-08         0.20238E-08         0.00000E+00
    0.20238E-08        -0.10973E+08         0.00000E+00
    0.00000E+00         0.00000E+00        -0.23501E+07
 
    0.17535E-08        -0.54933E-08         0.00000E+00
   -0.54933E-08        -0.10973E+08         0.00000E+00
    0.00000E+00         0.00000E+00        -0.23501E+07
 
    0.41667E+08        -0.52042E-07         0.00000E+00
   -0.52042E-07         0.15569E+09         0.00000E+00
    0.00000E+00         0.00000E+00         0.39317E+08
 
   -0.77853E-09        -0.34694E-08         0.00000E+00
   -0.34694E-08        -0.10972E+08         0.00000E+00
    0.00000E+00         0.00000E+00        -0.23495E+07
 
    0.68248E-08        -0.23130E-08         0.00000E+00
   -0.23130E-08        -0.10972E+08         0.00000E+00
    0.00000E+00         0.00000E+00        -0.23495E+07
 
    0.87166E-08         0.00000E+00         0.00000E+00
    0.00000E+00        -0.10972E+08         0.00000E+00
    0.00000E+00         0.00000E+00        -0.23495E+07
 
    0.56825E-08        -0.34694E-08         0.00000E+00
   -0.34694E-08        -0.10972E+08         0.00000E+00
    0.00000E+00         0.00000E+00        -0.23495E+07
 
    0.10259E-08         0.86736E-09         0.00000E+00
    0.86736E-09        -0.10972E+08         0.00000E+00
    0.00000E+00         0.00000E+00        -0.23495E+07
 
   -0.71159E-08        -0.10119E-08         0.00000E+00
   -0.10119E-08        -0.10972E+08         0.00000E+00
    0.00000E+00         0.00000E+00        -0.23495E+07
 
    0.42201E-09        -0.57824E-09         0.00000E+00
   -0.57824E-09        -0.10972E+08         0.00000E+00
    0.00000E+00         0.00000E+00        -0.23495E+07
 
    0.12369E-09         0.15902E-08         0.00000E+00
    0.15902E-08        -0.10972E+08         0.00000E+00
    0.00000E+00         0.00000E+00        -0.23495E+07
 
    0.97862E-08        -0.11565E-08         0.00000E+00
   -0.11565E-08        -0.10972E+08         0.00000E+00
    0.00000E+00         0.00000E+00        -0.23495E+07
 
    0.25466E-08         0.10119E-08         0.00000E+00
    0.10119E-08        -0.10972E+08         0.00000E+00
    0.00000E+00         0.00000E+00        -0.23495E+07
 
    0.86147E-08        -0.34694E-08         0.00000E+00
   -0.34694E-08        -0.10972E+08         0.00000E+00
    0.00000E+00         0.00000E+00        -0.23495E+07
 
   -0.13824E-08        -0.86736E-09         0.00000E+00
   -0.86736E-09        -0.10972E+08         0.00000E+00
    0.00000E+00         0.00000E+00        -0.23495E+07
 
   -0.34779E-08         0.36140E-08         0.00000E+00
    0.36140E-08        -0.10972E+08         0.00000E+00
    0.00000E+00         0.00000E+00        -0.23495E+07
 
    0.25393E-08        -0.54933E-08         0.00000E+00
   -0.54933E-08        -0.10972E+08         0.00000E+00
    0.00000E+00         0.00000E+00        -0.23495E+07
 
    0.41667E+08         0.58113E-07         0.00000E+00
    0.58113E-07         0.15569E+09         0.00000E+00
    0.00000E+00         0.00000E+00         0.39318E+08
 
    0.33178E-08         0.00000E+00         0.00000E+00
    0.00000E+00        -0.10972E+08         0.00000E+00
    0.00000E+00         0.00000E+00        -0.23489E+07
 
    0.67666E-09        -0.57824E-09         0.00000E+00
   -0.57824E-09        -0.10972E+08         0.00000E+00
    0.00000E+00         0.00000E+00        -0.23489E+07
 
    0.54279E-08         0.31803E-08         0.00000E+00
    0.31803E-08        -0.10972E+08         0.00000E+00
    0.00000E+00         0.00000E+00        -0.23489E+07
 
    0.48822E-08         0.14456E-08         0.00000E+00
    0.14456E-08        -0.10972E+08         0.00000E+00
    0.00000E+00         0.00000E+00        -0.23489E+07
 
    0.39217E-08        -0.86736E-09         0.00000E+00
   -0.86736E-09        -0.10972E+08         0.00000E+00
    0.00000E+00         0.00000E+00        -0.23489E+07
 
   -0.57844E-08        -0.23130E-08         0.00000E+00
   -0.23130E-08        -0.10972E+08         0.00000E+00
    0.00000E+00         0.00000E+00        -0.23489E+07
 
    0.42564E-08        -0.17347E-08         0.00000E+00
   -0.17347E-08        -0.10972E+08         0.00000E+00
    0.00000E+00         0.00000E+00        -0.23489E+07
 
   -0.48021E-09         0.30358E-08         0.00000E+00
    0.30358E-08        -0.10972E+08         0.00000E+00
    0.00000E+00         0.00000E+00        -0.23489E+07
 
    0.73851E-08        -0.14456E-08         0.00000E+00
   -0.14456E-08        -0.10972E+08         0.00000E+00
    0.00000E+00         0.00000E+00        -0.23489E+07
 
    0.24229E-08        -0.40477E-08         0.00000E+00
   -0.40477E-08        -0.10972E+08         0.00000E+00
    0.00000E+00         0.00000E+00        -0.23489E+07
 
    0.19063E-08         0.11565E-08         0.00000E+00
    0.11565E-08        -0.10972E+08         0.00000E+00
    0.00000E+00         0.00000E+00        -0.23489E+07
 
    0.59954E-08        -0.52042E-08         0.00000E+00
   -0.52042E-08        -0.10972E+08         0.00000E+00
    0.00000E+00         0.00000E+00        -0.23489E+07
 
    0.45475E-08         0.17347E-08         0.00000E+00
    0.17347E-08        -0.10972E+08         0.00000E+00
    0.00000E+00         0.00000E+00        -0.23489E+07
 
    0.91604E-08        -0.26021E-08         0.00000E+00
   -0.26021E-08        -0.10972E+08         0.00000E+00
    0.00000E+00         0.00000E+00        -0.23489E+07
 
    0.41667E+08        -0.50885E-07         0.00000E+00
   -0.50885E-07         0.15570E+09         0.00000E+00
    0.00000E+00         0.00000E+00         0.39318E+08
 
    0.45693E-08         0.83845E-08         0.00000E+00
    0.83845E-08        -0.10971E+08         0.00000E+00
    0.00000E+00         0.00000E+00        -0.23483E+07
 
   -0.26484E-08         0.26021E-08         0.00000E+00
    0.26021E-08        -0.10971E+08         0.00000E+00
    0.00000E+00         0.00000E+00        -0.23483E+07
 
   -0.72832E-08         0.89627E-08         0.00000E+00
    0.89627E-08        -0.10971E+08         0.00000E+00
    0.00000E+00         0.00000E+00        -0.23483E+07
 
    0.25466E-08         0.49150E-08         0.00000E+00
    0.49150E-08        -0.10971E+08         0.00000E+00
    0.00000E+00         0.00000E+00        -0.23483E+07
 
   -0.80036E-09         0.23130E-08         0.00000E+00
    0.23130E-08        -0.10971E+08         0.00000E+00
    0.00000E+00         0.00000E+00        -0.23483E+07
 
    0.10434E-07         0.24575E-08         0.00000E+00
    0.24575E-08        -0.10971E+08         0.00000E+00
    0.00000E+00         0.00000E+00        -0.23483E+07
 
   -0.15061E-08         0.54933E-08         0.00000E+00
    0.54933E-08        -0.10971E+08         0.00000E+00
    0.00000E+00         0.00000E+00        -0.23483E+07
 
    0.29395E-08         0.50596E-08         0.00000E+00
    0.50596E-08        -0.10971E+08         0.00000E+00
    0.00000E+00         0.00000E+00        -0.23483E+07
 
    0.56752E-09        -0.23130E-08         0.00000E+00
   -0.23130E-08        -0.10971E+08         0.00000E+00
    0.00000E+00         0.00000E+00        -0.23483E+07
 
    0.17535E-08         0.57824E-09         0.00000E+00
    0.57824E-09        -0.10971E+08         0.00000E+00
    0.00000E+00         0.00000E+00        -0.23483E+07
 
    0.46566E-09         0.17347E-08         0.00000E+00
    0.17347E-08        -0.10971E+08         0.00000E+00
    0.00000E+00         0.00000E+00        -0.23483E+07
 
    0.64829E-08         0.40477E-08         0.00000E+00
    0.40477E-08        -0.10971E+08         0.00000E+00
    0.00000E+00         0.00000E+00        -0.23483E+07
 
   -0.13897E-08        -0.18793E-08         0.00000E+00
   -0.18793E-08        -0.10971E+08         0.00000E+00
    0.00000E+00         0.00000E+00        -0.23483E+07
 
    0.76543E-08         0.57824E-09         0.00000E+00
    0.57824E-09        -0.10971E+08         0.00000E+00
    0.00000E+00         0.00000E+00        -0.23483E+07
 
    0.41667E+08         0.57824E-09         0.00000E+00
    0.57824E-09         0.15570E+09         0.00000E+00
    0.00000E+00         0.00000E+00         0.39319E+08
 
    0.16400E-07        -0.28912E-09         0.00000E+00
   -0.28912E-09        -0.10971E+08         0.00000E+00
    0.00000E+00         0.00000E+00        -0.23476E+07
 
    0.85784E-08        -0.28912E-08         0.00000E+00
   -0.28912E-08        -0.10971E+08         0.00000E+00
    0.00000E+00         0.00000E+00        -0.23476E+07
 
    0.32669E-08        -0.37586E-08         0.00000E+00
   -0.37586E-08        -0.10971E+08         0.00000E+00
    0.00000E+00         0.00000E+00        -0.23476E+07
 
   -0.22192E-08         0.00000E+00         0.00000E+00
    0.00000E+00        -0.10971E+08         0.00000E+00
    0.00000E+00         0.00000E+00        -0.23476E+07
 
    0.28085E-08         0.37586E-08         0.00000E+00
    0.37586E-08        -0.10971E+08         0.00000E+00
    0.00000E+00         0.00000E+00        -0.23476E+07
 
    0.37908E-08         0.36140E-08         0.00000E+00
    0.36140E-08        -0.10971E+08         0.00000E+00
    0.00000E+00         0.00000E+00        -0.23476E+07
 
    0.76398E-09         0.31803E-08         0.00000E+00
    0.31803E-08        -0.10971E+08         0.00000E+00
    0.00000E+00         0.00000E+00        -0.23476E+07
 
   -0.57116E-08         0.54933E-08         0.00000E+00
    0.54933E-08        -0.10971E+08         0.00000E+00
    0.00000E+00         0.00000E+00        -0.23476E+07
 
    0.52241E-08         0.34694E-08         0.00000E+00
    0.34694E-08        -0.10971E+08         0.00000E+00
    0.00000E+00         0.00000E+00        -0.23476E+07
 
   -0.13315E-08         0.40477E-08         0.00000E+00
    0.40477E-08        -0.10971E+08         0.00000E+00
    0.00000E+00         0.00000E+00        -0.23476E+07
 
   -0.13679E-08         0.11565E-08         0.00000E+00
    0.11565E-08        -0.10971E+08         0.00000E+00
    0.00000E+00         0.00000E+00        -0.23476E+07
 
   -0.19427E-08         0.11565E-08         0.00000E+00
    0.11565E-08        -0.10971E+08         0.00000E+00
    0.00000E+00         0.00000E+00        -0.23476E+07
 
   -0.20591E-08         0.56379E-08         0.00000E+00
    0.56379E-08        -0.10971E+08         0.00000E+00
    0.00000E+00         0.00000E+00        -0.23476E+07
 
    0.10768E-08        -0.46259E-08         0.00000E+00
   -0.46259E-08        -0.10971E+08         0.00000E+00
    0.00000E+00         0.00000E+00        -0.23476E+07
 
    0.41667E+08         0.46259E-08         0.00000E+00
    0.46259E-08         0.15570E+09         0.00000E+00
    0.00000E+00         0.00000E+00         0.39320E+08
 
    0.47366E-08        -0.28912E-09         0.00000E+00
   -0.28912E-09        -0.10970E+08         0.00000E+00
    0.00000E+00         0.00000E+00        -0.23469E+07
 
    0.60027E-08         0.31803E-08         0.00000E+00
    0.31803E-08        -0.10970E+08         0.00000E+00
    0.00000E+00         0.00000E+00        -0.23469E+07
 
    0.16953E-08        -0.43368E-08         0.00000E+00
   -0.43368E-08        -0.10970E+08         0.00000E+00
    0.00000E+00         0.00000E+00        -0.23469E+07
 
   -0.73560E-08         0.57824E-09         0.00000E+00
    0.57824E-09        -0.10970E+08         0.00000E+00
    0.00000E+00         0.00000E+00        -0.23469E+07
 
   -0.14916E-08        -0.28912E-08         0.00000E+00
   -0.28912E-08        -0.10970E+08         0.00000E+00
    0.00000E+00         0.00000E+00        -0.23469E+07
 
    0.15571E-08        -0.14456E-08         0.00000E+00
   -0.14456E-08        -0.10970E+08         0.00000E+00
    0.00000E+00         0.00000E+00        -0.23469E+07
 
   -0.50932E-09        -0.18793E-08         0.00000E+00
   -0.18793E-08        -0.10970E+08         0.00000E+00
    0.00000E+00         0.00000E+00        -0.23469E+07
 
    0.22337E-08        -0.11565E-08         0.00000E+00
   -0.11565E-08        -0.10970E+08         0.00000E+00
    0.00000E+00         0.00000E+00        -0.23469E+07
 
   -0.22628E-08        -0.17347E-08         0.00000E+00
   -0.17347E-08        -0.10970E+08         0.00000E+00
    0.00000E+00         0.00000E+00        -0.23469E+07
 
   -0.14988E-08         0.54933E-08         0.00000E+00
    0.54933E-08        -0.10970E+08         0.00000E+00
    0.00000E+00         0.00000E+00        -0.23469E+07
 
   -0.24011E-09        -0.17347E-08         0.00000E+00
   -0.17347E-08        -0.10970E+08         0.00000E+00
    0.00000E+00         0.00000E+00        -0.23469E+07
 
    0.44092E-08        -0.46259E-08         0.00000E+00
   -0.46259E-08        -0.10970E+08         0.00000E+00
    0.00000E+00         0.00000E+00        -0.23469E+07
 
    0.12835E-07        -0.40477E-08         0.00000E+00
   -0.40477E-08        -0.10970E+08         0.00000E+00
    0.00000E+00         0.00000E+00        -0.23469E+07
 
    0.81709E-08         0.20238E-08         0.00000E+00
    0.20238E-08        -0.10970E+08         0.00000E+00
    0.00000E+00         0.00000E+00        -0.23469E+07
 
    0.41667E+08         0.52620E-07         0.00000E+00
    0.52620E-07         0.15570E+09         0.00000E+00
    0.00000E+00         0.00000E+00         0.39321E+08
 
   -0.76107E-08         0.72280E-08         0.00000E+00
    0.72280E-08        -0.10969E+08         0.00000E+00
    0.00000E+00         0.00000E+00        -0.23462E+07
 
   -0.18117E-08         0.69389E-08         0.00000E+00
    0.69389E-08        -0.10969E+08         0.00000E+00
    0.00000E+00         0.00000E+00        -0.23462E+07
 
   -0.15993E-07         0.57824E-09         0.00000E+00
    0.57824E-09        -0.10969E+08         0.00000E+00
    0.00000E+00         0.00000E+00        -0.23462E+07
 
   -0.66721E-08         0.28912E-09         0.00000E+00
    0.28912E-09        -0.10969E+08         0.00000E+00
    0.00000E+00         0.00000E+00        -0.23462E+07
 
   -0.35288E-08         0.34694E-08         0.00000E+00
    0.34694E-08        -0.10969E+08         0.00000E+00
    0.00000E+00         0.00000E+00        -0.23462E+07
 
    0.39581E-08         0.72280E-09         0.00000E+00
    0.72280E-09        -0.10969E+08         0.00000E+00
    0.00000E+00         0.00000E+00        -0.23462E+07
 
    0.97425E-08        -0.14456E-08         0.00000E+00
   -0.14456E-08        -0.10969E+08         0.00000E+00
    0.00000E+00         0.00000E+00        -0.23462E+07
 
    0.67957E-08         0.28912E-09         0.00000E+00
    0.28912E-09        -0.10969E+08         0.00000E+00
    0.00000E+00         0.00000E+00        -0.23462E+07
 
    0.10252E-07         0.31803E-08         0.00000E+00
    0.31803E-08        -0.10969E+08         0.00000E+00
    0.00000E+00         0.00000E+00        -0.23462E+07
 
    0.92550E-08         0.14456E-08         0.00000E+00
    0.14456E-08        -0.10969E+08         0.00000E+00
    0.00000E+00         0.00000E+00        -0.23462E+07
 
    0.36962E-08         0.26021E-08         0.00000E+00
    0.26021E-08        -0.10969E+08         0.00000E+00
    0.00000E+00         0.00000E+00        -0.23462E+07
 
    0.14406E-08         0.00000E+00         0.00000E+00
    0.00000E+00        -0.10969E+08         0.00000E+00
    0.00000E+00         0.00000E+00        -0.23462E+07
 
   -0.85129E-09         0.11565E-08         0.00000E+00
    0.11565E-08        -0.10969E+08         0.00000E+00
    0.00000E+00         0.00000E+00        -0.23462E+07
 
   -0.95170E-08        -0.28912E-09         0.00000E+00
   -0.28912E-09        -0.10969E+08         0.00000E+00
    0.00000E+00         0.00000E+00        -0.23462E+07
 
    0.41667E+08         0.52042E-08         0.00000E+00
    0.52042E-08         0.15570E+09         0.00000E+00
    0.00000E+00         0.00000E+00         0.39321E+08
 
    0.46057E-08        -0.12143E-07         0.00000E+00
   -0.12143E-07        -0.10968E+08         0.00000E+00
    0.00000E+00         0.00000E+00        -0.23454E+07
 
   -0.54133E-08         0.37586E-08         0.00000E+00
    0.37586E-08        -0.10968E+08         0.00000E+00
    0.00000E+00         0.00000E+00        -0.23454E+07
 
    0.37980E-08        -0.17347E-08         0.00000E+00
   -0.17347E-08        -0.10968E+08         0.00000E+00
    0.00000E+00         0.00000E+00        -0.23454E+07
 
    0.11511E-07        -0.28912E-08         0.00000E+00
   -0.28912E-08        -0.10968E+08         0.00000E+00
    0.00000E+00         0.00000E+00        -0.23454E+07
 
   -0.38635E-08        -0.23130E-08         0.00000E+00
   -0.23130E-08        -0.10968E+08         0.00000E+00
    0.00000E+00         0.00000E+00        -0.23454E+07
 
   -0.21828E-09        -0.34694E-08         0.00000E+00
   -0.34694E-08        -0.10968E+08         0.00000E+00
    0.00000E+00         0.00000E+00        -0.23454E+07
 
   -0.79381E-08        -0.23130E-08         0.00000E+00
   -0.23130E-08        -0.10968E+08         0.00000E+00
    0.00000E+00         0.00000E+00        -0.23454E+07
 
    0.41982E-08        -0.20238E-08         0.00000E+00
   -0.20238E-08        -0.10968E+08         0.00000E+00
    0.00000E+00         0.00000E+00        -0.23454E+07
 
    0.37835E-08         0.54933E-08         0.00000E+00
    0.54933E-08        -0.10968E+08         0.00000E+00
    0.00000E+00         0.00000E+00        -0.23454E+07
 
    0.80763E-09         0.11565E-08         0.00000E+00
    0.11565E-08        -0.10968E+08         0.00000E+00
    0.00000E+00         0.00000E+00        -0.23454E+07
 
    0.59154E-08         0.31803E-08         0.00000E+00
    0.31803E-08        -0.10968E+08         0.00000E+00
    0.00000E+00         0.00000E+00        -0.23454E+07
 
    0.96406E-08         0.28912E-08         0.00000E+00
    0.28912E-08        -0.10968E+08         0.00000E+00
    0.00000E+00         0.00000E+00        -0.23454E+07
 
    0.58935E-09         0.28912E-08         0.00000E+00
    0.28912E-08        -0.10968E+08         0.00000E+00
    0.00000E+00         0.00000E+00        -0.23454E+07
 
    0.16807E-08         0.52042E-08         0.00000E+00
    0.52042E-08        -0.10968E+08         0.00000E+00
    0.00000E+00         0.00000E+00        -0.23454E+07
 
    0.41667E+08        -0.51174E-07         0.00000E+00
   -0.51174E-07         0.15570E+09         0.00000E+00
    0.00000E+00         0.00000E+00         0.39322E+08
 
    0.75379E-08        -0.31803E-08         0.00000E+00
   -0.31803E-08        -0.10967E+08         0.00000E+00
    0.00000E+00         0.00000E+00        -0.23445E+07
 
   -0.38199E-08         0.69389E-08         0.00000E+00
    0.69389E-08        -0.10967E+08         0.00000E+00
    0.00000E+00         0.00000E+00        -0.23445E+07
 
    0.11467E-07        -0.72280E-08         0.00000E+00
   -0.72280E-08        -0.10967E+08         0.00000E+00
    0.00000E+00         0.00000E+00        -0.23445E+07
 
   -0.10972E-07         0.83845E-08         0.00000E+00
    0.83845E-08        -0.10967E+08         0.00000E+00
    0.00000E+00         0.00000E+00        -0.23445E+07
 
    0.18917E-08         0.11565E-08         0.00000E+00
    0.11565E-08        -0.10967E+08         0.00000E+00
    0.00000E+00         0.00000E+00        -0.23445E+07
 
   -0.39508E-08         0.92519E-08         0.00000E+00
    0.92519E-08        -0.10967E+08         0.00000E+00
    0.00000E+00         0.00000E+00        -0.23445E+07
 
    0.97498E-08         0.28912E-08         0.00000E+00
    0.28912E-08        -0.10967E+08         0.00000E+00
    0.00000E+00         0.00000E+00        -0.23445E+07
 
    0.65993E-08         0.34694E-08         0.00000E+00
    0.34694E-08        -0.10967E+08         0.00000E+00
    0.00000E+00         0.00000E+00        -0.23445E+07
 
    0.60318E-08        -0.57824E-08         0.00000E+00
   -0.57824E-08        -0.10967E+08         0.00000E+00
    0.00000E+00         0.00000E+00        -0.23445E+07
 
    0.96552E-08        -0.37586E-08         0.00000E+00
   -0.37586E-08        -0.10967E+08         0.00000E+00
    0.00000E+00         0.00000E+00        -0.23445E+07
 
   -0.15862E-08         0.43368E-08         0.00000E+00
    0.43368E-08        -0.10967E+08         0.00000E+00
    0.00000E+00         0.00000E+00        -0.23445E+07
 
    0.10856E-07         0.69389E-08         0.00000E+00
    0.69389E-08        -0.10967E+08         0.00000E+00
    0.00000E+00         0.00000E+00        -0.23445E+07
 
    0.64538E-08        -0.34694E-08         0.00000E+00
   -0.34694E-08        -0.10967E+08         0.00000E+00
    0.00000E+00         0.00000E+00        -0.23445E+07
 
    0.20591E-08         0.49150E-08         0.00000E+00
    0.49150E-08        -0.10967E+08         0.00000E+00
    0.00000E+00         0.00000E+00        -0.23445E+07
 
    0.41667E+08         0.57824E-09         0.00000E+00
    0.57824E-09         0.15570E+09         0.00000E+00
    0.00000E+00         0.00000E+00         0.39323E+08
 
   -0.34852E-08         0.69389E-08         0.00000E+00
    0.69389E-08        -0.10967E+08         0.00000E+00
    0.00000E+00         0.00000E+00        -0.23437E+07
 
   -0.14552E-08         0.28912E-08         0.00000E+00
    0.28912E-08        -0.10967E+08         0.00000E+00
    0.00000E+00         0.00000E+00        -0.23437E+07
 
    0.64174E-08         0.54933E-08         0.00000E+00
    0.54933E-08        -0.10967E+08         0.00000E+00
    0.00000E+00         0.00000E+00        -0.23437E+07
 
    0.18837E-07        -0.28912E-09         0.00000E+00
   -0.28912E-09        -0.10967E+08         0.00000E+00
    0.00000E+00         0.00000E+00        -0.23437E+07
 
   -0.65411E-08        -0.57824E-09         0.00000E+00
   -0.57824E-09        -0.10967E+08         0.00000E+00
    0.00000E+00         0.00000E+00        -0.23437E+07
 
   -0.10768E-08         0.69389E-08         0.00000E+00
    0.69389E-08        -0.10967E+08         0.00000E+00
    0.00000E+00         0.00000E+00        -0.23437E+07
 
   -0.10412E-07         0.34694E-08         0.00000E+00
    0.34694E-08        -0.10967E+08         0.00000E+00
    0.00000E+00         0.00000E+00        -0.23437E+07
 
   -0.29977E-08         0.57824E-08         0.00000E+00
    0.57824E-08        -0.10967E+08         0.00000E+00
    0.00000E+00         0.00000E+00        -0.23437E+07
 
    0.12347E-07         0.40477E-08         0.00000E+00
    0.40477E-08        -0.10967E+08         0.00000E+00
    0.00000E+00         0.00000E+00        -0.23437E+07
 
    0.10579E-07         0.23130E-08         0.00000E+00
    0.23130E-08        -0.10967E+08         0.00000E+00
    0.00000E+00         0.00000E+00        -0.23437E+07
 
    0.58062E-08        -0.14456E-08         0.00000E+00
   -0.14456E-08        -0.10967E+08         0.00000E+00
    0.00000E+00         0.00000E+00        -0.23437E+07
 
    0.33324E-08         0.40477E-08         0.00000E+00
    0.40477E-08        -0.10967E+08         0.00000E+00
    0.00000E+00         0.00000E+00        -0.23437E+07
 
    0.11205E-08        -0.63607E-08         0.00000E+00
   -0.63607E-08        -0.10967E+08         0.00000E+00
    0.00000E+00         0.00000E+00        -0.23437E+07
 
    0.48458E-08        -0.57824E-09         0.00000E+00
   -0.57824E-09        -0.10967E+08         0.00000E+00
    0.00000E+00         0.00000E+00        -0.23437E+07
 
    0.41667E+08         0.48572E-07         0.00000E+00
    0.48572E-07         0.15570E+09         0.00000E+00
    0.00000E+00         0.00000E+00         0.39324E+08
 
   -0.42710E-08        -0.49150E-08         0.00000E+00
   -0.49150E-08        -0.10966E+08         0.00000E+00
    0.00000E+00         0.00000E+00        -0.23428E+07
 
    0.15280E-09         0.37586E-08         0.00000E+00
    0.37586E-08        -0.10966E+08         0.00000E+00
    0.00000E+00         0.00000E+00        -0.23428E+07
 
   -0.64829E-08        -0.17347E-08         0.00000E+00
   -0.17347E-08        -0.10966E+08         0.00000E+00
    0.00000E+00         0.00000E+00        -0.23428E+07
 
   -0.43074E-08         0.28912E-08         0.00000E+00
    0.28912E-08        -0.10966E+08         0.00000E+00
    0.00000E+00         0.00000E+00        -0.23428E+07
 
   -0.93860E-09        -0.23130E-08         0.00000E+00
   -0.23130E-08        -0.10966E+08         0.00000E+00
    0.00000E+00         0.00000E+00        -0.23428E+07
 
    0.72177E-08        -0.92519E-08         0.00000E+00
   -0.92519E-08        -0.10966E+08         0.00000E+00
    0.00000E+00         0.00000E+00        -0.23428E+07
 
    0.12151E-08         0.34694E-08         0.00000E+00
    0.34694E-08        -0.10966E+08         0.00000E+00
    0.00000E+00         0.00000E+00        -0.23428E+07
 
    0.50713E-08        -0.75171E-08         0.00000E+00
   -0.75171E-08        -0.10966E+08         0.00000E+00
    0.00000E+00         0.00000E+00        -0.23428E+07
 
   -0.13824E-08         0.14167E-07         0.00000E+00
    0.14167E-07        -0.10966E+08         0.00000E+00
    0.00000E+00         0.00000E+00        -0.23428E+07
 
   -0.60027E-08        -0.86736E-09         0.00000E+00
   -0.86736E-09        -0.10966E+08         0.00000E+00
    0.00000E+00         0.00000E+00        -0.23428E+07
 
   -0.16975E-07         0.80954E-08         0.00000E+00
    0.80954E-08        -0.10966E+08         0.00000E+00
    0.00000E+00         0.00000E+00        -0.23428E+07
 
   -0.52387E-08         0.92519E-08         0.00000E+00
    0.92519E-08        -0.10966E+08         0.00000E+00
    0.00000E+00         0.00000E+00        -0.23428E+07
 
    0.93569E-08        -0.57824E-08         0.00000E+00
   -0.57824E-08        -0.10966E+08         0.00000E+00
    0.00000E+00         0.00000E+00        -0.23428E+07
 
   -0.36307E-08         0.52042E-08         0.00000E+00
    0.52042E-08        -0.10966E+08         0.00000E+00
    0.00000E+00         0.00000E+00        -0.23428E+07
 
    0.41667E+08        -0.47416E-07         0.00000E+00
   -0.47416E-07         0.15570E+09         0.00000E+00
    0.00000E+00         0.00000E+00         0.39325E+08
 
    0.83164E-08        -0.86736E-08         0.00000E+00
   -0.86736E-08        -0.10965E+08         0.00000E+00
    0.00000E+00         0.00000E+00        -0.23418E+07
 
   -0.30850E-08        -0.26021E-08         0.00000E+00
   -0.26021E-08        -0.10965E+08         0.00000E+00
    0.00000E+00         0.00000E+00        -0.23418E+07
 
    0.63592E-08         0.52042E-08         0.00000E+00
    0.52042E-08        -0.10965E+08         0.00000E+00
    0.00000E+00         0.00000E+00        -0.23418E+07
 
    0.55297E-08         0.89627E-08         0.00000E+00
    0.89627E-08        -0.10965E+08         0.00000E+00
    0.00000E+00         0.00000E+00        -0.23418E+07
 
    0.53187E-08        -0.28912E-09         0.00000E+00
   -0.28912E-09        -0.10965E+08         0.00000E+00
    0.00000E+00         0.00000E+00        -0.23418E+07
 
    0.33324E-08         0.40477E-08         0.00000E+00
    0.40477E-08        -0.10965E+08         0.00000E+00
    0.00000E+00         0.00000E+00        -0.23418E+07
 
    0.46421E-08        -0.57824E-09         0.00000E+00
   -0.57824E-09        -0.10965E+08         0.00000E+00
    0.00000E+00         0.00000E+00        -0.23418E+07
 
    0.69704E-08        -0.26021E-08         0.00000E+00
   -0.26021E-08        -0.10965E+08         0.00000E+00
    0.00000E+00         0.00000E+00        -0.23418E+07
 
    0.10223E-07        -0.57824E-09         0.00000E+00
   -0.57824E-09        -0.10965E+08         0.00000E+00
    0.00000E+00         0.00000E+00        -0.23418E+07
 
    0.14443E-07         0.37586E-08         0.00000E+00
    0.37586E-08        -0.10965E+08         0.00000E+00
    0.00000E+00         0.00000E+00        -0.23418E+07
 
    0.12071E-07        -0.40477E-08         0.00000E+00
   -0.40477E-08        -0.10965E+08         0.00000E+00
    0.00000E+00         0.00000E+00        -0.23418E+07
 
    0.35216E-08         0.57824E-09         0.00000E+00
    0.57824E-09        -0.10965E+08         0.00000E+00
    0.00000E+00         0.00000E+00        -0.23418E+07
 
    0.40163E-08         0.11565E-08         0.00000E+00
    0.11565E-08        -0.10965E+08         0.00000E+00
    0.00000E+00         0.00000E+00        -0.23418E+07
 
    0.14785E-07         0.28912E-08         0.00000E+00
    0.28912E-08        -0.10965E+08         0.00000E+00
    0.00000E+00         0.00000E+00        -0.23418E+07
 
    0.41667E+08         0.36429E-07         0.00000E+00
    0.36429E-07         0.15570E+09         0.00000E+00
    0.00000E+00         0.00000E+00         0.39326E+08
 
    0.11394E-07        -0.52042E-08         0.00000E+00
   -0.52042E-08        -0.10964E+08         0.00000E+00
    0.00000E+00         0.00000E+00        -0.23408E+07
 
    0.70140E-08        -0.69389E-08         0.00000E+00
   -0.69389E-08        -0.10964E+08         0.00000E+00
    0.00000E+00         0.00000E+00        -0.23408E+07
 
    0.11009E-07         0.57824E-09         0.00000E+00
    0.57824E-09        -0.10964E+08         0.00000E+00
    0.00000E+00         0.00000E+00        -0.23408E+07
 
   -0.42564E-08        -0.17347E-08         0.00000E+00
   -0.17347E-08        -0.10964E+08         0.00000E+00
    0.00000E+00         0.00000E+00        -0.23408E+07
 
    0.12158E-07         0.14456E-08         0.00000E+00
    0.14456E-08        -0.10964E+08         0.00000E+00
    0.00000E+00         0.00000E+00        -0.23408E+07
 
    0.49549E-08        -0.57824E-08         0.00000E+00
   -0.57824E-08        -0.10964E+08         0.00000E+00
    0.00000E+00         0.00000E+00        -0.23408E+07
 
    0.29104E-08        -0.46259E-08         0.00000E+00
   -0.46259E-08        -0.10964E+08         0.00000E+00
    0.00000E+00         0.00000E+00        -0.23408E+07
 
    0.71959E-08        -0.17347E-08         0.00000E+00
   -0.17347E-08        -0.10964E+08         0.00000E+00
    0.00000E+00         0.00000E+00        -0.23408E+07
 
    0.50131E-08         0.00000E+00         0.00000E+00
    0.00000E+00        -0.10964E+08         0.00000E+00
    0.00000E+00         0.00000E+00        -0.23408E+07
 
    0.10790E-07         0.14456E-08         0.00000E+00
    0.14456E-08        -0.10964E+08         0.00000E+00
    0.00000E+00         0.00000E+00        -0.23408E+07
 
   -0.88767E-09         0.34694E-08         0.00000E+00
    0.34694E-08        -0.10964E+08         0.00000E+00
    0.00000E+00         0.00000E+00        -0.23408E+07
 
   -0.59008E-08        -0.17347E-08         0.00000E+00
   -0.17347E-08        -0.10964E+08         0.00000E+00
    0.00000E+00         0.00000E+00        -0.23408E+07
 
    0.53260E-08        -0.72280E-08         0.00000E+00
   -0.72280E-08        -0.10964E+08         0.00000E+00
    0.00000E+00         0.00000E+00        -0.23408E+07
 
   -0.41546E-08         0.63607E-08         0.00000E+00
    0.63607E-08        -0.10964E+08         0.00000E+00
    0.00000E+00         0.00000E+00        -0.23408E+07
 
    0.41667E+08        -0.44525E-07         0.00000E+00
   -0.44525E-07         0.15570E+09         0.00000E+00
    0.00000E+00         0.00000E+00         0.39327E+08
 
   -0.13533E-08         0.28912E-09         0.00000E+00
    0.28912E-09        -0.10963E+08         0.00000E+00
    0.00000E+00         0.00000E+00        -0.23398E+07
 
    0.24738E-08         0.20238E-08         0.00000E+00
    0.20238E-08        -0.10963E+08         0.00000E+00
    0.00000E+00         0.00000E+00        -0.23398E+07
 
    0.50641E-08         0.89627E-08         0.00000E+00
    0.89627E-08        -0.10963E+08         0.00000E+00
    0.00000E+00         0.00000E+00        -0.23398E+07
 
    0.10885E-07        -0.92519E-08         0.00000E+00
   -0.92519E-08        -0.10963E+08         0.00000E+00
    0.00000E+00         0.00000E+00        -0.23398E+07
 
    0.34051E-08         0.60715E-08         0.00000E+00
    0.60715E-08        -0.10963E+08         0.00000E+00
    0.00000E+00         0.00000E+00        -0.23398E+07
 
   -0.74942E-09         0.14456E-08         0.00000E+00
    0.14456E-08        -0.10963E+08         0.00000E+00
    0.00000E+00         0.00000E+00        -0.23398E+07
 
    0.16153E-08        -0.34694E-08         0.00000E+00
   -0.34694E-08        -0.10963E+08         0.00000E+00
    0.00000E+00         0.00000E+00        -0.23398E+07
 
   -0.10215E-07        -0.17347E-08         0.00000E+00
   -0.17347E-08        -0.10963E+08         0.00000E+00
    0.00000E+00         0.00000E+00        -0.23398E+07
 
   -0.32596E-08         0.28912E-08         0.00000E+00
    0.28912E-08        -0.10963E+08         0.00000E+00
    0.00000E+00         0.00000E+00        -0.23398E+07
 
   -0.80181E-08        -0.26021E-08         0.00000E+00
   -0.26021E-08        -0.10963E+08         0.00000E+00
    0.00000E+00         0.00000E+00        -0.23398E+07
 
    0.40236E-08         0.28912E-09         0.00000E+00
    0.28912E-09        -0.10963E+08         0.00000E+00
    0.00000E+00         0.00000E+00        -0.23398E+07
 
    0.14865E-07         0.31803E-08         0.00000E+00
    0.31803E-08        -0.10963E+08         0.00000E+00
    0.00000E+00         0.00000E+00        -0.23398E+07
 
    0.73342E-08        -0.20238E-08         0.00000E+00
   -0.20238E-08        -0.10963E+08         0.00000E+00
    0.00000E+00         0.00000E+00        -0.23398E+07
 
    0.13453E-07        -0.17347E-08         0.00000E+00
   -0.17347E-08        -0.10963E+08         0.00000E+00
    0.00000E+00         0.00000E+00        -0.23398E+07
 
    0.41667E+08         0.53776E-07         0.00000E+00
    0.53776E-07         0.15571E+09         0.00000E+00
    0.00000E+00         0.00000E+00         0.39328E+08
 
    0.67666E-08         0.57824E-09         0.00000E+00
    0.57824E-09        -0.10962E+08         0.00000E+00
    0.00000E+00         0.00000E+00        -0.23387E+07
 
    0.20300E-08        -0.11565E-08         0.00000E+00
   -0.11565E-08        -0.10962E+08         0.00000E+00
    0.00000E+00         0.00000E+00        -0.23387E+07
 
    0.62573E-08         0.34694E-08         0.00000E+00
    0.34694E-08        -0.10962E+08         0.00000E+00
    0.00000E+00         0.00000E+00        -0.23387E+07
 
    0.14552E-10         0.11565E-08         0.00000E+00
    0.11565E-08        -0.10962E+08         0.00000E+00
    0.00000E+00         0.00000E+00        -0.23387E+07
 
   -0.36089E-08         0.37586E-08         0.00000E+00
    0.37586E-08        -0.10962E+08         0.00000E+00
    0.00000E+00         0.00000E+00        -0.23387E+07
 
   -0.73487E-09         0.28912E-09         0.00000E+00
    0.28912E-09        -0.10962E+08         0.00000E+00
    0.00000E+00         0.00000E+00        -0.23387E+07
 
   -0.65775E-08        -0.28912E-08         0.00000E+00
   -0.28912E-08        -0.10962E+08         0.00000E+00
    0.00000E+00         0.00000E+00        -0.23387E+07
 
    0.11954E-07        -0.52042E-08         0.00000E+00
   -0.52042E-08        -0.10962E+08         0.00000E+00
    0.00000E+00         0.00000E+00        -0.23387E+07
 
    0.76179E-08        -0.57824E-09         0.00000E+00
   -0.57824E-09        -0.10962E+08         0.00000E+00
    0.00000E+00         0.00000E+00        -0.23387E+07
 
    0.17608E-08         0.31803E-08         0.00000E+00
    0.31803E-08        -0.10962E+08         0.00000E+00
    0.00000E+00         0.00000E+00        -0.23387E+07
 
   -0.46930E-08        -0.37586E-08         0.00000E+00
   -0.37586E-08        -0.10962E+08         0.00000E+00
    0.00000E+00         0.00000E+00        -0.23387E+07
 
    0.46639E-08         0.92519E-08         0.00000E+00
    0.92519E-08        -0.10962E+08         0.00000E+00
    0.00000E+00         0.00000E+00        -0.23387E+07
 
   -0.16662E-08        -0.11565E-08         0.00000E+00
   -0.11565E-08        -0.10962E+08         0.00000E+00
    0.00000E+00         0.00000E+00        -0.23387E+07
 
    0.18190E-08         0.75171E-08         0.00000E+00
    0.75171E-08        -0.10962E+08         0.00000E+00
    0.00000E+00         0.00000E+00        -0.23387E+07
 
    0.41667E+08        -0.56089E-07         0.00000E+00
   -0.56089E-07         0.15571E+09         0.00000E+00
    0.00000E+00         0.00000E+00         0.39329E+08
 
    0.52096E-08        -0.20238E-08         0.00000E+00
   -0.20238E-08        -0.10960E+08         0.00000E+00
    0.00000E+00         0.00000E+00        -0.23375E+07
 
    0.30122E-08        -0.14167E-07         0.00000E+00
   -0.14167E-07        -0.10960E+08         0.00000E+00
    0.00000E+00         0.00000E+00        -0.23375E+07
 
    0.72032E-08        -0.14456E-08         0.00000E+00
   -0.14456E-08        -0.10960E+08         0.00000E+00
    0.00000E+00         0.00000E+00        -0.23375E+07
 
    0.48749E-08        -0.26021E-08         0.00000E+00
   -0.26021E-08        -0.10960E+08         0.00000E+00
    0.00000E+00         0.00000E+00        -0.23375E+07
 
    0.56389E-08        -0.60715E-08         0.00000E+00
   -0.60715E-08        -0.10960E+08         0.00000E+00
    0.00000E+00         0.00000E+00        -0.23375E+07
 
   -0.52460E-08         0.23130E-08         0.00000E+00
    0.23130E-08        -0.10960E+08         0.00000E+00
    0.00000E+00         0.00000E+00        -0.23375E+07
 
   -0.96989E-08        -0.17636E-07         0.00000E+00
   -0.17636E-07        -0.10960E+08         0.00000E+00
    0.00000E+00         0.00000E+00        -0.23375E+07
 
   -0.14988E-08         0.52042E-08         0.00000E+00
    0.52042E-08        -0.10960E+08         0.00000E+00
    0.00000E+00         0.00000E+00        -0.23375E+07
 
   -0.26484E-08        -0.12143E-07         0.00000E+00
   -0.12143E-07        -0.10960E+08         0.00000E+00
    0.00000E+00         0.00000E+00        -0.23375E+07
 
   -0.16080E-08        -0.95410E-08         0.00000E+00
   -0.95410E-08        -0.10960E+08         0.00000E+00
    0.00000E+00         0.00000E+00        -0.23375E+07
 
    0.61700E-08         0.80954E-08         0.00000E+00
    0.80954E-08        -0.10960E+08         0.00000E+00
    0.00000E+00         0.00000E+00        -0.23375E+07
 
   -0.81636E-08         0.57824E-09         0.00000E+00
    0.57824E-09        -0.10960E+08         0.00000E+00
    0.00000E+00         0.00000E+00        -0.23375E+07
 
   -0.21100E-08        -0.13300E-07         0.00000E+00
   -0.13300E-07        -0.10960E+08         0.00000E+00
    0.00000E+00         0.00000E+00        -0.23375E+07
 
   -0.11401E-07         0.46259E-08         0.00000E+00
    0.46259E-08        -0.10960E+08         0.00000E+00
    0.00000E+00         0.00000E+00        -0.23375E+07
 
    0.41667E+08         0.57246E-07         0.00000E+00
    0.57246E-07         0.15571E+09         0.00000E+00
    0.00000E+00         0.00000E+00         0.39330E+08
 
   -0.36380E-10         0.17347E-08         0.00000E+00
    0.17347E-08        -0.10959E+08         0.00000E+00
    0.00000E+00         0.00000E+00        -0.23363E+07
 
    0.68394E-08         0.80954E-08         0.00000E+00
    0.80954E-08        -0.10959E+08         0.00000E+00
    0.00000E+00         0.00000E+00        -0.23363E+07
 
    0.28449E-08         0.66498E-08         0.00000E+00
    0.66498E-08        -0.10959E+08         0.00000E+00
    0.00000E+00         0.00000E+00        -0.23363E+07
 
   -0.92041E-08        -0.80954E-08         0.00000E+00
   -0.80954E-08        -0.10959E+08         0.00000E+00
    0.00000E+00         0.00000E+00        -0.23363E+07
 
    0.22628E-08         0.57824E-08         0.00000E+00
    0.57824E-08        -0.10959E+08         0.00000E+00
    0.00000E+00         0.00000E+00        -0.23363E+07
 
   -0.61555E-08         0.10987E-07         0.00000E+00
    0.10987E-07        -0.10959E+08         0.00000E+00
    0.00000E+00         0.00000E+00        -0.23363E+07
 
    0.62719E-08         0.57824E-09         0.00000E+00
    0.57824E-09        -0.10959E+08         0.00000E+00
    0.00000E+00         0.00000E+00        -0.23363E+07
 
    0.29831E-08         0.40477E-08         0.00000E+00
    0.40477E-08        -0.10959E+08         0.00000E+00
    0.00000E+00         0.00000E+00        -0.23363E+07
 
   -0.42928E-08        -0.46259E-08         0.00000E+00
   -0.46259E-08        -0.10959E+08         0.00000E+00
    0.00000E+00         0.00000E+00        -0.23363E+07
 
   -0.48312E-08         0.20238E-08         0.00000E+00
    0.20238E-08        -0.10959E+08         0.00000E+00
    0.00000E+00         0.00000E+00        -0.23363E+07
 
   -0.61846E-08        -0.11565E-08         0.00000E+00
   -0.11565E-08        -0.10959E+08         0.00000E+00
    0.00000E+00         0.00000E+00        -0.23363E+07
 
    0.75815E-08        -0.23130E-08         0.00000E+00
   -0.23130E-08        -0.10959E+08         0.00000E+00
    0.00000E+00         0.00000E+00        -0.23363E+07
 
    0.10768E-08         0.57824E-08         0.00000E+00
    0.57824E-08        -0.10959E+08         0.00000E+00
    0.00000E+00         0.00000E+00        -0.23363E+07
 
    0.91313E-08         0.75171E-08         0.00000E+00
    0.75171E-08        -0.10959E+08         0.00000E+00
    0.00000E+00         0.00000E+00        -0.23363E+07
 
    0.41667E+08        -0.57246E-07         0.00000E+00
   -0.57246E-07         0.15571E+09         0.00000E+00
    0.00000E+00         0.00000E+00         0.39332E+08
 
    0.46130E-08        -0.34694E-08         0.00000E+00
   -0.34694E-08        -0.10958E+08         0.00000E+00
    0.00000E+00         0.00000E+00        -0.23351E+07
 
   -0.10135E-07        -0.20238E-08         0.00000E+00
   -0.20238E-08        -0.10958E+08         0.00000E+00
    0.00000E+00         0.00000E+00        -0.23351E+07
 
    0.11751E-07         0.43368E-08         0.00000E+00
    0.43368E-08        -0.10958E+08         0.00000E+00
    0.00000E+00         0.00000E+00        -0.23351E+07
 
    0.12980E-07        -0.80954E-08         0.00000E+00
   -0.80954E-08        -0.10958E+08         0.00000E+00
    0.00000E+00         0.00000E+00        -0.23351E+07
 
    0.54060E-08         0.46259E-08         0.00000E+00
    0.46259E-08        -0.10958E+08         0.00000E+00
    0.00000E+00         0.00000E+00        -0.23351E+07
 
    0.26434E-07        -0.11565E-07         0.00000E+00
   -0.11565E-07        -0.10958E+08         0.00000E+00
    0.00000E+00         0.00000E+00        -0.23351E+07
 
    0.93205E-08         0.49150E-08         0.00000E+00
    0.49150E-08        -0.10958E+08         0.00000E+00
    0.00000E+00         0.00000E+00        -0.23351E+07
 
   -0.88039E-09        -0.17347E-08         0.00000E+00
   -0.17347E-08        -0.10958E+08         0.00000E+00
    0.00000E+00         0.00000E+00        -0.23351E+07
 
   -0.11692E-07         0.28912E-08         0.00000E+00
    0.28912E-08        -0.10958E+08         0.00000E+00
    0.00000E+00         0.00000E+00        -0.23351E+07
 
   -0.28303E-08         0.00000E+00         0.00000E+00
    0.00000E+00        -0.10958E+08         0.00000E+00
    0.00000E+00         0.00000E+00        -0.23351E+07
 
    0.47294E-08         0.49150E-08         0.00000E+00
    0.49150E-08        -0.10958E+08         0.00000E+00
    0.00000E+00         0.00000E+00        -0.23351E+07
 
    0.58208E-08         0.11565E-08         0.00000E+00
    0.11565E-08        -0.10958E+08         0.00000E+00
    0.00000E+00         0.00000E+00        -0.23351E+07
 
   -0.79672E-08        -0.11565E-08         0.00000E+00
   -0.11565E-08        -0.10958E+08         0.00000E+00
    0.00000E+00         0.00000E+00        -0.23351E+07
 
   -0.93132E-08         0.34694E-08         0.00000E+00
    0.34694E-08        -0.10958E+08         0.00000E+00
    0.00000E+00         0.00000E+00        -0.23351E+07
 
    0.41667E+08        -0.57824E-08         0.00000E+00
   -0.57824E-08         0.15571E+09         0.00000E+00
    0.00000E+00         0.00000E+00         0.39333E+08
 
   -0.52532E-08         0.66498E-08         0.00000E+00
    0.66498E-08        -0.10957E+08         0.00000E+00
    0.00000E+00         0.00000E+00        -0.23338E+07
 
   -0.83674E-09         0.11565E-08         0.00000E+00
    0.11565E-08        -0.10957E+08         0.00000E+00
    0.00000E+00         0.00000E+00        -0.23338E+07
 
   -0.13402E-07         0.37586E-08         0.00000E+00
    0.37586E-08        -0.10957E+08         0.00000E+00
    0.00000E+00         0.00000E+00        -0.23338E+07
 
   -0.76325E-08         0.40477E-08         0.00000E+00
    0.40477E-08        -0.10957E+08         0.00000E+00
    0.00000E+00         0.00000E+00        -0.23338E+07
 
   -0.10157E-07        -0.14456E-08         0.00000E+00
   -0.14456E-08        -0.10957E+08         0.00000E+00
    0.00000E+00         0.00000E+00        -0.23338E+07
 
   -0.43656E-08        -0.17347E-08         0.00000E+00
   -0.17347E-08        -0.10957E+08         0.00000E+00
    0.00000E+00         0.00000E+00        -0.23338E+07
 
    0.13701E-07         0.34694E-08         0.00000E+00
    0.34694E-08        -0.10957E+08         0.00000E+00
    0.00000E+00         0.00000E+00        -0.23338E+07
 
    0.11183E-07         0.28912E-08         0.00000E+00
    0.28912E-08        -0.10957E+08         0.00000E+00
    0.00000E+00         0.00000E+00        -0.23338E+07
 
    0.20707E-07        -0.69389E-08         0.00000E+00
   -0.69389E-08        -0.10957E+08         0.00000E+00
    0.00000E+00         0.00000E+00        -0.23338E+07
 
    0.19347E-07        -0.31803E-08         0.00000E+00
   -0.31803E-08        -0.10957E+08         0.00000E+00
    0.00000E+00         0.00000E+00        -0.23338E+07
 
    0.93423E-08        -0.11565E-08         0.00000E+00
   -0.11565E-08        -0.10957E+08         0.00000E+00
    0.00000E+00         0.00000E+00        -0.23338E+07
 
    0.14188E-07        -0.26021E-08         0.00000E+00
   -0.26021E-08        -0.10957E+08         0.00000E+00
    0.00000E+00         0.00000E+00        -0.23338E+07
 
    0.11561E-07        -0.57824E-08         0.00000E+00
   -0.57824E-08        -0.10957E+08         0.00000E+00
    0.00000E+00         0.00000E+00        -0.23338E+07
 
   -0.15425E-08         0.28912E-08         0.00000E+00
    0.28912E-08        -0.10957E+08         0.00000E+00
    0.00000E+00         0.00000E+00        -0.23338E+07
 
    0.41667E+08         0.40477E-08         0.00000E+00
    0.40477E-08         0.15571E+09         0.00000E+00
    0.00000E+00         0.00000E+00         0.39334E+08
 
    0.22774E-08        -0.12721E-07         0.00000E+00
   -0.12721E-07        -0.10955E+08         0.00000E+00
    0.00000E+00         0.00000E+00        -0.23325E+07
 
    0.52896E-08        -0.63607E-08         0.00000E+00
   -0.63607E-08        -0.10955E+08         0.00000E+00
    0.00000E+00         0.00000E+00        -0.23325E+07
 
   -0.11125E-07         0.37586E-08         0.00000E+00
    0.37586E-08        -0.10955E+08         0.00000E+00
    0.00000E+00         0.00000E+00        -0.23325E+07
 
   -0.95315E-08        -0.54933E-08         0.00000E+00
   -0.54933E-08        -0.10955E+08         0.00000E+00
    0.00000E+00         0.00000E+00        -0.23325E+07
 
    0.10623E-08         0.66498E-08         0.00000E+00
    0.66498E-08        -0.10955E+08         0.00000E+00
    0.00000E+00         0.00000E+00        -0.23325E+07
 
   -0.58426E-08        -0.57824E-09         0.00000E+00
   -0.57824E-09        -0.10955E+08         0.00000E+00
    0.00000E+00         0.00000E+00        -0.23325E+07
 
    0.90222E-08         0.17347E-08         0.00000E+00
    0.17347E-08        -0.10955E+08         0.00000E+00
    0.00000E+00         0.00000E+00        -0.23325E+07
 
   -0.36671E-08         0.52042E-08         0.00000E+00
    0.52042E-08        -0.10955E+08         0.00000E+00
    0.00000E+00         0.00000E+00        -0.23325E+07
 
   -0.11845E-07        -0.57824E-08         0.00000E+00
   -0.57824E-08        -0.10955E+08         0.00000E+00
    0.00000E+00         0.00000E+00        -0.23325E+07
 
   -0.45402E-08        -0.28912E-09         0.00000E+00
   -0.28912E-09        -0.10955E+08         0.00000E+00
    0.00000E+00         0.00000E+00        -0.23325E+07
 
   -0.24520E-08        -0.89627E-08         0.00000E+00
   -0.89627E-08        -0.10955E+08         0.00000E+00
    0.00000E+00         0.00000E+00        -0.23325E+07
 
   -0.65629E-08         0.52042E-08         0.00000E+00
    0.52042E-08        -0.10955E+08         0.00000E+00
    0.00000E+00         0.00000E+00        -0.23325E+07
 
    0.33833E-08         0.10408E-07         0.00000E+00
    0.10408E-07        -0.10955E+08         0.00000E+00
    0.00000E+00         0.00000E+00        -0.23325E+07
 
    0.11758E-07         0.34694E-08         0.00000E+00
    0.34694E-08        -0.10955E+08         0.00000E+00
    0.00000E+00         0.00000E+00        -0.23325E+07
 
    0.41667E+08         0.50307E-07         0.00000E+00
    0.50307E-07         0.15571E+09         0.00000E+00
    0.00000E+00         0.00000E+00         0.39336E+08
 
    0.63446E-08        -0.86736E-09         0.00000E+00
   -0.86736E-09        -0.10954E+08         0.00000E+00
    0.00000E+00         0.00000E+00        -0.23311E+07
 
    0.19209E-08        -0.14456E-07         0.00000E+00
   -0.14456E-07        -0.10954E+08         0.00000E+00
    0.00000E+00         0.00000E+00        -0.23311E+07
 
    0.22454E-07         0.11565E-08         0.00000E+00
    0.11565E-08        -0.10954E+08         0.00000E+00
    0.00000E+00         0.00000E+00        -0.23311E+07
 
    0.26455E-07        -0.34694E-08         0.00000E+00
   -0.34694E-08        -0.10954E+08         0.00000E+00
    0.00000E+00         0.00000E+00        -0.23311E+07
 
    0.10819E-07         0.14167E-07         0.00000E+00
    0.14167E-07        -0.10954E+08         0.00000E+00
    0.00000E+00         0.00000E+00        -0.23311E+07
 
   -0.50204E-09        -0.17925E-07         0.00000E+00
   -0.17925E-07        -0.10954E+08         0.00000E+00
    0.00000E+00         0.00000E+00        -0.23311E+07
 
   -0.82582E-08         0.11565E-08         0.00000E+00
    0.11565E-08        -0.10954E+08         0.00000E+00
    0.00000E+00         0.00000E+00        -0.23311E+07
 
   -0.21100E-09        -0.34694E-08         0.00000E+00
   -0.34694E-08        -0.10954E+08         0.00000E+00
    0.00000E+00         0.00000E+00        -0.23311E+07
 
    0.10521E-07        -0.18504E-07         0.00000E+00
   -0.18504E-07        -0.10954E+08         0.00000E+00
    0.00000E+00         0.00000E+00        -0.23311E+07
 
    0.10878E-07         0.86736E-09         0.00000E+00
    0.86736E-09        -0.10954E+08         0.00000E+00
    0.00000E+00         0.00000E+00        -0.23311E+07
 
   -0.26193E-09        -0.49150E-08         0.00000E+00
   -0.49150E-08        -0.10954E+08         0.00000E+00
    0.00000E+00         0.00000E+00        -0.23311E+07
 
    0.60973E-08        -0.57824E-08         0.00000E+00
   -0.57824E-08        -0.10954E+08         0.00000E+00
    0.00000E+00         0.00000E+00        -0.23311E+07
 
   -0.98225E-09         0.23130E-08         0.00000E+00
    0.23130E-08        -0.10954E+08         0.00000E+00
    0.00000E+00         0.00000E+00        -0.23311E+07
 
   -0.10419E-07         0.57824E-09         0.00000E+00
    0.57824E-09        -0.10954E+08         0.00000E+00
    0.00000E+00         0.00000E+00        -0.23311E+07
 
    0.41667E+08        -0.46259E-08         0.00000E+00
   -0.46259E-08         0.15571E+09         0.00000E+00
    0.00000E+00         0.00000E+00         0.39337E+08
 
    0.73487E-09         0.12721E-07         0.00000E+00
    0.12721E-07        -0.10952E+08         0.00000E+00
    0.00000E+00         0.00000E+00        -0.23296E+07
 
   -0.18408E-08         0.46259E-08         0.00000E+00
    0.46259E-08        -0.10952E+08         0.00000E+00
    0.00000E+00         0.00000E+00        -0.23296E+07
 
    0.10295E-07        -0.37586E-08         0.00000E+00
   -0.37586E-08        -0.10952E+08         0.00000E+00
    0.00000E+00         0.00000E+00        -0.23296E+07
 
    0.16851E-07         0.80954E-08         0.00000E+00
    0.80954E-08        -0.10952E+08         0.00000E+00
    0.00000E+00         0.00000E+00        -0.23296E+07
 
    0.74506E-08         0.92519E-08         0.00000E+00
    0.92519E-08        -0.10952E+08         0.00000E+00
    0.00000E+00         0.00000E+00        -0.23296E+07
 
    0.64611E-08        -0.11565E-07         0.00000E+00
   -0.11565E-07        -0.10952E+08         0.00000E+00
    0.00000E+00         0.00000E+00        -0.23296E+07
 
    0.10252E-07         0.92519E-08         0.00000E+00
    0.92519E-08        -0.10952E+08         0.00000E+00
    0.00000E+00         0.00000E+00        -0.23296E+07
 
    0.15767E-07         0.34694E-08         0.00000E+00
    0.34694E-08        -0.10952E+08         0.00000E+00
    0.00000E+00         0.00000E+00        -0.23296E+07
 
   -0.74797E-08        -0.11565E-08         0.00000E+00
   -0.11565E-08        -0.10952E+08         0.00000E+00
    0.00000E+00         0.00000E+00        -0.23296E+07
 
   -0.60681E-08        -0.23130E-08         0.00000E+00
   -0.23130E-08        -0.10952E+08         0.00000E+00
    0.00000E+00         0.00000E+00        -0.23296E+07
 
   -0.67594E-08         0.54933E-08         0.00000E+00
    0.54933E-08        -0.10952E+08         0.00000E+00
    0.00000E+00         0.00000E+00        -0.23296E+07
 
    0.58208E-09         0.11565E-08         0.00000E+00
    0.11565E-08        -0.10952E+08         0.00000E+00
    0.00000E+00         0.00000E+00        -0.23296E+07
 
    0.84547E-08         0.23130E-08         0.00000E+00
    0.23130E-08        -0.10952E+08         0.00000E+00
    0.00000E+00         0.00000E+00        -0.23296E+07
 
    0.24644E-07         0.28912E-08         0.00000E+00
    0.28912E-08        -0.10952E+08         0.00000E+00
    0.00000E+00         0.00000E+00        -0.23296E+07
 
    0.41667E+08        -0.57246E-07         0.00000E+00
   -0.57246E-07         0.15572E+09         0.00000E+00
    0.00000E+00         0.00000E+00         0.39339E+08
 
   -0.46057E-08         0.17347E-07         0.00000E+00
    0.17347E-07        -0.10951E+08         0.00000E+00
    0.00000E+00         0.00000E+00        -0.23281E+07
 
    0.19674E-07         0.86736E-08         0.00000E+00
    0.86736E-08        -0.10951E+08         0.00000E+00
    0.00000E+00         0.00000E+00        -0.23281E+07
 
   -0.77271E-08        -0.31803E-08         0.00000E+00
   -0.31803E-08        -0.10951E+08         0.00000E+00
    0.00000E+00         0.00000E+00        -0.23281E+07
 
    0.53478E-08         0.34694E-08         0.00000E+00
    0.34694E-08        -0.10951E+08         0.00000E+00
    0.00000E+00         0.00000E+00        -0.23281E+07
 
    0.15280E-07        -0.11565E-08         0.00000E+00
   -0.11565E-08        -0.10951E+08         0.00000E+00
    0.00000E+00         0.00000E+00        -0.23281E+07
 
    0.12020E-07         0.46259E-08         0.00000E+00
    0.46259E-08        -0.10951E+08         0.00000E+00
    0.00000E+00         0.00000E+00        -0.23281E+07
 
    0.13875E-07         0.17347E-08         0.00000E+00
    0.17347E-08        -0.10951E+08         0.00000E+00
    0.00000E+00         0.00000E+00        -0.23281E+07
 
    0.11554E-07         0.00000E+00         0.00000E+00
    0.00000E+00        -0.10951E+08         0.00000E+00
    0.00000E+00         0.00000E+00        -0.23281E+07
 
    0.78217E-08        -0.11565E-08         0.00000E+00
   -0.11565E-08        -0.10951E+08         0.00000E+00
    0.00000E+00         0.00000E+00        -0.23281E+07
 
    0.78217E-08         0.28912E-09         0.00000E+00
    0.28912E-09        -0.10951E+08         0.00000E+00
    0.00000E+00         0.00000E+00        -0.23281E+07
 
    0.10608E-07        -0.28912E-09         0.00000E+00
   -0.28912E-09        -0.10951E+08         0.00000E+00
    0.00000E+00         0.00000E+00        -0.23281E+07
 
    0.18932E-07        -0.52042E-08         0.00000E+00
   -0.52042E-08        -0.10951E+08         0.00000E+00
    0.00000E+00         0.00000E+00        -0.23281E+07
 
    0.79162E-08        -0.23130E-08         0.00000E+00
   -0.23130E-08        -0.10951E+08         0.00000E+00
    0.00000E+00         0.00000E+00        -0.23281E+07
 
    0.75815E-08        -0.17347E-08         0.00000E+00
   -0.17347E-08        -0.10951E+08         0.00000E+00
    0.00000E+00         0.00000E+00        -0.23281E+07
 
    0.41667E+08         0.44525E-07         0.00000E+00
    0.44525E-07         0.15572E+09         0.00000E+00
    0.00000E+00         0.00000E+00         0.39340E+08
 
    0.23145E-07        -0.17347E-08         0.00000E+00
   -0.17347E-08        -0.10949E+08         0.00000E+00
    0.00000E+00         0.00000E+00        -0.23265E+07
 
    0.38781E-08        -0.57824E-08         0.00000E+00
   -0.57824E-08        -0.10949E+08         0.00000E+00
    0.00000E+00         0.00000E+00        -0.23265E+07
 
    0.36089E-08        -0.23130E-08         0.00000E+00
   -0.23130E-08        -0.10949E+08         0.00000E+00
    0.00000E+00         0.00000E+00        -0.23265E+07
 
   -0.72105E-08         0.40477E-08         0.00000E+00
    0.40477E-08        -0.10949E+08         0.00000E+00
    0.00000E+00         0.00000E+00        -0.23265E+07
 
    0.97934E-08        -0.57824E-08         0.00000E+00
   -0.57824E-08        -0.10949E+08         0.00000E+00
    0.00000E+00         0.00000E+00        -0.23265E+07
 
    0.96188E-08        -0.52042E-08         0.00000E+00
   -0.52042E-08        -0.10949E+08         0.00000E+00
    0.00000E+00         0.00000E+00        -0.23265E+07
 
   -0.23159E-07        -0.57824E-09         0.00000E+00
   -0.57824E-09        -0.10949E+08         0.00000E+00
    0.00000E+00         0.00000E+00        -0.23265E+07
 
   -0.80472E-08         0.28912E-08         0.00000E+00
    0.28912E-08        -0.10949E+08         0.00000E+00
    0.00000E+00         0.00000E+00        -0.23265E+07
 
   -0.84183E-08        -0.46259E-08         0.00000E+00
   -0.46259E-08        -0.10949E+08         0.00000E+00
    0.00000E+00         0.00000E+00        -0.23265E+07
 
    0.67885E-08         0.86736E-09         0.00000E+00
    0.86736E-09        -0.10949E+08         0.00000E+00
    0.00000E+00         0.00000E+00        -0.23265E+07
 
   -0.10332E-08         0.83845E-08         0.00000E+00
    0.83845E-08        -0.10949E+08         0.00000E+00
    0.00000E+00         0.00000E+00        -0.23265E+07
 
   -0.14261E-07         0.34694E-08         0.00000E+00
    0.34694E-08        -0.10949E+08         0.00000E+00
    0.00000E+00         0.00000E+00        -0.23265E+07
 
   -0.25539E-08        -0.10408E-07         0.00000E+00
   -0.10408E-07        -0.10949E+08         0.00000E+00
    0.00000E+00         0.00000E+00        -0.23265E+07
 
    0.20722E-07         0.23130E-08         0.00000E+00
    0.23130E-08        -0.10949E+08         0.00000E+00
    0.00000E+00         0.00000E+00        -0.23265E+07
 
    0.41667E+08        -0.65919E-07         0.00000E+00
   -0.65919E-07         0.15572E+09         0.00000E+00
    0.00000E+00         0.00000E+00         0.39342E+08
 
   -0.14050E-07         0.60715E-08         0.00000E+00
    0.60715E-08        -0.10948E+08         0.00000E+00
    0.00000E+00         0.00000E+00        -0.23249E+07
 
   -0.56752E-09        -0.10408E-07         0.00000E+00
   -0.10408E-07        -0.10948E+08         0.00000E+00
    0.00000E+00         0.00000E+00        -0.23249E+07
 
   -0.95315E-08         0.34694E-08         0.00000E+00
    0.34694E-08        -0.10948E+08         0.00000E+00
    0.00000E+00         0.00000E+00        -0.23249E+07
 
   -0.12733E-08        -0.80954E-08         0.00000E+00
   -0.80954E-08        -0.10948E+08         0.00000E+00
    0.00000E+00         0.00000E+00        -0.23249E+07
 
   -0.37471E-08         0.23130E-08         0.00000E+00
    0.23130E-08        -0.10948E+08         0.00000E+00
    0.00000E+00         0.00000E+00        -0.23249E+07
 
    0.21202E-07         0.69389E-08         0.00000E+00
    0.69389E-08        -0.10948E+08         0.00000E+00
    0.00000E+00         0.00000E+00        -0.23249E+07
 
    0.22614E-07         0.92519E-08         0.00000E+00
    0.92519E-08        -0.10948E+08         0.00000E+00
    0.00000E+00         0.00000E+00        -0.23249E+07
 
   -0.65775E-08         0.28912E-08         0.00000E+00
    0.28912E-08        -0.10948E+08         0.00000E+00
    0.00000E+00         0.00000E+00        -0.23249E+07
 
    0.37253E-08        -0.69389E-08         0.00000E+00
   -0.69389E-08        -0.10948E+08         0.00000E+00
    0.00000E+00         0.00000E+00        -0.23249E+07
 
   -0.27358E-08        -0.40477E-08         0.00000E+00
   -0.40477E-08        -0.10948E+08         0.00000E+00
    0.00000E+00         0.00000E+00        -0.23249E+07
 
    0.22235E-07         0.10119E-07         0.00000E+00
    0.10119E-07        -0.10948E+08         0.00000E+00
    0.00000E+00         0.00000E+00        -0.23249E+07
 
    0.23683E-07         0.15034E-07         0.00000E+00
    0.15034E-07        -0.10948E+08         0.00000E+00
    0.00000E+00         0.00000E+00        -0.23249E+07
 
    0.46566E-09        -0.63607E-08         0.00000E+00
   -0.63607E-08        -0.10948E+08         0.00000E+00
    0.00000E+00         0.00000E+00        -0.23249E+07
 
   -0.15054E-07         0.00000E+00         0.00000E+00
    0.00000E+00        -0.10948E+08         0.00000E+00
    0.00000E+00         0.00000E+00        -0.23249E+07
 
    0.41667E+08         0.44525E-07         0.00000E+00
    0.44525E-07         0.15572E+09         0.00000E+00
    0.00000E+00         0.00000E+00         0.39343E+08
 
    0.40236E-08         0.72280E-08         0.00000E+00
    0.72280E-08        -0.10946E+08         0.00000E+00
    0.00000E+00         0.00000E+00        -0.23232E+07
 
    0.41473E-08        -0.98301E-08         0.00000E+00
   -0.98301E-08        -0.10946E+08         0.00000E+00
    0.00000E+00         0.00000E+00        -0.23232E+07
 
    0.39072E-08         0.00000E+00         0.00000E+00
    0.00000E+00        -0.10946E+08         0.00000E+00
    0.00000E+00         0.00000E+00        -0.23232E+07
 
    0.15665E-07        -0.80954E-08         0.00000E+00
   -0.80954E-08        -0.10946E+08         0.00000E+00
    0.00000E+00         0.00000E+00        -0.23232E+07
 
   -0.29613E-08         0.75171E-08         0.00000E+00
    0.75171E-08        -0.10946E+08         0.00000E+00
    0.00000E+00         0.00000E+00        -0.23232E+07
 
   -0.10361E-07         0.00000E+00         0.00000E+00
    0.00000E+00        -0.10946E+08         0.00000E+00
    0.00000E+00         0.00000E+00        -0.23232E+07
 
    0.10848E-07         0.40477E-08         0.00000E+00
    0.40477E-08        -0.10946E+08         0.00000E+00
    0.00000E+00         0.00000E+00        -0.23232E+07
 
    0.45693E-08         0.11565E-08         0.00000E+00
    0.11565E-08        -0.10946E+08         0.00000E+00
    0.00000E+00         0.00000E+00        -0.23232E+07
 
    0.20606E-07         0.28912E-08         0.00000E+00
    0.28912E-08        -0.10946E+08         0.00000E+00
    0.00000E+00         0.00000E+00        -0.23232E+07
 
    0.39290E-08        -0.86736E-08         0.00000E+00
   -0.86736E-08        -0.10946E+08         0.00000E+00
    0.00000E+00         0.00000E+00        -0.23232E+07
 
   -0.57771E-08        -0.23130E-08         0.00000E+00
   -0.23130E-08        -0.10946E+08         0.00000E+00
    0.00000E+00         0.00000E+00        -0.23232E+07
 
   -0.59663E-09         0.34694E-08         0.00000E+00
    0.34694E-08        -0.10946E+08         0.00000E+00
    0.00000E+00         0.00000E+00        -0.23232E+07
 
    0.20009E-07         0.11565E-08         0.00000E+00
    0.11565E-08        -0.10946E+08         0.00000E+00
    0.00000E+00         0.00000E+00        -0.23232E+07
 
    0.10754E-07         0.17347E-08         0.00000E+00
    0.17347E-08        -0.10946E+08         0.00000E+00
    0.00000E+00         0.00000E+00        -0.23232E+07
 
    0.41667E+08        -0.86736E-08         0.00000E+00
   -0.86736E-08         0.15572E+09         0.00000E+00
    0.00000E+00         0.00000E+00         0.39345E+08
 
    0.60681E-08        -0.46259E-08         0.00000E+00
   -0.46259E-08        -0.10944E+08         0.00000E+00
    0.00000E+00         0.00000E+00        -0.23214E+07
 
   -0.37398E-08        -0.17347E-08         0.00000E+00
   -0.17347E-08        -0.10944E+08         0.00000E+00
    0.00000E+00         0.00000E+00        -0.23214E+07
 
   -0.77052E-08        -0.52042E-08         0.00000E+00
   -0.52042E-08        -0.10944E+08         0.00000E+00
    0.00000E+00         0.00000E+00        -0.23214E+07
 
   -0.27212E-08         0.34694E-08         0.00000E+00
    0.34694E-08        -0.10944E+08         0.00000E+00
    0.00000E+00         0.00000E+00        -0.23214E+07
 
    0.96843E-08         0.23130E-08         0.00000E+00
    0.23130E-08        -0.10944E+08         0.00000E+00
    0.00000E+00         0.00000E+00        -0.23214E+07
 
   -0.67666E-08         0.46259E-08         0.00000E+00
    0.46259E-08        -0.10944E+08         0.00000E+00
    0.00000E+00         0.00000E+00        -0.23214E+07
 
    0.12958E-07        -0.11565E-08         0.00000E+00
   -0.11565E-08        -0.10944E+08         0.00000E+00
    0.00000E+00         0.00000E+00        -0.23214E+07
 
    0.30414E-08         0.57824E-09         0.00000E+00
    0.57824E-09        -0.10944E+08         0.00000E+00
    0.00000E+00         0.00000E+00        -0.23214E+07
 
    0.11772E-07        -0.17347E-08         0.00000E+00
   -0.17347E-08        -0.10944E+08         0.00000E+00
    0.00000E+00         0.00000E+00        -0.23214E+07
 
   -0.25684E-08         0.86736E-09         0.00000E+00
    0.86736E-09        -0.10944E+08         0.00000E+00
    0.00000E+00         0.00000E+00        -0.23214E+07
 
   -0.30705E-08        -0.57824E-09         0.00000E+00
   -0.57824E-09        -0.10944E+08         0.00000E+00
    0.00000E+00         0.00000E+00        -0.23214E+07
 
    0.23865E-08        -0.57824E-08         0.00000E+00
   -0.57824E-08        -0.10944E+08         0.00000E+00
    0.00000E+00         0.00000E+00        -0.23214E+07
 
   -0.40600E-08         0.11565E-08         0.00000E+00
    0.11565E-08        -0.10944E+08         0.00000E+00
    0.00000E+00         0.00000E+00        -0.23214E+07
 
    0.65993E-08        -0.23130E-08         0.00000E+00
   -0.23130E-08        -0.10944E+08         0.00000E+00
    0.00000E+00         0.00000E+00        -0.23214E+07
 
    0.41667E+08        -0.57824E-09         0.00000E+00
   -0.57824E-09         0.15572E+09         0.00000E+00
    0.00000E+00         0.00000E+00         0.39347E+08
 
   -0.39290E-08         0.92519E-08         0.00000E+00
    0.92519E-08        -0.10943E+08         0.00000E+00
    0.00000E+00         0.00000E+00        -0.23196E+07
 
    0.66939E-09         0.46259E-08         0.00000E+00
    0.46259E-08        -0.10943E+08         0.00000E+00
    0.00000E+00         0.00000E+00        -0.23196E+07
 
    0.12624E-07         0.46259E-08         0.00000E+00
    0.46259E-08        -0.10943E+08         0.00000E+00
    0.00000E+00         0.00000E+00        -0.23196E+07
 
    0.13984E-07         0.57824E-08         0.00000E+00
    0.57824E-08        -0.10943E+08         0.00000E+00
    0.00000E+00         0.00000E+00        -0.23196E+07
 
    0.71377E-08        -0.23130E-08         0.00000E+00
   -0.23130E-08        -0.10943E+08         0.00000E+00
    0.00000E+00         0.00000E+00        -0.23196E+07
 
    0.19543E-07        -0.28912E-08         0.00000E+00
   -0.28912E-08        -0.10943E+08         0.00000E+00
    0.00000E+00         0.00000E+00        -0.23196E+07
 
    0.50059E-08         0.52042E-08         0.00000E+00
    0.52042E-08        -0.10943E+08         0.00000E+00
    0.00000E+00         0.00000E+00        -0.23196E+07
 
    0.30268E-08        -0.75171E-08         0.00000E+00
   -0.75171E-08        -0.10943E+08         0.00000E+00
    0.00000E+00         0.00000E+00        -0.23196E+07
 
    0.89640E-08         0.11565E-08         0.00000E+00
    0.11565E-08        -0.10943E+08         0.00000E+00
    0.00000E+00         0.00000E+00        -0.23196E+07
 
    0.73778E-08        -0.46259E-08         0.00000E+00
   -0.46259E-08        -0.10943E+08         0.00000E+00
    0.00000E+00         0.00000E+00        -0.23196E+07
 
   -0.34415E-08         0.14456E-08         0.00000E+00
    0.14456E-08        -0.10943E+08         0.00000E+00
    0.00000E+00         0.00000E+00        -0.23196E+07
 
   -0.26630E-08         0.34694E-08         0.00000E+00
    0.34694E-08        -0.10943E+08         0.00000E+00
    0.00000E+00         0.00000E+00        -0.23196E+07
 
   -0.11074E-07         0.00000E+00         0.00000E+00
    0.00000E+00        -0.10943E+08         0.00000E+00
    0.00000E+00         0.00000E+00        -0.23196E+07
 
   -0.12988E-07         0.17347E-08         0.00000E+00
    0.17347E-08        -0.10943E+08         0.00000E+00
    0.00000E+00         0.00000E+00        -0.23196E+07
 
    0.41667E+08        -0.50885E-07         0.00000E+00
   -0.50885E-07         0.15573E+09         0.00000E+00
    0.00000E+00         0.00000E+00         0.39349E+08
 
    0.58208E-08        -0.17347E-08         0.00000E+00
   -0.17347E-08        -0.10941E+08         0.00000E+00
    0.00000E+00         0.00000E+00        -0.23177E+07
 
    0.15461E-07         0.69389E-08         0.00000E+00
    0.69389E-08        -0.10941E+08         0.00000E+00
    0.00000E+00         0.00000E+00        -0.23177E+07
 
    0.49185E-08        -0.63607E-08         0.00000E+00
   -0.63607E-08        -0.10941E+08         0.00000E+00
    0.00000E+00         0.00000E+00        -0.23177E+07
 
   -0.51368E-08         0.28912E-08         0.00000E+00
    0.28912E-08        -0.10941E+08         0.00000E+00
    0.00000E+00         0.00000E+00        -0.23177E+07
 
    0.22526E-07        -0.28912E-08         0.00000E+00
   -0.28912E-08        -0.10941E+08         0.00000E+00
    0.00000E+00         0.00000E+00        -0.23177E+07
 
   -0.16254E-07         0.75171E-08         0.00000E+00
    0.75171E-08        -0.10941E+08         0.00000E+00
    0.00000E+00         0.00000E+00        -0.23177E+07
 
    0.91168E-08         0.80954E-08         0.00000E+00
    0.80954E-08        -0.10941E+08         0.00000E+00
    0.00000E+00         0.00000E+00        -0.23177E+07
 
    0.15592E-07        -0.23130E-08         0.00000E+00
   -0.23130E-08        -0.10941E+08         0.00000E+00
    0.00000E+00         0.00000E+00        -0.23177E+07
 
   -0.11278E-08         0.52042E-08         0.00000E+00
    0.52042E-08        -0.10941E+08         0.00000E+00
    0.00000E+00         0.00000E+00        -0.23177E+07
 
    0.18867E-07        -0.10987E-07         0.00000E+00
   -0.10987E-07        -0.10941E+08         0.00000E+00
    0.00000E+00         0.00000E+00        -0.23177E+07
 
    0.50350E-08         0.63607E-08         0.00000E+00
    0.63607E-08        -0.10941E+08         0.00000E+00
    0.00000E+00         0.00000E+00        -0.23177E+07
 
    0.24040E-07        -0.46259E-08         0.00000E+00
   -0.46259E-08        -0.10941E+08         0.00000E+00
    0.00000E+00         0.00000E+00        -0.23177E+07
 
    0.19209E-07        -0.98301E-08         0.00000E+00
   -0.98301E-08        -0.10941E+08         0.00000E+00
    0.00000E+00         0.00000E+00        -0.23177E+07
 
    0.10776E-07         0.34694E-08         0.00000E+00
    0.34694E-08        -0.10941E+08         0.00000E+00
    0.00000E+00         0.00000E+00        -0.23177E+07
 
    0.41667E+08        -0.11565E-08         0.00000E+00
   -0.11565E-08         0.15573E+09         0.00000E+00
    0.00000E+00         0.00000E+00         0.39351E+08
 
   -0.20293E-07        -0.86736E-08         0.00000E+00
   -0.86736E-08        -0.10939E+08         0.00000E+00
    0.00000E+00         0.00000E+00        -0.23158E+07
 
    0.61846E-08         0.63607E-08         0.00000E+00
    0.63607E-08        -0.10939E+08         0.00000E+00
    0.00000E+00         0.00000E+00        -0.23158E+07
 
   -0.49477E-08         0.34694E-08         0.00000E+00
    0.34694E-08        -0.10939E+08         0.00000E+00
    0.00000E+00         0.00000E+00        -0.23158E+07
 
   -0.26266E-08        -0.57824E-09         0.00000E+00
   -0.57824E-09        -0.10939E+08         0.00000E+00
    0.00000E+00         0.00000E+00        -0.23158E+07
 
   -0.17069E-07        -0.52042E-08         0.00000E+00
   -0.52042E-08        -0.10939E+08         0.00000E+00
    0.00000E+00         0.00000E+00        -0.23158E+07
 
    0.24447E-08         0.11565E-07         0.00000E+00
    0.11565E-07        -0.10939E+08         0.00000E+00
    0.00000E+00         0.00000E+00        -0.23158E+07
 
    0.85056E-08         0.52042E-08         0.00000E+00
    0.52042E-08        -0.10939E+08         0.00000E+00
    0.00000E+00         0.00000E+00        -0.23158E+07
 
   -0.17091E-07         0.17925E-07         0.00000E+00
    0.17925E-07        -0.10939E+08         0.00000E+00
    0.00000E+00         0.00000E+00        -0.23158E+07
 
    0.41400E-08         0.23130E-08         0.00000E+00
    0.23130E-08        -0.10939E+08         0.00000E+00
    0.00000E+00         0.00000E+00        -0.23158E+07
 
    0.66648E-08         0.14456E-08         0.00000E+00
    0.14456E-08        -0.10939E+08         0.00000E+00
    0.00000E+00         0.00000E+00        -0.23158E+07
 
    0.19856E-07        -0.34694E-08         0.00000E+00
   -0.34694E-08        -0.10939E+08         0.00000E+00
    0.00000E+00         0.00000E+00        -0.23158E+07
 
   -0.11714E-08        -0.34694E-08         0.00000E+00
   -0.34694E-08        -0.10939E+08         0.00000E+00
    0.00000E+00         0.00000E+00        -0.23158E+07
 
    0.15774E-07        -0.63607E-08         0.00000E+00
   -0.63607E-08        -0.10939E+08         0.00000E+00
    0.00000E+00         0.00000E+00        -0.23158E+07
 
    0.21784E-07         0.63607E-08         0.00000E+00
    0.63607E-08        -0.10939E+08         0.00000E+00
    0.00000E+00         0.00000E+00        -0.23158E+07
 
    0.41667E+08         0.44525E-07         0.00000E+00
    0.44525E-07         0.15573E+09         0.00000E+00
    0.00000E+00         0.00000E+00         0.39353E+08
 
   -0.33033E-08        -0.69389E-08         0.00000E+00
   -0.69389E-08        -0.10937E+08         0.00000E+00
    0.00000E+00         0.00000E+00        -0.23138E+07
 
   -0.17375E-07         0.00000E+00         0.00000E+00
    0.00000E+00        -0.10937E+08         0.00000E+00
    0.00000E+00         0.00000E+00        -0.23138E+07
 
   -0.22883E-07        -0.17347E-08         0.00000E+00
   -0.17347E-08        -0.10937E+08         0.00000E+00
    0.00000E+00         0.00000E+00        -0.23138E+07
 
   -0.13388E-07         0.40477E-08         0.00000E+00
    0.40477E-08        -0.10937E+08         0.00000E+00
    0.00000E+00         0.00000E+00        -0.23138E+07
 
    0.18335E-08         0.57824E-08         0.00000E+00
    0.57824E-08        -0.10937E+08         0.00000E+00
    0.00000E+00         0.00000E+00        -0.23138E+07
 
   -0.16080E-08         0.80954E-08         0.00000E+00
    0.80954E-08        -0.10937E+08         0.00000E+00
    0.00000E+00         0.00000E+00        -0.23138E+07
 
   -0.76398E-08         0.13300E-07         0.00000E+00
    0.13300E-07        -0.10937E+08         0.00000E+00
    0.00000E+00         0.00000E+00        -0.23138E+07
 
    0.32524E-08        -0.46259E-08         0.00000E+00
   -0.46259E-08        -0.10937E+08         0.00000E+00
    0.00000E+00         0.00000E+00        -0.23138E+07
 
    0.17899E-08         0.57824E-08         0.00000E+00
    0.57824E-08        -0.10937E+08         0.00000E+00
    0.00000E+00         0.00000E+00        -0.23138E+07
 
    0.70795E-08         0.75171E-08         0.00000E+00
    0.75171E-08        -0.10937E+08         0.00000E+00
    0.00000E+00         0.00000E+00        -0.23138E+07
 
    0.65193E-08         0.80954E-08         0.00000E+00
    0.80954E-08        -0.10937E+08         0.00000E+00
    0.00000E+00         0.00000E+00        -0.23138E+07
 
   -0.12107E-07         0.69389E-08         0.00000E+00
    0.69389E-08        -0.10937E+08         0.00000E+00
    0.00000E+00         0.00000E+00        -0.23138E+07
 
    0.66211E-09         0.63607E-08         0.00000E+00
    0.63607E-08        -0.10937E+08         0.00000E+00
    0.00000E+00         0.00000E+00        -0.23138E+07
 
    0.34197E-08         0.17347E-08         0.00000E+00
    0.17347E-08        -0.10937E+08         0.00000E+00
    0.00000E+00         0.00000E+00        -0.23138E+07
 
    0.41667E+08        -0.63028E-07         0.00000E+00
   -0.63028E-07         0.15573E+09         0.00000E+00
    0.00000E+00         0.00000E+00         0.39355E+08
 
    0.39290E-09        -0.63607E-08         0.00000E+00
   -0.63607E-08        -0.10935E+08         0.00000E+00
    0.00000E+00         0.00000E+00        -0.23117E+07
 
    0.76761E-08         0.28912E-08         0.00000E+00
    0.28912E-08        -0.10935E+08         0.00000E+00
    0.00000E+00         0.00000E+00        -0.23117E+07
 
   -0.37398E-08        -0.28912E-08         0.00000E+00
   -0.28912E-08        -0.10935E+08         0.00000E+00
    0.00000E+00         0.00000E+00        -0.23117E+07
 
    0.16349E-07         0.63607E-08         0.00000E+00
    0.63607E-08        -0.10935E+08         0.00000E+00
    0.00000E+00         0.00000E+00        -0.23117E+07
 
    0.15105E-07        -0.57824E-09         0.00000E+00
   -0.57824E-09        -0.10935E+08         0.00000E+00
    0.00000E+00         0.00000E+00        -0.23117E+07
 
   -0.22119E-07        -0.75171E-08         0.00000E+00
   -0.75171E-08        -0.10935E+08         0.00000E+00
    0.00000E+00         0.00000E+00        -0.23117E+07
 
    0.51077E-08        -0.40477E-08         0.00000E+00
   -0.40477E-08        -0.10935E+08         0.00000E+00
    0.00000E+00         0.00000E+00        -0.23117E+07
 
    0.64974E-08        -0.23130E-08         0.00000E+00
   -0.23130E-08        -0.10935E+08         0.00000E+00
    0.00000E+00         0.00000E+00        -0.23117E+07
 
   -0.14574E-07        -0.75171E-08         0.00000E+00
   -0.75171E-08        -0.10935E+08         0.00000E+00
    0.00000E+00         0.00000E+00        -0.23117E+07
 
    0.85856E-09         0.43368E-08         0.00000E+00
    0.43368E-08        -0.10935E+08         0.00000E+00
    0.00000E+00         0.00000E+00        -0.23117E+07
 
    0.68248E-08         0.21973E-07         0.00000E+00
    0.21973E-07        -0.10935E+08         0.00000E+00
    0.00000E+00         0.00000E+00        -0.23117E+07
 
    0.16611E-07         0.63607E-08         0.00000E+00
    0.63607E-08        -0.10935E+08         0.00000E+00
    0.00000E+00         0.00000E+00        -0.23117E+07
 
    0.68176E-08        -0.23130E-08         0.00000E+00
   -0.23130E-08        -0.10935E+08         0.00000E+00
    0.00000E+00         0.00000E+00        -0.23117E+07
 
   -0.13431E-07         0.57824E-09         0.00000E+00
    0.57824E-09        -0.10935E+08         0.00000E+00
    0.00000E+00         0.00000E+00        -0.23117E+07
 
    0.41667E+08         0.41633E-07         0.00000E+00
    0.41633E-07         0.15573E+09         0.00000E+00
    0.00000E+00         0.00000E+00         0.39357E+08
 
    0.10114E-07         0.23130E-08         0.00000E+00
    0.23130E-08        -0.10932E+08         0.00000E+00
    0.00000E+00         0.00000E+00        -0.23095E+07
 
   -0.13839E-07         0.86736E-08         0.00000E+00
    0.86736E-08        -0.10932E+08         0.00000E+00
    0.00000E+00         0.00000E+00        -0.23095E+07
 
    0.79017E-08        -0.16769E-07         0.00000E+00
   -0.16769E-07        -0.10932E+08         0.00000E+00
    0.00000E+00         0.00000E+00        -0.23095E+07
 
   -0.55661E-08        -0.57824E-09         0.00000E+00
   -0.57824E-09        -0.10932E+08         0.00000E+00
    0.00000E+00         0.00000E+00        -0.23095E+07
 
    0.10550E-08        -0.57824E-08         0.00000E+00
   -0.57824E-08        -0.10932E+08         0.00000E+00
    0.00000E+00         0.00000E+00        -0.23095E+07
 
    0.13213E-07         0.57824E-08         0.00000E+00
    0.57824E-08        -0.10932E+08         0.00000E+00
    0.00000E+00         0.00000E+00        -0.23095E+07
 
    0.16589E-07        -0.14456E-07         0.00000E+00
   -0.14456E-07        -0.10932E+08         0.00000E+00
    0.00000E+00         0.00000E+00        -0.23095E+07
 
    0.98225E-08         0.11565E-08         0.00000E+00
    0.11565E-08        -0.10932E+08         0.00000E+00
    0.00000E+00         0.00000E+00        -0.23095E+07
 
   -0.75379E-08         0.17347E-08         0.00000E+00
    0.17347E-08        -0.10932E+08         0.00000E+00
    0.00000E+00         0.00000E+00        -0.23095E+07
 
   -0.22643E-07        -0.83845E-08         0.00000E+00
   -0.83845E-08        -0.10932E+08         0.00000E+00
    0.00000E+00         0.00000E+00        -0.23095E+07
 
   -0.65484E-08        -0.40477E-08         0.00000E+00
   -0.40477E-08        -0.10932E+08         0.00000E+00
    0.00000E+00         0.00000E+00        -0.23095E+07
 
   -0.55879E-08         0.17347E-08         0.00000E+00
    0.17347E-08        -0.10932E+08         0.00000E+00
    0.00000E+00         0.00000E+00        -0.23095E+07
 
   -0.14894E-07         0.17347E-08         0.00000E+00
    0.17347E-08        -0.10932E+08         0.00000E+00
    0.00000E+00         0.00000E+00        -0.23095E+07
 
   -0.32691E-07        -0.11565E-08         0.00000E+00
   -0.11565E-08        -0.10932E+08         0.00000E+00
    0.00000E+00         0.00000E+00        -0.23095E+07
 
    0.41667E+08         0.17347E-07         0.00000E+00
    0.17347E-07         0.15574E+09         0.00000E+00
    0.00000E+00         0.00000E+00         0.39359E+08
 
    0.18379E-07         0.75171E-08         0.00000E+00
    0.75171E-08        -0.10930E+08         0.00000E+00
    0.00000E+00         0.00000E+00        -0.23073E+07
 
    0.67666E-08         0.57824E-08         0.00000E+00
    0.57824E-08        -0.10930E+08         0.00000E+00
    0.00000E+00         0.00000E+00        -0.23073E+07
 
   -0.15119E-07        -0.13878E-07         0.00000E+00
   -0.13878E-07        -0.10930E+08         0.00000E+00
    0.00000E+00         0.00000E+00        -0.23073E+07
 
   -0.15010E-07         0.16769E-07         0.00000E+00
    0.16769E-07        -0.10930E+08         0.00000E+00
    0.00000E+00         0.00000E+00        -0.23073E+07
 
    0.60900E-08        -0.57824E-08         0.00000E+00
   -0.57824E-08        -0.10930E+08         0.00000E+00
    0.00000E+00         0.00000E+00        -0.23073E+07
 
    0.35507E-08         0.15613E-07         0.00000E+00
    0.15613E-07        -0.10930E+08         0.00000E+00
    0.00000E+00         0.00000E+00        -0.23073E+07
 
    0.15003E-07        -0.12143E-07         0.00000E+00
   -0.12143E-07        -0.10930E+08         0.00000E+00
    0.00000E+00         0.00000E+00        -0.23073E+07
 
   -0.39436E-08        -0.28912E-08         0.00000E+00
   -0.28912E-08        -0.10930E+08         0.00000E+00
    0.00000E+00         0.00000E+00        -0.23073E+07
 
    0.30996E-08         0.75171E-08         0.00000E+00
    0.75171E-08        -0.10930E+08         0.00000E+00
    0.00000E+00         0.00000E+00        -0.23073E+07
 
   -0.83455E-08        -0.28912E-08         0.00000E+00
   -0.28912E-08        -0.10930E+08         0.00000E+00
    0.00000E+00         0.00000E+00        -0.23073E+07
 
   -0.60754E-08        -0.11565E-08         0.00000E+00
   -0.11565E-08        -0.10930E+08         0.00000E+00
    0.00000E+00         0.00000E+00        -0.23073E+07
 
    0.13970E-08         0.00000E+00         0.00000E+00
    0.00000E+00        -0.10930E+08         0.00000E+00
    0.00000E+00         0.00000E+00        -0.23073E+07
 
    0.14115E-07        -0.46259E-08         0.00000E+00
   -0.46259E-08        -0.10930E+08         0.00000E+00
    0.00000E+00         0.00000E+00        -0.23073E+07
 
    0.32167E-07        -0.11565E-08         0.00000E+00
   -0.11565E-08        -0.10930E+08         0.00000E+00
    0.00000E+00         0.00000E+00        -0.23073E+07
 
    0.41667E+08        -0.61872E-07         0.00000E+00
   -0.61872E-07         0.15574E+09         0.00000E+00
    0.00000E+00         0.00000E+00         0.39362E+08
 
    0.48312E-08        -0.34694E-08         0.00000E+00
   -0.34694E-08        -0.10928E+08         0.00000E+00
    0.00000E+00         0.00000E+00        -0.23050E+07
 
    0.12049E-07        -0.34694E-08         0.00000E+00
   -0.34694E-08        -0.10928E+08         0.00000E+00
    0.00000E+00         0.00000E+00        -0.23050E+07
 
    0.56534E-08        -0.11565E-08         0.00000E+00
   -0.11565E-08        -0.10928E+08         0.00000E+00
    0.00000E+00         0.00000E+00        -0.23050E+07
 
    0.93642E-08        -0.17347E-08         0.00000E+00
   -0.17347E-08        -0.10928E+08         0.00000E+00
    0.00000E+00         0.00000E+00        -0.23050E+07
 
   -0.12660E-08         0.28912E-08         0.00000E+00
    0.28912E-08        -0.10928E+08         0.00000E+00
    0.00000E+00         0.00000E+00        -0.23050E+07
 
    0.95970E-08         0.34694E-08         0.00000E+00
    0.34694E-08        -0.10928E+08         0.00000E+00
    0.00000E+00         0.00000E+00        -0.23050E+07
 
    0.15243E-07         0.75171E-08         0.00000E+00
    0.75171E-08        -0.10928E+08         0.00000E+00
    0.00000E+00         0.00000E+00        -0.23050E+07
 
    0.30188E-07        -0.57824E-09         0.00000E+00
   -0.57824E-09        -0.10928E+08         0.00000E+00
    0.00000E+00         0.00000E+00        -0.23050E+07
 
    0.52823E-08        -0.11565E-08         0.00000E+00
   -0.11565E-08        -0.10928E+08         0.00000E+00
    0.00000E+00         0.00000E+00        -0.23050E+07
 
   -0.54861E-08         0.17347E-08         0.00000E+00
    0.17347E-08        -0.10928E+08         0.00000E+00
    0.00000E+00         0.00000E+00        -0.23050E+07
 
   -0.14144E-07        -0.52042E-08         0.00000E+00
   -0.52042E-08        -0.10928E+08         0.00000E+00
    0.00000E+00         0.00000E+00        -0.23050E+07
 
    0.39217E-08        -0.17347E-08         0.00000E+00
   -0.17347E-08        -0.10928E+08         0.00000E+00
    0.00000E+00         0.00000E+00        -0.23050E+07
 
    0.13715E-07        -0.17347E-08         0.00000E+00
   -0.17347E-08        -0.10928E+08         0.00000E+00
    0.00000E+00         0.00000E+00        -0.23050E+07
 
   -0.72250E-08         0.57824E-08         0.00000E+00
    0.57824E-08        -0.10928E+08         0.00000E+00
    0.00000E+00         0.00000E+00        -0.23050E+07
 
    0.41667E+08        -0.57824E-09         0.00000E+00
   -0.57824E-09         0.15574E+09         0.00000E+00
    0.00000E+00         0.00000E+00         0.39364E+08
 
    0.67739E-08         0.11565E-07         0.00000E+00
    0.11565E-07        -0.10926E+08         0.00000E+00
    0.00000E+00         0.00000E+00        -0.23026E+07
 
    0.18634E-07        -0.92519E-08         0.00000E+00
   -0.92519E-08        -0.10926E+08         0.00000E+00
    0.00000E+00         0.00000E+00        -0.23026E+07
 
    0.78944E-08         0.11565E-08         0.00000E+00
    0.11565E-08        -0.10926E+08         0.00000E+00
    0.00000E+00         0.00000E+00        -0.23026E+07
 
    0.14305E-07        -0.92519E-08         0.00000E+00
   -0.92519E-08        -0.10926E+08         0.00000E+00
    0.00000E+00         0.00000E+00        -0.23026E+07
 
    0.34925E-09        -0.52042E-08         0.00000E+00
   -0.52042E-08        -0.10926E+08         0.00000E+00
    0.00000E+00         0.00000E+00        -0.23026E+07
 
   -0.99244E-08         0.52042E-08         0.00000E+00
    0.52042E-08        -0.10926E+08         0.00000E+00
    0.00000E+00         0.00000E+00        -0.23026E+07
 
   -0.12551E-07         0.52042E-08         0.00000E+00
    0.52042E-08        -0.10926E+08         0.00000E+00
    0.00000E+00         0.00000E+00        -0.23026E+07
 
   -0.18335E-08         0.34694E-08         0.00000E+00
    0.34694E-08        -0.10926E+08         0.00000E+00
    0.00000E+00         0.00000E+00        -0.23026E+07
 
   -0.93278E-08        -0.13878E-07         0.00000E+00
   -0.13878E-07        -0.10926E+08         0.00000E+00
    0.00000E+00         0.00000E+00        -0.23026E+07
 
    0.13169E-08         0.80954E-08         0.00000E+00
    0.80954E-08        -0.10926E+08         0.00000E+00
    0.00000E+00         0.00000E+00        -0.23026E+07
 
    0.50131E-08        -0.34694E-08         0.00000E+00
   -0.34694E-08        -0.10926E+08         0.00000E+00
    0.00000E+00         0.00000E+00        -0.23026E+07
 
   -0.22141E-07        -0.28912E-08         0.00000E+00
   -0.28912E-08        -0.10926E+08         0.00000E+00
    0.00000E+00         0.00000E+00        -0.23026E+07
 
   -0.23283E-08        -0.80954E-08         0.00000E+00
   -0.80954E-08        -0.10926E+08         0.00000E+00
    0.00000E+00         0.00000E+00        -0.23026E+07
 
    0.14930E-07        -0.17347E-08         0.00000E+00
   -0.17347E-08        -0.10926E+08         0.00000E+00
    0.00000E+00         0.00000E+00        -0.23026E+07
 
    0.41667E+08         0.46259E-08         0.00000E+00
    0.46259E-08         0.15574E+09         0.00000E+00
    0.00000E+00         0.00000E+00         0.39367E+08
 
   -0.49331E-08         0.12721E-07         0.00000E+00
    0.12721E-07        -0.10923E+08         0.00000E+00
    0.00000E+00         0.00000E+00        -0.23002E+07
 
    0.65993E-08         0.00000E+00         0.00000E+00
    0.00000E+00        -0.10923E+08         0.00000E+00
    0.00000E+00         0.00000E+00        -0.23002E+07
 
    0.36744E-08         0.80954E-08         0.00000E+00
    0.80954E-08        -0.10923E+08         0.00000E+00
    0.00000E+00         0.00000E+00        -0.23002E+07
 
   -0.11554E-07         0.16191E-07         0.00000E+00
    0.16191E-07        -0.10923E+08         0.00000E+00
    0.00000E+00         0.00000E+00        -0.23002E+07
 
    0.13140E-07        -0.10987E-07         0.00000E+00
   -0.10987E-07        -0.10923E+08         0.00000E+00
    0.00000E+00         0.00000E+00        -0.23002E+07
 
    0.13410E-07        -0.80954E-08         0.00000E+00
   -0.80954E-08        -0.10923E+08         0.00000E+00
    0.00000E+00         0.00000E+00        -0.23002E+07
 
    0.16735E-08        -0.57824E-08         0.00000E+00
   -0.57824E-08        -0.10923E+08         0.00000E+00
    0.00000E+00         0.00000E+00        -0.23002E+07
 
   -0.91604E-08         0.63607E-08         0.00000E+00
    0.63607E-08        -0.10923E+08         0.00000E+00
    0.00000E+00         0.00000E+00        -0.23002E+07
 
    0.56025E-08         0.57824E-08         0.00000E+00
    0.57824E-08        -0.10923E+08         0.00000E+00
    0.00000E+00         0.00000E+00        -0.23002E+07
 
    0.24629E-07         0.57824E-09         0.00000E+00
    0.57824E-09        -0.10923E+08         0.00000E+00
    0.00000E+00         0.00000E+00        -0.23002E+07
 
    0.56825E-08         0.11565E-08         0.00000E+00
    0.11565E-08        -0.10923E+08         0.00000E+00
    0.00000E+00         0.00000E+00        -0.23002E+07
 
    0.31920E-07        -0.23130E-08         0.00000E+00
   -0.23130E-08        -0.10923E+08         0.00000E+00
    0.00000E+00         0.00000E+00        -0.23002E+07
 
    0.15716E-08        -0.40477E-08         0.00000E+00
   -0.40477E-08        -0.10923E+08         0.00000E+00
    0.00000E+00         0.00000E+00        -0.23002E+07
 
   -0.17753E-08         0.00000E+00         0.00000E+00
    0.00000E+00        -0.10923E+08         0.00000E+00
    0.00000E+00         0.00000E+00        -0.23002E+07
 
    0.41667E+08         0.52042E-07         0.00000E+00
    0.52042E-07         0.15575E+09         0.00000E+00
    0.00000E+00         0.00000E+00         0.39369E+08
 
    0.18590E-07        -0.69389E-08         0.00000E+00
   -0.69389E-08        -0.10921E+08         0.00000E+00
    0.00000E+00         0.00000E+00        -0.22976E+07
 
    0.92914E-08        -0.11565E-08         0.00000E+00
   -0.11565E-08        -0.10921E+08         0.00000E+00
    0.00000E+00         0.00000E+00        -0.22976E+07
 
   -0.79162E-08        -0.63607E-08         0.00000E+00
   -0.63607E-08        -0.10921E+08         0.00000E+00
    0.00000E+00         0.00000E+00        -0.22976E+07
 
    0.13897E-08         0.63607E-08         0.00000E+00
    0.63607E-08        -0.10921E+08         0.00000E+00
    0.00000E+00         0.00000E+00        -0.22976E+07
 
   -0.58571E-08        -0.52042E-08         0.00000E+00
   -0.52042E-08        -0.10921E+08         0.00000E+00
    0.00000E+00         0.00000E+00        -0.22976E+07
 
   -0.11583E-07        -0.28912E-08         0.00000E+00
   -0.28912E-08        -0.10921E+08         0.00000E+00
    0.00000E+00         0.00000E+00        -0.22976E+07
 
   -0.72832E-08        -0.63607E-08         0.00000E+00
   -0.63607E-08        -0.10921E+08         0.00000E+00
    0.00000E+00         0.00000E+00        -0.22976E+07
 
    0.68030E-08        -0.17347E-08         0.00000E+00
   -0.17347E-08        -0.10921E+08         0.00000E+00
    0.00000E+00         0.00000E+00        -0.22976E+07
 
    0.51223E-08        -0.52042E-08         0.00000E+00
   -0.52042E-08        -0.10921E+08         0.00000E+00
    0.00000E+00         0.00000E+00        -0.22976E+07
 
    0.64028E-09        -0.57824E-08         0.00000E+00
   -0.57824E-08        -0.10921E+08         0.00000E+00
    0.00000E+00         0.00000E+00        -0.22976E+07
 
   -0.79526E-08        -0.98301E-08         0.00000E+00
   -0.98301E-08        -0.10921E+08         0.00000E+00
    0.00000E+00         0.00000E+00        -0.22976E+07
 
    0.36380E-10        -0.34694E-08         0.00000E+00
   -0.34694E-08        -0.10921E+08         0.00000E+00
    0.00000E+00         0.00000E+00        -0.22976E+07
 
    0.43219E-08        -0.11565E-08         0.00000E+00
   -0.11565E-08        -0.10921E+08         0.00000E+00
    0.00000E+00         0.00000E+00        -0.22976E+07
 
   -0.10688E-07         0.11565E-08         0.00000E+00
    0.11565E-08        -0.10921E+08         0.00000E+00
    0.00000E+00         0.00000E+00        -0.22976E+07
 
    0.41667E+08        -0.41633E-07         0.00000E+00
   -0.41633E-07         0.15575E+09         0.00000E+00
    0.00000E+00         0.00000E+00         0.39372E+08
 
   -0.55297E-09         0.80954E-08         0.00000E+00
    0.80954E-08        -0.10918E+08         0.00000E+00
    0.00000E+00         0.00000E+00        -0.22950E+07
 
    0.18721E-07         0.13878E-07         0.00000E+00
    0.13878E-07        -0.10918E+08         0.00000E+00
    0.00000E+00         0.00000E+00        -0.22950E+07
 
    0.28245E-07         0.34694E-08         0.00000E+00
    0.34694E-08        -0.10918E+08         0.00000E+00
    0.00000E+00         0.00000E+00        -0.22950E+07
 
    0.29155E-07         0.40477E-08         0.00000E+00
    0.40477E-08        -0.10918E+08         0.00000E+00
    0.00000E+00         0.00000E+00        -0.22950E+07
 
    0.42201E-08         0.13878E-07         0.00000E+00
    0.13878E-07        -0.10918E+08         0.00000E+00
    0.00000E+00         0.00000E+00        -0.22950E+07
 
   -0.10346E-07        -0.17347E-08         0.00000E+00
   -0.17347E-08        -0.10918E+08         0.00000E+00
    0.00000E+00         0.00000E+00        -0.22950E+07
 
   -0.26906E-07        -0.63607E-08         0.00000E+00
   -0.63607E-08        -0.10918E+08         0.00000E+00
    0.00000E+00         0.00000E+00        -0.22950E+07
 
   -0.86511E-08        -0.57824E-08         0.00000E+00
   -0.57824E-08        -0.10918E+08         0.00000E+00
    0.00000E+00         0.00000E+00        -0.22950E+07
 
    0.20409E-07        -0.98301E-08         0.00000E+00
   -0.98301E-08        -0.10918E+08         0.00000E+00
    0.00000E+00         0.00000E+00        -0.22950E+07
 
    0.12682E-07        -0.28912E-08         0.00000E+00
   -0.28912E-08        -0.10918E+08         0.00000E+00
    0.00000E+00         0.00000E+00        -0.22950E+07
 
    0.48458E-08         0.63607E-08         0.00000E+00
    0.63607E-08        -0.10918E+08         0.00000E+00
    0.00000E+00         0.00000E+00        -0.22950E+07
 
   -0.41618E-08        -0.46259E-08         0.00000E+00
   -0.46259E-08        -0.10918E+08         0.00000E+00
    0.00000E+00         0.00000E+00        -0.22950E+07
 
   -0.11009E-07         0.11565E-08         0.00000E+00
    0.11565E-08        -0.10918E+08         0.00000E+00
    0.00000E+00         0.00000E+00        -0.22950E+07
 
   -0.45111E-08        -0.69389E-08         0.00000E+00
   -0.69389E-08        -0.10918E+08         0.00000E+00
    0.00000E+00         0.00000E+00        -0.22950E+07
 
    0.41667E+08         0.67076E-07         0.00000E+00
    0.67076E-07         0.15575E+09         0.00000E+00
    0.00000E+00         0.00000E+00         0.39374E+08
 
    0.48385E-08         0.57824E-08         0.00000E+00
    0.57824E-08        -0.10915E+08         0.00000E+00
    0.00000E+00         0.00000E+00        -0.22923E+07
 
   -0.17135E-07         0.82718E-24         0.00000E+00
    0.82718E-24        -0.10915E+08         0.00000E+00
    0.00000E+00         0.00000E+00        -0.22923E+07
 
    0.49840E-08         0.15034E-07         0.00000E+00
    0.15034E-07        -0.10915E+08         0.00000E+00
    0.00000E+00         0.00000E+00        -0.22923E+07
 
    0.13330E-07        -0.52042E-08         0.00000E+00
   -0.52042E-08        -0.10915E+08         0.00000E+00
    0.00000E+00         0.00000E+00        -0.22923E+07
 
    0.22803E-07        -0.57824E-08         0.00000E+00
   -0.57824E-08        -0.10915E+08         0.00000E+00
    0.00000E+00         0.00000E+00        -0.22923E+07
 
    0.12296E-07        -0.46259E-08         0.00000E+00
   -0.46259E-08        -0.10915E+08         0.00000E+00
    0.00000E+00         0.00000E+00        -0.22923E+07
 
    0.97789E-08        -0.11565E-08         0.00000E+00
   -0.11565E-08        -0.10915E+08         0.00000E+00
    0.00000E+00         0.00000E+00        -0.22923E+07
 
   -0.75670E-09         0.11565E-08         0.00000E+00
    0.11565E-08        -0.10915E+08         0.00000E+00
    0.00000E+00         0.00000E+00        -0.22923E+07
 
    0.12711E-07        -0.10408E-07         0.00000E+00
   -0.10408E-07        -0.10915E+08         0.00000E+00
    0.00000E+00         0.00000E+00        -0.22923E+07
 
    0.56316E-08        -0.17347E-08         0.00000E+00
   -0.17347E-08        -0.10915E+08         0.00000E+00
    0.00000E+00         0.00000E+00        -0.22923E+07
 
   -0.77853E-09         0.10408E-07         0.00000E+00
    0.10408E-07        -0.10915E+08         0.00000E+00
    0.00000E+00         0.00000E+00        -0.22923E+07
 
   -0.18845E-08        -0.80954E-08         0.00000E+00
   -0.80954E-08        -0.10915E+08         0.00000E+00
    0.00000E+00         0.00000E+00        -0.22923E+07
 
    0.16080E-07        -0.69389E-08         0.00000E+00
   -0.69389E-08        -0.10915E+08         0.00000E+00
    0.00000E+00         0.00000E+00        -0.22923E+07
 
   -0.57189E-08         0.80954E-08         0.00000E+00
    0.80954E-08        -0.10915E+08         0.00000E+00
    0.00000E+00         0.00000E+00        -0.22923E+07
 
    0.41667E+08        -0.61294E-07         0.00000E+00
   -0.61294E-07         0.15575E+09         0.00000E+00
    0.00000E+00         0.00000E+00         0.39377E+08
 
   -0.13591E-07         0.69389E-08         0.00000E+00
    0.69389E-08        -0.10912E+08         0.00000E+00
    0.00000E+00         0.00000E+00        -0.22896E+07
 
    0.12173E-07        -0.17925E-07         0.00000E+00
   -0.17925E-07        -0.10912E+08         0.00000E+00
    0.00000E+00         0.00000E+00        -0.22896E+07
 
   -0.17521E-07        -0.15613E-07         0.00000E+00
   -0.15613E-07        -0.10912E+08         0.00000E+00
    0.00000E+00         0.00000E+00        -0.22896E+07
 
   -0.16938E-07        -0.46259E-08         0.00000E+00
   -0.46259E-08        -0.10912E+08         0.00000E+00
    0.00000E+00         0.00000E+00        -0.22896E+07
 
   -0.17375E-07        -0.10987E-07         0.00000E+00
   -0.10987E-07        -0.10912E+08         0.00000E+00
    0.00000E+00         0.00000E+00        -0.22896E+07
 
   -0.21195E-07        -0.40477E-08         0.00000E+00
   -0.40477E-08        -0.10912E+08         0.00000E+00
    0.00000E+00         0.00000E+00        -0.22896E+07
 
    0.51368E-08        -0.11565E-08         0.00000E+00
   -0.11565E-08        -0.10912E+08         0.00000E+00
    0.00000E+00         0.00000E+00        -0.22896E+07
 
   -0.51587E-08        -0.11565E-08         0.00000E+00
   -0.11565E-08        -0.10912E+08         0.00000E+00
    0.00000E+00         0.00000E+00        -0.22896E+07
 
   -0.14399E-07        -0.52042E-08         0.00000E+00
   -0.52042E-08        -0.10912E+08         0.00000E+00
    0.00000E+00         0.00000E+00        -0.22896E+07
 
   -0.18590E-07        -0.63607E-08         0.00000E+00
   -0.63607E-08        -0.10912E+08         0.00000E+00
    0.00000E+00         0.00000E+00        -0.22896E+07
 
    0.18190E-09        -0.15034E-07         0.00000E+00
   -0.15034E-07        -0.10912E+08         0.00000E+00
    0.00000E+00         0.00000E+00        -0.22896E+07
 
    0.70431E-08        -0.80954E-08         0.00000E+00
   -0.80954E-08        -0.10912E+08         0.00000E+00
    0.00000E+00         0.00000E+00        -0.22896E+07
 
   -0.24294E-07        -0.11565E-08         0.00000E+00
   -0.11565E-08        -0.10912E+08         0.00000E+00
    0.00000E+00         0.00000E+00        -0.22896E+07
 
   -0.17091E-07         0.11565E-07         0.00000E+00
    0.11565E-07        -0.10912E+08         0.00000E+00
    0.00000E+00         0.00000E+00        -0.22896E+07
 
    0.41667E+08         0.53198E-07         0.00000E+00
    0.53198E-07         0.15576E+09         0.00000E+00
    0.00000E+00         0.00000E+00         0.39380E+08
 
   -0.35579E-08        -0.63607E-08         0.00000E+00
   -0.63607E-08        -0.10910E+08         0.00000E+00
    0.00000E+00         0.00000E+00        -0.22867E+07
 
   -0.66575E-08         0.16191E-07         0.00000E+00
    0.16191E-07        -0.10910E+08         0.00000E+00
    0.00000E+00         0.00000E+00        -0.22867E+07
 
   -0.28958E-08        -0.23130E-08         0.00000E+00
   -0.23130E-08        -0.10910E+08         0.00000E+00
    0.00000E+00         0.00000E+00        -0.22867E+07
 
   -0.20838E-07         0.18504E-07         0.00000E+00
    0.18504E-07        -0.10910E+08         0.00000E+00
    0.00000E+00         0.00000E+00        -0.22867E+07
 
    0.15018E-07        -0.34694E-08         0.00000E+00
   -0.34694E-08        -0.10910E+08         0.00000E+00
    0.00000E+00         0.00000E+00        -0.22867E+07
 
   -0.15243E-07         0.12143E-07         0.00000E+00
    0.12143E-07        -0.10910E+08         0.00000E+00
    0.00000E+00         0.00000E+00        -0.22867E+07
 
    0.32887E-08        -0.63607E-08         0.00000E+00
   -0.63607E-08        -0.10910E+08         0.00000E+00
    0.00000E+00         0.00000E+00        -0.22867E+07
 
   -0.38854E-08        -0.13878E-07         0.00000E+00
   -0.13878E-07        -0.10910E+08         0.00000E+00
    0.00000E+00         0.00000E+00        -0.22867E+07
 
    0.18917E-08        -0.17347E-08         0.00000E+00
   -0.17347E-08        -0.10910E+08         0.00000E+00
    0.00000E+00         0.00000E+00        -0.22867E+07
 
   -0.10004E-07         0.10408E-07         0.00000E+00
    0.10408E-07        -0.10910E+08         0.00000E+00
    0.00000E+00         0.00000E+00        -0.22867E+07
 
    0.12260E-07        -0.23130E-08         0.00000E+00
   -0.23130E-08        -0.10910E+08         0.00000E+00
    0.00000E+00         0.00000E+00        -0.22867E+07
 
    0.12871E-07         0.63607E-08         0.00000E+00
    0.63607E-08        -0.10910E+08         0.00000E+00
    0.00000E+00         0.00000E+00        -0.22867E+07
 
    0.24083E-08        -0.23130E-08         0.00000E+00
   -0.23130E-08        -0.10910E+08         0.00000E+00
    0.00000E+00         0.00000E+00        -0.22867E+07
 
    0.26848E-08         0.11565E-08         0.00000E+00
    0.11565E-08        -0.10910E+08         0.00000E+00
    0.00000E+00         0.00000E+00        -0.22867E+07
 
    0.41667E+08        -0.47416E-07         0.00000E+00
   -0.47416E-07         0.15576E+09         0.00000E+00
    0.00000E+00         0.00000E+00         0.39383E+08
 
    0.14639E-07         0.12721E-07         0.00000E+00
    0.12721E-07        -0.10907E+08         0.00000E+00
    0.00000E+00         0.00000E+00        -0.22838E+07
 
   -0.11205E-08         0.34694E-08         0.00000E+00
    0.34694E-08        -0.10907E+08         0.00000E+00
    0.00000E+00         0.00000E+00        -0.22838E+07
 
   -0.49913E-08         0.11565E-08         0.00000E+00
    0.11565E-08        -0.10907E+08         0.00000E+00
    0.00000E+00         0.00000E+00        -0.22838E+07
 
    0.18284E-07         0.11565E-08         0.00000E+00
    0.11565E-08        -0.10907E+08         0.00000E+00
    0.00000E+00         0.00000E+00        -0.22838E+07
 
    0.10361E-07        -0.40477E-08         0.00000E+00
   -0.40477E-08        -0.10907E+08         0.00000E+00
    0.00000E+00         0.00000E+00        -0.22838E+07
 
    0.88839E-08         0.86736E-08         0.00000E+00
    0.86736E-08        -0.10907E+08         0.00000E+00
    0.00000E+00         0.00000E+00        -0.22838E+07
 
    0.26048E-07         0.46259E-08         0.00000E+00
    0.46259E-08        -0.10907E+08         0.00000E+00
    0.00000E+00         0.00000E+00        -0.22838E+07
 
    0.51223E-08         0.10408E-07         0.00000E+00
    0.10408E-07        -0.10907E+08         0.00000E+00
    0.00000E+00         0.00000E+00        -0.22838E+07
 
    0.16269E-07         0.00000E+00         0.00000E+00
    0.00000E+00        -0.10907E+08         0.00000E+00
    0.00000E+00         0.00000E+00        -0.22838E+07
 
    0.20096E-07        -0.46259E-08         0.00000E+00
   -0.46259E-08        -0.10907E+08         0.00000E+00
    0.00000E+00         0.00000E+00        -0.22838E+07
 
    0.58935E-08        -0.75171E-08         0.00000E+00
   -0.75171E-08        -0.10907E+08         0.00000E+00
    0.00000E+00         0.00000E+00        -0.22838E+07
 
   -0.17273E-07         0.34694E-08         0.00000E+00
    0.34694E-08        -0.10907E+08         0.00000E+00
    0.00000E+00         0.00000E+00        -0.22838E+07
 
    0.13119E-07         0.15613E-07         0.00000E+00
    0.15613E-07        -0.10907E+08         0.00000E+00
    0.00000E+00         0.00000E+00        -0.22838E+07
 
    0.14421E-07        -0.69389E-08         0.00000E+00
   -0.69389E-08        -0.10907E+08         0.00000E+00
    0.00000E+00         0.00000E+00        -0.22838E+07
 
    0.41667E+08         0.48572E-07         0.00000E+00
    0.48572E-07         0.15576E+09         0.00000E+00
    0.00000E+00         0.00000E+00         0.39386E+08
 
    0.85274E-08         0.69389E-08         0.00000E+00
    0.69389E-08        -0.10904E+08         0.00000E+00
    0.00000E+00         0.00000E+00        -0.22807E+07
 
   -0.77125E-09        -0.40477E-08         0.00000E+00
   -0.40477E-08        -0.10904E+08         0.00000E+00
    0.00000E+00         0.00000E+00        -0.22807E+07
 
    0.56461E-08         0.13878E-07         0.00000E+00
    0.13878E-07        -0.10904E+08         0.00000E+00
    0.00000E+00         0.00000E+00        -0.22807E+07
 
   -0.68103E-08         0.46259E-08         0.00000E+00
    0.46259E-08        -0.10904E+08         0.00000E+00
    0.00000E+00         0.00000E+00        -0.22807E+07
 
   -0.87966E-08        -0.17347E-08         0.00000E+00
   -0.17347E-08        -0.10904E+08         0.00000E+00
    0.00000E+00         0.00000E+00        -0.22807E+07
 
   -0.74506E-08        -0.28912E-08         0.00000E+00
   -0.28912E-08        -0.10904E+08         0.00000E+00
    0.00000E+00         0.00000E+00        -0.22807E+07
 
   -0.12857E-07        -0.17347E-08         0.00000E+00
   -0.17347E-08        -0.10904E+08         0.00000E+00
    0.00000E+00         0.00000E+00        -0.22807E+07
 
   -0.10565E-07         0.34694E-08         0.00000E+00
    0.34694E-08        -0.10904E+08         0.00000E+00
    0.00000E+00         0.00000E+00        -0.22807E+07
 
   -0.29177E-08        -0.11565E-08         0.00000E+00
   -0.11565E-08        -0.10904E+08         0.00000E+00
    0.00000E+00         0.00000E+00        -0.22807E+07
 
    0.33251E-08        -0.80954E-08         0.00000E+00
   -0.80954E-08        -0.10904E+08         0.00000E+00
    0.00000E+00         0.00000E+00        -0.22807E+07
 
   -0.43656E-09         0.40477E-08         0.00000E+00
    0.40477E-08        -0.10904E+08         0.00000E+00
    0.00000E+00         0.00000E+00        -0.22807E+07
 
   -0.12435E-07         0.13878E-07         0.00000E+00
    0.13878E-07        -0.10904E+08         0.00000E+00
    0.00000E+00         0.00000E+00        -0.22807E+07
 
    0.37107E-09        -0.69389E-08         0.00000E+00
   -0.69389E-08        -0.10904E+08         0.00000E+00
    0.00000E+00         0.00000E+00        -0.22807E+07
 
    0.94806E-08         0.80954E-08         0.00000E+00
    0.80954E-08        -0.10904E+08         0.00000E+00
    0.00000E+00         0.00000E+00        -0.22807E+07
 
    0.41667E+08        -0.45103E-07         0.00000E+00
   -0.45103E-07         0.15577E+09         0.00000E+00
    0.00000E+00         0.00000E+00         0.39389E+08
 
    0.18044E-08         0.11565E-07         0.00000E+00
    0.11565E-07        -0.10901E+08         0.00000E+00
    0.00000E+00         0.00000E+00        -0.22776E+07
 
    0.13679E-08         0.34694E-08         0.00000E+00
    0.34694E-08        -0.10901E+08         0.00000E+00
    0.00000E+00         0.00000E+00        -0.22776E+07
 
    0.37398E-08        -0.10408E-07         0.00000E+00
   -0.10408E-07        -0.10901E+08         0.00000E+00
    0.00000E+00         0.00000E+00        -0.22776E+07
 
    0.30472E-07         0.12143E-07         0.00000E+00
    0.12143E-07        -0.10901E+08         0.00000E+00
    0.00000E+00         0.00000E+00        -0.22776E+07
 
    0.61336E-08        -0.17347E-08         0.00000E+00
   -0.17347E-08        -0.10901E+08         0.00000E+00
    0.00000E+00         0.00000E+00        -0.22776E+07
 
    0.54133E-08        -0.17347E-08         0.00000E+00
   -0.17347E-08        -0.10901E+08         0.00000E+00
    0.00000E+00         0.00000E+00        -0.22776E+07
 
    0.23181E-07        -0.52042E-08         0.00000E+00
   -0.52042E-08        -0.10901E+08         0.00000E+00
    0.00000E+00         0.00000E+00        -0.22776E+07
 
    0.27016E-07         0.69389E-08         0.00000E+00
    0.69389E-08        -0.10901E+08         0.00000E+00
    0.00000E+00         0.00000E+00        -0.22776E+07
 
    0.17179E-07        -0.63607E-08         0.00000E+00
   -0.63607E-08        -0.10901E+08         0.00000E+00
    0.00000E+00         0.00000E+00        -0.22776E+07
 
   -0.17266E-07        -0.92519E-08         0.00000E+00
   -0.92519E-08        -0.10901E+08         0.00000E+00
    0.00000E+00         0.00000E+00        -0.22776E+07
 
   -0.30697E-07         0.11565E-08         0.00000E+00
    0.11565E-08        -0.10901E+08         0.00000E+00
    0.00000E+00         0.00000E+00        -0.22776E+07
 
    0.26506E-07        -0.92519E-08         0.00000E+00
   -0.92519E-08        -0.10901E+08         0.00000E+00
    0.00000E+00         0.00000E+00        -0.22776E+07
 
    0.15047E-07        -0.80954E-08         0.00000E+00
   -0.80954E-08        -0.10901E+08         0.00000E+00
    0.00000E+00         0.00000E+00        -0.22776E+07
 
    0.14363E-07         0.24286E-07         0.00000E+00
    0.24286E-07        -0.10901E+08         0.00000E+00
    0.00000E+00         0.00000E+00        -0.22776E+07
 
    0.41667E+08         0.23130E-08         0.00000E+00
    0.23130E-08         0.15577E+09         0.00000E+00
    0.00000E+00         0.00000E+00         0.39392E+08
 
   -0.12005E-08        -0.46259E-08         0.00000E+00
   -0.46259E-08        -0.10897E+08         0.00000E+00
    0.00000E+00         0.00000E+00        -0.22744E+07
 
    0.16946E-07         0.23130E-08         0.00000E+00
    0.23130E-08        -0.10897E+08         0.00000E+00
    0.00000E+00         0.00000E+00        -0.22744E+07
 
   -0.54279E-08        -0.16191E-07         0.00000E+00
   -0.16191E-07        -0.10897E+08         0.00000E+00
    0.00000E+00         0.00000E+00        -0.22744E+07
 
   -0.13024E-08         0.57824E-09         0.00000E+00
    0.57824E-09        -0.10897E+08         0.00000E+00
    0.00000E+00         0.00000E+00        -0.22744E+07
 
    0.42492E-08        -0.11565E-08         0.00000E+00
   -0.11565E-08        -0.10897E+08         0.00000E+00
    0.00000E+00         0.00000E+00        -0.22744E+07
 
    0.80036E-08        -0.92519E-08         0.00000E+00
   -0.92519E-08        -0.10897E+08         0.00000E+00
    0.00000E+00         0.00000E+00        -0.22744E+07
 
   -0.53988E-08        -0.63607E-08         0.00000E+00
   -0.63607E-08        -0.10897E+08         0.00000E+00
    0.00000E+00         0.00000E+00        -0.22744E+07
 
   -0.12151E-08         0.46259E-08         0.00000E+00
    0.46259E-08        -0.10897E+08         0.00000E+00
    0.00000E+00         0.00000E+00        -0.22744E+07
 
    0.22301E-07        -0.11565E-08         0.00000E+00
   -0.11565E-08        -0.10897E+08         0.00000E+00
    0.00000E+00         0.00000E+00        -0.22744E+07
 
    0.14632E-07         0.57824E-08         0.00000E+00
    0.57824E-08        -0.10897E+08         0.00000E+00
    0.00000E+00         0.00000E+00        -0.22744E+07
 
    0.23414E-07        -0.11565E-07         0.00000E+00
   -0.11565E-07        -0.10897E+08         0.00000E+00
    0.00000E+00         0.00000E+00        -0.22744E+07
 
   -0.17026E-08        -0.10408E-07         0.00000E+00
   -0.10408E-07        -0.10897E+08         0.00000E+00
    0.00000E+00         0.00000E+00        -0.22744E+07
 
   -0.22774E-08         0.46259E-08         0.00000E+00
    0.46259E-08        -0.10897E+08         0.00000E+00
    0.00000E+00         0.00000E+00        -0.22744E+07
 
   -0.13650E-07        -0.34694E-08         0.00000E+00
   -0.34694E-08        -0.10897E+08         0.00000E+00
    0.00000E+00         0.00000E+00        -0.22744E+07
 
    0.41667E+08         0.48572E-07         0.00000E+00
    0.48572E-07         0.15577E+09         0.00000E+00
    0.00000E+00         0.00000E+00         0.39396E+08
 
    0.14508E-07        -0.98301E-08         0.00000E+00
   -0.98301E-08        -0.10894E+08         0.00000E+00
    0.00000E+00         0.00000E+00        -0.22712E+07
 
   -0.20373E-07         0.15034E-07         0.00000E+00
    0.15034E-07        -0.10894E+08         0.00000E+00
    0.00000E+00         0.00000E+00        -0.22712E+07
 
    0.80909E-08        -0.80954E-08         0.00000E+00
   -0.80954E-08        -0.10894E+08         0.00000E+00
    0.00000E+00         0.00000E+00        -0.22712E+07
 
   -0.16640E-07         0.80954E-08         0.00000E+00
    0.80954E-08        -0.10894E+08         0.00000E+00
    0.00000E+00         0.00000E+00        -0.22712E+07
 
    0.16036E-07        -0.10408E-07         0.00000E+00
   -0.10408E-07        -0.10894E+08         0.00000E+00
    0.00000E+00         0.00000E+00        -0.22712E+07
 
    0.26776E-08         0.11565E-08         0.00000E+00
    0.11565E-08        -0.10894E+08         0.00000E+00
    0.00000E+00         0.00000E+00        -0.22712E+07
 
    0.28209E-07        -0.75171E-08         0.00000E+00
   -0.75171E-08        -0.10894E+08         0.00000E+00
    0.00000E+00         0.00000E+00        -0.22712E+07
 
    0.24389E-07         0.28912E-08         0.00000E+00
    0.28912E-08        -0.10894E+08         0.00000E+00
    0.00000E+00         0.00000E+00        -0.22712E+07
 
   -0.55225E-08         0.00000E+00         0.00000E+00
    0.00000E+00        -0.10894E+08         0.00000E+00
    0.00000E+00         0.00000E+00        -0.22712E+07
 
    0.12842E-07         0.46259E-08         0.00000E+00
    0.46259E-08        -0.10894E+08         0.00000E+00
    0.00000E+00         0.00000E+00        -0.22712E+07
 
   -0.62864E-08         0.00000E+00         0.00000E+00
    0.00000E+00        -0.10894E+08         0.00000E+00
    0.00000E+00         0.00000E+00        -0.22712E+07
 
    0.33615E-08        -0.57824E-09         0.00000E+00
   -0.57824E-09        -0.10894E+08         0.00000E+00
    0.00000E+00         0.00000E+00        -0.22712E+07
 
    0.13315E-08        -0.57824E-08         0.00000E+00
   -0.57824E-08        -0.10894E+08         0.00000E+00
    0.00000E+00         0.00000E+00        -0.22712E+07
 
   -0.40236E-08        -0.23130E-08         0.00000E+00
   -0.23130E-08        -0.10894E+08         0.00000E+00
    0.00000E+00         0.00000E+00        -0.22712E+07
 
    0.41667E+08        -0.11565E-08         0.00000E+00
   -0.11565E-08         0.15578E+09         0.00000E+00
    0.00000E+00         0.00000E+00         0.39399E+08
 
   -0.31287E-09         0.57824E-08         0.00000E+00
    0.57824E-08        -0.10891E+08         0.00000E+00
    0.00000E+00         0.00000E+00        -0.22678E+07
 
    0.10354E-07         0.57824E-08         0.00000E+00
    0.57824E-08        -0.10891E+08         0.00000E+00
    0.00000E+00         0.00000E+00        -0.22678E+07
 
   -0.23669E-07         0.80954E-08         0.00000E+00
    0.80954E-08        -0.10891E+08         0.00000E+00
    0.00000E+00         0.00000E+00        -0.22678E+07
 
    0.10572E-07         0.86736E-08         0.00000E+00
    0.86736E-08        -0.10891E+08         0.00000E+00
    0.00000E+00         0.00000E+00        -0.22678E+07
 
    0.91823E-08         0.75171E-08         0.00000E+00
    0.75171E-08        -0.10891E+08         0.00000E+00
    0.00000E+00         0.00000E+00        -0.22678E+07
 
    0.78144E-08        -0.57824E-09         0.00000E+00
   -0.57824E-09        -0.10891E+08         0.00000E+00
    0.00000E+00         0.00000E+00        -0.22678E+07
 
   -0.53624E-08        -0.57824E-09         0.00000E+00
   -0.57824E-09        -0.10891E+08         0.00000E+00
    0.00000E+00         0.00000E+00        -0.22678E+07
 
    0.17972E-08         0.92519E-08         0.00000E+00
    0.92519E-08        -0.10891E+08         0.00000E+00
    0.00000E+00         0.00000E+00        -0.22678E+07
 
   -0.26630E-08        -0.10987E-07         0.00000E+00
   -0.10987E-07        -0.10891E+08         0.00000E+00
    0.00000E+00         0.00000E+00        -0.22678E+07
 
   -0.91750E-08         0.11565E-08         0.00000E+00
    0.11565E-08        -0.10891E+08         0.00000E+00
    0.00000E+00         0.00000E+00        -0.22678E+07
 
    0.19740E-07        -0.46259E-08         0.00000E+00
   -0.46259E-08        -0.10891E+08         0.00000E+00
    0.00000E+00         0.00000E+00        -0.22678E+07
 
    0.26193E-08         0.98301E-08         0.00000E+00
    0.98301E-08        -0.10891E+08         0.00000E+00
    0.00000E+00         0.00000E+00        -0.22678E+07
 
    0.14203E-07        -0.92519E-08         0.00000E+00
   -0.92519E-08        -0.10891E+08         0.00000E+00
    0.00000E+00         0.00000E+00        -0.22678E+07
 
   -0.29169E-07         0.00000E+00         0.00000E+00
    0.00000E+00        -0.10891E+08         0.00000E+00
    0.00000E+00         0.00000E+00        -0.22678E+07
 
    0.41667E+08        -0.63607E-07         0.00000E+00
   -0.63607E-07         0.15578E+09         0.00000E+00
    0.00000E+00         0.00000E+00         0.39402E+08
 
   -0.16116E-07         0.12721E-07         0.00000E+00
    0.12721E-07        -0.10887E+08         0.00000E+00
    0.00000E+00         0.00000E+00        -0.22643E+07
 
   -0.27649E-07         0.12721E-07         0.00000E+00
    0.12721E-07        -0.10887E+08         0.00000E+00
    0.00000E+00         0.00000E+00        -0.22643E+07
 
   -0.26368E-07         0.17347E-08         0.00000E+00
    0.17347E-08        -0.10887E+08         0.00000E+00
    0.00000E+00         0.00000E+00        -0.22643E+07
 
   -0.24585E-07         0.34694E-08         0.00000E+00
    0.34694E-08        -0.10887E+08         0.00000E+00
    0.00000E+00         0.00000E+00        -0.22643E+07
 
   -0.66138E-08        -0.13300E-07         0.00000E+00
   -0.13300E-07        -0.10887E+08         0.00000E+00
    0.00000E+00         0.00000E+00        -0.22643E+07
 
    0.10186E-07         0.63607E-08         0.00000E+00
    0.63607E-08        -0.10887E+08         0.00000E+00
    0.00000E+00         0.00000E+00        -0.22643E+07
 
    0.12238E-07        -0.11565E-08         0.00000E+00
   -0.11565E-08        -0.10887E+08         0.00000E+00
    0.00000E+00         0.00000E+00        -0.22643E+07
 
    0.35798E-08         0.75171E-08         0.00000E+00
    0.75171E-08        -0.10887E+08         0.00000E+00
    0.00000E+00         0.00000E+00        -0.22643E+07
 
    0.25393E-08         0.52042E-08         0.00000E+00
    0.52042E-08        -0.10887E+08         0.00000E+00
    0.00000E+00         0.00000E+00        -0.22643E+07
 
    0.46493E-08         0.13878E-07         0.00000E+00
    0.13878E-07        -0.10887E+08         0.00000E+00
    0.00000E+00         0.00000E+00        -0.22643E+07
 
   -0.27096E-07        -0.11565E-08         0.00000E+00
   -0.11565E-08        -0.10887E+08         0.00000E+00
    0.00000E+00         0.00000E+00        -0.22643E+07
 
   -0.15112E-07        -0.11565E-07         0.00000E+00
   -0.11565E-07        -0.10887E+08         0.00000E+00
    0.00000E+00         0.00000E+00        -0.22643E+07
 
    0.16851E-07         0.00000E+00         0.00000E+00
    0.00000E+00        -0.10887E+08         0.00000E+00
    0.00000E+00         0.00000E+00        -0.22643E+07
 
    0.16094E-07         0.23130E-08         0.00000E+00
    0.23130E-08        -0.10887E+08         0.00000E+00
    0.00000E+00         0.00000E+00        -0.22643E+07
 
    0.41667E+08        -0.24286E-07         0.00000E+00
   -0.24286E-07         0.15578E+09         0.00000E+00
    0.00000E+00         0.00000E+00         0.39406E+08
 
   -0.28376E-09         0.24864E-07         0.00000E+00
    0.24864E-07        -0.10884E+08         0.00000E+00
    0.00000E+00         0.00000E+00        -0.22608E+07
 
    0.12522E-07         0.57824E-09         0.00000E+00
    0.57824E-09        -0.10884E+08         0.00000E+00
    0.00000E+00         0.00000E+00        -0.22608E+07
 
    0.16837E-07         0.00000E+00         0.00000E+00
    0.00000E+00        -0.10884E+08         0.00000E+00
    0.00000E+00         0.00000E+00        -0.22608E+07
 
    0.13963E-07         0.23130E-08         0.00000E+00
    0.23130E-08        -0.10884E+08         0.00000E+00
    0.00000E+00         0.00000E+00        -0.22608E+07
 
   -0.18124E-07        -0.40477E-08         0.00000E+00
   -0.40477E-08        -0.10884E+08         0.00000E+00
    0.00000E+00         0.00000E+00        -0.22608E+07
 
   -0.35092E-07         0.00000E+00         0.00000E+00
    0.00000E+00        -0.10884E+08         0.00000E+00
    0.00000E+00         0.00000E+00        -0.22608E+07
 
   -0.30996E-07         0.23130E-08         0.00000E+00
    0.23130E-08        -0.10884E+08         0.00000E+00
    0.00000E+00         0.00000E+00        -0.22608E+07
 
   -0.47134E-07         0.57824E-08         0.00000E+00
    0.57824E-08        -0.10884E+08         0.00000E+00
    0.00000E+00         0.00000E+00        -0.22608E+07
 
   -0.50364E-07        -0.17347E-08         0.00000E+00
   -0.17347E-08        -0.10884E+08         0.00000E+00
    0.00000E+00         0.00000E+00        -0.22608E+07
 
   -0.13533E-07         0.92519E-08         0.00000E+00
    0.92519E-08        -0.10884E+08         0.00000E+00
    0.00000E+00         0.00000E+00        -0.22608E+07
 
   -0.43146E-08         0.34694E-08         0.00000E+00
    0.34694E-08        -0.10884E+08         0.00000E+00
    0.00000E+00         0.00000E+00        -0.22608E+07
 
   -0.76907E-08        -0.80954E-08         0.00000E+00
   -0.80954E-08        -0.10884E+08         0.00000E+00
    0.00000E+00         0.00000E+00        -0.22608E+07
 
   -0.19114E-07        -0.12721E-07         0.00000E+00
   -0.12721E-07        -0.10884E+08         0.00000E+00
    0.00000E+00         0.00000E+00        -0.22608E+07
 
   -0.93205E-08         0.20817E-07         0.00000E+00
    0.20817E-07        -0.10884E+08         0.00000E+00
    0.00000E+00         0.00000E+00        -0.22608E+07
 
    0.41667E+08        -0.25443E-07         0.00000E+00
   -0.25443E-07         0.15579E+09         0.00000E+00
    0.00000E+00         0.00000E+00         0.39409E+08
 
   -0.62428E-08         0.16769E-07         0.00000E+00
    0.16769E-07        -0.10880E+08         0.00000E+00
    0.00000E+00         0.00000E+00        -0.22572E+07
 
    0.43219E-08        -0.86736E-08         0.00000E+00
   -0.86736E-08        -0.10880E+08         0.00000E+00
    0.00000E+00         0.00000E+00        -0.22572E+07
 
   -0.20809E-08        -0.23130E-08         0.00000E+00
   -0.23130E-08        -0.10880E+08         0.00000E+00
    0.00000E+00         0.00000E+00        -0.22572E+07
 
    0.97789E-08         0.11565E-08         0.00000E+00
    0.11565E-08        -0.10880E+08         0.00000E+00
    0.00000E+00         0.00000E+00        -0.22572E+07
 
    0.95752E-08         0.57824E-09         0.00000E+00
    0.57824E-09        -0.10880E+08         0.00000E+00
    0.00000E+00         0.00000E+00        -0.22572E+07
 
    0.10543E-07        -0.75171E-08         0.00000E+00
   -0.75171E-08        -0.10880E+08         0.00000E+00
    0.00000E+00         0.00000E+00        -0.22572E+07
 
   -0.37398E-08         0.00000E+00         0.00000E+00
    0.00000E+00        -0.10880E+08         0.00000E+00
    0.00000E+00         0.00000E+00        -0.22572E+07
 
   -0.56752E-09        -0.57824E-08         0.00000E+00
   -0.57824E-08        -0.10880E+08         0.00000E+00
    0.00000E+00         0.00000E+00        -0.22572E+07
 
    0.22192E-08        -0.63607E-08         0.00000E+00
   -0.63607E-08        -0.10880E+08         0.00000E+00
    0.00000E+00         0.00000E+00        -0.22572E+07
 
    0.84256E-08         0.23130E-08         0.00000E+00
    0.23130E-08        -0.10880E+08         0.00000E+00
    0.00000E+00         0.00000E+00        -0.22572E+07
 
    0.76543E-08         0.11565E-08         0.00000E+00
    0.11565E-08        -0.10880E+08         0.00000E+00
    0.00000E+00         0.00000E+00        -0.22572E+07
 
    0.16393E-07         0.11565E-08         0.00000E+00
    0.11565E-08        -0.10880E+08         0.00000E+00
    0.00000E+00         0.00000E+00        -0.22572E+07
 
   -0.13752E-07        -0.12721E-07         0.00000E+00
   -0.12721E-07        -0.10880E+08         0.00000E+00
    0.00000E+00         0.00000E+00        -0.22572E+07
 
   -0.17222E-07         0.10408E-07         0.00000E+00
    0.10408E-07        -0.10880E+08         0.00000E+00
    0.00000E+00         0.00000E+00        -0.22572E+07
 
    0.41667E+08         0.41633E-07         0.00000E+00
    0.41633E-07         0.15579E+09         0.00000E+00
    0.00000E+00         0.00000E+00         0.39413E+08
 
    0.15007E-07         0.57824E-09         0.00000E+00
    0.57824E-09        -0.10876E+08         0.00000E+00
    0.00000E+00         0.00000E+00        -0.22535E+07
 
   -0.10841E-08        -0.11565E-08         0.00000E+00
   -0.11565E-08        -0.10876E+08         0.00000E+00
    0.00000E+00         0.00000E+00        -0.22535E+07
 
    0.11583E-07        -0.46259E-08         0.00000E+00
   -0.46259E-08        -0.10876E+08         0.00000E+00
    0.00000E+00         0.00000E+00        -0.22535E+07
 
    0.20649E-07        -0.46259E-08         0.00000E+00
   -0.46259E-08        -0.10876E+08         0.00000E+00
    0.00000E+00         0.00000E+00        -0.22535E+07
 
    0.16924E-07        -0.57824E-08         0.00000E+00
   -0.57824E-08        -0.10876E+08         0.00000E+00
    0.00000E+00         0.00000E+00        -0.22535E+07
 
    0.50641E-08        -0.34694E-08         0.00000E+00
   -0.34694E-08        -0.10876E+08         0.00000E+00
    0.00000E+00         0.00000E+00        -0.22535E+07
 
    0.11049E-07        -0.63607E-08         0.00000E+00
   -0.63607E-08        -0.10876E+08         0.00000E+00
    0.00000E+00         0.00000E+00        -0.22535E+07
 
    0.14570E-07        -0.57824E-08         0.00000E+00
   -0.57824E-08        -0.10876E+08         0.00000E+00
    0.00000E+00         0.00000E+00        -0.22535E+07
 
    0.21791E-07        -0.11565E-08         0.00000E+00
   -0.11565E-08        -0.10876E+08         0.00000E+00
    0.00000E+00         0.00000E+00        -0.22535E+07
 
    0.22559E-07        -0.52042E-08         0.00000E+00
   -0.52042E-08        -0.10876E+08         0.00000E+00
    0.00000E+00         0.00000E+00        -0.22535E+07
 
    0.49331E-08        -0.11565E-08         0.00000E+00
   -0.11565E-08        -0.10876E+08         0.00000E+00
    0.00000E+00         0.00000E+00        -0.22535E+07
 
    0.31498E-07        -0.92519E-08         0.00000E+00
   -0.92519E-08        -0.10876E+08         0.00000E+00
    0.00000E+00         0.00000E+00        -0.22535E+07
 
    0.19900E-07         0.00000E+00         0.00000E+00
    0.00000E+00        -0.10876E+08         0.00000E+00
    0.00000E+00         0.00000E+00        -0.22535E+07
 
   -0.24185E-07         0.10408E-07         0.00000E+00
    0.10408E-07        -0.10876E+08         0.00000E+00
    0.00000E+00         0.00000E+00        -0.22535E+07
 
    0.41667E+08        -0.82110E-07         0.00000E+00
   -0.82110E-07         0.15579E+09         0.00000E+00
    0.00000E+00         0.00000E+00         0.39417E+08
 
   -0.27190E-07         0.13878E-07         0.00000E+00
    0.13878E-07        -0.10873E+08         0.00000E+00
    0.00000E+00         0.00000E+00        -0.22497E+07
 
   -0.69776E-08        -0.46259E-08         0.00000E+00
   -0.46259E-08        -0.10873E+08         0.00000E+00
    0.00000E+00         0.00000E+00        -0.22497E+07
 
   -0.25393E-08        -0.24286E-07         0.00000E+00
   -0.24286E-07        -0.10873E+08         0.00000E+00
    0.00000E+00         0.00000E+00        -0.22497E+07
 
   -0.20107E-07         0.10408E-07         0.00000E+00
    0.10408E-07        -0.10873E+08         0.00000E+00
    0.00000E+00         0.00000E+00        -0.22497E+07
 
   -0.40636E-07        -0.63607E-08         0.00000E+00
   -0.63607E-08        -0.10873E+08         0.00000E+00
    0.00000E+00         0.00000E+00        -0.22497E+07
 
    0.28595E-08        -0.23130E-08         0.00000E+00
   -0.23130E-08        -0.10873E+08         0.00000E+00
    0.00000E+00         0.00000E+00        -0.22497E+07
 
   -0.73123E-09         0.00000E+00         0.00000E+00
    0.00000E+00        -0.10873E+08         0.00000E+00
    0.00000E+00         0.00000E+00        -0.22497E+07
 
   -0.17240E-07         0.57824E-09         0.00000E+00
    0.57824E-09        -0.10873E+08         0.00000E+00
    0.00000E+00         0.00000E+00        -0.22497E+07
 
    0.12442E-07         0.40477E-08         0.00000E+00
    0.40477E-08        -0.10873E+08         0.00000E+00
    0.00000E+00         0.00000E+00        -0.22497E+07
 
   -0.13708E-07        -0.57824E-08         0.00000E+00
   -0.57824E-08        -0.10873E+08         0.00000E+00
    0.00000E+00         0.00000E+00        -0.22497E+07
 
    0.13315E-08        -0.28912E-08         0.00000E+00
   -0.28912E-08        -0.10873E+08         0.00000E+00
    0.00000E+00         0.00000E+00        -0.22497E+07
 
   -0.21144E-07         0.69389E-08         0.00000E+00
    0.69389E-08        -0.10873E+08         0.00000E+00
    0.00000E+00         0.00000E+00        -0.22497E+07
 
   -0.24142E-07         0.92519E-08         0.00000E+00
    0.92519E-08        -0.10873E+08         0.00000E+00
    0.00000E+00         0.00000E+00        -0.22497E+07
 
    0.25491E-07         0.13878E-07         0.00000E+00
    0.13878E-07        -0.10873E+08         0.00000E+00
    0.00000E+00         0.00000E+00        -0.22497E+07
 
    0.41667E+08         0.45103E-07         0.00000E+00
    0.45103E-07         0.15580E+09         0.00000E+00
    0.00000E+00         0.00000E+00         0.39421E+08
 
   -0.17259E-07        -0.20817E-07         0.00000E+00
   -0.20817E-07        -0.10869E+08         0.00000E+00
    0.00000E+00         0.00000E+00        -0.22458E+07
 
    0.31017E-07         0.57824E-08         0.00000E+00
    0.57824E-08        -0.10869E+08         0.00000E+00
    0.00000E+00         0.00000E+00        -0.22458E+07
 
    0.22628E-08         0.15034E-07         0.00000E+00
    0.15034E-07        -0.10869E+08         0.00000E+00
    0.00000E+00         0.00000E+00        -0.22458E+07
 
    0.16589E-08         0.18504E-07         0.00000E+00
    0.18504E-07        -0.10869E+08         0.00000E+00
    0.00000E+00         0.00000E+00        -0.22458E+07
 
    0.32560E-08         0.24864E-07         0.00000E+00
    0.24864E-07        -0.10869E+08         0.00000E+00
    0.00000E+00         0.00000E+00        -0.22458E+07
 
   -0.55043E-08         0.69389E-08         0.00000E+00
    0.69389E-08        -0.10869E+08         0.00000E+00
    0.00000E+00         0.00000E+00        -0.22458E+07
 
    0.75306E-09         0.15613E-07         0.00000E+00
    0.15613E-07        -0.10869E+08         0.00000E+00
    0.00000E+00         0.00000E+00        -0.22458E+07
 
   -0.42928E-09        -0.18504E-07         0.00000E+00
   -0.18504E-07        -0.10869E+08         0.00000E+00
    0.00000E+00         0.00000E+00        -0.22458E+07
 
    0.37398E-08         0.12721E-07         0.00000E+00
    0.12721E-07        -0.10869E+08         0.00000E+00
    0.00000E+00         0.00000E+00        -0.22458E+07
 
    0.48858E-08        -0.80954E-08         0.00000E+00
   -0.80954E-08        -0.10869E+08         0.00000E+00
    0.00000E+00         0.00000E+00        -0.22458E+07
 
   -0.56280E-08         0.11565E-07         0.00000E+00
    0.11565E-07        -0.10869E+08         0.00000E+00
    0.00000E+00         0.00000E+00        -0.22458E+07
 
   -0.65847E-09         0.11565E-07         0.00000E+00
    0.11565E-07        -0.10869E+08         0.00000E+00
    0.00000E+00         0.00000E+00        -0.22458E+07
 
    0.52460E-08         0.23130E-08         0.00000E+00
    0.23130E-08        -0.10869E+08         0.00000E+00
    0.00000E+00         0.00000E+00        -0.22458E+07
 
   -0.21828E-09         0.57824E-08         0.00000E+00
    0.57824E-08        -0.10869E+08         0.00000E+00
    0.00000E+00         0.00000E+00        -0.22458E+07
 
    0.41667E+08        -0.83267E-07         0.00000E+00
   -0.83267E-07         0.15580E+09         0.00000E+00
    0.00000E+00         0.00000E+00         0.39425E+08
 
    0.10215E-07        -0.17347E-07         0.00000E+00
   -0.17347E-07        -0.10865E+08         0.00000E+00
    0.00000E+00         0.00000E+00        -0.22418E+07
 
    0.67485E-08         0.10408E-07         0.00000E+00
    0.10408E-07        -0.10865E+08         0.00000E+00
    0.00000E+00         0.00000E+00        -0.22418E+07
 
    0.67557E-08         0.34694E-08         0.00000E+00
    0.34694E-08        -0.10865E+08         0.00000E+00
    0.00000E+00         0.00000E+00        -0.22418E+07
 
   -0.88658E-08        -0.34694E-08         0.00000E+00
   -0.34694E-08        -0.10865E+08         0.00000E+00
    0.00000E+00         0.00000E+00        -0.22418E+07
 
    0.30104E-07        -0.34694E-08         0.00000E+00
   -0.34694E-08        -0.10865E+08         0.00000E+00
    0.00000E+00         0.00000E+00        -0.22418E+07
 
    0.13886E-07        -0.23708E-07         0.00000E+00
   -0.23708E-07        -0.10865E+08         0.00000E+00
    0.00000E+00         0.00000E+00        -0.22418E+07
 
    0.29104E-07         0.16769E-07         0.00000E+00
    0.16769E-07        -0.10865E+08         0.00000E+00
    0.00000E+00         0.00000E+00        -0.22418E+07
 
    0.66175E-08        -0.20238E-07         0.00000E+00
   -0.20238E-07        -0.10865E+08         0.00000E+00
    0.00000E+00         0.00000E+00        -0.22418E+07
 
    0.18812E-07         0.10987E-07         0.00000E+00
    0.10987E-07        -0.10865E+08         0.00000E+00
    0.00000E+00         0.00000E+00        -0.22418E+07
 
    0.11023E-08        -0.23130E-08         0.00000E+00
   -0.23130E-08        -0.10865E+08         0.00000E+00
    0.00000E+00         0.00000E+00        -0.22418E+07
 
    0.47003E-08         0.92519E-08         0.00000E+00
    0.92519E-08        -0.10865E+08         0.00000E+00
    0.00000E+00         0.00000E+00        -0.22418E+07
 
    0.10841E-08         0.69389E-08         0.00000E+00
    0.69389E-08        -0.10865E+08         0.00000E+00
    0.00000E+00         0.00000E+00        -0.22418E+07
 
   -0.17229E-07         0.34694E-08         0.00000E+00
    0.34694E-08        -0.10865E+08         0.00000E+00
    0.00000E+00         0.00000E+00        -0.22418E+07
 
   -0.89967E-08        -0.34694E-08         0.00000E+00
   -0.34694E-08        -0.10865E+08         0.00000E+00
    0.00000E+00         0.00000E+00        -0.22418E+07
 
    0.41667E+08         0.37007E-07         0.00000E+00
    0.37007E-07         0.15581E+09         0.00000E+00
    0.00000E+00         0.00000E+00         0.39429E+08
 
   -0.30686E-07        -0.11565E-08         0.00000E+00
   -0.11565E-08        -0.10861E+08         0.00000E+00
    0.00000E+00         0.00000E+00        -0.22377E+07
 
   -0.13053E-07         0.69389E-08         0.00000E+00
    0.69389E-08        -0.10861E+08         0.00000E+00
    0.00000E+00         0.00000E+00        -0.22377E+07
 
   -0.20576E-07         0.34694E-08         0.00000E+00
    0.34694E-08        -0.10861E+08         0.00000E+00
    0.00000E+00         0.00000E+00        -0.22377E+07
 
   -0.12191E-07         0.92519E-08         0.00000E+00
    0.92519E-08        -0.10861E+08         0.00000E+00
    0.00000E+00         0.00000E+00        -0.22377E+07
 
   -0.13762E-07         0.23130E-08         0.00000E+00
    0.23130E-08        -0.10861E+08         0.00000E+00
    0.00000E+00         0.00000E+00        -0.22377E+07
 
   -0.41618E-08         0.12143E-07         0.00000E+00
    0.12143E-07        -0.10861E+08         0.00000E+00
    0.00000E+00         0.00000E+00        -0.22377E+07
 
   -0.44747E-09        -0.18504E-07         0.00000E+00
   -0.18504E-07        -0.10861E+08         0.00000E+00
    0.00000E+00         0.00000E+00        -0.22377E+07
 
    0.23741E-07         0.23130E-07         0.00000E+00
    0.23130E-07        -0.10861E+08         0.00000E+00
    0.00000E+00         0.00000E+00        -0.22377E+07
 
    0.15789E-08        -0.16191E-07         0.00000E+00
   -0.16191E-07        -0.10861E+08         0.00000E+00
    0.00000E+00         0.00000E+00        -0.22377E+07
 
   -0.56607E-08         0.14456E-07         0.00000E+00
    0.14456E-07        -0.10861E+08         0.00000E+00
    0.00000E+00         0.00000E+00        -0.22377E+07
 
   -0.15789E-07        -0.11565E-07         0.00000E+00
   -0.11565E-07        -0.10861E+08         0.00000E+00
    0.00000E+00         0.00000E+00        -0.22377E+07
 
   -0.17186E-07        -0.57824E-08         0.00000E+00
   -0.57824E-08        -0.10861E+08         0.00000E+00
    0.00000E+00         0.00000E+00        -0.22377E+07
 
   -0.14184E-07         0.00000E+00         0.00000E+00
    0.00000E+00        -0.10861E+08         0.00000E+00
    0.00000E+00         0.00000E+00        -0.22377E+07
 
    0.62864E-08        -0.10408E-07         0.00000E+00
   -0.10408E-07        -0.10861E+08         0.00000E+00
    0.00000E+00         0.00000E+00        -0.22377E+07
 
    0.41667E+08        -0.69389E-08         0.00000E+00
   -0.69389E-08         0.15581E+09         0.00000E+00
    0.00000E+00         0.00000E+00         0.39433E+08
 
   -0.13690E-07         0.34694E-08         0.00000E+00
    0.34694E-08        -0.10857E+08         0.00000E+00
    0.00000E+00         0.00000E+00        -0.22336E+07
 
    0.11980E-07        -0.46259E-08         0.00000E+00
   -0.46259E-08        -0.10857E+08         0.00000E+00
    0.00000E+00         0.00000E+00        -0.22336E+07
 
    0.16429E-07        -0.20817E-07         0.00000E+00
   -0.20817E-07        -0.10857E+08         0.00000E+00
    0.00000E+00         0.00000E+00        -0.22336E+07
 
    0.68794E-08         0.24286E-07         0.00000E+00
    0.24286E-07        -0.10857E+08         0.00000E+00
    0.00000E+00         0.00000E+00        -0.22336E+07
 
   -0.22446E-08        -0.33538E-07         0.00000E+00
   -0.33538E-07        -0.10857E+08         0.00000E+00
    0.00000E+00         0.00000E+00        -0.22336E+07
 
    0.14708E-07         0.92519E-08         0.00000E+00
    0.92519E-08        -0.10857E+08         0.00000E+00
    0.00000E+00         0.00000E+00        -0.22336E+07
 
    0.10237E-07        -0.57824E-08         0.00000E+00
   -0.57824E-08        -0.10857E+08         0.00000E+00
    0.00000E+00         0.00000E+00        -0.22336E+07
 
    0.30541E-07         0.80954E-08         0.00000E+00
    0.80954E-08        -0.10857E+08         0.00000E+00
    0.00000E+00         0.00000E+00        -0.22336E+07
 
    0.37486E-07        -0.12143E-07         0.00000E+00
   -0.12143E-07        -0.10857E+08         0.00000E+00
    0.00000E+00         0.00000E+00        -0.22336E+07
 
    0.13850E-07         0.80954E-08         0.00000E+00
    0.80954E-08        -0.10857E+08         0.00000E+00
    0.00000E+00         0.00000E+00        -0.22336E+07
 
    0.21464E-07        -0.57824E-08         0.00000E+00
   -0.57824E-08        -0.10857E+08         0.00000E+00
    0.00000E+00         0.00000E+00        -0.22336E+07
 
    0.43943E-07         0.34694E-08         0.00000E+00
    0.34694E-08        -0.10857E+08         0.00000E+00
    0.00000E+00         0.00000E+00        -0.22336E+07
 
    0.77271E-08         0.11565E-08         0.00000E+00
    0.11565E-08        -0.10857E+08         0.00000E+00
    0.00000E+00         0.00000E+00        -0.22336E+07
 
   -0.25659E-07        -0.23130E-08         0.00000E+00
   -0.23130E-08        -0.10857E+08         0.00000E+00
    0.00000E+00         0.00000E+00        -0.22336E+07
 
    0.41667E+08        -0.10408E-07         0.00000E+00
   -0.10408E-07         0.15581E+09         0.00000E+00
    0.00000E+00         0.00000E+00         0.39437E+08
 
    0.39116E-07         0.80954E-08         0.00000E+00
    0.80954E-08        -0.10852E+08         0.00000E+00
    0.00000E+00         0.00000E+00        -0.22294E+07
 
    0.60103E-07         0.23130E-08         0.00000E+00
    0.23130E-08        -0.10852E+08         0.00000E+00
    0.00000E+00         0.00000E+00        -0.22294E+07
 
    0.86438E-08        -0.69389E-08         0.00000E+00
   -0.69389E-08        -0.10852E+08         0.00000E+00
    0.00000E+00         0.00000E+00        -0.22294E+07
 
   -0.16305E-07         0.80954E-08         0.00000E+00
    0.80954E-08        -0.10852E+08         0.00000E+00
    0.00000E+00         0.00000E+00        -0.22294E+07
 
    0.21719E-08        -0.16769E-07         0.00000E+00
   -0.16769E-07        -0.10852E+08         0.00000E+00
    0.00000E+00         0.00000E+00        -0.22294E+07
 
   -0.19634E-07         0.63607E-08         0.00000E+00
    0.63607E-08        -0.10852E+08         0.00000E+00
    0.00000E+00         0.00000E+00        -0.22294E+07
 
    0.10405E-08        -0.23130E-08         0.00000E+00
   -0.23130E-08        -0.10852E+08         0.00000E+00
    0.00000E+00         0.00000E+00        -0.22294E+07
 
   -0.10004E-08         0.86736E-08         0.00000E+00
    0.86736E-08        -0.10852E+08         0.00000E+00
    0.00000E+00         0.00000E+00        -0.22294E+07
 
   -0.64611E-08        -0.17347E-08         0.00000E+00
   -0.17347E-08        -0.10852E+08         0.00000E+00
    0.00000E+00         0.00000E+00        -0.22294E+07
 
   -0.12114E-07         0.40477E-08         0.00000E+00
    0.40477E-08        -0.10852E+08         0.00000E+00
    0.00000E+00         0.00000E+00        -0.22294E+07
 
   -0.35234E-07         0.11565E-08         0.00000E+00
    0.11565E-08        -0.10852E+08         0.00000E+00
    0.00000E+00         0.00000E+00        -0.22294E+07
 
   -0.57662E-08        -0.10408E-07         0.00000E+00
   -0.10408E-07        -0.10852E+08         0.00000E+00
    0.00000E+00         0.00000E+00        -0.22294E+07
 
    0.26495E-07         0.12721E-07         0.00000E+00
    0.12721E-07        -0.10852E+08         0.00000E+00
    0.00000E+00         0.00000E+00        -0.22294E+07
 
    0.21500E-07        -0.34694E-08         0.00000E+00
   -0.34694E-08        -0.10852E+08         0.00000E+00
    0.00000E+00         0.00000E+00        -0.22294E+07
 
    0.41667E+08        -0.92519E-08         0.00000E+00
   -0.92519E-08         0.15582E+09         0.00000E+00
    0.00000E+00         0.00000E+00         0.39442E+08
 
    0.58462E-08         0.80954E-08         0.00000E+00
    0.80954E-08        -0.10848E+08         0.00000E+00
    0.00000E+00         0.00000E+00        -0.22251E+07
 
    0.50204E-09         0.57824E-08         0.00000E+00
    0.57824E-08        -0.10848E+08         0.00000E+00
    0.00000E+00         0.00000E+00        -0.22251E+07
 
    0.10623E-08        -0.10408E-07         0.00000E+00
   -0.10408E-07        -0.10848E+08         0.00000E+00
    0.00000E+00         0.00000E+00        -0.22251E+07
 
    0.99717E-08         0.92519E-08         0.00000E+00
    0.92519E-08        -0.10848E+08         0.00000E+00
    0.00000E+00         0.00000E+00        -0.22251E+07
 
    0.75961E-08         0.52042E-08         0.00000E+00
    0.52042E-08        -0.10848E+08         0.00000E+00
    0.00000E+00         0.00000E+00        -0.22251E+07
 
    0.35070E-08         0.63607E-08         0.00000E+00
    0.63607E-08        -0.10848E+08         0.00000E+00
    0.00000E+00         0.00000E+00        -0.22251E+07
 
    0.80545E-08         0.11565E-07         0.00000E+00
    0.11565E-07        -0.10848E+08         0.00000E+00
    0.00000E+00         0.00000E+00        -0.22251E+07
 
    0.25484E-07         0.11565E-08         0.00000E+00
    0.11565E-08        -0.10848E+08         0.00000E+00
    0.00000E+00         0.00000E+00        -0.22251E+07
 
    0.21093E-07        -0.57824E-09         0.00000E+00
   -0.57824E-09        -0.10848E+08         0.00000E+00
    0.00000E+00         0.00000E+00        -0.22251E+07
 
   -0.29358E-08        -0.17347E-08         0.00000E+00
   -0.17347E-08        -0.10848E+08         0.00000E+00
    0.00000E+00         0.00000E+00        -0.22251E+07
 
   -0.23745E-07         0.69389E-08         0.00000E+00
    0.69389E-08        -0.10848E+08         0.00000E+00
    0.00000E+00         0.00000E+00        -0.22251E+07
 
   -0.30130E-07         0.11565E-08         0.00000E+00
    0.11565E-08        -0.10848E+08         0.00000E+00
    0.00000E+00         0.00000E+00        -0.22251E+07
 
   -0.34448E-07        -0.13878E-07         0.00000E+00
   -0.13878E-07        -0.10848E+08         0.00000E+00
    0.00000E+00         0.00000E+00        -0.22251E+07
 
    0.22723E-07         0.23130E-08         0.00000E+00
    0.23130E-08        -0.10848E+08         0.00000E+00
    0.00000E+00         0.00000E+00        -0.22251E+07
 
    0.41667E+08        -0.10408E-07         0.00000E+00
   -0.10408E-07         0.15582E+09         0.00000E+00
    0.00000E+00         0.00000E+00         0.39446E+08
 
   -0.19736E-07         0.15034E-07         0.00000E+00
    0.15034E-07        -0.10844E+08         0.00000E+00
    0.00000E+00         0.00000E+00        -0.22207E+07
 
    0.10823E-07         0.12721E-07         0.00000E+00
    0.12721E-07        -0.10844E+08         0.00000E+00
    0.00000E+00         0.00000E+00        -0.22207E+07
 
    0.22454E-07        -0.80954E-08         0.00000E+00
   -0.80954E-08        -0.10844E+08         0.00000E+00
    0.00000E+00         0.00000E+00        -0.22207E+07
 
   -0.16651E-07         0.19660E-07         0.00000E+00
    0.19660E-07        -0.10844E+08         0.00000E+00
    0.00000E+00         0.00000E+00        -0.22207E+07
 
   -0.77125E-08        -0.52042E-08         0.00000E+00
   -0.52042E-08        -0.10844E+08         0.00000E+00
    0.00000E+00         0.00000E+00        -0.22207E+07
 
   -0.53915E-08         0.10408E-07         0.00000E+00
    0.10408E-07        -0.10844E+08         0.00000E+00
    0.00000E+00         0.00000E+00        -0.22207E+07
 
   -0.60390E-09         0.75171E-08         0.00000E+00
    0.75171E-08        -0.10844E+08         0.00000E+00
    0.00000E+00         0.00000E+00        -0.22207E+07
 
   -0.24120E-07        -0.98301E-08         0.00000E+00
   -0.98301E-08        -0.10844E+08         0.00000E+00
    0.00000E+00         0.00000E+00        -0.22207E+07
 
   -0.37115E-07         0.69389E-08         0.00000E+00
    0.69389E-08        -0.10844E+08         0.00000E+00
    0.00000E+00         0.00000E+00        -0.22207E+07
 
   -0.13024E-08         0.11565E-08         0.00000E+00
    0.11565E-08        -0.10844E+08         0.00000E+00
    0.00000E+00         0.00000E+00        -0.22207E+07
 
    0.11754E-07         0.18504E-07         0.00000E+00
    0.18504E-07        -0.10844E+08         0.00000E+00
    0.00000E+00         0.00000E+00        -0.22207E+07
 
    0.45740E-07         0.46259E-08         0.00000E+00
    0.46259E-08        -0.10844E+08         0.00000E+00
    0.00000E+00         0.00000E+00        -0.22207E+07
 
    0.14759E-07        -0.16191E-07         0.00000E+00
   -0.16191E-07        -0.10844E+08         0.00000E+00
    0.00000E+00         0.00000E+00        -0.22207E+07
 
    0.10150E-08         0.80954E-08         0.00000E+00
    0.80954E-08        -0.10844E+08         0.00000E+00
    0.00000E+00         0.00000E+00        -0.22207E+07
 
    0.41667E+08         0.52042E-07         0.00000E+00
    0.52042E-07         0.15583E+09         0.00000E+00
    0.00000E+00         0.00000E+00         0.39450E+08
 
    0.25364E-07         0.46259E-08         0.00000E+00
    0.46259E-08        -0.10839E+08         0.00000E+00
    0.00000E+00         0.00000E+00        -0.22163E+07
 
    0.11107E-07         0.34694E-08         0.00000E+00
    0.34694E-08        -0.10839E+08         0.00000E+00
    0.00000E+00         0.00000E+00        -0.22163E+07
 
    0.30101E-07         0.12721E-07         0.00000E+00
    0.12721E-07        -0.10839E+08         0.00000E+00
    0.00000E+00         0.00000E+00        -0.22163E+07
 
    0.33411E-07         0.32382E-07         0.00000E+00
    0.32382E-07        -0.10839E+08         0.00000E+00
    0.00000E+00         0.00000E+00        -0.22163E+07
 
    0.93132E-09        -0.24864E-07         0.00000E+00
   -0.24864E-07        -0.10839E+08         0.00000E+00
    0.00000E+00         0.00000E+00        -0.22163E+07
 
    0.16418E-07         0.12143E-07         0.00000E+00
    0.12143E-07        -0.10839E+08         0.00000E+00
    0.00000E+00         0.00000E+00        -0.22163E+07
 
   -0.15119E-07        -0.17347E-08         0.00000E+00
   -0.17347E-08        -0.10839E+08         0.00000E+00
    0.00000E+00         0.00000E+00        -0.22163E+07
 
    0.27321E-08        -0.14456E-07         0.00000E+00
   -0.14456E-07        -0.10839E+08         0.00000E+00
    0.00000E+00         0.00000E+00        -0.22163E+07
 
   -0.60645E-08         0.57824E-09         0.00000E+00
    0.57824E-09        -0.10839E+08         0.00000E+00
    0.00000E+00         0.00000E+00        -0.22163E+07
 
    0.47839E-08         0.00000E+00         0.00000E+00
    0.00000E+00        -0.10839E+08         0.00000E+00
    0.00000E+00         0.00000E+00        -0.22163E+07
 
   -0.47548E-08         0.10408E-07         0.00000E+00
    0.10408E-07        -0.10839E+08         0.00000E+00
    0.00000E+00         0.00000E+00        -0.22163E+07
 
   -0.20718E-07         0.34694E-08         0.00000E+00
    0.34694E-08        -0.10839E+08         0.00000E+00
    0.00000E+00         0.00000E+00        -0.22163E+07
 
   -0.27354E-07        -0.23130E-08         0.00000E+00
   -0.23130E-08        -0.10839E+08         0.00000E+00
    0.00000E+00         0.00000E+00        -0.22163E+07
 
   -0.27700E-07         0.00000E+00         0.00000E+00
    0.00000E+00        -0.10839E+08         0.00000E+00
    0.00000E+00         0.00000E+00        -0.22163E+07
 
    0.41667E+08        -0.47416E-07         0.00000E+00
   -0.47416E-07         0.15583E+09         0.00000E+00
    0.00000E+00         0.00000E+00         0.39455E+08
 
    0.26746E-07        -0.24286E-07         0.00000E+00
   -0.24286E-07        -0.10835E+08         0.00000E+00
    0.00000E+00         0.00000E+00        -0.22118E+07
 
    0.24105E-07        -0.30069E-07         0.00000E+00
   -0.30069E-07        -0.10835E+08         0.00000E+00
    0.00000E+00         0.00000E+00        -0.22118E+07
 
   -0.14556E-07         0.11565E-08         0.00000E+00
    0.11565E-08        -0.10835E+08         0.00000E+00
    0.00000E+00         0.00000E+00        -0.22118E+07
 
    0.22043E-07         0.34694E-08         0.00000E+00
    0.34694E-08        -0.10835E+08         0.00000E+00
    0.00000E+00         0.00000E+00        -0.22118E+07
 
    0.73924E-08        -0.52042E-08         0.00000E+00
   -0.52042E-08        -0.10835E+08         0.00000E+00
    0.00000E+00         0.00000E+00        -0.22118E+07
 
   -0.22286E-07        -0.12143E-07         0.00000E+00
   -0.12143E-07        -0.10835E+08         0.00000E+00
    0.00000E+00         0.00000E+00        -0.22118E+07
 
    0.38628E-07         0.34694E-08         0.00000E+00
    0.34694E-08        -0.10835E+08         0.00000E+00
    0.00000E+00         0.00000E+00        -0.22118E+07
 
    0.23512E-07        -0.14456E-07         0.00000E+00
   -0.14456E-07        -0.10835E+08         0.00000E+00
    0.00000E+00         0.00000E+00        -0.22118E+07
 
   -0.52241E-08        -0.28912E-08         0.00000E+00
   -0.28912E-08        -0.10835E+08         0.00000E+00
    0.00000E+00         0.00000E+00        -0.22118E+07
 
    0.12129E-07        -0.80954E-08         0.00000E+00
   -0.80954E-08        -0.10835E+08         0.00000E+00
    0.00000E+00         0.00000E+00        -0.22118E+07
 
    0.16913E-07        -0.23130E-08         0.00000E+00
   -0.23130E-08        -0.10835E+08         0.00000E+00
    0.00000E+00         0.00000E+00        -0.22118E+07
 
    0.54570E-10        -0.11565E-08         0.00000E+00
   -0.11565E-08        -0.10835E+08         0.00000E+00
    0.00000E+00         0.00000E+00        -0.22118E+07
 
    0.82146E-08        -0.11565E-08         0.00000E+00
   -0.11565E-08        -0.10835E+08         0.00000E+00
    0.00000E+00         0.00000E+00        -0.22118E+07
 
    0.44820E-08        -0.23130E-08         0.00000E+00
   -0.23130E-08        -0.10835E+08         0.00000E+00
    0.00000E+00         0.00000E+00        -0.22118E+07
 
    0.41667E+08        -0.45103E-07         0.00000E+00
   -0.45103E-07         0.15584E+09         0.00000E+00
    0.00000E+00         0.00000E+00         0.39459E+08
 
   -0.25357E-08         0.46259E-08         0.00000E+00
    0.46259E-08        -0.10830E+08         0.00000E+00
    0.00000E+00         0.00000E+00        -0.22072E+07
 
   -0.10805E-08        -0.10408E-07         0.00000E+00
   -0.10408E-07        -0.10830E+08         0.00000E+00
    0.00000E+00         0.00000E+00        -0.22072E+07
 
    0.13613E-07        -0.15034E-07         0.00000E+00
   -0.15034E-07        -0.10830E+08         0.00000E+00
    0.00000E+00         0.00000E+00        -0.22072E+07
 
    0.24302E-08        -0.92519E-08         0.00000E+00
   -0.92519E-08        -0.10830E+08         0.00000E+00
    0.00000E+00         0.00000E+00        -0.22072E+07
 
   -0.11049E-07        -0.17347E-08         0.00000E+00
   -0.17347E-08        -0.10830E+08         0.00000E+00
    0.00000E+00         0.00000E+00        -0.22072E+07
 
    0.28565E-07         0.63607E-08         0.00000E+00
    0.63607E-08        -0.10830E+08         0.00000E+00
    0.00000E+00         0.00000E+00        -0.22072E+07
 
    0.22301E-07        -0.12721E-07         0.00000E+00
   -0.12721E-07        -0.10830E+08         0.00000E+00
    0.00000E+00         0.00000E+00        -0.22072E+07
 
    0.21464E-07        -0.57824E-08         0.00000E+00
   -0.57824E-08        -0.10830E+08         0.00000E+00
    0.00000E+00         0.00000E+00        -0.22072E+07
 
    0.26921E-07        -0.34694E-08         0.00000E+00
   -0.34694E-08        -0.10830E+08         0.00000E+00
    0.00000E+00         0.00000E+00        -0.22072E+07
 
    0.30210E-07        -0.23130E-08         0.00000E+00
   -0.23130E-08        -0.10830E+08         0.00000E+00
    0.00000E+00         0.00000E+00        -0.22072E+07
 
    0.15243E-07         0.17347E-07         0.00000E+00
    0.17347E-07        -0.10830E+08         0.00000E+00
    0.00000E+00         0.00000E+00        -0.22072E+07
 
    0.30792E-07        -0.80954E-08         0.00000E+00
   -0.80954E-08        -0.10830E+08         0.00000E+00
    0.00000E+00         0.00000E+00        -0.22072E+07
 
    0.17626E-07        -0.19660E-07         0.00000E+00
   -0.19660E-07        -0.10830E+08         0.00000E+00
    0.00000E+00         0.00000E+00        -0.22072E+07
 
    0.24778E-07         0.11565E-08         0.00000E+00
    0.11565E-08        -0.10830E+08         0.00000E+00
    0.00000E+00         0.00000E+00        -0.22072E+07
 
    0.41667E+08         0.10293E-06         0.00000E+00
    0.10293E-06         0.15584E+09         0.00000E+00
    0.00000E+00         0.00000E+00         0.39464E+08
 
    0.18064E-07        -0.27756E-07         0.00000E+00
   -0.27756E-07        -0.10825E+08         0.00000E+00
    0.00000E+00         0.00000E+00        -0.22025E+07
 
    0.18446E-07         0.12721E-07         0.00000E+00
    0.12721E-07        -0.10825E+08         0.00000E+00
    0.00000E+00         0.00000E+00        -0.22025E+07
 
    0.31378E-08         0.34694E-08         0.00000E+00
    0.34694E-08        -0.10825E+08         0.00000E+00
    0.00000E+00         0.00000E+00        -0.22025E+07
 
   -0.10485E-07         0.46259E-08         0.00000E+00
    0.46259E-08        -0.10825E+08         0.00000E+00
    0.00000E+00         0.00000E+00        -0.22025E+07
 
   -0.13177E-07         0.40477E-08         0.00000E+00
    0.40477E-08        -0.10825E+08         0.00000E+00
    0.00000E+00         0.00000E+00        -0.22025E+07
 
   -0.20009E-07         0.14456E-07         0.00000E+00
    0.14456E-07        -0.10825E+08         0.00000E+00
    0.00000E+00         0.00000E+00        -0.22025E+07
 
   -0.26339E-08         0.10408E-07         0.00000E+00
    0.10408E-07        -0.10825E+08         0.00000E+00
    0.00000E+00         0.00000E+00        -0.22025E+07
 
   -0.84601E-08        -0.12143E-07         0.00000E+00
   -0.12143E-07        -0.10825E+08         0.00000E+00
    0.00000E+00         0.00000E+00        -0.22025E+07
 
    0.31559E-08        -0.34694E-08         0.00000E+00
   -0.34694E-08        -0.10825E+08         0.00000E+00
    0.00000E+00         0.00000E+00        -0.22025E+07
 
    0.35325E-08         0.34694E-08         0.00000E+00
    0.34694E-08        -0.10825E+08         0.00000E+00
    0.00000E+00         0.00000E+00        -0.22025E+07
 
   -0.37990E-07         0.00000E+00         0.00000E+00
    0.00000E+00        -0.10825E+08         0.00000E+00
    0.00000E+00         0.00000E+00        -0.22025E+07
 
   -0.37831E-07         0.11565E-08         0.00000E+00
    0.11565E-08        -0.10825E+08         0.00000E+00
    0.00000E+00         0.00000E+00        -0.22025E+07
 
   -0.54715E-08        -0.15034E-07         0.00000E+00
   -0.15034E-07        -0.10825E+08         0.00000E+00
    0.00000E+00         0.00000E+00        -0.22025E+07
 
   -0.94551E-08         0.24286E-07         0.00000E+00
    0.24286E-07        -0.10825E+08         0.00000E+00
    0.00000E+00         0.00000E+00        -0.22025E+07
 
    0.41667E+08         0.15034E-07         0.00000E+00
    0.15034E-07         0.15585E+09         0.00000E+00
    0.00000E+00         0.00000E+00         0.39469E+08
 
    0.31048E-07        -0.12721E-07         0.00000E+00
   -0.12721E-07        -0.10821E+08         0.00000E+00
    0.00000E+00         0.00000E+00        -0.21978E+07
 
    0.14197E-07         0.10408E-07         0.00000E+00
    0.10408E-07        -0.10821E+08         0.00000E+00
    0.00000E+00         0.00000E+00        -0.21978E+07
 
    0.20009E-10         0.15034E-07         0.00000E+00
    0.15034E-07        -0.10821E+08         0.00000E+00
    0.00000E+00         0.00000E+00        -0.21978E+07
 
    0.63119E-09        -0.23130E-08         0.00000E+00
   -0.23130E-08        -0.10821E+08         0.00000E+00
    0.00000E+00         0.00000E+00        -0.21978E+07
 
    0.10865E-07        -0.10987E-07         0.00000E+00
   -0.10987E-07        -0.10821E+08         0.00000E+00
    0.00000E+00         0.00000E+00        -0.21978E+07
 
   -0.75179E-08         0.20817E-07         0.00000E+00
    0.20817E-07        -0.10821E+08         0.00000E+00
    0.00000E+00         0.00000E+00        -0.21978E+07
 
    0.36867E-07         0.11565E-08         0.00000E+00
    0.11565E-08        -0.10821E+08         0.00000E+00
    0.00000E+00         0.00000E+00        -0.21978E+07
 
    0.20882E-08        -0.15613E-07         0.00000E+00
   -0.15613E-07        -0.10821E+08         0.00000E+00
    0.00000E+00         0.00000E+00        -0.21978E+07
 
   -0.45406E-07         0.11565E-08         0.00000E+00
    0.11565E-08        -0.10821E+08         0.00000E+00
    0.00000E+00         0.00000E+00        -0.21978E+07
 
    0.80217E-08         0.11565E-08         0.00000E+00
    0.11565E-08        -0.10821E+08         0.00000E+00
    0.00000E+00         0.00000E+00        -0.21978E+07
 
    0.53547E-07         0.34694E-08         0.00000E+00
    0.34694E-08        -0.10821E+08         0.00000E+00
    0.00000E+00         0.00000E+00        -0.21978E+07
 
   -0.16085E-07         0.17347E-07         0.00000E+00
    0.17347E-07        -0.10821E+08         0.00000E+00
    0.00000E+00         0.00000E+00        -0.21978E+07
 
   -0.15054E-07        -0.33538E-07         0.00000E+00
   -0.33538E-07        -0.10821E+08         0.00000E+00
    0.00000E+00         0.00000E+00        -0.21978E+07
 
    0.33860E-07         0.10408E-07         0.00000E+00
    0.10408E-07        -0.10821E+08         0.00000E+00
    0.00000E+00         0.00000E+00        -0.21978E+07
 
    0.41667E+08        -0.41633E-07         0.00000E+00
   -0.41633E-07         0.15585E+09         0.00000E+00
    0.00000E+00         0.00000E+00         0.39474E+08
 
   -0.45029E-07         0.92519E-08         0.00000E+00
    0.92519E-08        -0.10816E+08         0.00000E+00
    0.00000E+00         0.00000E+00        -0.21930E+07
 
    0.42128E-08        -0.34694E-08         0.00000E+00
   -0.34694E-08        -0.10816E+08         0.00000E+00
    0.00000E+00         0.00000E+00        -0.21930E+07
 
    0.37409E-07         0.13878E-07         0.00000E+00
    0.13878E-07        -0.10816E+08         0.00000E+00
    0.00000E+00         0.00000E+00        -0.21930E+07
 
    0.18214E-07        -0.11565E-08         0.00000E+00
   -0.11565E-08        -0.10816E+08         0.00000E+00
    0.00000E+00         0.00000E+00        -0.21930E+07
 
   -0.16371E-10        -0.86736E-08         0.00000E+00
   -0.86736E-08        -0.10816E+08         0.00000E+00
    0.00000E+00         0.00000E+00        -0.21930E+07
 
    0.40927E-08         0.69389E-08         0.00000E+00
    0.69389E-08        -0.10816E+08         0.00000E+00
    0.00000E+00         0.00000E+00        -0.21930E+07
 
    0.64356E-08         0.69389E-08         0.00000E+00
    0.69389E-08        -0.10816E+08         0.00000E+00
    0.00000E+00         0.00000E+00        -0.21930E+07
 
    0.19611E-07        -0.11565E-08         0.00000E+00
   -0.11565E-08        -0.10816E+08         0.00000E+00
    0.00000E+00         0.00000E+00        -0.21930E+07
 
   -0.34415E-08         0.00000E+00         0.00000E+00
    0.00000E+00        -0.10816E+08         0.00000E+00
    0.00000E+00         0.00000E+00        -0.21930E+07
 
   -0.31541E-07        -0.11565E-07         0.00000E+00
   -0.11565E-07        -0.10816E+08         0.00000E+00
    0.00000E+00         0.00000E+00        -0.21930E+07
 
   -0.36143E-08         0.13878E-07         0.00000E+00
    0.13878E-07        -0.10816E+08         0.00000E+00
    0.00000E+00         0.00000E+00        -0.21930E+07
 
    0.17806E-07         0.34694E-08         0.00000E+00
    0.34694E-08        -0.10816E+08         0.00000E+00
    0.00000E+00         0.00000E+00        -0.21930E+07
 
   -0.11780E-07        -0.23130E-08         0.00000E+00
   -0.23130E-08        -0.10816E+08         0.00000E+00
    0.00000E+00         0.00000E+00        -0.21930E+07
 
   -0.29237E-07        -0.23130E-08         0.00000E+00
   -0.23130E-08        -0.10816E+08         0.00000E+00
    0.00000E+00         0.00000E+00        -0.21930E+07
 
    0.41667E+08         0.12721E-07         0.00000E+00
    0.12721E-07         0.15586E+09         0.00000E+00
    0.00000E+00         0.00000E+00         0.39478E+08
 
    0.38424E-07        -0.24286E-07         0.00000E+00
   -0.24286E-07        -0.10811E+08         0.00000E+00
    0.00000E+00         0.00000E+00        -0.21882E+07
 
    0.35845E-07        -0.18504E-07         0.00000E+00
   -0.18504E-07        -0.10811E+08         0.00000E+00
    0.00000E+00         0.00000E+00        -0.21882E+07
 
   -0.10354E-07         0.13878E-07         0.00000E+00
    0.13878E-07        -0.10811E+08         0.00000E+00
    0.00000E+00         0.00000E+00        -0.21882E+07
 
    0.25631E-07        -0.17347E-07         0.00000E+00
   -0.17347E-07        -0.10811E+08         0.00000E+00
    0.00000E+00         0.00000E+00        -0.21882E+07
 
    0.13797E-07         0.13300E-07         0.00000E+00
    0.13300E-07        -0.10811E+08         0.00000E+00
    0.00000E+00         0.00000E+00        -0.21882E+07
 
   -0.10965E-07         0.23130E-08         0.00000E+00
    0.23130E-08        -0.10811E+08         0.00000E+00
    0.00000E+00         0.00000E+00        -0.21882E+07
 
    0.39308E-08         0.57824E-08         0.00000E+00
    0.57824E-08        -0.10811E+08         0.00000E+00
    0.00000E+00         0.00000E+00        -0.21882E+07
 
   -0.40536E-07         0.69389E-08         0.00000E+00
    0.69389E-08        -0.10811E+08         0.00000E+00
    0.00000E+00         0.00000E+00        -0.21882E+07
 
   -0.37580E-08        -0.11565E-08         0.00000E+00
   -0.11565E-08        -0.10811E+08         0.00000E+00
    0.00000E+00         0.00000E+00        -0.21882E+07
 
    0.30686E-08         0.23130E-08         0.00000E+00
    0.23130E-08        -0.10811E+08         0.00000E+00
    0.00000E+00         0.00000E+00        -0.21882E+07
 
    0.37471E-08         0.80954E-08         0.00000E+00
    0.80954E-08        -0.10811E+08         0.00000E+00
    0.00000E+00         0.00000E+00        -0.21882E+07
 
   -0.24029E-08         0.80954E-08         0.00000E+00
    0.80954E-08        -0.10811E+08         0.00000E+00
    0.00000E+00         0.00000E+00        -0.21882E+07
 
   -0.12278E-08        -0.57824E-08         0.00000E+00
   -0.57824E-08        -0.10811E+08         0.00000E+00
    0.00000E+00         0.00000E+00        -0.21882E+07
 
   -0.11705E-07         0.57824E-08         0.00000E+00
    0.57824E-08        -0.10811E+08         0.00000E+00
    0.00000E+00         0.00000E+00        -0.21882E+07
 
    0.41667E+08         0.69389E-07         0.00000E+00
    0.69389E-07         0.15586E+09         0.00000E+00
    0.00000E+00         0.00000E+00         0.39483E+08
 
    0.82346E-08         0.57824E-08         0.00000E+00
    0.57824E-08        -0.10806E+08         0.00000E+00
    0.00000E+00         0.00000E+00        -0.21833E+07
 
   -0.52460E-08         0.35851E-07         0.00000E+00
    0.35851E-07        -0.10806E+08         0.00000E+00
    0.00000E+00         0.00000E+00        -0.21833E+07
 
   -0.45182E-07         0.28912E-07         0.00000E+00
    0.28912E-07        -0.10806E+08         0.00000E+00
    0.00000E+00         0.00000E+00        -0.21833E+07
 
    0.57298E-09        -0.13878E-07         0.00000E+00
   -0.13878E-07        -0.10806E+08         0.00000E+00
    0.00000E+00         0.00000E+00        -0.21833E+07
 
   -0.25730E-07         0.98301E-08         0.00000E+00
    0.98301E-08        -0.10806E+08         0.00000E+00
    0.00000E+00         0.00000E+00        -0.21833E+07
 
   -0.16244E-08        -0.98301E-08         0.00000E+00
   -0.98301E-08        -0.10806E+08         0.00000E+00
    0.00000E+00         0.00000E+00        -0.21833E+07
 
   -0.10721E-07         0.34694E-08         0.00000E+00
    0.34694E-08        -0.10806E+08         0.00000E+00
    0.00000E+00         0.00000E+00        -0.21833E+07
 
   -0.58280E-08         0.11565E-08         0.00000E+00
    0.11565E-08        -0.10806E+08         0.00000E+00
    0.00000E+00         0.00000E+00        -0.21833E+07
 
    0.70977E-08         0.18504E-07         0.00000E+00
    0.18504E-07        -0.10806E+08         0.00000E+00
    0.00000E+00         0.00000E+00        -0.21833E+07
 
    0.54606E-08         0.23130E-08         0.00000E+00
    0.23130E-08        -0.10806E+08         0.00000E+00
    0.00000E+00         0.00000E+00        -0.21833E+07
 
    0.35925E-08        -0.34694E-08         0.00000E+00
   -0.34694E-08        -0.10806E+08         0.00000E+00
    0.00000E+00         0.00000E+00        -0.21833E+07
 
    0.11711E-07        -0.34694E-08         0.00000E+00
   -0.34694E-08        -0.10806E+08         0.00000E+00
    0.00000E+00         0.00000E+00        -0.21833E+07
 
    0.14981E-07        -0.12721E-07         0.00000E+00
   -0.12721E-07        -0.10806E+08         0.00000E+00
    0.00000E+00         0.00000E+00        -0.21833E+07
 
    0.22317E-07         0.34694E-08         0.00000E+00
    0.34694E-08        -0.10806E+08         0.00000E+00
    0.00000E+00         0.00000E+00        -0.21833E+07
 
    0.41667E+08        -0.11565E-07         0.00000E+00
   -0.11565E-07         0.15587E+09         0.00000E+00
    0.00000E+00         0.00000E+00         0.39488E+08
 
   -0.17067E-07        -0.15034E-07         0.00000E+00
   -0.15034E-07        -0.10801E+08         0.00000E+00
    0.00000E+00         0.00000E+00        -0.21784E+07
 
    0.16136E-07         0.12721E-07         0.00000E+00
    0.12721E-07        -0.10801E+08         0.00000E+00
    0.00000E+00         0.00000E+00        -0.21784E+07
 
    0.38719E-07        -0.57824E-08         0.00000E+00
   -0.57824E-08        -0.10801E+08         0.00000E+00
    0.00000E+00         0.00000E+00        -0.21784E+07
 
    0.52205E-09         0.15034E-07         0.00000E+00
    0.15034E-07        -0.10801E+08         0.00000E+00
    0.00000E+00         0.00000E+00        -0.21784E+07
 
   -0.22659E-07         0.69389E-08         0.00000E+00
    0.69389E-08        -0.10801E+08         0.00000E+00
    0.00000E+00         0.00000E+00        -0.21784E+07
 
   -0.18007E-07         0.11565E-08         0.00000E+00
    0.11565E-08        -0.10801E+08         0.00000E+00
    0.00000E+00         0.00000E+00        -0.21784E+07
 
   -0.13024E-07        -0.34694E-08         0.00000E+00
   -0.34694E-08        -0.10801E+08         0.00000E+00
    0.00000E+00         0.00000E+00        -0.21784E+07
 
   -0.19303E-07         0.10987E-07         0.00000E+00
    0.10987E-07        -0.10801E+08         0.00000E+00
    0.00000E+00         0.00000E+00        -0.21784E+07
 
   -0.46055E-07         0.25443E-07         0.00000E+00
    0.25443E-07        -0.10801E+08         0.00000E+00
    0.00000E+00         0.00000E+00        -0.21784E+07
 
   -0.51193E-07         0.17347E-07         0.00000E+00
    0.17347E-07        -0.10801E+08         0.00000E+00
    0.00000E+00         0.00000E+00        -0.21784E+07
 
   -0.37825E-07         0.10408E-07         0.00000E+00
    0.10408E-07        -0.10801E+08         0.00000E+00
    0.00000E+00         0.00000E+00        -0.21784E+07
 
   -0.84046E-08        -0.57824E-08         0.00000E+00
   -0.57824E-08        -0.10801E+08         0.00000E+00
    0.00000E+00         0.00000E+00        -0.21784E+07
 
   -0.17726E-08         0.19660E-07         0.00000E+00
    0.19660E-07        -0.10801E+08         0.00000E+00
    0.00000E+00         0.00000E+00        -0.21784E+07
 
   -0.10504E-07        -0.19660E-07         0.00000E+00
   -0.19660E-07        -0.10801E+08         0.00000E+00
    0.00000E+00         0.00000E+00        -0.21784E+07
 
    0.41667E+08        -0.23130E-07         0.00000E+00
   -0.23130E-07         0.15587E+09         0.00000E+00
    0.00000E+00         0.00000E+00         0.39493E+08
 
   -0.71341E-08         0.00000E+00         0.00000E+00
    0.00000E+00        -0.10796E+08         0.00000E+00
    0.00000E+00         0.00000E+00        -0.21734E+07
 
    0.14054E-07        -0.57824E-08         0.00000E+00
   -0.57824E-08        -0.10796E+08         0.00000E+00
    0.00000E+00         0.00000E+00        -0.21734E+07
 
   -0.13769E-07         0.80954E-08         0.00000E+00
    0.80954E-08        -0.10796E+08         0.00000E+00
    0.00000E+00         0.00000E+00        -0.21734E+07
 
   -0.10868E-07         0.38164E-07         0.00000E+00
    0.38164E-07        -0.10796E+08         0.00000E+00
    0.00000E+00         0.00000E+00        -0.21734E+07
 
   -0.15075E-07        -0.57824E-09         0.00000E+00
   -0.57824E-09        -0.10796E+08         0.00000E+00
    0.00000E+00         0.00000E+00        -0.21734E+07
 
   -0.13340E-07         0.34694E-08         0.00000E+00
    0.34694E-08        -0.10796E+08         0.00000E+00
    0.00000E+00         0.00000E+00        -0.21734E+07
 
   -0.13573E-07         0.12721E-07         0.00000E+00
    0.12721E-07        -0.10796E+08         0.00000E+00
    0.00000E+00         0.00000E+00        -0.21734E+07
 
    0.70349E-08         0.00000E+00         0.00000E+00
    0.00000E+00        -0.10796E+08         0.00000E+00
    0.00000E+00         0.00000E+00        -0.21734E+07
 
    0.55243E-08         0.69389E-08         0.00000E+00
    0.69389E-08        -0.10796E+08         0.00000E+00
    0.00000E+00         0.00000E+00        -0.21734E+07
 
    0.20766E-07         0.11565E-08         0.00000E+00
    0.11565E-08        -0.10796E+08         0.00000E+00
    0.00000E+00         0.00000E+00        -0.21734E+07
 
    0.28434E-07        -0.46259E-08         0.00000E+00
   -0.46259E-08        -0.10796E+08         0.00000E+00
    0.00000E+00         0.00000E+00        -0.21734E+07
 
   -0.66202E-08        -0.12721E-07         0.00000E+00
   -0.12721E-07        -0.10796E+08         0.00000E+00
    0.00000E+00         0.00000E+00        -0.21734E+07
 
    0.50049E-08        -0.12721E-07         0.00000E+00
   -0.12721E-07        -0.10796E+08         0.00000E+00
    0.00000E+00         0.00000E+00        -0.21734E+07
 
    0.25714E-07        -0.57824E-08         0.00000E+00
   -0.57824E-08        -0.10796E+08         0.00000E+00
    0.00000E+00         0.00000E+00        -0.21734E+07
 
    0.41667E+08         0.12721E-07         0.00000E+00
    0.12721E-07         0.15588E+09         0.00000E+00
    0.00000E+00         0.00000E+00         0.39498E+08
 
    0.21945E-07         0.92519E-08         0.00000E+00
    0.92519E-08        -0.10791E+08         0.00000E+00
    0.00000E+00         0.00000E+00        -0.21684E+07
 
   -0.31030E-07        -0.23130E-08         0.00000E+00
   -0.23130E-08        -0.10791E+08         0.00000E+00
    0.00000E+00         0.00000E+00        -0.21684E+07
 
   -0.33602E-07        -0.92519E-08         0.00000E+00
   -0.92519E-08        -0.10791E+08         0.00000E+00
    0.00000E+00         0.00000E+00        -0.21684E+07
 
    0.64442E-08         0.16191E-07         0.00000E+00
    0.16191E-07        -0.10791E+08         0.00000E+00
    0.00000E+00         0.00000E+00        -0.21684E+07
 
    0.12030E-07         0.10987E-07         0.00000E+00
    0.10987E-07        -0.10791E+08         0.00000E+00
    0.00000E+00         0.00000E+00        -0.21684E+07
 
    0.17029E-07        -0.57824E-09         0.00000E+00
   -0.57824E-09        -0.10791E+08         0.00000E+00
    0.00000E+00         0.00000E+00        -0.21684E+07
 
   -0.18354E-08        -0.52042E-08         0.00000E+00
   -0.52042E-08        -0.10791E+08         0.00000E+00
    0.00000E+00         0.00000E+00        -0.21684E+07
 
   -0.40495E-08        -0.34694E-08         0.00000E+00
   -0.34694E-08        -0.10791E+08         0.00000E+00
    0.00000E+00         0.00000E+00        -0.21684E+07
 
   -0.14061E-07        -0.16191E-07         0.00000E+00
   -0.16191E-07        -0.10791E+08         0.00000E+00
    0.00000E+00         0.00000E+00        -0.21684E+07
 
   -0.59154E-08        -0.18504E-07         0.00000E+00
   -0.18504E-07        -0.10791E+08         0.00000E+00
    0.00000E+00         0.00000E+00        -0.21684E+07
 
   -0.56884E-08        -0.12721E-07         0.00000E+00
   -0.12721E-07        -0.10791E+08         0.00000E+00
    0.00000E+00         0.00000E+00        -0.21684E+07
 
    0.15490E-07        -0.10408E-07         0.00000E+00
   -0.10408E-07        -0.10791E+08         0.00000E+00
    0.00000E+00         0.00000E+00        -0.21684E+07
 
   -0.10160E-07        -0.80954E-08         0.00000E+00
   -0.80954E-08        -0.10791E+08         0.00000E+00
    0.00000E+00         0.00000E+00        -0.21684E+07
 
    0.37980E-08        -0.11565E-07         0.00000E+00
   -0.11565E-07        -0.10791E+08         0.00000E+00
    0.00000E+00         0.00000E+00        -0.21684E+07
 
    0.41667E+08         0.28912E-07         0.00000E+00
    0.28912E-07         0.15588E+09         0.00000E+00
    0.00000E+00         0.00000E+00         0.39503E+08
 
    0.12931E-07         0.10408E-07         0.00000E+00
    0.10408E-07        -0.10786E+08         0.00000E+00
    0.00000E+00         0.00000E+00        -0.21633E+07
 
   -0.10705E-07         0.11565E-07         0.00000E+00
    0.11565E-07        -0.10786E+08         0.00000E+00
    0.00000E+00         0.00000E+00        -0.21633E+07
 
   -0.72177E-08        -0.21973E-07         0.00000E+00
   -0.21973E-07        -0.10786E+08         0.00000E+00
    0.00000E+00         0.00000E+00        -0.21633E+07
 
    0.77998E-08        -0.92519E-08         0.00000E+00
   -0.92519E-08        -0.10786E+08         0.00000E+00
    0.00000E+00         0.00000E+00        -0.21633E+07
 
   -0.19763E-08         0.69389E-08         0.00000E+00
    0.69389E-08        -0.10786E+08         0.00000E+00
    0.00000E+00         0.00000E+00        -0.21633E+07
 
   -0.34916E-08        -0.57824E-09         0.00000E+00
   -0.57824E-09        -0.10786E+08         0.00000E+00
    0.00000E+00         0.00000E+00        -0.21633E+07
 
   -0.38797E-07         0.21973E-07         0.00000E+00
    0.21973E-07        -0.10786E+08         0.00000E+00
    0.00000E+00         0.00000E+00        -0.21633E+07
 
   -0.63951E-07        -0.28912E-07         0.00000E+00
   -0.28912E-07        -0.10786E+08         0.00000E+00
    0.00000E+00         0.00000E+00        -0.21633E+07
 
   -0.21346E-07        -0.46259E-08         0.00000E+00
   -0.46259E-08        -0.10786E+08         0.00000E+00
    0.00000E+00         0.00000E+00        -0.21633E+07
 
    0.13781E-07         0.00000E+00         0.00000E+00
    0.00000E+00        -0.10786E+08         0.00000E+00
    0.00000E+00         0.00000E+00        -0.21633E+07
 
    0.21687E-07         0.11565E-08         0.00000E+00
    0.11565E-08        -0.10786E+08         0.00000E+00
    0.00000E+00         0.00000E+00        -0.21633E+07
 
    0.27733E-07        -0.46259E-08         0.00000E+00
   -0.46259E-08        -0.10786E+08         0.00000E+00
    0.00000E+00         0.00000E+00        -0.21633E+07
 
    0.20488E-07        -0.92519E-08         0.00000E+00
   -0.92519E-08        -0.10786E+08         0.00000E+00
    0.00000E+00         0.00000E+00        -0.21633E+07
 
    0.29027E-08        -0.92519E-08         0.00000E+00
   -0.92519E-08        -0.10786E+08         0.00000E+00
    0.00000E+00         0.00000E+00        -0.21633E+07
 
    0.41667E+08         0.34694E-08         0.00000E+00
    0.34694E-08         0.15589E+09         0.00000E+00
    0.00000E+00         0.00000E+00         0.39508E+08
 
   -0.39380E-08        -0.46259E-07         0.00000E+00
   -0.46259E-07        -0.10781E+08         0.00000E+00
    0.00000E+00         0.00000E+00        -0.21583E+07
 
   -0.65404E-07         0.20817E-07         0.00000E+00
    0.20817E-07        -0.10781E+08         0.00000E+00
    0.00000E+00         0.00000E+00        -0.21583E+07
 
    0.88694E-08        -0.12721E-07         0.00000E+00
   -0.12721E-07        -0.10781E+08         0.00000E+00
    0.00000E+00         0.00000E+00        -0.21583E+07
 
    0.26565E-07        -0.23130E-07         0.00000E+00
   -0.23130E-07        -0.10781E+08         0.00000E+00
    0.00000E+00         0.00000E+00        -0.21583E+07
 
    0.20395E-07        -0.29490E-07         0.00000E+00
   -0.29490E-07        -0.10781E+08         0.00000E+00
    0.00000E+00         0.00000E+00        -0.21583E+07
 
   -0.30010E-07        -0.28334E-07         0.00000E+00
   -0.28334E-07        -0.10781E+08         0.00000E+00
    0.00000E+00         0.00000E+00        -0.21583E+07
 
   -0.90820E-08        -0.30647E-07         0.00000E+00
   -0.30647E-07        -0.10781E+08         0.00000E+00
    0.00000E+00         0.00000E+00        -0.21583E+07
 
    0.40665E-08        -0.11565E-08         0.00000E+00
   -0.11565E-08        -0.10781E+08         0.00000E+00
    0.00000E+00         0.00000E+00        -0.21583E+07
 
   -0.46225E-07         0.11565E-07         0.00000E+00
    0.11565E-07        -0.10781E+08         0.00000E+00
    0.00000E+00         0.00000E+00        -0.21583E+07
 
   -0.16102E-07         0.46259E-08         0.00000E+00
    0.46259E-08        -0.10781E+08         0.00000E+00
    0.00000E+00         0.00000E+00        -0.21583E+07
 
   -0.20532E-07        -0.69389E-08         0.00000E+00
   -0.69389E-08        -0.10781E+08         0.00000E+00
    0.00000E+00         0.00000E+00        -0.21583E+07
 
   -0.11688E-07         0.30069E-07         0.00000E+00
    0.30069E-07        -0.10781E+08         0.00000E+00
    0.00000E+00         0.00000E+00        -0.21583E+07
 
    0.32160E-08         0.15034E-07         0.00000E+00
    0.15034E-07        -0.10781E+08         0.00000E+00
    0.00000E+00         0.00000E+00        -0.21583E+07
 
   -0.11456E-07         0.11565E-07         0.00000E+00
    0.11565E-07        -0.10781E+08         0.00000E+00
    0.00000E+00         0.00000E+00        -0.21583E+07
 
SCALARS stressS double 
LOOKUP_TABLE default
   78889229.0187940     
  -4444104.31453941     
  -4444104.31453941     
  -4444104.31453942     
  -4444104.31453940     
  -4444104.31453942     
  -4444104.31453941     
  -4444104.31453941     
  -4444104.31453941     
  -4444104.31453941     
  -4444104.31453941     
  -4444104.31453941     
  -4444104.31453941     
  -4444104.31453941     
  -4444104.31453941     
   78889248.5078757     
  -4444084.82545769     
  -4444084.82545770     
  -4444084.82545769     
  -4444084.82545769     
  -4444084.82545769     
  -4444084.82545770     
  -4444084.82545769     
  -4444084.82545770     
  -4444084.82545769     
  -4444084.82545769     
  -4444084.82545769     
  -4444084.82545769     
  -4444084.82545769     
  -4444084.82545769     
   78889287.5110933     
  -4444045.82224012     
  -4444045.82224012     
  -4444045.82224012     
  -4444045.82224012     
  -4444045.82224012     
  -4444045.82224012     
  -4444045.82224012     
  -4444045.82224012     
  -4444045.82224012     
  -4444045.82224012     
  -4444045.82224012     
  -4444045.82224012     
  -4444045.82224012     
  -4444045.82224012     
   78889346.0785606     
  -4443987.25477272     
  -4443987.25477273     
  -4443987.25477273     
  -4443987.25477273     
  -4443987.25477273     
  -4443987.25477274     
  -4443987.25477273     
  -4443987.25477273     
  -4443987.25477273     
  -4443987.25477273     
  -4443987.25477273     
  -4443987.25477273     
  -4443987.25477273     
  -4443987.25477273     
   78889424.2854628     
  -4443909.04787047     
  -4443909.04787049     
  -4443909.04787048     
  -4443909.04787048     
  -4443909.04787049     
  -4443909.04787049     
  -4443909.04787048     
  -4443909.04787049     
  -4443909.04787049     
  -4443909.04787049     
  -4443909.04787048     
  -4443909.04787049     
  -4443909.04787049     
  -4443909.04787049     
   78889522.2320727     
  -4443811.10126070     
  -4443811.10126071     
  -4443811.10126071     
  -4443811.10126070     
  -4443811.10126070     
  -4443811.10126071     
  -4443811.10126070     
  -4443811.10126070     
  -4443811.10126070     
  -4443811.10126071     
  -4443811.10126070     
  -4443811.10126071     
  -4443811.10126070     
  -4443811.10126071     
   78889640.0437717     
  -4443693.28956167     
  -4443693.28956165     
  -4443693.28956166     
  -4443693.28956166     
  -4443693.28956166     
  -4443693.28956166     
  -4443693.28956165     
  -4443693.28956166     
  -4443693.28956166     
  -4443693.28956166     
  -4443693.28956166     
  -4443693.28956166     
  -4443693.28956166     
  -4443693.28956166     
   78889777.8710765     
  -4443555.46225680     
  -4443555.46225680     
  -4443555.46225679     
  -4443555.46225680     
  -4443555.46225680     
  -4443555.46225680     
  -4443555.46225680     
  -4443555.46225680     
  -4443555.46225680     
  -4443555.46225680     
  -4443555.46225680     
  -4443555.46225680     
  -4443555.46225680     
  -4443555.46225680     
   78889935.8896681     
  -4443397.44366534     
  -4443397.44366536     
  -4443397.44366536     
  -4443397.44366536     
  -4443397.44366536     
  -4443397.44366535     
  -4443397.44366536     
  -4443397.44366536     
  -4443397.44366535     
  -4443397.44366536     
  -4443397.44366536     
  -4443397.44366535     
  -4443397.44366536     
  -4443397.44366536     
   78890114.3004232     
  -4443219.03291009     
  -4443219.03291010     
  -4443219.03291009     
  -4443219.03291010     
  -4443219.03291010     
  -4443219.03291009     
  -4443219.03291010     
  -4443219.03291010     
  -4443219.03291009     
  -4443219.03291009     
  -4443219.03291009     
  -4443219.03291010     
  -4443219.03291010     
  -4443219.03291010     
   78890313.3294499     
  -4443020.00388329     
  -4443020.00388329     
  -4443020.00388330     
  -4443020.00388330     
  -4443020.00388330     
  -4443020.00388329     
  -4443020.00388330     
  -4443020.00388330     
  -4443020.00388330     
  -4443020.00388330     
  -4443020.00388330     
  -4443020.00388330     
  -4443020.00388330     
  -4443020.00388330     
   78890533.2281214     
  -4442800.10521198     
  -4442800.10521199     
  -4442800.10521198     
  -4442800.10521199     
  -4442800.10521198     
  -4442800.10521198     
  -4442800.10521199     
  -4442800.10521198     
  -4442800.10521198     
  -4442800.10521198     
  -4442800.10521198     
  -4442800.10521198     
  -4442800.10521198     
  -4442800.10521198     
   78890774.2731098     
  -4442559.06022379     
  -4442559.06022378     
  -4442559.06022378     
  -4442559.06022378     
  -4442559.06022378     
  -4442559.06022379     
  -4442559.06022378     
  -4442559.06022378     
  -4442559.06022378     
  -4442559.06022378     
  -4442559.06022379     
  -4442559.06022378     
  -4442559.06022379     
  -4442559.06022378     
   78891036.7664186     
  -4442296.56691485     
  -4442296.56691485     
  -4442296.56691484     
  -4442296.56691485     
  -4442296.56691485     
  -4442296.56691485     
  -4442296.56691484     
  -4442296.56691485     
  -4442296.56691485     
  -4442296.56691485     
  -4442296.56691485     
  -4442296.56691485     
  -4442296.56691485     
  -4442296.56691485     
   78891321.0354120     
  -4442012.29792148     
  -4442012.29792148     
  -4442012.29792147     
  -4442012.29792148     
  -4442012.29792148     
  -4442012.29792148     
  -4442012.29792147     
  -4442012.29792148     
  -4442012.29792148     
  -4442012.29792148     
  -4442012.29792148     
  -4442012.29792148     
  -4442012.29792147     
  -4442012.29792147     
   78891627.4328362     
  -4441705.90049723     
  -4441705.90049724     
  -4441705.90049723     
  -4441705.90049724     
  -4441705.90049723     
  -4441705.90049724     
  -4441705.90049724     
  -4441705.90049723     
  -4441705.90049724     
  -4441705.90049723     
  -4441705.90049723     
  -4441705.90049723     
  -4441705.90049723     
  -4441705.90049723     
   78891956.3368359     
  -4441376.99649759     
  -4441376.99649759     
  -4441376.99649758     
  -4441376.99649758     
  -4441376.99649758     
  -4441376.99649758     
  -4441376.99649758     
  -4441376.99649758     
  -4441376.99649758     
  -4441376.99649759     
  -4441376.99649758     
  -4441376.99649758     
  -4441376.99649759     
  -4441376.99649759     
   78892308.1509590     
  -4441025.18237428     
  -4441025.18237428     
  -4441025.18237428     
  -4441025.18237428     
  -4441025.18237428     
  -4441025.18237428     
  -4441025.18237428     
  -4441025.18237429     
  -4441025.18237429     
  -4441025.18237429     
  -4441025.18237429     
  -4441025.18237429     
  -4441025.18237428     
  -4441025.18237428     
   78892683.3041515     
  -4440650.02918179     
  -4440650.02918179     
  -4440650.02918178     
  -4440650.02918179     
  -4440650.02918178     
  -4440650.02918179     
  -4440650.02918179     
  -4440650.02918179     
  -4440650.02918178     
  -4440650.02918179     
  -4440650.02918179     
  -4440650.02918179     
  -4440650.02918179     
  -4440650.02918179     
   78893082.2507348     
  -4440251.08259850     
  -4440251.08259851     
  -4440251.08259850     
  -4440251.08259850     
  -4440251.08259850     
  -4440251.08259851     
  -4440251.08259851     
  -4440251.08259851     
  -4440251.08259850     
  -4440251.08259851     
  -4440251.08259851     
  -4440251.08259850     
  -4440251.08259851     
  -4440251.08259850     
   78893505.4703677     
  -4439827.86296557     
  -4439827.86296558     
  -4439827.86296558     
  -4439827.86296557     
  -4439827.86296557     
  -4439827.86296556     
  -4439827.86296558     
  -4439827.86296558     
  -4439827.86296558     
  -4439827.86296558     
  -4439827.86296558     
  -4439827.86296558     
  -4439827.86296558     
  -4439827.86296558     
   78893953.4679871     
  -4439379.86534632     
  -4439379.86534632     
  -4439379.86534633     
  -4439379.86534633     
  -4439379.86534633     
  -4439379.86534632     
  -4439379.86534633     
  -4439379.86534632     
  -4439379.86534633     
  -4439379.86534633     
  -4439379.86534633     
  -4439379.86534633     
  -4439379.86534633     
  -4439379.86534633     
   78894426.7737237     
  -4438906.55960975     
  -4438906.55960975     
  -4438906.55960975     
  -4438906.55960976     
  -4438906.55960976     
  -4438906.55960975     
  -4438906.55960975     
  -4438906.55960975     
  -4438906.55960975     
  -4438906.55960976     
  -4438906.55960975     
  -4438906.55960975     
  -4438906.55960975     
  -4438906.55960975     
   78894925.9427917     
  -4438407.39054160     
  -4438407.39054159     
  -4438407.39054160     
  -4438407.39054160     
  -4438407.39054160     
  -4438407.39054159     
  -4438407.39054159     
  -4438407.39054159     
  -4438407.39054159     
  -4438407.39054159     
  -4438407.39054159     
  -4438407.39054159     
  -4438407.39054159     
  -4438407.39054160     
   78895451.5553463     
  -4437881.77798690     
  -4437881.77798691     
  -4437881.77798690     
  -4437881.77798690     
  -4437881.77798691     
  -4437881.77798690     
  -4437881.77798691     
  -4437881.77798690     
  -4437881.77798691     
  -4437881.77798691     
  -4437881.77798690     
  -4437881.77798690     
  -4437881.77798690     
  -4437881.77798691     
   78896004.2163050     
  -4437329.11702826     
  -4437329.11702828     
  -4437329.11702826     
  -4437329.11702827     
  -4437329.11702826     
  -4437329.11702827     
  -4437329.11702826     
  -4437329.11702826     
  -4437329.11702826     
  -4437329.11702826     
  -4437329.11702826     
  -4437329.11702826     
  -4437329.11702826     
  -4437329.11702826     
   78896584.5551293     
  -4436748.77820410     
  -4436748.77820410     
  -4436748.77820410     
  -4436748.77820409     
  -4436748.77820411     
  -4436748.77820410     
  -4436748.77820410     
  -4436748.77820410     
  -4436748.77820409     
  -4436748.77820409     
  -4436748.77820409     
  -4436748.77820409     
  -4436748.77820410     
  -4436748.77820410     
   78897193.2255614     
  -4436140.10777190     
  -4436140.10777189     
  -4436140.10777190     
  -4436140.10777189     
  -4436140.10777190     
  -4436140.10777190     
  -4436140.10777189     
  -4436140.10777189     
  -4436140.10777190     
  -4436140.10777189     
  -4436140.10777190     
  -4436140.10777190     
  -4436140.10777190     
  -4436140.10777190     
   78897830.9053119     
  -4435502.42802142     
  -4435502.42802143     
  -4435502.42802143     
  -4435502.42802143     
  -4435502.42802143     
  -4435502.42802143     
  -4435502.42802143     
  -4435502.42802143     
  -4435502.42802142     
  -4435502.42802142     
  -4435502.42802142     
  -4435502.42802143     
  -4435502.42802143     
  -4435502.42802142     
   78898498.2956899     
  -4434835.03764343     
  -4434835.03764343     
  -4434835.03764342     
  -4434835.03764343     
  -4434835.03764342     
  -4434835.03764342     
  -4434835.03764342     
  -4434835.03764342     
  -4434835.03764342     
  -4434835.03764342     
  -4434835.03764342     
  -4434835.03764343     
  -4434835.03764342     
  -4434835.03764342     
   78899196.1211739     
  -4434137.21215949     
  -4434137.21215948     
  -4434137.21215948     
  -4434137.21215948     
  -4434137.21215948     
  -4434137.21215947     
  -4434137.21215948     
  -4434137.21215948     
  -4434137.21215948     
  -4434137.21215948     
  -4434137.21215948     
  -4434137.21215947     
  -4434137.21215947     
  -4434137.21215947     
   78899925.1289139     
  -4433408.20441944     
  -4433408.20441945     
  -4433408.20441944     
  -4433408.20441945     
  -4433408.20441945     
  -4433408.20441944     
  -4433408.20441945     
  -4433408.20441944     
  -4433408.20441944     
  -4433408.20441944     
  -4433408.20441945     
  -4433408.20441944     
  -4433408.20441944     
  -4433408.20441944     
   78900686.0881606     
  -4432647.24517273     
  -4432647.24517275     
  -4432647.24517274     
  -4432647.24517274     
  -4432647.24517274     
  -4432647.24517275     
  -4432647.24517275     
  -4432647.24517275     
  -4432647.24517274     
  -4432647.24517274     
  -4432647.24517274     
  -4432647.24517274     
  -4432647.24517274     
  -4432647.24517275     
   78901479.7896126     
  -4431853.54372067     
  -4431853.54372067     
  -4431853.54372067     
  -4431853.54372068     
  -4431853.54372067     
  -4431853.54372068     
  -4431853.54372066     
  -4431853.54372067     
  -4431853.54372067     
  -4431853.54372067     
  -4431853.54372067     
  -4431853.54372066     
  -4431853.54372067     
  -4431853.54372066     
   78902307.0446764     
  -4431026.28865690     
  -4431026.28865689     
  -4431026.28865688     
  -4431026.28865689     
  -4431026.28865689     
  -4431026.28865688     
  -4431026.28865688     
  -4431026.28865689     
  -4431026.28865690     
  -4431026.28865689     
  -4431026.28865689     
  -4431026.28865689     
  -4431026.28865690     
  -4431026.28865689     
   78903168.6846294     
  -4430164.64870401     
  -4430164.64870400     
  -4430164.64870401     
  -4430164.64870401     
  -4430164.64870401     
  -4430164.64870401     
  -4430164.64870400     
  -4430164.64870400     
  -4430164.64870400     
  -4430164.64870400     
  -4430164.64870400     
  -4430164.64870400     
  -4430164.64870400     
  -4430164.64870401     
   78904065.5596792     
  -4429267.77365424     
  -4429267.77365423     
  -4429267.77365424     
  -4429267.77365424     
  -4429267.77365423     
  -4429267.77365424     
  -4429267.77365424     
  -4429267.77365424     
  -4429267.77365424     
  -4429267.77365424     
  -4429267.77365424     
  -4429267.77365425     
  -4429267.77365423     
  -4429267.77365423     
   78904998.5379105     
  -4428334.79542282     
  -4428334.79542281     
  -4428334.79542281     
  -4428334.79542280     
  -4428334.79542280     
  -4428334.79542281     
  -4428334.79542282     
  -4428334.79542282     
  -4428334.79542281     
  -4428334.79542281     
  -4428334.79542282     
  -4428334.79542282     
  -4428334.79542281     
  -4428334.79542281     
   78905968.5041101     
  -4427364.82922309     
  -4427364.82922307     
  -4427364.82922308     
  -4427364.82922308     
  -4427364.82922307     
  -4427364.82922307     
  -4427364.82922308     
  -4427364.82922307     
  -4427364.82922308     
  -4427364.82922308     
  -4427364.82922308     
  -4427364.82922308     
  -4427364.82922308     
  -4427364.82922306     
   78906976.3584607     
  -4426356.97487260     
  -4426356.97487258     
  -4426356.97487260     
  -4426356.97487260     
  -4426356.97487259     
  -4426356.97487259     
  -4426356.97487259     
  -4426356.97487259     
  -4426356.97487259     
  -4426356.97487259     
  -4426356.97487259     
  -4426356.97487259     
  -4426356.97487259     
  -4426356.97487259     
   78908023.0150932     
  -4425310.31824005     
  -4425310.31824006     
  -4425310.31824006     
  -4425310.31824006     
  -4425310.31824006     
  -4425310.31824005     
  -4425310.31824008     
  -4425310.31824007     
  -4425310.31824007     
  -4425310.31824006     
  -4425310.31824006     
  -4425310.31824007     
  -4425310.31824006     
  -4425310.31824006     
   78909109.4004902     
  -4424223.93284313     
  -4424223.93284312     
  -4424223.93284313     
  -4424223.93284312     
  -4424223.93284313     
  -4424223.93284311     
  -4424223.93284312     
  -4424223.93284313     
  -4424223.93284312     
  -4424223.93284312     
  -4424223.93284311     
  -4424223.93284311     
  -4424223.93284311     
  -4424223.93284313     
   78910236.4517258     
  -4423096.88160749     
  -4423096.88160750     
  -4423096.88160751     
  -4423096.88160750     
  -4423096.88160751     
  -4423096.88160752     
  -4423096.88160751     
  -4423096.88160751     
  -4423096.88160750     
  -4423096.88160750     
  -4423096.88160751     
  -4423096.88160752     
  -4423096.88160749     
  -4423096.88160750     
   78911405.1145349     
  -4421928.21879832     
  -4421928.21879834     
  -4421928.21879834     
  -4421928.21879835     
  -4421928.21879833     
  -4421928.21879835     
  -4421928.21879834     
  -4421928.21879834     
  -4421928.21879834     
  -4421928.21879834     
  -4421928.21879834     
  -4421928.21879835     
  -4421928.21879834     
  -4421928.21879833     
   78912616.3411987     
  -4420716.99213446     
  -4420716.99213447     
  -4420716.99213446     
  -4420716.99213446     
  -4420716.99213446     
  -4420716.99213446     
  -4420716.99213447     
  -4420716.99213447     
  -4420716.99213446     
  -4420716.99213446     
  -4420716.99213446     
  -4420716.99213447     
  -4420716.99213447     
  -4420716.99213447     
   78913871.0882362     
  -4419462.24509719     
  -4419462.24509718     
  -4419462.24509719     
  -4419462.24509719     
  -4419462.24509718     
  -4419462.24509720     
  -4419462.24509718     
  -4419462.24509718     
  -4419462.24509719     
  -4419462.24509718     
  -4419462.24509718     
  -4419462.24509718     
  -4419462.24509718     
  -4419462.24509718     
   78915170.3138888     
  -4418163.01944464     
  -4418163.01944460     
  -4418163.01944462     
  -4418163.01944461     
  -4418163.01944462     
  -4418163.01944461     
  -4418163.01944460     
  -4418163.01944462     
  -4418163.01944461     
  -4418163.01944461     
  -4418163.01944460     
  -4418163.01944461     
  -4418163.01944461     
  -4418163.01944460     
   78916514.9753903     
  -4416818.35794303     
  -4416818.35794303     
  -4416818.35794305     
  -4416818.35794304     
  -4416818.35794304     
  -4416818.35794303     
  -4416818.35794303     
  -4416818.35794303     
  -4416818.35794302     
  -4416818.35794303     
  -4416818.35794302     
  -4416818.35794304     
  -4416818.35794304     
  -4416818.35794303     
   78917906.0260067     
  -4415427.30732664     
  -4415427.30732664     
  -4415427.30732666     
  -4415427.30732664     
  -4415427.30732664     
  -4415427.30732666     
  -4415427.30732664     
  -4415427.30732665     
  -4415427.30732665     
  -4415427.30732664     
  -4415427.30732664     
  -4415427.30732664     
  -4415427.30732664     
  -4415427.30732665     
   78919344.4118366     
  -4413988.92149671     
  -4413988.92149673     
  -4413988.92149671     
  -4413988.92149671     
  -4413988.92149670     
  -4413988.92149670     
  -4413988.92149670     
  -4413988.92149671     
  -4413988.92149671     
  -4413988.92149672     
  -4413988.92149672     
  -4413988.92149671     
  -4413988.92149671     
  -4413988.92149672     
   78920831.0683623     
  -4412502.26497090     
  -4412502.26497091     
  -4412502.26497092     
  -4412502.26497092     
  -4412502.26497091     
  -4412502.26497090     
  -4412502.26497090     
  -4412502.26497091     
  -4412502.26497091     
  -4412502.26497091     
  -4412502.26497091     
  -4412502.26497091     
  -4412502.26497090     
  -4412502.26497089     
   78922366.9167401     
  -4410966.41659318     
  -4410966.41659318     
  -4410966.41659320     
  -4410966.41659319     
  -4410966.41659319     
  -4410966.41659319     
  -4410966.41659318     
  -4410966.41659318     
  -4410966.41659318     
  -4410966.41659319     
  -4410966.41659320     
  -4410966.41659319     
  -4410966.41659318     
  -4410966.41659319     
   78923952.8598198     
  -4409380.47351359     
  -4409380.47351358     
  -4409380.47351360     
  -4409380.47351359     
  -4409380.47351360     
  -4409380.47351361     
  -4409380.47351359     
  -4409380.47351358     
  -4409380.47351359     
  -4409380.47351359     
  -4409380.47351359     
  -4409380.47351360     
  -4409380.47351359     
  -4409380.47351358     
   78925589.7778868     
  -4407743.55544666     
  -4407743.55544665     
  -4407743.55544665     
  -4407743.55544666     
  -4407743.55544665     
  -4407743.55544666     
  -4407743.55544665     
  -4407743.55544665     
  -4407743.55544664     
  -4407743.55544664     
  -4407743.55544665     
  -4407743.55544664     
  -4407743.55544665     
  -4407743.55544665     
   78927278.5241175     
  -4406054.80921576     
  -4406054.80921576     
  -4406054.80921577     
  -4406054.80921577     
  -4406054.80921577     
  -4406054.80921577     
  -4406054.80921577     
  -4406054.80921576     
  -4406054.80921576     
  -4406054.80921576     
  -4406054.80921577     
  -4406054.80921576     
  -4406054.80921576     
  -4406054.80921577     
   78929019.9197440     
  -4404313.41358930     
  -4404313.41358929     
  -4404313.41358928     
  -4404313.41358928     
  -4404313.41358929     
  -4404313.41358930     
  -4404313.41358931     
  -4404313.41358929     
  -4404313.41358928     
  -4404313.41358929     
  -4404313.41358929     
  -4404313.41358929     
  -4404313.41358930     
  -4404313.41358929     
   78930814.7489209     
  -4402518.58441239     
  -4402518.58441241     
  -4402518.58441238     
  -4402518.58441238     
  -4402518.58441238     
  -4402518.58441238     
  -4402518.58441239     
  -4402518.58441239     
  -4402518.58441238     
  -4402518.58441239     
  -4402518.58441239     
  -4402518.58441239     
  -4402518.58441238     
  -4402518.58441240     
   78932663.7532971     
  -4400669.58003623     
  -4400669.58003622     
  -4400669.58003622     
  -4400669.58003623     
  -4400669.58003624     
  -4400669.58003623     
  -4400669.58003623     
  -4400669.58003623     
  -4400669.58003623     
  -4400669.58003624     
  -4400669.58003623     
  -4400669.58003623     
  -4400669.58003623     
  -4400669.58003624     
   78934567.6262898     
  -4398765.70704351     
  -4398765.70704351     
  -4398765.70704351     
  -4398765.70704353     
  -4398765.70704350     
  -4398765.70704352     
  -4398765.70704351     
  -4398765.70704351     
  -4398765.70704351     
  -4398765.70704352     
  -4398765.70704351     
  -4398765.70704350     
  -4398765.70704351     
  -4398765.70704351     
   78936527.0070672     
  -4396806.32626614     
  -4396806.32626614     
  -4396806.32626616     
  -4396806.32626614     
  -4396806.32626614     
  -4396806.32626614     
  -4396806.32626613     
  -4396806.32626615     
  -4396806.32626615     
  -4396806.32626614     
  -4396806.32626615     
  -4396806.32626616     
  -4396806.32626615     
  -4396806.32626614     
   78938542.4742464     
  -4394790.85908692     
  -4394790.85908692     
  -4394790.85908692     
  -4394790.85908692     
  -4394790.85908693     
  -4394790.85908693     
  -4394790.85908693     
  -4394790.85908693     
  -4394790.85908692     
  -4394790.85908692     
  -4394790.85908692     
  -4394790.85908693     
  -4394790.85908692     
  -4394790.85908691     
   78940614.5393204     
  -4392718.79401287     
  -4392718.79401287     
  -4392718.79401286     
  -4392718.79401285     
  -4392718.79401287     
  -4392718.79401287     
  -4392718.79401285     
  -4392718.79401286     
  -4392718.79401286     
  -4392718.79401287     
  -4392718.79401289     
  -4392718.79401286     
  -4392718.79401286     
  -4392718.79401286     
   78942743.6398304     
  -4390589.69350300     
  -4390589.69350299     
  -4390589.69350301     
  -4390589.69350300     
  -4390589.69350300     
  -4390589.69350300     
  -4390589.69350300     
  -4390589.69350300     
  -4390589.69350298     
  -4390589.69350299     
  -4390589.69350300     
  -4390589.69350300     
  -4390589.69350300     
  -4390589.69350301     
   78944930.1323061     
  -4388403.20102720     
  -4388403.20102722     
  -4388403.20102721     
  -4388403.20102722     
  -4388403.20102720     
  -4388403.20102722     
  -4388403.20102720     
  -4388403.20102720     
  -4388403.20102721     
  -4388403.20102721     
  -4388403.20102721     
  -4388403.20102721     
  -4388403.20102721     
  -4388403.20102722     
   78947174.2850064     
  -4386159.04832686     
  -4386159.04832684     
  -4386159.04832687     
  -4386159.04832684     
  -4386159.04832685     
  -4386159.04832685     
  -4386159.04832685     
  -4386159.04832685     
  -4386159.04832685     
  -4386159.04832686     
  -4386159.04832684     
  -4386159.04832685     
  -4386159.04832685     
  -4386159.04832686     
   78949476.2704932     
  -4383857.06284014     
  -4383857.06284016     
  -4383857.06284016     
  -4383857.06284015     
  -4383857.06284015     
  -4383857.06284013     
  -4383857.06284014     
  -4383857.06284015     
  -4383857.06284014     
  -4383857.06284014     
  -4383857.06284016     
  -4383857.06284015     
  -4383857.06284014     
  -4383857.06284014     
   78951836.1580859     
  -4381497.17524752     
  -4381497.17524752     
  -4381497.17524751     
  -4381497.17524751     
  -4381497.17524754     
  -4381497.17524754     
  -4381497.17524754     
  -4381497.17524755     
  -4381497.17524755     
  -4381497.17524753     
  -4381497.17524753     
  -4381497.17524753     
  -4381497.17524753     
  -4381497.17524753     
   78954253.9062503     
  -4379079.42708309     
  -4379079.42708309     
  -4379079.42708309     
  -4379079.42708308     
  -4379079.42708309     
  -4379079.42708309     
  -4379079.42708309     
  -4379079.42708309     
  -4379079.42708309     
  -4379079.42708309     
  -4379079.42708309     
  -4379079.42708308     
  -4379079.42708310     
  -4379079.42708310     
   78956729.3549847     
  -4376603.97834861     
  -4376603.97834863     
  -4376603.97834861     
  -4376603.97834861     
  -4376603.97834861     
  -4376603.97834862     
  -4376603.97834861     
  -4376603.97834862     
  -4376603.97834861     
  -4376603.97834862     
  -4376603.97834862     
  -4376603.97834861     
  -4376603.97834862     
  -4376603.97834864     
   78959262.2182774     
  -4374071.11505599     
  -4374071.11505598     
  -4374071.11505597     
  -4374071.11505599     
  -4374071.11505600     
  -4374071.11505598     
  -4374071.11505598     
  -4374071.11505599     
  -4374071.11505597     
  -4374071.11505599     
  -4374071.11505598     
  -4374071.11505599     
  -4374071.11505599     
  -4374071.11505597     
   78961852.0767207     
  -4371481.25661259     
  -4371481.25661256     
  -4371481.25661258     
  -4371481.25661258     
  -4371481.25661258     
  -4371481.25661258     
  -4371481.25661257     
  -4371481.25661258     
  -4371481.25661258     
  -4371481.25661258     
  -4371481.25661258     
  -4371481.25661257     
  -4371481.25661257     
  -4371481.25661258     
   78964498.3703806     
  -4368834.96295261     
  -4368834.96295260     
  -4368834.96295262     
  -4368834.96295260     
  -4368834.96295261     
  -4368834.96295260     
  -4368834.96295259     
  -4368834.96295260     
  -4368834.96295260     
  -4368834.96295262     
  -4368834.96295262     
  -4368834.96295260     
  -4368834.96295261     
  -4368834.96295262     
   78967200.3920290     
  -4366132.94130442     
  -4366132.94130441     
  -4366132.94130442     
  -4366132.94130440     
  -4366132.94130442     
  -4366132.94130441     
  -4366132.94130441     
  -4366132.94130440     
  -4366132.94130441     
  -4366132.94130442     
  -4366132.94130442     
  -4366132.94130441     
  -4366132.94130441     
  -4366132.94130440     
   78969957.2808616     
  -4363376.05247183     
  -4363376.05247182     
  -4363376.05247181     
  -4363376.05247182     
  -4363376.05247183     
  -4363376.05247181     
  -4363376.05247182     
  -4363376.05247181     
  -4363376.05247181     
  -4363376.05247182     
  -4363376.05247181     
  -4363376.05247180     
  -4363376.05247182     
  -4363376.05247184     
   78972768.0168383     
  -4360565.31649511     
  -4360565.31649510     
  -4360565.31649513     
  -4360565.31649513     
  -4360565.31649513     
  -4360565.31649514     
  -4360565.31649512     
  -4360565.31649513     
  -4360565.31649513     
  -4360565.31649513     
  -4360565.31649515     
  -4360565.31649513     
  -4360565.31649512     
  -4360565.31649512     
   78975631.4157884     
  -4357701.91754499     
  -4357701.91754498     
  -4357701.91754499     
  -4357701.91754498     
  -4357701.91754499     
  -4357701.91754499     
  -4357701.91754499     
  -4357701.91754497     
  -4357701.91754496     
  -4357701.91754499     
  -4357701.91754500     
  -4357701.91754501     
  -4357701.91754500     
  -4357701.91754498     
   78978546.1254410     
  -4354787.20789247     
  -4354787.20789244     
  -4354787.20789245     
  -4354787.20789246     
  -4354787.20789247     
  -4354787.20789245     
  -4354787.20789247     
  -4354787.20789246     
  -4354787.20789245     
  -4354787.20789246     
  -4354787.20789244     
  -4354787.20789244     
  -4354787.20789245     
  -4354787.20789246     
   78981510.6225444     
  -4351822.71078887     
  -4351822.71078885     
  -4351822.71078885     
  -4351822.71078886     
  -4351822.71078887     
  -4351822.71078886     
  -4351822.71078887     
  -4351822.71078886     
  -4351822.71078886     
  -4351822.71078886     
  -4351822.71078887     
  -4351822.71078888     
  -4351822.71078888     
  -4351822.71078889     
   78984523.2112501     
  -4348810.12208318     
  -4348810.12208317     
  -4348810.12208317     
  -4348810.12208317     
  -4348810.12208318     
  -4348810.12208318     
  -4348810.12208315     
  -4348810.12208317     
  -4348810.12208318     
  -4348810.12208317     
  -4348810.12208317     
  -4348810.12208318     
  -4348810.12208317     
  -4348810.12208318     
   78987582.0229320     
  -4345751.31040154     
  -4345751.31040155     
  -4345751.31040152     
  -4345751.31040154     
  -4345751.31040154     
  -4345751.31040151     
  -4345751.31040151     
  -4345751.31040153     
  -4345751.31040153     
  -4345751.31040153     
  -4345751.31040153     
  -4345751.31040152     
  -4345751.31040152     
  -4345751.31040153     
   78990685.0176176     
  -4342648.31571583     
  -4342648.31571585     
  -4342648.31571584     
  -4342648.31571585     
  -4342648.31571584     
  -4342648.31571585     
  -4342648.31571584     
  -4342648.31571585     
  -4342648.31571585     
  -4342648.31571585     
  -4342648.31571586     
  -4342648.31571586     
  -4342648.31571585     
  -4342648.31571585     
   78993829.9871971     
  -4339503.34613612     
  -4339503.34613612     
  -4339503.34613613     
  -4339503.34613613     
  -4339503.34613613     
  -4339503.34613614     
  -4339503.34613612     
  -4339503.34613613     
  -4339503.34613616     
  -4339503.34613613     
  -4339503.34613611     
  -4339503.34613614     
  -4339503.34613614     
  -4339503.34613612     
   78997014.5605562     
  -4336318.77277709     
  -4336318.77277707     
  -4336318.77277706     
  -4336318.77277706     
  -4336318.77277707     
  -4336318.77277708     
  -4336318.77277707     
  -4336318.77277706     
  -4336318.77277707     
  -4336318.77277709     
  -4336318.77277707     
  -4336318.77277706     
  -4336318.77277708     
  -4336318.77277709     
   79000236.2107598     
  -4333097.12257363     
  -4333097.12257363     
  -4333097.12257366     
  -4333097.12257363     
  -4333097.12257364     
  -4333097.12257366     
  -4333097.12257364     
  -4333097.12257367     
  -4333097.12257365     
  -4333097.12257365     
  -4333097.12257365     
  -4333097.12257365     
  -4333097.12257365     
  -4333097.12257365     
   79003492.2643773     
  -4329841.06895606     
  -4329841.06895607     
  -4329841.06895608     
  -4329841.06895606     
  -4329841.06895608     
  -4329841.06895606     
  -4329841.06895608     
  -4329841.06895607     
  -4329841.06895606     
  -4329841.06895605     
  -4329841.06895606     
  -4329841.06895606     
  -4329841.06895606     
  -4329841.06895605     
   79006779.9129924     
  -4326553.42034102     
  -4326553.42034098     
  -4326553.42034097     
  -4326553.42034100     
  -4326553.42034101     
  -4326553.42034100     
  -4326553.42034102     
  -4326553.42034102     
  -4326553.42034101     
  -4326553.42034101     
  -4326553.42034100     
  -4326553.42034100     
  -4326553.42034100     
  -4326553.42034100     
   79010096.2268775     
  -4323237.10645604     
  -4323237.10645602     
  -4323237.10645603     
  -4323237.10645603     
  -4323237.10645604     
  -4323237.10645603     
  -4323237.10645604     
  -4323237.10645603     
  -4323237.10645603     
  -4323237.10645601     
  -4323237.10645600     
  -4323237.10645602     
  -4323237.10645602     
  -4323237.10645602     
   79013438.1707468     
  -4319895.16258663     
  -4319895.16258666     
  -4319895.16258667     
  -4319895.16258664     
  -4319895.16258665     
  -4319895.16258664     
  -4319895.16258665     
  -4319895.16258665     
  -4319895.16258666     
  -4319895.16258665     
  -4319895.16258665     
  -4319895.16258663     
  -4319895.16258665     
  -4319895.16258665     
   79016802.6214143     
  -4316530.71191917     
  -4316530.71191917     
  -4316530.71191917     
  -4316530.71191918     
  -4316530.71191918     
  -4316530.71191917     
  -4316530.71191920     
  -4316530.71191920     
  -4316530.71191919     
  -4316530.71191918     
  -4316530.71191916     
  -4316530.71191915     
  -4316530.71191916     
  -4316530.71191917     
   79020186.3870886     
  -4313146.94624491     
  -4313146.94624499     
  -4313146.94624490     
  -4313146.94624486     
  -4313146.94624489     
  -4313146.94624496     
  -4313146.94624494     
  -4313146.94624497     
  -4313146.94624496     
  -4313146.94624490     
  -4313146.94624495     
  -4313146.94624495     
  -4313146.94624490     
  -4313146.94624491     
SCALARS 2waySource double 
LOOKUP_TABLE default
  4.235720310628914E-006
  4.235720310596064E-006
  4.235720310611937E-006
  4.235720310612437E-006
  4.235720310615409E-006
  4.235720310603926E-006
  4.235720310608095E-006
  4.235720310611638E-006
  4.235720310608266E-006
  4.235720310610127E-006
  4.235720310611444E-006
  4.235720310608255E-006
  4.235720310609282E-006
  4.235720310609895E-006
  4.235720310610222E-006
  4.220688473873300E-006
  4.220688473889522E-006
  4.220688473883457E-006
  4.220688473892381E-006
  4.220688473892031E-006
  4.220688473886866E-006
  4.220688473892099E-006
  4.220688473889657E-006
  4.220688473891620E-006
  4.220688473885017E-006
  4.220688473892769E-006
  4.220688473889373E-006
  4.220688473889788E-006
  4.220688473890408E-006
  4.220688473890349E-006
  4.194379057226656E-006
  4.194379057223909E-006
  4.194379057222994E-006
  4.194379057222693E-006
  4.194379057225359E-006
  4.194379057229154E-006
  4.194379057223819E-006
  4.194379057220615E-006
  4.194379057219015E-006
  4.194379057222578E-006
  4.194379057226332E-006
  4.194379057223101E-006
  4.194379057222916E-006
  4.194379057225679E-006
  4.194379057223878E-006
  4.156786141336520E-006
  4.156786141336838E-006
  4.156786141323531E-006
  4.156786141336686E-006
  4.156786141335491E-006
  4.156786141341138E-006
  4.156786141334846E-006
  4.156786141338253E-006
  4.156786141331249E-006
  4.156786141336154E-006
  4.156786141337638E-006
  4.156786141333904E-006
  4.156786141333796E-006
  4.156786141336036E-006
  4.156786141336907E-006
  4.107901461990265E-006
  4.107901461984452E-006
  4.107901461973446E-006
  4.107901461987298E-006
  4.107901461979289E-006
  4.107901461990014E-006
  4.107901461984846E-006
  4.107901461985415E-006
  4.107901461981246E-006
  4.107901461985296E-006
  4.107901461985050E-006
  4.107901461985010E-006
  4.107901461984790E-006
  4.107901461986128E-006
  4.107901461983648E-006
  4.047714613828084E-006
  4.047714613830598E-006
  4.047714613820765E-006
  4.047714613827863E-006
  4.047714613834292E-006
  4.047714613832990E-006
  4.047714613830438E-006
  4.047714613819415E-006
  4.047714613830489E-006
  4.047714613829733E-006
  4.047714613826792E-006
  4.047714613832282E-006
  4.047714613826498E-006
  4.047714613830757E-006
  4.047714613828367E-006
  3.976213317111759E-006
  3.976213317119897E-006
  3.976213317127497E-006
  3.976213317110773E-006
  3.976213317119262E-006
  3.976213317123694E-006
  3.976213317124112E-006
  3.976213317113101E-006
  3.976213317124976E-006
  3.976213317119181E-006
  3.976213317123098E-006
  3.976213317120708E-006
  3.976213317119813E-006
  3.976213317120531E-006
  3.976213317122379E-006
  3.893383748581983E-006
  3.893383748581322E-006
  3.893383748581305E-006
  3.893383748583049E-006
  3.893383748586577E-006
  3.893383748582740E-006
  3.893383748578637E-006
  3.893383748586875E-006
  3.893383748582602E-006
  3.893383748585593E-006
  3.893383748581844E-006
  3.893383748584321E-006
  3.893383748586518E-006
  3.893383748583284E-006
  3.893383748585566E-006
  3.799210938059817E-006
  3.799210938063172E-006
  3.799210938054709E-006
  3.799210938052998E-006
  3.799210938055165E-006
  3.799210938051247E-006
  3.799210938057398E-006
  3.799210938053320E-006
  3.799210938049246E-006
  3.799210938054837E-006
  3.799210938059826E-006
  3.799210938054985E-006
  3.799210938054775E-006
  3.799210938052655E-006
  3.799210938056354E-006
  3.693679232890947E-006
  3.693679232898257E-006
  3.693679232874374E-006
  3.693679232887104E-006
  3.693679232889459E-006
  3.693679232887419E-006
  3.693679232886782E-006
  3.693679232888688E-006
  3.693679232882953E-006
  3.693679232883547E-006
  3.693679232887640E-006
  3.693679232888120E-006
  3.693679232884969E-006
  3.693679232890534E-006
  3.693679232883960E-006
  3.576772832261417E-006
  3.576772832280048E-006
  3.576772832262022E-006
  3.576772832270768E-006
  3.576772832258152E-006
  3.576772832265411E-006
  3.576772832275850E-006
  3.576772832270784E-006
  3.576772832263021E-006
  3.576772832269903E-006
  3.576772832266340E-006
  3.576772832268905E-006
  3.576772832266124E-006
  3.576772832270250E-006
  3.576772832267180E-006
  3.448476394116362E-006
  3.448476394096407E-006
  3.448476394102457E-006
  3.448476394099721E-006
  3.448476394097081E-006
  3.448476394111108E-006
  3.448476394098978E-006
  3.448476394097806E-006
  3.448476394104835E-006
  3.448476394098202E-006
  3.448476394103424E-006
  3.448476394099443E-006
  3.448476394103333E-006
  3.448476394101117E-006
  3.448476394102470E-006
  3.308775717244075E-006
  3.308775717236244E-006
  3.308775717248023E-006
  3.308775717237193E-006
  3.308775717237663E-006
  3.308775717243859E-006
  3.308775717241031E-006
  3.308775717239082E-006
  3.308775717240089E-006
  3.308775717239505E-006
  3.308775717242588E-006
  3.308775717244345E-006
  3.308775717243633E-006
  3.308775717246156E-006
  3.308775717237822E-006
  3.157658502244355E-006
  3.157658502254183E-006
  3.157658502251292E-006
  3.157658502246463E-006
  3.157658502259267E-006
  3.157658502253196E-006
  3.157658502256135E-006
  3.157658502248476E-006
  3.157658502253643E-006
  3.157658502253186E-006
  3.157658502253884E-006
  3.157658502250402E-006
  3.157658502251589E-006
  3.157658502254121E-006
  3.157658502251171E-006
  2.995115194197897E-006
  2.995115194191260E-006
  2.995115194200146E-006
  2.995115194187404E-006
  2.995115194191511E-006
  2.995115194194061E-006
  2.995115194199209E-006
  2.995115194197136E-006
  2.995115194192767E-006
  2.995115194196785E-006
  2.995115194201579E-006
  2.995115194199060E-006
  2.995115194202350E-006
  2.995115194197365E-006
  2.995115194196724E-006
  2.821139911201142E-006
  2.821139911186494E-006
  2.821139911204118E-006
  2.821139911198393E-006
  2.821139911211368E-006
  2.821139911202681E-006
  2.821139911198237E-006
  2.821139911203705E-006
  2.821139911198877E-006
  2.821139911208022E-006
  2.821139911206415E-006
  2.821139911203678E-006
  2.821139911205320E-006
  2.821139911203647E-006
  2.821139911204850E-006
  2.635731462880453E-006
  2.635731462874799E-006
  2.635731462891411E-006
  2.635731462884593E-006
  2.635731462894448E-006
  2.635731462879139E-006
  2.635731462884702E-006
  2.635731462878812E-006
  2.635731462885067E-006
  2.635731462889037E-006
  2.635731462881550E-006
  2.635731462885110E-006
  2.635731462882044E-006
  2.635731462884637E-006
  2.635731462883414E-006
  2.438894462977893E-006
  2.438894462975399E-006
  2.438894462987111E-006
  2.438894462977406E-006
  2.438894462981012E-006
  2.438894462972189E-006
  2.438894462981772E-006
  2.438894462976769E-006
  2.438894462974009E-006
  2.438894462981981E-006
  2.438894462979116E-006
  2.438894462982185E-006
  2.438894462981443E-006
  2.438894462984454E-006
  2.438894462977926E-006
  2.230640540828970E-006
  2.230640540870399E-006
  2.230640540878994E-006
  2.230640540857554E-006
  2.230640540858503E-006
  2.230640540863803E-006
  2.230640540869635E-006
  2.230640540869015E-006
  2.230640540868167E-006
  2.230640540864551E-006
  2.230640540860798E-006
  2.230640540867374E-006
  2.230640540863272E-006
  2.230640540866480E-006
  2.230640540863575E-006
  2.010989656851372E-006
  2.010989656857717E-006
  2.010989656853416E-006
  2.010989656856418E-006
  2.010989656860517E-006
  2.010989656856515E-006
  2.010989656850589E-006
  2.010989656852690E-006
  2.010989656857114E-006
  2.010989656858887E-006
  2.010989656861274E-006
  2.010989656864109E-006
  2.010989656857881E-006
  2.010989656855197E-006
  2.010989656857297E-006
  1.779971526491782E-006
  1.779971526487527E-006
  1.779971526494675E-006
  1.779971526491998E-006
  1.779971526498201E-006
  1.779971526492903E-006
  1.779971526495571E-006
  1.779971526499530E-006
  1.779971526483658E-006
  1.779971526490453E-006
  1.779971526494189E-006
  1.779971526490572E-006
  1.779971526485857E-006
  1.779971526492270E-006
  1.779971526493778E-006
  1.537627159161221E-006
  1.537627159163119E-006
  1.537627159157868E-006
  1.537627159161949E-006
  1.537627159157819E-006
  1.537627159154326E-006
  1.537627159158309E-006
  1.537627159158422E-006
  1.537627159160341E-006
  1.537627159160596E-006
  1.537627159159885E-006
  1.537627159158773E-006
  1.537627159158358E-006
  1.537627159151972E-006
  1.537627159153569E-006
  1.284010516762774E-006
  1.284010516762832E-006
  1.284010516771991E-006
  1.284010516763460E-006
  1.284010516770011E-006
  1.284010516751214E-006
  1.284010516777029E-006
  1.284010516759206E-006
  1.284010516761716E-006
  1.284010516762408E-006
  1.284010516759460E-006
  1.284010516773136E-006
  1.284010516763286E-006
  1.284010516762242E-006
  1.284010516763757E-006
  1.019190298234236E-006
  1.019190298221958E-006
  1.019190298216106E-006
  1.019190298217955E-006
  1.019190298230708E-006
  1.019190298219169E-006
  1.019190298221430E-006
  1.019190298217723E-006
  1.019190298217855E-006
  1.019190298221287E-006
  1.019190298224300E-006
  1.019190298224411E-006
  1.019190298221688E-006
  1.019190298219638E-006
  1.019190298214366E-006
  7.432518556526962E-007
  7.432518556650305E-007
  7.432518556640724E-007
  7.432518556498783E-007
  7.432518556632402E-007
  7.432518556570638E-007
  7.432518556775004E-007
  7.432518556593852E-007
  7.432518556649605E-007
  7.432518556632059E-007
  7.432518556617075E-007
  7.432518556682390E-007
  7.432518556631611E-007
  7.432518556670311E-007
  7.432518556690547E-007
  4.562992485109827E-007
  4.562992485359342E-007
  4.562992485303608E-007
  4.562992485391983E-007
  4.562992485349474E-007
  4.562992485280345E-007
  4.562992485339248E-007
  4.562992485232875E-007
  4.562992485326446E-007
  4.562992485438906E-007
  4.562992485310525E-007
  4.562992485304142E-007
  4.562992485293328E-007
  4.562992485299399E-007
  4.562992485277654E-007
  1.584574415213403E-007
  1.584574414865552E-007
  1.584574415001759E-007
  1.584574415091145E-007
  1.584574415100893E-007
  1.584574414913108E-007
  1.584574415013214E-007
  1.584574415006657E-007
  1.584574415052190E-007
  1.584574415072788E-007
  1.584574414955626E-007
  1.584574415056311E-007
  1.584574415021234E-007
  1.584574415021671E-007
  1.584574415083741E-007
 -1.501253475238048E-007
 -1.501253475249059E-007
 -1.501253475224587E-007
 -1.501253475384171E-007
 -1.501253475346284E-007
 -1.501253475223542E-007
 -1.501253475195847E-007
 -1.501253475341487E-007
 -1.501253475164868E-007
 -1.501253475233614E-007
 -1.501253475181116E-007
 -1.501253475250153E-007
 -1.501253475296560E-007
 -1.501253475304317E-007
 -1.501253475300340E-007
 -4.692751436103751E-007
 -4.692751436158605E-007
 -4.692751436124088E-007
 -4.692751436175019E-007
 -4.692751436176401E-007
 -4.692751436173758E-007
 -4.692751436106138E-007
 -4.692751436159146E-007
 -4.692751436188353E-007
 -4.692751436150173E-007
 -4.692751436116889E-007
 -4.692751436140362E-007
 -4.692751436165082E-007
 -4.692751436089344E-007
 -4.692751436145543E-007
 -7.987895491713895E-007
 -7.987895491602035E-007
 -7.987895491679005E-007
 -7.987895491584518E-007
 -7.987895491753688E-007
 -7.987895491662038E-007
 -7.987895491690135E-007
 -7.987895491617193E-007
 -7.987895491588467E-007
 -7.987895491644413E-007
 -7.987895491669337E-007
 -7.987895491588826E-007
 -7.987895491733764E-007
 -7.987895491753271E-007
 -7.987895491695407E-007
 -1.138434911217798E-006
 -1.138434911214336E-006
 -1.138434911224457E-006
 -1.138434911210115E-006
 -1.138434911229651E-006
 -1.138434911224056E-006
 -1.138434911222224E-006
 -1.138434911221382E-006
 -1.138434911227850E-006
 -1.138434911229610E-006
 -1.138434911229084E-006
 -1.138434911224591E-006
 -1.138434911219976E-006
 -1.138434911218383E-006
 -1.138434911224645E-006
 -1.487943316599852E-006
 -1.487943316587678E-006
 -1.487943316593151E-006
 -1.487943316591365E-006
 -1.487943316600991E-006
 -1.487943316591230E-006
 -1.487943316585279E-006
 -1.487943316592963E-006
 -1.487943316595423E-006
 -1.487943316590739E-006
 -1.487943316591929E-006
 -1.487943316596147E-006
 -1.487943316589888E-006
 -1.487943316592188E-006
 -1.487943316594127E-006
 -1.847009410390923E-006
 -1.847009410378690E-006
 -1.847009410392847E-006
 -1.847009410376372E-006
 -1.847009410391925E-006
 -1.847009410382176E-006
 -1.847009410389025E-006
 -1.847009410395869E-006
 -1.847009410384600E-006
 -1.847009410387975E-006
 -1.847009410382749E-006
 -1.847009410379225E-006
 -1.847009410379696E-006
 -1.847009410386673E-006
 -1.847009410381765E-006
 -2.215287034386604E-006
 -2.215287034366369E-006
 -2.215287034381467E-006
 -2.215287034368188E-006
 -2.215287034380504E-006
 -2.215287034382729E-006
 -2.215287034381331E-006
 -2.215287034374875E-006
 -2.215287034369294E-006
 -2.215287034372618E-006
 -2.215287034377942E-006
 -2.215287034367081E-006
 -2.215287034369996E-006
 -2.215287034379216E-006
 -2.215287034369164E-006
 -2.592385682504660E-006
 -2.592385682476458E-006
 -2.592385682494940E-006
 -2.592385682506532E-006
 -2.592385682492529E-006
 -2.592385682481267E-006
 -2.592385682482607E-006
 -2.592385682473655E-006
 -2.592385682487003E-006
 -2.592385682497545E-006
 -2.592385682495184E-006
 -2.592385682499073E-006
 -2.592385682493361E-006
 -2.592385682492479E-006
 -2.592385682502073E-006
 -2.977866772000560E-006
 -2.977866771952057E-006
 -2.977866771968121E-006
 -2.977866771968617E-006
 -2.977866771964519E-006
 -2.977866771957246E-006
 -2.977866771979345E-006
 -2.977866771967643E-006
 -2.977866771966603E-006
 -2.977866771961560E-006
 -2.977866771960311E-006
 -2.977866771964999E-006
 -2.977866771967624E-006
 -2.977866771962919E-006
 -2.977866771964417E-006
 -3.371239730364502E-006
 -3.371239730378795E-006
 -3.371239730387300E-006
 -3.371239730363386E-006
 -3.371239730369464E-006
 -3.371239730366681E-006
 -3.371239730366457E-006
 -3.371239730365190E-006
 -3.371239730364025E-006
 -3.371239730368995E-006
 -3.371239730371131E-006
 -3.371239730374085E-006
 -3.371239730359008E-006
 -3.371239730371998E-006
 -3.371239730378519E-006
 -3.771957900153987E-006
 -3.771957900188686E-006
 -3.771957900170594E-006
 -3.771957900168087E-006
 -3.771957900190428E-006
 -3.771957900182844E-006
 -3.771957900178154E-006
 -3.771957900170871E-006
 -3.771957900184068E-006
 -3.771957900185619E-006
 -3.771957900179712E-006
 -3.771957900186239E-006
 -3.771957900177541E-006
 -3.771957900176733E-006
 -3.771957900182137E-006
 -4.179414265108570E-006
 -4.179414265137402E-006
 -4.179414265133637E-006
 -4.179414265118399E-006
 -4.179414265118770E-006
 -4.179414265122549E-006
 -4.179414265135613E-006
 -4.179414265130024E-006
 -4.179414265135620E-006
 -4.179414265135249E-006
 -4.179414265140919E-006
 -4.179414265125732E-006
 -4.179414265133859E-006
 -4.179414265136272E-006
 -4.179414265124586E-006
 -4.592937004907290E-006
 -4.592937004914731E-006
 -4.592937004893665E-006
 -4.592937004898540E-006
 -4.592937004896949E-006
 -4.592937004892827E-006
 -4.592937004908027E-006
 -4.592937004889194E-006
 -4.592937004900775E-006
 -4.592937004903583E-006
 -4.592937004899529E-006
 -4.592937004897407E-006
 -4.592937004900435E-006
 -4.592937004895253E-006
 -4.592937004902823E-006
 -5.011784887905323E-006
 -5.011784887919090E-006
 -5.011784887889603E-006
 -5.011784887898792E-006
 -5.011784887906944E-006
 -5.011784887902934E-006
 -5.011784887891204E-006
 -5.011784887905875E-006
 -5.011784887888687E-006
 -5.011784887907627E-006
 -5.011784887903220E-006
 -5.011784887900660E-006
 -5.011784887906049E-006
 -5.011784887901302E-006
 -5.011784887893442E-006
 -5.435142515357918E-006
 -5.435142515373046E-006
 -5.435142515354506E-006
 -5.435142515351281E-006
 -5.435142515349800E-006
 -5.435142515360789E-006
 -5.435142515355982E-006
 -5.435142515336634E-006
 -5.435142515348915E-006
 -5.435142515359250E-006
 -5.435142515355784E-006
 -5.435142515356161E-006
 -5.435142515356636E-006
 -5.435142515354271E-006
 -5.435142515347303E-006
 -5.862115434272466E-006
 -5.862115434308340E-006
 -5.862115434302315E-006
 -5.862115434297460E-006
 -5.862115434296869E-006
 -5.862115434299950E-006
 -5.862115434303386E-006
 -5.862115434315023E-006
 -5.862115434305897E-006
 -5.862115434293249E-006
 -5.862115434298627E-006
 -5.862115434302666E-006
 -5.862115434293552E-006
 -5.862115434295820E-006
 -5.862115434297335E-006
 -6.291725141655277E-006
 -6.291725141668273E-006
 -6.291725141676180E-006
 -6.291725141670859E-006
 -6.291725141674508E-006
 -6.291725141669735E-006
 -6.291725141667371E-006
 -6.291725141659808E-006
 -6.291725141669313E-006
 -6.291725141689235E-006
 -6.291725141664173E-006
 -6.291725141684022E-006
 -6.291725141680624E-006
 -6.291725141663970E-006
 -6.291725141677560E-006
 -6.722904007552676E-006
 -6.722904007548402E-006
 -6.722904007541510E-006
 -6.722904007539354E-006
 -6.722904007532338E-006
 -6.722904007554316E-006
 -6.722904007547007E-006
 -6.722904007542616E-006
 -6.722904007542328E-006
 -6.722904007528313E-006
 -6.722904007544327E-006
 -6.722904007534418E-006
 -6.722904007540986E-006
 -6.722904007540584E-006
 -6.722904007540530E-006
 -7.154490151746149E-006
 -7.154490151772212E-006
 -7.154490151756774E-006
 -7.154490151765421E-006
 -7.154490151755488E-006
 -7.154490151763773E-006
 -7.154490151771980E-006
 -7.154490151772354E-006
 -7.154490151759877E-006
 -7.154490151757142E-006
 -7.154490151761033E-006
 -7.154490151757426E-006
 -7.154490151751972E-006
 -7.154490151759811E-006
 -7.154490151759328E-006
 -7.585222315801351E-006
 -7.585222315798021E-006
 -7.585222315808936E-006
 -7.585222315783370E-006
 -7.585222315792353E-006
 -7.585222315787908E-006
 -7.585222315786432E-006
 -7.585222315800001E-006
 -7.585222315801056E-006
 -7.585222315793925E-006
 -7.585222315790846E-006
 -7.585222315792240E-006
 -7.585222315791017E-006
 -7.585222315805335E-006
 -7.585222315794667E-006
 -8.013734779713076E-006
 -8.013734779707051E-006
 -8.013734779712218E-006
 -8.013734779711205E-006
 -8.013734779708077E-006
 -8.013734779713190E-006
 -8.013734779723424E-006
 -8.013734779719070E-006
 -8.013734779711616E-006
 -8.013734779704169E-006
 -8.013734779705062E-006
 -8.013734779706900E-006
 -8.013734779708902E-006
 -8.013734779721154E-006
 -8.013734779716837E-006
 -8.438552383932489E-006
 -8.438552383923043E-006
 -8.438552383932887E-006
 -8.438552383925892E-006
 -8.438552383910239E-006
 -8.438552383926678E-006
 -8.438552383937476E-006
 -8.438552383925360E-006
 -8.438552383919041E-006
 -8.438552383937412E-006
 -8.438552383932706E-006
 -8.438552383945010E-006
 -8.438552383929589E-006
 -8.438552383916304E-006
 -8.438552383917491E-006
 -8.858085725888724E-006
 -8.858085725854841E-006
 -8.858085725880054E-006
 -8.858085725874542E-006
 -8.858085725898326E-006
 -8.858085725890369E-006
 -8.858085725862167E-006
 -8.858085725879688E-006
 -8.858085725889155E-006
 -8.858085725869924E-006
 -8.858085725875914E-006
 -8.858085725878818E-006
 -8.858085725883397E-006
 -8.858085725876429E-006
 -8.858085725897053E-006
 -9.270626613638584E-006
 -9.270626613639668E-006
 -9.270626613633505E-006
 -9.270626613611934E-006
 -9.270626613634459E-006
 -9.270626613626056E-006
 -9.270626613647215E-006
 -9.270626613631679E-006
 -9.270626613625333E-006
 -9.270626613635726E-006
 -9.270626613630852E-006
 -9.270626613637220E-006
 -9.270626613630644E-006
 -9.270626613634757E-006
 -9.270626613632760E-006
 -9.674343872057883E-006
 -9.674343872037842E-006
 -9.674343872041365E-006
 -9.674343872046268E-006
 -9.674343872052362E-006
 -9.674343872053847E-006
 -9.674343872030383E-006
 -9.674343872049351E-006
 -9.674343872057823E-006
 -9.674343872053044E-006
 -9.674343872047666E-006
 -9.674343872058311E-006
 -9.674343872056737E-006
 -9.674343872056019E-006
 -9.674343872054555E-006
 -1.006727961144875E-005
 -1.006727961143105E-005
 -1.006727961143895E-005
 -1.006727961143703E-005
 -1.006727961145899E-005
 -1.006727961144595E-005
 -1.006727961143757E-005
 -1.006727961143301E-005
 -1.006727961142691E-005
 -1.006727961143918E-005
 -1.006727961144525E-005
 -1.006727961143897E-005
 -1.006727961144308E-005
 -1.006727961143867E-005
 -1.006727961143267E-005
 -1.044734608541081E-005
 -1.044734608539740E-005
 -1.044734608541689E-005
 -1.044734608538508E-005
 -1.044734608539420E-005
 -1.044734608538580E-005
 -1.044734608540596E-005
 -1.044734608540046E-005
 -1.044734608539754E-005
 -1.044734608539313E-005
 -1.044734608538812E-005
 -1.044734608538459E-005
 -1.044734608539256E-005
 -1.044734608539658E-005
 -1.044734608539695E-005
 -1.081232328186922E-005
 -1.081232328188980E-005
 -1.081232328189403E-005
 -1.081232328188689E-005
 -1.081232328188504E-005
 -1.081232328186445E-005
 -1.081232328186658E-005
 -1.081232328187409E-005
 -1.081232328187384E-005
 -1.081232328189013E-005
 -1.081232328187012E-005
 -1.081232328187710E-005
 -1.081232328187567E-005
 -1.081232328186823E-005
 -1.081232328188242E-005
 -1.115985741093956E-005
 -1.115985741093009E-005
 -1.115985741095210E-005
 -1.115985741095538E-005
 -1.115985741093148E-005
 -1.115985741095996E-005
 -1.115985741096281E-005
 -1.115985741096306E-005
 -1.115985741095446E-005
 -1.115985741096286E-005
 -1.115985741096329E-005
 -1.115985741096422E-005
 -1.115985741095106E-005
 -1.115985741094828E-005
 -1.115985741092755E-005
 -1.148746047379031E-005
 -1.148746047377868E-005
 -1.148746047377831E-005
 -1.148746047376332E-005
 -1.148746047378609E-005
 -1.148746047378539E-005
 -1.148746047377714E-005
 -1.148746047377580E-005
 -1.148746047375766E-005
 -1.148746047377496E-005
 -1.148746047377196E-005
 -1.148746047378128E-005
 -1.148746047378258E-005
 -1.148746047378334E-005
 -1.148746047377527E-005
 -1.179251111876007E-005
 -1.179251111874456E-005
 -1.179251111876309E-005
 -1.179251111874303E-005
 -1.179251111875210E-005
 -1.179251111874044E-005
 -1.179251111875587E-005
 -1.179251111875456E-005
 -1.179251111873782E-005
 -1.179251111874835E-005
 -1.179251111874867E-005
 -1.179251111874464E-005
 -1.179251111873677E-005
 -1.179251111875044E-005
 -1.179251111875807E-005
 -1.207225701464493E-005
 -1.207225701463348E-005
 -1.207225701462996E-005
 -1.207225701465151E-005
 -1.207225701462695E-005
 -1.207225701464207E-005
 -1.207225701462323E-005
 -1.207225701461616E-005
 -1.207225701465002E-005
 -1.207225701463014E-005
 -1.207225701462623E-005
 -1.207225701463923E-005
 -1.207225701463459E-005
 -1.207225701462679E-005
 -1.207225701463769E-005
 -1.232381899419339E-005
 -1.232381899418259E-005
 -1.232381899417755E-005
 -1.232381899419695E-005
 -1.232381899418639E-005
 -1.232381899418640E-005
 -1.232381899418225E-005
 -1.232381899418556E-005
 -1.232381899417562E-005
 -1.232381899418043E-005
 -1.232381899417153E-005
 -1.232381899418878E-005
 -1.232381899419340E-005
 -1.232381899417355E-005
 -1.232381899418781E-005
 -1.254419724616549E-005
 -1.254419724615916E-005
 -1.254419724616164E-005
 -1.254419724615167E-005
 -1.254419724614655E-005
 -1.254419724617719E-005
 -1.254419724616260E-005
 -1.254419724616572E-005
 -1.254419724614663E-005
 -1.254419724617342E-005
 -1.254419724616268E-005
 -1.254419724616656E-005
 -1.254419724617751E-005
 -1.254419724617858E-005
 -1.254419724617734E-005
 -1.273027985786282E-005
 -1.273027985790159E-005
 -1.273027985789659E-005
 -1.273027985790742E-005
 -1.273027985788357E-005
 -1.273027985788581E-005
 -1.273027985788613E-005
 -1.273027985788142E-005
 -1.273027985788382E-005
 -1.273027985788742E-005
 -1.273027985788602E-005
 -1.273027985789890E-005
 -1.273027985788620E-005
 -1.273027985788835E-005
 -1.273027985787531E-005
 -1.287885403346045E-005
 -1.287885403346166E-005
 -1.287885403345449E-005
 -1.287885403346732E-005
 -1.287885403346503E-005
 -1.287885403346105E-005
 -1.287885403345891E-005
 -1.287885403346549E-005
 -1.287885403346645E-005
 -1.287885403346940E-005
 -1.287885403345969E-005
 -1.287885403346433E-005
 -1.287885403346007E-005
 -1.287885403346072E-005
 -1.287885403346334E-005
 -1.298662033371384E-005
 -1.298662033371649E-005
 -1.298662033371017E-005
 -1.298662033371044E-005
 -1.298662033372930E-005
 -1.298662033370046E-005
 -1.298662033371271E-005
 -1.298662033370306E-005
 -1.298662033369261E-005
 -1.298662033370877E-005
 -1.298662033370459E-005
 -1.298662033373648E-005
 -1.298662033371552E-005
 -1.298662033371194E-005
 -1.298662033372838E-005
 -1.305021030127144E-005
 -1.305021030130299E-005
 -1.305021030129625E-005
 -1.305021030128722E-005
 -1.305021030130239E-005
 -1.305021030129391E-005
 -1.305021030129712E-005
 -1.305021030128008E-005
 -1.305021030128762E-005
 -1.305021030127912E-005
 -1.305021030129512E-005
 -1.305021030128544E-005
 -1.305021030128311E-005
 -1.305021030128681E-005
 -1.305021030129591E-005
 -1.306620784632070E-005
 -1.306620784631229E-005
 -1.306620784632506E-005
 -1.306620784630465E-005
 -1.306620784631202E-005
 -1.306620784634364E-005
 -1.306620784634662E-005
 -1.306620784633127E-005
 -1.306620784635104E-005
 -1.306620784634667E-005
 -1.306620784631558E-005
 -1.306620784633659E-005
 -1.306620784633620E-005
 -1.306620784633931E-005
 -1.306620784633676E-005
 -1.303117477289081E-005
 -1.303117477284562E-005
 -1.303117477287626E-005
 -1.303117477285895E-005
 -1.303117477284660E-005
 -1.303117477286486E-005
 -1.303117477284595E-005
 -1.303117477286018E-005
 -1.303117477287422E-005
 -1.303117477285129E-005
 -1.303117477287575E-005
 -1.303117477286848E-005
 -1.303117477288496E-005
 -1.303117477287716E-005
 -1.303117477286228E-005
 -1.294168082049395E-005
 -1.294168082049738E-005
 -1.294168082051031E-005
 -1.294168082049157E-005
 -1.294168082049532E-005
 -1.294168082053116E-005
 -1.294168082053149E-005
 -1.294168082053139E-005
 -1.294168082051778E-005
 -1.294168082051146E-005
 -1.294168082050567E-005
 -1.294168082050186E-005
 -1.294168082050158E-005
 -1.294168082048109E-005
 -1.294168082052065E-005
 -1.279433857700983E-005
 -1.279433857700624E-005
 -1.279433857698956E-005
 -1.279433857698119E-005
 -1.279433857699272E-005
 -1.279433857699225E-005
 -1.279433857699769E-005
 -1.279433857699889E-005
 -1.279433857699813E-005
 -1.279433857699448E-005
 -1.279433857700196E-005
 -1.279433857698108E-005
 -1.279433857701142E-005
 -1.279433857699344E-005
 -1.279433857700632E-005
 -1.258584358118432E-005
 -1.258584358119231E-005
 -1.258584358119131E-005
 -1.258584358118742E-005
 -1.258584358120392E-005
 -1.258584358119150E-005
 -1.258584358115105E-005
 -1.258584358116762E-005
 -1.258584358119007E-005
 -1.258584358119677E-005
 -1.258584358120297E-005
 -1.258584358118991E-005
 -1.258584358118401E-005
 -1.258584358117789E-005
 -1.258584358117897E-005
 -1.231301987778113E-005
 -1.231301987777706E-005
 -1.231301987776067E-005
 -1.231301987776613E-005
 -1.231301987777139E-005
 -1.231301987778351E-005
 -1.231301987779552E-005
 -1.231301987778511E-005
 -1.231301987779450E-005
 -1.231301987776015E-005
 -1.231301987776882E-005
 -1.231301987776232E-005
 -1.231301987777443E-005
 -1.231301987778076E-005
 -1.231301987778049E-005
 -1.197287119995357E-005
 -1.197287119995149E-005
 -1.197287119997778E-005
 -1.197287119997696E-005
 -1.197287119994107E-005
 -1.197287119996756E-005
 -1.197287119997032E-005
 -1.197287119998963E-005
 -1.197287119997807E-005
 -1.197287119997058E-005
 -1.197287119996236E-005
 -1.197287119996506E-005
 -1.197287119995577E-005
 -1.197287119999117E-005
 -1.197287119996863E-005
 -1.156263783745357E-005
 -1.156263783744785E-005
 -1.156263783744733E-005
 -1.156263783746652E-005
 -1.156263783746559E-005
 -1.156263783746600E-005
 -1.156263783744176E-005
 -1.156263783744369E-005
 -1.156263783744894E-005
 -1.156263783744940E-005
 -1.156263783744104E-005
 -1.156263783744770E-005
 -1.156263783744018E-005
 -1.156263783743526E-005
 -1.156263783744689E-005
 -1.107985908823301E-005
 -1.107985908822926E-005
 -1.107985908824592E-005
 -1.107985908824936E-005
 -1.107985908825267E-005
 -1.107985908826878E-005
 -1.107985908825596E-005
 -1.107985908825785E-005
 -1.107985908825636E-005
 -1.107985908825710E-005
 -1.107985908824020E-005
 -1.107985908824207E-005
 -1.107985908824036E-005
 -1.107985908822609E-005
 -1.107985908822734E-005
 -1.052244098701804E-005
 -1.052244098701908E-005
 -1.052244098702578E-005
 -1.052244098702894E-005
 -1.052244098701868E-005
 -1.052244098703741E-005
 -1.052244098704441E-005
 -1.052244098704087E-005
 -1.052244098704122E-005
 -1.052244098701845E-005
 -1.052244098704090E-005
 -1.052244098704454E-005
 -1.052244098703560E-005
 -1.052244098704101E-005
 -1.052244098705836E-005
 -9.888728739765500E-006
 -9.888728739767269E-006
 -9.888728739764926E-006
 -9.888728739795404E-006
 -9.888728739761372E-006
 -9.888728739769054E-006
 -9.888728739773181E-006
 -9.888728739786629E-006
 -9.888728739789969E-006
 -9.888728739769600E-006
 -9.888728739770650E-006
 -9.888728739766196E-006
 -9.888728739786344E-006
 -9.888728739775263E-006
 -9.888728739791194E-006
 -9.177582970183009E-006
 -9.177582970207132E-006
 -9.177582970188196E-006
 -9.177582970181345E-006
 -9.177582970211110E-006
 -9.177582970206773E-006
 -9.177582970206170E-006
 -9.177582970165855E-006
 -9.177582970190014E-006
 -9.177582970211964E-006
 -9.177582970205330E-006
 -9.177582970201528E-006
 -9.177582970173814E-006
 -9.177582970197849E-006
 -9.177582970192275E-006
 -8.388458488719729E-006
 -8.388458488701020E-006
 -8.388458488720688E-006
 -8.388458488710917E-006
 -8.388458488727717E-006
 -8.388458488707852E-006
 -8.388458488714579E-006
 -8.388458488724087E-006
 -8.388458488701413E-006
 -8.388458488698838E-006
 -8.388458488708826E-006
 -8.388458488714871E-006
 -8.388458488703302E-006
 -8.388458488701510E-006
 -8.388458488731984E-006
 -7.521483824064049E-006
 -7.521483824067436E-006
 -7.521483824049593E-006
 -7.521483824047688E-006
 -7.521483824053094E-006
 -7.521483824040331E-006
 -7.521483824074154E-006
 -7.521483824058957E-006
 -7.521483824073507E-006
 -7.521483824075548E-006
 -7.521483824072577E-006
 -7.521483824078099E-006
 -7.521483824075403E-006
 -7.521483824048710E-006
 -7.521483824056063E-006
 -6.577539211739696E-006
 -6.577539211766767E-006
 -6.577539211761698E-006
 -6.577539211777360E-006
 -6.577539211772098E-006
 -6.577539211742020E-006
 -6.577539211756720E-006
 -6.577539211766707E-006
 -6.577539211763607E-006
 -6.577539211755986E-006
 -6.577539211768185E-006
 -6.577539211772675E-006
 -6.577539211755453E-006
 -6.577539211775954E-006
 -6.577539211763117E-006
 -5.558330116144222E-006
 -5.558330116156346E-006
 -5.558330116169653E-006
 -5.558330116154790E-006
 -5.558330116170662E-006
 -5.558330116165654E-006
 -5.558330116162719E-006
 -5.558330116168722E-006
 -5.558330116161479E-006
 -5.558330116150479E-006
 -5.558330116131413E-006
 -5.558330116145725E-006
 -5.558330116138474E-006
 -5.558330116140504E-006
 -5.558330116132923E-006
 -4.466452686254804E-006
 -4.466452686269534E-006
 -4.466452686268320E-006
 -4.466452686257866E-006
 -4.466452686284841E-006
 -4.466452686284086E-006
 -4.466452686260633E-006
 -4.466452686252861E-006
 -4.466452686259303E-006
 -4.466452686273331E-006
 -4.466452686253229E-006
 -4.466452686239434E-006
 -4.466452686253547E-006
 -4.466452686264673E-006
 -4.466452686282617E-006
 -3.305446841685828E-006
 -3.305446841693325E-006
 -3.305446841694880E-006
 -3.305446841686508E-006
 -3.305446841674930E-006
 -3.305446841666412E-006
 -3.305446841678115E-006
 -3.305446841708333E-006
 -3.305446841701991E-006
 -3.305446841701821E-006
 -3.305446841728516E-006
 -3.305446841697240E-006
 -3.305446841694011E-006
 -3.305446841693337E-006
 -3.305446841703171E-006
 -2.079832000947585E-006
 -2.079832000944264E-006
 -2.079832000962055E-006
 -2.079832000979611E-006
 -2.079832000964637E-006
 -2.079832000951241E-006
 -2.079832000984665E-006
 -2.079832000975104E-006
 -2.079832000976010E-006
 -2.079832000994191E-006
 -2.079832000976984E-006
 -2.079832000972338E-006
 -2.079832000987687E-006
 -2.079832000960047E-006
 -2.079832000974110E-006
 -7.951198825486322E-007
 -7.951198825471489E-007
 -7.951198825409372E-007
 -7.951198825305295E-007
 -7.951198825568493E-007
 -7.951198825482825E-007
 -7.951198825562757E-007
 -7.951198825411485E-007
 -7.951198825389401E-007
 -7.951198825270715E-007
 -7.951198825299850E-007
 -7.951198825508648E-007
 -7.951198825344061E-007
 -7.951198825557902E-007
 -7.951198825482717E-007
  5.422015449937033E-007
  5.422015449728822E-007
  5.422015449730815E-007
  5.422015450057578E-007
  5.422015449806102E-007
  5.422015450012685E-007
  5.422015450053029E-007
  5.422015450039566E-007
  5.422015449981288E-007
  5.422015449819864E-007
  5.422015449853517E-007
  5.422015449686423E-007
  5.422015449870335E-007
  5.422015449780522E-007
  5.422015449768467E-007
  1.924718825613580E-006
  1.924718825621126E-006
  1.924718825613975E-006
  1.924718825620696E-006
  1.924718825625122E-006
  1.924718825638065E-006
  1.924718825619502E-006
  1.924718825619367E-006
  1.924718825633111E-006
  1.924718825622647E-006
  1.924718825609119E-006
  1.924718825637150E-006
  1.924718825616015E-006
  1.924718825622756E-006
  1.924718825626082E-006
  3.344183597693716E-006
  3.344183597681771E-006
  3.344183597712817E-006
  3.344183597697469E-006
  3.344183597693320E-006
  3.344183597692403E-006
  3.344183597698955E-006
  3.344183597692420E-006
  3.344183597695025E-006
  3.344183597686879E-006
  3.344183597695303E-006
  3.344183597694998E-006
  3.344183597693839E-006
  3.344183597704267E-006
  3.344183597709939E-006
  4.791646253339930E-006
  4.791646253329844E-006
  4.791646253323288E-006
  4.791646253332765E-006
  4.791646253345777E-006
  4.791646253326197E-006
  4.791646253333379E-006
  4.791646253352533E-006
  4.791646253343334E-006
  4.791646253345304E-006
  4.791646253345047E-006
  4.791646253341365E-006
  4.791646253343400E-006
  4.791646253354654E-006
  4.791646253359744E-006
  6.257632423672230E-006
  6.257632423675202E-006
  6.257632423650694E-006
  6.257632423650342E-006
  6.257632423660661E-006
  6.257632423661067E-006
  6.257632423646302E-006
  6.257632423646356E-006
  6.257632423668438E-006
  6.257632423665238E-006
  6.257632423661909E-006
  6.257632423655197E-006
  6.257632423661457E-006
  6.257632423659426E-006
  6.257632423645755E-006
SCALARS poroP double 
LOOKUP_TABLE default
  0.000000000000000E+000
  0.000000000000000E+000
  0.000000000000000E+000
  0.000000000000000E+000
  0.000000000000000E+000
  0.000000000000000E+000
  0.000000000000000E+000
  0.000000000000000E+000
  0.000000000000000E+000
  0.000000000000000E+000
  0.000000000000000E+000
  0.000000000000000E+000
  0.000000000000000E+000
  0.000000000000000E+000
  0.000000000000000E+000
  0.000000000000000E+000
  0.000000000000000E+000
  0.000000000000000E+000
  0.000000000000000E+000
  0.000000000000000E+000
  0.000000000000000E+000
  0.000000000000000E+000
  0.000000000000000E+000
  0.000000000000000E+000
  0.000000000000000E+000
  0.000000000000000E+000
  0.000000000000000E+000
  0.000000000000000E+000
  0.000000000000000E+000
  0.000000000000000E+000
  0.000000000000000E+000
  0.000000000000000E+000
  0.000000000000000E+000
  0.000000000000000E+000
  0.000000000000000E+000
  0.000000000000000E+000
  0.000000000000000E+000
  0.000000000000000E+000
  0.000000000000000E+000
  0.000000000000000E+000
  0.000000000000000E+000
  0.000000000000000E+000
  0.000000000000000E+000
  0.000000000000000E+000
  0.000000000000000E+000
  0.000000000000000E+000
  0.000000000000000E+000
  0.000000000000000E+000
  0.000000000000000E+000
  0.000000000000000E+000
  0.000000000000000E+000
  0.000000000000000E+000
  0.000000000000000E+000
  0.000000000000000E+000
  0.000000000000000E+000
  0.000000000000000E+000
  0.000000000000000E+000
  0.000000000000000E+000
  0.000000000000000E+000
  0.000000000000000E+000
  0.000000000000000E+000
  0.000000000000000E+000
  0.000000000000000E+000
  0.000000000000000E+000
  0.000000000000000E+000
  0.000000000000000E+000
  0.000000000000000E+000
  0.000000000000000E+000
  0.000000000000000E+000
  0.000000000000000E+000
  0.000000000000000E+000
  0.000000000000000E+000
  0.000000000000000E+000
  0.000000000000000E+000
  0.000000000000000E+000
  0.000000000000000E+000
  0.000000000000000E+000
  0.000000000000000E+000
  0.000000000000000E+000
  0.000000000000000E+000
  0.000000000000000E+000
  0.000000000000000E+000
  0.000000000000000E+000
  0.000000000000000E+000
  0.000000000000000E+000
  0.000000000000000E+000
  0.000000000000000E+000
  0.000000000000000E+000
  0.000000000000000E+000
  0.000000000000000E+000
  0.000000000000000E+000
  0.000000000000000E+000
  0.000000000000000E+000
  0.000000000000000E+000
  0.000000000000000E+000
  0.000000000000000E+000
  0.000000000000000E+000
  0.000000000000000E+000
  0.000000000000000E+000
  0.000000000000000E+000
  0.000000000000000E+000
  0.000000000000000E+000
  0.000000000000000E+000
  0.000000000000000E+000
  0.000000000000000E+000
  0.000000000000000E+000
  0.000000000000000E+000
  0.000000000000000E+000
  0.000000000000000E+000
  0.000000000000000E+000
  0.000000000000000E+000
  0.000000000000000E+000
  0.000000000000000E+000
  0.000000000000000E+000
  0.000000000000000E+000
  0.000000000000000E+000
  0.000000000000000E+000
  0.000000000000000E+000
  0.000000000000000E+000
  0.000000000000000E+000
  0.000000000000000E+000
  0.000000000000000E+000
  0.000000000000000E+000
  0.000000000000000E+000
  0.000000000000000E+000
  0.000000000000000E+000
  0.000000000000000E+000
  0.000000000000000E+000
  0.000000000000000E+000
  0.000000000000000E+000
  0.000000000000000E+000
  0.000000000000000E+000
  0.000000000000000E+000
  0.000000000000000E+000
  0.000000000000000E+000
  0.000000000000000E+000
  0.000000000000000E+000
  0.000000000000000E+000
  0.000000000000000E+000
  0.000000000000000E+000
  0.000000000000000E+000
  0.000000000000000E+000
  0.000000000000000E+000
  0.000000000000000E+000
  0.000000000000000E+000
  0.000000000000000E+000
  0.000000000000000E+000
  0.000000000000000E+000
  0.000000000000000E+000
  0.000000000000000E+000
  0.000000000000000E+000
  0.000000000000000E+000
  0.000000000000000E+000
  0.000000000000000E+000
  0.000000000000000E+000
  0.000000000000000E+000
  0.000000000000000E+000
  0.000000000000000E+000
  0.000000000000000E+000
  0.000000000000000E+000
  0.000000000000000E+000
  0.000000000000000E+000
  0.000000000000000E+000
  0.000000000000000E+000
  0.000000000000000E+000
  0.000000000000000E+000
  0.000000000000000E+000
  0.000000000000000E+000
  0.000000000000000E+000
  0.000000000000000E+000
  0.000000000000000E+000
  0.000000000000000E+000
  0.000000000000000E+000
  0.000000000000000E+000
  0.000000000000000E+000
  0.000000000000000E+000
  0.000000000000000E+000
  0.000000000000000E+000
  0.000000000000000E+000
  0.000000000000000E+000
  0.000000000000000E+000
  0.000000000000000E+000
  0.000000000000000E+000
  0.000000000000000E+000
  0.000000000000000E+000
  0.000000000000000E+000
  0.000000000000000E+000
  0.000000000000000E+000
  0.000000000000000E+000
  0.000000000000000E+000
  0.000000000000000E+000
  0.000000000000000E+000
  0.000000000000000E+000
  0.000000000000000E+000
  0.000000000000000E+000
  0.000000000000000E+000
  0.000000000000000E+000
  0.000000000000000E+000
  0.000000000000000E+000
  0.000000000000000E+000
  0.000000000000000E+000
  0.000000000000000E+000
  0.000000000000000E+000
  0.000000000000000E+000
  0.000000000000000E+000
  0.000000000000000E+000
  0.000000000000000E+000
  0.000000000000000E+000
  0.000000000000000E+000
  0.000000000000000E+000
  0.000000000000000E+000
  0.000000000000000E+000
  0.000000000000000E+000
  0.000000000000000E+000
  0.000000000000000E+000
  0.000000000000000E+000
  0.000000000000000E+000
  0.000000000000000E+000
  0.000000000000000E+000
  0.000000000000000E+000
  0.000000000000000E+000
  0.000000000000000E+000
  0.000000000000000E+000
  0.000000000000000E+000
  0.000000000000000E+000
  0.000000000000000E+000
  0.000000000000000E+000
  0.000000000000000E+000
  0.000000000000000E+000
  0.000000000000000E+000
  0.000000000000000E+000
  0.000000000000000E+000
  0.000000000000000E+000
  0.000000000000000E+000
  0.000000000000000E+000
  0.000000000000000E+000
  0.000000000000000E+000
  0.000000000000000E+000
  0.000000000000000E+000
  0.000000000000000E+000
  0.000000000000000E+000
  0.000000000000000E+000
  0.000000000000000E+000
  0.000000000000000E+000
  0.000000000000000E+000
  0.000000000000000E+000
  0.000000000000000E+000
  0.000000000000000E+000
  0.000000000000000E+000
  0.000000000000000E+000
  0.000000000000000E+000
  0.000000000000000E+000
  0.000000000000000E+000
  0.000000000000000E+000
  0.000000000000000E+000
  0.000000000000000E+000
  0.000000000000000E+000
  0.000000000000000E+000
  0.000000000000000E+000
  0.000000000000000E+000
  0.000000000000000E+000
  0.000000000000000E+000
  0.000000000000000E+000
  0.000000000000000E+000
  0.000000000000000E+000
  0.000000000000000E+000
  0.000000000000000E+000
  0.000000000000000E+000
  0.000000000000000E+000
  0.000000000000000E+000
  0.000000000000000E+000
  0.000000000000000E+000
  0.000000000000000E+000
  0.000000000000000E+000
  0.000000000000000E+000
  0.000000000000000E+000
  0.000000000000000E+000
  0.000000000000000E+000
  0.000000000000000E+000
  0.000000000000000E+000
  0.000000000000000E+000
  0.000000000000000E+000
  0.000000000000000E+000
  0.000000000000000E+000
  0.000000000000000E+000
  0.000000000000000E+000
  0.000000000000000E+000
  0.000000000000000E+000
  0.000000000000000E+000
  0.000000000000000E+000
  0.000000000000000E+000
  0.000000000000000E+000
  0.000000000000000E+000
  0.000000000000000E+000
  0.000000000000000E+000
  0.000000000000000E+000
  0.000000000000000E+000
  0.000000000000000E+000
  0.000000000000000E+000
  0.000000000000000E+000
  0.000000000000000E+000
  0.000000000000000E+000
  0.000000000000000E+000
  0.000000000000000E+000
  0.000000000000000E+000
  0.000000000000000E+000
  0.000000000000000E+000
  0.000000000000000E+000
  0.000000000000000E+000
  0.000000000000000E+000
  0.000000000000000E+000
  0.000000000000000E+000
  0.000000000000000E+000
  0.000000000000000E+000
  0.000000000000000E+000
  0.000000000000000E+000
  0.000000000000000E+000
  0.000000000000000E+000
  0.000000000000000E+000
  0.000000000000000E+000
  0.000000000000000E+000
  0.000000000000000E+000
  0.000000000000000E+000
  0.000000000000000E+000
  0.000000000000000E+000
  0.000000000000000E+000
  0.000000000000000E+000
  0.000000000000000E+000
  0.000000000000000E+000
  0.000000000000000E+000
  0.000000000000000E+000
  0.000000000000000E+000
  0.000000000000000E+000
  0.000000000000000E+000
  0.000000000000000E+000
  0.000000000000000E+000
  0.000000000000000E+000
  0.000000000000000E+000
  0.000000000000000E+000
  0.000000000000000E+000
  0.000000000000000E+000
  0.000000000000000E+000
  0.000000000000000E+000
  0.000000000000000E+000
  0.000000000000000E+000
  0.000000000000000E+000
  0.000000000000000E+000
  0.000000000000000E+000
  0.000000000000000E+000
  0.000000000000000E+000
  0.000000000000000E+000
  0.000000000000000E+000
  0.000000000000000E+000
  0.000000000000000E+000
  0.000000000000000E+000
  0.000000000000000E+000
  0.000000000000000E+000
  0.000000000000000E+000
  0.000000000000000E+000
  0.000000000000000E+000
  0.000000000000000E+000
  0.000000000000000E+000
  0.000000000000000E+000
  0.000000000000000E+000
  0.000000000000000E+000
  0.000000000000000E+000
  0.000000000000000E+000
  0.000000000000000E+000
  0.000000000000000E+000
  0.000000000000000E+000
  0.000000000000000E+000
  0.000000000000000E+000
  0.000000000000000E+000
  0.000000000000000E+000
  0.000000000000000E+000
  0.000000000000000E+000
  0.000000000000000E+000
  0.000000000000000E+000
  0.000000000000000E+000
  0.000000000000000E+000
  0.000000000000000E+000
  0.000000000000000E+000
  0.000000000000000E+000
  0.000000000000000E+000
  0.000000000000000E+000
  0.000000000000000E+000
  0.000000000000000E+000
  0.000000000000000E+000
  0.000000000000000E+000
  0.000000000000000E+000
  0.000000000000000E+000
  0.000000000000000E+000
  0.000000000000000E+000
  0.000000000000000E+000
  0.000000000000000E+000
  0.000000000000000E+000
  0.000000000000000E+000
  0.000000000000000E+000
  0.000000000000000E+000
  0.000000000000000E+000
  0.000000000000000E+000
  0.000000000000000E+000
  0.000000000000000E+000
  0.000000000000000E+000
  0.000000000000000E+000
  0.000000000000000E+000
  0.000000000000000E+000
  0.000000000000000E+000
  0.000000000000000E+000
  0.000000000000000E+000
  0.000000000000000E+000
  0.000000000000000E+000
  0.000000000000000E+000
  0.000000000000000E+000
  0.000000000000000E+000
  0.000000000000000E+000
  0.000000000000000E+000
  0.000000000000000E+000
  0.000000000000000E+000
  0.000000000000000E+000
  0.000000000000000E+000
  0.000000000000000E+000
  0.000000000000000E+000
  0.000000000000000E+000
  0.000000000000000E+000
  0.000000000000000E+000
  0.000000000000000E+000
  0.000000000000000E+000
  0.000000000000000E+000
  0.000000000000000E+000
  0.000000000000000E+000
  0.000000000000000E+000
  0.000000000000000E+000
  0.000000000000000E+000
  0.000000000000000E+000
  0.000000000000000E+000
  0.000000000000000E+000
  0.000000000000000E+000
  0.000000000000000E+000
  0.000000000000000E+000
  0.000000000000000E+000
  0.000000000000000E+000
  0.000000000000000E+000
  0.000000000000000E+000
  0.000000000000000E+000
  0.000000000000000E+000
  0.000000000000000E+000
  0.000000000000000E+000
  0.000000000000000E+000
  0.000000000000000E+000
  0.000000000000000E+000
  0.000000000000000E+000
  0.000000000000000E+000
  0.000000000000000E+000
  0.000000000000000E+000
  0.000000000000000E+000
  0.000000000000000E+000
  0.000000000000000E+000
  0.000000000000000E+000
  0.000000000000000E+000
  0.000000000000000E+000
  0.000000000000000E+000
  0.000000000000000E+000
  0.000000000000000E+000
  0.000000000000000E+000
  0.000000000000000E+000
  0.000000000000000E+000
  0.000000000000000E+000
  0.000000000000000E+000
  0.000000000000000E+000
  0.000000000000000E+000
  0.000000000000000E+000
  0.000000000000000E+000
  0.000000000000000E+000
  0.000000000000000E+000
  0.000000000000000E+000
  0.000000000000000E+000
  0.000000000000000E+000
  0.000000000000000E+000
  0.000000000000000E+000
  0.000000000000000E+000
  0.000000000000000E+000
  0.000000000000000E+000
  0.000000000000000E+000
  0.000000000000000E+000
  0.000000000000000E+000
  0.000000000000000E+000
  0.000000000000000E+000
  0.000000000000000E+000
  0.000000000000000E+000
  0.000000000000000E+000
  0.000000000000000E+000
  0.000000000000000E+000
  0.000000000000000E+000
  0.000000000000000E+000
  0.000000000000000E+000
  0.000000000000000E+000
  0.000000000000000E+000
  0.000000000000000E+000
  0.000000000000000E+000
  0.000000000000000E+000
  0.000000000000000E+000
  0.000000000000000E+000
  0.000000000000000E+000
  0.000000000000000E+000
  0.000000000000000E+000
  0.000000000000000E+000
  0.000000000000000E+000
  0.000000000000000E+000
  0.000000000000000E+000
  0.000000000000000E+000
  0.000000000000000E+000
  0.000000000000000E+000
  0.000000000000000E+000
  0.000000000000000E+000
  0.000000000000000E+000
  0.000000000000000E+000
  0.000000000000000E+000
  0.000000000000000E+000
  0.000000000000000E+000
  0.000000000000000E+000
  0.000000000000000E+000
  0.000000000000000E+000
  0.000000000000000E+000
  0.000000000000000E+000
  0.000000000000000E+000
  0.000000000000000E+000
  0.000000000000000E+000
  0.000000000000000E+000
  0.000000000000000E+000
  0.000000000000000E+000
  0.000000000000000E+000
  0.000000000000000E+000
  0.000000000000000E+000
  0.000000000000000E+000
  0.000000000000000E+000
  0.000000000000000E+000
  0.000000000000000E+000
  0.000000000000000E+000
  0.000000000000000E+000
  0.000000000000000E+000
  0.000000000000000E+000
  0.000000000000000E+000
  0.000000000000000E+000
  0.000000000000000E+000
  0.000000000000000E+000
  0.000000000000000E+000
  0.000000000000000E+000
  0.000000000000000E+000
  0.000000000000000E+000
  0.000000000000000E+000
  0.000000000000000E+000
  0.000000000000000E+000
  0.000000000000000E+000
  0.000000000000000E+000
  0.000000000000000E+000
  0.000000000000000E+000
  0.000000000000000E+000
  0.000000000000000E+000
  0.000000000000000E+000
  0.000000000000000E+000
  0.000000000000000E+000
  0.000000000000000E+000
  0.000000000000000E+000
  0.000000000000000E+000
  0.000000000000000E+000
  0.000000000000000E+000
  0.000000000000000E+000
  0.000000000000000E+000
  0.000000000000000E+000
  0.000000000000000E+000
  0.000000000000000E+000
  0.000000000000000E+000
  0.000000000000000E+000
  0.000000000000000E+000
  0.000000000000000E+000
  0.000000000000000E+000
  0.000000000000000E+000
  0.000000000000000E+000
  0.000000000000000E+000
  0.000000000000000E+000
  0.000000000000000E+000
  0.000000000000000E+000
  0.000000000000000E+000
  0.000000000000000E+000
  0.000000000000000E+000
  0.000000000000000E+000
  0.000000000000000E+000
  0.000000000000000E+000
  0.000000000000000E+000
  0.000000000000000E+000
  0.000000000000000E+000
  0.000000000000000E+000
  0.000000000000000E+000
  0.000000000000000E+000
  0.000000000000000E+000
  0.000000000000000E+000
  0.000000000000000E+000
  0.000000000000000E+000
  0.000000000000000E+000
  0.000000000000000E+000
  0.000000000000000E+000
  0.000000000000000E+000
  0.000000000000000E+000
  0.000000000000000E+000
  0.000000000000000E+000
  0.000000000000000E+000
  0.000000000000000E+000
  0.000000000000000E+000
  0.000000000000000E+000
  0.000000000000000E+000
  0.000000000000000E+000
  0.000000000000000E+000
  0.000000000000000E+000
  0.000000000000000E+000
  0.000000000000000E+000
  0.000000000000000E+000
  0.000000000000000E+000
  0.000000000000000E+000
  0.000000000000000E+000
  0.000000000000000E+000
  0.000000000000000E+000
  0.000000000000000E+000
  0.000000000000000E+000
  0.000000000000000E+000
  0.000000000000000E+000
  0.000000000000000E+000
  0.000000000000000E+000
  0.000000000000000E+000
  0.000000000000000E+000
  0.000000000000000E+000
  0.000000000000000E+000
  0.000000000000000E+000
  0.000000000000000E+000
  0.000000000000000E+000
  0.000000000000000E+000
  0.000000000000000E+000
  0.000000000000000E+000
  0.000000000000000E+000
  0.000000000000000E+000
  0.000000000000000E+000
  0.000000000000000E+000
  0.000000000000000E+000
  0.000000000000000E+000
  0.000000000000000E+000
  0.000000000000000E+000
  0.000000000000000E+000
  0.000000000000000E+000
  0.000000000000000E+000
  0.000000000000000E+000
  0.000000000000000E+000
  0.000000000000000E+000
  0.000000000000000E+000
  0.000000000000000E+000
  0.000000000000000E+000
  0.000000000000000E+000
  0.000000000000000E+000
  0.000000000000000E+000
  0.000000000000000E+000
  0.000000000000000E+000
  0.000000000000000E+000
  0.000000000000000E+000
  0.000000000000000E+000
  0.000000000000000E+000
  0.000000000000000E+000
  0.000000000000000E+000
  0.000000000000000E+000
  0.000000000000000E+000
  0.000000000000000E+000
  0.000000000000000E+000
  0.000000000000000E+000
  0.000000000000000E+000
  0.000000000000000E+000
  0.000000000000000E+000
  0.000000000000000E+000
  0.000000000000000E+000
  0.000000000000000E+000
  0.000000000000000E+000
  0.000000000000000E+000
  0.000000000000000E+000
  0.000000000000000E+000
  0.000000000000000E+000
  0.000000000000000E+000
  0.000000000000000E+000
  0.000000000000000E+000
  0.000000000000000E+000
  0.000000000000000E+000
  0.000000000000000E+000
  0.000000000000000E+000
  0.000000000000000E+000
  0.000000000000000E+000
  0.000000000000000E+000
  0.000000000000000E+000
  0.000000000000000E+000
  0.000000000000000E+000
  0.000000000000000E+000
  0.000000000000000E+000
  0.000000000000000E+000
  0.000000000000000E+000
  0.000000000000000E+000
  0.000000000000000E+000
  0.000000000000000E+000
  0.000000000000000E+000
  0.000000000000000E+000
  0.000000000000000E+000
  0.000000000000000E+000
  0.000000000000000E+000
  0.000000000000000E+000
  0.000000000000000E+000
  0.000000000000000E+000
  0.000000000000000E+000
  0.000000000000000E+000
  0.000000000000000E+000
  0.000000000000000E+000
  0.000000000000000E+000
  0.000000000000000E+000
  0.000000000000000E+000
  0.000000000000000E+000
  0.000000000000000E+000
  0.000000000000000E+000
  0.000000000000000E+000
  0.000000000000000E+000
  0.000000000000000E+000
  0.000000000000000E+000
  0.000000000000000E+000
  0.000000000000000E+000
  0.000000000000000E+000
  0.000000000000000E+000
  0.000000000000000E+000
  0.000000000000000E+000
  0.000000000000000E+000
  0.000000000000000E+000
  0.000000000000000E+000
  0.000000000000000E+000
  0.000000000000000E+000
  0.000000000000000E+000
  0.000000000000000E+000
  0.000000000000000E+000
  0.000000000000000E+000
  0.000000000000000E+000
  0.000000000000000E+000
  0.000000000000000E+000
  0.000000000000000E+000
  0.000000000000000E+000
  0.000000000000000E+000
  0.000000000000000E+000
  0.000000000000000E+000
  0.000000000000000E+000
  0.000000000000000E+000
  0.000000000000000E+000
  0.000000000000000E+000
  0.000000000000000E+000
  0.000000000000000E+000
  0.000000000000000E+000
  0.000000000000000E+000
  0.000000000000000E+000
  0.000000000000000E+000
  0.000000000000000E+000
  0.000000000000000E+000
  0.000000000000000E+000
  0.000000000000000E+000
  0.000000000000000E+000
  0.000000000000000E+000
  0.000000000000000E+000
  0.000000000000000E+000
  0.000000000000000E+000
  0.000000000000000E+000
  0.000000000000000E+000
  0.000000000000000E+000
  0.000000000000000E+000
  0.000000000000000E+000
  0.000000000000000E+000
  0.000000000000000E+000
  0.000000000000000E+000
  0.000000000000000E+000
  0.000000000000000E+000
  0.000000000000000E+000
  0.000000000000000E+000
  0.000000000000000E+000
  0.000000000000000E+000
  0.000000000000000E+000
  0.000000000000000E+000
  0.000000000000000E+000
  0.000000000000000E+000
  0.000000000000000E+000
  0.000000000000000E+000
  0.000000000000000E+000
  0.000000000000000E+000
  0.000000000000000E+000
  0.000000000000000E+000
  0.000000000000000E+000
  0.000000000000000E+000
  0.000000000000000E+000
  0.000000000000000E+000
  0.000000000000000E+000
  0.000000000000000E+000
  0.000000000000000E+000
  0.000000000000000E+000
  0.000000000000000E+000
  0.000000000000000E+000
  0.000000000000000E+000
  0.000000000000000E+000
  0.000000000000000E+000
  0.000000000000000E+000
  0.000000000000000E+000
  0.000000000000000E+000
  0.000000000000000E+000
  0.000000000000000E+000
  0.000000000000000E+000
  0.000000000000000E+000
  0.000000000000000E+000
  0.000000000000000E+000
  0.000000000000000E+000
  0.000000000000000E+000
  0.000000000000000E+000
  0.000000000000000E+000
  0.000000000000000E+000
  0.000000000000000E+000
  0.000000000000000E+000
  0.000000000000000E+000
  0.000000000000000E+000
  0.000000000000000E+000
  0.000000000000000E+000
  0.000000000000000E+000
  0.000000000000000E+000
  0.000000000000000E+000
  0.000000000000000E+000
  0.000000000000000E+000
  0.000000000000000E+000
  0.000000000000000E+000
  0.000000000000000E+000
  0.000000000000000E+000
  0.000000000000000E+000
  0.000000000000000E+000
  0.000000000000000E+000
  0.000000000000000E+000
  0.000000000000000E+000
  0.000000000000000E+000
  0.000000000000000E+000
  0.000000000000000E+000
  0.000000000000000E+000
  0.000000000000000E+000
  0.000000000000000E+000
  0.000000000000000E+000
  0.000000000000000E+000
  0.000000000000000E+000
  0.000000000000000E+000
  0.000000000000000E+000
  0.000000000000000E+000
  0.000000000000000E+000
  0.000000000000000E+000
  0.000000000000000E+000
  0.000000000000000E+000
  0.000000000000000E+000
  0.000000000000000E+000
  0.000000000000000E+000
  0.000000000000000E+000
  0.000000000000000E+000
  0.000000000000000E+000
  0.000000000000000E+000
  0.000000000000000E+000
  0.000000000000000E+000
  0.000000000000000E+000
  0.000000000000000E+000
  0.000000000000000E+000
  0.000000000000000E+000
  0.000000000000000E+000
  0.000000000000000E+000
  0.000000000000000E+000
  0.000000000000000E+000
  0.000000000000000E+000
  0.000000000000000E+000
  0.000000000000000E+000
  0.000000000000000E+000
  0.000000000000000E+000
  0.000000000000000E+000
  0.000000000000000E+000
  0.000000000000000E+000
  0.000000000000000E+000
  0.000000000000000E+000
  0.000000000000000E+000
  0.000000000000000E+000
  0.000000000000000E+000
  0.000000000000000E+000
  0.000000000000000E+000
  0.000000000000000E+000
  0.000000000000000E+000
  0.000000000000000E+000
  0.000000000000000E+000
  0.000000000000000E+000
  0.000000000000000E+000
  0.000000000000000E+000
  0.000000000000000E+000
  0.000000000000000E+000
  0.000000000000000E+000
  0.000000000000000E+000
  0.000000000000000E+000
  0.000000000000000E+000
  0.000000000000000E+000
  0.000000000000000E+000
  0.000000000000000E+000
  0.000000000000000E+000
  0.000000000000000E+000
  0.000000000000000E+000
  0.000000000000000E+000
  0.000000000000000E+000
  0.000000000000000E+000
  0.000000000000000E+000
  0.000000000000000E+000
  0.000000000000000E+000
  0.000000000000000E+000
  0.000000000000000E+000
  0.000000000000000E+000
  0.000000000000000E+000
  0.000000000000000E+000
  0.000000000000000E+000
  0.000000000000000E+000
  0.000000000000000E+000
  0.000000000000000E+000
  0.000000000000000E+000
  0.000000000000000E+000
  0.000000000000000E+000
  0.000000000000000E+000
  0.000000000000000E+000
  0.000000000000000E+000
  0.000000000000000E+000
  0.000000000000000E+000
  0.000000000000000E+000
  0.000000000000000E+000
  0.000000000000000E+000
  0.000000000000000E+000
  0.000000000000000E+000
  0.000000000000000E+000
  0.000000000000000E+000
  0.000000000000000E+000
  0.000000000000000E+000
  0.000000000000000E+000
  0.000000000000000E+000
  0.000000000000000E+000
  0.000000000000000E+000
  0.000000000000000E+000
  0.000000000000000E+000
  0.000000000000000E+000
  0.000000000000000E+000
  0.000000000000000E+000
  0.000000000000000E+000
  0.000000000000000E+000
  0.000000000000000E+000
  0.000000000000000E+000
  0.000000000000000E+000
  0.000000000000000E+000
  0.000000000000000E+000
  0.000000000000000E+000
  0.000000000000000E+000
  0.000000000000000E+000
  0.000000000000000E+000
  0.000000000000000E+000
  0.000000000000000E+000
  0.000000000000000E+000
  0.000000000000000E+000
  0.000000000000000E+000
  0.000000000000000E+000
  0.000000000000000E+000
  0.000000000000000E+000
  0.000000000000000E+000
  0.000000000000000E+000
  0.000000000000000E+000
  0.000000000000000E+000
  0.000000000000000E+000
  0.000000000000000E+000
  0.000000000000000E+000
  0.000000000000000E+000
  0.000000000000000E+000
  0.000000000000000E+000
  0.000000000000000E+000
  0.000000000000000E+000
  0.000000000000000E+000
  0.000000000000000E+000
  0.000000000000000E+000
  0.000000000000000E+000
  0.000000000000000E+000
  0.000000000000000E+000
  0.000000000000000E+000
  0.000000000000000E+000
  0.000000000000000E+000
  0.000000000000000E+000
  0.000000000000000E+000
  0.000000000000000E+000
  0.000000000000000E+000
  0.000000000000000E+000
  0.000000000000000E+000
  0.000000000000000E+000
  0.000000000000000E+000
  0.000000000000000E+000
  0.000000000000000E+000
  0.000000000000000E+000
  0.000000000000000E+000
  0.000000000000000E+000
  0.000000000000000E+000
  0.000000000000000E+000
  0.000000000000000E+000
  0.000000000000000E+000
  0.000000000000000E+000
  0.000000000000000E+000
  0.000000000000000E+000
  0.000000000000000E+000
  0.000000000000000E+000
  0.000000000000000E+000
  0.000000000000000E+000
  0.000000000000000E+000
  0.000000000000000E+000
  0.000000000000000E+000
  0.000000000000000E+000
  0.000000000000000E+000
  0.000000000000000E+000
  0.000000000000000E+000
  0.000000000000000E+000
  0.000000000000000E+000
  0.000000000000000E+000
  0.000000000000000E+000
  0.000000000000000E+000
  0.000000000000000E+000
  0.000000000000000E+000
  0.000000000000000E+000
  0.000000000000000E+000
  0.000000000000000E+000
  0.000000000000000E+000
  0.000000000000000E+000
  0.000000000000000E+000
  0.000000000000000E+000
  0.000000000000000E+000
  0.000000000000000E+000
  0.000000000000000E+000
  0.000000000000000E+000
  0.000000000000000E+000
  0.000000000000000E+000
  0.000000000000000E+000
  0.000000000000000E+000
  0.000000000000000E+000
  0.000000000000000E+000
  0.000000000000000E+000
  0.000000000000000E+000
  0.000000000000000E+000
  0.000000000000000E+000
  0.000000000000000E+000
  0.000000000000000E+000
  0.000000000000000E+000
  0.000000000000000E+000
  0.000000000000000E+000
  0.000000000000000E+000
  0.000000000000000E+000
  0.000000000000000E+000
  0.000000000000000E+000
  0.000000000000000E+000
  0.000000000000000E+000
  0.000000000000000E+000
  0.000000000000000E+000
  0.000000000000000E+000
  0.000000000000000E+000
  0.000000000000000E+000
  0.000000000000000E+000
  0.000000000000000E+000
  0.000000000000000E+000
  0.000000000000000E+000
  0.000000000000000E+000
  0.000000000000000E+000
  0.000000000000000E+000
  0.000000000000000E+000
  0.000000000000000E+000
  0.000000000000000E+000
  0.000000000000000E+000
  0.000000000000000E+000
  0.000000000000000E+000
  0.000000000000000E+000
  0.000000000000000E+000
  0.000000000000000E+000
  0.000000000000000E+000
  0.000000000000000E+000
  0.000000000000000E+000
  0.000000000000000E+000
  0.000000000000000E+000
  0.000000000000000E+000
  0.000000000000000E+000
  0.000000000000000E+000
  0.000000000000000E+000
  0.000000000000000E+000
  0.000000000000000E+000
  0.000000000000000E+000
  0.000000000000000E+000
  0.000000000000000E+000
  0.000000000000000E+000
  0.000000000000000E+000
  0.000000000000000E+000
  0.000000000000000E+000
  0.000000000000000E+000
  0.000000000000000E+000
  0.000000000000000E+000
  0.000000000000000E+000
  0.000000000000000E+000
  0.000000000000000E+000
  0.000000000000000E+000
  0.000000000000000E+000
  0.000000000000000E+000
  0.000000000000000E+000
  0.000000000000000E+000
  0.000000000000000E+000
  0.000000000000000E+000
  0.000000000000000E+000
  0.000000000000000E+000
  0.000000000000000E+000
  0.000000000000000E+000
  0.000000000000000E+000
  0.000000000000000E+000
  0.000000000000000E+000
  0.000000000000000E+000
  0.000000000000000E+000
  0.000000000000000E+000
  0.000000000000000E+000
  0.000000000000000E+000
  0.000000000000000E+000
  0.000000000000000E+000
  0.000000000000000E+000
  0.000000000000000E+000
  0.000000000000000E+000
  0.000000000000000E+000
  0.000000000000000E+000
  0.000000000000000E+000
  0.000000000000000E+000
  0.000000000000000E+000
  0.000000000000000E+000
  0.000000000000000E+000
  0.000000000000000E+000
  0.000000000000000E+000
  0.000000000000000E+000
  0.000000000000000E+000
  0.000000000000000E+000
  0.000000000000000E+000
  0.000000000000000E+000
  0.000000000000000E+000
  0.000000000000000E+000
  0.000000000000000E+000
  0.000000000000000E+000
  0.000000000000000E+000
  0.000000000000000E+000
  0.000000000000000E+000
  0.000000000000000E+000
  0.000000000000000E+000
  0.000000000000000E+000
  0.000000000000000E+000
  0.000000000000000E+000
  0.000000000000000E+000
  0.000000000000000E+000
  0.000000000000000E+000
  0.000000000000000E+000
  0.000000000000000E+000
  0.000000000000000E+000
  0.000000000000000E+000
  0.000000000000000E+000
  0.000000000000000E+000
  0.000000000000000E+000
  0.000000000000000E+000
  0.000000000000000E+000
  0.000000000000000E+000
  0.000000000000000E+000
  0.000000000000000E+000
  0.000000000000000E+000
  0.000000000000000E+000
  0.000000000000000E+000
  0.000000000000000E+000
  0.000000000000000E+000
  0.000000000000000E+000
  0.000000000000000E+000
  0.000000000000000E+000
  0.000000000000000E+000
  0.000000000000000E+000
  0.000000000000000E+000
  0.000000000000000E+000
  0.000000000000000E+000
  0.000000000000000E+000
  0.000000000000000E+000
  0.000000000000000E+000
  0.000000000000000E+000
  0.000000000000000E+000
  0.000000000000000E+000
  0.000000000000000E+000
  0.000000000000000E+000
  0.000000000000000E+000
  0.000000000000000E+000
  0.000000000000000E+000
  0.000000000000000E+000
  0.000000000000000E+000
  0.000000000000000E+000
  0.000000000000000E+000
  0.000000000000000E+000
  0.000000000000000E+000
  0.000000000000000E+000
  0.000000000000000E+000
  0.000000000000000E+000
  0.000000000000000E+000
  0.000000000000000E+000
  0.000000000000000E+000
  0.000000000000000E+000
  0.000000000000000E+000
  0.000000000000000E+000
  0.000000000000000E+000
  0.000000000000000E+000
  0.000000000000000E+000
  0.000000000000000E+000
  0.000000000000000E+000
  0.000000000000000E+000
  0.000000000000000E+000
  0.000000000000000E+000
  0.000000000000000E+000
  0.000000000000000E+000
  0.000000000000000E+000
  0.000000000000000E+000
  0.000000000000000E+000
  0.000000000000000E+000
  0.000000000000000E+000
  0.000000000000000E+000
  0.000000000000000E+000
  0.000000000000000E+000
  0.000000000000000E+000
  0.000000000000000E+000
  0.000000000000000E+000
  0.000000000000000E+000
  0.000000000000000E+000
  0.000000000000000E+000
  0.000000000000000E+000
  0.000000000000000E+000
  0.000000000000000E+000
  0.000000000000000E+000
  0.000000000000000E+000
  0.000000000000000E+000
  0.000000000000000E+000
  0.000000000000000E+000
  0.000000000000000E+000
  0.000000000000000E+000
  0.000000000000000E+000
  0.000000000000000E+000
  0.000000000000000E+000
  0.000000000000000E+000
  0.000000000000000E+000
  0.000000000000000E+000
  0.000000000000000E+000
  0.000000000000000E+000
  0.000000000000000E+000
  0.000000000000000E+000
  0.000000000000000E+000
  0.000000000000000E+000
  0.000000000000000E+000
  0.000000000000000E+000
  0.000000000000000E+000
  0.000000000000000E+000
  0.000000000000000E+000
  0.000000000000000E+000
  0.000000000000000E+000
  0.000000000000000E+000
  0.000000000000000E+000
  0.000000000000000E+000
  0.000000000000000E+000
  0.000000000000000E+000
  0.000000000000000E+000
  0.000000000000000E+000
  0.000000000000000E+000
  0.000000000000000E+000
  0.000000000000000E+000
  0.000000000000000E+000
  0.000000000000000E+000
  0.000000000000000E+000
  0.000000000000000E+000
  0.000000000000000E+000
  0.000000000000000E+000
  0.000000000000000E+000
  0.000000000000000E+000
  0.000000000000000E+000
  0.000000000000000E+000
  0.000000000000000E+000
  0.000000000000000E+000
  0.000000000000000E+000
  0.000000000000000E+000
  0.000000000000000E+000
  0.000000000000000E+000
  0.000000000000000E+000
  0.000000000000000E+000
  0.000000000000000E+000
  0.000000000000000E+000
  0.000000000000000E+000
  0.000000000000000E+000
  0.000000000000000E+000
  0.000000000000000E+000
  0.000000000000000E+000
  0.000000000000000E+000
  0.000000000000000E+000
  0.000000000000000E+000
  0.000000000000000E+000
  0.000000000000000E+000
  0.000000000000000E+000
  0.000000000000000E+000
  0.000000000000000E+000
  0.000000000000000E+000
  0.000000000000000E+000
  0.000000000000000E+000
  0.000000000000000E+000
  0.000000000000000E+000
  0.000000000000000E+000
  0.000000000000000E+000
  0.000000000000000E+000
  0.000000000000000E+000
  0.000000000000000E+000
  0.000000000000000E+000
  0.000000000000000E+000
  0.000000000000000E+000
  0.000000000000000E+000
  0.000000000000000E+000
  0.000000000000000E+000
  0.000000000000000E+000
  0.000000000000000E+000
  0.000000000000000E+000
  0.000000000000000E+000
  0.000000000000000E+000
  0.000000000000000E+000
  0.000000000000000E+000
  0.000000000000000E+000
  0.000000000000000E+000
  0.000000000000000E+000
  0.000000000000000E+000
  0.000000000000000E+000
  0.000000000000000E+000
  0.000000000000000E+000
  0.000000000000000E+000
  0.000000000000000E+000
  0.000000000000000E+000
  0.000000000000000E+000
  0.000000000000000E+000
  0.000000000000000E+000
  0.000000000000000E+000
  0.000000000000000E+000
  0.000000000000000E+000
  0.000000000000000E+000
  0.000000000000000E+000
  0.000000000000000E+000
  0.000000000000000E+000
  0.000000000000000E+000
  0.000000000000000E+000
  0.000000000000000E+000
  0.000000000000000E+000
  0.000000000000000E+000
  0.000000000000000E+000
  0.000000000000000E+000
SCALARS elementIsPlast double 
LOOKUP_TABLE default
  0.000000000000000E+000
  0.000000000000000E+000
  0.000000000000000E+000
  0.000000000000000E+000
  0.000000000000000E+000
  0.000000000000000E+000
  0.000000000000000E+000
  0.000000000000000E+000
  0.000000000000000E+000
  0.000000000000000E+000
  0.000000000000000E+000
  0.000000000000000E+000
  0.000000000000000E+000
  0.000000000000000E+000
  0.000000000000000E+000
  0.000000000000000E+000
  0.000000000000000E+000
  0.000000000000000E+000
  0.000000000000000E+000
  0.000000000000000E+000
  0.000000000000000E+000
  0.000000000000000E+000
  0.000000000000000E+000
  0.000000000000000E+000
  0.000000000000000E+000
  0.000000000000000E+000
  0.000000000000000E+000
  0.000000000000000E+000
  0.000000000000000E+000
  0.000000000000000E+000
  0.000000000000000E+000
  0.000000000000000E+000
  0.000000000000000E+000
  0.000000000000000E+000
  0.000000000000000E+000
  0.000000000000000E+000
  0.000000000000000E+000
  0.000000000000000E+000
  0.000000000000000E+000
  0.000000000000000E+000
  0.000000000000000E+000
  0.000000000000000E+000
  0.000000000000000E+000
  0.000000000000000E+000
  0.000000000000000E+000
  0.000000000000000E+000
  0.000000000000000E+000
  0.000000000000000E+000
  0.000000000000000E+000
  0.000000000000000E+000
  0.000000000000000E+000
  0.000000000000000E+000
  0.000000000000000E+000
  0.000000000000000E+000
  0.000000000000000E+000
  0.000000000000000E+000
  0.000000000000000E+000
  0.000000000000000E+000
  0.000000000000000E+000
  0.000000000000000E+000
  0.000000000000000E+000
  0.000000000000000E+000
  0.000000000000000E+000
  0.000000000000000E+000
  0.000000000000000E+000
  0.000000000000000E+000
  0.000000000000000E+000
  0.000000000000000E+000
  0.000000000000000E+000
  0.000000000000000E+000
  0.000000000000000E+000
  0.000000000000000E+000
  0.000000000000000E+000
  0.000000000000000E+000
  0.000000000000000E+000
  0.000000000000000E+000
  0.000000000000000E+000
  0.000000000000000E+000
  0.000000000000000E+000
  0.000000000000000E+000
  0.000000000000000E+000
  0.000000000000000E+000
  0.000000000000000E+000
  0.000000000000000E+000
  0.000000000000000E+000
  0.000000000000000E+000
  0.000000000000000E+000
  0.000000000000000E+000
  0.000000000000000E+000
  0.000000000000000E+000
  0.000000000000000E+000
  0.000000000000000E+000
  0.000000000000000E+000
  0.000000000000000E+000
  0.000000000000000E+000
  0.000000000000000E+000
  0.000000000000000E+000
  0.000000000000000E+000
  0.000000000000000E+000
  0.000000000000000E+000
  0.000000000000000E+000
  0.000000000000000E+000
  0.000000000000000E+000
  0.000000000000000E+000
  0.000000000000000E+000
  0.000000000000000E+000
  0.000000000000000E+000
  0.000000000000000E+000
  0.000000000000000E+000
  0.000000000000000E+000
  0.000000000000000E+000
  0.000000000000000E+000
  0.000000000000000E+000
  0.000000000000000E+000
  0.000000000000000E+000
  0.000000000000000E+000
  0.000000000000000E+000
  0.000000000000000E+000
  0.000000000000000E+000
  0.000000000000000E+000
  0.000000000000000E+000
  0.000000000000000E+000
  0.000000000000000E+000
  0.000000000000000E+000
  0.000000000000000E+000
  0.000000000000000E+000
  0.000000000000000E+000
  0.000000000000000E+000
  0.000000000000000E+000
  0.000000000000000E+000
  0.000000000000000E+000
  0.000000000000000E+000
  0.000000000000000E+000
  0.000000000000000E+000
  0.000000000000000E+000
  0.000000000000000E+000
  0.000000000000000E+000
  0.000000000000000E+000
  0.000000000000000E+000
  0.000000000000000E+000
  0.000000000000000E+000
  0.000000000000000E+000
  0.000000000000000E+000
  0.000000000000000E+000
  0.000000000000000E+000
  0.000000000000000E+000
  0.000000000000000E+000
  0.000000000000000E+000
  0.000000000000000E+000
  0.000000000000000E+000
  0.000000000000000E+000
  0.000000000000000E+000
  0.000000000000000E+000
  0.000000000000000E+000
  0.000000000000000E+000
  0.000000000000000E+000
  0.000000000000000E+000
  0.000000000000000E+000
  0.000000000000000E+000
  0.000000000000000E+000
  0.000000000000000E+000
  0.000000000000000E+000
  0.000000000000000E+000
  0.000000000000000E+000
  0.000000000000000E+000
  0.000000000000000E+000
  0.000000000000000E+000
  0.000000000000000E+000
  0.000000000000000E+000
  0.000000000000000E+000
  0.000000000000000E+000
  0.000000000000000E+000
  0.000000000000000E+000
  0.000000000000000E+000
  0.000000000000000E+000
  0.000000000000000E+000
  0.000000000000000E+000
  0.000000000000000E+000
  0.000000000000000E+000
  0.000000000000000E+000
  0.000000000000000E+000
  0.000000000000000E+000
  0.000000000000000E+000
  0.000000000000000E+000
  0.000000000000000E+000
  0.000000000000000E+000
  0.000000000000000E+000
  0.000000000000000E+000
  0.000000000000000E+000
  0.000000000000000E+000
  0.000000000000000E+000
  0.000000000000000E+000
  0.000000000000000E+000
  0.000000000000000E+000
  0.000000000000000E+000
  0.000000000000000E+000
  0.000000000000000E+000
  0.000000000000000E+000
  0.000000000000000E+000
  0.000000000000000E+000
  0.000000000000000E+000
  0.000000000000000E+000
  0.000000000000000E+000
  0.000000000000000E+000
  0.000000000000000E+000
  0.000000000000000E+000
  0.000000000000000E+000
  0.000000000000000E+000
  0.000000000000000E+000
  0.000000000000000E+000
  0.000000000000000E+000
  0.000000000000000E+000
  0.000000000000000E+000
  0.000000000000000E+000
  0.000000000000000E+000
  0.000000000000000E+000
  0.000000000000000E+000
  0.000000000000000E+000
  0.000000000000000E+000
  0.000000000000000E+000
  0.000000000000000E+000
  0.000000000000000E+000
  0.000000000000000E+000
  0.000000000000000E+000
  0.000000000000000E+000
  0.000000000000000E+000
  0.000000000000000E+000
  0.000000000000000E+000
  0.000000000000000E+000
  0.000000000000000E+000
  0.000000000000000E+000
  0.000000000000000E+000
  0.000000000000000E+000
  0.000000000000000E+000
  0.000000000000000E+000
  0.000000000000000E+000
  0.000000000000000E+000
  0.000000000000000E+000
  0.000000000000000E+000
  0.000000000000000E+000
  0.000000000000000E+000
  0.000000000000000E+000
  0.000000000000000E+000
  0.000000000000000E+000
  0.000000000000000E+000
  0.000000000000000E+000
  0.000000000000000E+000
  0.000000000000000E+000
  0.000000000000000E+000
  0.000000000000000E+000
  0.000000000000000E+000
  0.000000000000000E+000
  0.000000000000000E+000
  0.000000000000000E+000
  0.000000000000000E+000
  0.000000000000000E+000
  0.000000000000000E+000
  0.000000000000000E+000
  0.000000000000000E+000
  0.000000000000000E+000
  0.000000000000000E+000
  0.000000000000000E+000
  0.000000000000000E+000
  0.000000000000000E+000
  0.000000000000000E+000
  0.000000000000000E+000
  0.000000000000000E+000
  0.000000000000000E+000
  0.000000000000000E+000
  0.000000000000000E+000
  0.000000000000000E+000
  0.000000000000000E+000
  0.000000000000000E+000
  0.000000000000000E+000
  0.000000000000000E+000
  0.000000000000000E+000
  0.000000000000000E+000
  0.000000000000000E+000
  0.000000000000000E+000
  0.000000000000000E+000
  0.000000000000000E+000
  0.000000000000000E+000
  0.000000000000000E+000
  0.000000000000000E+000
  0.000000000000000E+000
  0.000000000000000E+000
  0.000000000000000E+000
  0.000000000000000E+000
  0.000000000000000E+000
  0.000000000000000E+000
  0.000000000000000E+000
  0.000000000000000E+000
  0.000000000000000E+000
  0.000000000000000E+000
  0.000000000000000E+000
  0.000000000000000E+000
  0.000000000000000E+000
  0.000000000000000E+000
  0.000000000000000E+000
  0.000000000000000E+000
  0.000000000000000E+000
  0.000000000000000E+000
  0.000000000000000E+000
  0.000000000000000E+000
  0.000000000000000E+000
  0.000000000000000E+000
  0.000000000000000E+000
  0.000000000000000E+000
  0.000000000000000E+000
  0.000000000000000E+000
  0.000000000000000E+000
  0.000000000000000E+000
  0.000000000000000E+000
  0.000000000000000E+000
  0.000000000000000E+000
  0.000000000000000E+000
  0.000000000000000E+000
  0.000000000000000E+000
  0.000000000000000E+000
  0.000000000000000E+000
  0.000000000000000E+000
  0.000000000000000E+000
  0.000000000000000E+000
  0.000000000000000E+000
  0.000000000000000E+000
  0.000000000000000E+000
  0.000000000000000E+000
  0.000000000000000E+000
  0.000000000000000E+000
  0.000000000000000E+000
  0.000000000000000E+000
  0.000000000000000E+000
  0.000000000000000E+000
  0.000000000000000E+000
  0.000000000000000E+000
  0.000000000000000E+000
  0.000000000000000E+000
  0.000000000000000E+000
  0.000000000000000E+000
  0.000000000000000E+000
  0.000000000000000E+000
  0.000000000000000E+000
  0.000000000000000E+000
  0.000000000000000E+000
  0.000000000000000E+000
  0.000000000000000E+000
  0.000000000000000E+000
  0.000000000000000E+000
  0.000000000000000E+000
  0.000000000000000E+000
  0.000000000000000E+000
  0.000000000000000E+000
  0.000000000000000E+000
  0.000000000000000E+000
  0.000000000000000E+000
  0.000000000000000E+000
  0.000000000000000E+000
  0.000000000000000E+000
  0.000000000000000E+000
  0.000000000000000E+000
  0.000000000000000E+000
  0.000000000000000E+000
  0.000000000000000E+000
  0.000000000000000E+000
  0.000000000000000E+000
  0.000000000000000E+000
  0.000000000000000E+000
  0.000000000000000E+000
  0.000000000000000E+000
  0.000000000000000E+000
  0.000000000000000E+000
  0.000000000000000E+000
  0.000000000000000E+000
  0.000000000000000E+000
  0.000000000000000E+000
  0.000000000000000E+000
  0.000000000000000E+000
  0.000000000000000E+000
  0.000000000000000E+000
  0.000000000000000E+000
  0.000000000000000E+000
  0.000000000000000E+000
  0.000000000000000E+000
  0.000000000000000E+000
  0.000000000000000E+000
  0.000000000000000E+000
  0.000000000000000E+000
  0.000000000000000E+000
  0.000000000000000E+000
  0.000000000000000E+000
  0.000000000000000E+000
  0.000000000000000E+000
  0.000000000000000E+000
  0.000000000000000E+000
  0.000000000000000E+000
  0.000000000000000E+000
  0.000000000000000E+000
  0.000000000000000E+000
  0.000000000000000E+000
  0.000000000000000E+000
  0.000000000000000E+000
  0.000000000000000E+000
  0.000000000000000E+000
  0.000000000000000E+000
  0.000000000000000E+000
  0.000000000000000E+000
  0.000000000000000E+000
  0.000000000000000E+000
  0.000000000000000E+000
  0.000000000000000E+000
  0.000000000000000E+000
  0.000000000000000E+000
  0.000000000000000E+000
  0.000000000000000E+000
  0.000000000000000E+000
  0.000000000000000E+000
  0.000000000000000E+000
  0.000000000000000E+000
  0.000000000000000E+000
  0.000000000000000E+000
  0.000000000000000E+000
  0.000000000000000E+000
  0.000000000000000E+000
  0.000000000000000E+000
  0.000000000000000E+000
  0.000000000000000E+000
  0.000000000000000E+000
  0.000000000000000E+000
  0.000000000000000E+000
  0.000000000000000E+000
  0.000000000000000E+000
  0.000000000000000E+000
  0.000000000000000E+000
  0.000000000000000E+000
  0.000000000000000E+000
  0.000000000000000E+000
  0.000000000000000E+000
  0.000000000000000E+000
  0.000000000000000E+000
  0.000000000000000E+000
  0.000000000000000E+000
  0.000000000000000E+000
  0.000000000000000E+000
  0.000000000000000E+000
  0.000000000000000E+000
  0.000000000000000E+000
  0.000000000000000E+000
  0.000000000000000E+000
  0.000000000000000E+000
  0.000000000000000E+000
  0.000000000000000E+000
  0.000000000000000E+000
  0.000000000000000E+000
  0.000000000000000E+000
  0.000000000000000E+000
  0.000000000000000E+000
  0.000000000000000E+000
  0.000000000000000E+000
  0.000000000000000E+000
  0.000000000000000E+000
  0.000000000000000E+000
  0.000000000000000E+000
  0.000000000000000E+000
  0.000000000000000E+000
  0.000000000000000E+000
  0.000000000000000E+000
  0.000000000000000E+000
  0.000000000000000E+000
  0.000000000000000E+000
  0.000000000000000E+000
  0.000000000000000E+000
  0.000000000000000E+000
  0.000000000000000E+000
  0.000000000000000E+000
  0.000000000000000E+000
  0.000000000000000E+000
  0.000000000000000E+000
  0.000000000000000E+000
  0.000000000000000E+000
  0.000000000000000E+000
  0.000000000000000E+000
  0.000000000000000E+000
  0.000000000000000E+000
  0.000000000000000E+000
  0.000000000000000E+000
  0.000000000000000E+000
  0.000000000000000E+000
  0.000000000000000E+000
  0.000000000000000E+000
  0.000000000000000E+000
  0.000000000000000E+000
  0.000000000000000E+000
  0.000000000000000E+000
  0.000000000000000E+000
  0.000000000000000E+000
  0.000000000000000E+000
  0.000000000000000E+000
  0.000000000000000E+000
  0.000000000000000E+000
  0.000000000000000E+000
  0.000000000000000E+000
  0.000000000000000E+000
  0.000000000000000E+000
  0.000000000000000E+000
  0.000000000000000E+000
  0.000000000000000E+000
  0.000000000000000E+000
  0.000000000000000E+000
  0.000000000000000E+000
  0.000000000000000E+000
  0.000000000000000E+000
  0.000000000000000E+000
  0.000000000000000E+000
  0.000000000000000E+000
  0.000000000000000E+000
  0.000000000000000E+000
  0.000000000000000E+000
  0.000000000000000E+000
  0.000000000000000E+000
  0.000000000000000E+000
  0.000000000000000E+000
  0.000000000000000E+000
  0.000000000000000E+000
  0.000000000000000E+000
  0.000000000000000E+000
  0.000000000000000E+000
  0.000000000000000E+000
  0.000000000000000E+000
  0.000000000000000E+000
  0.000000000000000E+000
  0.000000000000000E+000
  0.000000000000000E+000
  0.000000000000000E+000
  0.000000000000000E+000
  0.000000000000000E+000
  0.000000000000000E+000
  0.000000000000000E+000
  0.000000000000000E+000
  0.000000000000000E+000
  0.000000000000000E+000
  0.000000000000000E+000
  0.000000000000000E+000
  0.000000000000000E+000
  0.000000000000000E+000
  0.000000000000000E+000
  0.000000000000000E+000
  0.000000000000000E+000
  0.000000000000000E+000
  0.000000000000000E+000
  0.000000000000000E+000
  0.000000000000000E+000
  0.000000000000000E+000
  0.000000000000000E+000
  0.000000000000000E+000
  0.000000000000000E+000
  0.000000000000000E+000
  0.000000000000000E+000
  0.000000000000000E+000
  0.000000000000000E+000
  0.000000000000000E+000
  0.000000000000000E+000
  0.000000000000000E+000
  0.000000000000000E+000
  0.000000000000000E+000
  0.000000000000000E+000
  0.000000000000000E+000
  0.000000000000000E+000
  0.000000000000000E+000
  0.000000000000000E+000
  0.000000000000000E+000
  0.000000000000000E+000
  0.000000000000000E+000
  0.000000000000000E+000
  0.000000000000000E+000
  0.000000000000000E+000
  0.000000000000000E+000
  0.000000000000000E+000
  0.000000000000000E+000
  0.000000000000000E+000
  0.000000000000000E+000
  0.000000000000000E+000
  0.000000000000000E+000
  0.000000000000000E+000
  0.000000000000000E+000
  0.000000000000000E+000
  0.000000000000000E+000
  0.000000000000000E+000
  0.000000000000000E+000
  0.000000000000000E+000
  0.000000000000000E+000
  0.000000000000000E+000
  0.000000000000000E+000
  0.000000000000000E+000
  0.000000000000000E+000
  0.000000000000000E+000
  0.000000000000000E+000
  0.000000000000000E+000
  0.000000000000000E+000
  0.000000000000000E+000
  0.000000000000000E+000
  0.000000000000000E+000
  0.000000000000000E+000
  0.000000000000000E+000
  0.000000000000000E+000
  0.000000000000000E+000
  0.000000000000000E+000
  0.000000000000000E+000
  0.000000000000000E+000
  0.000000000000000E+000
  0.000000000000000E+000
  0.000000000000000E+000
  0.000000000000000E+000
  0.000000000000000E+000
  0.000000000000000E+000
  0.000000000000000E+000
  0.000000000000000E+000
  0.000000000000000E+000
  0.000000000000000E+000
  0.000000000000000E+000
  0.000000000000000E+000
  0.000000000000000E+000
  0.000000000000000E+000
  0.000000000000000E+000
  0.000000000000000E+000
  0.000000000000000E+000
  0.000000000000000E+000
  0.000000000000000E+000
  0.000000000000000E+000
  0.000000000000000E+000
  0.000000000000000E+000
  0.000000000000000E+000
  0.000000000000000E+000
  0.000000000000000E+000
  0.000000000000000E+000
  0.000000000000000E+000
  0.000000000000000E+000
  0.000000000000000E+000
  0.000000000000000E+000
  0.000000000000000E+000
  0.000000000000000E+000
  0.000000000000000E+000
  0.000000000000000E+000
  0.000000000000000E+000
  0.000000000000000E+000
  0.000000000000000E+000
  0.000000000000000E+000
  0.000000000000000E+000
  0.000000000000000E+000
  0.000000000000000E+000
  0.000000000000000E+000
  0.000000000000000E+000
  0.000000000000000E+000
  0.000000000000000E+000
  0.000000000000000E+000
  0.000000000000000E+000
  0.000000000000000E+000
  0.000000000000000E+000
  0.000000000000000E+000
  0.000000000000000E+000
  0.000000000000000E+000
  0.000000000000000E+000
  0.000000000000000E+000
  0.000000000000000E+000
  0.000000000000000E+000
  0.000000000000000E+000
  0.000000000000000E+000
  0.000000000000000E+000
  0.000000000000000E+000
  0.000000000000000E+000
  0.000000000000000E+000
  0.000000000000000E+000
  0.000000000000000E+000
  0.000000000000000E+000
  0.000000000000000E+000
  0.000000000000000E+000
  0.000000000000000E+000
  0.000000000000000E+000
  0.000000000000000E+000
  0.000000000000000E+000
  0.000000000000000E+000
  0.000000000000000E+000
  0.000000000000000E+000
  0.000000000000000E+000
  0.000000000000000E+000
  0.000000000000000E+000
  0.000000000000000E+000
  0.000000000000000E+000
  0.000000000000000E+000
  0.000000000000000E+000
  0.000000000000000E+000
  0.000000000000000E+000
  0.000000000000000E+000
  0.000000000000000E+000
  0.000000000000000E+000
  0.000000000000000E+000
  0.000000000000000E+000
  0.000000000000000E+000
  0.000000000000000E+000
  0.000000000000000E+000
  0.000000000000000E+000
  0.000000000000000E+000
  0.000000000000000E+000
  0.000000000000000E+000
  0.000000000000000E+000
  0.000000000000000E+000
  0.000000000000000E+000
  0.000000000000000E+000
  0.000000000000000E+000
  0.000000000000000E+000
  0.000000000000000E+000
  0.000000000000000E+000
  0.000000000000000E+000
  0.000000000000000E+000
  0.000000000000000E+000
  0.000000000000000E+000
  0.000000000000000E+000
  0.000000000000000E+000
  0.000000000000000E+000
  0.000000000000000E+000
  0.000000000000000E+000
  0.000000000000000E+000
  0.000000000000000E+000
  0.000000000000000E+000
  0.000000000000000E+000
  0.000000000000000E+000
  0.000000000000000E+000
  0.000000000000000E+000
  0.000000000000000E+000
  0.000000000000000E+000
  0.000000000000000E+000
  0.000000000000000E+000
  0.000000000000000E+000
  0.000000000000000E+000
  0.000000000000000E+000
  0.000000000000000E+000
  0.000000000000000E+000
  0.000000000000000E+000
  0.000000000000000E+000
  0.000000000000000E+000
  0.000000000000000E+000
  0.000000000000000E+000
  0.000000000000000E+000
  0.000000000000000E+000
  0.000000000000000E+000
  0.000000000000000E+000
  0.000000000000000E+000
  0.000000000000000E+000
  0.000000000000000E+000
  0.000000000000000E+000
  0.000000000000000E+000
  0.000000000000000E+000
  0.000000000000000E+000
  0.000000000000000E+000
  0.000000000000000E+000
  0.000000000000000E+000
  0.000000000000000E+000
  0.000000000000000E+000
  0.000000000000000E+000
  0.000000000000000E+000
  0.000000000000000E+000
  0.000000000000000E+000
  0.000000000000000E+000
  0.000000000000000E+000
  0.000000000000000E+000
  0.000000000000000E+000
  0.000000000000000E+000
  0.000000000000000E+000
  0.000000000000000E+000
  0.000000000000000E+000
  0.000000000000000E+000
  0.000000000000000E+000
  0.000000000000000E+000
  0.000000000000000E+000
  0.000000000000000E+000
  0.000000000000000E+000
  0.000000000000000E+000
  0.000000000000000E+000
  0.000000000000000E+000
  0.000000000000000E+000
  0.000000000000000E+000
  0.000000000000000E+000
  0.000000000000000E+000
  0.000000000000000E+000
  0.000000000000000E+000
  0.000000000000000E+000
  0.000000000000000E+000
  0.000000000000000E+000
  0.000000000000000E+000
  0.000000000000000E+000
  0.000000000000000E+000
  0.000000000000000E+000
  0.000000000000000E+000
  0.000000000000000E+000
  0.000000000000000E+000
  0.000000000000000E+000
  0.000000000000000E+000
  0.000000000000000E+000
  0.000000000000000E+000
  0.000000000000000E+000
  0.000000000000000E+000
  0.000000000000000E+000
  0.000000000000000E+000
  0.000000000000000E+000
  0.000000000000000E+000
  0.000000000000000E+000
  0.000000000000000E+000
  0.000000000000000E+000
  0.000000000000000E+000
  0.000000000000000E+000
  0.000000000000000E+000
  0.000000000000000E+000
  0.000000000000000E+000
  0.000000000000000E+000
  0.000000000000000E+000
  0.000000000000000E+000
  0.000000000000000E+000
  0.000000000000000E+000
  0.000000000000000E+000
  0.000000000000000E+000
  0.000000000000000E+000
  0.000000000000000E+000
  0.000000000000000E+000
  0.000000000000000E+000
  0.000000000000000E+000
  0.000000000000000E+000
  0.000000000000000E+000
  0.000000000000000E+000
  0.000000000000000E+000
  0.000000000000000E+000
  0.000000000000000E+000
  0.000000000000000E+000
  0.000000000000000E+000
  0.000000000000000E+000
  0.000000000000000E+000
  0.000000000000000E+000
  0.000000000000000E+000
  0.000000000000000E+000
  0.000000000000000E+000
  0.000000000000000E+000
  0.000000000000000E+000
  0.000000000000000E+000
  0.000000000000000E+000
  0.000000000000000E+000
  0.000000000000000E+000
  0.000000000000000E+000
  0.000000000000000E+000
  0.000000000000000E+000
  0.000000000000000E+000
  0.000000000000000E+000
  0.000000000000000E+000
  0.000000000000000E+000
  0.000000000000000E+000
  0.000000000000000E+000
  0.000000000000000E+000
  0.000000000000000E+000
  0.000000000000000E+000
  0.000000000000000E+000
  0.000000000000000E+000
  0.000000000000000E+000
  0.000000000000000E+000
  0.000000000000000E+000
  0.000000000000000E+000
  0.000000000000000E+000
  0.000000000000000E+000
  0.000000000000000E+000
  0.000000000000000E+000
  0.000000000000000E+000
  0.000000000000000E+000
  0.000000000000000E+000
  0.000000000000000E+000
  0.000000000000000E+000
  0.000000000000000E+000
  0.000000000000000E+000
  0.000000000000000E+000
  0.000000000000000E+000
  0.000000000000000E+000
  0.000000000000000E+000
  0.000000000000000E+000
  0.000000000000000E+000
  0.000000000000000E+000
  0.000000000000000E+000
  0.000000000000000E+000
  0.000000000000000E+000
  0.000000000000000E+000
  0.000000000000000E+000
  0.000000000000000E+000
  0.000000000000000E+000
  0.000000000000000E+000
  0.000000000000000E+000
  0.000000000000000E+000
  0.000000000000000E+000
  0.000000000000000E+000
  0.000000000000000E+000
  0.000000000000000E+000
  0.000000000000000E+000
  0.000000000000000E+000
  0.000000000000000E+000
  0.000000000000000E+000
  0.000000000000000E+000
  0.000000000000000E+000
  0.000000000000000E+000
  0.000000000000000E+000
  0.000000000000000E+000
  0.000000000000000E+000
  0.000000000000000E+000
  0.000000000000000E+000
  0.000000000000000E+000
  0.000000000000000E+000
  0.000000000000000E+000
  0.000000000000000E+000
  0.000000000000000E+000
  0.000000000000000E+000
  0.000000000000000E+000
  0.000000000000000E+000
  0.000000000000000E+000
  0.000000000000000E+000
  0.000000000000000E+000
  0.000000000000000E+000
  0.000000000000000E+000
  0.000000000000000E+000
  0.000000000000000E+000
  0.000000000000000E+000
  0.000000000000000E+000
  0.000000000000000E+000
  0.000000000000000E+000
  0.000000000000000E+000
  0.000000000000000E+000
  0.000000000000000E+000
  0.000000000000000E+000
  0.000000000000000E+000
  0.000000000000000E+000
  0.000000000000000E+000
  0.000000000000000E+000
  0.000000000000000E+000
  0.000000000000000E+000
  0.000000000000000E+000
  0.000000000000000E+000
  0.000000000000000E+000
  0.000000000000000E+000
  0.000000000000000E+000
  0.000000000000000E+000
  0.000000000000000E+000
  0.000000000000000E+000
  0.000000000000000E+000
  0.000000000000000E+000
  0.000000000000000E+000
  0.000000000000000E+000
  0.000000000000000E+000
  0.000000000000000E+000
  0.000000000000000E+000
  0.000000000000000E+000
  0.000000000000000E+000
  0.000000000000000E+000
  0.000000000000000E+000
  0.000000000000000E+000
  0.000000000000000E+000
  0.000000000000000E+000
  0.000000000000000E+000
  0.000000000000000E+000
  0.000000000000000E+000
  0.000000000000000E+000
  0.000000000000000E+000
  0.000000000000000E+000
  0.000000000000000E+000
  0.000000000000000E+000
  0.000000000000000E+000
  0.000000000000000E+000
  0.000000000000000E+000
  0.000000000000000E+000
  0.000000000000000E+000
  0.000000000000000E+000
  0.000000000000000E+000
  0.000000000000000E+000
  0.000000000000000E+000
  0.000000000000000E+000
  0.000000000000000E+000
  0.000000000000000E+000
  0.000000000000000E+000
  0.000000000000000E+000
  0.000000000000000E+000
  0.000000000000000E+000
  0.000000000000000E+000
  0.000000000000000E+000
  0.000000000000000E+000
  0.000000000000000E+000
  0.000000000000000E+000
  0.000000000000000E+000
  0.000000000000000E+000
  0.000000000000000E+000
  0.000000000000000E+000
  0.000000000000000E+000
  0.000000000000000E+000
  0.000000000000000E+000
  0.000000000000000E+000
  0.000000000000000E+000
  0.000000000000000E+000
  0.000000000000000E+000
  0.000000000000000E+000
  0.000000000000000E+000
  0.000000000000000E+000
  0.000000000000000E+000
  0.000000000000000E+000
  0.000000000000000E+000
  0.000000000000000E+000
  0.000000000000000E+000
  0.000000000000000E+000
  0.000000000000000E+000
  0.000000000000000E+000
  0.000000000000000E+000
  0.000000000000000E+000
  0.000000000000000E+000
  0.000000000000000E+000
  0.000000000000000E+000
  0.000000000000000E+000
  0.000000000000000E+000
  0.000000000000000E+000
  0.000000000000000E+000
  0.000000000000000E+000
  0.000000000000000E+000
  0.000000000000000E+000
  0.000000000000000E+000
  0.000000000000000E+000
  0.000000000000000E+000
  0.000000000000000E+000
  0.000000000000000E+000
  0.000000000000000E+000
  0.000000000000000E+000
  0.000000000000000E+000
  0.000000000000000E+000
  0.000000000000000E+000
  0.000000000000000E+000
  0.000000000000000E+000
  0.000000000000000E+000
  0.000000000000000E+000
  0.000000000000000E+000
  0.000000000000000E+000
  0.000000000000000E+000
  0.000000000000000E+000
  0.000000000000000E+000
  0.000000000000000E+000
  0.000000000000000E+000
  0.000000000000000E+000
  0.000000000000000E+000
  0.000000000000000E+000
  0.000000000000000E+000
  0.000000000000000E+000
  0.000000000000000E+000
  0.000000000000000E+000
  0.000000000000000E+000
  0.000000000000000E+000
  0.000000000000000E+000
  0.000000000000000E+000
  0.000000000000000E+000
  0.000000000000000E+000
  0.000000000000000E+000
  0.000000000000000E+000
  0.000000000000000E+000
  0.000000000000000E+000
  0.000000000000000E+000
  0.000000000000000E+000
  0.000000000000000E+000
  0.000000000000000E+000
  0.000000000000000E+000
  0.000000000000000E+000
  0.000000000000000E+000
  0.000000000000000E+000
  0.000000000000000E+000
  0.000000000000000E+000
  0.000000000000000E+000
  0.000000000000000E+000
  0.000000000000000E+000
  0.000000000000000E+000
  0.000000000000000E+000
  0.000000000000000E+000
  0.000000000000000E+000
  0.000000000000000E+000
  0.000000000000000E+000
  0.000000000000000E+000
  0.000000000000000E+000
  0.000000000000000E+000
  0.000000000000000E+000
  0.000000000000000E+000
  0.000000000000000E+000
  0.000000000000000E+000
  0.000000000000000E+000
  0.000000000000000E+000
  0.000000000000000E+000
  0.000000000000000E+000
  0.000000000000000E+000
  0.000000000000000E+000
  0.000000000000000E+000
  0.000000000000000E+000
  0.000000000000000E+000
  0.000000000000000E+000
  0.000000000000000E+000
  0.000000000000000E+000
  0.000000000000000E+000
  0.000000000000000E+000
  0.000000000000000E+000
  0.000000000000000E+000
  0.000000000000000E+000
  0.000000000000000E+000
  0.000000000000000E+000
  0.000000000000000E+000
  0.000000000000000E+000
  0.000000000000000E+000
  0.000000000000000E+000
  0.000000000000000E+000
  0.000000000000000E+000
  0.000000000000000E+000
  0.000000000000000E+000
  0.000000000000000E+000
  0.000000000000000E+000
  0.000000000000000E+000
  0.000000000000000E+000
  0.000000000000000E+000
  0.000000000000000E+000
  0.000000000000000E+000
  0.000000000000000E+000
  0.000000000000000E+000
  0.000000000000000E+000
  0.000000000000000E+000
  0.000000000000000E+000
  0.000000000000000E+000
  0.000000000000000E+000
  0.000000000000000E+000
  0.000000000000000E+000
  0.000000000000000E+000
  0.000000000000000E+000
  0.000000000000000E+000
  0.000000000000000E+000
  0.000000000000000E+000
  0.000000000000000E+000
  0.000000000000000E+000
  0.000000000000000E+000
  0.000000000000000E+000
  0.000000000000000E+000
  0.000000000000000E+000
  0.000000000000000E+000
  0.000000000000000E+000
  0.000000000000000E+000
  0.000000000000000E+000
  0.000000000000000E+000
  0.000000000000000E+000
  0.000000000000000E+000
  0.000000000000000E+000
  0.000000000000000E+000
  0.000000000000000E+000
  0.000000000000000E+000
  0.000000000000000E+000
  0.000000000000000E+000
  0.000000000000000E+000
  0.000000000000000E+000
  0.000000000000000E+000
  0.000000000000000E+000
  0.000000000000000E+000
  0.000000000000000E+000
  0.000000000000000E+000
  0.000000000000000E+000
  0.000000000000000E+000
  0.000000000000000E+000
  0.000000000000000E+000
  0.000000000000000E+000
  0.000000000000000E+000
  0.000000000000000E+000
  0.000000000000000E+000
  0.000000000000000E+000
  0.000000000000000E+000
  0.000000000000000E+000
  0.000000000000000E+000
  0.000000000000000E+000
  0.000000000000000E+000
  0.000000000000000E+000
  0.000000000000000E+000
  0.000000000000000E+000
  0.000000000000000E+000
  0.000000000000000E+000
  0.000000000000000E+000
  0.000000000000000E+000
  0.000000000000000E+000
  0.000000000000000E+000
  0.000000000000000E+000
  0.000000000000000E+000
  0.000000000000000E+000
  0.000000000000000E+000
  0.000000000000000E+000
  0.000000000000000E+000
  0.000000000000000E+000
  0.000000000000000E+000
  0.000000000000000E+000
  0.000000000000000E+000
  0.000000000000000E+000
  0.000000000000000E+000
  0.000000000000000E+000
  0.000000000000000E+000
  0.000000000000000E+000
  0.000000000000000E+000
  0.000000000000000E+000
  0.000000000000000E+000
  0.000000000000000E+000
  0.000000000000000E+000
  0.000000000000000E+000
  0.000000000000000E+000
  0.000000000000000E+000
  0.000000000000000E+000
  0.000000000000000E+000
  0.000000000000000E+000
  0.000000000000000E+000
  0.000000000000000E+000
  0.000000000000000E+000
  0.000000000000000E+000
  0.000000000000000E+000
  0.000000000000000E+000
  0.000000000000000E+000
  0.000000000000000E+000
  0.000000000000000E+000
  0.000000000000000E+000
  0.000000000000000E+000
  0.000000000000000E+000
  0.000000000000000E+000
  0.000000000000000E+000
  0.000000000000000E+000
  0.000000000000000E+000
  0.000000000000000E+000
  0.000000000000000E+000
  0.000000000000000E+000
  0.000000000000000E+000
  0.000000000000000E+000
  0.000000000000000E+000
  0.000000000000000E+000
  0.000000000000000E+000
  0.000000000000000E+000
  0.000000000000000E+000
  0.000000000000000E+000
  0.000000000000000E+000
  0.000000000000000E+000
  0.000000000000000E+000
  0.000000000000000E+000
  0.000000000000000E+000
  0.000000000000000E+000
  0.000000000000000E+000
  0.000000000000000E+000
  0.000000000000000E+000
  0.000000000000000E+000
  0.000000000000000E+000
  0.000000000000000E+000
  0.000000000000000E+000
  0.000000000000000E+000
  0.000000000000000E+000
  0.000000000000000E+000
  0.000000000000000E+000
  0.000000000000000E+000
  0.000000000000000E+000
  0.000000000000000E+000
  0.000000000000000E+000
  0.000000000000000E+000
  0.000000000000000E+000
  0.000000000000000E+000
  0.000000000000000E+000
  0.000000000000000E+000
  0.000000000000000E+000
  0.000000000000000E+000
  0.000000000000000E+000
  0.000000000000000E+000
  0.000000000000000E+000
  0.000000000000000E+000
  0.000000000000000E+000
  0.000000000000000E+000
  0.000000000000000E+000
  0.000000000000000E+000
  0.000000000000000E+000
  0.000000000000000E+000
  0.000000000000000E+000
  0.000000000000000E+000
  0.000000000000000E+000
  0.000000000000000E+000
  0.000000000000000E+000
  0.000000000000000E+000
  0.000000000000000E+000
  0.000000000000000E+000
  0.000000000000000E+000
  0.000000000000000E+000
  0.000000000000000E+000
  0.000000000000000E+000
  0.000000000000000E+000
  0.000000000000000E+000
  0.000000000000000E+000
  0.000000000000000E+000
  0.000000000000000E+000
  0.000000000000000E+000
  0.000000000000000E+000
  0.000000000000000E+000
  0.000000000000000E+000
  0.000000000000000E+000
  0.000000000000000E+000
  0.000000000000000E+000
  0.000000000000000E+000
  0.000000000000000E+000
  0.000000000000000E+000
  0.000000000000000E+000
  0.000000000000000E+000
  0.000000000000000E+000
  0.000000000000000E+000
  0.000000000000000E+000
  0.000000000000000E+000
  0.000000000000000E+000
  0.000000000000000E+000
  0.000000000000000E+000
  0.000000000000000E+000
  0.000000000000000E+000
  0.000000000000000E+000
  0.000000000000000E+000
  0.000000000000000E+000
  0.000000000000000E+000
  0.000000000000000E+000
  0.000000000000000E+000
  0.000000000000000E+000
  0.000000000000000E+000
  0.000000000000000E+000
  0.000000000000000E+000
  0.000000000000000E+000
  0.000000000000000E+000
  0.000000000000000E+000
  0.000000000000000E+000
  0.000000000000000E+000
  0.000000000000000E+000
  0.000000000000000E+000
  0.000000000000000E+000
  0.000000000000000E+000
  0.000000000000000E+000
  0.000000000000000E+000
  0.000000000000000E+000
  0.000000000000000E+000
  0.000000000000000E+000
  0.000000000000000E+000
  0.000000000000000E+000
  0.000000000000000E+000
  0.000000000000000E+000
  0.000000000000000E+000
  0.000000000000000E+000
  0.000000000000000E+000
  0.000000000000000E+000
  0.000000000000000E+000
  0.000000000000000E+000
  0.000000000000000E+000
  0.000000000000000E+000
  0.000000000000000E+000
  0.000000000000000E+000
  0.000000000000000E+000
  0.000000000000000E+000
SCALARS poroL double 
LOOKUP_TABLE default
   1.62478165471921     
  0.124781654719209     
  0.124781654719209     
  0.124781654719209     
  0.124781654719209     
  0.124781654719209     
  0.124781654719209     
  0.124781654719209     
  0.124781654719209     
  0.124781654719209     
  0.124781654719209     
  0.124781654719209     
  0.124781654719209     
  0.124781654719209     
  0.124781654719209     
   1.62478130391574     
  0.124781303915738     
  0.124781303915738     
  0.124781303915738     
  0.124781303915738     
  0.124781303915738     
  0.124781303915738     
  0.124781303915738     
  0.124781303915738     
  0.124781303915738     
  0.124781303915738     
  0.124781303915738     
  0.124781303915738     
  0.124781303915738     
  0.124781303915738     
   1.62478060185782     
  0.124780601857822     
  0.124780601857822     
  0.124780601857822     
  0.124780601857822     
  0.124780601857822     
  0.124780601857822     
  0.124780601857822     
  0.124780601857822     
  0.124780601857822     
  0.124780601857822     
  0.124780601857822     
  0.124780601857822     
  0.124780601857822     
  0.124780601857822     
   1.62477954764341     
  0.124779547643409     
  0.124779547643409     
  0.124779547643409     
  0.124779547643409     
  0.124779547643409     
  0.124779547643409     
  0.124779547643409     
  0.124779547643409     
  0.124779547643409     
  0.124779547643409     
  0.124779547643409     
  0.124779547643409     
  0.124779547643409     
  0.124779547643409     
   1.62477813991917     
  0.124778139919169     
  0.124778139919169     
  0.124778139919169     
  0.124778139919169     
  0.124778139919169     
  0.124778139919169     
  0.124778139919169     
  0.124778139919169     
  0.124778139919169     
  0.124778139919169     
  0.124778139919169     
  0.124778139919169     
  0.124778139919169     
  0.124778139919169     
   1.62477637688019     
  0.124776376880193     
  0.124776376880193     
  0.124776376880193     
  0.124776376880193     
  0.124776376880193     
  0.124776376880193     
  0.124776376880193     
  0.124776376880193     
  0.124776376880193     
  0.124776376880193     
  0.124776376880193     
  0.124776376880193     
  0.124776376880193     
  0.124776376880193     
   1.62477425626961     
  0.124774256269610     
  0.124774256269610     
  0.124774256269610     
  0.124774256269610     
  0.124774256269610     
  0.124774256269610     
  0.124774256269610     
  0.124774256269610     
  0.124774256269610     
  0.124774256269610     
  0.124774256269610     
  0.124774256269610     
  0.124774256269610     
  0.124774256269610     
   1.62477177537812     
  0.124771775378122     
  0.124771775378122     
  0.124771775378123     
  0.124771775378122     
  0.124771775378122     
  0.124771775378122     
  0.124771775378122     
  0.124771775378122     
  0.124771775378122     
  0.124771775378122     
  0.124771775378122     
  0.124771775378122     
  0.124771775378122     
  0.124771775378122     
   1.62476893104348     
  0.124768931043477     
  0.124768931043476     
  0.124768931043476     
  0.124768931043476     
  0.124768931043476     
  0.124768931043476     
  0.124768931043476     
  0.124768931043476     
  0.124768931043476     
  0.124768931043476     
  0.124768931043476     
  0.124768931043476     
  0.124768931043476     
  0.124768931043476     
   1.62476571964988     
  0.124765719649882     
  0.124765719649882     
  0.124765719649882     
  0.124765719649882     
  0.124765719649882     
  0.124765719649882     
  0.124765719649882     
  0.124765719649882     
  0.124765719649882     
  0.124765719649882     
  0.124765719649882     
  0.124765719649882     
  0.124765719649882     
  0.124765719649882     
   1.62476213712740     
  0.124762137127399     
  0.124762137127399     
  0.124762137127399     
  0.124762137127399     
  0.124762137127399     
  0.124762137127399     
  0.124762137127399     
  0.124762137127399     
  0.124762137127399     
  0.124762137127399     
  0.124762137127399     
  0.124762137127399     
  0.124762137127399     
  0.124762137127399     
   1.62475817895132     
  0.124758178951316     
  0.124758178951316     
  0.124758178951316     
  0.124758178951316     
  0.124758178951316     
  0.124758178951316     
  0.124758178951316     
  0.124758178951316     
  0.124758178951316     
  0.124758178951316     
  0.124758178951316     
  0.124758178951316     
  0.124758178951316     
  0.124758178951316     
   1.62475384014153     
  0.124753840141528     
  0.124753840141528     
  0.124753840141528     
  0.124753840141528     
  0.124753840141528     
  0.124753840141528     
  0.124753840141528     
  0.124753840141528     
  0.124753840141528     
  0.124753840141528     
  0.124753840141528     
  0.124753840141528     
  0.124753840141528     
  0.124753840141528     
   1.62474911526197     
  0.124749115261967     
  0.124749115261967     
  0.124749115261967     
  0.124749115261967     
  0.124749115261967     
  0.124749115261967     
  0.124749115261967     
  0.124749115261967     
  0.124749115261967     
  0.124749115261967     
  0.124749115261967     
  0.124749115261967     
  0.124749115261967     
  0.124749115261967     
   1.62474399842009     
  0.124743998420087     
  0.124743998420087     
  0.124743998420087     
  0.124743998420087     
  0.124743998420087     
  0.124743998420087     
  0.124743998420087     
  0.124743998420087     
  0.124743998420087     
  0.124743998420087     
  0.124743998420087     
  0.124743998420087     
  0.124743998420087     
  0.124743998420087     
   1.62473848326645     
  0.124738483266450     
  0.124738483266450     
  0.124738483266450     
  0.124738483266450     
  0.124738483266450     
  0.124738483266450     
  0.124738483266450     
  0.124738483266450     
  0.124738483266450     
  0.124738483266450     
  0.124738483266450     
  0.124738483266450     
  0.124738483266450     
  0.124738483266450     
   1.62473256299446     
  0.124732562994456     
  0.124732562994457     
  0.124732562994457     
  0.124732562994457     
  0.124732562994457     
  0.124732562994457     
  0.124732562994457     
  0.124732562994457     
  0.124732562994457     
  0.124732562994457     
  0.124732562994457     
  0.124732562994457     
  0.124732562994457     
  0.124732562994457     
   1.62472623034024     
  0.124726230340237     
  0.124726230340237     
  0.124726230340237     
  0.124726230340237     
  0.124726230340237     
  0.124726230340237     
  0.124726230340237     
  0.124726230340237     
  0.124726230340237     
  0.124726230340237     
  0.124726230340237     
  0.124726230340237     
  0.124726230340237     
  0.124726230340237     
   1.62471947758277     
  0.124719477582772     
  0.124719477582772     
  0.124719477582772     
  0.124719477582772     
  0.124719477582772     
  0.124719477582772     
  0.124719477582772     
  0.124719477582772     
  0.124719477582772     
  0.124719477582772     
  0.124719477582772     
  0.124719477582772     
  0.124719477582772     
  0.124719477582772     
   1.62471229654427     
  0.124712296544273     
  0.124712296544273     
  0.124712296544273     
  0.124712296544273     
  0.124712296544273     
  0.124712296544273     
  0.124712296544273     
  0.124712296544273     
  0.124712296544273     
  0.124712296544273     
  0.124712296544273     
  0.124712296544273     
  0.124712296544273     
  0.124712296544273     
   1.62470467859088     
  0.124704678590881     
  0.124704678590880     
  0.124704678590880     
  0.124704678590880     
  0.124704678590880     
  0.124704678590881     
  0.124704678590880     
  0.124704678590880     
  0.124704678590880     
  0.124704678590880     
  0.124704678590880     
  0.124704678590880     
  0.124704678590880     
  0.124704678590880     
   1.62469661463374     
  0.124696614633734     
  0.124696614633734     
  0.124696614633734     
  0.124696614633734     
  0.124696614633734     
  0.124696614633734     
  0.124696614633734     
  0.124696614633734     
  0.124696614633734     
  0.124696614633734     
  0.124696614633734     
  0.124696614633734     
  0.124696614633734     
  0.124696614633734     
   1.62468809513048     
  0.124688095130476     
  0.124688095130476     
  0.124688095130476     
  0.124688095130475     
  0.124688095130476     
  0.124688095130476     
  0.124688095130476     
  0.124688095130476     
  0.124688095130476     
  0.124688095130475     
  0.124688095130476     
  0.124688095130476     
  0.124688095130476     
  0.124688095130476     
   1.62467911008725     
  0.124679110087248     
  0.124679110087249     
  0.124679110087249     
  0.124679110087249     
  0.124679110087249     
  0.124679110087249     
  0.124679110087249     
  0.124679110087249     
  0.124679110087249     
  0.124679110087249     
  0.124679110087249     
  0.124679110087249     
  0.124679110087249     
  0.124679110087249     
   1.62466964906126     
  0.124669649061264     
  0.124669649061264     
  0.124669649061264     
  0.124669649061264     
  0.124669649061264     
  0.124669649061264     
  0.124669649061264     
  0.124669649061264     
  0.124669649061264     
  0.124669649061264     
  0.124669649061264     
  0.124669649061264     
  0.124669649061264     
  0.124669649061264     
   1.62465970116401     
  0.124659701164009     
  0.124659701164009     
  0.124659701164009     
  0.124659701164009     
  0.124659701164009     
  0.124659701164009     
  0.124659701164009     
  0.124659701164009     
  0.124659701164009     
  0.124659701164009     
  0.124659701164009     
  0.124659701164009     
  0.124659701164009     
  0.124659701164009     
   1.62464925506518     
  0.124649255065174     
  0.124649255065174     
  0.124649255065174     
  0.124649255065174     
  0.124649255065174     
  0.124649255065174     
  0.124649255065174     
  0.124649255065174     
  0.124649255065174     
  0.124649255065174     
  0.124649255065174     
  0.124649255065174     
  0.124649255065174     
  0.124649255065174     
   1.62463829899739     
  0.124638298997394     
  0.124638298997394     
  0.124638298997394     
  0.124638298997394     
  0.124638298997394     
  0.124638298997394     
  0.124638298997394     
  0.124638298997394     
  0.124638298997394     
  0.124638298997394     
  0.124638298997394     
  0.124638298997394     
  0.124638298997394     
  0.124638298997394     
   1.62462682076189     
  0.124626820761886     
  0.124626820761886     
  0.124626820761886     
  0.124626820761886     
  0.124626820761886     
  0.124626820761886     
  0.124626820761886     
  0.124626820761886     
  0.124626820761886     
  0.124626820761886     
  0.124626820761886     
  0.124626820761886     
  0.124626820761886     
  0.124626820761886     
   1.62461480773508     
  0.124614807735082     
  0.124614807735082     
  0.124614807735082     
  0.124614807735082     
  0.124614807735082     
  0.124614807735082     
  0.124614807735082     
  0.124614807735082     
  0.124614807735082     
  0.124614807735082     
  0.124614807735082     
  0.124614807735082     
  0.124614807735082     
  0.124614807735082     
   1.62460224687637     
  0.124602246876370     
  0.124602246876371     
  0.124602246876371     
  0.124602246876371     
  0.124602246876371     
  0.124602246876371     
  0.124602246876371     
  0.124602246876371     
  0.124602246876371     
  0.124602246876371     
  0.124602246876371     
  0.124602246876371     
  0.124602246876371     
  0.124602246876371     
   1.62458912473705     
  0.124589124737050     
  0.124589124737050     
  0.124589124737050     
  0.124589124737050     
  0.124589124737050     
  0.124589124737050     
  0.124589124737050     
  0.124589124737050     
  0.124589124737050     
  0.124589124737050     
  0.124589124737050     
  0.124589124737050     
  0.124589124737050     
  0.124589124737050     
   1.62457542747061     
  0.124575427470610     
  0.124575427470609     
  0.124575427470609     
  0.124575427470609     
  0.124575427470609     
  0.124575427470609     
  0.124575427470609     
  0.124575427470609     
  0.124575427470609     
  0.124575427470609     
  0.124575427470609     
  0.124575427470609     
  0.124575427470609     
  0.124575427470609     
   1.62456114084447     
  0.124561140844472     
  0.124561140844472     
  0.124561140844472     
  0.124561140844472     
  0.124561140844472     
  0.124561140844472     
  0.124561140844472     
  0.124561140844472     
  0.124561140844472     
  0.124561140844472     
  0.124561140844472     
  0.124561140844472     
  0.124561140844472     
  0.124561140844472     
   1.62454625025332     
  0.124546250253324     
  0.124546250253324     
  0.124546250253324     
  0.124546250253324     
  0.124546250253324     
  0.124546250253324     
  0.124546250253324     
  0.124546250253324     
  0.124546250253324     
  0.124546250253324     
  0.124546250253324     
  0.124546250253324     
  0.124546250253324     
  0.124546250253324     
   1.62453074073417     
  0.124530740734172     
  0.124530740734172     
  0.124530740734172     
  0.124530740734172     
  0.124530740734172     
  0.124530740734172     
  0.124530740734172     
  0.124530740734172     
  0.124530740734172     
  0.124530740734172     
  0.124530740734172     
  0.124530740734172     
  0.124530740734172     
  0.124530740734172     
   1.62451459698328     
  0.124514596983276     
  0.124514596983276     
  0.124514596983276     
  0.124514596983276     
  0.124514596983276     
  0.124514596983276     
  0.124514596983276     
  0.124514596983276     
  0.124514596983276     
  0.124514596983276     
  0.124514596983276     
  0.124514596983276     
  0.124514596983276     
  0.124514596983276     
   1.62449780337511     
  0.124497803375111     
  0.124497803375111     
  0.124497803375111     
  0.124497803375111     
  0.124497803375111     
  0.124497803375111     
  0.124497803375111     
  0.124497803375111     
  0.124497803375111     
  0.124497803375111     
  0.124497803375111     
  0.124497803375110     
  0.124497803375111     
  0.124497803375111     
   1.62448034398351     
  0.124480343983515     
  0.124480343983516     
  0.124480343983515     
  0.124480343983515     
  0.124480343983516     
  0.124480343983515     
  0.124480343983515     
  0.124480343983516     
  0.124480343983515     
  0.124480343983515     
  0.124480343983515     
  0.124480343983515     
  0.124480343983515     
  0.124480343983516     
   1.62446220260521     
  0.124462202605207     
  0.124462202605207     
  0.124462202605207     
  0.124462202605207     
  0.124462202605207     
  0.124462202605207     
  0.124462202605207     
  0.124462202605207     
  0.124462202605207     
  0.124462202605207     
  0.124462202605207     
  0.124462202605207     
  0.124462202605207     
  0.124462202605207     
   1.62444336278582     
  0.124443362785821     
  0.124443362785821     
  0.124443362785821     
  0.124443362785821     
  0.124443362785821     
  0.124443362785821     
  0.124443362785821     
  0.124443362785821     
  0.124443362785821     
  0.124443362785821     
  0.124443362785821     
  0.124443362785821     
  0.124443362785821     
  0.124443362785821     
   1.62442380784868     
  0.124423807848676     
  0.124423807848676     
  0.124423807848676     
  0.124423807848676     
  0.124423807848676     
  0.124423807848676     
  0.124423807848676     
  0.124423807848676     
  0.124423807848676     
  0.124423807848676     
  0.124423807848676     
  0.124423807848676     
  0.124423807848676     
  0.124423807848676     
   1.62440352092643     
  0.124403520926435     
  0.124403520926435     
  0.124403520926435     
  0.124403520926435     
  0.124403520926435     
  0.124403520926435     
  0.124403520926435     
  0.124403520926435     
  0.124403520926435     
  0.124403520926435     
  0.124403520926435     
  0.124403520926435     
  0.124403520926436     
  0.124403520926435     
   1.62438248499587     
  0.124382484995870     
  0.124382484995870     
  0.124382484995870     
  0.124382484995870     
  0.124382484995870     
  0.124382484995870     
  0.124382484995870     
  0.124382484995870     
  0.124382484995870     
  0.124382484995870     
  0.124382484995870     
  0.124382484995870     
  0.124382484995870     
  0.124382484995870     
   1.62436068291592     
  0.124360682915920     
  0.124360682915920     
  0.124360682915920     
  0.124360682915920     
  0.124360682915920     
  0.124360682915920     
  0.124360682915920     
  0.124360682915920     
  0.124360682915920     
  0.124360682915920     
  0.124360682915920     
  0.124360682915920     
  0.124360682915920     
  0.124360682915920     
   1.62433809746925     
  0.124338097469249     
  0.124338097469249     
  0.124338097469249     
  0.124338097469249     
  0.124338097469250     
  0.124338097469249     
  0.124338097469249     
  0.124338097469249     
  0.124338097469249     
  0.124338097469250     
  0.124338097469249     
  0.124338097469250     
  0.124338097469250     
  0.124338097469249     
   1.62431471140750     
  0.124314711407503     
  0.124314711407503     
  0.124314711407503     
  0.124314711407503     
  0.124314711407503     
  0.124314711407503     
  0.124314711407503     
  0.124314711407503     
  0.124314711407503     
  0.124314711407503     
  0.124314711407503     
  0.124314711407503     
  0.124314711407503     
  0.124314711407503     
   1.62429050750047     
  0.124290507500475     
  0.124290507500475     
  0.124290507500474     
  0.124290507500474     
  0.124290507500474     
  0.124290507500475     
  0.124290507500475     
  0.124290507500475     
  0.124290507500475     
  0.124290507500475     
  0.124290507500475     
  0.124290507500474     
  0.124290507500475     
  0.124290507500475     
   1.62426546858938     
  0.124265468589380     
  0.124265468589380     
  0.124265468589379     
  0.124265468589380     
  0.124265468589380     
  0.124265468589379     
  0.124265468589380     
  0.124265468589380     
  0.124265468589379     
  0.124265468589380     
  0.124265468589380     
  0.124265468589380     
  0.124265468589380     
  0.124265468589380     
   1.62423957764444     
  0.124239577644441     
  0.124239577644440     
  0.124239577644441     
  0.124239577644441     
  0.124239577644441     
  0.124239577644441     
  0.124239577644441     
  0.124239577644441     
  0.124239577644441     
  0.124239577644441     
  0.124239577644441     
  0.124239577644441     
  0.124239577644441     
  0.124239577644441     
   1.62421281782697     
  0.124212817826977     
  0.124212817826976     
  0.124212817826976     
  0.124212817826976     
  0.124212817826976     
  0.124212817826977     
  0.124212817826977     
  0.124212817826976     
  0.124212817826976     
  0.124212817826976     
  0.124212817826976     
  0.124212817826976     
  0.124212817826977     
  0.124212817826977     
   1.62418517255618     
  0.124185172556178     
  0.124185172556178     
  0.124185172556177     
  0.124185172556177     
  0.124185172556177     
  0.124185172556178     
  0.124185172556178     
  0.124185172556178     
  0.124185172556178     
  0.124185172556177     
  0.124185172556177     
  0.124185172556177     
  0.124185172556178     
  0.124185172556177     
   1.62415662558075     
  0.124156625580745     
  0.124156625580745     
  0.124156625580745     
  0.124156625580745     
  0.124156625580745     
  0.124156625580744     
  0.124156625580745     
  0.124156625580745     
  0.124156625580745     
  0.124156625580745     
  0.124156625580745     
  0.124156625580744     
  0.124156625580745     
  0.124156625580745     
   1.62412716105554     
  0.124127161055539     
  0.124127161055540     
  0.124127161055540     
  0.124127161055540     
  0.124127161055540     
  0.124127161055540     
  0.124127161055540     
  0.124127161055540     
  0.124127161055540     
  0.124127161055540     
  0.124127161055540     
  0.124127161055540     
  0.124127161055540     
  0.124127161055540     
   1.62409676362338     
  0.124096763623384     
  0.124096763623384     
  0.124096763623384     
  0.124096763623384     
  0.124096763623384     
  0.124096763623384     
  0.124096763623384     
  0.124096763623384     
  0.124096763623384     
  0.124096763623384     
  0.124096763623384     
  0.124096763623384     
  0.124096763623384     
  0.124096763623384     
   1.62406541850211     
  0.124065418502107     
  0.124065418502107     
  0.124065418502107     
  0.124065418502108     
  0.124065418502107     
  0.124065418502107     
  0.124065418502107     
  0.124065418502107     
  0.124065418502107     
  0.124065418502107     
  0.124065418502107     
  0.124065418502107     
  0.124065418502107     
  0.124065418502107     
   1.62403311157692     
  0.124033111576923     
  0.124033111576923     
  0.124033111576923     
  0.124033111576923     
  0.124033111576923     
  0.124033111576923     
  0.124033111576923     
  0.124033111576923     
  0.124033111576923     
  0.124033111576923     
  0.124033111576923     
  0.124033111576923     
  0.124033111576923     
  0.124033111576923     
   1.62399982949815     
  0.123999829498152     
  0.123999829498152     
  0.123999829498152     
  0.123999829498152     
  0.123999829498152     
  0.123999829498152     
  0.123999829498152     
  0.123999829498152     
  0.123999829498152     
  0.123999829498152     
  0.123999829498152     
  0.123999829498152     
  0.123999829498152     
  0.123999829498152     
   1.62396555978428     
  0.123965559784283     
  0.123965559784283     
  0.123965559784283     
  0.123965559784283     
  0.123965559784283     
  0.123965559784283     
  0.123965559784283     
  0.123965559784283     
  0.123965559784283     
  0.123965559784283     
  0.123965559784283     
  0.123965559784283     
  0.123965559784283     
  0.123965559784283     
   1.62393029093029     
  0.123930290930291     
  0.123930290930291     
  0.123930290930290     
  0.123930290930291     
  0.123930290930291     
  0.123930290930291     
  0.123930290930291     
  0.123930290930291     
  0.123930290930291     
  0.123930290930291     
  0.123930290930291     
  0.123930290930291     
  0.123930290930291     
  0.123930290930291     
   1.62389401252106     
  0.123894012521065     
  0.123894012521065     
  0.123894012521065     
  0.123894012521065     
  0.123894012521064     
  0.123894012521064     
  0.123894012521064     
  0.123894012521064     
  0.123894012521064     
  0.123894012521065     
  0.123894012521065     
  0.123894012521064     
  0.123894012521065     
  0.123894012521065     
   1.62385671534973     
  0.123856715349732     
  0.123856715349732     
  0.123856715349732     
  0.123856715349732     
  0.123856715349732     
  0.123856715349732     
  0.123856715349732     
  0.123856715349732     
  0.123856715349732     
  0.123856715349731     
  0.123856715349731     
  0.123856715349732     
  0.123856715349732     
  0.123856715349732     
   1.62381839154056     
  0.123818391540554     
  0.123818391540554     
  0.123818391540554     
  0.123818391540554     
  0.123818391540554     
  0.123818391540554     
  0.123818391540554     
  0.123818391540554     
  0.123818391540554     
  0.123818391540554     
  0.123818391540554     
  0.123818391540554     
  0.123818391540554     
  0.123818391540554     
   1.62377903467599     
  0.123779034675990     
  0.123779034675990     
  0.123779034675990     
  0.123779034675990     
  0.123779034675990     
  0.123779034675990     
  0.123779034675990     
  0.123779034675990     
  0.123779034675990     
  0.123779034675990     
  0.123779034675990     
  0.123779034675990     
  0.123779034675990     
  0.123779034675990     
   1.62373863992738     
  0.123738639927383     
  0.123738639927383     
  0.123738639927383     
  0.123738639927383     
  0.123738639927383     
  0.123738639927383     
  0.123738639927383     
  0.123738639927383     
  0.123738639927383     
  0.123738639927383     
  0.123738639927383     
  0.123738639927383     
  0.123738639927383     
  0.123738639927383     
   1.62369720418862     
  0.123697204188623     
  0.123697204188622     
  0.123697204188622     
  0.123697204188622     
  0.123697204188622     
  0.123697204188623     
  0.123697204188623     
  0.123697204188623     
  0.123697204188623     
  0.123697204188623     
  0.123697204188622     
  0.123697204188622     
  0.123697204188623     
  0.123697204188623     
   1.62365472621196     
  0.123654726211955     
  0.123654726211955     
  0.123654726211956     
  0.123654726211956     
  0.123654726211955     
  0.123654726211955     
  0.123654726211955     
  0.123654726211955     
  0.123654726211955     
  0.123654726211955     
  0.123654726211955     
  0.123654726211955     
  0.123654726211955     
  0.123654726211955     
   1.62361120674500     
  0.123611206744996     
  0.123611206744996     
  0.123611206744996     
  0.123611206744996     
  0.123611206744996     
  0.123611206744996     
  0.123611206744996     
  0.123611206744996     
  0.123611206744996     
  0.123611206744996     
  0.123611206744996     
  0.123611206744996     
  0.123611206744996     
  0.123611206744995     
   1.62356664866777     
  0.123566648667775     
  0.123566648667775     
  0.123566648667775     
  0.123566648667775     
  0.123566648667775     
  0.123566648667775     
  0.123566648667775     
  0.123566648667775     
  0.123566648667775     
  0.123566648667775     
  0.123566648667775     
  0.123566648667776     
  0.123566648667775     
  0.123566648667775     
   1.62352105712851     
  0.123521057128507     
  0.123521057128508     
  0.123521057128508     
  0.123521057128507     
  0.123521057128507     
  0.123521057128508     
  0.123521057128508     
  0.123521057128507     
  0.123521057128508     
  0.123521057128507     
  0.123521057128508     
  0.123521057128507     
  0.123521057128507     
  0.123521057128508     
   1.62347443967653     
  0.123474439676526     
  0.123474439676527     
  0.123474439676526     
  0.123474439676526     
  0.123474439676526     
  0.123474439676526     
  0.123474439676526     
  0.123474439676526     
  0.123474439676526     
  0.123474439676526     
  0.123474439676526     
  0.123474439676526     
  0.123474439676526     
  0.123474439676526     
   1.62342680639065     
  0.123426806390647     
  0.123426806390647     
  0.123426806390647     
  0.123426806390647     
  0.123426806390647     
  0.123426806390647     
  0.123426806390647     
  0.123426806390647     
  0.123426806390647     
  0.123426806390647     
  0.123426806390647     
  0.123426806390647     
  0.123426806390647     
  0.123426806390647     
   1.62337817000098     
  0.123378170000979     
  0.123378170000979     
  0.123378170000979     
  0.123378170000979     
  0.123378170000979     
  0.123378170000979     
  0.123378170000979     
  0.123378170000979     
  0.123378170000979     
  0.123378170000979     
  0.123378170000979     
  0.123378170000979     
  0.123378170000979     
  0.123378170000979     
   1.62332854600199     
  0.123328546001993     
  0.123328546001993     
  0.123328546001993     
  0.123328546001993     
  0.123328546001993     
  0.123328546001993     
  0.123328546001993     
  0.123328546001993     
  0.123328546001993     
  0.123328546001993     
  0.123328546001993     
  0.123328546001993     
  0.123328546001993     
  0.123328546001993     
   1.62327795275441     
  0.123277952754413     
  0.123277952754413     
  0.123277952754412     
  0.123277952754412     
  0.123277952754412     
  0.123277952754412     
  0.123277952754412     
  0.123277952754412     
  0.123277952754412     
  0.123277952754412     
  0.123277952754412     
  0.123277952754412     
  0.123277952754413     
  0.123277952754412     
   1.62322641157331     
  0.123226411573310     
  0.123226411573310     
  0.123226411573310     
  0.123226411573310     
  0.123226411573310     
  0.123226411573310     
  0.123226411573310     
  0.123226411573310     
  0.123226411573310     
  0.123226411573310     
  0.123226411573310     
  0.123226411573309     
  0.123226411573309     
  0.123226411573310     
   1.62317394679957     
  0.123173946799564     
  0.123173946799565     
  0.123173946799564     
  0.123173946799564     
  0.123173946799564     
  0.123173946799564     
  0.123173946799564     
  0.123173946799564     
  0.123173946799564     
  0.123173946799564     
  0.123173946799564     
  0.123173946799564     
  0.123173946799564     
  0.123173946799564     
   1.62312058585170     
  0.123120585851700     
  0.123120585851700     
  0.123120585851700     
  0.123120585851700     
  0.123120585851700     
  0.123120585851700     
  0.123120585851700     
  0.123120585851700     
  0.123120585851700     
  0.123120585851700     
  0.123120585851700     
  0.123120585851699     
  0.123120585851699     
  0.123120585851699     
   1.62306635925500     
  0.123066359254997     
  0.123066359254997     
  0.123066359254997     
  0.123066359254997     
  0.123066359254997     
  0.123066359254997     
  0.123066359254998     
  0.123066359254997     
  0.123066359254997     
  0.123066359254997     
  0.123066359254997     
  0.123066359254997     
  0.123066359254997     
  0.123066359254997     
   1.62301130064473     
  0.123011300644727     
  0.123011300644727     
  0.123011300644728     
  0.123011300644728     
  0.123011300644728     
  0.123011300644728     
  0.123011300644728     
  0.123011300644728     
  0.123011300644728     
  0.123011300644728     
  0.123011300644728     
  0.123011300644728     
  0.123011300644728     
  0.123011300644728     
   1.62295544674039     
  0.122955446740385     
  0.122955446740385     
  0.122955446740385     
  0.122955446740385     
  0.122955446740385     
  0.122955446740385     
  0.122955446740385     
  0.122955446740385     
  0.122955446740385     
  0.122955446740385     
  0.122955446740385     
  0.122955446740385     
  0.122955446740385     
  0.122955446740385     
   1.62289883728795     
  0.122898837287951     
  0.122898837287951     
  0.122898837287950     
  0.122898837287950     
  0.122898837287950     
  0.122898837287950     
  0.122898837287951     
  0.122898837287951     
  0.122898837287950     
  0.122898837287951     
  0.122898837287951     
  0.122898837287950     
  0.122898837287950     
  0.122898837287951     
   1.62284151496749     
  0.122841514967487     
  0.122841514967487     
  0.122841514967487     
  0.122841514967487     
  0.122841514967487     
  0.122841514967487     
  0.122841514967487     
  0.122841514967488     
  0.122841514967487     
  0.122841514967487     
  0.122841514967487     
  0.122841514967487     
  0.122841514967487     
  0.122841514967487     
   1.62278352526383     
  0.122783525263826     
  0.122783525263826     
  0.122783525263825     
  0.122783525263826     
  0.122783525263826     
  0.122783525263825     
  0.122783525263826     
  0.122783525263825     
  0.122783525263826     
  0.122783525263826     
  0.122783525263826     
  0.122783525263826     
  0.122783525263826     
  0.122783525263826     
   1.62272491629871     
  0.122724916298709     
  0.122724916298709     
  0.122724916298709     
  0.122724916298709     
  0.122724916298709     
  0.122724916298709     
  0.122724916298709     
  0.122724916298709     
  0.122724916298709     
  0.122724916298709     
  0.122724916298709     
  0.122724916298709     
  0.122724916298709     
  0.122724916298709     
   1.62266573862364     
  0.122665738623637     
  0.122665738623638     
  0.122665738623638     
  0.122665738623638     
  0.122665738623638     
  0.122665738623638     
  0.122665738623637     
  0.122665738623637     
  0.122665738623638     
  0.122665738623638     
  0.122665738623638     
  0.122665738623638     
  0.122665738623638     
  0.122665738623638     
   1.62260604497371     
  0.122606044973708     
  0.122606044973709     
  0.122606044973708     
  0.122606044973708     
  0.122606044973708     
  0.122606044973708     
  0.122606044973708     
  0.122606044973708     
  0.122606044973708     
  0.122606044973709     
  0.122606044973709     
  0.122606044973708     
  0.122606044973709     
  0.122606044973709     
   1.62254588998406     
  0.122545889984060     
  0.122545889984059     
  0.122545889984059     
  0.122545889984060     
  0.122545889984060     
  0.122545889984060     
  0.122545889984060     
  0.122545889984060     
  0.122545889984059     
  0.122545889984060     
  0.122545889984060     
  0.122545889984060     
  0.122545889984060     
  0.122545889984060     
   1.62248532987205     
  0.122485329872045     
  0.122485329872045     
  0.122485329872045     
  0.122485329872045     
  0.122485329872045     
  0.122485329872045     
  0.122485329872045     
  0.122485329872045     
  0.122485329872045     
  0.122485329872045     
  0.122485329872045     
  0.122485329872045     
  0.122485329872045     
  0.122485329872045     
   1.62242442208991     
  0.122424422089909     
  0.122424422089907     
  0.122424422089909     
  0.122424422089910     
  0.122424422089909     
  0.122424422089908     
  0.122424422089908     
  0.122424422089908     
  0.122424422089908     
  0.122424422089909     
  0.122424422089908     
  0.122424422089908     
  0.122424422089909     
  0.122424422089909     
